# el_label, x, y, sXX, sYY, sZZ, sXY
1.000000000000000000e+00 7.881662750244140625e+01 8.834252357482910156e+00 1.801443583605670529e-14 -3.803047490097931360e-14 -6.004812227696550847e-15 -5.304250758780305885e-14
2.000000000000000000e+00 7.961771392822265625e+01 9.582721710205078125e+00 -2.652125379390152943e-14 1.716375387086563342e-13 4.353488801552528320e-14 5.304250758780305885e-14
3.000000000000000000e+00 7.808805847167968750e+01 9.580659866333007812e+00 1.551243095294137925e-14 2.952365863720038397e-14 1.351082687704252897e-14 -2.902325867701685547e-14
4.000000000000000000e+00 7.885295867919921875e+01 9.579480171203613281e+00 1.501202929869195624e-14 2.351884691772360148e-13 7.506014988159157020e-14 -7.005614350349270714e-14
5.000000000000000000e+00 7.802751922607421875e+01 8.838709831237792969e+00 -8.706977603105056640e-14 -8.306656957331876034e-14 -5.104090097080536681e-14 -4.203368474684290867e-14
6.000000000000000000e+00 7.960559844970703125e+01 8.834315299987792969e+00 5.604491073703601889e-14 2.401924891078620339e-14 2.401924891078620339e-14 4.603689120457471473e-14
7.000000000000000000e+00 7.160805511474609375e+01 1.081051063537597656e+01 1.551243129175455815e-13 1.351082738526229732e-13 8.706977603105056640e-14 2.702165375408505793e-14
8.000000000000000000e+00 7.233150482177734375e+01 9.909280776977539062e+00 9.757819552369539906e-14 8.757017599123409490e-14 5.554451077685249039e-14 3.402726844324750755e-14
9.000000000000000000e+00 7.070115661621093750e+01 1.024051475524902344e+01 9.907939540424598457e-14 -4.903929774193946378e-14 1.501202929869195624e-14 -7.806255641895631925e-14
1.000000000000000000e+01 7.314764404296875000e+01 9.745723724365234375e+00 1.701363422162375377e-14 5.304250758780305885e-14 2.101684237342145434e-14 -1.200962445539310169e-14
1.100000000000000000e+01 7.396340942382812500e+01 9.581404685974121094e+00 1.401122768425900472e-14 6.004812227696550847e-15 6.004812227696550847e-15 2.401924891078620339e-14
1.200000000000000000e+01 7.477902984619140625e+01 9.417250633239746094e+00 -5.404330750817011586e-14 -4.603689120457471473e-14 -3.002405859738391247e-14 -3.002406113848275424e-15
1.300000000000000000e+01 7.559501647949218750e+01 9.253793716430664062e+00 -5.904731727440076794e-14 8.907137587178468041e-14 9.007217918028352643e-15 6.705373696612795809e-14
1.400000000000000000e+01 7.722533416748046875e+01 8.924349784851074219e+00 -1.000802037949425141e-15 9.107298248878237246e-14 2.702165375408505793e-14 4.203368474684290867e-14
1.500000000000000000e+01 7.641048431396484375e+01 9.089399337768554688e+00 -6.204972381176551699e-14 -1.180946345488015359e-13 -5.404330750817011586e-14 -8.006416303595401129e-14
1.600000000000000000e+01 7.729926300048828125e+01 9.664350509643554688e+00 3.002405859738391247e-14 1.501202997631831404e-13 5.404330750817011586e-14 -4.203368474684290867e-14
1.700000000000000000e+01 7.079579925537109375e+01 1.097633457183837891e+01 7.606094980195862720e-14 -3.602887167211341057e-14 1.200962445539310169e-14 -1.100882199392720293e-14
1.800000000000000000e+01 7.242097473144531250e+01 1.064614582061767578e+01 1.100882216333379238e-13 7.005614350349270714e-14 5.404330750817011586e-14 -3.702967498061225660e-14
1.900000000000000000e+01 7.323452758789062500e+01 1.048311138153076172e+01 -3.702967498061225660e-14 -1.531227130768114675e-13 -5.704571743366665393e-14 2.902325867701685547e-14
2.000000000000000000e+01 7.486073303222656250e+01 1.015568447113037109e+01 3.402726844324750755e-14 1.060850151756061177e-13 4.203368474684290867e-14 1.801443583605670529e-14
2.100000000000000000e+01 7.567413330078125000e+01 9.992750167846679688e+00 4.703769451307356075e-14 -1.170938346284344789e-13 -2.101684237342145434e-14 4.303448466720996568e-14
2.200000000000000000e+01 7.648700714111328125e+01 9.828878402709960938e+00 -5.004010189747125706e-16 4.553649124439118623e-14 1.351082687704252897e-14 -2.902325867701685547e-14
2.300000000000000000e+01 7.404769897460937500e+01 1.031931495666503906e+01 -6.655333022968085155e-14 -2.852285871683332696e-14 -2.852285871683332696e-14 2.702165375408505793e-14
2.400000000000000000e+01 7.151599884033203125e+01 1.007416820526123047e+01 2.236792429879605471e-13 1.416134868875359998e-13 1.095878216731543953e-13 -5.804651735403371093e-14
2.500000000000000000e+01 6.841395568847656250e+01 1.043513202667236328e+01 3.052446194569922999e-14 -5.554451077685249039e-14 -7.506014649345978118e-15 -7.105694342385976414e-14
2.600000000000000000e+01 6.766113281250000000e+01 1.048218631744384766e+01 -1.851483749030612830e-14 8.356696953350228885e-14 1.951563910473907981e-14 -1.301042606982605321e-14
2.700000000000000000e+01 6.849323272705078125e+01 1.117169475555419922e+01 3.352686848306397904e-14 1.516214996437337259e-13 5.554451077685249039e-14 -9.007218256841531545e-14
2.800000000000000000e+01 6.916610717773437500e+01 1.038970375061035156e+01 9.507618894651417851e-14 -5.004010189747125706e-15 2.702165375408505793e-14 6.905533680686207210e-14
2.900000000000000000e+01 6.991758728027343750e+01 1.034604644775390625e+01 2.401924891078620339e-14 5.604491073703601889e-14 2.401924891078620339e-14 -1.301042606982605321e-14
3.000000000000000000e+01 7.001020050048828125e+01 1.108180618286132812e+01 7.255814330441034965e-14 -1.976583908483084406e-13 -3.753007494079578510e-14 8.406736949368581735e-14
3.100000000000000000e+01 6.773374938964843750e+01 1.121915245056152344e+01 -2.602085213965210642e-14 -1.941555911270237411e-13 -6.605293026949732305e-14 -1.321058605389946461e-13
3.200000000000000000e+01 6.925205230712890625e+01 1.112586593627929688e+01 5.504410996963601463e-15 1.396118734942747297e-13 4.353488801552528320e-14 4.603689120457471473e-14
3.300000000000000000e+01 6.552188873291015625e+01 1.214265727996826172e+01 -1.000802037949425141e-14 2.702165477052459464e-13 7.806255641895631925e-14 -1.120898214740720378e-13
3.400000000000000000e+01 6.605513763427734375e+01 1.211591053009033203e+01 1.070858150959731747e-13 1.831467648979318019e-13 8.706977603105056640e-14 1.901523745048965680e-14
3.500000000000000000e+01 6.693952178955078125e+01 1.201876354217529297e+01 5.004010105043830980e-14 -7.005614350349270714e-14 -6.004812227696550847e-15 -5.404330750817011586e-14
3.600000000000000000e+01 6.442745208740234375e+01 1.351959228515625000e+01 1.771419518232023038e-13 5.304250758780305885e-14 6.905533680686207210e-14 -1.416134868875359998e-13
3.700000000000000000e+01 6.508715057373046875e+01 1.310568237304687500e+01 2.071660171968497943e-13 2.431948956452267829e-13 1.351082738526229732e-13 -3.602887167211341057e-14
3.800000000000000000e+01 6.778228759765625000e+01 1.194798755645751953e+01 -1.000802037949425141e-15 9.107298248878237246e-14 2.702165375408505793e-14 -2.101684237342145434e-14
3.900000000000000000e+01 6.860540771484375000e+01 1.261540699005126953e+01 2.702165375408505793e-14 1.030826086382413687e-13 3.903127820947815962e-14 -6.405133042876320904e-14
4.000000000000000000e+01 6.965292358398437500e+01 1.469199657440185547e+01 1.120898214740720378e-13 4.803849782157240678e-14 4.803849782157240678e-14 -8.006416303595401129e-14
4.100000000000000000e+01 7.330343627929687500e+01 2.427147483825683594e+01 -1.055846084391590112e-13 -3.197562386311053606e-13 -1.276022608973428896e-13 -8.006416303595401129e-15
4.200000000000000000e+01 7.178775024414062500e+01 2.842794227600097656e+01 8.907137587178468041e-14 6.104892389139845998e-14 4.503609128420765773e-14 -6.004812227696550847e-15
4.300000000000000000e+01 7.265402221679687500e+01 3.802702331542968750e+01 7.506015284620688559e-16 -1.083368149964319960e-13 -3.227586519447336877e-14 -2.251804479507088161e-15
4.400000000000000000e+01 7.213857269287109375e+01 3.479425430297851562e+01 1.276022524270134170e-14 -4.028228149806876990e-14 -8.256616283687165381e-15 -3.702967498061225660e-14
4.500000000000000000e+01 5.768563079833984375e+01 4.098880767822265625e+01 2.401924891078620339e-14 -2.401924891078620339e-14 0.000000000000000000e+00 1.751403460532375590e-15
4.600000000000000000e+01 6.247924041748046875e+01 3.835385513305664062e+01 1.200962445539310169e-14 -5.204170427930421283e-14 -1.200962445539310169e-14 -2.877305869692509122e-14
4.700000000000000000e+01 6.541578674316406250e+01 3.279869079589843750e+01 3.953167816966168813e-14 -7.455974992140804170e-14 -1.050842118671072717e-14 1.801443583605670529e-14
4.800000000000000000e+01 6.410911560058593750e+01 2.309565162658691406e+01 1.851483749030612830e-14 -8.356696953350228885e-14 -1.951563910473907981e-14 -1.080866150163402317e-13
4.900000000000000000e+01 6.242666244506835938e+01 1.499665737152099609e+01 -5.444988332285218002e-14 -6.908661603953827890e-14 -3.706095082515667438e-14 -3.302646513474866152e-14
5.000000000000000000e+01 6.308744430541992188e+01 1.432002258300781250e+01 4.978990107034654555e-14 1.128404281906109086e-13 4.878909776184769953e-14 -1.100882216333379238e-13
5.100000000000000000e+01 6.375779342651367188e+01 1.383193492889404297e+01 1.521218996039172544e-13 8.006416303595401129e-15 4.803849782157240678e-14 -9.457578898633065001e-14
5.200000000000000000e+01 7.009622192382812500e+01 1.178427886962890625e+01 4.853889778175593528e-14 6.655333022968085155e-14 3.452766840343103605e-14 -2.101684237342145434e-14
5.300000000000000000e+01 7.964368438720703125e+01 1.353185081481933594e+01 2.036632039230379387e-13 4.153328478665938017e-14 7.355895000104098469e-14 8.006416303595401129e-15
5.400000000000000000e+01 7.962471771240234375e+01 1.035873603820800781e+01 -9.007218256841531545e-14 3.002405859738391247e-14 -1.801443583605670529e-14 -5.204170427930421283e-14
5.500000000000000000e+01 7.952552795410156250e+01 3.579824447631835938e+01 6.054852393121493148e-14 -6.555253030931379454e-14 -1.501203056924137712e-15 -3.002406113848275424e-15
5.600000000000000000e+01 7.881342315673828125e+01 4.074871826171875000e+01 -3.552847171192988207e-14 -1.496198998029996119e-13 -5.554451077685249039e-14 -2.114194236346733646e-14
5.700000000000000000e+01 7.960547637939453125e+01 2.700411224365234375e+01 -7.405934996122451319e-14 1.401122768425900472e-14 -1.801443583605670529e-14 3.202566521438160452e-14
5.800000000000000000e+01 7.876444244384765625e+01 3.337115478515625000e+01 -1.451162933850842773e-14 -1.205966479022463345e-13 -4.053248147816053415e-14 -4.103288143834406265e-14
5.900000000000000000e+01 5.601121520996093750e+01 3.399601745605468750e+01 -1.251002547436781426e-15 -6.630313024958908730e-14 -2.026624073908026707e-14 2.614595212969798854e-14
6.000000000000000000e+01 5.616846847534179688e+01 2.229552841186523438e+01 1.160930347080674219e-13 -1.561251128379126385e-13 -1.200962445539310169e-14 5.604491073703601889e-14
6.100000000000000000e+01 5.489416503906250000e+01 1.550570964813232422e+01 2.952365863720038397e-14 -1.245998475837145625e-13 -2.852285871683332696e-14 4.303448466720996568e-14
6.200000000000000000e+01 5.337831115722656250e+01 1.308249473571777344e+01 5.454371085648543338e-14 1.606287260320915511e-13 6.455173038894673754e-14 2.001604075898850282e-15
6.300000000000000000e+01 5.491068267822265625e+01 1.299420738220214844e+01 -1.100882199392720293e-14 4.103288143834406265e-14 9.007217918028352643e-15 4.603689120457471473e-14
6.400000000000000000e+01 5.415166473388671875e+01 1.380340290069580078e+01 -3.502806921064751181e-15 -1.501203056924137712e-15 -1.501203056924137712e-15 4.803849782157240678e-14
6.500000000000000000e+01 6.013701629638671875e+01 1.233377170562744141e+01 -1.200962445539310169e-14 -1.881507780522942430e-13 -6.004811719476782494e-14 -4.503609128420765773e-14
6.600000000000000000e+01 5.275984191894531250e+01 4.057038497924804688e+01 1.939053911469319769e-14 -4.315958804538763682e-14 -7.130714679208331741e-15 3.002406113848275424e-15
6.700000000000000000e+01 4.936033630371093750e+01 3.210946655273437500e+01 1.920288912962437450e-14 -2.608340213467504748e-14 -2.064154070921791345e-15 2.451964887096973189e-14
6.800000000000000000e+01 4.892761230468750000e+01 1.531698799133300781e+01 2.231788430277770185e-13 1.871499781319271860e-13 1.230986477031639770e-13 -2.001604075898850282e-14
6.900000000000000000e+01 4.819094085693359375e+01 1.530520534515380859e+01 9.507618725244828400e-15 -2.246800564608547601e-13 -6.455173038894673754e-14 3.302646513474866152e-14
7.000000000000000000e+01 4.970042037963867188e+01 1.545761394500732422e+01 1.991596042813861822e-13 1.311050606186275891e-13 9.907939540424598457e-14 -8.907137587178468041e-14
7.100000000000000000e+01 4.891236877441406250e+01 1.625148200988769531e+01 4.503609128420765773e-14 6.505213034913026604e-14 3.302646513474866152e-14 1.701363422162375377e-14
7.200000000000000000e+01 5.026561355590820312e+01 1.414966201782226562e+01 1.924041844901178133e-13 2.654627277547116915e-13 1.373600804497124295e-13 2.001604075898850282e-14
7.300000000000000000e+01 5.043429183959960938e+01 1.363498783111572266e+01 -2.882309733769072846e-13 -3.202566521438160452e-14 -9.607699564314481355e-14 -2.321860694161348437e-13
7.400000000000000000e+01 5.087461090087890625e+01 1.317869377136230469e+01 -1.271018609371593611e-13 -1.230986477031639770e-13 -7.506014988159157020e-14 1.110890215537049808e-13
7.500000000000000000e+01 5.036078643798828125e+01 1.319045066833496094e+01 1.441154866884536423e-13 -3.042437992078345088e-13 -4.803849782157240678e-14 2.041636038832214672e-13
7.600000000000000000e+01 3.756657409667968750e+01 4.071044921875000000e+01 -7.506014649345978118e-15 4.253408470702643718e-14 1.050842118671072717e-14 1.276022524270134170e-14
7.700000000000000000e+01 4.251407623291015625e+01 4.066296386718750000e+01 -3.878107738235344812e-15 3.265116516461101515e-14 8.631917100857759012e-15 -1.050842118671072717e-14
7.800000000000000000e+01 4.261437606811523438e+01 3.359809494018554688e+01 -1.050842118671072717e-14 3.552847171192988207e-14 7.506014649345978118e-15 2.001604075898850282e-15
7.900000000000000000e+01 4.265852355957031250e+01 2.213360404968261719e+01 -4.253408555405938443e-15 -9.332478908587182875e-14 -2.927345865710861972e-14 1.000802021008766196e-13
8.000000000000000000e+01 4.506735610961914062e+01 1.580220222473144531e+01 6.004812227696550847e-15 9.407538902614712151e-14 3.002405859738391247e-14 8.506816941405287436e-14
8.100000000000000000e+01 4.524879837036132812e+01 1.298961830139160156e+01 8.018925963786810440e-14 5.366800753803246948e-14 4.015718150802288777e-14 -3.859342655025167768e-14
8.200000000000000000e+01 4.393670272827148438e+01 1.181108283996582031e+01 3.702967498061225660e-14 7.305854326459387815e-14 3.302646513474866152e-14 7.055654346367623564e-14
8.300000000000000000e+01 3.823606491088867188e+01 2.968136405944824219e+01 -2.376904723662854463e-14 4.128308141843582690e-14 5.254210593355363584e-15 2.802245536851800944e-14
8.400000000000000000e+01 3.576760482788085938e+01 2.296842002868652344e+01 -4.528629126429942198e-14 1.178444413449733497e-13 2.176744400776264160e-14 2.602085213965210642e-14
8.500000000000000000e+01 3.432577514648437500e+01 1.462439250946044922e+01 2.301844695754007297e-13 -1.301042606982605321e-13 3.002405859738391247e-14 -2.151724301123134064e-13
8.600000000000000000e+01 3.497983551025390625e+01 1.428927898406982422e+01 2.051644173561156803e-13 2.251804564210382886e-13 1.291034607778934751e-13 -1.020818019416107336e-13
8.700000000000000000e+01 3.560747528076171875e+01 1.404235839843750000e+01 2.902325732176413986e-13 1.701363388281057487e-13 1.381106736137241442e-13 -9.007218256841531545e-14
8.800000000000000000e+01 3.660783767700195312e+01 1.345208263397216797e+01 1.561251128379126385e-13 -3.602887167211341057e-14 3.602887167211341057e-14 -1.040834085586084257e-13
8.900000000000000000e+01 3.845730209350585938e+01 1.308058166503906250e+01 1.481186999224490264e-13 1.321058605389946461e-13 8.406736949368581735e-14 4.603689120457471473e-14
9.000000000000000000e+01 3.251868820190429688e+01 4.054987716674804688e+01 4.378508968968294196e-15 4.190858475679702655e-14 1.388612769421312260e-14 -1.376102770416724047e-14
9.100000000000000000e+01 2.941147041320800781e+01 3.087820243835449219e+01 -9.257418745153064149e-15 -8.256616283687165381e-15 -5.254210593355363584e-15 -7.812510810804515482e-14
9.200000000000000000e+01 2.869245529174804688e+01 2.150524711608886719e+01 -1.226295269756566553e-13 1.304482916001173387e-13 2.345629683799736569e-15 2.852285871683332696e-14
9.300000000000000000e+01 3.061065292358398438e+01 1.512102317810058594e+01 1.611291259922750796e-13 -4.113296346325984176e-13 -7.506014988159157020e-14 1.155926347478838934e-13
9.400000000000000000e+01 2.813026237487792969e+01 1.114760494232177734e+01 -2.413183856301431840e-13 -3.779278593633167427e-13 -1.857738680770271156e-13 -4.903929909719217939e-13
9.500000000000000000e+01 3.246622467041015625e+01 1.363520622253417969e+01 -3.472783042038352086e-13 -2.632109211576222352e-13 -1.831467648979318019e-13 -6.405133042876320904e-14
9.600000000000000000e+01 3.286390304565429688e+01 1.467042732238769531e+01 5.004010105043830980e-14 -5.504410946141624628e-13 -1.501202997631831404e-13 -1.551243095294137925e-14
9.700000000000000000e+01 1.766890907287597656e+01 4.111786651611328125e+01 7.518525325976924134e-14 4.365998800557116533e-14 3.565357170197576420e-14 -1.000802037949425141e-14
9.800000000000000000e+01 2.244541358947753906e+01 4.102737808227539062e+01 6.467682699086083065e-14 -4.090778144829818053e-14 7.130714679208331741e-15 7.255814669254213867e-15
9.900000000000000000e+01 2.261149406433105469e+01 2.948317337036132812e+01 1.200962445539310169e-14 2.802245536851800944e-14 1.200962445539310169e-14 -6.029832395112316723e-14
1.000000000000000000e+02 2.348800659179687500e+01 2.225282287597656250e+01 -1.335933859196447582e-13 -1.982936655587491659e-13 -9.956611408826546161e-14 -7.375441810021296507e-14
1.010000000000000000e+02 2.167881393432617188e+01 1.608950805664062500e+01 -5.954771723458429644e-13 -1.751403519824681898e-13 -2.311852694957677867e-13 -3.417738910892892390e-13
1.020000000000000000e+02 1.760483169555664062e+01 1.376550579071044922e+01 -3.963175816169839383e-13 -2.041636038832214672e-13 -1.801443651368306309e-13 -1.731387521417340758e-13
1.030000000000000000e+02 1.326952075958251953e+01 1.043839263916015625e+01 -1.931547912066566841e-13 -2.772221471478153454e-13 -1.411130869273524713e-13 -3.903127820947815962e-13
1.040000000000000000e+02 1.626298904418945312e+01 1.296321105957031250e+01 -5.474387219581156039e-13 -4.633713118068483183e-13 -3.032429992874674518e-13 -2.652125209983563492e-13
1.050000000000000000e+02 1.803354454040527344e+01 3.826913070678710938e+01 6.467682699086083065e-14 -4.090778144829818053e-14 7.130714679208331741e-15 -2.502005094873562853e-16
1.060000000000000000e+02 1.388984775543212891e+01 3.202361679077148438e+01 6.705373696612795809e-14 6.305052373213257400e-14 3.903127820947815962e-14 -1.025822035958601566e-14
1.070000000000000000e+02 1.598505496978759766e+01 2.178590011596679688e+01 -1.591275125990138095e-13 -9.107298248878237246e-14 -7.506014988159157020e-14 -3.002406113848275424e-15
1.080000000000000000e+02 1.783035087585449219e+01 1.470471954345703125e+01 -3.332670782136420984e-13 -1.701363422162375377e-14 -1.050842084789754827e-13 -1.326062604991781746e-13
1.090000000000000000e+02 1.296681308746337891e+01 4.098196792602539062e+01 7.018124010540680024e-14 5.867202069239491058e-14 3.865597823934051325e-14 1.025822035958601566e-14
1.100000000000000000e+02 8.564351081848144531e+00 3.618727493286132812e+01 5.754611739385018243e-14 1.276022608973428896e-13 5.554451077685249039e-14 -1.651323256737433076e-14
1.110000000000000000e+02 7.091217994689941406e+00 3.135343742370605469e+01 1.010184537202866301e-14 1.415822076548597930e-13 4.550521539984676844e-14 4.553649124439118623e-14
1.120000000000000000e+02 5.828498363494873047e+00 2.606383514404296875e+01 -1.015814019814272051e-13 1.165934346682509504e-13 4.503608959014176322e-15 8.506816941405287436e-14
1.130000000000000000e+02 5.939196109771728516e+00 1.756756019592285156e+01 4.603689120457471473e-14 2.942358000041639388e-13 1.020818019416107336e-13 1.281026608575264181e-13
1.140000000000000000e+02 1.215378761291503906e+01 9.329997062683105469e+00 -1.851483647386659159e-13 -2.051644173561156803e-13 -1.170938346284344789e-13 -3.422742774969456114e-13
1.150000000000000000e+02 1.110004425048828125e+01 8.122901916503906250e+00 -2.211928828033810079e-13 -4.760846664814133433e-13 -2.091832566539220117e-13 -4.538558927551922251e-13
1.160000000000000000e+02 1.161454391479492188e+01 8.746108055114746094e+00 -3.722983564231202580e-13 -5.484394947734283488e-13 -2.762213472274482884e-13 -2.759711404710929461e-13
1.170000000000000000e+02 1.372836589813232422e+00 3.767001342773437500e+01 1.225982443548486595e-14 6.457675106458227177e-13 1.974081976444802544e-13 9.707779556351187056e-14
1.180000000000000000e+02 1.132252931594848633e+00 3.067179679870605469e+01 3.402726844324750755e-14 4.263416605431585849e-13 1.381106736137241442e-13 1.501202929869195624e-14
1.190000000000000000e+02 1.112548708915710449e+00 2.425895118713378906e+01 -9.307458910578006450e-14 3.032429992874674518e-13 6.305052373213257400e-14 4.103288143834406265e-14
1.200000000000000000e+02 1.065901756286621094e+00 1.700198173522949219e+01 -2.151724233360498284e-14 3.567859169998494062e-13 1.005806020610601481e-13 -5.104090097080536681e-14
1.210000000000000000e+02 1.110895872116088867e+00 1.052489948272705078e+01 -7.506014988159157020e-14 2.652125209983563492e-13 5.704571743366665393e-14 -3.302646513474866152e-14
1.220000000000000000e+02 1.638870120048522949e+00 6.267656326293945312e+00 -4.353488801552528320e-14 1.185950345089850644e-13 2.251804564210382886e-14 -4.003208151797700565e-15
1.230000000000000000e+02 2.858798265457153320e+00 1.845853209495544434e+00 -1.301042606982605321e-14 2.231788430277770185e-13 6.305052373213257400e-14 -4.003208151797700565e-14
1.240000000000000000e+02 3.167036771774291992e-01 6.655842304229736328e+00 -5.104090097080536681e-14 1.611291259922750796e-13 3.302646513474866152e-14 7.205774334422682115e-14
1.250000000000000000e+02 9.620875120162963867e-01 6.491879463195800781e+00 1.100882199392720293e-14 2.792237469885494594e-13 8.706977603105056640e-14 -7.105694342385976414e-14
1.260000000000000000e+02 7.631465911865234375e+00 6.681646347045898438e+00 -3.753007494079578510e-14 5.254210423948774134e-14 4.503608959014176322e-15 -2.582069215557869502e-13
1.270000000000000000e+02 2.098823165893554688e+01 1.571411037445068359e+01 -5.704571472316122271e-13 -1.701363388281057487e-13 -2.221780431074099615e-13 -1.851483647386659159e-13
1.280000000000000000e+02 2.299172973632812500e+01 1.824247932434082031e+01 -3.905004303857845249e-13 -2.131082718062268788e-13 -1.810826065918452743e-13 -3.042437992078345088e-13
1.290000000000000000e+02 2.511171150207519531e+01 1.611339950561523438e+01 6.069707995763617969e-14 1.307039546039057143e-12 4.103210013515351529e-13 1.681347389873716347e-13
1.300000000000000000e+02 2.452619743347167969e+01 1.669546508789062500e+01 -6.805453553124229948e-13 1.200962343895356499e-13 -1.681347389873716347e-13 -1.958444392985772553e-13
1.310000000000000000e+02 2.566315078735351562e+01 1.546834850311279297e+01 1.751403519824681898e-13 9.157338515947133217e-13 3.272622515863854442e-13 3.537209587733958216e-13
1.320000000000000000e+02 2.482149696350097656e+01 1.404270935058593750e+01 8.406736678318038614e-13 1.921539750232570398e-12 8.286640687873991773e-13 1.099631236761711151e-12
1.330000000000000000e+02 2.434981346130371094e+01 1.337153053283691406e+01 1.297039407301137093e-12 1.865494954692015206e-12 9.487602760718805150e-13 1.339448408958776593e-12
1.340000000000000000e+02 2.189430999755859375e+01 1.126660060882568359e+01 9.957979536442951307e-13 8.957177989772635573e-13 5.674547203654567440e-13 7.721187513139160519e-13
1.350000000000000000e+02 2.168885612487792969e+01 1.032929611206054688e+01 5.537562595969713897e-13 6.490826756286316446e-13 3.608516751466700478e-13 6.240000378389398694e-13
1.360000000000000000e+02 2.064122200012207031e+01 1.030462837219238281e+01 8.556856937423640286e-13 6.755413286055333977e-13 4.593681121253800903e-13 7.040641940986303027e-13
1.370000000000000000e+02 1.875739288330078125e+01 8.830018997192382812e+00 7.776231373234077093e-13 4.533633126031777483e-13 3.692959295569647749e-13 5.852189934908713642e-13
1.380000000000000000e+02 1.888415718078613281e+01 6.124987125396728516e+00 1.266014474244486765e-13 3.287634650194631858e-13 1.366094737331735587e-13 3.342678781340091554e-13
1.390000000000000000e+02 2.187611389160156250e+01 5.858057022094726562e+00 -1.811451650571976879e-13 1.511210996835501974e-13 -9.007217918028352643e-15 -1.401122768425900472e-14
1.400000000000000000e+02 2.614879226684570312e+01 8.385106086730957031e+00 -6.495204764658812913e-13 -5.414338682258046376e-13 -3.572863034075057787e-13 -6.410136635902341506e-13
1.410000000000000000e+02 3.713862609863281250e+01 1.332855319976806641e+01 8.556856937423640286e-14 2.196760433064923190e-13 9.157338244896590096e-14 -9.807859548387892756e-14
1.420000000000000000e+02 4.582899856567382812e+01 1.358062362670898438e+01 1.050842118671072717e-14 1.045838085187919542e-13 3.452766840343103605e-14 2.451964887096973189e-14
1.430000000000000000e+02 4.638800430297851562e+01 1.417895412445068359e+01 -5.304250758780305885e-14 -1.701363422162375377e-14 -2.101684237342145434e-14 2.276824562219559311e-14
1.440000000000000000e+02 4.693735122680664062e+01 1.475052070617675781e+01 -1.000802037949425141e-14 -5.004010105043830980e-14 -1.801443583605670529e-14 1.501203056924137712e-15
1.450000000000000000e+02 6.048060607910156250e+01 1.332482242584228516e+01 -9.707779556351187056e-14 -1.331066604593617031e-13 -6.905533680686207210e-14 1.271018609371593611e-13
1.460000000000000000e+02 6.133335876464843750e+01 1.300712299346923828e+01 -2.991147097803487087e-13 -4.026977048262464498e-13 -2.105437270924839788e-13 7.405934996122451319e-14
1.470000000000000000e+02 6.288915252685546875e+01 1.565161228179931641e+01 1.040834085586084257e-13 -3.442758773376797254e-13 -7.205774334422682115e-14 -1.701363388281057487e-13
1.480000000000000000e+02 6.886347198486328125e+01 1.481916046142578125e+01 1.030826086382413687e-13 2.271820562617724026e-13 9.907939540424598457e-14 5.804651735403371093e-14
1.490000000000000000e+02 6.153817367553710938e+01 2.397634315490722656e+01 4.365998800557116533e-14 -2.100433271323004503e-13 -4.991500106039242768e-14 -5.904731727440076794e-14
1.500000000000000000e+02 7.413885498046875000e+01 2.443525505065917969e+01 -5.204170427930421283e-14 -6.805453688649501509e-14 -3.602887167211341057e-14 -6.905533680686207210e-14
1.510000000000000000e+02 5.739778900146484375e+01 1.502700424194335938e+01 5.304250758780305885e-14 -2.301844560228735737e-14 9.007217918028352643e-15 2.001604075898850282e-15
1.520000000000000000e+02 5.081412506103515625e+01 1.517303180694580078e+01 1.613793191961032658e-13 2.064154104803109235e-13 1.103384216134296880e-13 1.841475648182988589e-13
1.530000000000000000e+02 4.663541030883789062e+01 1.918732833862304688e+01 6.705373696612795809e-14 -1.701363422162375377e-14 1.501202929869195624e-14 3.702967498061225660e-14
1.540000000000000000e+02 3.446684646606445312e+01 1.543285942077636719e+01 5.004010189747125706e-16 -4.553649124439118623e-14 -1.351082687704252897e-14 -8.706977603105056640e-14
1.550000000000000000e+02 3.017512512207031250e+01 1.399605941772460938e+01 5.904731727440076794e-14 -4.093280076868099915e-13 -1.050842084789754827e-13 -9.007217918028352643e-15
1.560000000000000000e+02 1.242252635955810547e+01 1.717407798767089844e+01 -1.668524530779730286e-13 -2.025060349443441599e-13 -1.108075491172005878e-13 2.971131031633510167e-14
1.570000000000000000e+02 3.593870103359222412e-01 2.033449935913085938e+01 -1.901523745048965680e-14 2.892317732972743416e-13 8.106496295632106830e-14 1.000802037949425141e-14
1.580000000000000000e+02 3.626649975776672363e-01 1.389906501770019531e+01 4.253408470702643718e-14 4.528628990904670637e-13 1.486190998826325549e-13 -4.803849782157240678e-14
1.590000000000000000e+02 1.178394603729248047e+01 9.847115516662597656e+00 -3.204755796674951807e-13 -3.203504627367903534e-13 -1.922478154317910914e-13 -2.692157477848788893e-13
1.600000000000000000e+02 7.655574035644531250e+01 1.058586788177490234e+01 -5.004010189747125706e-15 -2.502005052521915490e-14 -9.007217918028352643e-15 1.601283260719080226e-14
1.610000000000000000e+02 7.963749694824218750e+01 1.907102966308593750e+01 -1.331066604593617031e-13 -5.704571743366665393e-14 -5.704571743366665393e-14 -3.402726844324750755e-14
1.620000000000000000e+02 7.818548583984375000e+01 1.903384590148925781e+01 -3.853087824929463112e-14 -1.651323256737433076e-14 -1.651323256737433076e-14 -1.010810020212436766e-13
1.630000000000000000e+02 7.881381225585937500e+01 2.696782875061035156e+01 6.104892389139845998e-14 -1.110890215537049808e-13 -1.501202929869195624e-14 2.001604075898850282e-14
1.640000000000000000e+02 6.322947311401367188e+01 3.017404937744140625e+01 4.566159123443706835e-14 -7.193264674231272804e-14 -7.881315466516571749e-15 -7.005613842129502361e-15
1.650000000000000000e+02 7.329885101318359375e+01 3.065228843688964844e+01 6.655333022968085155e-14 2.852285871683332696e-14 2.852285871683332696e-14 1.000802037949425141e-15
1.660000000000000000e+02 4.802354812622070312e+01 2.290147399902343750e+01 1.676343424153198952e-14 7.581074982186686295e-14 2.777225538842624519e-14 5.404330750817011586e-14
1.670000000000000000e+02 4.311059570312500000e+01 2.559929656982421875e+01 -3.152526186606628700e-14 -1.351082687704252897e-14 -1.351082687704252897e-14 6.705373696612795809e-14
1.680000000000000000e+02 3.465278625488281250e+01 2.276792907714843750e+01 1.100882199392720293e-14 -4.103288143834406265e-14 -9.007217918028352643e-15 3.152526186606628700e-14
1.690000000000000000e+02 2.724712753295898438e+01 2.418328285217285156e+01 -9.770329890187307020e-14 3.878107738235344812e-15 -2.814755705262978608e-14 -1.060850151756061177e-13
1.700000000000000000e+02 1.729528045654296875e+01 2.423245620727539062e+01 3.252606517456513302e-14 -1.576263127184632240e-13 -3.753007494079578510e-14 7.155734338404329264e-14
1.710000000000000000e+02 6.488261699676513672e+00 2.720613288879394531e+01 2.001604075898850282e-15 4.583673393100673454e-13 1.381106736137241442e-13 5.604491073703601889e-14
1.720000000000000000e+02 3.719958961009979248e-01 2.757543182373046875e+01 -1.125902282105191443e-13 3.177546387903712466e-13 6.154932385158198849e-14 4.503609128420765773e-14
1.730000000000000000e+02 5.747397613525390625e+01 3.133845520019531250e+01 5.304250758780305885e-14 -2.301844560228735737e-14 9.007217918028352643e-15 2.001604075898850282e-15
1.740000000000000000e+02 5.099764633178710938e+01 3.489824295043945312e+01 4.046992978907169858e-14 -3.984442983884228795e-14 1.876503821155172140e-16 5.504410996963601463e-15
1.750000000000000000e+02 3.973740386962890625e+01 3.280583572387695312e+01 -2.552045048540268340e-14 8.056456299613753980e-14 1.651323256737433076e-14 4.753809447325708926e-14
1.760000000000000000e+02 3.752802658081054688e+01 3.422028350830078125e+01 8.256616283687165381e-15 4.928949772203122803e-14 1.726383420171551802e-14 1.276022524270134170e-14
1.770000000000000000e+02 3.293814086914062500e+01 3.031812858581542969e+01 -2.814755705262978608e-14 -6.255012737183907132e-16 -8.631917100857759012e-15 -9.657739560332834206e-14
1.780000000000000000e+02 2.360329437255859375e+01 3.171293830871582031e+01 -2.101684237342145434e-14 -8.907137587178468041e-14 -3.302646513474866152e-14 -3.677947500052049234e-14
1.790000000000000000e+02 6.283860683441162109e+00 3.227423858642578125e+01 4.891419775189358166e-14 4.327217566473667842e-13 1.444907832704594997e-13 1.406126869671689428e-13
1.800000000000000000e+02 3.769239783287048340e-01 3.398145675659179688e+01 1.050842084789754827e-13 3.652927298754965468e-13 1.411130869273524713e-13 -8.006416303595401129e-14
1.810000000000000000e+02 6.932310485839843750e+01 1.184722328186035156e+01 6.405133042876320904e-14 -6.405133042876320904e-14 0.000000000000000000e+00 9.407538902614712151e-14
1.820000000000000000e+02 7.089099884033203125e+01 1.167480945587158203e+01 9.507618894651417851e-14 -5.004010189747125706e-15 2.702165375408505793e-14 4.403528797570881170e-14
1.830000000000000000e+02 7.170289611816406250e+01 1.152233695983886719e+01 8.006416303595401129e-15 -8.807057595141762341e-14 -2.401924891078620339e-14 -4.003208151797700565e-14
1.840000000000000000e+02 7.332270050048828125e+01 1.120680427551269531e+01 5.004010189747125706e-15 2.502005052521915490e-14 9.007217918028352643e-15 -1.200962445539310169e-14
1.850000000000000000e+02 7.413206481933593750e+01 1.104751777648925781e+01 8.907137587178468041e-14 6.104892389139845998e-14 4.503609128420765773e-14 1.180946345488015359e-13
1.860000000000000000e+02 7.494118499755859375e+01 1.088931083679199219e+01 -2.702165375408505793e-14 -1.030826086382413687e-13 -3.903127820947815962e-14 3.202566521438160452e-14
1.870000000000000000e+02 7.574965667724609375e+01 1.073423194885253906e+01 7.405934996122451319e-14 -1.401122768425900472e-14 1.801443583605670529e-14 1.701363422162375377e-14
1.880000000000000000e+02 7.741485595703125000e+01 1.205436611175537109e+01 7.205774334422682115e-14 -1.521218996039172544e-13 -2.401924891078620339e-14 -4.003208151797700565e-14
1.890000000000000000e+02 7.887469482421875000e+01 1.036405754089355469e+01 -4.753809447325708926e-14 1.626303258728256651e-13 3.452766840343103605e-14 -2.401924891078620339e-14
1.900000000000000000e+02 7.959883880615234375e+01 4.203317260742187500e+01 3.102486190588275849e-14 -1.010810020212436766e-13 -2.101684237342145434e-14 -1.200962445539310169e-14
1.910000000000000000e+02 7.614058685302734375e+01 3.762267684936523438e+01 -5.529431079676072613e-14 -2.524523016848856383e-13 -9.232398238924119371e-14 1.200962445539310169e-14
1.920000000000000000e+02 7.957919311523437500e+01 4.046085357666015625e+01 4.253408470702643718e-14 -1.876503780921107145e-13 -4.353488801552528320e-14 5.804651735403371093e-14
1.930000000000000000e+02 7.960327148437500000e+01 3.968771362304687500e+01 -3.302646513474866152e-14 -1.971579908881249121e-13 -6.905533680686207210e-14 1.601283260719080226e-14
1.940000000000000000e+02 7.968424987792968750e+01 3.896166229248046875e+01 -1.501202929869195624e-14 -2.351884691772360148e-13 -7.506014988159157020e-14 -1.701363422162375377e-14
1.950000000000000000e+02 7.963125610351562500e+01 3.820677185058593750e+01 -4.003208151797700565e-15 -1.160930347080674219e-13 -3.602887167211341057e-14 1.401122768425900472e-14
1.960000000000000000e+02 7.906458282470703125e+01 3.922634887695312500e+01 -5.254210423948774134e-14 -3.427746910096562960e-13 -1.185950345089850644e-13 1.801443583605670529e-14
1.970000000000000000e+02 7.957638549804687500e+01 3.742712783813476562e+01 -8.056456299613753980e-14 -1.946559910872072696e-13 -8.256616283687165381e-14 3.702967498061225660e-14
1.980000000000000000e+02 7.954259490966796875e+01 3.497955322265625000e+01 1.501202929869195624e-14 -8.506816941405287436e-14 -2.101684237342145434e-14 -1.601283260719080226e-14
1.990000000000000000e+02 7.956079864501953125e+01 3.417692184448242188e+01 -1.040834085586084257e-13 -1.361090737729900302e-13 -7.205774334422682115e-14 -7.005613842129502361e-15
2.000000000000000000e+02 7.958318328857421875e+01 3.337735748291015625e+01 1.075862150561567032e-13 1.376102736535406157e-13 7.355895000104098469e-14 2.802245536851800944e-14
2.010000000000000000e+02 7.959394836425781250e+01 3.257894515991210938e+01 -1.501202929869195624e-14 8.506816941405287436e-14 2.101684237342145434e-14 -5.204170427930421283e-14
2.020000000000000000e+02 7.959249877929687500e+01 3.178174781799316406e+01 -1.401122768425900472e-14 -6.004812227696550847e-15 -6.004812227696550847e-15 4.703769451307356075e-14
2.030000000000000000e+02 7.877423095703125000e+01 3.096998596191406250e+01 -1.401122768425900472e-14 1.541235129971785245e-13 4.203368474684290867e-14 3.002405859738391247e-14
2.040000000000000000e+02 7.959413909912109375e+01 2.938743782043457031e+01 -1.301042606982605321e-14 -9.707779556351187056e-14 -3.302646513474866152e-14 -1.200962445539310169e-14
2.050000000000000000e+02 7.959732055664062500e+01 2.859294319152832031e+01 2.401924891078620339e-14 5.604491073703601889e-14 2.401924891078620339e-14 -9.007217918028352643e-15
2.060000000000000000e+02 7.960958099365234375e+01 2.620977783203125000e+01 3.352686848306397904e-14 -1.686351389475551632e-13 -4.053248147816053415e-14 8.106496295632106830e-14
2.070000000000000000e+02 7.961380004882812500e+01 2.541579437255859375e+01 -2.051644071917203133e-14 -5.454371085648543338e-14 -2.251804564210382886e-14 4.603689120457471473e-14
2.080000000000000000e+02 7.961817932128906250e+01 2.462221717834472656e+01 -4.453568793589234021e-14 -1.105886215935214523e-13 -4.653729455289003225e-14 1.701363422162375377e-14
2.090000000000000000e+02 7.962237548828125000e+01 2.382908630371093750e+01 2.552045048540268340e-14 -8.056456299613753980e-14 -1.651323256737433076e-14 1.601283260719080226e-14
2.100000000000000000e+02 7.962602233886718750e+01 2.303650665283203125e+01 -1.951563910473907981e-14 -1.456166865690042278e-13 -4.953969770212299228e-14 -3.002406113848275424e-15
2.110000000000000000e+02 7.962895202636718750e+01 2.224379730224609375e+01 7.005613842129502361e-15 3.002406113848275424e-15 3.002406113848275424e-15 4.203368474684290867e-14
2.120000000000000000e+02 7.963131713867187500e+01 2.145101737976074219e+01 4.703769451307356075e-14 -1.170938346284344789e-13 -2.101684237342145434e-14 -2.401924891078620339e-14
2.130000000000000000e+02 7.888632965087890625e+01 2.221271896362304688e+01 4.153328478665938017e-14 6.355093046857968053e-14 3.152526186606628700e-14 -3.602887167211341057e-14
2.140000000000000000e+02 7.963340759277343750e+01 2.065790176391601562e+01 -1.466175000418984409e-13 -1.085870149765237602e-13 -7.656135653840573374e-14 1.801443583605670529e-14
2.150000000000000000e+02 7.963992309570312500e+01 1.827683067321777344e+01 7.155734338404329264e-14 -1.065854151357896462e-13 -1.050842118671072717e-14 5.204170427930421283e-14
2.160000000000000000e+02 7.964270019531250000e+01 1.748473548889160156e+01 -1.005806020610601481e-13 -1.346078738924394447e-13 -7.055654346367623564e-14 -9.007217918028352643e-15
2.170000000000000000e+02 7.964498901367187500e+01 1.669383239746093750e+01 3.252606517456513302e-14 -7.756215645877279075e-14 -1.351082687704252897e-14 3.903127820947815962e-14
2.180000000000000000e+02 7.964629364013671875e+01 1.590336036682128906e+01 3.052446194569922999e-14 1.045838085187919542e-13 4.053248147816053415e-14 2.502005052521915490e-14
2.190000000000000000e+02 7.964657592773437500e+01 1.511281013488769531e+01 1.751403587587317678e-14 7.506014649345978118e-15 7.506014649345978118e-15 7.105694342385976414e-14
2.200000000000000000e+02 7.748740386962890625e+01 1.668883323669433594e+01 -5.004010189747125706e-16 4.553649124439118623e-14 1.351082687704252897e-14 -9.607699564314481355e-14
2.210000000000000000e+02 7.964575958251953125e+01 1.432233810424804688e+01 -6.455173038894673754e-14 1.095878216731543953e-13 1.351082687704252897e-14 4.403528797570881170e-14
2.220000000000000000e+02 7.738776397705078125e+01 1.126432609558105469e+01 -1.501202929869195624e-14 8.506816941405287436e-14 2.101684237342145434e-14 5.504411081666896188e-14
2.230000000000000000e+02 7.812586212158203125e+01 1.037674045562744141e+01 2.151724233360498284e-14 1.235990476633475055e-13 4.353488801552528320e-14 -4.103288143834406265e-14
2.240000000000000000e+02 4.445005655288696289e-01 4.204128646850585938e+01 2.051644071917203133e-14 5.349286551908916110e-13 1.666335391068210492e-13 3.102486190588275849e-14
2.250000000000000000e+02 5.521366596221923828e-01 4.117087936401367188e+01 3.953167816966168813e-14 4.058252215180524480e-13 1.336070739720723877e-13 2.001604075898850282e-15
2.260000000000000000e+02 6.836233139038085938e+00 3.850974655151367188e+01 1.020818019416107336e-13 1.581267126786467525e-13 7.806255641895631925e-14 6.004812227696550847e-15
2.270000000000000000e+02 2.739214897155761719e+01 4.065552139282226562e+01 5.304250758780305885e-14 -2.301844560228735737e-14 9.007217918028352643e-15 -2.051644071917203133e-14
2.280000000000000000e+02 4.761878204345703125e+01 4.044935607910156250e+01 1.263512525265545958e-14 1.113392198397308505e-14 7.130714679208331741e-15 1.976583908483084406e-14
2.290000000000000000e+02 6.658483886718750000e+01 3.832120513916015625e+01 -1.262177448353618889e-29 -1.200962343895356499e-13 -3.602887167211341057e-14 1.376102770416724047e-14
2.300000000000000000e+02 7.858970642089843750e+01 4.179580307006835938e+01 -4.003208151797700565e-15 -1.961571909677578551e-13 -6.004811719476782494e-14 7.756215645877279075e-14
2.310000000000000000e+02 3.155812323093414307e-01 1.895510077476501465e+00 -5.004010189747125706e-15 1.351082738526229732e-13 3.903127820947815962e-14 2.401924891078620339e-14
2.320000000000000000e+02 9.484655857086181641e-01 1.882286787033081055e+00 1.000802037949425141e-14 5.004010105043830980e-14 1.801443583605670529e-14 5.304250758780305885e-14
2.330000000000000000e+02 4.062268733978271484e+00 3.326492786407470703e+00 -1.235990476633475055e-13 -1.215974478226133915e-13 -7.355895000104098469e-14 6.004812227696550847e-15
2.340000000000000000e+02 9.391815066337585449e-01 2.655694961547851562e+00 5.104090097080536681e-14 1.591275125990138095e-13 6.305052373213257400e-14 -1.050842084789754827e-13
2.350000000000000000e+02 5.177375316619873047e+00 4.196223735809326172e+00 -1.910124517595385846e-14 -8.186247327528119871e-15 -8.186247327528119871e-15 2.264314563214971099e-14
2.360000000000000000e+02 3.037974536418914795e-01 4.283654689788818359e+00 -1.571259127582796955e-13 4.703769451307356075e-14 -3.302646513474866152e-14 1.901523745048965680e-14
2.370000000000000000e+02 3.610742986202239990e-01 8.247154235839843750e+00 2.552045048540268340e-14 2.396920823714149273e-13 7.956375629950690476e-14 5.004010105043830980e-14
2.380000000000000000e+02 3.739978671073913574e-01 9.047121047973632812e+00 1.100882199392720293e-14 2.792237469885494594e-13 8.706977603105056640e-14 -1.701363422162375377e-14
2.390000000000000000e+02 3.763589859008789062e-01 9.855274200439453125e+00 -8.056456299613753980e-14 4.458572996478976647e-13 1.095878216731543953e-13 -4.003208151797700565e-15
2.400000000000000000e+02 3.739433586597442627e-01 1.066786575317382812e+01 4.653729455289003225e-14 4.088276212791536190e-13 1.366094737331735587e-13 -4.003208151797700565e-14
2.410000000000000000e+02 3.715324699878692627e-01 1.147977161407470703e+01 -7.305854326459387815e-14 4.033232081646076495e-13 9.907939540424598457e-14 4.203368474684290867e-14
2.420000000000000000e+02 1.107880234718322754e+00 1.135031414031982422e+01 -1.050842118671072717e-14 3.157530389496371326e-13 9.157338244896590096e-14 -1.070858150959731747e-13
2.430000000000000000e+02 3.660775423049926758e-01 1.309357452392578125e+01 -2.106688169181344938e-13 2.757209608197919160e-13 1.951563910473907981e-14 -1.000802037949425141e-14
2.440000000000000000e+02 3.573622703552246094e-01 1.550816154479980469e+01 1.501203056924137712e-15 3.437754909300233530e-13 1.035830085984248972e-13 2.502005052521915490e-14
2.450000000000000000e+02 3.564174473285675049e-01 1.631255340576171875e+01 5.004010189747125706e-16 4.348484734188057255e-13 1.306046606584440606e-13 1.200962445539310169e-14
2.460000000000000000e+02 3.562809526920318604e-01 1.711674690246582031e+01 -1.551243095294137925e-14 6.109896117691138162e-13 1.786431517037528893e-13 1.200962445539310169e-14
2.470000000000000000e+02 3.565880358219146729e-01 1.792088317871093750e+01 2.001604075898850282e-15 2.982389996856321668e-13 9.007218256841531545e-14 -2.401924891078620339e-14
2.480000000000000000e+02 3.571497797966003418e-01 1.872522735595703125e+01 -4.953969770212299228e-14 3.447762908503904100e-13 8.857097591160115191e-14 1.501202929869195624e-14
2.490000000000000000e+02 3.625818192958831787e-01 2.194318008422851562e+01 -2.401924891078620339e-14 4.243400607024244708e-13 1.200962343895356499e-13 -1.200962445539310169e-14
2.500000000000000000e+02 3.647972941398620605e-01 2.274732971191406250e+01 4.503608959014176322e-15 2.306848559830571022e-13 7.055654346367623564e-14 -3.002406113848275424e-15
2.510000000000000000e+02 3.677993118762969971e-01 2.355293464660644531e+01 -1.115894215138885093e-13 2.266816563015888741e-13 3.452766840343103605e-14 -2.001604075898850282e-15
2.520000000000000000e+02 3.704913258552551270e-01 2.435869789123535156e+01 8.156536291650459680e-14 2.637113346703329197e-13 1.035830085984248972e-13 -1.901523745048965680e-14
2.530000000000000000e+02 3.723098635673522949e-01 2.516403007507324219e+01 -5.854691731421723944e-14 2.036632039230379387e-13 4.353488801552528320e-14 3.702967498061225660e-14
2.540000000000000000e+02 1.118074893951416016e+00 2.506824874877929688e+01 -7.405934996122451319e-14 3.342678781340091554e-13 7.806255641895631925e-14 8.506816941405287436e-14
2.550000000000000000e+02 3.727469742298126221e-01 2.677215957641601562e+01 2.652125379390152943e-14 1.486190998826325549e-13 5.254210423948774134e-14 3.202566521438160452e-14
2.560000000000000000e+02 3.720367550849914551e-01 2.917832756042480469e+01 -1.311050606186275891e-13 4.013216083238735354e-13 8.106496295632106830e-14 8.807057595141762341e-14
2.570000000000000000e+02 3.743691742420196533e-01 2.998078346252441406e+01 1.371098736933570872e-13 4.933953636279686528e-13 1.891515779726613000e-13 4.103288143834406265e-14
2.580000000000000000e+02 3.788107335567474365e-01 3.078464508056640625e+01 -1.245998475837145625e-13 4.498604993293658927e-13 9.757819552369539906e-14 7.706175649858926224e-14
2.590000000000000000e+02 3.834984898567199707e-01 3.158928871154785156e+01 1.561251128379126385e-13 5.244202424745103563e-13 2.041636038832214672e-13 4.103288143834406265e-14
2.600000000000000000e+02 1.152459621429443359e+00 3.147767448425292969e+01 -7.005614350349270714e-14 2.902325732176413986e-13 6.605293026949732305e-14 -2.101684237342145434e-14
2.610000000000000000e+02 3.820106387138366699e-01 3.318764114379882812e+01 -3.402726844324750755e-14 5.344282958882895507e-13 1.501202997631831404e-13 3.803047490097931360e-14
2.620000000000000000e+02 3.812038004398345947e-01 3.556954574584960938e+01 6.905533680686207210e-14 4.413536864537187521e-13 1.531227130768114675e-13 -5.204170427930421283e-14
2.630000000000000000e+02 3.994576334953308105e-01 3.636644744873046875e+01 -3.953167816966168813e-14 3.948163952889605088e-13 1.065854151357896462e-13 -2.502005052521915490e-14
2.640000000000000000e+02 4.266650974750518799e-01 3.715958404541015625e+01 -1.200962445539310169e-14 4.523625126828106913e-13 1.321058605389946461e-13 -1.601283260719080226e-14
2.650000000000000000e+02 4.587582945823669434e-01 3.794918060302734375e+01 -6.255012631304788726e-15 4.090778280355089613e-13 1.208468411060745207e-13 2.602085213965210642e-14
2.660000000000000000e+02 4.912117421627044678e-01 3.874331283569335938e+01 -1.751403587587317678e-14 3.127506391885359616e-13 8.857097591160115191e-14 9.707779556351187056e-14
2.670000000000000000e+02 5.561635494232177734e-01 4.035475158691406250e+01 1.100882199392720293e-14 5.994804262374198167e-13 1.831467648979318019e-13 5.404330750817011586e-14
2.680000000000000000e+02 4.182466030120849609e+00 1.851744532585144043e+00 -8.306656957331876034e-14 -1.271018609371593611e-13 -6.305052373213257400e-14 1.511210996835501974e-13
2.690000000000000000e+02 3.488752365112304688e+00 2.534317016601562500e+00 -7.906335633932337625e-14 1.491194998428160834e-13 2.101684237342145434e-14 6.305052373213257400e-14
2.700000000000000000e+02 3.510647296905517578e+00 1.851191282272338867e+00 -2.301844560228735737e-14 1.731387521417340758e-13 4.503609128420765773e-14 1.341074739322559162e-13
2.710000000000000000e+02 2.217285633087158203e+00 1.852489709854125977e+00 -2.201764398785440585e-14 8.206576287668812530e-14 1.801443583605670529e-14 1.020818019416107336e-13
2.720000000000000000e+02 1.582364201545715332e+00 1.867664933204650879e+00 -2.502005052521915490e-14 3.502807175174635357e-14 3.002406113848275424e-15 -1.981587908084919691e-13
2.730000000000000000e+02 4.231626510620117188e+00 2.545836925506591797e+00 1.326062604991781746e-13 1.025822086780578402e-13 7.055654346367623564e-14 3.202566521438160452e-14
2.740000000000000000e+02 2.984278202056884766e-01 5.866993427276611328e+00 -1.351082687704252897e-14 2.687153342721682048e-13 7.656135653840573374e-14 -7.005613842129502361e-15
2.750000000000000000e+02 1.717778563499450684e+00 7.047400474548339844e+00 7.455974992140804170e-14 2.607089349092317487e-13 1.005806020610601481e-13 -1.641315257533762506e-13
2.760000000000000000e+02 5.662405014038085938e+00 4.812994480133056641e+00 9.407538902614712151e-14 8.606896933441993136e-14 5.404330750817011586e-14 -1.200962445539310169e-14
2.770000000000000000e+02 6.128143787384033203e+00 5.454387187957763672e+00 2.555798183766916365e-13 -1.192205378473462640e-13 4.090778144829818053e-14 -2.542037218743187221e-13
2.780000000000000000e+02 1.017970848083496094e+01 6.604488849639892578e+00 -1.401122768425900472e-14 -6.465181038098344324e-13 -1.981587908084919691e-13 -1.891515779726613000e-13
2.790000000000000000e+02 1.057185935974121094e+01 7.438005924224853516e+00 -2.522020949285302960e-13 -7.085678072928092153e-13 -2.882309733769072846e-13 -2.004105974055814254e-13
2.800000000000000000e+02 8.435867309570312500e+00 6.664829254150390625e+00 1.561251128379126385e-13 -1.160930347080674219e-13 1.200962445539310169e-14 -1.040834085586084257e-13
2.810000000000000000e+02 1.270740222930908203e+01 9.890583038330078125e+00 -3.742999562638543720e-13 -2.862293735361731706e-13 -1.981587908084919691e-13 -1.741395520621011328e-13
2.820000000000000000e+02 1.442477226257324219e+01 1.149583053588867188e+01 -4.833873644242980827e-13 -2.071660171968497943e-13 -2.071660171968497943e-13 -4.238396471897137863e-13
2.830000000000000000e+02 1.501620388031005859e+01 1.200807762145996094e+01 -5.674547203654567440e-13 -3.232590519049172162e-13 -2.672141479441447753e-13 -3.412734775765785544e-13
2.840000000000000000e+02 1.562576007843017578e+01 1.250224494934082031e+01 -4.353488598264620979e-13 -2.552045217946857791e-13 -2.071660171968497943e-13 -4.718781246824954589e-13
2.850000000000000000e+02 1.692755699157714844e+01 1.337980556488037109e+01 -3.652927298754965468e-13 -6.505213034913026604e-14 -1.291034607778934751e-13 -2.892317732972743416e-13
2.860000000000000000e+02 1.894671630859375000e+01 1.455577945709228516e+01 -2.261812563414053456e-13 -1.541235129971785245e-13 -1.140914348673333079e-13 -2.411932958044926689e-13
2.870000000000000000e+02 2.030264282226562500e+01 1.533605957031250000e+01 -3.662935297958636038e-13 -5.404330750817011586e-14 -1.261010474642651480e-13 -2.857289600234624860e-13
2.880000000000000000e+02 2.237751770019531250e+01 1.644717979431152344e+01 -8.151532292048624395e-13 -2.607089349092317487e-13 -3.227586383922065316e-13 -2.067907206148439370e-13
2.890000000000000000e+02 2.307698440551757812e+01 1.677134323120117188e+01 -8.733639354253919240e-13 -4.291720448533313526e-14 -2.748843362133934765e-13 -2.899655342225582189e-13
2.900000000000000000e+02 2.375048255920410156e+01 1.736360359191894531e+01 -6.248914146550488269e-13 -1.305577553619569064e-13 -2.266347374525745639e-13 -3.853087824929463112e-14
2.910000000000000000e+02 2.252810478210449219e+01 6.433105945587158203e+00 -3.042437992078345088e-13 -1.761411519028352468e-13 -1.441154866884536423e-13 -2.081668171172168513e-13
2.920000000000000000e+02 2.390982055664062500e+01 5.797501087188720703e+00 -3.542839036464046076e-13 -3.462775042834681516e-13 -2.101684169579509653e-13 -2.644619278343446345e-13
2.930000000000000000e+02 2.349799728393554688e+01 9.048173904418945312e+00 -1.975333010226579256e-13 2.813504637599884006e-13 2.514515051526503703e-14 1.401122870069854143e-13
2.940000000000000000e+02 2.446957588195800781e+01 7.767853736877441406e+00 -4.777421947627091825e-13 -2.504976206931658345e-13 -2.184719554787842299e-13 -2.381908689383371858e-13
2.950000000000000000e+02 1.984087753295898438e+01 8.927347183227539062e+00 7.835028741250138484e-13 8.390473645730756047e-13 4.867650878724594232e-13 5.164138431115739003e-13
2.960000000000000000e+02 1.812378692626953125e+01 8.325724601745605469e+00 6.265020511923846680e-13 4.343480599060950409e-13 3.182550251980276190e-13 6.345084505553211240e-13
2.970000000000000000e+02 1.678522300720214844e+01 7.404368400573730469e+00 2.902325732176413986e-13 3.302646513474866152e-13 1.861491782115601290e-13 7.145726068150115573e-13
2.980000000000000000e+02 1.746424484252929688e+01 7.844555854797363281e+00 8.176552425583072381e-13 4.533633126031777483e-13 3.813055557064237711e-13 4.778829784148064252e-13
2.990000000000000000e+02 1.613044357299804688e+01 6.987396240234375000e+00 8.777033462005479070e-13 8.336680954942887745e-13 5.134114162454184171e-13 8.106496295632106830e-14
3.000000000000000000e+02 1.639558601379394531e+01 6.737756252288818359e+00 2.431948956452267829e-13 6.074868256003562728e-13 2.552045217946857791e-13 5.224186426337762423e-13
3.010000000000000000e+02 1.568248081207275391e+01 6.099022865295410156e+00 7.806255641895631925e-14 2.622101212372551782e-13 1.020818019416107336e-13 6.985598080891386452e-13
3.020000000000000000e+02 1.498862552642822266e+01 6.159826278686523438e+00 2.341876692568689577e-13 1.461170865291877563e-13 1.140914348673333079e-13 -6.204972381176551699e-14
3.030000000000000000e+02 1.807004928588867188e+01 6.146872997283935547e+00 7.355895000104098469e-14 3.152526186606628700e-14 3.152526186606628700e-14 4.323464600653609269e-13
3.040000000000000000e+02 1.650201606750488281e+01 6.426769256591796875e+00 4.058252215180524480e-13 5.399326818977812081e-13 2.837273601827283720e-13 6.865501548346253369e-13
3.050000000000000000e+02 1.644303894042968750e+01 6.082809448242187500e+00 2.502004950877961820e-13 2.902325732176413986e-13 1.621299259126421366e-13 2.682149478645118323e-13
3.060000000000000000e+02 1.978102111816406250e+01 6.612226009368896484e+00 1.170938346284344789e-13 2.331868693365019007e-13 1.050842084789754827e-13 1.741395520621011328e-13
3.070000000000000000e+02 2.042106056213378906e+01 5.969527244567871094e+00 -9.107298248878237246e-14 -3.903127820947815962e-14 -3.903127820947815962e-14 1.160930347080674219e-13
3.080000000000000000e+02 2.116802597045898438e+01 5.905511379241943359e+00 -2.491996951674291250e-13 -6.104892389139845998e-14 -9.307458910578006450e-14 -1.681347389873716347e-13
3.090000000000000000e+02 2.496616744995117188e+01 7.210249423980712891e+00 -5.689559609035887977e-13 -3.667939433085742884e-13 -2.807249604216272010e-13 -5.323015791168506095e-13
3.100000000000000000e+02 2.255582809448242188e+01 5.841557025909423828e+00 -2.962373998448980528e-13 -2.642117210779892922e-13 -1.681347389873716347e-13 -2.421940957248597259e-13
3.110000000000000000e+02 2.126405525207519531e+01 1.078943729400634766e+01 9.757819552369539906e-13 6.355092775807424932e-13 4.833873644242980827e-13 7.711179242884946827e-13
3.120000000000000000e+02 2.252794075012207031e+01 1.174956417083740234e+01 9.817868089692649569e-13 7.295846869356803488e-13 5.134114162454184171e-13 9.252414372856732072e-13
3.130000000000000000e+02 2.792879676818847656e+01 1.008275699615478516e+01 -6.515221305167240295e-13 -6.795445824971102500e-13 -3.993200084831394214e-13 -7.916343904186551317e-13
3.140000000000000000e+02 2.377662277221679688e+01 1.278109359741210938e+01 1.243996875996411511e-12 1.207967970442980210e-12 7.355894864578826908e-13 1.198460384752020325e-12
3.150000000000000000e+02 2.527382087707519531e+01 9.521607398986816406e+00 -2.275573663963054161e-13 1.312301639968052602e-13 -2.889815868697097334e-14 -2.266816563015888741e-13
3.160000000000000000e+02 2.874269294738769531e+01 1.169515800476074219e+01 -1.200649687093865992e-13 -7.834715948923376416e-13 -2.710609785672862815e-13 -4.300946534682714706e-13
3.170000000000000000e+02 2.853248977661132812e+01 1.063657665252685547e+01 -6.935557813822490481e-13 -6.174948248040268428e-13 -3.933151818558827673e-13 -6.179952383167375274e-13
3.180000000000000000e+02 3.041844749450683594e+01 1.223187255859375000e+01 -3.382710778154773834e-13 -3.622903301143953758e-13 -2.101684169579509653e-13 -3.737995427511436874e-13
3.190000000000000000e+02 3.106896781921386719e+01 1.273642253875732422e+01 -3.622903301143953758e-13 -3.382710778154773834e-13 -2.101684169579509653e-13 -2.456968818936172694e-13
3.200000000000000000e+02 3.174888420104980469e+01 1.321036338806152344e+01 -1.271018609371593611e-13 -4.303448466720996568e-14 -5.104090097080536681e-14 -2.276824562219559311e-13
3.210000000000000000e+02 3.320758819580078125e+01 1.397460556030273438e+01 9.007217918028352643e-15 -1.791435652164635739e-13 -5.104090097080536681e-14 -1.030826086382413687e-13
3.220000000000000000e+02 3.392515182495117188e+01 1.418050765991210938e+01 5.104090097080536681e-14 -1.611291259922750796e-13 -3.302646513474866152e-14 1.451162933850842773e-14
3.230000000000000000e+02 3.778579711914062500e+01 1.320102691650390625e+01 1.491194998428160834e-13 2.011612041221202962e-13 1.050842084789754827e-13 -1.311050606186275891e-13
3.240000000000000000e+02 3.917729568481445312e+01 1.293529415130615234e+01 4.403528797570881170e-14 -4.003208151797700565e-15 1.200962445539310169e-14 5.504411081666896188e-14
3.250000000000000000e+02 4.071232604980468750e+01 1.259424781799316406e+01 1.180946345488015359e-13 -1.801443583605670529e-14 3.002405859738391247e-14 1.100882216333379238e-13
3.260000000000000000e+02 4.148981094360351562e+01 1.242758083343505859e+01 7.906335633932337625e-14 1.100882199392720293e-14 2.702165375408505793e-14 -7.906335633932337625e-14
3.270000000000000000e+02 4.228536224365234375e+01 1.226831150054931641e+01 8.056456299613753980e-14 3.452766840343103605e-14 3.452766840343103605e-14 7.706175649858926224e-14
3.280000000000000000e+02 4.411714935302734375e+01 1.305821418762207031e+01 -8.857097591160115191e-14 -2.667137344314340908e-13 -1.065854151357896462e-13 8.206576287668812530e-14
3.290000000000000000e+02 4.596608352661132812e+01 1.532630729675292969e+01 9.007218256841531545e-14 2.902325732176413986e-13 1.140914348673333079e-13 1.401122768425900472e-14
3.300000000000000000e+02 5.259033966064453125e+01 1.382935619354248047e+01 -1.000802037949425141e-14 -5.004010105043830980e-14 -1.801443583605670529e-14 -3.302646513474866152e-14
3.310000000000000000e+02 5.414484024047851562e+01 1.304287147521972656e+01 6.705373696612795809e-14 3.032429992874674518e-13 1.110890215537049808e-13 -2.902325867701685547e-14
3.320000000000000000e+02 5.568426895141601562e+01 1.291580295562744141e+01 5.004010189747125706e-16 -4.553649124439118623e-14 -1.351082687704252897e-14 4.003208151797700565e-15
3.330000000000000000e+02 5.724399566650390625e+01 1.269123840332031250e+01 7.205774334422682115e-14 -1.521218996039172544e-13 -2.401924891078620339e-14 7.606094980195862720e-14
3.340000000000000000e+02 5.877612686157226562e+01 1.244529533386230469e+01 5.054050101062183831e-14 -1.155926347478838934e-13 -1.951563910473907981e-14 -1.040834085586084257e-13
3.350000000000000000e+02 6.073171615600585938e+01 1.264640617370605469e+01 -9.307458910578006450e-14 1.431146867680865853e-13 1.501202929869195624e-14 -2.461972954063279539e-13
3.360000000000000000e+02 6.254348373413085938e+01 1.376782035827636719e+01 -1.889013847688331138e-13 -2.139214234355910071e-13 -1.208468411060745207e-13 -1.638813257732844864e-14
3.370000000000000000e+02 3.374693393707275391e+00 3.231090307235717773e+00 7.906335633932337625e-14 1.100882199392720293e-14 2.702165375408505793e-14 9.407538902614712151e-14
3.380000000000000000e+02 3.113047182559967041e-01 2.689537286758422852e+00 -1.501202929869195624e-14 8.506816941405287436e-14 2.101684237342145434e-14 1.030826086382413687e-13
3.390000000000000000e+02 2.811411380767822266e+00 4.629606246948242188e+00 1.025822086780578402e-13 -4.753809447325708926e-14 1.651323256737433076e-14 3.202566521438160452e-14
3.400000000000000000e+02 3.712268066406250000e+01 1.645821952819824219e+01 -1.601283260719080226e-14 1.761411519028352468e-13 4.803849782157240678e-14 -4.003208151797700565e-15
3.410000000000000000e+02 3.514117431640625000e+01 1.509238433837890625e+01 1.190954344691685929e-13 5.104090097080536681e-14 5.104090097080536681e-14 -9.007218256841531545e-14
3.420000000000000000e+02 2.327189445495605469e+01 5.876870155334472656e+00 -2.617097348295988057e-13 -4.353488801552528320e-14 -9.157338244896590096e-14 -2.562053217150528361e-13
3.430000000000000000e+02 2.437800979614257812e+01 6.561292171478271484e+00 -4.639968422502638301e-13 -3.353937678800267275e-13 -2.398171721970654424e-13 -4.231633218745173286e-13
3.440000000000000000e+02 3.737850189208984375e+01 1.412537574768066406e+01 1.746399520222846613e-13 1.205966479022463345e-13 8.857097591160115191e-14 -3.002405859738391247e-14
3.450000000000000000e+02 3.885184478759765625e+01 1.464825725555419922e+01 7.856295637913984775e-14 2.166736299928639919e-13 8.857097591160115191e-14 3.302646513474866152e-14
3.460000000000000000e+02 3.865238571166992188e+01 1.383597850799560547e+01 1.266014474244486765e-13 8.506817110811876886e-15 4.053248147816053415e-14 1.461170865291877563e-13
3.470000000000000000e+02 4.679347038269042969e+00 3.636754989624023438e+00 1.598781193155526803e-13 2.276824562219559311e-14 5.479391083657719763e-14 -1.301042606982605321e-13
3.480000000000000000e+02 8.869182467460632324e-01 5.003069400787353516e+00 -9.507618894651417851e-14 5.004010189747125706e-15 -2.702165375408505793e-14 5.004010189747125706e-15
3.490000000000000000e+02 4.996045684814453125e+01 1.474675655364990234e+01 1.661331391466375207e-13 9.407538902614712151e-14 7.806255641895631925e-14 -1.661331391466375207e-13
3.500000000000000000e+02 5.053060913085937500e+01 1.584017086029052734e+01 5.191660428925833071e-14 1.595028227335468229e-13 6.342582709040200939e-14 5.404330750817011586e-14
3.510000000000000000e+02 5.260791397094726562e+01 1.311158370971679688e+01 7.455974992140804170e-14 -5.954771723458429644e-14 4.503608959014176322e-15 -6.004811719476782494e-14
3.520000000000000000e+02 5.095834350585937500e+01 1.442823791503906250e+01 9.607699564314481355e-14 6.405133042876320904e-14 4.803849782157240678e-14 1.501202929869195624e-14
3.530000000000000000e+02 6.532086944580078125e+01 1.217187786102294922e+01 1.901523778930283570e-13 4.703769383544720295e-13 1.981587908084919691e-13 -4.153328343140666457e-13
3.540000000000000000e+02 6.419130706787109375e+01 1.461446666717529297e+01 2.552045048540268340e-14 -8.056456299613753980e-14 -1.651323256737433076e-14 -9.007218256841531545e-14
3.550000000000000000e+02 6.355194854736328125e+01 1.508572196960449219e+01 -2.802245536851800944e-14 -1.321058605389946461e-13 -4.803849782157240678e-14 -1.358588670166346879e-13
3.560000000000000000e+02 6.482390594482421875e+01 1.419636344909667969e+01 1.040834085586084257e-13 5.604491073703601889e-14 4.803849782157240678e-14 -7.656135653840573374e-14
3.570000000000000000e+02 6.133899307250976562e+01 1.502501487731933594e+01 6.242502717003495238e-14 -1.562502162160903096e-13 -2.814755705262978608e-14 -7.005613842129502361e-15
3.580000000000000000e+02 7.735479736328125000e+01 1.044978427886962891e+01 3.202566521438160452e-14 -1.921539912862896271e-13 -4.803849782157240678e-14 -6.905533680686207210e-14
3.590000000000000000e+02 7.962869262695312500e+01 1.115614032745361328e+01 7.956375629950690476e-14 1.256006475040816195e-13 6.154932385158198849e-14 -8.306656957331876034e-14
3.600000000000000000e+02 7.964011383056640625e+01 1.274100112915039062e+01 -1.931547912066566841e-13 -3.702967498061225660e-14 -6.905533680686207210e-14 -1.701363422162375377e-14
3.610000000000000000e+02 6.052509689331054688e+01 1.395993614196777344e+01 -1.541235129971785245e-13 -6.605293026949732305e-14 -6.605293026949732305e-14 1.401122768425900472e-14
3.620000000000000000e+02 6.193326187133789062e+01 1.340801143646240234e+01 -1.458668933253595701e-13 -1.676343424153198952e-14 -4.878909776184769953e-14 -2.001604042017532392e-13
3.630000000000000000e+02 5.879235839843750000e+01 1.317518615722656250e+01 -5.304250758780305885e-14 2.301844560228735737e-14 -9.007217918028352643e-15 -1.070858150959731747e-13
3.640000000000000000e+02 5.337544631958007812e+01 1.382459449768066406e+01 6.705373696612795809e-14 -1.701363422162375377e-14 1.501202929869195624e-14 -4.403528797570881170e-14
3.650000000000000000e+02 5.492410659790039062e+01 1.376308345794677734e+01 6.705373696612795809e-14 -1.701363422162375377e-14 1.501202929869195624e-14 -1.401122768425900472e-14
3.660000000000000000e+02 5.646488952636718750e+01 1.280787467956542969e+01 -7.956375629950690476e-14 -1.256006475040816195e-13 -6.154932385158198849e-14 6.104892389139845998e-14
3.670000000000000000e+02 5.570751953125000000e+01 1.368666076660156250e+01 -6.505213034913026604e-15 -4.853889778175593528e-14 -1.651323256737433076e-14 1.040834085586084257e-13
3.680000000000000000e+02 6.855412292480468750e+01 1.190042018890380859e+01 7.005613842129502361e-15 3.002406113848275424e-15 3.002406113848275424e-15 -7.305854326459387815e-14
3.690000000000000000e+02 6.700126647949218750e+01 1.272624778747558594e+01 3.252606517456513302e-14 -7.756215645877279075e-14 -1.351082687704252897e-14 -2.001604075898850282e-15
3.700000000000000000e+02 7.017823791503906250e+01 1.246221923828125000e+01 1.531227130768114675e-13 1.571259127582796955e-13 9.307458910578006450e-14 4.003208151797700565e-14
3.710000000000000000e+02 7.026383972167968750e+01 1.315531730651855469e+01 5.004010189747125706e-15 -1.351082738526229732e-13 -3.903127820947815962e-14 3.202566521438160452e-14
3.720000000000000000e+02 1.966122627258300781e+01 6.048491954803466797e+00 -5.204170427930421283e-14 -6.805453688649501509e-14 -3.602887167211341057e-14 1.060850151756061177e-13
3.730000000000000000e+02 1.925645828247070312e+01 7.424870967864990234e+00 3.052445991282015658e-13 8.506816941405287436e-14 1.170938346284344789e-13 4.163336342344337027e-13
3.740000000000000000e+02 2.189147377014160156e+01 6.364542484283447266e+00 -3.162534253572935050e-13 -4.403528797570881170e-14 -1.080866150163402317e-13 -2.802245536851800944e-14
3.750000000000000000e+02 2.122930717468261719e+01 6.397456645965576172e+00 1.000802037949425141e-14 5.004010105043830980e-14 1.801443583605670529e-14 2.602085213965210642e-14
3.760000000000000000e+02 2.225319099426269531e+01 1.902366638183593750e+01 -2.695284859015323331e-13 -2.527650669065933942e-13 -1.566880577109214245e-13 -3.803047490097931360e-14
3.770000000000000000e+02 5.801628875732421875e+01 1.256843566894531250e+01 -4.703769451307356075e-14 1.170938346284344789e-13 2.101684237342145434e-14 -8.006416303595401129e-14
3.780000000000000000e+02 5.734878158569335938e+01 1.423383617401123047e+01 1.601283260719080226e-14 -1.761411519028352468e-13 -4.803849782157240678e-14 1.901523745048965680e-14
3.790000000000000000e+02 5.650170135498046875e+01 1.357866001129150391e+01 -1.200962445539310169e-14 -2.802245536851800944e-14 -1.200962445539310169e-14 7.005613842129502361e-15
3.800000000000000000e+02 5.806384277343750000e+01 1.331632232666015625e+01 6.104892389139845998e-14 -2.712173476256130034e-13 -6.305052373213257400e-14 -1.621299259126421366e-13
3.810000000000000000e+02 5.949893569946289062e+01 1.228403854370117188e+01 -9.157338244896590096e-14 6.505213034913026604e-15 -2.552045048540268340e-14 -4.603689120457471473e-14
3.820000000000000000e+02 5.942863464355468750e+01 1.305123901367187500e+01 9.007217918028352643e-15 -1.791435652164635739e-13 -5.104090097080536681e-14 -3.202566521438160452e-14
3.830000000000000000e+02 2.237488555908203125e+01 1.767132377624511719e+01 -3.863095824133133682e-13 -1.541235129971785245e-13 -1.621299259126421366e-13 9.507618725244828400e-15
3.840000000000000000e+02 2.110737228393554688e+01 1.676469039916992188e+01 -6.305052508738528960e-13 -1.901523778930283570e-13 -2.461972954063279539e-13 -6.961828845613443617e-14
3.850000000000000000e+02 1.122316455841064453e+01 9.280779838562011719e+00 -1.214097995316104628e-13 -2.807875188869796146e-13 -1.206591928150715920e-13 -3.247602382329406456e-13
3.860000000000000000e+02 7.686757087707519531e+00 7.566474437713623047e+00 7.806255641895631925e-14 1.020818019416107336e-13 5.404330750817011586e-14 -1.491194998428160834e-13
3.870000000000000000e+02 8.427453041076660156e+00 7.583124637603759766e+00 -1.626303258728256651e-13 -9.257418236933295796e-14 -7.656135653840573374e-14 -1.050842084789754827e-13
3.880000000000000000e+02 1.653334236145019531e+01 1.388072776794433594e+01 -4.123304345529654746e-13 -1.080866150163402317e-13 -1.561251128379126385e-13 -2.807249604216272010e-13
3.890000000000000000e+02 1.827772903442382812e+01 1.415468788146972656e+01 -3.462775042834681516e-13 -1.941555911270237411e-13 -1.621299259126421366e-13 -2.732189474663471174e-13
3.900000000000000000e+02 1.465072345733642578e+01 1.248372364044189453e+01 -3.677947432289413454e-13 -4.778829784148064252e-13 -2.537033083616080376e-13 -4.028227946518969649e-13
3.910000000000000000e+02 1.962130546569824219e+01 1.495201778411865234e+01 -4.463576860555540371e-13 -5.404330750817011586e-14 -1.501202997631831404e-13 -7.656135653840573374e-14
3.920000000000000000e+02 1.913726234436035156e+01 1.552330017089843750e+01 -4.013216083238735354e-13 3.712975565027532010e-13 -9.007217918028352643e-15 -1.063352151556978820e-13
3.930000000000000000e+02 9.296952247619628906e+00 6.695137500762939453e+00 -1.691355389077386917e-13 -1.411130869273524713e-13 -9.307458910578006450e-14 -2.201764432666758475e-13
3.940000000000000000e+02 1.000460624694824219e+01 8.101424217224121094e+00 -1.701363388281057487e-13 -2.101684169579509653e-13 -1.140914348673333079e-13 -2.992397996059992238e-13
3.950000000000000000e+02 1.848184585571289062e+01 1.511331462860107422e+01 -3.923143819355157103e-13 -8.807057595141762341e-14 -1.441154866884536423e-13 -3.582871304329271478e-13
3.960000000000000000e+02 1.348147296905517578e+01 1.146540451049804688e+01 -3.418364224495873405e-13 -2.380032206473342571e-13 -1.739519037710982041e-13 -2.967377862525544252e-13
3.970000000000000000e+02 1.384255599975585938e+01 1.097333812713623047e+01 -4.803849375581425996e-13 -4.003208084035064784e-13 -2.642117210779892922e-13 -2.016616040823038247e-13
3.980000000000000000e+02 1.861643028259277344e+01 1.609943962097167969e+01 -4.586175189613683756e-13 -5.929751725449253219e-14 -1.553745061213737677e-13 -2.121700303512122354e-13
3.990000000000000000e+02 1.234400081634521484e+01 1.039829540252685547e+01 -2.452903060789352052e-13 -1.966263252477923329e-13 -1.325749948190291239e-13 -2.722181475459800604e-13
4.000000000000000000e+02 1.684856414794921875e+01 1.579982566833496094e+01 -2.842277736954390566e-13 8.406736949368581735e-14 -6.004811719476782494e-14 -2.174242367094028627e-13
4.010000000000000000e+02 1.979432487487792969e+01 1.593226528167724609e+01 -3.652927298754965468e-13 -2.652125209983563492e-13 -1.891515779726613000e-13 -9.032238254850707970e-14
4.020000000000000000e+02 1.406109237670898438e+01 1.198086357116699219e+01 -4.683284467697779174e-13 -2.464631417790213996e-13 -2.144374630121126390e-13 -1.273520541409875473e-13
4.030000000000000000e+02 1.290884113311767578e+01 1.093684959411621094e+01 -3.672317983559325594e-13 -5.691435820895374142e-13 -2.809126087126301297e-13 -1.846479647784823874e-13
4.040000000000000000e+02 2.175258255004882812e+01 1.720474433898925781e+01 -4.310954533886385276e-13 8.256616283687165381e-15 -1.268516541808040188e-13 -1.168436278720791366e-13
4.050000000000000000e+02 7.863155364990234375e+01 3.499957275390625000e+01 -2.602085213965210642e-14 -3.402726844324750755e-14 -1.801443583605670529e-14 8.206576287668812530e-14
4.060000000000000000e+02 7.891909027099609375e+01 1.824988174438476562e+01 -1.646319257135597791e-13 -7.055654346367623564e-14 -7.055654346367623564e-14 -1.010810020212436766e-13
4.070000000000000000e+02 7.961173248291015625e+01 4.121704101562500000e+01 -1.050842084789754827e-13 -4.503609128420765773e-14 -4.503609128420765773e-14 -3.702967498061225660e-14
4.080000000000000000e+02 7.872568511962890625e+01 3.767328262329101562e+01 -5.154130431912068433e-14 -1.135910281308862013e-13 -4.953969770212299228e-14 3.002405859738391247e-14
4.090000000000000000e+02 7.891666412353515625e+01 3.839544677734375000e+01 -2.451964887096973189e-14 -1.050842118671072717e-14 -1.050842118671072717e-14 4.903929774193946378e-14
4.100000000000000000e+02 7.952559661865234375e+01 3.662815475463867188e+01 -1.751403587587317678e-14 -7.506014649345978118e-15 -7.506014649345978118e-15 2.702165375408505793e-14
4.110000000000000000e+02 7.854637908935546875e+01 3.683579635620117188e+01 -5.604491073703601889e-14 -1.841475648182988589e-13 -7.205774334422682115e-14 -5.604491073703601889e-14
4.120000000000000000e+02 7.576975250244140625e+01 3.217475509643554688e+01 2.752205498481800731e-15 -9.032238254850707970e-14 -2.627105211974387067e-14 -4.603689120457471473e-14
4.130000000000000000e+02 7.879697418212890625e+01 3.257942962646484375e+01 5.604491073703601889e-14 2.401924891078620339e-14 2.401924891078620339e-14 4.003208151797700565e-14
4.140000000000000000e+02 7.877505493164062500e+01 3.015935325622558594e+01 -4.503608959014176322e-15 -7.055654346367623564e-14 -2.251804564210382886e-14 1.140914348673333079e-13
4.150000000000000000e+02 7.959150695800781250e+01 3.018427467346191406e+01 -1.351082687704252897e-14 -5.154130431912068433e-14 -1.951563910473907981e-14 1.000802037949425141e-14
4.160000000000000000e+02 7.878036499023437500e+01 2.935589218139648438e+01 -4.703769451307356075e-14 1.170938346284344789e-13 2.101684237342145434e-14 1.311050606186275891e-13
4.170000000000000000e+02 7.880060577392578125e+01 2.776360321044921875e+01 -4.203368474684290867e-14 -1.781427517435693608e-13 -6.605293026949732305e-14 1.000802021008766196e-13
4.180000000000000000e+02 7.882714843750000000e+01 2.617230033874511719e+01 -2.301844560228735737e-14 1.301042606982605321e-14 -3.002406113848275424e-15 -3.102486190588275849e-14
4.190000000000000000e+02 7.884091186523437500e+01 2.537718200683593750e+01 3.702967498061225660e-14 -1.671339390670045777e-13 -3.903127820947815962e-14 -5.804651735403371093e-14
4.200000000000000000e+02 7.804012298583984375e+01 2.614162254333496094e+01 7.806255641895631925e-14 -5.804651735403371093e-14 6.004812227696550847e-15 1.401122768425900472e-14
4.210000000000000000e+02 7.886672973632812500e+01 2.379240036010742188e+01 1.401122768425900472e-14 -1.541235129971785245e-13 -4.203368474684290867e-14 -3.402726844324750755e-14
4.220000000000000000e+02 7.889334869384765625e+01 2.142231941223144531e+01 -2.752205540833448094e-14 -5.754611739385018243e-14 -2.552045048540268340e-14 1.140914348673333079e-13
4.230000000000000000e+02 7.963546752929687500e+01 1.986484718322753906e+01 1.841475648182988589e-13 -1.040834085586084257e-13 2.401924891078620339e-14 4.403528797570881170e-14
4.240000000000000000e+02 7.890596008300781250e+01 1.983811759948730469e+01 -8.506816941405287436e-14 -2.652125209983563492e-13 -1.050842084789754827e-13 -1.100882199392720293e-14
4.250000000000000000e+02 7.891226959228515625e+01 1.904500961303710938e+01 9.407538902614712151e-14 -7.405934996122451319e-14 6.004812227696550847e-15 5.404330750817011586e-14
4.260000000000000000e+02 7.892602539062500000e+01 1.746035957336425781e+01 8.156536291650459680e-14 -5.654531408535133641e-14 7.506014649345978118e-15 7.606094980195862720e-14
4.270000000000000000e+02 7.893157196044921875e+01 1.667507743835449219e+01 -4.603689120457471473e-14 2.602085213965210642e-14 -6.004812227696550847e-15 -1.901523745048965680e-14
4.280000000000000000e+02 7.581549072265625000e+01 1.148217678070068359e+01 3.002406113848275424e-15 4.703769451307356075e-14 1.501202929869195624e-14 8.807057595141762341e-14
4.290000000000000000e+02 7.670936584472656250e+01 1.366497707366943359e+01 -3.652927163229693908e-14 1.215974478226133915e-13 2.552045048540268340e-14 3.102486190588275849e-14
4.300000000000000000e+02 7.660873413085937500e+01 1.136117935180664062e+01 5.954771723458429644e-14 -2.947361864118203112e-13 -7.055654346367623564e-14 -9.907939540424598457e-14
4.310000000000000000e+02 7.814377593994140625e+01 1.120288276672363281e+01 -2.001604075898850282e-14 -1.000802021008766196e-13 -3.602887167211341057e-14 -1.160930347080674219e-13
4.320000000000000000e+02 7.890213775634765625e+01 1.196699905395507812e+01 9.357498906596359300e-14 -2.852285871683332696e-14 1.951563910473907981e-14 -9.707779556351187056e-14
4.330000000000000000e+02 7.963475036621093750e+01 1.194975948333740234e+01 2.401924891078620339e-14 5.604491073703601889e-14 2.401924891078620339e-14 3.602887167211341057e-14
4.340000000000000000e+02 7.960118103027343750e+01 2.779878807067871094e+01 6.405133042876320904e-14 -6.405133042876320904e-14 0.000000000000000000e+00 -2.502005052521915490e-14
4.350000000000000000e+02 7.959060668945312500e+01 3.098307228088378906e+01 4.803849782157240678e-14 1.120898214740720378e-13 4.803849782157240678e-14 3.402726844324750755e-14
4.360000000000000000e+02 7.800183105468750000e+01 3.331360244750976562e+01 -6.004812227696550847e-15 -9.407538902614712151e-14 -3.002405859738391247e-14 -1.401122768425900472e-14
4.370000000000000000e+02 7.878908538818359375e+01 2.855877876281738281e+01 -4.053248147816053415e-14 -1.546239129573620530e-13 -5.854691731421723944e-14 1.271018609371593611e-13
4.380000000000000000e+02 7.859136199951171875e+01 3.586454772949218750e+01 -1.551243095294137925e-14 -1.896519779328448285e-13 -6.154932385158198849e-14 -2.201764398785440585e-14
4.390000000000000000e+02 3.994136810302734375e+01 1.276495170593261719e+01 2.001604075898850282e-15 -2.201764398785440585e-14 -6.004812227696550847e-15 -4.303448466720996568e-14
4.400000000000000000e+02 4.329442596435546875e+01 1.295687198638916016e+01 4.653729455289003225e-14 8.857097591160115191e-14 4.053248147816053415e-14 5.704571743366665393e-14
4.410000000000000000e+02 4.313668060302734375e+01 1.211392784118652344e+01 -2.401924891078620339e-14 -5.604491073703601889e-14 -2.401924891078620339e-14 -4.803849782157240678e-14
4.420000000000000000e+02 4.162892150878906250e+01 1.318126106262207031e+01 2.802245536851800944e-14 1.200962445539310169e-14 1.200962445539310169e-14 6.405133042876320904e-14
4.430000000000000000e+02 3.935895156860351562e+01 1.368066024780273438e+01 7.255814330441034965e-14 1.225982477429804485e-13 5.854691731421723944e-14 -4.403528797570881170e-14
4.440000000000000000e+02 2.629757118225097656e+01 1.497364997863769531e+01 4.021973184185900774e-13 8.050201130704870423e-13 3.621652131836905486e-13 6.129599323771717234e-13
4.450000000000000000e+02 2.515694046020507812e+01 1.476274204254150391e+01 3.873103823336804252e-13 2.224782857940255099e-12 7.836279910557186756e-13 4.883913911311876799e-13
4.460000000000000000e+02 2.915035820007324219e+01 1.117670345306396484e+01 -6.865501548346253369e-13 -2.942358000041639388e-13 -2.942358000041639388e-13 -7.536038850244897169e-13
4.470000000000000000e+02 2.581337738037109375e+01 1.432304763793945312e+01 8.797049460412820210e-13 6.515221305167240295e-13 4.593681121253800903e-13 5.824667462760169112e-13
4.480000000000000000e+02 2.590794181823730469e+01 1.006709480285644531e+01 -2.315292868450974373e-13 -7.724940478959219092e-15 -7.177627090772242813e-14 -2.346880827695796423e-13
4.490000000000000000e+02 2.733436584472656250e+01 9.519415855407714844e+00 -8.026432166477470709e-13 -8.586881206085195117e-13 -4.983993903348582499e-13 -6.988099877404396754e-13
4.500000000000000000e+02 1.721883773803710938e+01 6.572898387908935547e+00 1.531227130768114675e-13 4.773825649020957407e-13 1.891515779726613000e-13 3.122502256758252770e-13
4.510000000000000000e+02 1.706467437744140625e+01 7.016027927398681641e+00 6.295044780585401512e-13 3.612895301940283188e-13 2.972381997652651098e-13 4.203368339159019307e-13
4.520000000000000000e+02 1.923698043823242188e+01 8.402119636535644531e+00 6.054852257596221587e-13 2.251804564210382886e-13 2.491996951674291250e-13 5.869703594701958238e-13
4.530000000000000000e+02 2.555382537841796875e+01 7.808245182037353516e+00 -6.074868256003562728e-13 -5.234194696591976115e-13 -3.392718777358444404e-13 -5.466880745839952649e-13
4.540000000000000000e+02 2.315808105468750000e+01 1.225041770935058594e+01 1.205966424812354720e-12 1.065854110700314994e-12 6.815461823378443640e-13 1.053344152353308250e-12
4.550000000000000000e+02 1.999084854125976562e+01 7.169797420501708984e+00 1.361090737729900302e-13 2.642117210779892922e-13 1.200962343895356499e-13 2.652125209983563492e-13
4.560000000000000000e+02 2.336752700805664062e+01 1.073246574401855469e+01 4.673745114883165463e-13 7.836279910557186756e-13 3.753007561842214290e-13 4.373504867722505240e-13
4.570000000000000000e+02 2.044971656799316406e+01 9.418139457702636719e+00 5.910361176170164654e-13 6.193088034588123403e-13 3.631034817437595041e-13 4.223384337566360447e-13
4.580000000000000000e+02 1.938807296752929688e+01 9.326057434082031250e+00 8.186560153736199830e-13 2.822261738547049426e-13 3.302646513474866152e-13 7.345886594324613217e-13
4.590000000000000000e+02 2.086831474304199219e+01 7.476209640502929688e+00 4.703769451307356075e-14 3.632911300347624328e-13 1.230986477031639770e-13 2.181748434259417335e-13
4.600000000000000000e+02 2.508517265319824219e+01 8.370131492614746094e+00 -4.941460110020889918e-13 -3.490296972882139803e-13 -2.529527151975963228e-13 -4.245902403537255010e-13
4.610000000000000000e+02 1.786744499206542969e+01 7.344978332519531250e+00 2.942358000041639388e-13 6.064859985749349036e-13 2.702165477052459464e-13 5.604491480279416571e-13
4.620000000000000000e+02 1.844938397407531738e+00 2.977503204345703125e+01 -6.004811719476782494e-14 3.402726776562114974e-13 8.406736949368581735e-14 -1.401122768425900472e-14
4.630000000000000000e+02 3.714639544486999512e-01 2.837745094299316406e+01 8.656937607086703790e-14 4.488596994089988357e-13 1.606287260320915511e-13 6.505213034913026604e-14
4.640000000000000000e+02 1.935137033462524414e+00 3.591897964477539062e+01 -2.502005052521915490e-14 3.552847035667716646e-13 9.907939540424598457e-14 1.200962445539310169e-14
4.650000000000000000e+02 3.744510412216186523e-01 3.477439498901367188e+01 -8.456776945386934585e-14 3.297642649398302428e-13 7.355895000104098469e-14 -4.203368474684290867e-14
4.660000000000000000e+02 3.609788715839385986e-01 2.113926315307617188e+01 1.000802037949425141e-14 3.702967294773318319e-13 1.140914348673333079e-13 3.302646513474866152e-14
4.670000000000000000e+02 1.842707633972167969e+00 2.335422897338867188e+01 3.702967498061225660e-14 3.132510255961923340e-13 1.050842084789754827e-13 1.481186999224490264e-13
4.680000000000000000e+02 1.095284461975097656e+00 2.263871765136718750e+01 1.851483749030612830e-14 2.366896826103137563e-13 7.656135653840573374e-14 -6.705373696612795809e-14
4.690000000000000000e+02 2.609445095062255859e+00 2.409991455078125000e+01 1.851483749030612830e-14 3.968179951296946228e-13 1.245998475837145625e-13 7.005613842129502361e-15
4.700000000000000000e+02 1.118699669837951660e+00 2.667849349975585938e+01 -4.703769451307356075e-14 2.772221471478153454e-13 6.905533680686207210e-14 1.581267126786467525e-13
4.710000000000000000e+02 3.730002641677856445e-01 2.596880531311035156e+01 5.504410996963601463e-15 2.997402131187099084e-13 9.157338244896590096e-14 4.903929774193946378e-14
4.720000000000000000e+02 1.115196108818054199e+00 2.748047065734863281e+01 -9.207378240914942946e-14 3.722983564231202580e-13 8.406736949368581735e-14 6.605293026949732305e-14
4.730000000000000000e+02 1.111632466316223145e+00 2.907324790954589844e+01 1.386110735739076727e-13 5.169142566242845849e-13 1.966575909279413836e-13 -4.603689120457471473e-14
4.740000000000000000e+02 2.580135107040405273e+00 3.046614265441894531e+01 -6.305052373213257400e-14 4.533633126031777483e-13 1.170938346284344789e-13 -6.004812227696550847e-15
4.750000000000000000e+02 1.164179086685180664e+00 3.306374740600585938e+01 -1.401122768425900472e-14 3.142518255165593910e-13 9.007218256841531545e-14 -1.801443583605670529e-14
4.760000000000000000e+02 3.848884403705596924e-01 3.239134216308593750e+01 -6.505213034913026604e-14 3.152526254369264480e-13 7.506014988159157020e-14 -4.603689120457471473e-14
4.770000000000000000e+02 1.142765522003173828e+00 3.383958435058593750e+01 2.001604075898850282e-15 2.982389996856321668e-13 9.007218256841531545e-14 7.706175649858926224e-14
4.780000000000000000e+02 1.133625268936157227e+00 3.537797927856445312e+01 -7.005614350349270714e-14 2.902325732176413986e-13 6.605293026949732305e-14 2.301844560228735737e-14
4.790000000000000000e+02 1.456428289413452148e+00 3.844435119628906250e+01 -6.280032375204080974e-14 4.305950669809821552e-13 1.103384216134296880e-13 1.701363422162375377e-14
4.800000000000000000e+02 1.271911978721618652e+00 3.691321563720703125e+01 -5.104090097080536681e-14 4.813857645835639687e-13 1.291034607778934751e-13 8.506816941405287436e-14
4.810000000000000000e+02 2.516692638397216797e+00 3.886212539672851562e+01 4.841379779171005315e-14 4.782582749968122826e-13 1.580016228529962374e-13 6.004812227696550847e-15
4.820000000000000000e+02 1.560742616653442383e+00 3.924081420898437500e+01 3.502806921064751181e-15 3.217578384718394746e-13 9.757819552369539906e-14 7.105694342385976414e-14
4.830000000000000000e+02 5.262184143066406250e-01 3.954688262939453125e+01 5.154130431912068433e-14 4.338476734984386685e-13 1.456166865690042278e-13 7.606094980195862720e-14
4.840000000000000000e+02 1.697418808937072754e+00 4.005517578125000000e+01 1.263512542206204903e-13 1.914033845697507563e-13 9.532638892660594276e-14 5.204170427930421283e-14
4.850000000000000000e+02 1.520857453346252441e+00 4.194494247436523438e+01 8.456776945386934585e-14 4.708773518671827141e-13 1.666335391068210492e-13 -1.851483749030612830e-14
4.860000000000000000e+02 1.028244376182556152e+00 7.268989562988281250e+00 4.403528797570881170e-14 1.561251128379126385e-13 6.004811719476782494e-14 4.703769451307356075e-14
4.870000000000000000e+02 3.396756947040557861e-01 7.450349807739257812e+00 8.106496295632106830e-14 3.092478259147241060e-13 1.170938346284344789e-13 6.004812227696550847e-15
4.880000000000000000e+02 2.947967946529388428e-01 5.077264308929443359e+00 5.104090097080536681e-14 1.591275125990138095e-13 6.305052373213257400e-14 -6.004812227696550847e-15
4.890000000000000000e+02 5.534195423126220703e+00 5.901163578033447266e+00 1.606287260320915511e-13 1.145918348275168364e-13 8.256616283687165381e-14 -1.240994476235310340e-13
4.900000000000000000e+02 3.580456078052520752e-01 1.952966499328613281e+01 3.903127820947815962e-14 2.912333731380084556e-13 9.907939540424598457e-14 4.003208151797700565e-15
4.910000000000000000e+02 1.082535505294799805e+00 2.102838325500488281e+01 2.251804564210382886e-14 5.129110027327077326e-13 1.606287260320915511e-13 -2.702165375408505793e-14
4.920000000000000000e+02 1.768958926200866699e+00 1.609591865539550781e+01 -8.907137587178468041e-14 4.193360339955348737e-13 9.907939540424598457e-14 -6.905533680686207210e-14
4.930000000000000000e+02 3.595356941223144531e-01 1.470405483245849609e+01 -4.503609128420765773e-14 5.754611739385018243e-13 1.591275125990138095e-13 -8.006416303595401129e-15
4.940000000000000000e+02 9.429380297660827637e-01 3.443672180175781250e+00 1.100882199392720293e-14 1.190954344691685929e-13 3.903127820947815962e-14 7.405934996122451319e-14
4.950000000000000000e+02 3.100821673870086670e-01 3.487145662307739258e+00 1.381106736137241442e-13 8.206576287668812530e-14 6.605293026949732305e-14 -3.002406113848275424e-15
4.960000000000000000e+02 4.249286651611328125e+00 5.317210674285888672e+00 1.821459649775647449e-13 -2.001604075898850282e-15 5.404330750817011586e-14 -9.607699564314481355e-14
4.970000000000000000e+02 1.874575853347778320e+00 7.818927764892578125e+00 -3.803047490097931360e-14 2.582069215557869502e-13 6.605293026949732305e-14 0.000000000000000000e+00
4.980000000000000000e+02 1.132489323616027832e+00 8.858924865722656250e+00 -3.402726844324750755e-14 3.742999562638543720e-13 1.020818019416107336e-13 3.903127820947815962e-14
4.990000000000000000e+02 1.818616390228271484e+00 1.040715217590332031e+01 1.511210996835501974e-13 3.392718777358444404e-13 1.471179000020819694e-13 -2.401924891078620339e-14
5.000000000000000000e+02 1.097404956817626953e+00 1.297486400604248047e+01 6.555253030931379454e-14 2.797241605012601440e-13 1.035830085984248972e-13 5.504411081666896188e-14
5.010000000000000000e+02 3.691888451576232910e-01 1.228800106048583984e+01 1.606287260320915511e-13 2.747201608994248589e-13 1.306046606584440606e-13 -4.903929774193946378e-14
5.020000000000000000e+02 1.085983157157897949e+00 1.378371620178222656e+01 -1.776423517833858323e-13 3.127506391885359616e-13 4.053248147816053415e-14 2.802245536851800944e-14
5.030000000000000000e+02 1.075915098190307617e+00 1.459094047546386719e+01 3.602887167211341057e-14 4.043240080849747065e-13 1.321058605389946461e-13 6.505213034913026604e-14
5.040000000000000000e+02 1.069192767143249512e+00 1.539453601837158203e+01 -2.401924891078620339e-14 4.243400607024244708e-13 1.200962343895356499e-13 -5.904731727440076794e-14
5.050000000000000000e+02 2.460937261581420898e+00 1.679986190795898438e+01 -2.401924891078620339e-14 2.642117210779892922e-13 7.205774334422682115e-14 -6.705373696612795809e-14
5.060000000000000000e+02 1.067059159278869629e+00 1.780593681335449219e+01 -8.256616283687165381e-14 3.077466124816463644e-13 6.755413692631148659e-14 1.100882199392720293e-14
5.070000000000000000e+02 1.068990230560302734e+00 1.861089706420898438e+01 -2.151724233360498284e-14 1.966575909279413836e-13 5.254210423948774134e-14 -6.004811719476782494e-14
5.080000000000000000e+02 1.072224736213684082e+00 1.941589355468750000e+01 -4.153328478665938017e-14 2.567057081227092086e-13 6.455173038894673754e-14 -3.803047490097931360e-14
5.090000000000000000e+02 3.362046051025390625e+01 1.487378025054931641e+01 5.004010189747125706e-15 -1.351082738526229732e-13 -3.903127820947815962e-14 -1.180946345488015359e-13
5.100000000000000000e+02 3.064599609375000000e+01 1.333941268920898438e+01 -3.077466192579099424e-14 -2.419438889685043836e-13 -8.181556289659636105e-14 -1.841475648182988589e-13
5.110000000000000000e+02 2.999026298522949219e+01 1.281230068206787109e+01 -6.197153928260215605e-14 -5.755706241478142360e-13 -1.912626415752349818e-13 -2.309350627394124444e-13
5.120000000000000000e+02 2.337341880798339844e+01 7.748226642608642578e+00 -3.147522390292700756e-13 1.396118734942747297e-13 -5.254210423948774134e-14 -5.204170427930421283e-14
5.130000000000000000e+02 2.978131866455078125e+01 1.170827674865722656e+01 -4.983993903348582499e-13 -7.626111114128475421e-13 -3.783031559453226000e-13 -4.583673393100673454e-13
5.140000000000000000e+02 2.894775199890136719e+01 1.274066925048828125e+01 6.580273028940555879e-14 -7.038140144473292725e-13 -1.914033845697507563e-13 -1.561251128379126385e-13
5.150000000000000000e+02 2.936885643005371094e+01 1.224677181243896484e+01 -8.531836939414463861e-14 -4.025726150005959347e-13 -1.463672932855430986e-13 -4.213376338362689877e-13
5.160000000000000000e+02 3.135932350158691406e+01 1.380858898162841797e+01 -1.361090737729900302e-13 -4.243400607024244708e-13 -1.681347389873716347e-13 -5.204170427930421283e-14
5.170000000000000000e+02 2.692909240722656250e+01 1.004694557189941406e+01 -4.390627943683111933e-13 -4.626754708525471216e-13 -2.705214795662574945e-13 -4.417289830357246094e-13
5.180000000000000000e+02 2.358945465087890625e+01 1.176280879974365234e+01 7.716808962665577809e-13 8.339808336109422182e-13 4.816985027002174125e-13 7.686159651451585084e-13
5.190000000000000000e+02 2.674290084838867188e+01 8.953420639038085938e+00 -6.775429826563761360e-13 -7.135718339996988124e-13 -4.173344341548007597e-13 -6.234996243262291848e-13
5.200000000000000000e+02 2.295104789733886719e+01 1.125360202789306641e+01 6.796070867523540393e-13 8.860225378902464310e-13 4.696889036558127284e-13 6.895525817007808200e-13
5.210000000000000000e+02 6.938739776611328125e+01 1.254929161071777344e+01 9.657739560332834206e-14 1.786431517037528893e-13 8.256616283687165381e-14 0.000000000000000000e+00
5.220000000000000000e+02 7.421260070800781250e+01 1.176682949066162109e+01 7.155734338404329264e-14 -1.065854151357896462e-13 -1.050842118671072717e-14 6.004811719476782494e-14
5.230000000000000000e+02 7.891635131835937500e+01 1.275364017486572266e+01 4.403528797570881170e-14 1.561251128379126385e-13 6.004811719476782494e-14 6.605293026949732305e-14
5.240000000000000000e+02 7.251311492919921875e+01 1.136555767059326172e+01 2.902325867701685547e-14 -7.906335633932337625e-14 -1.501202929869195624e-14 -9.007217918028352643e-15
5.250000000000000000e+02 7.179486846923828125e+01 1.221118831634521484e+01 5.704571743366665393e-14 -6.705373696612795809e-14 -3.002406113848275424e-15 1.601283260719080226e-14
5.260000000000000000e+02 7.260279083251953125e+01 1.206669425964355469e+01 4.503609128420765773e-14 6.505213034913026604e-14 3.302646513474866152e-14 1.601283260719080226e-14
5.270000000000000000e+02 7.501541137695312500e+01 1.161992740631103516e+01 6.305052373213257400e-14 2.702165375408505793e-14 2.702165375408505793e-14 -8.006416303595401129e-15
5.280000000000000000e+02 7.340850067138671875e+01 1.191727542877197266e+01 2.502005052521915490e-14 -3.502807175174635357e-14 -3.002406113848275424e-15 6.605293026949732305e-14
5.290000000000000000e+02 9.233925819396972656e+00 7.704663276672363281e+00 4.503608959014176322e-15 -8.957178260823178695e-14 -2.552045048540268340e-14 -7.105694342385976414e-14
5.300000000000000000e+02 6.567683219909667969e+00 6.105065345764160156e+00 8.356696953350228885e-14 8.156536291650459680e-14 4.953969770212299228e-14 -1.741395520621011328e-13
5.310000000000000000e+02 3.681210279464721680e+00 7.279498577117919922e+00 5.604491073703601889e-14 2.642117210779892922e-13 9.607699564314481355e-14 -1.721379386688398627e-13
5.320000000000000000e+02 9.015952944755554199e-01 5.746316432952880859e+00 -4.453568793589234021e-14 2.096680169977674368e-13 4.953969770212299228e-14 1.361090737729900302e-13
5.330000000000000000e+02 6.875335216522216797e+00 6.841556549072265625e+00 1.546239129573620530e-13 3.407730911689221820e-13 1.486190998826325549e-13 -1.100882216333379238e-13
5.340000000000000000e+02 1.918607234954833984e+00 8.671471595764160156e+00 1.251002475438980910e-13 3.052445991282015658e-13 1.291034607778934751e-13 -1.070858150959731747e-13
5.350000000000000000e+02 1.607103466987609863e+00 3.398207664489746094e+00 -3.102486190588275849e-14 2.612093213168881212e-13 6.905533680686207210e-14 -1.741395520621011328e-13
5.360000000000000000e+02 5.954925537109375000e+01 1.368424320220947266e+01 -8.757017599123409490e-14 2.827265602623613150e-13 5.854691731421723944e-14 -6.004812227696550847e-15
5.370000000000000000e+02 4.329945755004882812e+01 1.378472805023193359e+01 -1.701363422162375377e-14 -5.304250758780305885e-14 -2.101684237342145434e-14 8.206576287668812530e-14
5.380000000000000000e+02 4.242935180664062500e+01 1.304837322235107422e+01 4.503609128420765773e-14 -2.552045217946857791e-13 -6.305052373213257400e-14 -1.200962445539310169e-14
5.390000000000000000e+02 4.457923507690429688e+01 1.243546485900878906e+01 -1.251002475438980910e-13 1.951563910473907981e-13 2.101684237342145434e-14 6.104892389139845998e-14
5.400000000000000000e+02 4.438156509399414062e+01 1.445777320861816406e+01 -9.007217918028352643e-15 9.907939540424598457e-14 2.702165375408505793e-14 3.652927163229693908e-14
5.410000000000000000e+02 6.551828002929687500e+01 1.264885520935058594e+01 -9.420048562806121462e-14 5.379310583401245710e-15 -2.664635378394741155e-14 -2.061652172764827373e-13
5.420000000000000000e+02 6.781955718994140625e+01 1.266883277893066406e+01 1.150922280114367868e-14 -8.656937607086703790e-14 -2.251804564210382886e-14 -1.200962445539310169e-14
5.430000000000000000e+02 6.708010101318359375e+01 1.346039390563964844e+01 8.757017599123409490e-14 3.753007494079578510e-14 3.753007494079578510e-14 1.000802037949425141e-14
5.440000000000000000e+02 5.178556823730468750e+01 1.381044864654541016e+01 7.055654346367623564e-14 -1.551243095294137925e-14 1.651323256737433076e-14 -6.405133042876320904e-14
5.450000000000000000e+02 5.176161575317382812e+01 1.313913440704345703e+01 -6.305052373213257400e-14 -2.702165375408505793e-14 -2.702165375408505793e-14 -1.601283260719080226e-14
5.460000000000000000e+02 5.020689392089843750e+01 1.323583889007568359e+01 -1.481186999224490264e-13 2.802245536851800944e-14 -3.602887167211341057e-14 -2.381908689383371858e-13
5.470000000000000000e+02 4.821313858032226562e+01 1.627799415588378906e+01 -5.504410996963601463e-15 1.806447650970141594e-13 5.254210423948774134e-14 -1.240994476235310340e-13
5.480000000000000000e+02 4.727456283569335938e+01 1.551675510406494141e+01 -6.430153040885497329e-14 8.681957605095880215e-14 6.755413438521264483e-15 -4.203368474684290867e-14
5.490000000000000000e+02 1.568923711776733398e+00 2.612983226776123047e+00 -3.202566521438160452e-14 3.202566521438160452e-14 0.000000000000000000e+00 4.603689120457471473e-14
5.500000000000000000e+02 2.192842721939086914e+00 2.552112340927124023e+00 -1.381106736137241442e-13 7.806255641895631925e-14 -1.801443583605670529e-14 -1.271018609371593611e-13
5.510000000000000000e+02 2.825813770294189453e+00 2.518181324005126953e+00 7.005613842129502361e-15 3.002406113848275424e-15 3.002406113848275424e-15 1.200962343895356499e-13
5.520000000000000000e+02 4.220901966094970703e+00 4.385286331176757812e+00 -8.256616283687165381e-14 -1.726383521815505473e-13 -7.656135653840573374e-14 -1.200962445539310169e-14
5.530000000000000000e+02 7.892599487304687500e+01 1.353870582580566406e+01 2.852285871683332696e-14 -3.352686848306397904e-14 -1.501203056924137712e-15 4.803849782157240678e-14
5.540000000000000000e+02 3.683235549926757812e+01 1.428062343597412109e+01 9.607699564314481355e-14 2.241796429481440756e-13 9.607699564314481355e-14 -5.804651735403371093e-14
5.550000000000000000e+02 3.799266815185546875e+01 1.397673034667968750e+01 1.210970478624298630e-13 1.891515779726613000e-13 9.307458910578006450e-14 -9.207378240914942946e-14
5.560000000000000000e+02 2.029951286315917969e+01 8.555644989013671875e+00 4.283432603838926989e-13 2.922341730583755126e-13 2.161732300326804634e-13 3.617899166016846912e-13
5.570000000000000000e+02 2.319962120056152344e+01 6.648618698120117188e+00 -4.923945908126559079e-13 -3.482791041242022656e-13 -2.522020949285302960e-13 -2.101684169579509653e-13
5.580000000000000000e+02 3.704988861083984375e+01 1.573813533782958984e+01 8.356696953350228885e-14 8.156536291650459680e-14 4.953969770212299228e-14 -7.506014988159157020e-14
5.590000000000000000e+02 3.819038391113281250e+01 1.478369045257568359e+01 1.806447650970141594e-13 2.146720301521298779e-13 1.185950345089850644e-13 2.802245536851800944e-14
5.600000000000000000e+02 6.099871826171875000e+01 1.355580234527587891e+01 -6.905533680686207210e-14 1.591275125990138095e-13 2.702165375408505793e-14 -1.506206997233666689e-13
5.610000000000000000e+02 5.984977722167968750e+01 1.439470672607421875e+01 1.098380216532461595e-13 -2.274322494656005889e-13 -3.527827173183811782e-14 -9.007218256841531545e-14
5.620000000000000000e+02 1.735438156127929688e+01 1.525315284729003906e+01 -4.507362094240824346e-13 -5.591981074699013676e-14 -1.519968097782667393e-13 -4.163336342344337027e-13
5.630000000000000000e+02 2.052390670776367188e+01 6.483246803283691406e+00 -8.306656957331876034e-14 -1.271018609371593611e-13 -6.305052373213257400e-14 8.206576287668812530e-14
5.640000000000000000e+02 5.336770248413085938e+01 1.458328914642333984e+01 2.251804564210382886e-14 -1.276022608973428896e-13 -3.152526186606628700e-14 9.307458910578006450e-14
5.650000000000000000e+02 5.729344558715820312e+01 1.345287418365478516e+01 -1.501202929869195624e-14 -7.506014988159157020e-14 -2.702165375408505793e-14 9.007218256841531545e-14
5.660000000000000000e+02 5.414409637451171875e+01 1.459211921691894531e+01 2.351884725653678038e-14 -2.186752433861252620e-13 -5.854691731421723944e-14 -1.080866150163402317e-13
5.670000000000000000e+02 6.867297363281250000e+01 1.333202075958251953e+01 6.955573676704560060e-14 7.556054984177509870e-14 4.353488801552528320e-14 3.402726844324750755e-14
5.680000000000000000e+02 7.098348236083984375e+01 1.234711551666259766e+01 3.152526186606628700e-14 1.351082687704252897e-14 1.351082687704252897e-14 1.601283260719080226e-14
5.690000000000000000e+02 6.955006408691406250e+01 1.396822357177734375e+01 3.702967498061225660e-14 -7.005613842129502361e-15 9.007217918028352643e-15 2.602085213965210642e-14
5.700000000000000000e+02 1.896562767028808594e+01 6.768976688385009766e+00 1.926543912464731556e-13 8.256616283687165381e-14 8.256616283687165381e-14 3.963175816169839383e-13
5.710000000000000000e+02 2.131866836547851562e+01 6.886024951934814453e+00 -2.231788430277770185e-13 -1.871499781319271860e-13 -1.230986477031639770e-13 -1.401122768425900472e-14
5.720000000000000000e+02 2.184366989135742188e+01 9.009660720825195312e+00 3.632911300347624328e-13 5.674547203654567440e-13 2.792237469885494594e-13 3.002405995263662808e-13
5.730000000000000000e+02 2.045200920104980469e+01 1.634312820434570312e+01 -3.773023560249555430e-13 -1.301042606982605321e-14 -1.170938346284344789e-13 -1.703865455844610910e-13
5.740000000000000000e+02 1.924773406982421875e+01 1.652817535400390625e+01 -3.545341104027599499e-13 7.681155651849749799e-14 -8.331676955341052460e-14 -1.601283260719080226e-14
5.750000000000000000e+02 5.821747970581054688e+01 1.492321586608886719e+01 4.303448466720996568e-14 -7.305854326459387815e-14 -9.007217918028352643e-15 -7.606094980195862720e-14
5.760000000000000000e+02 5.653708648681640625e+01 1.436691761016845703e+01 -3.052446194569922999e-14 -1.045838085187919542e-13 -4.053248147816053415e-14 1.140914348673333079e-13
5.770000000000000000e+02 5.905154037475585938e+01 1.478482723236083984e+01 -1.000802037949425141e-14 -5.004010105043830980e-14 -1.801443583605670529e-14 -2.001604075898850282e-15
5.780000000000000000e+02 5.888002395629882812e+01 1.394010925292968750e+01 4.003208151797700565e-14 -1.200962343895356499e-13 -2.401924891078620339e-14 -8.206576287668812530e-14
5.790000000000000000e+02 2.106737518310546875e+01 9.881678581237792969e+00 7.662077352796337060e-13 5.113785371720080963e-13 3.832759034195359904e-13 6.840481956912891626e-13
5.800000000000000000e+02 2.570619201660156250e+01 8.946639060974121094e+00 -4.589556816189666044e-13 -2.424462269400712300e-13 -2.104205752782167815e-13 -3.920329230515384733e-13
5.810000000000000000e+02 2.231608200073242188e+01 1.078017330169677734e+01 7.228605192720338746e-13 8.130577916660997051e-13 4.607755149654835236e-13 7.430954723081084623e-13
5.820000000000000000e+02 1.861615753173828125e+01 7.827362537384033203e+00 6.343208293693725075e-13 3.633536885001148464e-13 2.993023580713516374e-13 5.134114162454184171e-13
5.830000000000000000e+02 1.987351989746093750e+01 1.696374320983886719e+01 -4.498604993293658927e-13 -1.556247128777291100e-13 -1.816455650173812164e-13 -4.206496059138732646e-14
5.840000000000000000e+02 7.867696380615234375e+01 3.417870712280273438e+01 -3.602887167211341057e-14 -8.406736949368581735e-14 -3.602887167211341057e-14 -3.002406113848275424e-15
5.850000000000000000e+02 7.803375244140625000e+01 3.260826110839843750e+01 -3.152526186606628700e-14 -1.351082687704252897e-14 -1.351082687704252897e-14 -1.501202929869195624e-14
5.860000000000000000e+02 7.724506378173828125e+01 3.812295532226562500e+01 -5.354290754798658736e-14 -9.157338244896590096e-14 -4.353488801552528320e-14 -1.000802037949425141e-15
5.870000000000000000e+02 7.819866943359375000e+01 3.839422225952148438e+01 -3.702967498061225660e-14 -1.531227130768114675e-13 -5.704571743366665393e-14 2.101684237342145434e-14
5.880000000000000000e+02 7.811013793945312500e+01 2.376478004455566406e+01 -7.556054984177509870e-14 -1.696359388679222202e-13 -7.355895000104098469e-14 1.020818019416107336e-13
5.890000000000000000e+02 7.812774658203125000e+01 2.297943115234375000e+01 6.705373696612795809e-14 -1.701363422162375377e-14 1.501202929869195624e-14 -1.000802037949425141e-14
5.900000000000000000e+02 7.893200683593750000e+01 1.432268333435058594e+01 7.906335633932337625e-14 -1.491194998428160834e-13 -2.101684237342145434e-14 3.402726844324750755e-14
5.910000000000000000e+02 7.893494415283203125e+01 1.510669231414794922e+01 2.301844560228735737e-14 1.471179000020819694e-13 5.104090097080536681e-14 6.805453688649501509e-14
5.920000000000000000e+02 7.878058624267578125e+01 3.178256988525390625e+01 5.504410996963601463e-15 1.396118734942747297e-13 4.353488801552528320e-14 1.000802037949425141e-15
5.930000000000000000e+02 7.795635986328125000e+01 3.014477348327636719e+01 -4.703769451307356075e-14 2.772221471478153454e-13 6.905533680686207210e-14 -3.903127820947815962e-14
5.940000000000000000e+02 7.887757873535156250e+01 2.300287055969238281e+01 -8.356696953350228885e-14 -8.156536291650459680e-14 -4.953969770212299228e-14 6.405133042876320904e-14
5.950000000000000000e+02 7.746837615966796875e+01 1.824952888488769531e+01 -3.853087824929463112e-14 -1.651323256737433076e-14 -1.651323256737433076e-14 -1.421138868477195283e-13
5.960000000000000000e+02 7.893462371826171875e+01 1.589105796813964844e+01 1.471179000020819694e-13 6.305052373213257400e-14 6.305052373213257400e-14 3.302646513474866152e-14
5.970000000000000000e+02 7.821415710449218750e+01 1.511638641357421875e+01 1.586271126388302810e-13 -2.351884725653678038e-14 4.053248147816053415e-14 -1.180946345488015359e-13
5.980000000000000000e+02 7.820516967773437500e+01 1.745289802551269531e+01 -1.611291259922750796e-13 -6.905533680686207210e-14 -6.905533680686207210e-14 -7.405934996122451319e-14
5.990000000000000000e+02 7.796984100341796875e+01 2.853183937072753906e+01 -6.255012377194904549e-14 -7.255814330441034965e-14 -4.053248147816053415e-14 -5.204170427930421283e-14
6.000000000000000000e+02 7.885421752929687500e+01 2.458411026000976562e+01 -1.351082687704252897e-14 -2.116696303910287069e-13 -6.755413692631148659e-14 4.103288143834406265e-14
6.010000000000000000e+02 7.808935546875000000e+01 2.455421447753906250e+01 6.805453688649501509e-14 -1.080866150163402317e-13 -1.200962445539310169e-14 2.502005052521915490e-14
6.020000000000000000e+02 7.889965820312500000e+01 2.063036727905273438e+01 1.646319257135597791e-13 7.055654346367623564e-14 7.055654346367623564e-14 -1.601283260719080226e-14
6.030000000000000000e+02 7.814199066162109375e+01 2.219438743591308594e+01 1.451162933850842773e-14 -3.953167816966168813e-14 -7.506014649345978118e-15 1.281026608575264181e-13
6.040000000000000000e+02 7.815370941162109375e+01 2.140798568725585938e+01 7.506014649345978118e-15 -4.253408470702643718e-14 -1.050842118671072717e-14 -7.506014988159157020e-14
6.050000000000000000e+02 7.744068145751953125e+01 1.983072090148925781e+01 -5.704571743366665393e-14 6.705373696612795809e-14 3.002406113848275424e-15 -5.004010105043830980e-14
6.060000000000000000e+02 7.819609069824218750e+01 1.823962783813476562e+01 8.907137587178468041e-14 -9.907939540424598457e-14 -3.002406113848275424e-15 7.405934996122451319e-14
6.070000000000000000e+02 7.821197509765625000e+01 1.667229652404785156e+01 5.804651735403371093e-14 -1.581267126786467525e-13 -3.002405859738391247e-14 3.002406113848275424e-15
6.080000000000000000e+02 7.821541595458984375e+01 1.589371681213378906e+01 -4.853889778175593528e-14 -6.655333022968085155e-14 -3.452766840343103605e-14 -2.502005052521915490e-14
6.090000000000000000e+02 7.798978424072265625e+01 2.773504638671875000e+01 1.301042606982605321e-14 -2.231788430277770185e-13 -6.305052373213257400e-14 -5.504411081666896188e-14
6.100000000000000000e+02 7.816448974609375000e+01 1.199961757659912109e+01 5.554451077685249039e-14 2.296840560626900452e-13 8.556856937423640286e-14 4.703769451307356075e-14
6.110000000000000000e+02 7.795761871337890625e+01 2.933347320556640625e+01 -2.001604075898850282e-14 -1.000802021008766196e-13 -3.602887167211341057e-14 -1.010810020212436766e-13
6.120000000000000000e+02 7.801429748535156250e+01 2.693820571899414062e+01 3.652927163229693908e-14 -1.215974478226133915e-13 -2.552045048540268340e-14 1.401122768425900472e-14
6.130000000000000000e+02 7.667679595947265625e+01 4.149845123291015625e+01 -2.527025050531091915e-14 -1.023320019217024979e-13 -3.828067826920286687e-14 -1.601283260719080226e-14
6.140000000000000000e+02 7.773316955566406250e+01 3.413195419311523438e+01 -5.504411081666896188e-14 -1.150922347877003649e-13 -5.104090097080536681e-14 -2.001604075898850282e-14
6.150000000000000000e+02 7.825106048583984375e+01 3.966386795043945312e+01 -1.526223097284961500e-14 -5.229190425939597708e-14 -2.026624073908026707e-14 1.601283260719080226e-14
6.160000000000000000e+02 7.650193786621093750e+01 3.652721786499023438e+01 -1.326062689695076471e-14 -7.430954994131627744e-14 -2.627105211974387067e-14 -4.203368474684290867e-14
6.170000000000000000e+02 7.769486999511718750e+01 3.500215911865234375e+01 -9.157338244896590096e-14 -1.536231130369949960e-13 -7.355895000104098469e-14 -6.605293026949732305e-14
6.180000000000000000e+02 7.769844818115234375e+01 3.584024429321289062e+01 -5.154130431912068433e-14 4.653729455289003225e-14 -1.501203056924137712e-15 1.501202929869195624e-14
6.190000000000000000e+02 1.253999328613281250e+01 1.145060443878173828e+01 -3.043865073187879133e-13 -2.219532608919994043e-13 -1.579019304632361953e-13 -2.337967330585249970e-13
6.200000000000000000e+02 1.807329368591308594e+01 6.756590366363525391e+00 3.697963430696754594e-13 2.957369863321873682e-13 1.996600042415697107e-13 5.864700001675937635e-13
6.210000000000000000e+02 4.010301208496093750e+01 1.350997066497802734e+01 8.656937607086703790e-14 1.286030608177099466e-13 6.455173038894673754e-14 1.641315257533762506e-13
6.220000000000000000e+02 4.101676559448242188e+01 1.408681011199951172e+01 -1.701363422162375377e-14 -5.304250758780305885e-14 -2.101684237342145434e-14 1.261010474642651480e-13
6.230000000000000000e+02 4.407825088500976562e+01 1.376214122772216797e+01 5.704571743366665393e-14 2.532028948488973530e-13 9.307458910578006450e-14 1.921539912862896271e-13
6.240000000000000000e+02 4.514087295532226562e+01 1.405888652801513672e+01 6.104892389139845998e-14 2.892317732972743416e-13 1.050842084789754827e-13 -2.151724233360498284e-14
6.250000000000000000e+02 4.027995300292968750e+01 1.427381706237792969e+01 -2.351884725653678038e-14 -1.015814019814272051e-13 -3.753007494079578510e-14 -1.000802037949425141e-14
6.260000000000000000e+02 1.525841999053955078e+01 1.297289562225341797e+01 -6.105322410826508062e-13 -7.865287062055678624e-14 -2.067555247018196263e-13 -2.059150105201273950e-13
6.270000000000000000e+02 1.718197631835937500e+01 1.429705333709716797e+01 -4.373504867722505240e-13 -7.305854326459387815e-14 -1.531227130768114675e-13 -4.043240080849747065e-13
6.280000000000000000e+02 1.425959396362304688e+01 1.297820281982421875e+01 -4.239882099923986125e-13 -2.732111412107052217e-13 -2.091597972294148566e-13 -1.374851702753629445e-13
6.290000000000000000e+02 1.050031280517578125e+01 1.048256874084472656e+01 -1.871499781319271860e-13 -2.632109211576222352e-13 -1.351082738526229732e-13 -2.441956955655938399e-13
6.300000000000000000e+02 2.108316993713378906e+01 1.789476585388183594e+01 -4.018219947315299079e-13 -2.837273601827283720e-13 -2.056648173162992088e-13 2.727185542824271669e-14
6.310000000000000000e+02 6.195718765258789062e+01 1.444922065734863281e+01 7.906335633932337625e-14 -1.891515779726613000e-13 -3.302646513474866152e-14 -1.763913586591905891e-13
6.320000000000000000e+02 1.327773952484130859e+01 1.298208141326904297e+01 -2.972381997652651098e-13 -2.131708302715792924e-13 -1.531227130768114675e-13 -3.227586519447336877e-14
6.330000000000000000e+02 1.310906600952148438e+01 1.197010421752929688e+01 -3.605311036693203963e-13 -3.832680700588397826e-13 -2.231397575394589161e-13 -1.857738680770271156e-13
6.340000000000000000e+02 2.406249046325683594e+00 3.813120269775390625e+01 -7.756215476470689624e-15 5.456873017686825200e-13 1.613793191961032658e-13 6.204972381176551699e-14
6.350000000000000000e+02 2.864707231521606445e+00 3.959534072875976562e+01 1.588773261714492013e-14 2.355637657592418721e-13 7.543545323986100559e-14 2.101684237342145434e-14
6.360000000000000000e+02 1.186506032943725586e+00 3.614971923828125000e+01 5.004010189747125706e-16 2.747201608994248589e-13 8.256616283687165381e-14 1.531227130768114675e-13
6.370000000000000000e+02 2.080890893936157227e+00 3.663102722167968750e+01 3.252606517456513302e-15 5.046544237184702464e-13 1.523721063602725967e-13 1.481186999224490264e-13
6.380000000000000000e+02 1.117471933364868164e+00 2.987027549743652344e+01 1.351082687704252897e-14 3.717979429104095734e-13 1.155926347478838934e-13 1.190954344691685929e-13
6.390000000000000000e+02 2.000012397766113281e+00 3.297070312500000000e+01 3.652927163229693908e-14 1.986592043212026537e-13 7.055654346367623564e-14 1.761411519028352468e-13
6.400000000000000000e+02 1.104164719581604004e+00 2.344836425781250000e+01 6.305052373213257400e-14 1.871499781319271860e-13 7.506014988159157020e-14 5.904731727440076794e-14
6.410000000000000000e+02 1.871827840805053711e+00 2.580320167541503906e+01 -2.752205540833448094e-14 4.228388472693467293e-13 1.185950345089850644e-13 2.031628039628544102e-13
6.420000000000000000e+02 1.111691355705261230e+00 2.827946662902832031e+01 -1.165934346682509504e-13 3.617899166016846912e-13 7.355895000104098469e-14 1.431146867680865853e-13
6.430000000000000000e+02 1.120084404945373535e+00 2.587602806091308594e+01 1.901523745048965680e-14 1.911531778133954140e-13 6.305052373213257400e-14 2.201764398785440585e-14
6.440000000000000000e+02 1.166536569595336914e+00 3.227924728393554688e+01 3.853087824929463112e-14 3.367698643823996418e-13 1.125902282105191443e-13 1.291034607778934751e-13
6.450000000000000000e+02 1.871201515197753906e+00 3.056625175476074219e+01 7.706175649858926224e-14 3.532831037260375506e-13 1.291034607778934751e-13 9.907939540424598457e-14
6.460000000000000000e+02 1.122216224670410156e+00 3.460889434814453125e+01 6.204972381176551699e-14 4.383512866926175811e-13 1.501202997631831404e-13 1.040834085586084257e-13
6.470000000000000000e+02 2.311807155609130859e+00 3.735634613037109375e+01 -5.404330750817011586e-14 4.343480599060950409e-13 1.140914348673333079e-13 6.805453688649501509e-14
6.480000000000000000e+02 1.088555216789245605e+00 2.183350563049316406e+01 2.852285871683332696e-14 2.867297870488838551e-13 9.457578898633065001e-14 3.002406113848275424e-15
6.490000000000000000e+02 1.866741418838500977e+00 2.660709571838378906e+01 -1.000802037949425141e-14 2.702165477052459464e-13 7.806255641895631925e-14 6.605293026949732305e-14
6.500000000000000000e+02 1.845388174057006836e+00 2.820599937438964844e+01 -2.902325867701685547e-14 3.993200084831394214e-13 1.110890215537049808e-13 2.001604075898850282e-15
6.510000000000000000e+02 1.976092100143432617e+00 3.217787170410156250e+01 -5.004010189747125706e-16 3.657931433882072314e-13 1.095878216731543953e-13 3.202566521438160452e-14
6.520000000000000000e+02 1.857701063156127930e+00 3.448939132690429688e+01 3.402726844324750755e-14 4.263416605431585849e-13 1.381106736137241442e-13 -3.903127820947815962e-14
6.530000000000000000e+02 1.944196820259094238e+00 3.374770355224609375e+01 -3.102486190588275849e-14 2.612093213168881212e-13 6.905533680686207210e-14 2.001604075898850282e-15
6.540000000000000000e+02 1.076779961585998535e+00 2.022187423706054688e+01 2.001604075898850282e-15 2.982389996856321668e-13 9.007218256841531545e-14 -1.000802037949425141e-14
6.550000000000000000e+02 1.815886735916137695e+00 2.172959327697753906e+01 -1.701363422162375377e-14 2.672141479441447753e-13 7.506014988159157020e-14 7.005614350349270714e-14
6.560000000000000000e+02 1.066157102584838867e+00 1.619834899902343750e+01 7.455974992140804170e-14 2.607089349092317487e-13 1.005806020610601481e-13 -3.102486190588275849e-14
6.570000000000000000e+02 1.775140762329101562e+00 1.850327301025390625e+01 2.852285871683332696e-14 2.867297870488838551e-13 9.457578898633065001e-14 3.302646513474866152e-14
6.580000000000000000e+02 1.124022006988525391e+00 9.691120147705078125e+00 3.702967498061225660e-14 3.132510255961923340e-13 1.050842084789754827e-13 -4.203368474684290867e-14
6.590000000000000000e+02 1.845992565155029297e+00 1.205471801757812500e+01 2.051644071917203133e-14 5.349286551908916110e-13 1.666335391068210492e-13 2.401924891078620339e-14
6.600000000000000000e+02 4.695831775665283203e+00 4.789463996887207031e+00 1.338572671759005739e-13 1.488692930864607411e-13 8.481796943396111010e-14 -8.006416303595401129e-14
6.610000000000000000e+02 5.562388420104980469e+00 7.495619297027587891e+00 1.110890215537049808e-13 1.391114735340912012e-13 7.506014988159157020e-14 -1.921539912862896271e-13
6.620000000000000000e+02 1.097931265830993652e+00 8.054682731628417969e+00 8.857097591160115191e-14 2.667137344314340908e-13 1.065854151357896462e-13 -1.060850151756061177e-13
6.630000000000000000e+02 1.785536289215087891e+00 1.449539184570312500e+01 -1.015814019814272051e-13 2.767217607401589730e-13 5.254210423948774134e-14 -1.040834085586084257e-13
6.640000000000000000e+02 1.105958938598632812e+00 1.216562271118164062e+01 -1.516214996437337259e-13 3.467778906911245240e-13 5.854691731421723944e-14 -9.307458910578006450e-14
6.650000000000000000e+02 1.768322587013244629e+00 1.689665603637695312e+01 1.511210996835501974e-13 3.392718777358444404e-13 1.471179000020819694e-13 1.140914348673333079e-13
6.660000000000000000e+02 1.844046831130981445e+00 9.562954902648925781e+00 1.601283260719080226e-14 3.042437992078345088e-13 9.607699564314481355e-14 -2.101684237342145434e-14
6.670000000000000000e+02 1.828098773956298828e+00 1.287383365631103516e+01 -1.856487782513766005e-13 2.406928822917819843e-13 1.651323256737433076e-14 -4.203368474684290867e-14
6.680000000000000000e+02 2.513131856918334961e+00 1.361705780029296875e+01 -1.521218996039172544e-13 7.205774334422682115e-14 -2.401924891078620339e-14 -2.101684237342145434e-14
6.690000000000000000e+02 1.770201444625854492e+00 1.769941139221191406e+01 -2.552045048540268340e-14 8.056456299613753980e-14 1.651323256737433076e-14 5.604491073703601889e-14
6.700000000000000000e+02 1.782668948173522949e+00 1.930753326416015625e+01 -2.301844560228735737e-14 1.731387521417340758e-13 4.503609128420765773e-14 1.901523745048965680e-14
6.710000000000000000e+02 1.827845096588134766e+00 2.253870773315429688e+01 2.502005094873562853e-15 9.257418236933295796e-14 2.852285871683332696e-14 1.571259127582796955e-13
6.720000000000000000e+02 1.803663611412048340e+00 2.092151832580566406e+01 -1.501202929869195624e-14 4.053248080053417635e-13 1.170938346284344789e-13 3.302646513474866152e-14
6.730000000000000000e+02 9.243990778923034668e-01 4.232151508331298828e+00 7.105694342385976414e-14 9.907939540424598457e-14 5.104090097080536681e-14 -4.303448466720996568e-14
6.740000000000000000e+02 1.578659653663635254e+00 4.213716030120849609e+00 7.606094980195862720e-14 2.842277736954390566e-13 1.080866150163402317e-13 8.006416303595401129e-15
6.750000000000000000e+02 1.798495101928710938e+01 1.567434024810791016e+01 -2.917337866507191402e-13 -3.352686848306397904e-14 -9.757819552369539906e-14 -1.681347389873716347e-13
6.760000000000000000e+02 1.806526184082031250e+01 1.667208480834960938e+01 -2.569559148790645509e-13 2.144218233957745356e-13 -1.276022524270134170e-14 -5.191660598332422522e-15
6.770000000000000000e+02 2.272597122192382812e+01 1.026824474334716797e+01 3.342678781340091554e-13 9.667747288485961654e-13 3.903127820947815962e-13 5.659535340374333146e-13
6.780000000000000000e+02 2.632112503051757812e+01 9.502910614013671875e+00 -5.357418068202557393e-13 -3.668564746688723899e-13 -2.707794925782547324e-13 -4.710024687978875413e-13
6.790000000000000000e+02 1.064787960052490234e+01 8.700713157653808594e+00 -2.986768547329904377e-13 -4.025100565352435211e-13 -2.103560652489538940e-13 -1.611291259922750796e-13
6.800000000000000000e+02 4.628886413574218750e+01 1.603042221069335938e+01 -3.002406113848275424e-15 -4.703769451307356075e-14 -1.501202929869195624e-14 -3.002406113848275424e-15
6.810000000000000000e+02 4.370186233520507812e+01 1.488494586944580078e+01 1.472117241475834337e-13 1.545926337246858462e-13 9.054130329592263715e-14 2.011612041221202962e-13
6.820000000000000000e+02 2.753242111206054688e+01 1.059277629852294922e+01 -4.312205703193433548e-13 -5.508163911961683201e-13 -2.946110965861697961e-13 -4.338476734984386685e-13
6.830000000000000000e+02 2.422650718688964844e+01 1.231916332244873047e+01 7.527907333951255886e-13 1.191892613251754884e-12 5.834050148360858667e-13 8.506817212455830557e-13
6.840000000000000000e+02 1.588821125030517578e+01 1.344077968597412109e+01 -3.640730024314503543e-13 -1.560312886924111742e-13 -1.560312886924111742e-13 -2.972381997652651098e-13
6.850000000000000000e+02 1.368093109130859375e+01 1.247961044311523438e+01 -2.346176909435310209e-13 -1.920523473326191111e-13 -1.280010169038559020e-13 -1.461796449945401699e-13
6.860000000000000000e+02 2.209546089172363281e+01 9.850534439086914062e+00 5.664539475501439991e-13 5.744603469130804552e-13 3.422742774969456114e-13 5.149126567835504709e-13
6.870000000000000000e+02 6.642852783203125000e+01 1.427303600311279297e+01 -2.251804564210382886e-14 -3.252606517456513302e-14 -1.651323256737433076e-14 -1.040834085586084257e-13
6.880000000000000000e+02 2.733703041076660156e+01 1.421175861358642578e+01 4.153328343140666457e-13 1.150922347877003649e-13 1.591275125990138095e-13 4.453568861351869801e-13
6.890000000000000000e+02 5.492333602905273438e+01 1.458321952819824219e+01 1.951563910473907981e-14 -1.746399520222846613e-13 -4.653729455289003225e-14 1.060850151756061177e-13
6.900000000000000000e+02 7.348719024658203125e+01 1.263494014739990234e+01 1.025822086780578402e-13 -4.753809447325708926e-14 1.651323256737433076e-14 1.621299259126421366e-13
6.910000000000000000e+02 7.818353271484375000e+01 1.278269863128662109e+01 8.356696953350228885e-14 -2.386912824510478703e-13 -4.653729455289003225e-14 -1.090874217129708668e-13
6.920000000000000000e+02 7.819808959960937500e+01 1.356132221221923828e+01 -1.000802037949425141e-15 9.107298248878237246e-14 2.702165375408505793e-14 -4.803849782157240678e-14
6.930000000000000000e+02 7.428507232666015625e+01 1.249297904968261719e+01 -2.502005094873562853e-15 -9.257418236933295796e-14 -2.852285871683332696e-14 -1.401122768425900472e-14
6.940000000000000000e+02 7.513441467285156250e+01 1.309906196594238281e+01 1.311050606186275891e-13 7.906335633932337625e-14 6.305052373213257400e-14 1.901523745048965680e-14
6.950000000000000000e+02 7.507926940917968750e+01 1.235703372955322266e+01 -8.506817110811876886e-15 -1.866495781717436575e-13 -5.854691731421723944e-14 1.991596042813861822e-13
6.960000000000000000e+02 7.268553161621093750e+01 1.277568244934082031e+01 -1.501202929869195624e-14 -2.351884691772360148e-13 -7.506014988159157020e-14 -1.220978477827969200e-13
6.970000000000000000e+02 7.188052368164062500e+01 1.291041946411132812e+01 -8.206576287668812530e-14 -2.181748434259417335e-13 -9.007218256841531545e-14 8.406736949368581735e-14
6.980000000000000000e+02 9.651987075805664062e+00 8.904908180236816406e+00 -1.486190998826325549e-13 -2.466976818139843264e-13 -1.185950345089850644e-13 -2.001604075898850282e-14
6.990000000000000000e+02 8.994184494018554688e+00 8.589823722839355469e+00 -2.872301734565402276e-13 -1.230986477031639770e-13 -1.230986477031639770e-13 -8.206576287668812530e-14
7.000000000000000000e+02 6.998533725738525391e+00 7.636686325073242188e+00 -1.301042606982605321e-13 -1.000802037949425141e-14 -4.203368474684290867e-14 -1.731387521417340758e-13
7.010000000000000000e+02 5.131992816925048828e+00 5.316287040710449219e+00 2.171114850402222629e-13 -1.814579167263782877e-13 1.069607117177955036e-14 -1.261010474642651480e-13
7.020000000000000000e+02 2.631820440292358398e+00 7.385632991790771484e+00 3.287008930015836161e-14 4.715966657985182220e-13 1.513400272072293329e-13 -1.851483647386659159e-13
7.030000000000000000e+02 5.893820762634277344e+00 6.509510517120361328e+00 1.941555911270237411e-13 -5.404330750817011586e-14 4.203368474684290867e-14 -1.981587908084919691e-13
7.040000000000000000e+02 3.565817594528198242e+00 8.237215995788574219e+00 -1.751403460532375590e-15 -7.506015284620688559e-16 -7.506015284620688559e-16 -6.204972381176551699e-14
7.050000000000000000e+02 1.141704940795898438e+01 1.039766883850097656e+01 -3.195998695727786387e-13 -3.199751661547844961e-13 -1.918725052972580780e-13 -3.382710778154773834e-13
7.060000000000000000e+02 2.831868362426757812e+01 1.221146678924560547e+01 1.771419518232023038e-13 -1.871499781319271860e-13 -3.002406113848275424e-15 -1.245998475837145625e-13
7.070000000000000000e+02 3.210418701171875000e+01 1.424649906158447266e+01 -8.206576287668812530e-14 -1.381106736137241442e-13 -6.605293026949732305e-14 2.251804564210382886e-14
7.080000000000000000e+02 2.652912330627441406e+01 1.058482265472412109e+01 -2.208957707505385115e-13 -9.466961313183211435e-14 -9.466961313183211435e-14 -3.392718777358444404e-13
7.090000000000000000e+02 2.737357330322265625e+01 1.272402858734130859e+01 3.712975565027532010e-13 -1.611291259922750796e-13 6.305052373213257400e-14 2.742197473867141744e-13
7.100000000000000000e+02 2.483914184570312500e+01 1.293933963775634766e+01 8.006416168070129569e-13 1.200962398105465123e-12 6.004811990527325616e-13 6.428902007103720617e-13
7.110000000000000000e+02 2.181062126159667969e+01 7.443642139434814453e+00 -2.736567957374418103e-14 -1.172814863075691966e-14 -1.172814863075691966e-14 5.004010105043830980e-14
7.120000000000000000e+02 2.509638023376464844e+01 1.125305461883544922e+01 2.482927329450906884e-13 5.639206549640229937e-13 2.436640028202069486e-13 2.251804564210382886e-13
7.130000000000000000e+02 1.609722709655761719e+01 1.439398956298828125e+01 -4.163336342344337027e-13 1.601283260719080226e-14 -1.200962343895356499e-13 -3.790537491093343148e-13
7.140000000000000000e+02 4.557704162597656250e+01 1.469256210327148438e+01 -1.901523745048965680e-14 1.291034607778934751e-13 3.302646513474866152e-14 3.602887167211341057e-14
7.150000000000000000e+02 4.394062423706054688e+01 1.551276874542236328e+01 -3.527827173183811782e-14 -1.523721063602725967e-13 -5.629511410525957216e-14 1.921539912862896271e-13
7.160000000000000000e+02 3.096068000793457031e+01 1.444176673889160156e+01 1.149671314095226937e-13 -1.337321637977229027e-13 -5.629511410525957216e-15 1.601283260719080226e-14
7.170000000000000000e+02 8.315885543823242188e+00 8.431891441345214844e+00 2.902325867701685547e-14 8.106496295632106830e-14 3.302646513474866152e-14 -6.905533680686207210e-14
7.180000000000000000e+02 2.190003776550292969e+01 6.818390369415283203e+00 -1.521218996039172544e-13 -2.481988952470620680e-13 -1.200962343895356499e-13 -4.403528797570881170e-14
7.190000000000000000e+02 2.385848808288574219e+01 7.126344680786132812e+00 -4.738484995006619904e-13 -2.945798173534935893e-13 -2.305284869247303803e-13 -2.151724301123134064e-13
7.200000000000000000e+02 3.631405258178710938e+01 1.447356033325195312e+01 1.796439651766471024e-13 -1.451162933850842773e-14 4.953969770212299228e-14 -8.206576287668812530e-14
7.210000000000000000e+02 6.549293518066406250e+01 1.377741050720214844e+01 3.277626515465689727e-14 -2.604587281528764064e-13 -6.830473686658677934e-14 -3.002405859738391247e-14
7.220000000000000000e+02 6.525659942626953125e+01 1.487119293212890625e+01 -1.501202929869195624e-14 -1.551243129175455815e-13 -5.104090097080536681e-14 -5.054050101062183831e-14
7.230000000000000000e+02 2.166393280029296875e+01 1.842195701599121094e+01 -1.951563910473907981e-13 -1.501202929869195624e-14 -6.305052373213257400e-14 -9.520129232469184966e-14
7.240000000000000000e+02 5.176422119140625000e+01 1.456040763854980469e+01 2.952365863720038397e-14 3.552847171192988207e-14 1.951563910473907981e-14 5.004010105043830980e-14
7.250000000000000000e+02 6.465985107421875000e+01 1.533772468566894531e+01 0.000000000000000000e+00 8.006416303595401129e-14 2.401924891078620339e-14 -1.356086738128065017e-13
7.260000000000000000e+02 6.946318817138671875e+01 1.325429916381835938e+01 5.854691731421723944e-14 1.165934346682509504e-13 5.254210423948774134e-14 0.000000000000000000e+00
7.270000000000000000e+02 7.888622283935546875e+01 1.117218303680419922e+01 -4.503608959014176322e-15 8.957178260823178695e-14 2.552045048540268340e-14 7.506014988159157020e-14
7.280000000000000000e+02 2.950258827209472656e+01 1.339708805084228516e+01 1.221603926956221775e-13 -1.553119612085485102e-13 -9.945469537438363095e-15 -2.241483772679950248e-13
7.290000000000000000e+02 2.443388175964355469e+01 1.069556427001953125e+01 8.614716063984687033e-14 6.774334782369551000e-13 2.290741923406669489e-13 2.316856559034241592e-13
7.300000000000000000e+02 6.070531845092773438e+01 1.552822971343994141e+01 9.395028564796945036e-14 -1.427393901860807279e-13 -1.463672932855430986e-14 -1.361090737729900302e-13
7.310000000000000000e+02 3.368098449707031250e+01 1.572050476074218750e+01 9.507618894651417851e-14 -1.651323256737433076e-13 -2.101684237342145434e-14 -2.381908689383371858e-13
7.320000000000000000e+02 5.182519531250000000e+01 1.639440727233886719e+01 4.503609128420765773e-14 -2.552045217946857791e-13 -6.305052373213257400e-14 1.005806020610601481e-13
7.330000000000000000e+02 2.769945144653320312e+01 1.166442680358886719e+01 -1.558749060815572962e-13 -3.870601755773250829e-13 -1.628805326291810074e-13 -2.922341730583755126e-13
7.340000000000000000e+02 4.932690429687500000e+01 1.787968635559082031e+01 -1.224731443648027773e-13 1.762662552810129180e-13 1.613793259723668438e-14 -1.200962445539310169e-14
7.350000000000000000e+02 6.616255950927734375e+01 1.279216957092285156e+01 3.502807175174635357e-14 1.501202929869195624e-14 1.501202929869195624e-14 -1.220978477827969200e-13
7.360000000000000000e+02 6.788417816162109375e+01 1.339574432373046875e+01 8.306656957331876034e-14 1.271018609371593611e-13 6.305052373213257400e-14 -8.206576287668812530e-14
7.370000000000000000e+02 2.638945388793945312e+01 1.391359901428222656e+01 5.864700001675937635e-13 7.546047120499110861e-13 4.023224082442405924e-13 4.043240080849747065e-13
7.380000000000000000e+02 2.537022399902343750e+01 1.362699604034423828e+01 6.590281163669498010e-13 1.197459557726598955e-12 5.569463076490754894e-13 4.643721388322696875e-13
7.390000000000000000e+02 6.176502990722656250e+01 1.560972690582275391e+01 3.595068375481826062e-14 -2.590982441617872833e-13 -6.694427320428839034e-14 -1.766415518630187753e-13
7.400000000000000000e+02 5.100961303710937500e+01 1.376569271087646484e+01 -2.502005052521915490e-14 3.502807175174635357e-14 3.002406113848275424e-15 2.001604075898850282e-15
7.410000000000000000e+02 3.694061279296875000e+00 4.122656822204589844e+00 2.421940957248597259e-13 5.804651735403371093e-14 9.007218256841531545e-14 1.401122768425900472e-14
7.420000000000000000e+02 1.724036598205566406e+01 6.112525939941406250e+00 2.106688169181344938e-13 3.647923434678401744e-13 1.726383521815505473e-13 5.324266418374468124e-13
7.430000000000000000e+02 2.513068771362304688e+01 1.764944839477539062e+01 -4.583673393100673454e-13 5.584474939770989188e-13 3.002405859738391247e-14 -7.330875002094922044e-14
7.440000000000000000e+02 2.151381301879882812e+01 1.973045730590820312e+01 -1.402061111524868786e-13 -1.515902339635846752e-13 -8.753890353482146613e-14 -1.289783573997158039e-13
7.450000000000000000e+02 2.857237625122070312e+01 1.635384368896484375e+01 1.906527778532118855e-13 -5.554451077685249039e-14 4.053248147816053415e-14 2.241796429481440756e-13
7.460000000000000000e+02 2.691600036621093750e+01 1.555854511260986328e+01 2.151724301123134064e-13 1.951563910473907981e-13 1.230986477031639770e-13 4.876407979671759652e-13
7.470000000000000000e+02 4.692322158813476562e+01 1.773071289062500000e+01 4.203368474684290867e-14 -1.421138868477195283e-13 -3.002405859738391247e-14 2.001604075898850282e-15
7.480000000000000000e+02 4.657779312133789062e+01 1.685674858093261719e+01 1.901523745048965680e-14 1.911531778133954140e-13 6.305052373213257400e-14 -2.401924891078620339e-14
7.490000000000000000e+02 2.640894508361816406e+01 1.608138275146484375e+01 1.721379386688398627e-13 7.085678072928092153e-13 2.642117210779892922e-13 5.284234421559785844e-13
7.500000000000000000e+02 2.225722312927246094e+00 3.242978334426879883e+00 -4.503608959014176322e-15 8.957178260823178695e-14 2.552045048540268340e-14 1.761411519028352468e-13
7.510000000000000000e+02 2.778244972229003906e+00 3.149417877197265625e+00 -8.706977603105056640e-14 2.371900690179701288e-13 4.503609128420765773e-14 -9.907939540424598457e-14
7.520000000000000000e+02 3.364650249481201172e+00 4.835711479187011719e+00 -7.906335633932337625e-14 -1.100882199392720293e-14 -2.702165375408505793e-14 -1.641315257533762506e-13
7.530000000000000000e+02 2.066616058349609375e+01 6.987263202667236328e+00 1.090874217129708668e-13 1.000802037949425141e-15 3.302646513474866152e-14 1.681347389873716347e-13
7.540000000000000000e+02 1.975985145568847656e+01 8.026251792907714844e+00 4.406030932897070373e-13 4.275926672198809841e-13 2.604587281528764064e-13 4.152077444884161306e-13
7.550000000000000000e+02 5.101409530639648438e+01 1.649674224853515625e+01 4.503609128420765773e-14 6.505213034913026604e-14 3.302646513474866152e-14 1.120898214740720378e-13
7.560000000000000000e+02 4.763223648071289062e+01 1.731565284729003906e+01 -1.000802037949425141e-14 2.702165477052459464e-13 7.806255641895631925e-14 -6.905533680686207210e-14
7.570000000000000000e+02 2.239265251159667969e+01 6.890892982482910156e+00 -3.422742774969456114e-13 8.206576287668812530e-14 -7.806255641895631925e-14 -2.672141479441447753e-13
7.580000000000000000e+02 2.288217163085937500e+01 7.208930015563964844e+00 -3.048067711858976070e-13 2.353761174682389434e-13 -2.082919238835263115e-14 -1.331066604593617031e-13
7.590000000000000000e+02 2.395345878601074219e+01 8.375361442565917969e+00 -3.182550251980276190e-13 5.804651735403371093e-14 -7.806255641895631925e-14 -8.406736949368581735e-14
7.600000000000000000e+02 3.906137466430664062e+01 1.554961109161376953e+01 6.655333022968085155e-14 2.852285871683332696e-14 2.852285871683332696e-14 4.503609128420765773e-14
7.610000000000000000e+02 6.875938415527343750e+01 1.406126689910888672e+01 9.557658890669770702e-14 -5.054050101062183831e-14 1.351082687704252897e-14 -5.804651735403371093e-14
7.620000000000000000e+02 6.797813415527343750e+01 1.413370704650878906e+01 2.001604075898850282e-15 -2.201764398785440585e-14 -6.004812227696550847e-15 -9.907939540424598457e-14
7.630000000000000000e+02 6.625660705566406250e+01 1.353407955169677734e+01 1.406126869671689428e-13 3.347682645416655278e-13 1.426142868079030568e-13 -1.531227130768114675e-13
7.640000000000000000e+02 3.289265441894531250e+01 1.604342079162597656e+01 8.631917609077527365e-14 -3.290136717758185281e-13 -7.280834328450211390e-14 9.607699564314481355e-14
7.650000000000000000e+02 2.716600799560546875e+01 1.670243453979492188e+01 -9.107298248878237246e-14 2.812253739343378856e-13 5.704571743366665393e-14 3.669190331342248035e-13
7.660000000000000000e+02 3.955044555664062500e+01 1.447104167938232422e+01 3.202566521438160452e-14 -3.202566521438160452e-14 0.000000000000000000e+00 9.007218256841531545e-14
7.670000000000000000e+02 3.978008270263671875e+01 1.528928852081298828e+01 3.502806921064751181e-15 1.501203056924137712e-15 1.501203056924137712e-15 2.201764398785440585e-14
7.680000000000000000e+02 1.690507698059082031e+01 1.678659629821777344e+01 -2.821010569240001153e-13 -1.645068358879092640e-13 -1.339823705540782450e-13 -1.160304762427150083e-13
7.690000000000000000e+02 7.107186126708984375e+01 1.303823375701904297e+01 5.654531408535133641e-14 -2.151724233360498284e-14 1.050842118671072717e-14 -7.405934996122451319e-14
7.700000000000000000e+02 7.035327148437500000e+01 1.385674762725830078e+01 5.004010105043830980e-14 9.007218256841531545e-14 4.203368474684290867e-14 4.003208151797700565e-15
7.710000000000000000e+02 1.672582817077636719e+01 1.482933616638183594e+01 -3.372702778951103264e-13 -5.304250758780305885e-14 -1.170938346284344789e-13 -2.842277736954390566e-13
7.720000000000000000e+02 3.575099182128906250e+01 1.475980854034423828e+01 7.956375629950690476e-14 1.256006475040816195e-13 6.154932385158198849e-14 -2.401924891078620339e-14
7.730000000000000000e+02 3.698278045654296875e+01 1.502088928222656250e+01 1.080866150163402317e-13 9.207378240914942946e-14 6.004811719476782494e-14 2.001604075898850282e-14
7.740000000000000000e+02 2.147526550292968750e+01 9.451285362243652344e+00 2.461972954063279539e-13 4.943961906533900219e-13 2.221780431074099615e-13 4.063256079257088205e-13
7.750000000000000000e+02 5.813709259033203125e+01 1.410000610351562500e+01 3.302646513474866152e-14 -1.230986477031639770e-13 -2.702165375408505793e-14 -1.901523745048965680e-14
7.760000000000000000e+02 1.027079772949218750e+01 9.359108924865722656e+00 -2.001604042017532392e-13 -3.602887302736612618e-13 -1.681347389873716347e-13 -2.802245740139708285e-13
7.770000000000000000e+02 2.032062911987304688e+01 7.716206073760986328e+00 2.802245740139708285e-13 1.200962343895356499e-13 1.200962343895356499e-13 2.156728300724969349e-13
7.780000000000000000e+02 2.126487350463867188e+01 8.649907112121582031e+00 2.371900690179701288e-13 6.735397287647992837e-13 2.732189474663471174e-13 2.797241605012601440e-13
7.790000000000000000e+02 5.822240066528320312e+01 1.579470062255859375e+01 4.653729455289003225e-14 -7.155734338404329264e-14 -7.506014649345978118e-15 -2.702165375408505793e-14
7.800000000000000000e+02 5.572429275512695312e+01 1.449497222900390625e+01 3.052446194569922999e-14 -5.554451077685249039e-14 -7.506014649345978118e-15 1.901523745048965680e-14
7.810000000000000000e+02 2.159572219848632812e+01 8.294930458068847656e+00 1.561251128379126385e-13 2.041636038832214672e-13 1.080866150163402317e-13 3.878107687413367977e-13
7.820000000000000000e+02 2.087279319763183594e+01 9.027948379516601562e+00 5.934755725051088504e-13 6.775429826563761360e-13 3.813055557064237711e-13 5.119102299173949877e-13
7.830000000000000000e+02 4.086088562011718750e+01 1.333950805664062500e+01 8.056456299613753980e-14 3.452766840343103605e-14 3.452766840343103605e-14 -3.803047490097931360e-14
7.840000000000000000e+02 7.747941589355468750e+01 1.746708869934082031e+01 5.904731727440076794e-14 -2.491996951674291250e-13 -5.704571743366665393e-14 -6.004812227696550847e-15
7.850000000000000000e+02 7.434959411621093750e+01 1.322515296936035156e+01 5.504411081666896188e-14 1.150922347877003649e-13 5.104090097080536681e-14 1.010810020212436766e-13
7.860000000000000000e+02 7.711078643798828125e+01 2.932678413391113281e+01 -8.156536291650459680e-14 5.654531408535133641e-14 -7.506014649345978118e-15 -7.105694342385976414e-14
7.870000000000000000e+02 7.712688446044921875e+01 2.851537513732910156e+01 1.451162933850842773e-14 -3.953167816966168813e-14 -7.506014649345978118e-15 -7.305854326459387815e-14
7.880000000000000000e+02 7.724759674072265625e+01 2.611461448669433594e+01 1.801443583605670529e-14 -3.803047490097931360e-14 -6.004812227696550847e-15 -4.503609128420765773e-14
7.890000000000000000e+02 7.689016723632812500e+01 3.246039962768554688e+01 1.876503747039789255e-14 5.379310752807835161e-14 2.176744400776264160e-14 -8.106496295632106830e-14
7.900000000000000000e+02 7.747516632080078125e+01 1.437382507324218750e+01 8.306656957331876034e-14 1.271018609371593611e-13 6.305052373213257400e-14 -1.000802037949425141e-14
7.910000000000000000e+02 7.820811462402343750e+01 1.433901691436767578e+01 2.902325867701685547e-14 -7.906335633932337625e-14 -1.501202929869195624e-14 1.601283260719080226e-14
7.920000000000000000e+02 7.586831665039062500e+01 1.223495197296142578e+01 7.155734338404329264e-14 -1.065854151357896462e-13 -1.050842118671072717e-14 -1.351082738526229732e-13
7.930000000000000000e+02 7.817482757568359375e+01 1.982561492919921875e+01 1.256006475040816195e-13 9.957980214069309111e-14 6.755413692631148659e-14 -4.103288143834406265e-14
7.940000000000000000e+02 7.745490264892578125e+01 1.903904151916503906e+01 2.902325867701685547e-14 -7.906335633932337625e-14 -1.501202929869195624e-14 -3.702967498061225660e-14
7.950000000000000000e+02 7.735032653808593750e+01 2.374912261962890625e+01 7.506014988159157020e-14 -1.050842084789754827e-13 -9.007217918028352643e-15 -1.501202929869195624e-14
7.960000000000000000e+02 7.737445831298828125e+01 2.296983146667480469e+01 -6.054852393121493148e-14 -2.547041082819750946e-13 -9.457578898633065001e-14 3.202566521438160452e-14
7.970000000000000000e+02 7.806586456298828125e+01 2.534621620178222656e+01 -3.052446194569922999e-14 -1.045838085187919542e-13 -4.053248147816053415e-14 -4.103288143834406265e-14
7.980000000000000000e+02 7.732113647460937500e+01 2.453350067138671875e+01 -7.606094980195862720e-14 -1.240994476235310340e-13 -6.004811719476782494e-14 3.903127820947815962e-14
7.990000000000000000e+02 7.816439056396484375e+01 2.061739158630371094e+01 -4.453568793589234021e-14 -1.105886215935214523e-13 -4.653729455289003225e-14 3.402726844324750755e-14
8.000000000000000000e+02 7.742636108398437500e+01 2.062202072143554688e+01 -2.752205540833448094e-14 -5.754611739385018243e-14 -2.552045048540268340e-14 -3.702967498061225660e-14
8.010000000000000000e+02 7.720409393310546875e+01 2.691340446472167969e+01 7.055654346367623564e-14 -1.551243095294137925e-14 1.651323256737433076e-14 -7.305854326459387815e-14
8.020000000000000000e+02 7.728703308105468750e+01 2.532136154174804688e+01 1.095878216731543953e-13 -4.453568793589234021e-14 1.951563910473907981e-14 2.001604075898850282e-14
8.030000000000000000e+02 7.796527099609375000e+01 3.096691322326660156e+01 3.452766840343103605e-14 6.054852393121493148e-14 2.852285871683332696e-14 -1.801443583605670529e-14
8.040000000000000000e+02 7.712268066406250000e+01 3.015011405944824219e+01 -1.000802037949425141e-14 -5.004010105043830980e-14 -1.801443583605670529e-14 -7.806255641895631925e-14
8.050000000000000000e+02 7.716160583496093750e+01 2.771326446533203125e+01 -5.204170427930421283e-14 -6.805453688649501509e-14 -3.602887167211341057e-14 1.601283260719080226e-14
8.060000000000000000e+02 7.795925903320312500e+01 3.182074546813964844e+01 -1.000802037949425141e-14 1.100882216333379238e-13 3.002405859738391247e-14 8.406736949368581735e-14
8.070000000000000000e+02 7.752786254882812500e+01 3.685553741455078125e+01 -5.154130431912068433e-14 -2.737193609790578019e-13 -9.757819552369539906e-14 -5.904731727440076794e-14
8.080000000000000000e+02 7.608197021484375000e+01 3.464324188232421875e+01 -8.450521776478051028e-14 -1.963448392587607838e-13 -8.425501778468874603e-14 5.004010189747125706e-16
8.090000000000000000e+02 7.740935516357421875e+01 3.298239898681640625e+01 -2.189254399780852373e-14 -9.382518735198946275e-15 -9.382518735198946275e-15 -8.006416303595401129e-15
8.100000000000000000e+02 7.686949157714843750e+01 3.547022247314453125e+01 2.164234401771675947e-14 -2.881058835512567695e-13 -7.993905965777634015e-14 -2.702165375408505793e-14
8.110000000000000000e+02 7.686673736572265625e+01 3.376362991333007812e+01 -3.878107738235344812e-15 -4.741299448321120713e-14 -1.538733096289549712e-14 -8.306656957331876034e-14
8.120000000000000000e+02 2.462433815002441406e+01 8.955127716064453125e+00 -3.082157467616808422e-13 5.160385177304478363e-15 -9.091660665419207255e-14 -1.193456412255239352e-13
8.130000000000000000e+02 4.250435256958007812e+01 1.379176807403564453e+01 1.050842084789754827e-13 4.503609128420765773e-14 4.503609128420765773e-14 6.805453688649501509e-14
8.140000000000000000e+02 2.001735496520996094e+01 9.814931869506835938e+00 9.967987806697164999e-13 6.445165039691003184e-13 4.923945908126559079e-13 6.545245031727708884e-13
8.150000000000000000e+02 6.181694030761718750e+00 7.141890525817871094e+00 -8.006416303595401129e-15 8.807057595141762341e-14 2.401924891078620339e-14 -1.561251128379126385e-13
8.160000000000000000e+02 2.562058687210083008e+00 2.244427871704101562e+01 2.602085213965210642e-14 3.542839036464046076e-13 1.140914348673333079e-13 1.801443583605670529e-14
8.170000000000000000e+02 1.839201211929321289e+00 2.899127960205078125e+01 -2.251804564210382886e-14 4.478588994886317787e-13 1.276022608973428896e-13 7.706175649858926224e-14
8.180000000000000000e+02 2.804103612899780273e+00 3.205908203125000000e+01 5.504410996963601463e-15 2.997402131187099084e-13 9.157338244896590096e-14 1.060850151756061177e-13
8.190000000000000000e+02 1.850125193595886230e+00 3.520645523071289062e+01 7.806255641895631925e-14 5.824667462760169112e-13 1.981587908084919691e-13 1.080866150163402317e-13
8.200000000000000000e+02 4.206178188323974609e+00 3.612082672119140625e+01 3.552847171192988207e-14 2.897321868099850262e-13 9.757819552369539906e-14 1.501202929869195624e-14
8.210000000000000000e+02 2.632704496383666992e+00 2.575439834594726562e+01 6.355093046857968053e-14 3.017418129594440224e-13 1.095878216731543953e-13 5.404330750817011586e-14
8.220000000000000000e+02 1.858319878578186035e+00 2.417291069030761719e+01 -2.752205540833448094e-14 2.627105347499658627e-13 7.055654346367623564e-14 1.811451650571976879e-13
8.230000000000000000e+02 1.773920536041259766e+00 1.529641723632812500e+01 1.401122768425900472e-14 3.262614516660183872e-13 1.020818019416107336e-13 2.902325867701685547e-14
8.240000000000000000e+02 2.464177846908569336e+00 1.759813499450683594e+01 7.105694342385976414e-14 -6.104892389139845998e-14 3.002406113848275424e-15 2.401924891078620339e-14
8.250000000000000000e+02 2.609389543533325195e+00 1.195119953155517578e+01 -1.286030608177099466e-13 1.736391521019176043e-13 1.351082687704252897e-14 -4.603689120457471473e-14
8.260000000000000000e+02 1.804142594337463379e+00 1.368758106231689453e+01 3.602887167211341057e-14 2.441956955655938399e-13 8.406736949368581735e-14 4.603689120457471473e-14
8.270000000000000000e+02 2.469962358474731445e+00 1.521271419525146484e+01 -1.060850151756061177e-13 3.662935297958636038e-13 7.806255641895631925e-14 6.605293026949732305e-14
8.280000000000000000e+02 2.462717533111572266e+00 1.600490760803222656e+01 2.602085213965210642e-14 1.941555911270237411e-13 6.605293026949732305e-14 8.406736949368581735e-14
8.290000000000000000e+02 1.835123181343078613e+00 1.123351383209228516e+01 -1.626303258728256651e-13 6.755413692631148659e-14 -2.852285871683332696e-14 1.801443583605670529e-14
8.300000000000000000e+02 2.500607252120971680e+00 9.507846832275390625e+00 2.001604042017532392e-13 3.602887302736612618e-13 1.681347389873716347e-13 -8.706977603105056640e-14
8.310000000000000000e+02 1.791959047317504883e+00 2.011365509033203125e+01 -6.104892389139845998e-14 4.313456601449938699e-13 1.110890215537049808e-13 1.401122768425900472e-14
8.320000000000000000e+02 2.583875656127929688e+00 2.326937484741210938e+01 -5.104090097080536681e-14 1.611291259922750796e-13 3.302646513474866152e-14 1.271018609371593611e-13
8.330000000000000000e+02 2.571775436401367188e+00 1.110567378997802734e+01 3.602887167211341057e-14 4.043240080849747065e-13 1.321058605389946461e-13 -1.030826086382413687e-13
8.340000000000000000e+02 3.864509344100952148e+00 1.815748786926269531e+01 -1.371098736933570872e-13 3.072462260739899920e-13 5.104090097080536681e-14 -5.004010189747125706e-15
8.350000000000000000e+02 2.490040302276611328e+00 1.920004272460937500e+01 -5.704571743366665393e-14 2.271820562617724026e-13 5.104090097080536681e-14 1.010810020212436766e-13
8.360000000000000000e+02 2.506855726242065430e+00 2.000541877746582031e+01 -2.101684237342145434e-14 3.112494257554582200e-13 8.706977603105056640e-14 4.603689120457471473e-14
8.370000000000000000e+02 2.525680780410766602e+00 2.081416893005371094e+01 -2.902325867701685547e-14 3.993200084831394214e-13 1.110890215537049808e-13 1.090874217129708668e-13
8.380000000000000000e+02 4.574024677276611328e+00 5.804896354675292969e+00 1.273520541409875473e-13 1.003304020809683839e-13 6.830473686658677934e-14 -1.150922347877003649e-13
8.390000000000000000e+02 1.856594681739807129e+00 2.740964317321777344e+01 -1.025822086780578402e-13 2.076664171570333228e-13 3.152526186606628700e-14 9.207378240914942946e-14
8.400000000000000000e+02 2.571301937103271484e+00 2.816704559326171875e+01 -4.003208151797700565e-15 3.642919299551294898e-13 1.080866150163402317e-13 6.705373696612795809e-14
8.410000000000000000e+02 2.504170417785644531e+00 5.389246463775634766e+00 -3.702967498061225660e-14 8.706977603105056640e-14 1.501202929869195624e-14 -7.606094980195862720e-14
8.420000000000000000e+02 2.596546173095703125e+00 2.737398338317871094e+01 4.003208151797700565e-14 2.001604042017532392e-13 7.205774334422682115e-14 1.200962445539310169e-14
8.430000000000000000e+02 4.069958686828613281e+00 2.744617843627929688e+01 -2.451964887096973189e-14 3.097482123223804784e-13 8.556856937423640286e-14 2.602085213965210642e-14
8.440000000000000000e+02 1.869117975234985352e+00 2.499049949645996094e+01 -8.456776945386934585e-14 1.696359388679222202e-13 2.552045048540268340e-14 2.201764398785440585e-14
8.450000000000000000e+02 2.629527807235717773e+00 2.493151092529296875e+01 -6.705373696612795809e-14 1.771419518232023038e-13 3.302646513474866152e-14 2.762213472274482884e-13
8.460000000000000000e+02 2.619221448898315430e+00 2.656737518310546875e+01 -5.254210423948774134e-14 2.977385861729214822e-13 7.355895000104098469e-14 7.606094980195862720e-14
8.470000000000000000e+02 2.492309808731079102e+00 3.506782531738281250e+01 -3.502807175174635357e-14 3.052445991282015658e-13 8.106496295632106830e-14 -1.601283260719080226e-14
8.480000000000000000e+02 1.958569645881652832e+00 5.126285552978515625e+00 9.007218256841531545e-14 1.301042606982605321e-13 6.605293026949732305e-14 -4.203368474684290867e-14
8.490000000000000000e+02 3.734061241149902344e+00 5.628727436065673828e+00 -8.206576287668812530e-14 4.223384337566360447e-13 1.020818019416107336e-13 -1.120898214740720378e-13
8.500000000000000000e+02 2.821246623992919922e+00 3.379025650024414062e+01 1.105886215935214523e-13 3.447762908503904100e-13 1.366094737331735587e-13 2.016616040823038247e-13
8.510000000000000000e+02 1.919927716255187988e+00 3.137086105346679688e+01 7.506014649345978118e-15 2.777225606605260300e-13 8.556856937423640286e-14 1.361090737729900302e-13
8.520000000000000000e+02 2.667151927947998047e+00 3.125133132934570312e+01 -5.004010189747125706e-15 2.952365999245309958e-13 8.706977603105056640e-14 -8.606896933441993136e-14
8.530000000000000000e+02 2.633450984954833984e+00 3.567012405395507812e+01 -2.101684237342145434e-14 6.315060778992742652e-13 1.831467648979318019e-13 1.441154866884536423e-13
8.540000000000000000e+02 1.457501769065856934e+00 4.959830284118652344e+00 1.170938346284344789e-13 2.331868693365019007e-13 1.050842084789754827e-13 6.605293026949732305e-14
8.550000000000000000e+02 3.864271163940429688e+00 5.011376857757568359e+00 2.542037218743187221e-13 6.004812227696550847e-15 7.806255641895631925e-14 -1.751403587587317678e-14
8.560000000000000000e+02 3.120782136917114258e+00 3.929763793945312500e+00 -8.606896933441993136e-14 3.062454261536229350e-13 6.605293026949732305e-14 -3.302646513474866152e-14
8.570000000000000000e+02 1.745795440673828125e+01 1.623342895507812500e+01 -5.084074437486374443e-13 2.802245536851800944e-14 -1.441154866884536423e-13 -3.721732394924154308e-13
8.580000000000000000e+02 3.215014934539794922e+00 3.821363449096679688e+01 6.530233032922203029e-14 3.024924061234557371e-13 1.103384216134296880e-13 1.601283260719080226e-14
8.590000000000000000e+02 2.039530372619628906e+01 1.854619598388671875e+01 -2.952365999245309958e-13 5.004010189747125706e-15 -8.706977603105056640e-14 -2.702165375408505793e-14
8.600000000000000000e+02 2.048712730407714844e+01 1.741425704956054688e+01 -3.114996325118135623e-13 -1.263512542206204903e-13 -1.313552673749829314e-13 -6.367602707049377364e-14
8.610000000000000000e+02 1.272422504425048828e+01 1.248033046722412109e+01 -2.780196591608413703e-13 -2.106531908543235465e-13 -1.466018604255603375e-13 -1.887762813906554427e-13
8.620000000000000000e+02 1.197665786743164062e+01 1.092696666717529297e+01 -2.992710788386754306e-13 -4.485156820596691851e-13 -2.243360255589979535e-13 -1.981587908084919691e-13
8.630000000000000000e+02 1.866786766052246094e+01 1.711900711059570312e+01 -4.143633136263757955e-13 -5.945389308908283210e-14 -1.421451660803957351e-13 -1.291034607778934751e-13
8.640000000000000000e+02 8.768192291259765625e+00 9.365490913391113281e+00 3.502806921064751181e-15 1.501203056924137712e-15 1.501203056924137712e-15 -7.405934996122451319e-14
8.650000000000000000e+02 4.175107192993164062e+01 1.391961479187011719e+01 4.703769451307356075e-14 -1.170938346284344789e-13 -2.101684237342145434e-14 -5.604491073703601889e-14
8.660000000000000000e+02 1.216284847259521484e+01 1.197695064544677734e+01 -2.897634660426612330e-13 -3.529390863767079001e-13 -1.928107603047998775e-13 -2.151724301123134064e-13
8.670000000000000000e+02 2.377645683288574219e+01 1.016980457305908203e+01 1.314803572006334464e-13 6.053601088289173315e-13 2.210521398088652334e-13 3.572863034075057787e-13
8.680000000000000000e+02 5.576526260375976562e+01 1.533330821990966797e+01 4.203368474684290867e-14 -1.421138868477195283e-13 -3.002405859738391247e-14 1.110890215537049808e-13
8.690000000000000000e+02 1.748646926879882812e+01 1.723605918884277344e+01 -4.397273831949904954e-13 -1.188452361831427231e-14 -1.354835704346288305e-13 -2.648685036490266986e-13
8.700000000000000000e+02 2.484470844268798828e+00 1.030463504791259766e+01 -1.080866150163402317e-13 2.281828697346666157e-13 3.602887167211341057e-14 -7.906335633932337625e-14
8.710000000000000000e+02 7.355825042724609375e+01 1.335889625549316406e+01 1.020818019416107336e-13 -1.621299259126421366e-13 -1.801443583605670529e-14 7.005613842129502361e-15
8.720000000000000000e+02 7.676126098632812500e+01 1.595307445526123047e+01 -4.453568793589234021e-14 -1.105886215935214523e-13 -4.653729455289003225e-14 -8.406736949368581735e-14
8.730000000000000000e+02 7.276155090332031250e+01 1.349119186401367188e+01 2.151724233360498284e-14 -3.652927163229693908e-14 -4.503608959014176322e-15 3.202566521438160452e-14
8.740000000000000000e+02 7.591232299804687500e+01 1.298939704895019531e+01 2.351884725653678038e-14 1.015814019814272051e-13 3.753007494079578510e-14 5.904731727440076794e-14
8.750000000000000000e+02 7.664826202392578125e+01 1.213350296020507812e+01 -1.200962445539310169e-14 1.321058605389946461e-13 3.602887167211341057e-14 7.405934996122451319e-14
8.760000000000000000e+02 7.668106079101562500e+01 1.290108394622802734e+01 6.655333022968085155e-14 -1.316054605788111176e-13 -1.951563910473907981e-14 -1.261010474642651480e-13
8.770000000000000000e+02 4.475656127929687500e+01 1.513344478607177734e+01 1.120898214740720378e-13 2.081668171172168513e-13 9.607699564314481355e-14 4.003208151797700565e-15
8.780000000000000000e+02 4.538397216796875000e+01 1.651395416259765625e+01 3.753007642310344279e-16 4.591179121452883261e-14 1.388612769421312260e-14 6.004812227696550847e-15
8.790000000000000000e+02 7.640128612518310547e+00 8.377131462097167969e+00 -2.141716301919463494e-13 -4.603689120457471473e-14 -7.806255641895631925e-14 -1.511210996835501974e-13
8.800000000000000000e+02 2.847316741943359375e+00 6.309899806976318359e+00 -1.038332085785166614e-13 1.251002547436781426e-15 -3.077466192579099424e-14 -1.401122870069854143e-13
8.810000000000000000e+02 4.921580314636230469e+00 6.345286369323730469e+00 7.143224000586562150e-14 -1.513713098280373287e-14 1.688853423157787165e-14 -9.407538902614712151e-14
8.820000000000000000e+02 3.062587738037109375e+00 7.891444206237792969e+00 1.000802037949425141e-15 2.291836696550336727e-13 6.905533680686207210e-14 -1.363592771412135835e-14
8.830000000000000000e+02 1.485514259338378906e+01 1.346626281738281250e+01 -2.642117210779892922e-13 -2.161732300326804634e-13 -1.441154866884536423e-13 -2.056648173162992088e-13
8.840000000000000000e+02 2.713153076171875000e+01 1.109486198425292969e+01 -1.182197362329133125e-14 -3.253232102110037438e-13 -1.011435537103325122e-13 -2.471980953266950110e-13
8.850000000000000000e+02 2.401678848266601562e+01 1.124852752685546875e+01 2.932350000837968818e-13 1.177943918621859876e-12 4.413536864537187521e-13 5.694563202061908580e-13
8.860000000000000000e+02 4.048839950561523438e+01 1.503476047515869141e+01 1.140914348673333079e-13 1.861491782115601290e-13 9.007218256841531545e-14 1.060850151756061177e-13
8.870000000000000000e+02 5.172339630126953125e+01 1.540570545196533203e+01 2.086672170774003798e-13 2.266816563015888741e-13 1.306046606584440606e-13 -4.003208151797700565e-14
8.880000000000000000e+02 5.658144760131835938e+01 1.515572452545166016e+01 5.654531408535133641e-14 -2.151724233360498284e-14 1.050842118671072717e-14 5.004010105043830980e-14
8.890000000000000000e+02 2.889004325866699219e+01 1.376302337646484375e+01 3.492799040445693226e-13 -3.993200084831394214e-13 -1.501202929869195624e-14 5.854691731421723944e-14
8.900000000000000000e+02 7.743873596191406250e+01 1.283226108551025391e+01 1.551243095294137925e-14 1.896519779328448285e-13 6.154932385158198849e-14 8.606896933441993136e-14
8.910000000000000000e+02 1.085334300994873047e+01 9.869318962097167969e+00 -2.225533396894158189e-13 -3.241347619996337581e-13 -1.640064223751985795e-13 -1.581267126786467525e-13
8.920000000000000000e+02 1.160511875152587891e+01 1.147460460662841797e+01 -2.919214349417220689e-13 -2.166110850800387344e-13 -1.525597546512755254e-13 -2.542037218743187221e-13
8.930000000000000000e+02 2.220380067825317383e+00 4.367770195007324219e+00 -9.007217918028352643e-15 1.791435652164635739e-13 5.104090097080536681e-14 -1.060850151756061177e-13
8.940000000000000000e+02 1.547026920318603516e+01 1.393942451477050781e+01 -3.432750774173126684e-13 -3.072462260739899920e-13 -1.951563910473907981e-13 -2.434450752965278131e-13
8.950000000000000000e+02 2.673924255371093750e+01 1.157236862182617188e+01 -1.838973716144706727e-13 -7.881315635923161200e-14 -7.881315635923161200e-14 -2.421940957248597259e-13
8.960000000000000000e+02 2.663509941101074219e+01 1.287372398376464844e+01 4.918941772999452233e-13 5.539439349930286305e-13 3.137514391089030186e-13 1.225982477429804485e-13
8.970000000000000000e+02 3.170713615417480469e+01 1.486537265777587891e+01 1.738893419176140015e-14 -5.415589851565094648e-13 -1.572510161364573666e-13 7.806255641895631925e-14
8.980000000000000000e+02 2.827404022216796875e+01 1.383094596862792969e+01 3.082470259943570490e-13 1.321058605389946461e-13 1.321058605389946461e-13 2.602085213965210642e-14
8.990000000000000000e+02 1.335116672515869141e+01 1.399440765380859375e+01 -2.270589044475052054e-13 -1.430619132273408534e-13 -1.110362480129592488e-13 -5.007137689498272759e-14
9.000000000000000000e+02 2.279167175292968750e+01 8.087360382080078125e+00 -2.031628039628544102e-13 7.305854326459387815e-14 -3.903127820947815962e-14 2.201764398785440585e-14
9.010000000000000000e+02 1.623848724365234375e+01 1.536367511749267578e+01 -4.393520866129846381e-13 -1.711371387484728057e-13 -1.831467648979318019e-13 -3.680449499852966877e-13
9.020000000000000000e+02 1.562565231323242188e+01 1.491651248931884766e+01 -3.232590519049172162e-13 -1.671339390670045777e-13 -1.471179000020819694e-13 -2.239294497443158893e-13
9.030000000000000000e+02 9.359976768493652344e+00 9.640752792358398438e+00 -1.383608803700794865e-13 -5.929751725449253219e-14 -5.929751725449253219e-14 -1.000802021008766196e-13
9.040000000000000000e+02 1.105275058746337891e+01 1.097315216064453125e+01 -2.780352987771794737e-13 -4.394146179732827395e-13 -2.152349750251386640e-13 -1.741395520621011328e-13
9.050000000000000000e+02 9.620753288269042969e+00 1.067254638671875000e+01 -1.313552673749829314e-13 -3.765517628609438283e-13 -1.523721063602725967e-13 -1.781427517435693608e-13
9.060000000000000000e+02 7.196174621582031250e+01 1.361729240417480469e+01 3.602887167211341057e-14 -7.606094980195862720e-14 -1.200962445539310169e-14 -2.401924891078620339e-14
9.070000000000000000e+02 2.567850685119628906e+01 1.852224922180175781e+01 -4.563657394693332314e-13 2.562053217150528361e-13 -6.004811719476782494e-14 4.253408470702643718e-14
9.080000000000000000e+02 2.437650680541992188e+01 1.823559379577636719e+01 -4.114547244582489327e-13 5.241700424944185921e-14 -1.077113184343343744e-13 -2.421940957248597259e-13
9.090000000000000000e+02 2.467686462402343750e+01 1.181457328796386719e+01 5.454370679072728656e-13 8.056455893037939298e-13 4.053248080053417635e-13 3.692959295569647749e-13
9.100000000000000000e+02 3.241065979003906250e+01 1.534102344512939453e+01 1.441154866884536423e-13 -3.042437992078345088e-13 -4.803849782157240678e-14 -5.416840749821599799e-14
9.110000000000000000e+02 2.094924354553222656e+01 1.909764099121093750e+01 -3.222582519845501592e-13 -1.781427517435693608e-13 -1.501202997631831404e-13 5.254210593355363584e-15
9.120000000000000000e+02 2.591735458374023438e+01 1.665514945983886719e+01 -5.439358815792494362e-13 4.988998038475689345e-13 -1.351082687704252897e-14 3.542839036464046076e-13
9.130000000000000000e+02 6.027951812744140625e+01 1.501587295532226562e+01 -1.170938346284344789e-13 -7.305854326459387815e-14 -5.704571743366665393e-14 4.365998800557116533e-14
9.140000000000000000e+02 4.830164337158203125e+01 1.721354293823242188e+01 6.004812227696550847e-15 2.542037218743187221e-13 7.806255641895631925e-14 2.001604075898850282e-14
9.150000000000000000e+02 4.742844772338867188e+01 1.645598793029785156e+01 7.806255641895631925e-14 -5.804651735403371093e-14 6.004812227696550847e-15 -3.302646513474866152e-14
9.160000000000000000e+02 2.536650848388671875e+01 1.243765830993652344e+01 4.173344341548007597e-13 1.013812406421010781e-12 4.293440603042597559e-13 2.924843798147308549e-13
9.170000000000000000e+02 6.627017974853515625e+01 1.490789222717285156e+01 2.301844560228735737e-14 -1.731387521417340758e-13 -4.503609128420765773e-14 -2.802245536851800944e-14
9.180000000000000000e+02 6.402369689941406250e+01 1.581938934326171875e+01 -3.765517493084166722e-14 -1.613793259723668438e-14 -1.613793259723668438e-14 -7.205774334422682115e-14
9.190000000000000000e+02 6.579312133789062500e+01 1.550480937957763672e+01 5.216680426935009496e-14 -2.339374726649089825e-14 8.631917100857759012e-15 -9.857899544406245607e-14
9.200000000000000000e+02 3.645983886718750000e+01 1.515198326110839844e+01 8.206576287668812530e-14 2.181748434259417335e-13 9.007218256841531545e-14 -1.301042606982605321e-14
9.210000000000000000e+02 3.391595840454101562e+01 1.668280220031738281e+01 7.806255641895631925e-14 -5.804651735403371093e-14 6.004812227696550847e-15 -5.504411081666896188e-14
9.220000000000000000e+02 4.483860397338867188e+01 1.772319793701171875e+01 4.203368474684290867e-14 1.801443583605670529e-14 1.801443583605670529e-14 -2.802245536851800944e-14
9.230000000000000000e+02 5.257388687133789062e+01 1.459256362915039062e+01 1.266014474244486765e-13 8.506817110811876886e-15 4.053248147816053415e-14 -1.120898214740720378e-13
9.240000000000000000e+02 5.259420013427734375e+01 1.541428756713867188e+01 7.606094980195862720e-14 -3.602887167211341057e-14 1.200962445539310169e-14 7.105694342385976414e-14
9.250000000000000000e+02 4.255416488647460938e+01 1.446478271484375000e+01 1.371098736933570872e-13 1.301042606982605321e-14 4.503609128420765773e-14 1.060850151756061177e-13
9.260000000000000000e+02 2.595151710510253906e+01 1.316955184936523438e+01 7.526031122091769721e-13 2.882309733769072846e-13 3.122502256758252770e-13 3.778027695376662276e-13
9.270000000000000000e+02 6.270398712158203125e+01 1.693161582946777344e+01 5.942262063267020333e-14 -2.032879073410320814e-13 -4.315958804538763682e-14 -1.441154866884536423e-13
9.280000000000000000e+02 6.106435775756835938e+01 1.618252372741699219e+01 6.899278511777323653e-14 -1.534354511934649112e-13 -2.533280050033386022e-14 -1.200962445539310169e-14
9.290000000000000000e+02 2.287146568298339844e+01 1.973299217224121094e+01 -2.512638534735156526e-13 -1.534354511934649112e-13 -1.214097995316104628e-13 -2.388163722766983854e-13
9.300000000000000000e+02 3.882669448852539062e+00 3.881579971313476562e+01 4.303448466720996568e-14 3.272622515863854442e-13 1.110890215537049808e-13 5.466881084653131551e-14
9.310000000000000000e+02 2.277855110168457031e+01 8.731768608093261719e+00 4.603689120457471473e-14 4.543641125235448053e-13 1.501202997631831404e-13 1.341074739322559162e-13
9.320000000000000000e+02 2.249233627319335938e+01 7.559602260589599609e+00 -1.160930347080674219e-13 7.606094980195862720e-14 -1.200962445539310169e-14 -9.482598896642241426e-14
9.330000000000000000e+02 7.045014953613281250e+01 1.455890655517578125e+01 3.953167816966168813e-14 -7.455974992140804170e-14 -1.050842118671072717e-14 5.004010105043830980e-14
9.340000000000000000e+02 5.274364471435546875e+01 1.631340789794921875e+01 1.190954344691685929e-13 5.104090097080536681e-14 5.104090097080536681e-14 -1.000802037949425141e-15
9.350000000000000000e+02 5.008808898925781250e+01 1.824944496154785156e+01 -5.004010189747125706e-16 1.256006475040816195e-13 3.753007494079578510e-14 6.955573676704560060e-14
9.360000000000000000e+02 7.115888977050781250e+01 1.373836517333984375e+01 2.001604075898850282e-14 -6.004811719476782494e-14 -1.200962445539310169e-14 0.000000000000000000e+00
9.370000000000000000e+02 6.979194641113281250e+01 1.540665149688720703e+01 -1.000802037949425141e-15 -6.905533680686207210e-14 -2.101684237342145434e-14 3.002405859738391247e-14
9.380000000000000000e+02 6.581378936767578125e+01 1.444549274444580078e+01 3.677947500052049234e-14 1.576263093303314350e-14 1.576263093303314350e-14 -1.140914348673333079e-13
9.390000000000000000e+02 2.212425231933593750e+01 8.559789657592773438e+00 3.002406113848275424e-15 5.274226693406658395e-13 1.591275125990138095e-13 1.261010474642651480e-13
9.400000000000000000e+02 2.211076545715332031e+01 7.189364433288574219e+00 -8.381716951359405310e-14 2.314354762521231290e-13 4.428548795580057595e-14 3.995389360068185569e-14
9.410000000000000000e+02 1.633007621765136719e+01 1.733277511596679688e+01 -3.410232708202232121e-13 1.826463581614846954e-14 -9.682759558342010631e-14 -3.452454251304248878e-13
9.420000000000000000e+02 3.833838653564453125e+01 1.564763736724853516e+01 4.803849782157240678e-14 1.120898214740720378e-13 4.803849782157240678e-14 -4.803849782157240678e-14
9.430000000000000000e+02 3.647837448120117188e+01 1.662071990966796875e+01 7.005613842129502361e-15 1.631307258330091936e-13 5.104090097080536681e-14 -1.215974478226133915e-13
9.440000000000000000e+02 2.153948593139648438e+01 7.691200733184814453e+00 6.805453688649501509e-14 3.722983564231202580e-13 1.321058605389946461e-13 1.841475648182988589e-13
9.450000000000000000e+02 1.925770187377929688e+01 1.757846069335937500e+01 -3.102486258350911630e-13 1.701363388281057487e-13 -4.203368474684290867e-14 -3.834322657015991342e-14
9.460000000000000000e+02 1.805773353576660156e+01 1.769940567016601562e+01 -2.316856559034241592e-13 8.656937607086703790e-14 -4.353488801552528320e-14 -6.267522715012671664e-14
9.470000000000000000e+02 2.247039222717285156e+01 9.333066940307617188e+00 5.204170427930421283e-14 3.883111822540474822e-13 1.321058605389946461e-13 3.052445991282015658e-13
9.480000000000000000e+02 5.735607147216796875e+01 1.666944313049316406e+01 8.356696953350228885e-14 -2.386912824510478703e-13 -4.653729455289003225e-14 1.301042606982605321e-13
9.490000000000000000e+02 7.492318725585937500e+01 3.255883407592773438e+01 -1.000802037949425141e-14 -5.004010105043830980e-14 -1.801443583605670529e-14 2.001604075898850282e-15
9.500000000000000000e+02 7.625280761718750000e+01 3.019687652587890625e+01 -2.201764398785440585e-14 8.206576287668812530e-14 1.801443583605670529e-14 -7.005613842129502361e-15
9.510000000000000000e+02 7.622130584716796875e+01 2.933853721618652344e+01 3.002405859738391247e-14 -1.000802037949425141e-14 6.004812227696550847e-15 2.802245536851800944e-14
9.520000000000000000e+02 7.716205596923828125e+01 3.097455596923828125e+01 -4.553649124439118623e-14 1.406126869671689428e-13 2.852285871683332696e-14 -1.200962445539310169e-14
9.530000000000000000e+02 7.650423431396484375e+01 3.185054016113281250e+01 -6.405133042876320904e-14 6.405133042876320904e-14 0.000000000000000000e+00 -8.006416303595401129e-15
9.540000000000000000e+02 7.719163513183593750e+01 3.178335571289062500e+01 3.702967498061225660e-14 -7.005613842129502361e-15 9.007217918028352643e-15 1.701363422162375377e-14
9.550000000000000000e+02 7.634457397460937500e+01 3.105459403991699219e+01 3.853087824929463112e-14 1.651323256737433076e-14 1.651323256737433076e-14 -8.706977603105056640e-14
9.560000000000000000e+02 7.638339996337890625e+01 2.688652610778808594e+01 -4.003208151797700565e-14 -4.003208151797700565e-14 -2.401924891078620339e-14 7.105694342385976414e-14
9.570000000000000000e+02 7.650076293945312500e+01 2.530051803588867188e+01 -9.657739560332834206e-14 -1.786431517037528893e-13 -8.256616283687165381e-14 -3.903127820947815962e-14
9.580000000000000000e+02 7.671720123291015625e+01 1.906242370605468750e+01 2.301844560228735737e-14 1.471179000020819694e-13 5.104090097080536681e-14 -8.306656957331876034e-14
9.590000000000000000e+02 7.673240661621093750e+01 1.827902984619140625e+01 -1.000802037949425141e-15 -2.291836696550336727e-13 -6.905533680686207210e-14 3.803047490097931360e-14
9.600000000000000000e+02 7.670252227783203125e+01 1.985366630554199219e+01 -9.307458910578006450e-14 -1.771419518232023038e-13 -8.106496295632106830e-14 -4.603689120457471473e-14
9.610000000000000000e+02 7.654619598388671875e+01 2.452010154724121094e+01 6.755413692631148659e-14 -2.226784430675934900e-13 -4.653729455289003225e-14 -1.481186999224490264e-13
9.620000000000000000e+02 7.748557281494140625e+01 1.514439392089843750e+01 -4.353488801552528320e-14 -2.016616040823038247e-13 -7.355895000104098469e-14 3.102486190588275849e-14
9.630000000000000000e+02 7.676009368896484375e+01 1.672274208068847656e+01 6.905533680686207210e-14 -1.991596042813861822e-13 -3.903127820947815962e-14 3.702967498061225660e-14
9.640000000000000000e+02 7.749017333984375000e+01 1.591439151763916016e+01 7.606094980195862720e-14 -1.961571909677578551e-13 -3.602887167211341057e-14 -7.405934996122451319e-14
9.650000000000000000e+02 7.741100311279296875e+01 2.140985107421875000e+01 4.953969770212299228e-14 -2.451964887096973189e-14 7.506014649345978118e-15 6.805453688649501509e-14
9.660000000000000000e+02 7.668412780761718750e+01 2.064428710937500000e+01 1.501203056924137712e-15 2.351884725653678038e-14 7.506014649345978118e-15 -2.401924891078620339e-14
9.670000000000000000e+02 7.739412689208984375e+01 2.219165229797363281e+01 2.502005052521915490e-14 -3.502807175174635357e-14 -3.002406113848275424e-15 -1.070858150959731747e-13
9.680000000000000000e+02 7.661550903320312500e+01 2.297236824035644531e+01 -7.005613842129502361e-15 -3.232590519049172162e-13 -9.907939540424598457e-14 -8.106496295632106830e-14
9.690000000000000000e+02 7.543878936767578125e+01 3.663589477539062500e+01 9.757819552369539906e-15 -8.731997601114233065e-14 -2.326864727644501613e-14 -1.000802037949425141e-14
9.700000000000000000e+02 7.518247985839843750e+01 1.384470367431640625e+01 3.052446194569922999e-14 1.045838085187919542e-13 4.053248147816053415e-14 7.806255641895631925e-14
9.710000000000000000e+02 7.603405761718750000e+01 1.676819038391113281e+01 -1.351082687704252897e-14 -5.154130431912068433e-14 -1.951563910473907981e-14 -6.505213034913026604e-14
9.720000000000000000e+02 7.675175476074218750e+01 1.518851757049560547e+01 -2.952365863720038397e-14 -1.956567910075743266e-13 -6.755413692631148659e-14 -9.407538902614712151e-14
9.730000000000000000e+02 7.666253662109375000e+01 2.142759895324707031e+01 -3.502807175174635357e-14 -1.501202929869195624e-14 -1.501202929869195624e-14 -5.204170427930421283e-14
9.740000000000000000e+02 6.718079376220703125e+01 1.422778034210205078e+01 1.245998475837145625e-13 1.906527778532118855e-13 9.457578898633065001e-14 -1.200962445539310169e-14
9.750000000000000000e+02 7.563529968261718750e+01 2.606017112731933594e+01 -6.555253030931379454e-14 -1.195958344293521214e-13 -5.554451077685249039e-14 6.805453688649501509e-14
9.760000000000000000e+02 2.547977924346923828e+00 2.970226478576660156e+01 -3.803047490097931360e-14 2.582069215557869502e-13 6.605293026949732305e-14 6.305052373213257400e-14
9.770000000000000000e+02 3.243307590484619141e+00 3.037215423583984375e+01 -2.301844560228735737e-14 1.731387521417340758e-13 4.503609128420765773e-14 1.901523745048965680e-14
9.780000000000000000e+02 7.624662780761718750e+01 2.850278091430664062e+01 2.952365863720038397e-14 1.956567910075743266e-13 6.755413692631148659e-14 6.204972381176551699e-14
9.790000000000000000e+02 7.631089782714843750e+01 2.769001960754394531e+01 2.001604075898850282e-15 -2.201764398785440585e-14 -6.004812227696550847e-15 3.803047490097931360e-14
9.800000000000000000e+02 4.119853210449218750e+01 1.483554935455322266e+01 1.125902282105191443e-13 2.502005094873562853e-15 3.452766840343103605e-14 3.002405859738391247e-14
9.810000000000000000e+02 9.089818954467773438e+00 1.031678676605224609e+01 -2.341876692568689577e-13 -4.663737386730038015e-13 -2.101684169579509653e-13 -7.205774334422682115e-14
9.820000000000000000e+02 9.937336921691894531e+00 1.002678489685058594e+01 -2.049142105997603380e-13 -4.080770281151419043e-13 -1.838973716144706727e-13 -1.281026608575264181e-13
9.830000000000000000e+02 5.337005233764648438e+01 1.533955478668212891e+01 1.441154866884536423e-13 1.601283260719080226e-14 4.803849782157240678e-14 -5.604491073703601889e-14
9.840000000000000000e+02 3.583138465881347656e+00 3.424151229858398438e+01 3.984442983884228795e-14 3.373328363604627400e-13 1.131531798597915084e-13 -1.801443583605670529e-14
9.850000000000000000e+02 7.540930175781250000e+01 3.361626815795898438e+01 -3.002406113848275424e-15 -2.071660171968497943e-13 -6.305052373213257400e-14 -2.301844560228735737e-14
9.860000000000000000e+02 3.365892171859741211e+00 2.403423690795898438e+01 -4.653729455289003225e-14 2.316856559034241592e-13 5.554451077685249039e-14 1.301042606982605321e-13
9.870000000000000000e+02 4.124145507812500000e+00 2.396208381652832031e+01 -3.803047490097931360e-14 2.582069215557869502e-13 6.605293026949732305e-14 3.502807175174635357e-14
9.880000000000000000e+02 3.142861843109130859e+00 1.670781135559082031e+01 5.704571743366665393e-14 -6.705373696612795809e-14 -3.002406113848275424e-15 8.606896933441993136e-14
9.890000000000000000e+02 2.641328334808349609e+00 8.669497489929199219e+00 -4.753809447325708926e-14 1.626303258728256651e-13 3.452766840343103605e-14 -3.702967498061225660e-14
9.900000000000000000e+02 3.169684171676635742e+00 1.828660392761230469e+01 5.004010105043830980e-14 2.502004950877961820e-13 9.007218256841531545e-14 1.321058605389946461e-13
9.910000000000000000e+02 4.414080047607421875e+01 1.623736572265625000e+01 5.304250758780305885e-14 -2.301844560228735737e-14 9.007217918028352643e-15 9.707779556351187056e-14
9.920000000000000000e+02 3.354753255844116211e+00 1.197588348388671875e+01 -9.007217918028352643e-15 4.994002173602796191e-13 1.471179000020819694e-13 -6.104892389139845998e-14
9.930000000000000000e+02 3.212671041488647461e+00 1.357334232330322266e+01 -4.203368474684290867e-14 3.022421993671003948e-13 7.806255641895631925e-14 -1.701363422162375377e-14
9.940000000000000000e+02 2.486150979995727539e+00 1.441855621337890625e+01 1.100882199392720293e-14 2.792237469885494594e-13 8.706977603105056640e-14 1.251002475438980910e-13
9.950000000000000000e+02 3.146194219589233398e+00 1.592295169830322266e+01 -4.803849782157240678e-14 2.081668171172168513e-13 4.803849782157240678e-14 -5.004010189747125706e-15
9.960000000000000000e+02 3.157773733139038086e+00 1.514083194732666016e+01 -1.301042606982605321e-14 2.231788430277770185e-13 6.305052373213257400e-14 3.302646513474866152e-14
9.970000000000000000e+02 4.298398971557617188e+00 6.787810802459716797e+00 6.305052373213257400e-14 2.702165375408505793e-14 2.702165375408505793e-14 -1.406126869671689428e-13
9.980000000000000000e+02 4.047832012176513672e+00 1.205799770355224609e+01 -2.151724233360498284e-14 3.652927163229693908e-14 4.503608959014176322e-15 1.801443583605670529e-14
9.990000000000000000e+02 2.553688764572143555e+00 1.280239200592041016e+01 -8.006416303595401129e-15 4.083272077664429345e-13 1.200962343895356499e-13 3.903127820947815962e-14
1.000000000000000000e+03 3.262391567230224609e+00 1.082974147796630859e+01 -1.899021846892001708e-13 1.473680932059101556e-13 -1.276022524270134170e-14 -1.000802021008766196e-13
1.001000000000000000e+03 3.323709011077880859e+00 2.318808937072753906e+01 -7.305854326459387815e-14 2.431948956452267829e-13 5.104090097080536681e-14 7.105694342385976414e-14
1.002000000000000000e+03 3.197081089019775391e+00 1.908469772338867188e+01 -9.207378240914942946e-14 2.121700303512122354e-13 3.602887167211341057e-14 1.531227130768114675e-13
1.003000000000000000e+03 2.474886655807495117e+00 1.839796447753906250e+01 -4.603689120457471473e-14 1.861491782115601290e-13 4.203368474684290867e-14 -2.201764398785440585e-14
1.004000000000000000e+03 3.149831056594848633e+00 1.749514961242675781e+01 -1.150922347877003649e-13 2.251804564210382886e-13 3.302646513474866152e-14 -3.903127820947815962e-14
1.005000000000000000e+03 2.544085741043090820e+00 2.162659072875976562e+01 -3.502807175174635357e-14 1.451162866088206993e-13 3.302646513474866152e-14 4.103288143834406265e-14
1.006000000000000000e+03 3.249641418457031250e+00 2.893650054931640625e+01 1.851483749030612830e-14 2.366896826103137563e-13 7.656135653840573374e-14 1.120898214740720378e-13
1.007000000000000000e+03 3.407182216644287109e+00 2.573464012145996094e+01 -9.807859548387892756e-14 2.782229470681824024e-13 5.404330750817011586e-14 2.231788430277770185e-13
1.008000000000000000e+03 3.334336519241333008e+00 2.738343811035156250e+01 1.100882199392720293e-14 2.792237469885494594e-13 8.706977603105056640e-14 1.361090737729900302e-13
1.009000000000000000e+03 4.131006717681884766e+00 1.088377952575683594e+01 -5.079070099071360256e-14 2.984892064419875091e-13 7.430954994131627744e-14 -1.401122870069854143e-13
1.010000000000000000e+03 4.074431419372558594e+00 7.741362094879150391e+00 1.521218996039172544e-13 1.681347389873716347e-13 9.607699564314481355e-14 -6.955573676704560060e-14
1.011000000000000000e+03 3.096848726272583008e+00 9.502501487731933594e+00 -7.405934996122451319e-14 1.401122768425900472e-14 -1.801443583605670529e-14 -4.803849782157240678e-14
1.012000000000000000e+03 3.292899131774902344e+00 2.234943199157714844e+01 -5.004010189747125706e-15 2.952365999245309958e-13 8.706977603105056640e-14 1.210970478624298630e-13
1.013000000000000000e+03 3.225338935852050781e+00 1.988948059082031250e+01 -2.101684237342145434e-14 3.112494257554582200e-13 8.706977603105056640e-14 1.100882216333379238e-13
1.014000000000000000e+03 3.250976324081420898e+00 2.070096015930175781e+01 1.200962445539310169e-14 1.881507780522942430e-13 6.004811719476782494e-14 1.030826086382413687e-13
1.015000000000000000e+03 2.536638975143432617e+00 3.448603439331054688e+01 2.001604075898850282e-14 5.804651464352827972e-13 1.801443651368306309e-13 8.406736949368581735e-14
1.016000000000000000e+03 2.938703775405883789e+00 3.292837524414062500e+01 -7.005614350349270714e-14 2.902325732176413986e-13 6.605293026949732305e-14 6.705373696612795809e-14
1.017000000000000000e+03 3.027231693267822266e+00 3.479116439819335938e+01 -2.602085213965210642e-14 2.862293735361731706e-13 7.806255641895631925e-14 2.702165477052459464e-13
1.018000000000000000e+03 3.608317852020263672e+00 3.183899879455566406e+01 2.802245536851800944e-14 4.923945908126559079e-13 1.561251128379126385e-13 -2.902325867701685547e-14
1.019000000000000000e+03 3.225494384765625000e+00 2.966149902343750000e+01 -9.007218256841531545e-14 5.104090435893715583e-13 1.261010474642651480e-13 -7.005614350349270714e-14
1.020000000000000000e+03 2.550836563110351562e+00 2.894245529174804688e+01 -6.004811719476782494e-14 6.605293026949732305e-13 1.801443651368306309e-13 -5.804651735403371093e-14
1.021000000000000000e+03 3.402883529663085938e+00 2.488724517822265625e+01 -4.503608959014176322e-15 2.497001086801398095e-13 7.355895000104098469e-14 -3.202566521438160452e-14
1.022000000000000000e+03 3.416169166564941406e+00 3.612800598144531250e+01 -6.705373696612795809e-14 3.372702778951103264e-13 8.106496295632106830e-14 1.371098736933570872e-13
1.023000000000000000e+03 5.289134502410888672e+00 3.586789321899414062e+01 4.528629126429942198e-14 3.625405368707507181e-13 1.223480409866251062e-13 8.106496295632106830e-14
1.024000000000000000e+03 2.784674882888793945e+00 3.630326461791992188e+01 -3.027426196560746574e-14 3.530328969696822083e-13 9.682759558342010631e-14 1.801443583605670529e-14
1.025000000000000000e+03 2.291451930999755859e+00 6.139467239379882812e+00 1.220978477827969200e-13 9.807859548387892756e-14 6.605293026949732305e-14 -1.681347389873716347e-13
1.026000000000000000e+03 3.938300371170043945e+00 6.241197586059570312e+00 1.040834085586084257e-13 -1.040834085586084257e-13 0.000000000000000000e+00 -1.436150867282701138e-13
1.027000000000000000e+03 3.365317821502685547e+00 3.108962059020996094e+01 -4.803849782157240678e-14 3.682951296365977178e-13 9.607699564314481355e-14 7.606094980195862720e-14
1.028000000000000000e+03 2.418814277648925781e+01 9.564998626708984375e+00 -7.287089497359094947e-14 4.262791020778061712e-13 1.060224634865172821e-13 8.606896933441993136e-14
1.029000000000000000e+03 2.312007331848144531e+01 9.705700874328613281e+00 1.301042606982605321e-13 6.505213034913026604e-13 2.341876692568689577e-13 3.302646513474866152e-13
1.030000000000000000e+03 5.256989479064941406e+00 6.910134315490722656e+00 7.506014988159157020e-14 1.351082738526229732e-13 6.305052373213257400e-14 -1.281026608575264181e-13
1.031000000000000000e+03 2.485012054443359375e+01 1.011057758331298828e+01 -4.125180896202319814e-14 5.313320313241054471e-13 1.470240758565805050e-13 4.703769451307356075e-14
1.032000000000000000e+03 1.631683921813964844e+01 1.634374046325683594e+01 -4.233392607820574138e-13 -6.705373696612795809e-14 -1.471179000020819694e-13 -3.182550251980276190e-13
1.033000000000000000e+03 7.055538177490234375e+01 1.524676513671875000e+01 4.703769451307356075e-14 -1.170938346284344789e-13 -2.101684237342145434e-14 -5.304250758780305885e-14
1.034000000000000000e+03 1.193554782867431641e+01 1.346152877807617188e+01 -1.852734681168435871e-13 -3.365196847310986117e-14 -6.567763368749146569e-14 -1.801443651368306309e-13
1.035000000000000000e+03 1.177914237976074219e+01 1.251191711425781250e+01 -2.401299374187731983e-13 3.434002011242810737e-14 -6.173697214258491717e-14 -2.221780431074099615e-13
1.036000000000000000e+03 4.074119567871093750e+01 1.574647140502929688e+01 7.656135653840573374e-14 7.856295637913984775e-14 4.653729455289003225e-14 -5.804651735403371093e-14
1.037000000000000000e+03 1.983370971679687500e+01 1.804927825927734375e+01 -3.717979429104095734e-13 -9.357498906596359300e-14 -1.396118734942747297e-13 -2.777225538842624519e-14
1.038000000000000000e+03 2.549914932250976562e+01 1.065467357635498047e+01 -6.880513682677030785e-14 3.365196847310986117e-13 8.031436301604577555e-14 -1.521218996039172544e-13
1.039000000000000000e+03 7.440616607666015625e+01 1.396241569519042969e+01 6.505213034913026604e-14 -1.551243129175455815e-13 -2.702165375408505793e-14 1.020818019416107336e-13
1.040000000000000000e+03 1.122842121124267578e+01 1.203989315032958984e+01 -1.715124488830058191e-13 -1.650072358480927925e-13 -1.009559054193295835e-13 -9.207378240914942946e-14
1.041000000000000000e+03 7.282997894287109375e+01 1.421409702301025391e+01 -2.251804564210382886e-14 -1.926543912464731556e-13 -6.455173038894673754e-14 -1.060850151756061177e-13
1.042000000000000000e+03 5.740641784667968750e+01 1.583752155303955078e+01 4.303448466720996568e-14 -7.305854326459387815e-14 -9.007217918028352643e-15 4.503609128420765773e-14
1.043000000000000000e+03 5.664564514160156250e+01 1.591395282745361328e+01 7.005614350349270714e-14 -2.902325732176413986e-13 -6.605293026949732305e-14 1.060850151756061177e-13
1.044000000000000000e+03 7.673365020751953125e+01 1.442632579803466797e+01 9.207378240914942946e-14 -5.204170427930421283e-14 1.200962445539310169e-14 -1.281026608575264181e-13
1.045000000000000000e+03 1.383268070220947266e+01 1.348266220092773438e+01 -2.101058720451257078e-13 -1.357963221038094304e-13 -1.037706568894278258e-13 -4.566159123443706835e-14
1.046000000000000000e+03 1.861473655700683594e+01 1.817771720886230469e+01 -3.362694779747432694e-13 -1.441154866884536423e-13 -1.441154866884536423e-13 -7.531034986168333445e-14
1.047000000000000000e+03 1.742755699157714844e+01 1.825833320617675781e+01 -3.973184086424053074e-13 4.703769451307356075e-14 -1.050842084789754827e-13 -8.919647924996235155e-14
1.048000000000000000e+03 3.290261745452880859e+00 6.761387825012207031e+00 2.971131031633510167e-14 5.848436562512840386e-14 2.645870379887858836e-14 9.207378240914942946e-14
1.049000000000000000e+03 2.753863525390625000e+01 1.338747310638427734e+01 3.993200084831394214e-13 1.711371387484728057e-13 1.711371387484728057e-13 1.271018609371593611e-13
1.050000000000000000e+03 1.068672466278076172e+01 1.156306076049804688e+01 -1.467425898675489560e-13 -3.373953677207608415e-13 -1.452413899869983704e-13 -2.341876692568689577e-13
1.051000000000000000e+03 2.632858085632324219e+01 1.924712181091308594e+01 -2.231788430277770185e-13 3.332670782136420984e-13 3.302646513474866152e-14 -3.715477497065813872e-14
1.052000000000000000e+03 5.593950271606445312e+01 1.617077445983886719e+01 2.677145377399329368e-14 -3.427746842333927180e-14 -2.251804479507088161e-15 5.404330750817011586e-14
1.053000000000000000e+03 2.696138763427734375e+01 1.359766006469726562e+01 5.844683461167510252e-13 1.361090737729900302e-13 2.161732300326804634e-13 3.542839036464046076e-13
1.054000000000000000e+03 2.804221534729003906e+01 1.274910259246826172e+01 9.257418236933295796e-14 -4.178348476675114442e-13 -9.757819552369539906e-14 -2.722181475459800604e-13
1.055000000000000000e+03 2.614041519165039062e+01 1.115789318084716797e+01 1.003304020809683839e-13 -2.752205498481800731e-15 2.927345865710861972e-14 -3.002405859738391247e-14
1.056000000000000000e+03 3.311912918090820312e+01 1.697009849548339844e+01 1.291034607778934751e-13 -3.793039558656896570e-13 -7.506014988159157020e-14 -5.904731727440076794e-14
1.057000000000000000e+03 3.191181755065917969e+01 1.584411239624023438e+01 2.722181475459800604e-13 -2.722181475459800604e-13 0.000000000000000000e+00 2.076664239332969009e-14
1.058000000000000000e+03 3.129163503646850586e+00 5.589575767517089844e+00 1.861491782115601290e-13 3.402726844324750755e-14 6.605293026949732305e-14 2.802245536851800944e-14
1.059000000000000000e+03 1.898388099670410156e+01 1.984914207458496094e+01 -1.969703425971219835e-13 -1.301668056110857896e-13 -9.814114717296776313e-14 -2.301844560228735737e-14
1.060000000000000000e+03 2.821242713928222656e+01 1.437392044067382812e+01 3.532831037260375506e-13 -1.230986477031639770e-13 6.905533680686207210e-14 2.642117210779892922e-13
1.061000000000000000e+03 2.979363632202148438e+01 1.477382087707519531e+01 2.096680169977674368e-13 -1.846479647784823874e-13 7.506014649345978118e-15 1.185950345089850644e-13
1.062000000000000000e+03 2.651432037353515625e+01 1.214245223999023438e+01 4.383512866926175811e-13 1.421138868477195283e-13 1.741395520621011328e-13 8.606896933441993136e-14
1.063000000000000000e+03 2.957635116577148438e+01 1.561836338043212891e+01 1.586271126388302810e-13 -3.437754909300233530e-13 -5.554451077685249039e-14 1.341074739322559162e-13
1.064000000000000000e+03 2.579432868957519531e+01 1.181430912017822266e+01 2.076664171570333228e-13 3.177546387903712466e-13 1.576263127184632240e-13 -6.004811719476782494e-14
1.065000000000000000e+03 1.441157531738281250e+01 1.397638797760009766e+01 -3.072462260739899920e-13 -1.831467648979318019e-13 -1.471179000020819694e-13 -1.841475648182988589e-13
1.066000000000000000e+03 2.654903602600097656e+01 1.713070869445800781e+01 -1.210970478624298630e-13 6.114900252818245008e-13 1.471179000020819694e-13 3.739246596818485147e-13
1.067000000000000000e+03 2.767642021179199219e+01 1.607473564147949219e+01 1.338572671759005739e-13 1.488692930864607411e-13 8.481796943396111010e-14 4.423544863740858091e-13
1.068000000000000000e+03 3.644475555419921875e+01 1.581012248992919922e+01 -5.304250758780305885e-14 2.301844560228735737e-14 -9.007217918028352643e-15 5.804651735403371093e-14
1.069000000000000000e+03 3.769315338134765625e+01 1.633142280578613281e+01 1.010810020212436766e-13 8.907137587178468041e-14 5.704571743366665393e-14 -8.807057595141762341e-14
1.070000000000000000e+03 2.683231353759765625e+01 1.454717254638671875e+01 6.209976651828930105e-13 1.546239129573620530e-13 2.326864558237912162e-13 4.548644989312011777e-13
1.071000000000000000e+03 6.519541168212890625e+01 1.606133079528808594e+01 -3.002406113848275424e-15 -4.703769451307356075e-14 -1.501202929869195624e-14 -8.606896933441993136e-14
1.072000000000000000e+03 7.203734588623046875e+01 1.433158779144287109e+01 -2.902325867701685547e-14 -2.411932958044926689e-13 -8.106496295632106830e-14 5.004010105043830980e-14
1.073000000000000000e+03 6.336230850219726562e+01 1.635174369812011719e+01 8.969687921014588006e-14 8.419246609559991046e-14 5.216680426935009496e-14 -1.220978477827969200e-13
1.074000000000000000e+03 1.512528228759765625e+01 1.544729709625244141e+01 -3.973184086424053074e-13 -1.531227130768114675e-13 -1.651323256737433076e-13 -2.431948956452267829e-13
1.075000000000000000e+03 9.294045448303222656e+00 1.129225158691406250e+01 -2.481988952470620680e-13 -1.521218996039172544e-13 -1.200962343895356499e-13 -5.004010105043830980e-14
1.076000000000000000e+03 1.391976070404052734e+01 1.449843692779541016e+01 -2.645557655323732549e-13 -2.048829313670841312e-13 -1.408316009383209222e-13 -5.104090097080536681e-14
1.077000000000000000e+03 4.213084411621093750e+01 1.541910266876220703e+01 7.606094980195862720e-14 1.240994476235310340e-13 6.004811719476782494e-14 3.302646513474866152e-14
1.078000000000000000e+03 4.320240783691406250e+01 1.680102539062500000e+01 2.528588842758312805e-14 1.083680908409764138e-14 1.083680908409764138e-14 1.138412281109779656e-13
1.079000000000000000e+03 6.735478210449218750e+01 1.493766212463378906e+01 -3.502807175174635357e-14 -1.751403519824681898e-13 -6.305052373213257400e-14 2.502005052521915490e-14
1.080000000000000000e+03 2.023890304565429688e+01 1.972272109985351562e+01 -2.241796429481440756e-13 -9.607699564314481355e-14 -9.607699564314481355e-14 -4.553649124439118623e-14
1.081000000000000000e+03 4.741323471069335938e+01 1.864732551574707031e+01 5.504411081666896188e-14 1.150922347877003649e-13 5.104090097080536681e-14 -3.602887167211341057e-14
1.082000000000000000e+03 2.210220718383789062e+01 2.047019386291503906e+01 -1.889639296816583713e-13 -2.182373883387669911e-13 -1.221603926956221775e-13 -3.602887167211341057e-14
1.083000000000000000e+03 2.362393569946289062e+01 1.896638298034667969e+01 -2.840244857880980245e-13 1.552806887521358814e-14 -8.054892337979943640e-14 -8.194066627477403220e-14
1.084000000000000000e+03 4.450553894042968750e+01 1.696429824829101562e+01 -1.651323256737433076e-14 -9.857899544406245607e-14 -3.452766840343103605e-14 1.581267126786467525e-13
1.085000000000000000e+03 4.569645690917968750e+01 1.736418914794921875e+01 2.001604075898850282e-14 -1.401122870069854143e-13 -3.602887167211341057e-14 1.165934346682509504e-13
1.086000000000000000e+03 5.911069869995117188e+01 1.581854534149169922e+01 7.656135653840573374e-14 -2.416936822121490414e-13 -4.953969770212299228e-14 3.903127820947815962e-14
1.087000000000000000e+03 5.515921115875244141e+00 3.829709625244140625e+01 4.003208151797700565e-14 2.001604042017532392e-13 7.205774334422682115e-14 3.702967498061225660e-14
1.088000000000000000e+03 4.639362335205078125e+00 3.960228347778320312e+01 2.839775703272155033e-14 2.180497400477640624e-13 7.393424658304684205e-14 -6.004812227696550847e-15
1.089000000000000000e+03 6.221539306640625000e+01 1.625360679626464844e+01 1.000802037949425141e-14 -1.100882216333379238e-13 -3.002405859738391247e-14 -4.903929774193946378e-14
1.090000000000000000e+03 6.152648162841796875e+01 1.686768531799316406e+01 2.902325867701685547e-14 -1.991596042813861822e-13 -5.104090097080536681e-14 -1.301042606982605321e-13
1.091000000000000000e+03 4.894758987426757812e+01 1.717069053649902344e+01 1.140914348673333079e-13 3.462775042834681516e-13 1.381106736137241442e-13 -1.000802037949425141e-15
1.092000000000000000e+03 2.077268981933593750e+01 2.036097145080566406e+01 -2.682774792248099338e-13 -2.064779689456633371e-13 -1.424266385169001281e-13 2.201764398785440585e-14
1.093000000000000000e+03 3.216997385025024414e+00 4.053099822998046875e+01 4.528629126429942198e-14 2.024122107988426955e-13 7.430954994131627744e-14 2.201764398785440585e-14
1.094000000000000000e+03 3.541579437255859375e+01 1.594442081451416016e+01 2.602085213965210642e-14 1.140914348673333079e-13 4.203368474684290867e-14 -5.904731727440076794e-14
1.095000000000000000e+03 3.417437362670898438e+01 1.773638916015625000e+01 7.455974992140804170e-14 -1.396118734942747297e-13 -1.951563910473907981e-14 -5.554451077685249039e-14
1.096000000000000000e+03 3.108185768127441406e+00 3.684742355346679688e+01 2.001604075898850282e-14 5.404330954104918927e-13 1.681347389873716347e-13 8.606896933441993136e-14
1.097000000000000000e+03 7.423735809326171875e+01 4.021044921875000000e+01 7.068164260668917051e-15 -4.272173638616115487e-14 -1.069607117177955036e-14 1.200962445539310169e-14
1.098000000000000000e+03 7.690773773193359375e+01 3.965056228637695312e+01 -1.801443583605670529e-14 -1.220978477827969200e-13 -4.203368474684290867e-14 -7.506014649345978118e-15
1.099000000000000000e+03 7.532878875732421875e+01 3.877793502807617188e+01 -1.450478700636050750e-14 -1.205937070038534675e-13 -4.052955074416303427e-14 -2.520770051028797809e-14
1.100000000000000000e+03 6.898596954345703125e+01 1.564641094207763672e+01 5.354290754798658736e-14 -6.855493684667854359e-14 -4.503608959014176322e-15 -4.903929774193946378e-14
1.101000000000000000e+03 6.809192657470703125e+01 1.488480567932128906e+01 1.451162933850842773e-14 -3.953167816966168813e-14 -7.506014649345978118e-15 -4.403528797570881170e-14
1.102000000000000000e+03 6.028306961059570312e+01 1.670201110839843750e+01 6.154932385158198849e-14 -3.167538388700041896e-13 -7.656135653840573374e-14 -6.880513682677030785e-14
1.103000000000000000e+03 5.998303985595703125e+01 1.579924964904785156e+01 5.604491073703601889e-14 2.401924891078620339e-14 2.401924891078620339e-14 2.902325867701685547e-14
1.104000000000000000e+03 7.996714591979980469e+00 9.919115066528320312e+00 2.101684237342145434e-14 9.007217918028352643e-15 9.007217918028352643e-15 -1.140914348673333079e-13
1.105000000000000000e+03 3.229184150695800781e+00 8.837446212768554688e+00 9.207378240914942946e-14 2.682149478645118323e-13 1.080866150163402317e-13 -1.381106736137241442e-13
1.106000000000000000e+03 2.568539619445800781e+01 1.988055992126464844e+01 -3.048693025461957085e-13 5.591981074699013676e-14 -7.468484652332213480e-14 -1.885886330996525140e-14
1.107000000000000000e+03 6.740721893310546875e+01 1.556144809722900391e+01 9.607699564314481355e-14 -9.607699564314481355e-14 0.000000000000000000e+00 2.001604075898850282e-15
1.108000000000000000e+03 6.564704132080078125e+01 1.681761550903320312e+01 1.018316019615189694e-13 1.808949583008423456e-13 8.481796943396111010e-14 -2.682149478645118323e-13
1.109000000000000000e+03 1.518971633911132812e+01 1.643955230712890625e+01 -3.580369236765718055e-13 -1.548741061611902392e-13 -1.538733062408231822e-13 -2.389414892074032126e-13
1.110000000000000000e+03 7.132378387451171875e+01 1.515288925170898438e+01 -1.251002526260957745e-14 -1.426142868079030568e-13 -4.653729455289003225e-14 3.202566521438160452e-14
1.111000000000000000e+03 5.408114242553710938e+01 1.542976474761962891e+01 3.502807175174635357e-14 -1.451162866088206993e-13 -3.302646513474866152e-14 6.905533680686207210e-14
1.112000000000000000e+03 5.360874938964843750e+01 1.604726409912109375e+01 7.556054984177509870e-14 -1.506206997233666689e-13 -2.251804564210382886e-14 4.453568793589234021e-14
1.113000000000000000e+03 6.323016738891601562e+01 1.762267684936523438e+01 -2.977385861729214822e-14 -1.228484409468086347e-13 -4.578669122448295048e-14 -9.107298248878237246e-14
1.114000000000000000e+03 3.766437911987304688e+01 1.565067863464355469e+01 2.001604075898850282e-14 1.000802021008766196e-13 3.602887167211341057e-14 1.000802037949425141e-14
1.115000000000000000e+03 3.878823852539062500e+01 1.696179771423339844e+01 7.086929513285683546e-14 7.612350149104746277e-14 4.409783966479764727e-14 -4.003208151797700565e-14
1.116000000000000000e+03 1.576461982727050781e+01 1.688679695129394531e+01 -2.558300251330469788e-13 -1.832718682761094731e-13 -1.317305639569887887e-13 -6.961828845613443617e-14
1.117000000000000000e+03 1.572423934936523438e+01 1.589968776702880859e+01 -2.737193609790578019e-13 -9.157338244896590096e-14 -1.095878216731543953e-13 -1.633809325893645359e-13
1.118000000000000000e+03 4.380207538604736328e+00 3.044051361083984375e+01 -1.601283260719080226e-14 1.761411519028352468e-13 4.803849782157240678e-14 7.405934996122451319e-14
1.119000000000000000e+03 5.763118743896484375e+01 1.736319732666015625e+01 1.976583908483084406e-13 -1.926543912464731556e-13 1.501203056924137712e-15 1.030513294055651619e-13
1.120000000000000000e+03 7.533276367187500000e+01 3.029694366455078125e+01 5.204170427930421283e-14 6.805453688649501509e-14 3.602887167211341057e-14 -4.503609128420765773e-14
1.121000000000000000e+03 7.622263336181640625e+01 3.303337478637695312e+01 -4.553649124439118623e-14 -1.951563910473907981e-14 -1.951563910473907981e-14 -1.801443583605670529e-14
1.122000000000000000e+03 7.549023437500000000e+01 3.124345016479492188e+01 -3.252606517456513302e-14 7.756215645877279075e-14 1.351082687704252897e-14 3.402726844324750755e-14
1.123000000000000000e+03 7.457627868652343750e+01 3.149887084960937500e+01 8.306656957331876034e-14 -3.302646513474866152e-14 1.501202929869195624e-14 5.004010189747125706e-15
1.124000000000000000e+03 2.545697212219238281e+00 3.712866306304931641e+00 1.331066604593617031e-13 2.972381997652651098e-13 1.291034607778934751e-13 3.753007494079578510e-14
1.125000000000000000e+03 5.506026840209960938e+01 1.651433753967285156e+01 6.830473686658677934e-14 -1.308548674147994029e-13 -1.876503747039789255e-14 1.431146867680865853e-13
1.126000000000000000e+03 5.108649444580078125e+01 1.746126174926757812e+01 3.803047490097931360e-14 6.204972381176551699e-14 3.002405859738391247e-14 1.200962343895356499e-13
1.127000000000000000e+03 7.596629333496093750e+01 1.910448265075683594e+01 6.905533680686207210e-14 1.210970478624298630e-13 5.704571743366665393e-14 -7.005613842129502361e-15
1.128000000000000000e+03 7.598229980468750000e+01 1.832322692871093750e+01 -6.655333022968085155e-14 -1.886511780124777715e-13 -7.656135653840573374e-14 -9.807859548387892756e-14
1.129000000000000000e+03 7.527143859863281250e+01 2.936227607727050781e+01 -3.853087824929463112e-14 1.436150867282701138e-13 3.152526186606628700e-14 -9.007217918028352643e-15
1.130000000000000000e+03 7.601628875732421875e+01 1.754267120361328125e+01 4.053248147816053415e-14 -1.656327256339268361e-13 -3.753007494079578510e-14 1.200962445539310169e-14
1.131000000000000000e+03 7.674871063232421875e+01 1.749999809265136719e+01 -4.103288143834406265e-14 -1.090874217129708668e-13 -4.503609128420765773e-14 -1.210970478624298630e-13
1.132000000000000000e+03 7.576093292236328125e+01 2.451011657714843750e+01 -7.606094980195862720e-14 -1.240994476235310340e-13 -6.004811719476782494e-14 5.804651735403371093e-14
1.133000000000000000e+03 7.644705963134765625e+01 2.608831405639648438e+01 5.154130431912068433e-14 -4.653729455289003225e-14 1.501203056924137712e-15 -6.905533680686207210e-14
1.134000000000000000e+03 4.189780044555664062e+01 1.465269660949707031e+01 5.104090097080536681e-14 1.591275125990138095e-13 6.305052373213257400e-14 3.002405859738391247e-14
1.135000000000000000e+03 7.581391906738281250e+01 2.374150848388671875e+01 7.756215645877279075e-14 -1.726383521815505473e-13 -2.852285871683332696e-14 -5.004010189747125706e-15
1.136000000000000000e+03 7.658479309082031250e+01 2.374342918395996094e+01 -1.200962445539310169e-14 -2.802245536851800944e-14 -1.200962445539310169e-14 -2.702165375408505793e-14
1.137000000000000000e+03 7.596214294433593750e+01 1.989299392700195312e+01 -6.355093046857968053e-14 -1.416134868875359998e-13 -6.154932385158198849e-14 8.006416303595401129e-15
1.138000000000000000e+03 7.587307739257812500e+01 2.222584152221679688e+01 5.004010189747125706e-15 -1.351082738526229732e-13 -3.903127820947815962e-14 -9.307458910578006450e-14
1.139000000000000000e+03 7.603041839599609375e+01 1.600761795043945312e+01 2.301844560228735737e-14 -1.731387521417340758e-13 -4.503609128420765773e-14 3.202566521438160452e-14
1.140000000000000000e+03 7.663996887207031250e+01 2.220297241210937500e+01 2.802245536851800944e-14 1.200962445539310169e-14 1.200962445539310169e-14 6.104892389139845998e-14
1.141000000000000000e+03 7.598349761962890625e+01 1.449869060516357422e+01 5.504410996963601463e-15 1.396118734942747297e-13 4.353488801552528320e-14 1.170938346284344789e-13
1.142000000000000000e+03 7.584882354736328125e+01 2.298171043395996094e+01 -6.255012377194904549e-14 -7.255814330441034965e-14 -4.053248147816053415e-14 6.004812227696550847e-15
1.143000000000000000e+03 7.462250518798828125e+01 1.757838439941406250e+01 -4.803849782157240678e-14 -1.120898214740720378e-13 -4.803849782157240678e-14 -2.802245536851800944e-14
1.144000000000000000e+03 7.445542907714843750e+01 1.470307636260986328e+01 -3.652927163229693908e-14 -1.986592043212026537e-13 -7.055654346367623564e-14 2.381908689383371858e-13
1.145000000000000000e+03 3.950192928314208984e+00 2.898880767822265625e+01 -4.853889778175593528e-14 2.537033083616080376e-13 6.154932385158198849e-14 4.403528797570881170e-14
1.146000000000000000e+03 7.486940002441406250e+01 2.526319503784179688e+01 1.751403587587317678e-14 7.506014649345978118e-15 7.506014649345978118e-15 1.100882199392720293e-14
1.147000000000000000e+03 7.530753326416015625e+01 2.847137832641601562e+01 5.504410996963601463e-15 1.396118734942747297e-13 4.353488801552528320e-14 2.401924891078620339e-14
1.148000000000000000e+03 7.543357849121093750e+01 2.764250183105468750e+01 -3.552847171192988207e-14 3.052446194569922999e-14 -1.501203056924137712e-15 6.305052373213257400e-14
1.149000000000000000e+03 3.941121292114257812e+01 1.645417594909667969e+01 1.701363422162375377e-14 9.307458910578006450e-14 3.302646513474866152e-14 6.104892389139845998e-14
1.150000000000000000e+03 4.195472717285156250e+00 2.484932518005371094e+01 -2.251804564210382886e-14 2.877305869692509122e-13 7.956375629950690476e-14 2.572061216354198931e-13
1.151000000000000000e+03 4.400240898132324219e+00 3.363335037231445312e+01 2.902325867701685547e-14 5.214178698184634975e-13 1.651323256737433076e-13 5.879711729430900369e-14
1.152000000000000000e+03 7.293485260009765625e+01 3.332098007202148438e+01 -1.476182931860019198e-14 -9.782839550378716331e-14 -3.377706846315574329e-14 -3.502807175174635357e-14
1.153000000000000000e+03 4.010884761810302734e+00 2.225110626220703125e+01 -7.556054984177509870e-14 1.506206997233666689e-13 2.251804564210382886e-14 1.631307258330091936e-13
1.154000000000000000e+03 3.816065311431884766e+00 1.661430549621582031e+01 -1.826463649377482734e-13 -3.252606517456513302e-14 -6.455173038894673754e-14 -7.005613842129502361e-15
1.155000000000000000e+03 3.839345932006835938e+00 1.507876586914062500e+01 -9.357498906596359300e-14 1.886511780124777715e-13 2.852285871683332696e-14 -1.291034607778934751e-13
1.156000000000000000e+03 4.650802135467529297e+00 7.315145015716552734e+00 1.371098736933570872e-13 3.332670782136420984e-13 1.411130869273524713e-13 -1.060850151756061177e-13
1.157000000000000000e+03 3.377658605575561523e+00 2.656765174865722656e+01 5.354290754798658736e-14 2.517017085208739235e-13 9.157338244896590096e-14 1.180946345488015359e-13
1.158000000000000000e+03 3.676390886306762695e+00 1.002087688446044922e+01 -1.200962445539310169e-14 1.321058605389946461e-13 3.602887167211341057e-14 -1.220978477827969200e-13
1.159000000000000000e+03 3.179336071014404297e+00 1.435900020599365234e+01 -1.431146867680865853e-13 2.131708302715792924e-13 2.101684237342145434e-14 -1.341074739322559162e-13
1.160000000000000000e+03 3.820469141006469727e+00 1.584633350372314453e+01 -5.504410996963601463e-15 1.806447650970141594e-13 5.254210423948774134e-14 1.701363422162375377e-14
1.161000000000000000e+03 4.162561893463134766e+00 1.141981601715087891e+01 -4.003208151797700565e-15 3.642919299551294898e-13 1.080866150163402317e-13 -2.041636038832214672e-13
1.162000000000000000e+03 4.511445522308349609e+00 1.724650001525878906e+01 -9.907939540424598457e-14 3.692959295569647749e-13 8.106496295632106830e-14 -8.306656957331876034e-14
1.163000000000000000e+03 3.264279127120971680e+00 1.278114223480224609e+01 -1.331066604593617031e-13 -5.704571743366665393e-14 -5.704571743366665393e-14 -5.504411081666896188e-14
1.164000000000000000e+03 4.710695266723632812e+00 1.204798221588134766e+01 -1.080866150163402317e-13 -9.207378240914942946e-14 -6.004811719476782494e-14 -1.811451650571976879e-13
1.165000000000000000e+03 3.910490512847900391e+00 1.894957351684570312e+01 2.301844560228735737e-14 1.471179000020819694e-13 5.104090097080536681e-14 4.503609128420765773e-14
1.166000000000000000e+03 3.271723270416259766e+00 2.152003669738769531e+01 -4.603689120457471473e-14 1.861491782115601290e-13 4.203368474684290867e-14 1.281026608575264181e-13
1.167000000000000000e+03 4.051859855651855469e+00 2.310072517395019531e+01 -7.205774334422682115e-14 1.521218996039172544e-13 2.401924891078620339e-14 7.506014988159157020e-14
1.168000000000000000e+03 3.895239591598510742e+00 2.968025588989257812e+01 7.305854326459387815e-14 3.973184086424053074e-13 1.411130869273524713e-13 1.321058605389946461e-13
1.169000000000000000e+03 4.201730728149414062e+00 2.574799537658691406e+01 -7.506014649345978118e-15 2.026624040026708817e-13 5.854691731421723944e-14 7.906335633932337625e-14
1.170000000000000000e+03 3.109026193618774414e+00 1.017567634582519531e+01 1.220978477827969200e-13 4.183352340751678167e-13 1.621299259126421366e-13 -7.806255641895631925e-14
1.171000000000000000e+03 6.189527511596679688e+00 9.088038444519042969e+00 -1.651323256737433076e-14 2.216776431472264330e-13 6.154932385158198849e-14 7.005613842129502361e-15
1.172000000000000000e+03 4.173854351043701172e+00 8.941728591918945312e+00 -3.402726844324750755e-14 2.141716301919463494e-13 5.404330750817011586e-14 -1.321058605389946461e-13
1.173000000000000000e+03 4.217998027801513672e+00 9.441996574401855469e+00 -3.502807175174635357e-14 -1.501202929869195624e-14 -1.501202929869195624e-14 -1.200962343895356499e-13
1.174000000000000000e+03 3.953862667083740234e+00 1.975839233398437500e+01 -7.305854326459387815e-14 2.431948956452267829e-13 5.104090097080536681e-14 9.007217918028352643e-15
1.175000000000000000e+03 3.983240127563476562e+00 2.058033180236816406e+01 -7.856295637913984775e-14 1.035830085984248972e-13 7.506014649345978118e-15 9.707779556351187056e-14
1.176000000000000000e+03 7.315049648284912109e+00 1.059720802307128906e+01 -1.080866150163402317e-13 -9.207378240914942946e-14 -6.004811719476782494e-14 -2.602085213965210642e-14
1.177000000000000000e+03 4.941429615020751953e+00 3.466460800170898438e+01 4.203368474684290867e-14 4.983993903348582499e-13 1.621299259126421366e-13 -3.102486190588275849e-14
1.178000000000000000e+03 3.996329784393310547e+00 2.141065216064453125e+01 3.502806921064751181e-15 3.217578384718394746e-13 9.757819552369539906e-14 1.210970478624298630e-13
1.179000000000000000e+03 3.289439678192138672e+00 2.817553901672363281e+01 -3.803047490097931360e-14 2.582069215557869502e-13 6.605293026949732305e-14 6.305052373213257400e-14
1.180000000000000000e+03 4.806303024291992188e+00 2.756983947753906250e+01 3.002406113848275424e-15 3.672943297162306608e-13 1.110890215537049808e-13 3.502807175174635357e-14
1.181000000000000000e+03 7.397425842285156250e+01 3.294770050048828125e+01 1.501203056924137712e-15 -2.166736299928639919e-13 -6.455173038894673754e-14 5.004010189747125706e-15
1.182000000000000000e+03 5.593179702758789062e+00 3.707590103149414062e+01 3.352686848306397904e-14 1.516214996437337259e-13 5.554451077685249039e-14 4.403528797570881170e-14
1.183000000000000000e+03 3.973902463912963867e+00 3.085933876037597656e+01 1.143416280711614941e-13 3.235092586612725585e-13 1.313552673749829314e-13 2.802245536851800944e-14
1.184000000000000000e+03 8.158345222473144531e+00 9.207386970520019531e+00 -1.601283260719080226e-13 0.000000000000000000e+00 -4.803849782157240678e-14 -5.004010105043830980e-14
1.185000000000000000e+03 4.317479705810546875e+01 1.449913597106933594e+01 8.406736949368581735e-14 1.961571909677578551e-13 8.406736949368581735e-14 1.356086738128065017e-13
1.186000000000000000e+03 4.276967239379882812e+01 1.501267051696777344e+01 -8.162791460559343237e-14 1.022694570088772403e-13 6.192462212765374036e-15 1.741395520621011328e-13
1.187000000000000000e+03 7.745942687988281250e+01 1.360326004028320312e+01 8.356696953350228885e-14 -2.386912824510478703e-13 -4.653729455289003225e-14 -4.703769451307356075e-14
1.188000000000000000e+03 4.983983516693115234e+00 7.867551803588867188e+00 1.891515779726613000e-13 8.106496295632106830e-14 8.106496295632106830e-14 -5.604491073703601889e-14
1.189000000000000000e+03 7.522412109375000000e+01 1.459235286712646484e+01 4.853889778175593528e-14 -2.537033083616080376e-13 -6.154932385158198849e-14 -8.206576287668812530e-14
1.190000000000000000e+03 7.367787170410156250e+01 1.482477855682373047e+01 5.004010189747125706e-15 -1.351082738526229732e-13 -3.903127820947815962e-14 1.000802037949425141e-15
1.191000000000000000e+03 7.362107849121093750e+01 1.408893966674804688e+01 -2.902325867701685547e-14 -2.411932958044926689e-13 -8.106496295632106830e-14 1.331066604593617031e-13
1.192000000000000000e+03 7.594997406005859375e+01 1.374499988555908203e+01 8.256616283687165381e-14 -1.476182999622654979e-13 -1.951563910473907981e-14 -1.601283260719080226e-14
1.193000000000000000e+03 7.601176452636718750e+01 1.525208950042724609e+01 -1.751403587587317678e-14 -3.277626650990961288e-13 -1.035830085984248972e-13 1.301042606982605321e-14
1.194000000000000000e+03 2.892553520202636719e+01 1.457289695739746094e+01 1.906527778532118855e-13 -3.758011425918778015e-13 -5.554451077685249039e-14 6.905533680686207210e-14
1.195000000000000000e+03 1.232797908782958984e+01 1.298353481292724609e+01 -3.049162213952100187e-13 -8.492743319580067785e-14 -1.169530916339187043e-13 -6.054852393121493148e-14
1.196000000000000000e+03 1.169792747497558594e+01 1.400247859954833984e+01 -7.180754336413505690e-14 -3.510312971289480943e-13 -1.268516541808040188e-13 -8.006416303595401129e-15
1.197000000000000000e+03 1.232859516143798828e+01 1.393914604187011719e+01 -2.572061216354198931e-13 2.702165375408505793e-14 -6.905533680686207210e-14 -4.203368474684290867e-14
1.198000000000000000e+03 1.084385490417480469e+01 1.262437915802001953e+01 -2.311852694957677867e-13 -1.391114735340912012e-13 -1.110890215537049808e-13 -1.230986477031639770e-13
1.199000000000000000e+03 7.289132690429687500e+01 1.494758129119873047e+01 -1.601283260719080226e-14 -1.441154866884536423e-13 -4.803849782157240678e-14 7.005614350349270714e-14
1.200000000000000000e+03 4.324711990356445312e+01 1.546869945526123047e+01 4.403528797570881170e-14 7.606094980195862720e-14 3.602887167211341057e-14 1.621299259126421366e-13
1.201000000000000000e+03 1.969518470764160156e+01 1.918363761901855469e+01 -2.972381997652651098e-13 -2.532028948488973530e-13 -1.651323256737433076e-13 -2.201764398785440585e-14
1.202000000000000000e+03 1.728006935119628906e+01 1.928861045837402344e+01 -3.462775042834681516e-13 -2.742197473867141744e-13 -1.861491782115601290e-13 -1.168436278720791366e-13
1.203000000000000000e+03 1.627288055419921875e+01 1.832167816162109375e+01 -3.317658647805643568e-13 -5.354290754798658736e-14 -1.155926347478838934e-13 -1.316054605788111176e-13
1.204000000000000000e+03 1.031018543243408203e+01 1.216310882568359375e+01 -1.651323256737433076e-13 -1.851483647386659159e-13 -1.050842084789754827e-13 -1.433648935244419276e-13
1.205000000000000000e+03 1.015267467498779297e+01 1.109835624694824219e+01 -1.845228749528318724e-13 -2.620850314116046631e-13 -1.339823705540782450e-13 -9.407538902614712151e-14
1.206000000000000000e+03 1.846432685852050781e+01 1.927607917785644531e+01 -3.012413994467333378e-13 -8.907137587178468041e-14 -1.170938346284344789e-13 -8.031436301604577555e-14
1.207000000000000000e+03 5.653019332885742188e+01 1.668600654602050781e+01 9.857899544406245607e-14 -1.636311257931927221e-13 -1.951563910473907981e-14 4.403528797570881170e-14
1.208000000000000000e+03 2.778473854064941406e+01 1.474426460266113281e+01 3.993200084831394214e-13 1.100882199392720293e-14 1.230986477031639770e-13 2.264314495452335319e-13
1.209000000000000000e+03 3.132669639587402344e+01 1.547615051269531250e+01 9.007218256841531545e-14 -1.901523778930283570e-13 -3.002405859738391247e-14 4.153328478665938017e-14
1.210000000000000000e+03 4.807101440429687500e+01 1.802917289733886719e+01 -5.654531408535133641e-14 -3.853087824929463112e-14 -2.852285871683332696e-14 1.313552605987193533e-14
1.211000000000000000e+03 4.343618774414062500e+01 1.889275550842285156e+01 4.403528797570881170e-14 1.561251128379126385e-13 6.004811719476782494e-14 5.804651735403371093e-14
1.212000000000000000e+03 1.284009647369384766e+01 1.347983551025390625e+01 -2.013801316457994317e-13 5.094707682530390247e-14 -4.512991542970912207e-14 -1.145918348275168364e-13
1.213000000000000000e+03 1.276952743530273438e+01 1.450824356079101562e+01 -2.837273601827283720e-13 -2.617097348295988057e-13 -1.636311257931927221e-13 -1.632871084438630715e-13
1.214000000000000000e+03 2.696075248718261719e+01 1.786324310302734375e+01 -2.376904825306808133e-13 1.726383521815505473e-13 -1.951563910473907981e-14 2.326864558237912162e-13
1.215000000000000000e+03 4.235318756103515625e+01 1.750348281860351562e+01 6.511468203821910161e-14 1.194081861383491927e-13 5.535686248584956171e-14 1.293536539817216613e-13
1.216000000000000000e+03 5.882117080688476562e+01 1.689208984375000000e+01 1.546239129573620530e-13 2.051644071917203133e-14 5.254210423948774134e-14 -2.927345865710861972e-14
1.217000000000000000e+03 7.124504852294921875e+01 1.444273567199707031e+01 -2.802245536851800944e-14 -1.200962445539310169e-14 -1.200962445539310169e-14 -8.406736949368581735e-14
1.218000000000000000e+03 7.210298156738281250e+01 1.505931091308593750e+01 -6.505213034913026604e-15 -4.853889778175593528e-14 -1.651323256737433076e-14 -9.607699564314481355e-14
1.219000000000000000e+03 4.558983325958251953e+00 1.427507209777832031e+01 -8.206576287668812530e-14 1.020818019416107336e-13 6.004812227696550847e-15 -8.807057595141762341e-14
1.220000000000000000e+03 4.055447769165039062e+01 1.682551002502441406e+01 2.702165375408505793e-14 -1.701363422162375377e-14 3.002406113848275424e-15 -4.653729455289003225e-14
1.221000000000000000e+03 2.873139572143554688e+01 1.545418453216552734e+01 2.782229470681824024e-13 -1.801443583605670529e-14 7.806255641895631925e-14 2.702165477052459464e-13
1.222000000000000000e+03 3.035940742492675781e+01 1.583880615234375000e+01 1.075862150561567032e-13 -1.826463649377482734e-13 -2.251804564210382886e-14 1.601283260719080226e-13
1.223000000000000000e+03 6.647826385498046875e+01 1.595274829864501953e+01 1.876503747039789255e-14 -2.664635276750787485e-13 -7.430954994131627744e-14 -6.204972381176551699e-14
1.224000000000000000e+03 1.956909179687500000e+01 2.033727645874023438e+01 -2.537658668269604512e-13 -5.835926902321431076e-14 -9.363754075505242858e-14 2.866750483917004932e-14
1.225000000000000000e+03 1.400280380249023438e+01 1.551793956756591797e+01 -3.062454261536229350e-13 -3.142518255165593910e-13 -1.861491782115601290e-13 -8.444266607569167471e-14
1.226000000000000000e+03 1.452052688598632812e+01 1.498186492919921875e+01 -2.151724301123134064e-13 -1.951563910473907981e-13 -1.230986477031639770e-13 -1.611291259922750796e-13
1.227000000000000000e+03 6.792584419250488281e+00 9.831216812133789062e+00 -3.002405859738391247e-14 1.701363388281057487e-13 4.203368474684290867e-14 -1.120898214740720378e-13
1.228000000000000000e+03 3.663851022720336914e+00 9.487719535827636719e+00 -3.602887167211341057e-14 3.963175816169839383e-13 1.080866150163402317e-13 -8.206576287668812530e-14
1.229000000000000000e+03 6.882522106170654297e+00 9.106442451477050781e+00 -2.612093213168881212e-13 -8.907137587178468041e-14 -1.050842084789754827e-13 -1.851483647386659159e-13
1.230000000000000000e+03 2.428303146362304688e+01 1.977547836303710938e+01 -3.260112449096630449e-13 4.328468803543351895e-14 -8.481796943396111010e-14 -2.076664171570333228e-13
1.231000000000000000e+03 2.500338935852050781e+01 1.908549499511718750e+01 -3.574114203382106059e-13 2.585822181377928075e-13 -2.964875862724626610e-14 -9.407538902614712151e-14
1.232000000000000000e+03 8.553170204162597656e+00 1.005932807922363281e+01 -2.291836696550336727e-13 -2.812253739343378856e-13 -1.531227130768114675e-13 -8.206576287668812530e-14
1.233000000000000000e+03 8.810394287109375000e+00 1.093509197235107422e+01 -1.453664933651760416e-13 -6.229992379185728124e-14 -6.229992379185728124e-14 -1.841475648182988589e-13
1.234000000000000000e+03 3.223278427124023438e+01 1.637041282653808594e+01 1.145918348275168364e-13 -4.999005766628816794e-13 -1.155926347478838934e-13 -1.000802021008766196e-13
1.235000000000000000e+03 3.855099487304687500e+01 1.913137626647949219e+01 -2.752205540833448094e-14 1.025822086780578402e-13 2.251804564210382886e-14 8.006416303595401129e-14
1.236000000000000000e+03 4.710997772216796875e+01 2.025462913513183594e+01 -1.000802037949425141e-15 -6.905533680686207210e-14 -2.101684237342145434e-14 2.401924891078620339e-14
1.237000000000000000e+03 5.401868820190429688e+01 1.688013839721679688e+01 9.007217918028352643e-15 6.104892389139845998e-14 2.101684237342145434e-14 -5.504410996963601463e-15
1.238000000000000000e+03 5.202143096923828125e+01 1.754111671447753906e+01 1.230986477031639770e-13 1.671339390670045777e-13 8.706977603105056640e-14 2.952365863720038397e-14
1.239000000000000000e+03 2.732470130920410156e+01 1.507284736633300781e+01 3.502807039649363796e-13 2.301844695754007297e-13 1.741395520621011328e-13 5.309254555094233829e-13
1.240000000000000000e+03 7.367107391357421875e+01 3.588553619384765625e+01 4.003208151797700565e-15 -1.240994476235310340e-13 -3.602887167211341057e-14 -6.505213034913026604e-15
1.241000000000000000e+03 2.005366516113281250e+01 2.088518333435058594e+01 -1.766415518630187753e-13 -2.587073079634433226e-13 -1.306046606584440606e-13 -9.207378240914942946e-14
1.242000000000000000e+03 7.155075073242187500e+01 4.106587219238281250e+01 -3.753007324672989059e-15 -9.882919542415422032e-14 -3.077466192579099424e-14 -1.276022524270134170e-14
1.243000000000000000e+03 4.881772232055664062e+01 1.877178764343261719e+01 4.416038796575469383e-14 6.467682699086083065e-14 3.265116516461101515e-14 3.602887167211341057e-14
1.244000000000000000e+03 4.538412857055664062e+01 1.894860076904296875e+01 6.731664244042853684e-14 3.697591888164770968e-14 3.128776738018333725e-14 7.662940377725635521e-14
1.245000000000000000e+03 4.180106735229492188e+01 1.682885360717773438e+01 4.703769451307356075e-14 -7.706175649858926224e-14 -9.007217918028352643e-15 8.181556289659636105e-14
1.246000000000000000e+03 1.757247447967529297e+00 4.093027877807617188e+01 8.431756947377758160e-14 3.335172578649431285e-13 1.253504543002534333e-13 3.002406113848275424e-15
1.247000000000000000e+03 7.496154022216796875e+01 3.537176132202148438e+01 6.004812227696550847e-15 -1.461170865291877563e-13 -4.203368474684290867e-14 -1.601283260719080226e-14
1.248000000000000000e+03 7.422051239013671875e+01 3.735302734375000000e+01 -1.563753094298726137e-14 -9.820369886205659871e-14 -3.415236843329338967e-14 0.000000000000000000e+00
1.249000000000000000e+03 4.659178256988525391e+00 3.777224731445312500e+01 2.214274397790028798e-14 3.068709023869298225e-13 9.870409882224012721e-14 4.003208151797700565e-15
1.250000000000000000e+03 3.839267730712890625e+00 3.722959899902343750e+01 8.606896933441993136e-14 4.943961906533900219e-13 1.741395520621011328e-13 4.603689120457471473e-14
1.251000000000000000e+03 3.825134277343750000e+01 1.642863464355468750e+01 -4.053248147816053415e-14 1.656327256339268361e-13 3.753007494079578510e-14 6.004811719476782494e-14
1.252000000000000000e+03 7.064755249023437500e+01 1.590217208862304688e+01 3.903127820947815962e-14 -2.902325867701685547e-14 3.002406113848275424e-15 -2.001604075898850282e-15
1.253000000000000000e+03 6.721734619140625000e+01 1.617644500732421875e+01 -1.301042606982605321e-14 6.305052373213257400e-14 1.501202929869195624e-14 -2.602085213965210642e-14
1.254000000000000000e+03 6.815315246582031250e+01 1.569649791717529297e+01 8.506816941405287436e-14 1.050842084789754827e-13 5.704571743366665393e-14 -4.703769451307356075e-14
1.255000000000000000e+03 1.688534545898437500e+01 1.778636360168457031e+01 -1.155926347478838934e-13 -2.296840560626900452e-13 -1.035830085984248972e-13 -1.264763575987981614e-13
1.256000000000000000e+03 1.573833084106445312e+01 1.787714195251464844e+01 -3.988195949704287369e-13 -2.366896826103137563e-13 -1.906527778532118855e-13 -3.165036185611216912e-14
1.257000000000000000e+03 7.435442352294921875e+01 3.044538688659667969e+01 -5.004010189747125706e-15 1.351082738526229732e-13 3.903127820947815962e-14 -2.802245536851800944e-14
1.258000000000000000e+03 4.582869052886962891e+00 2.981474113464355469e+01 -9.257418236933295796e-14 9.757819552369539906e-14 1.501203056924137712e-15 -2.401924891078620339e-14
1.259000000000000000e+03 6.789395141601562500e+01 1.650568008422851562e+01 -2.502005094873562853e-15 -2.727185339536364328e-13 -8.256616283687165381e-14 -3.502807175174635357e-14
1.260000000000000000e+03 1.795269584655761719e+01 1.875180244445800781e+01 -2.141716301919463494e-13 -4.603689120457471473e-14 -7.806255641895631925e-14 -5.329270756789482311e-14
1.261000000000000000e+03 1.679051208496093750e+01 1.878902626037597656e+01 -2.011612041221202962e-13 5.104090097080536681e-14 -4.503609128420765773e-14 -9.357498906596359300e-14
1.262000000000000000e+03 3.926034545898437500e+01 1.766868591308593750e+01 6.405133042876320904e-14 1.761411519028352468e-13 7.205774334422682115e-14 5.679551406544310066e-14
1.263000000000000000e+03 4.342055797576904297e+00 3.144124984741210938e+01 -5.604491073703601889e-14 2.161732300326804634e-13 4.803849782157240678e-14 3.702967498061225660e-14
1.264000000000000000e+03 7.424635314941406250e+01 2.939762878417968750e+01 1.000802037949425141e-15 6.905533680686207210e-14 2.101684237342145434e-14 -2.201764398785440585e-14
1.265000000000000000e+03 6.328572273254394531e+00 8.383312225341796875e+00 -1.531227130768114675e-13 3.002406113848275424e-15 -4.503609128420765773e-14 -1.200962445539310169e-14
1.266000000000000000e+03 7.529512786865234375e+01 1.757657051086425781e+01 -1.165934346682509504e-13 -1.185950345089850644e-13 -7.055654346367623564e-14 -1.401122768425900472e-14
1.267000000000000000e+03 4.004343509674072266e+00 2.823901939392089844e+01 4.653729455289003225e-14 2.486993087597727525e-13 8.857097591160115191e-14 9.107298248878237246e-14
1.268000000000000000e+03 7.529440307617187500e+01 1.608000373840332031e+01 -7.205774334422682115e-14 -4.883913911311876799e-13 -1.681347389873716347e-13 -1.501202929869195624e-14
1.269000000000000000e+03 7.555961608886718750e+01 2.684664726257324219e+01 -3.402726844324750755e-14 -1.060850151756061177e-13 -4.203368474684290867e-14 1.801443583605670529e-14
1.270000000000000000e+03 7.593761444091796875e+01 2.068051528930664062e+01 -1.451162933850842773e-14 1.996600042415697107e-13 5.554451077685249039e-14 -6.305052373213257400e-14
1.271000000000000000e+03 7.255735778808593750e+01 1.897249794006347656e+01 -4.003208151797700565e-15 4.403528797570881170e-14 1.200962445539310169e-14 -2.001604075898850282e-15
1.272000000000000000e+03 7.504197692871093750e+01 2.373670196533203125e+01 -1.160930347080674219e-13 -3.242598518252842732e-13 -1.321058605389946461e-13 2.902325867701685547e-14
1.273000000000000000e+03 7.569934844970703125e+01 2.528278541564941406e+01 7.506014649345978118e-15 -3.627907165220517482e-13 -1.065854151357896462e-13 2.602085213965210642e-14
1.274000000000000000e+03 7.507028198242187500e+01 2.300055694580078125e+01 1.065854151357896462e-13 -9.157338244896590096e-14 4.503608959014176322e-15 -9.907939540424598457e-14
1.275000000000000000e+03 7.590295410156250000e+01 2.145894813537597656e+01 -3.502807175174635357e-14 -1.501202929869195624e-14 -1.501202929869195624e-14 4.503609128420765773e-14
1.276000000000000000e+03 7.519900512695312500e+01 1.836401367187500000e+01 -2.051644071917203133e-14 1.055846084391590112e-13 2.552045048540268340e-14 -2.001604075898850282e-14
1.277000000000000000e+03 7.531352233886718750e+01 1.682069587707519531e+01 7.005614350349270714e-14 3.002405859738391247e-14 3.002405859738391247e-14 1.050842084789754827e-13
1.278000000000000000e+03 7.495967864990234375e+01 2.449283218383789062e+01 9.857899544406245607e-14 -3.237594383125735886e-13 -6.755413692631148659e-14 -3.803047490097931360e-14
1.279000000000000000e+03 7.507852935791015625e+01 2.226192283630371094e+01 -6.905533680686207210e-14 -1.210970478624298630e-13 -5.704571743366665393e-14 1.801443583605670529e-14
1.280000000000000000e+03 7.512637329101562500e+01 2.149256324768066406e+01 -6.805453688649501509e-14 -5.204170427930421283e-14 -3.602887167211341057e-14 -1.311050606186275891e-13
1.281000000000000000e+03 4.754636764526367188e+00 2.299719047546386719e+01 -5.604491073703601889e-14 1.361090737729900302e-13 2.401924891078620339e-14 1.030826086382413687e-13
1.282000000000000000e+03 7.095082855224609375e+01 3.446534729003906250e+01 -9.445068730221887338e-15 -1.413007352183554000e-13 -4.522373957521058641e-14 -2.201764398785440585e-14
1.283000000000000000e+03 7.426200103759765625e+01 2.835997200012207031e+01 2.401924891078620339e-14 2.161732300326804634e-13 7.205774334422682115e-14 -1.801443583605670529e-14
1.284000000000000000e+03 5.022914886474609375e+00 2.479917907714843750e+01 -7.656135653840573374e-14 2.416936822121490414e-13 4.953969770212299228e-14 4.003208151797700565e-15
1.285000000000000000e+03 7.429814147949218750e+01 2.371519088745117188e+01 -1.050842118671072717e-14 -3.247602382329406456e-13 -1.005806020610601481e-13 8.006416303595401129e-15
1.286000000000000000e+03 4.486248016357421875e+00 1.577225971221923828e+01 -1.521218996039172544e-13 7.205774334422682115e-14 -2.401924891078620339e-14 -1.080866150163402317e-13
1.287000000000000000e+03 3.869517087936401367e+00 1.431270790100097656e+01 -3.202566521438160452e-14 1.921539912862896271e-13 4.803849782157240678e-14 1.000802037949425141e-15
1.288000000000000000e+03 4.563682556152343750e+00 1.799696159362792969e+01 -4.103288143834406265e-14 -1.090874217129708668e-13 -4.503609128420765773e-14 1.040834085586084257e-13
1.289000000000000000e+03 3.830333471298217773e+00 1.738185119628906250e+01 3.753007494079578510e-14 1.075862150561567032e-13 4.353488801552528320e-14 1.351082738526229732e-13
1.290000000000000000e+03 3.908849239349365234e+00 1.354612636566162109e+01 -6.505213034913026604e-15 2.717177340332693758e-13 7.956375629950690476e-14 -7.205774334422682115e-14
1.291000000000000000e+03 4.516466617584228516e+00 1.502487754821777344e+01 3.002406113848275424e-15 4.703769451307356075e-14 1.501202929869195624e-14 1.701363422162375377e-14
1.292000000000000000e+03 4.601442337036132812e+00 1.352151966094970703e+01 -2.702165375408505793e-14 2.171740299530475204e-13 5.704571743366665393e-14 -6.605293026949732305e-14
1.293000000000000000e+03 3.963423490524291992e+00 1.278491020202636719e+01 -4.053248147816053415e-14 1.656327256339268361e-13 3.753007494079578510e-14 -9.807859548387892756e-14
1.294000000000000000e+03 3.866927385330200195e+00 1.045876312255859375e+01 3.921892988861287732e-14 4.743175795705878439e-13 1.540609545318261109e-13 -1.115894215138885093e-13
1.295000000000000000e+03 6.593802452087402344e+00 1.125071811676025391e+01 1.801443583605670529e-14 1.220978477827969200e-13 4.203368474684290867e-14 -5.004010105043830980e-14
1.296000000000000000e+03 4.430417060852050781e+00 8.214375495910644531e+00 -6.405133042876320904e-14 6.405133042876320904e-14 0.000000000000000000e+00 -8.807057595141762341e-14
1.297000000000000000e+03 5.301254272460937500e+00 8.474134445190429688e+00 -1.726383420171551802e-14 1.298540539419051898e-13 3.377706846315574329e-14 -1.461170865291877563e-13
1.298000000000000000e+03 4.636728763580322266e+00 1.878185272216796875e+01 -1.130906281707026728e-13 3.632911300347624328e-13 7.506014988159157020e-14 8.206576287668812530e-14
1.299000000000000000e+03 4.483650207519531250e+00 1.651226425170898438e+01 -7.205774334422682115e-14 1.521218996039172544e-13 2.401924891078620339e-14 -2.001604075898850282e-15
1.300000000000000000e+03 4.703450202941894531e+00 2.215570449829101562e+01 -8.406736949368581735e-14 1.240994476235310340e-13 1.200962445539310169e-14 1.000802037949425141e-14
1.301000000000000000e+03 5.148046970367431641e+00 1.639156532287597656e+01 -1.180946345488015359e-13 1.781427517435693608e-13 1.801443583605670529e-14 -8.706977603105056640e-14
1.302000000000000000e+03 4.770148754119873047e+00 1.136238002777099609e+01 2.151724233360498284e-14 2.837273601827283720e-13 9.157338244896590096e-14 4.403528797570881170e-14
1.303000000000000000e+03 4.804263114929199219e+00 9.340156555175781250e+00 -7.005614350349270714e-14 2.902325732176413986e-13 6.605293026949732305e-14 -1.401122870069854143e-13
1.304000000000000000e+03 4.666467666625976562e+00 2.910742950439453125e+01 5.004010105043830980e-14 2.502004950877961820e-13 9.007218256841531545e-14 8.406736949368581735e-14
1.305000000000000000e+03 4.142653465270996094e+00 2.661865615844726562e+01 -3.702967498061225660e-14 3.272622515863854442e-13 8.706977603105056640e-14 1.581267126786467525e-13
1.306000000000000000e+03 4.699964523315429688e+00 1.960701942443847656e+01 7.005613842129502361e-15 1.631307258330091936e-13 5.104090097080536681e-14 1.831467648979318019e-13
1.307000000000000000e+03 4.727212429046630859e+00 2.045883178710937500e+01 -1.341074739322559162e-13 3.402726844324750755e-14 -3.002405859738391247e-14 1.631307258330091936e-13
1.308000000000000000e+03 4.874317646026611328e+00 2.385539817810058594e+01 -5.204170427930421283e-14 2.522020949285302960e-13 6.004811719476782494e-14 1.761411519028352468e-13
1.309000000000000000e+03 5.628699779510498047e+00 2.365388870239257812e+01 -1.651323256737433076e-14 2.216776431472264330e-13 6.154932385158198849e-14 7.906335633932337625e-14
1.310000000000000000e+03 5.027976512908935547e+00 2.580290222167968750e+01 -4.153328478665938017e-14 2.567057081227092086e-13 6.455173038894673754e-14 1.911531778133954140e-13
1.311000000000000000e+03 5.807651138305664062e+01 1.665089607238769531e+01 5.004010189747125706e-15 -1.351082738526229732e-13 -3.903127820947815962e-14 -2.401924891078620339e-14
1.312000000000000000e+03 5.701215744018554688e+01 1.810120773315429688e+01 6.880513682677030785e-14 -1.763913586591905891e-13 -3.227586519447336877e-14 4.003208151797700565e-14
1.313000000000000000e+03 5.375510692596435547e+00 3.302628707885742188e+01 -1.301042606982605321e-14 2.632109211576222352e-13 7.506014988159157020e-14 1.215974478226133915e-13
1.314000000000000000e+03 4.939744949340820312e+00 3.084282112121582031e+01 7.368404660295507780e-14 5.805902633659876244e-13 1.962822943459355263e-13 6.805453688649501509e-14
1.315000000000000000e+03 4.814537048339843750e+00 3.215627288818359375e+01 5.204170427930421283e-14 4.683753385137379155e-13 1.561251128379126385e-13 7.405934996122451319e-14
1.316000000000000000e+03 2.774827384948730469e+01 1.757655715942382812e+01 5.004010189747125706e-15 2.652125209983563492e-13 8.106496295632106830e-14 1.896519779328448285e-13
1.317000000000000000e+03 3.965854644775390625e+00 8.555452346801757812e+00 -6.104892389139845998e-14 1.110890215537049808e-13 1.501202929869195624e-14 -5.054050101062183831e-14
1.318000000000000000e+03 6.862231445312500000e+01 1.704480171203613281e+01 1.000802021008766196e-13 -1.000802021008766196e-13 0.000000000000000000e+00 -7.756215645877279075e-14
1.319000000000000000e+03 1.519327735900878906e+01 1.743561363220214844e+01 -2.969879930089097675e-13 -2.577065215956034216e-14 -9.682759558342010631e-14 -1.986592043212026537e-13
1.320000000000000000e+03 1.460354137420654297e+01 1.598479080200195312e+01 -1.661331391466375207e-13 -1.341074739322559162e-13 -9.007218256841531545e-14 -1.190954344691685929e-13
1.321000000000000000e+03 4.139538574218750000e+01 1.560215473175048828e+01 1.586271126388302810e-13 1.366094737331735587e-13 8.857097591160115191e-14 7.806255641895631925e-14
1.322000000000000000e+03 1.463652610778808594e+01 1.698688507080078125e+01 -1.984871820940106724e-13 -1.829121977579145630e-13 -1.144198126003248550e-13 -5.210816248434578524e-14
1.323000000000000000e+03 1.144308376312255859e+01 1.464703559875488281e+01 -1.921539912862896271e-13 -1.281026608575264181e-13 -9.607699564314481355e-14 -9.607699564314481355e-14
1.324000000000000000e+03 4.366556549072265625e+01 1.750985336303710938e+01 1.180946345488015359e-13 1.421138868477195283e-13 7.806255641895631925e-14 3.978187814975345238e-14
1.325000000000000000e+03 1.139534091949462891e+01 1.306568813323974609e+01 -4.003208151797700565e-14 -1.200962343895356499e-13 -4.803849782157240678e-14 5.704571743366665393e-14
1.326000000000000000e+03 1.044981193542480469e+01 1.322706413269042969e+01 -1.245998475837145625e-13 -1.906527778532118855e-13 -9.457578898633065001e-14 -1.200962343895356499e-13
1.327000000000000000e+03 5.626779174804687500e+01 1.753965759277343750e+01 1.726383521815505473e-13 -1.751403587587317678e-14 4.653729455289003225e-14 7.706175649858926224e-14
1.328000000000000000e+03 9.910949707031250000e+00 1.277125167846679688e+01 -1.446158866486371708e-13 2.952365863720038397e-14 -3.452766840343103605e-14 -9.807859548387892756e-14
1.329000000000000000e+03 4.010483169555664062e+01 1.609060478210449219e+01 4.203368474684290867e-14 9.807859548387892756e-14 4.203368474684290867e-14 2.502005052521915490e-14
1.330000000000000000e+03 1.559213161468505859e+01 1.974758911132812500e+01 -1.931547912066566841e-13 -3.702967498061225660e-14 -6.905533680686207210e-14 -4.303448466720996568e-14
1.331000000000000000e+03 3.104741096496582031e+01 1.612891960144042969e+01 1.611291259922750796e-13 -5.714579200469249720e-13 -1.230986477031639770e-13 3.402726844324750755e-14
1.332000000000000000e+03 3.020016670227050781e+01 1.653317260742187500e+01 6.905533680686207210e-14 -1.991596042813861822e-13 -3.903127820947815962e-14 1.000802021008766196e-13
1.333000000000000000e+03 5.351884841918945312e+01 1.833793830871582031e+01 7.656135653840573374e-14 1.185950345089850644e-13 5.854691731421723944e-14 8.807057595141762341e-14
1.334000000000000000e+03 4.262289047241210938e+01 1.612703514099121094e+01 2.451964887096973189e-14 1.306046606584440606e-13 4.653729455289003225e-14 1.040834085586084257e-13
1.335000000000000000e+03 6.451364135742187500e+01 1.654511070251464844e+01 2.802245536851800944e-14 1.200962445539310169e-14 1.200962445539310169e-14 -2.021620040424873532e-13
1.336000000000000000e+03 3.988021850585937500e+01 1.727678680419921875e+01 4.003208151797700565e-14 1.200962343895356499e-13 4.803849782157240678e-14 9.983000212078485536e-14
1.337000000000000000e+03 8.979316711425781250e+00 1.289409065246582031e+01 2.564555216951446004e-14 1.132157247726167659e-13 4.165838477670526230e-14 -1.078989667253373030e-13
1.338000000000000000e+03 9.794485092163085938e+00 1.171024990081787109e+01 -1.129655247925250017e-13 -4.841379779171005315e-14 -4.841379779171005315e-14 -7.405934996122451319e-14
1.339000000000000000e+03 2.962461662292480469e+01 1.799677848815917969e+01 1.145918348275168364e-13 -1.951563910473907981e-14 2.852285871683332696e-14 1.581267126786467525e-13
1.340000000000000000e+03 1.821132850646972656e+01 2.042250251770019531e+01 -1.952814944255684693e-13 -8.369206613541638196e-14 -8.369206613541638196e-14 -5.404330750817011586e-14
1.341000000000000000e+03 1.347912883758544922e+01 1.606224822998046875e+01 -1.756407519426517183e-13 -8.957178260823178695e-14 -7.956375629950690476e-14 4.378508968968294196e-15
1.342000000000000000e+03 7.412515163421630859e+00 9.858502388000488281e+00 -1.701363388281057487e-13 1.100882216333379238e-13 -1.801443583605670529e-14 -1.261010474642651480e-13
1.343000000000000000e+03 6.934674072265625000e+01 1.643594551086425781e+01 -1.205966479022463345e-13 -1.946559910872072696e-13 -9.457578898633065001e-14 -2.101684237342145434e-14
1.344000000000000000e+03 7.450106811523437500e+01 1.544348430633544922e+01 9.607699564314481355e-14 -9.607699564314481355e-14 0.000000000000000000e+00 5.504411081666896188e-14
1.345000000000000000e+03 7.399545288085937500e+01 1.773976898193359375e+01 -1.701363422162375377e-14 -3.732991563434873150e-13 -1.170938346284344789e-13 -6.405133042876320904e-14
1.346000000000000000e+03 9.408998489379882812e+00 1.231208610534667969e+01 -2.833520636007225146e-13 -7.568565321995276984e-14 -1.077113184343343744e-13 -6.004812227696550847e-15
1.347000000000000000e+03 5.307344913482666016e+00 1.273659515380859375e+01 8.506817110811876886e-15 1.866495781717436575e-13 5.854691731421723944e-14 -7.205774334422682115e-14
1.348000000000000000e+03 5.302123260498046875e+01 1.735486221313476562e+01 1.088372149566155245e-13 -1.363592669768182164e-13 -8.256616283687165381e-15 8.106496295632106830e-14
1.349000000000000000e+03 6.499437713623046875e+01 1.728969192504882812e+01 7.230794332431858540e-14 -1.476182931860019198e-14 1.726383420171551802e-14 -6.805453688649501509e-14
1.350000000000000000e+03 2.187450599670410156e+01 2.205370521545410156e+01 -1.570008093801020244e-13 -2.045389140177544807e-13 -1.084619183746096671e-13 -2.602085213965210642e-14
1.351000000000000000e+03 2.129531669616699219e+01 2.114290618896484375e+01 -1.925292878682954845e-13 -1.740144486839234617e-13 -1.099631182551602526e-13 -1.391114735340912012e-13
1.352000000000000000e+03 2.498998260498046875e+01 2.059078598022460938e+01 -2.769719674965143152e-13 3.427746842333927180e-14 -7.280834328450211390e-14 -4.530192749250573636e-14
1.353000000000000000e+03 3.450341415405273438e+01 1.893206405639648438e+01 -4.703769451307356075e-14 -4.303448466720996568e-14 -2.702165375408505793e-14 -9.007217918028352643e-15
1.354000000000000000e+03 3.500564193725585938e+01 1.734647560119628906e+01 1.000802037949425141e-14 5.004010105043830980e-14 1.801443583605670529e-14 -4.453568793589234021e-14
1.355000000000000000e+03 5.096219635009765625e+01 1.848722267150878906e+01 1.511210996835501974e-13 1.791435652164635739e-13 9.907939540424598457e-14 2.051644071917203133e-14
1.356000000000000000e+03 5.027705001831054688e+01 1.732964134216308594e+01 4.103288143834406265e-14 2.692157477848788893e-13 9.307458910578006450e-14 4.003208151797700565e-14
1.357000000000000000e+03 1.338853454589843750e+01 1.503240585327148438e+01 -1.905589537077104212e-13 -1.731700178218831265e-13 -1.091186941693834955e-13 -2.552045048540268340e-14
1.358000000000000000e+03 5.954567718505859375e+01 1.738496780395507812e+01 5.685806236640014721e-14 -2.501379637274980805e-13 -5.798396566494487536e-14 1.401122768425900472e-14
1.359000000000000000e+03 6.083428192138671875e+01 1.748208236694335938e+01 7.105694342385976414e-14 -6.104892389139845998e-14 3.002406113848275424e-15 -5.504411081666896188e-14
1.360000000000000000e+03 8.934356689453125000e+00 1.187702274322509766e+01 -7.806255641895631925e-14 -6.204972381176551699e-14 -4.203368474684290867e-14 -1.536231130369949960e-13
1.361000000000000000e+03 8.354572296142578125e+00 1.066076183319091797e+01 -1.170938346284344789e-13 8.706977603105056640e-14 -9.007217918028352643e-15 2.802245536851800944e-14
1.362000000000000000e+03 3.329018402099609375e+01 1.801280021667480469e+01 5.704571743366665393e-14 -6.705373696612795809e-14 -3.002406113848275424e-15 4.003208151797700565e-15
1.363000000000000000e+03 2.793960380554199219e+01 1.534334182739257812e+01 3.382710778154773834e-13 -3.803047490097931360e-14 9.007218256841531545e-14 2.662133209187234062e-13
1.364000000000000000e+03 2.945772743225097656e+01 1.643322181701660156e+01 7.656135653840573374e-14 -8.156536291650459680e-14 -1.501203056924137712e-15 2.782229470681824024e-13
1.365000000000000000e+03 1.931231498718261719e+01 2.109087562561035156e+01 -1.801443651368306309e-13 -1.000802021008766196e-13 -8.406736949368581735e-14 1.901523745048965680e-14
1.366000000000000000e+03 7.442777252197265625e+01 3.413878631591796875e+01 -1.601283260719080226e-14 -1.441154866884536423e-13 -4.803849782157240678e-14 8.506817110811876886e-15
1.367000000000000000e+03 7.332530212402343750e+01 3.454934310913085938e+01 3.828067826920286687e-14 -1.208468411060745207e-13 -2.476984885106149614e-14 -4.003208151797700565e-14
1.368000000000000000e+03 5.829067993164062500e+01 1.783506774902343750e+01 -1.271018609371593611e-13 -2.832269737750719996e-13 -1.230986477031639770e-13 -3.878107738235344812e-15
1.369000000000000000e+03 4.105804061889648438e+01 1.751235961914062500e+01 8.475541774487227453e-14 1.735765936365651907e-13 7.749960476968395517e-14 4.753809447325708926e-14
1.370000000000000000e+03 2.828169250488281250e+01 1.852536773681640625e+01 -1.853360265821960007e-13 3.459022009251987162e-14 -4.522373957521058641e-14 1.999727559107503105e-13
1.371000000000000000e+03 2.688391685485839844e+01 1.860942459106445312e+01 -2.987393860932885392e-13 2.837273601827283720e-13 -4.503608959014176322e-15 2.161732300326804634e-13
1.372000000000000000e+03 4.643560791015625000e+01 2.199810028076171875e+01 2.952365863720038397e-14 3.552847171192988207e-14 1.951563910473907981e-14 3.002406113848275424e-15
1.373000000000000000e+03 2.641800880432128906e+01 2.063182830810546875e+01 -1.831467648979318019e-13 1.531227130768114675e-13 -9.007217918028352643e-15 -5.129110433902892008e-14
1.374000000000000000e+03 6.916851520538330078e+00 3.677812957763671875e+01 3.202566521438160452e-14 2.081668171172168513e-13 7.205774334422682115e-14 1.251002526260957745e-14
1.375000000000000000e+03 4.499389266967773438e+01 2.109630775451660156e+01 2.552045048540268340e-14 -5.004010189747125706e-16 7.506014649345978118e-15 8.706977603105056640e-14
1.376000000000000000e+03 4.470348739624023438e+01 1.856019783020019531e+01 4.603689120457471473e-14 -2.602085213965210642e-14 6.004812227696550847e-15 3.853087824929463112e-14
1.377000000000000000e+03 6.532897472381591797e+00 3.533337783813476562e+01 7.355895000104098469e-14 2.717177340332693758e-13 1.035830085984248972e-13 -8.506817110811876886e-15
1.378000000000000000e+03 6.718975067138671875e+01 1.685695457458496094e+01 7.455974992140804170e-14 -5.954771723458429644e-14 4.503608959014176322e-15 -4.403528797570881170e-14
1.379000000000000000e+03 7.002750396728515625e+01 1.605729484558105469e+01 3.202566521438160452e-14 -1.120898214740720378e-13 -2.401924891078620339e-14 -8.807057595141762341e-14
1.380000000000000000e+03 3.786323928833007812e+01 1.691557312011718750e+01 9.182358242905766521e-14 1.308548674147994029e-13 6.680353698603619383e-14 4.203368474684290867e-14
1.381000000000000000e+03 5.358746528625488281e+00 3.005539321899414062e+01 6.079872391130669573e-14 7.180754336413505690e-14 3.978187814975345238e-14 8.907137587178468041e-14
1.382000000000000000e+03 1.513397789001464844e+01 1.843926429748535156e+01 -1.441154866884536423e-13 -9.607699564314481355e-14 -7.205774334422682115e-14 -7.380914998113274894e-14
1.383000000000000000e+03 5.425571918487548828e+00 2.923361968994140625e+01 -6.104892389139845998e-14 2.712173476256130034e-13 6.305052373213257400e-14 1.000802037949425141e-14
1.384000000000000000e+03 7.313285827636718750e+01 2.949166488647460938e+01 4.353488801552528320e-14 4.153328478665938017e-14 2.552045048540268340e-14 -4.503609128420765773e-14
1.385000000000000000e+03 7.476339721679687500e+01 2.678829193115234375e+01 -6.955573676704560060e-14 -7.556054984177509870e-14 -4.353488801552528320e-14 4.603689120457471473e-14
1.386000000000000000e+03 7.518614959716796875e+01 1.916448974609375000e+01 -5.354290754798658736e-14 -9.157338244896590096e-14 -4.353488801552528320e-14 -1.040834085586084257e-13
1.387000000000000000e+03 7.523554992675781250e+01 1.994719886779785156e+01 -1.801443583605670529e-14 3.803047490097931360e-14 6.004812227696550847e-15 -1.391114735340912012e-13
1.388000000000000000e+03 7.215303039550781250e+01 1.581352138519287109e+01 2.502005052521915490e-14 -3.502807175174635357e-14 -3.002406113848275424e-15 -3.102486190588275849e-14
1.389000000000000000e+03 5.413271903991699219e+00 2.851210784912109375e+01 -1.050842084789754827e-13 1.150922347877003649e-13 3.002406113848275424e-15 6.004811719476782494e-14
1.390000000000000000e+03 6.043902397155761719e+00 2.890641784667968750e+01 -1.901523745048965680e-14 2.091676170375839083e-13 5.704571743366665393e-14 1.030826086382413687e-13
1.391000000000000000e+03 7.454543304443359375e+01 1.617738151550292969e+01 -4.803849782157240678e-14 -1.120898214740720378e-13 -4.803849782157240678e-14 8.306656957331876034e-14
1.392000000000000000e+03 7.426781463623046875e+01 2.306314659118652344e+01 -5.054050101062183831e-14 -2.046640038434049957e-13 -7.656135653840573374e-14 1.040834085586084257e-13
1.393000000000000000e+03 7.421816253662109375e+01 2.232667541503906250e+01 2.702165375408505793e-14 -2.171740299530475204e-13 -5.704571743366665393e-14 -7.506014988159157020e-14
1.394000000000000000e+03 7.479861450195312500e+01 2.604058647155761719e+01 -1.000802037949425141e-15 -2.291836696550336727e-13 -6.905533680686207210e-14 -8.206576287668812530e-14
1.395000000000000000e+03 7.399788665771484375e+01 2.523095703125000000e+01 9.507618894651417851e-14 -1.651323256737433076e-13 -2.101684237342145434e-14 -5.104090097080536681e-14
1.396000000000000000e+03 5.844027042388916016e+00 2.456745529174804688e+01 -4.728789449316532501e-14 1.398620802506300720e-13 2.777225538842624519e-14 2.712173476256130034e-13
1.397000000000000000e+03 5.350977897644042969e+00 2.208009529113769531e+01 -4.203368474684290867e-14 -1.801443583605670529e-14 -1.801443583605670529e-14 1.931547912066566841e-13
1.398000000000000000e+03 7.519201660156250000e+01 2.071631050109863281e+01 2.902325867701685547e-14 8.106496295632106830e-14 3.302646513474866152e-14 1.401122768425900472e-14
1.399000000000000000e+03 7.444060516357421875e+01 1.823290634155273438e+01 -1.105886215935214523e-13 -1.846479647784823874e-13 -8.857097591160115191e-14 4.603689120457471473e-14
1.400000000000000000e+03 7.445231628417968750e+01 2.071519660949707031e+01 -6.204972381176551699e-14 4.203368474684290867e-14 -6.004812227696550847e-15 -1.000802021008766196e-13
1.401000000000000000e+03 7.433725738525390625e+01 2.149933815002441406e+01 1.851483749030612830e-14 -8.356696953350228885e-14 -1.951563910473907981e-14 1.301042606982605321e-14
1.402000000000000000e+03 7.526184082031250000e+01 1.533823013305664062e+01 7.506014649345978118e-15 -4.253408470702643718e-14 -1.050842118671072717e-14 -1.501202929869195624e-14
1.403000000000000000e+03 7.453056335449218750e+01 2.749541091918945312e+01 -8.256616283687165381e-14 -1.251002526260957745e-14 -2.852285871683332696e-14 8.006416303595401129e-15
1.404000000000000000e+03 7.398638153076171875e+01 2.694216346740722656e+01 1.225982443548486595e-14 5.254210593355363584e-15 5.254210593355363584e-15 -5.504411081666896188e-14
1.405000000000000000e+03 7.307241821289062500e+01 2.832035636901855469e+01 4.478589130411589347e-14 8.782037597132585915e-14 3.978187814975345238e-14 -4.503609128420765773e-14
1.406000000000000000e+03 4.715103149414062500e+00 2.131029510498046875e+01 -1.801443583605670529e-14 1.981587908084919691e-13 5.404330750817011586e-14 1.251002475438980910e-13
1.407000000000000000e+03 5.424997806549072266e+00 2.285741043090820312e+01 -4.553649124439118623e-14 3.007410130390769654e-13 7.656135653840573374e-14 1.521218996039172544e-13
1.408000000000000000e+03 5.189454555511474609e+00 1.498343181610107422e+01 -1.095878216731543953e-13 4.453568793589234021e-14 -1.951563910473907981e-14 -1.010810020212436766e-13
1.409000000000000000e+03 5.137792587280273438e+00 1.570266437530517578e+01 5.004010189747125706e-16 -4.553649124439118623e-14 -1.351082687704252897e-14 4.003208151797700565e-15
1.410000000000000000e+03 4.907400608062744141e+00 2.673663520812988281e+01 -6.955573676704560060e-14 2.446960819732502124e-13 5.254210423948774134e-14 1.040834085586084257e-13
1.411000000000000000e+03 4.768980979919433594e+00 1.069471073150634766e+01 -1.401122768425900472e-14 3.142518255165593910e-13 9.007218256841531545e-14 -1.200962343895356499e-13
1.412000000000000000e+03 7.166676998138427734e+00 1.130716991424560547e+01 -1.291034607778934751e-13 -1.010810020212436766e-13 -6.905533680686207210e-14 -9.607699564314481355e-14
1.413000000000000000e+03 8.110124588012695312e+00 1.198332405090332031e+01 -1.593777193553691518e-13 -6.830473686658677934e-14 -6.830473686658677934e-14 1.601283260719080226e-14
1.414000000000000000e+03 4.648725032806396484e+00 1.277186870574951172e+01 -3.402726844324750755e-14 2.141716301919463494e-13 5.404330750817011586e-14 -1.200962445539310169e-14
1.415000000000000000e+03 5.201887130737304688e+00 1.707435035705566406e+01 -6.255012377194904549e-14 2.476985088394056955e-13 5.554451077685249039e-14 -1.000802037949425141e-14
1.416000000000000000e+03 5.680578708648681641e+00 2.695019340515136719e+01 -1.150922280114367868e-14 4.068260214384195050e-13 1.185950345089850644e-13 1.030826086382413687e-13
1.417000000000000000e+03 4.189649105072021484e+00 1.000235462188720703e+01 -2.902325867701685547e-14 7.195766335219011545e-13 2.071660171968497943e-13 -8.206576287668812530e-14
1.418000000000000000e+03 5.436104297637939453e+00 1.060988521575927734e+01 -1.391114735340912012e-13 1.691355389077386917e-13 9.007217918028352643e-15 -1.200962343895356499e-13
1.419000000000000000e+03 5.261623382568359375e+00 1.779385185241699219e+01 -2.366896826103137563e-13 4.018219947315299079e-13 4.953969770212299228e-14 -1.000802037949425141e-15
1.420000000000000000e+03 5.469250679016113281e+00 1.943527793884277344e+01 -9.257418236933295796e-14 2.577065080430762656e-13 4.953969770212299228e-14 6.104892389139845998e-14
1.421000000000000000e+03 5.472832202911376953e+00 9.171236038208007812e+00 -3.602887167211341057e-14 7.606094980195862720e-14 1.200962445539310169e-14 -1.491194998428160834e-13
1.422000000000000000e+03 6.078999996185302734e+00 1.055918025970458984e+01 5.104090097080536681e-14 1.591275125990138095e-13 6.305052373213257400e-14 2.201764398785440585e-14
1.423000000000000000e+03 4.783493041992187500e+00 1.000927257537841797e+01 -1.130906281707026728e-13 4.303448466720996568e-14 -2.101684237342145434e-14 -6.305052373213257400e-14
1.424000000000000000e+03 5.567013263702392578e+00 2.777851295471191406e+01 -1.155926347478838934e-13 2.707169341129023188e-13 4.653729455289003225e-14 1.801443583605670529e-14
1.425000000000000000e+03 6.205740737915039062e+01 1.755913734436035156e+01 4.403528797570881170e-14 -1.641315257533762506e-13 -3.602887167211341057e-14 -9.945469876251541996e-14
1.426000000000000000e+03 1.774847412109375000e+01 1.982457351684570312e+01 -1.451162866088206993e-13 -8.506816941405287436e-14 -6.905533680686207210e-14 1.601283260719080226e-14
1.427000000000000000e+03 1.661056709289550781e+01 1.978258514404296875e+01 -1.981587908084919691e-13 -6.204972381176551699e-14 -7.806255641895631925e-14 -3.602887167211341057e-14
1.428000000000000000e+03 5.579485416412353516e+00 3.144662284851074219e+01 -5.723336403060368810e-15 1.805509409515126951e-13 5.244828009398627700e-14 1.160930347080674219e-13
1.429000000000000000e+03 5.984063625335693359e+00 3.408958053588867188e+01 1.200962445539310169e-14 2.281828697346666157e-13 7.205774334422682115e-14 1.401122870069854143e-13
1.430000000000000000e+03 6.213819503784179688e+00 3.054890823364257812e+01 2.239294565205794674e-14 4.442309963891694080e-13 1.399871836288077431e-13 1.130906281707026728e-13
1.431000000000000000e+03 6.219394683837890625e+01 1.893515205383300781e+01 6.167442045349608160e-14 -2.480738054214115529e-13 -5.591981074699013676e-14 -4.003208151797700565e-15
1.432000000000000000e+03 6.385035324096679688e+01 1.705637359619140625e+01 1.251002547436781426e-16 -9.144828584705180785e-14 -2.739695541828859882e-14 -9.207378240914942946e-14
1.433000000000000000e+03 4.029698562622070312e+01 1.811887359619140625e+01 9.670249220524243516e-14 8.719487263296465951e-14 5.516921080671484401e-14 -1.301042606982605321e-14
1.434000000000000000e+03 3.822863769531250000e+01 1.759352111816406250e+01 -1.038332085785166614e-13 1.251002547436781426e-15 -3.077466192579099424e-14 3.402726844324750755e-14
1.435000000000000000e+03 1.286206150054931641e+01 1.558505153656005859e+01 -2.321860694161348437e-13 -2.081668171172168513e-13 -1.321058605389946461e-13 -1.195958344293521214e-13
1.436000000000000000e+03 5.626864242553710938e+01 1.845895767211914062e+01 9.407538902614712151e-14 -7.405934996122451319e-14 6.004812227696550847e-15 9.607699564314481355e-14
1.437000000000000000e+03 5.857424736022949219e+00 8.082413673400878906e+00 -9.182358242905766521e-14 1.894017847290166423e-13 2.927345865710861972e-14 -1.881507780522942430e-13
1.438000000000000000e+03 1.102298355102539062e+01 1.530089473724365234e+01 -2.301844560228735737e-14 -6.705373696612795809e-14 -2.702165375408505793e-14 -5.004010189747125706e-16
1.439000000000000000e+03 1.002785491943359375e+01 1.385479259490966797e+01 -1.473680932059101556e-13 -2.004105974055814254e-13 -1.043336085387001899e-13 -1.401122870069854143e-13
1.440000000000000000e+03 6.141854286193847656e+00 9.839735984802246094e+00 -1.210970478624298630e-13 1.311050606186275891e-13 3.002406113848275424e-15 -8.006416303595401129e-14
1.441000000000000000e+03 7.879106521606445312e+00 1.058761501312255859e+01 -1.811451650571976879e-13 -1.691355389077386917e-13 -1.050842084789754827e-13 -9.507618894651417851e-14
1.442000000000000000e+03 4.119482803344726562e+01 1.628746414184570312e+01 7.956375629950690476e-14 -5.454371085648543338e-14 7.506014649345978118e-15 1.801443583605670529e-14
1.443000000000000000e+03 5.438571929931640625e+01 1.780213165283203125e+01 5.704571743366665393e-14 -6.705373696612795809e-14 -3.002406113848275424e-15 9.757819552369539906e-14
1.444000000000000000e+03 9.467419624328613281e+00 1.338901233673095703e+01 -1.496198998029996119e-13 -1.356086738128065017e-13 -8.556856937423640286e-14 -2.720930373915388112e-14
1.445000000000000000e+03 1.939969062805175781e+01 2.206864166259765625e+01 -1.378604804098959580e-13 -2.649623413470553190e-13 -1.208468411060745207e-13 -8.406736949368581735e-14
1.446000000000000000e+03 1.351778507232666016e+01 1.708079338073730469e+01 -2.131708302715792924e-13 -2.171740299530475204e-13 -1.291034607778934751e-13 4.082959353100303057e-14
1.447000000000000000e+03 7.136717224121093750e+01 1.588942337036132812e+01 -1.200962445539310169e-14 -1.881507780522942430e-13 -6.004811719476782494e-14 -1.301042606982605321e-14
1.448000000000000000e+03 6.998558044433593750e+01 1.707933998107910156e+01 1.266014474244486765e-13 -9.157338244896590096e-14 1.050842118671072717e-14 -7.061908837650149318e-14
1.449000000000000000e+03 3.164921379089355469e+01 1.638789939880371094e+01 1.781427517435693608e-13 -1.981587908084919691e-13 -6.004812227696550847e-15 1.911531778133954140e-13
1.450000000000000000e+03 3.149839591979980469e+01 1.714249038696289062e+01 1.240994476235310340e-13 -4.043240080849747065e-13 -8.406736949368581735e-14 9.207378240914942946e-14
1.451000000000000000e+03 5.531344604492187500e+01 1.750287437438964844e+01 7.405934996122451319e-14 -1.401122768425900472e-14 1.801443583605670529e-14 1.040834085586084257e-13
1.452000000000000000e+03 1.702885627746582031e+01 2.031687355041503906e+01 -1.441154866884536423e-13 -1.761411519028352468e-13 -9.607699564314481355e-14 -6.955573676704560060e-14
1.453000000000000000e+03 5.968011379241943359e+00 1.422303199768066406e+01 -1.881507780522942430e-13 -1.721379386688398627e-13 -1.080866150163402317e-13 -1.180946345488015359e-13
1.454000000000000000e+03 8.481462478637695312e+00 1.148178005218505859e+01 -2.652125209983563492e-13 -2.051644173561156803e-13 -1.411130869273524713e-13 -3.202566521438160452e-14
1.455000000000000000e+03 5.344762802124023438e+00 1.200534439086914062e+01 -1.301042606982605321e-13 -1.000802037949425141e-14 -4.203368474684290867e-14 3.903127820947815962e-14
1.456000000000000000e+03 9.542279243469238281e+00 1.454061412811279297e+01 -5.629511410525957216e-14 -1.613793191961032658e-13 -6.530233032922203029e-14 -1.020818019416107336e-13
1.457000000000000000e+03 1.219845962524414062e+01 1.508294773101806641e+01 -2.689655291700622855e-15 -2.756584023544395023e-13 -8.350441784441345328e-14 1.601283260719080226e-14
1.458000000000000000e+03 7.373112487792968750e+01 1.556578063964843750e+01 -3.652927163229693908e-14 1.215974478226133915e-13 2.552045048540268340e-14 1.150922347877003649e-13
1.459000000000000000e+03 3.511637878417968750e+01 2.009592628479003906e+01 1.551243095294137925e-14 2.952365863720038397e-14 1.351082687704252897e-14 -1.200962445539310169e-14
1.460000000000000000e+03 3.577196884155273438e+01 1.692001914978027344e+01 -6.004812227696550847e-15 6.605293026949732305e-14 1.801443583605670529e-14 -3.402726844324750755e-14
1.461000000000000000e+03 4.411545562744140625e+01 1.815482902526855469e+01 5.704571743366665393e-14 -1.871499781319271860e-13 -3.903127820947815962e-14 1.118396214939802735e-13
1.462000000000000000e+03 5.896010971069335938e+01 1.821121978759765625e+01 1.268516541808040188e-13 -1.743897452659293190e-13 -1.426142935841666348e-14 3.002405859738391247e-14
1.463000000000000000e+03 5.774339294433593750e+01 1.885437774658203125e+01 1.170938346284344789e-13 -2.471980953266950110e-13 -3.903127820947815962e-14 1.381106736137241442e-13
1.464000000000000000e+03 2.353295135498046875e+01 2.054018592834472656e+01 -1.991596042813861822e-13 -1.711371387484728057e-13 -1.110890215537049808e-13 -3.358941678402102560e-14
1.465000000000000000e+03 3.235084152221679688e+01 1.814944458007812500e+01 1.185950345089850644e-13 -2.236792429879605471e-13 -3.152526186606628700e-14 -1.601283260719080226e-14
1.466000000000000000e+03 3.622465896606445312e+01 1.797484588623046875e+01 -5.804651735403371093e-14 1.581267126786467525e-13 3.002405859738391247e-14 -5.154130431912068433e-14
1.467000000000000000e+03 2.426319503784179688e+01 2.139245033264160156e+01 -1.607538158577420662e-13 -8.819567932959529455e-14 -7.468484652332213480e-14 -1.556559921104053168e-13
1.468000000000000000e+03 6.380794525146484375e+01 1.831488800048828125e+01 9.495109234460008540e-14 -2.338123726748631004e-13 -4.165838477670526230e-14 -1.801443583605670529e-14
1.469000000000000000e+03 3.231496429443359375e+01 1.715861129760742188e+01 4.353488801552528320e-14 -1.185950345089850644e-13 -2.251804564210382886e-14 3.302646513474866152e-14
1.470000000000000000e+03 2.706083488464355469e+01 1.993870735168457031e+01 -2.982389996856321668e-13 -2.201764398785440585e-14 -9.607699564314481355e-14 1.701363422162375377e-14
1.471000000000000000e+03 3.347318649291992188e+01 1.921548843383789062e+01 3.502806921064751181e-15 -1.586271126388302810e-13 -4.653729455289003225e-14 2.502005052521915490e-14
1.472000000000000000e+03 1.068340396881103516e+01 1.427214908599853516e+01 -7.806255641895631925e-14 -1.821459649775647449e-13 -7.806255641895631925e-14 -6.255012377194904549e-14
1.473000000000000000e+03 2.765326690673828125e+01 1.918533515930175781e+01 -1.206670126232406437e-13 1.770403078695317878e-13 1.691199026795323773e-14 3.940657817961580600e-14
1.474000000000000000e+03 6.652919769287109375e+00 1.322421836853027344e+01 -1.115894215138885093e-13 -9.357498906596359300e-14 -6.154932385158198849e-14 -3.803047490097931360e-14
1.475000000000000000e+03 7.711478710174560547e+00 1.246106147766113281e+01 -2.069158104404944520e-13 9.432558900623888576e-14 -3.377706846315574329e-14 7.005613842129502361e-15
1.476000000000000000e+03 2.040823936462402344e+01 2.170332908630371094e+01 -1.999101974453978969e-13 -2.229286498239488323e-13 -1.268516541808040188e-13 5.204170427930421283e-14
1.477000000000000000e+03 1.852447319030761719e+01 2.115038299560546875e+01 -1.115894215138885093e-13 -9.357498906596359300e-14 -6.154932385158198849e-14 -9.007218256841531545e-14
1.478000000000000000e+03 7.456242370605468750e+01 2.000786018371582031e+01 -1.751403587587317678e-14 -7.506014649345978118e-15 -7.506014649345978118e-15 3.903127820947815962e-14
1.479000000000000000e+03 7.294791412353515625e+01 1.569556522369384766e+01 3.803047490097931360e-14 6.204972381176551699e-14 3.002405859738391247e-14 -2.401924891078620339e-14
1.480000000000000000e+03 4.755035400390625000e+01 2.149888801574707031e+01 -3.302646513474866152e-14 -1.170938346284344789e-13 -4.503609128420765773e-14 1.751403587587317678e-14
1.481000000000000000e+03 7.047464847564697266e+00 3.332859420776367188e+01 1.457417933353136880e-14 2.350008208862330861e-13 7.487250159058864152e-14 4.103288143834406265e-14
1.482000000000000000e+03 6.716606140136718750e+01 4.116416549682617188e+01 2.414434890083208551e-14 -3.540337172188399995e-14 -3.377706719260632241e-15 1.175942362826839019e-14
1.483000000000000000e+03 7.215985107421875000e+01 3.619577407836914062e+01 4.253408470702643718e-14 -1.075862150561567032e-13 -1.951563910473907981e-14 -4.253408470702643718e-14
1.484000000000000000e+03 6.712489318847656250e+01 1.774330711364746094e+01 6.004812227696550847e-15 -6.605293026949732305e-14 -1.801443583605670529e-14 -8.757017599123409490e-14
1.485000000000000000e+03 4.976455307006835938e+01 1.932674598693847656e+01 -9.007217918028352643e-15 1.791435652164635739e-13 5.104090097080536681e-14 7.405934996122451319e-14
1.486000000000000000e+03 4.862763595581054688e+01 2.091524124145507812e+01 8.006416303595401129e-15 7.205774334422682115e-14 2.401924891078620339e-14 5.454371085648543338e-14
1.487000000000000000e+03 6.015715026855468750e+01 1.813410758972167969e+01 4.340978802547940107e-14 -3.474033940294857237e-13 -9.119808586696004360e-14 -1.000802037949425141e-14
1.488000000000000000e+03 7.396375274658203125e+01 1.988222885131835938e+01 -4.903929774193946378e-14 1.791435652164635739e-13 3.903127820947815962e-14 -3.127506188597452275e-14
1.489000000000000000e+03 2.950130271911621094e+01 1.722793960571289062e+01 -1.301042606982605321e-14 -9.707779556351187056e-14 -3.302646513474866152e-14 1.341074739322559162e-13
1.490000000000000000e+03 6.617877197265625000e+01 1.746495819091796875e+01 6.342582709040200939e-14 7.293344666267978504e-14 4.090778144829818053e-14 -8.206576287668812530e-14
1.491000000000000000e+03 7.358229827880859375e+01 3.179759216308593750e+01 2.877305869692509122e-14 -5.629511410525957216e-14 -8.256616283687165381e-15 1.601283260719080226e-14
1.492000000000000000e+03 2.574188423156738281e+01 2.135898590087890625e+01 -2.618661038879255276e-13 7.077546421109179309e-14 -5.732718987017104695e-14 -5.079070099071360256e-14
1.493000000000000000e+03 4.263886260986328125e+01 1.965865516662597656e+01 -3.002405859738391247e-14 1.000802037949425141e-14 -6.004812227696550847e-15 1.301042606982605321e-13
1.494000000000000000e+03 7.186675262451171875e+01 3.370556640625000000e+01 3.502807175174635357e-14 -1.451162866088206993e-13 -3.302646513474866152e-14 -1.476182931860019198e-14
1.495000000000000000e+03 4.495806121826171875e+01 1.990336036682128906e+01 1.050842118671072717e-14 4.503608959014176322e-15 4.503608959014176322e-15 1.040834085586084257e-13
1.496000000000000000e+03 4.328650665283203125e+01 2.049066925048828125e+01 1.055846084391590112e-13 7.956375629950690476e-14 5.554451077685249039e-14 5.729591741375841818e-14
1.497000000000000000e+03 6.814045429229736328e+00 2.953995132446289062e+01 2.351884725653678038e-14 2.216776431472264330e-13 7.355895000104098469e-14 1.343576671360841024e-13
1.498000000000000000e+03 6.817652893066406250e+01 1.790556907653808594e+01 1.140914348673333079e-13 -1.341074739322559162e-13 -6.004812227696550847e-15 -1.100882199392720293e-14
1.499000000000000000e+03 1.616596031188964844e+01 1.929020118713378906e+01 -2.051644173561156803e-13 -3.452767043631010946e-13 -1.651323256737433076e-13 -2.154226368686687487e-13
1.500000000000000000e+03 1.510820674896240234e+01 1.942094421386718750e+01 -1.671339390670045777e-13 -2.832269737750719996e-13 -1.351082738526229732e-13 -7.430954994131627744e-14
1.501000000000000000e+03 7.378662109375000000e+01 1.630536460876464844e+01 -1.050842118671072717e-14 -4.503608959014176322e-15 -4.503608959014176322e-15 -2.001604075898850282e-15
1.502000000000000000e+03 7.386071014404296875e+01 1.703344154357910156e+01 -2.852285871683332696e-14 3.352686848306397904e-14 1.501203056924137712e-15 1.481186999224490264e-13
1.503000000000000000e+03 7.458986663818359375e+01 1.689488792419433594e+01 -6.004812227696550847e-15 -9.407538902614712151e-14 -3.002405859738391247e-14 -1.441154866884536423e-13
1.504000000000000000e+03 1.594647121429443359e+01 2.022653579711914062e+01 -8.106496295632106830e-14 -4.693761655391592846e-13 -1.651323256737433076e-13 -1.416134868875359998e-13
1.505000000000000000e+03 6.464311599731445312e+00 2.215049362182617188e+01 1.451162933850842773e-14 -3.953167816966168813e-14 -7.506014649345978118e-15 4.603689120457471473e-14
1.506000000000000000e+03 7.306632995605468750e+01 2.514545440673828125e+01 -1.341074739322559162e-13 -1.261010474642651480e-13 -7.806255641895631925e-14 -1.901523745048965680e-14
1.507000000000000000e+03 7.350603485107421875e+01 1.942709159851074219e+01 2.114194236346733646e-14 2.378155723563313284e-13 7.768725306068688385e-14 7.806255641895631925e-14
1.508000000000000000e+03 7.219170379638671875e+01 1.659006309509277344e+01 4.753809447325708926e-14 -1.626303258728256651e-13 -3.452766840343103605e-14 -1.130906281707026728e-13
1.509000000000000000e+03 7.365198516845703125e+01 2.348340606689453125e+01 -8.306656957331876034e-14 -1.271018609371593611e-13 -6.305052373213257400e-14 -6.605293026949732305e-14
1.510000000000000000e+03 7.391822814941406250e+01 2.607215690612792969e+01 -3.052446194569922999e-14 -1.045838085187919542e-13 -4.053248147816053415e-14 5.304250758780305885e-14
1.511000000000000000e+03 7.358258819580078125e+01 2.143645095825195312e+01 -3.152526186606628700e-14 -1.351082687704252897e-14 -1.351082687704252897e-14 4.603689120457471473e-14
1.512000000000000000e+03 6.787092685699462891e+00 2.371021842956542969e+01 2.702165375408505793e-14 4.233392607820574138e-13 1.351082738526229732e-13 2.802245536851800944e-14
1.513000000000000000e+03 7.293769836425781250e+01 2.610264205932617188e+01 7.506014649345978118e-15 -4.253408470702643718e-14 -1.050842118671072717e-14 -3.002405859738391247e-14
1.514000000000000000e+03 5.427862644195556641e+00 2.124901962280273438e+01 -7.556054984177509870e-14 1.506206997233666689e-13 2.251804564210382886e-14 2.161732300326804634e-13
1.515000000000000000e+03 7.025019645690917969e+00 2.305518913269042969e+01 -2.101684237342145434e-14 -9.007217918028352643e-15 -9.007217918028352643e-15 6.004812227696550847e-15
1.516000000000000000e+03 7.334501647949218750e+01 1.876195716857910156e+01 1.140914348673333079e-13 -1.341074739322559162e-13 -6.004812227696550847e-15 6.204972381176551699e-14
1.517000000000000000e+03 7.370392608642578125e+01 2.061066818237304688e+01 -3.002405859738391247e-14 -1.501202997631831404e-13 -5.404330750817011586e-14 8.807057595141762341e-14
1.518000000000000000e+03 5.252901077270507812e+00 1.424355697631835938e+01 3.352686848306397904e-14 1.516214996437337259e-13 5.554451077685249039e-14 -3.803047490097931360e-14
1.519000000000000000e+03 5.743965625762939453e+00 1.565122985839843750e+01 -2.341876692568689577e-13 -1.461170865291877563e-13 -1.140914348673333079e-13 -4.303448466720996568e-14
1.520000000000000000e+03 5.853204250335693359e+00 1.497926712036132812e+01 -2.802245536851800944e-14 1.481186999224490264e-13 3.602887167211341057e-14 3.002406113848275424e-15
1.521000000000000000e+03 5.288373470306396484e+00 1.348924160003662109e+01 -1.055846084391590112e-13 5.004010189747125706e-16 -3.152526186606628700e-14 -6.104892389139845998e-14
1.522000000000000000e+03 6.230676174163818359e+00 2.536579704284667969e+01 -7.959503553218311156e-14 1.612229501377765439e-13 2.448837472049120861e-14 1.116363335866392414e-13
1.523000000000000000e+03 5.489237308502197266e+00 2.035685729980468750e+01 -3.903127820947815962e-14 2.902325867701685547e-14 -3.002406113848275424e-15 1.441154866884536423e-13
1.524000000000000000e+03 6.038594722747802734e+00 2.136266517639160156e+01 4.303448466720996568e-14 -7.305854326459387815e-14 -9.007217918028352643e-15 1.581267126786467525e-13
1.525000000000000000e+03 7.519676685333251953e+00 1.479490184783935547e+01 -7.005614350349270714e-14 -3.002405859738391247e-14 -3.002405859738391247e-14 -2.001604075898850282e-14
1.526000000000000000e+03 5.394969463348388672e+00 1.130207824707031250e+01 6.305052373213257400e-14 3.472783042038352086e-13 1.230986477031639770e-13 -1.010810020212436766e-13
1.527000000000000000e+03 5.469813346862792969e+00 9.906345367431640625e+00 -2.451964887096973189e-14 3.097482123223804784e-13 8.556856937423640286e-14 -2.221780431074099615e-13
1.528000000000000000e+03 5.943841934204101562e+00 1.195474147796630859e+01 -1.601283260719080226e-14 1.761411519028352468e-13 4.803849782157240678e-14 -1.000802021008766196e-13
1.529000000000000000e+03 7.891137123107910156e+00 1.736274147033691406e+01 -2.401924891078620339e-14 -5.604491073703601889e-14 -2.401924891078620339e-14 -7.005614350349270714e-14
1.530000000000000000e+03 5.378956317901611328e+00 1.856877708435058594e+01 -2.802245536851800944e-14 -1.200962445539310169e-14 -1.200962445539310169e-14 2.011612041221202962e-13
1.531000000000000000e+03 6.702024936676025391e+00 1.055485820770263672e+01 -1.861491782115601290e-13 -3.402726844324750755e-14 -6.605293026949732305e-14 -1.321058605389946461e-13
1.532000000000000000e+03 6.028995990753173828e+00 1.824911499023437500e+01 -1.763913586591905891e-13 5.191660361163197290e-13 1.028324086581496044e-13 2.802245536851800944e-14
1.533000000000000000e+03 6.262326240539550781e+00 2.020813751220703125e+01 6.505213034913026604e-15 3.687955431493084024e-13 1.125902282105191443e-13 8.306656957331876034e-14
1.534000000000000000e+03 7.093148040771484375e+01 2.464634132385253906e+01 -3.552847171192988207e-14 3.052446194569922999e-14 -1.501203056924137712e-15 -4.703769451307356075e-14
1.535000000000000000e+03 6.333333969116210938e+00 2.326346969604492188e+01 -1.426142935841666348e-14 1.768917586193741176e-13 4.878909776184769953e-14 9.207378240914942946e-14
1.536000000000000000e+03 6.783556461334228516e+00 2.497421264648437500e+01 -2.677145377399329368e-14 3.427746842333927180e-14 2.251804479507088161e-15 2.401924891078620339e-14
1.537000000000000000e+03 6.453512668609619141e+00 2.090411567687988281e+01 -9.857899544406245607e-14 3.502806921064751181e-15 -2.852285871683332696e-14 -8.006416303595401129e-15
1.538000000000000000e+03 7.151730060577392578e+00 2.645011520385742188e+01 -1.030826086382413687e-13 4.133312344733325316e-13 9.307458910578006450e-14 8.807057595141762341e-14
1.539000000000000000e+03 8.858942031860351562e+00 3.116431236267089844e+01 5.473135914748836206e-14 1.835846199452900729e-13 7.149479169495445707e-14 -4.003208151797700565e-15
1.540000000000000000e+03 4.688729763031005859e+00 8.741789817810058594e+00 1.801443583605670529e-14 1.220978477827969200e-13 4.203368474684290867e-14 -7.005613842129502361e-15
1.541000000000000000e+03 7.174109458923339844e+00 2.455246543884277344e+01 -1.118396214939802735e-13 4.095782144431653338e-13 8.932157585187644466e-14 2.081668171172168513e-13
1.542000000000000000e+03 7.292381286621093750e+01 2.310234451293945312e+01 -6.805453688649501509e-14 -5.204170427930421283e-14 -3.602887167211341057e-14 1.626303258728256651e-14
1.543000000000000000e+03 1.295434093475341797e+01 1.661635398864746094e+01 -1.035830085984248972e-13 -2.016616040823038247e-13 -9.157338244896590096e-14 -1.976583908483084406e-14
1.544000000000000000e+03 1.460054206848144531e+01 1.800288963317871094e+01 -1.561251128379126385e-13 -1.641315257533762506e-13 -9.607699564314481355e-14 1.150922280114367868e-14
1.545000000000000000e+03 1.632304954528808594e+01 2.076767158508300781e+01 -1.431146867680865853e-13 -1.871499781319271860e-13 -9.907939540424598457e-14 1.200962445539310169e-14
1.546000000000000000e+03 3.081134986877441406e+01 1.682802772521972656e+01 2.652125379390152943e-14 -1.716375387086563342e-13 -4.353488801552528320e-14 1.901523778930283570e-13
1.547000000000000000e+03 3.029729652404785156e+01 1.721145820617675781e+01 1.711371387484728057e-13 -3.612895301940283188e-13 -5.704571743366665393e-14 1.921539912862896271e-13
1.548000000000000000e+03 1.028481769561767578e+01 1.492400550842285156e+01 -1.421138868477195283e-13 -3.803047490097931360e-14 -5.404330750817011586e-14 -8.406736949368581735e-14
1.549000000000000000e+03 4.157201766967773438e+01 1.818129348754882812e+01 -1.901523745048965680e-14 2.892317732972743416e-13 8.106496295632106830e-14 5.754611739385018243e-14
1.550000000000000000e+03 8.931673049926757812e+00 1.402833557128906250e+01 -1.091030545530453921e-13 9.049439122317190498e-14 -5.582598490742277791e-15 -9.232398238924119371e-14
1.551000000000000000e+03 5.707806015014648438e+01 2.009976768493652344e+01 1.464298381983683561e-13 -2.346255243042272287e-13 -2.645870379887858836e-14 5.404330750817011586e-14
1.552000000000000000e+03 5.544150161743164062e+01 1.836175346374511719e+01 8.256616283687165381e-14 -1.476182999622654979e-13 -1.951563910473907981e-14 1.060850151756061177e-13
1.553000000000000000e+03 6.143700790405273438e+01 1.824068069458007812e+01 9.832879546397069181e-14 -3.310152716165526421e-13 -6.980593674713736485e-14 -1.053344084590672469e-13
1.554000000000000000e+03 5.866875457763671875e+01 1.911438941955566406e+01 2.001604075898850282e-15 -3.422742774969456114e-13 -1.020818019416107336e-13 2.602085213965210642e-14
1.555000000000000000e+03 7.325584411621093750e+01 1.799590492248535156e+01 -1.165934346682509504e-13 -1.185950345089850644e-13 -7.055654346367623564e-14 8.506816941405287436e-14
1.556000000000000000e+03 1.743898582458496094e+01 2.089283752441406250e+01 -1.150922347877003649e-13 -9.507618894651417851e-14 -6.305052373213257400e-14 -4.003208151797700565e-14
1.557000000000000000e+03 1.527535820007324219e+01 2.059013557434082031e+01 -2.134210234754074786e-13 -2.744699541430695167e-13 -1.463672932855430986e-13 -4.803849782157240678e-14
1.558000000000000000e+03 4.080204010009765625e+01 1.882215309143066406e+01 6.255012377194904549e-14 7.255814330441034965e-14 4.053248147816053415e-14 8.031436301604577555e-14
1.559000000000000000e+03 3.877601242065429688e+01 2.021247100830078125e+01 -6.505213034913026604e-14 -5.004010189747125706e-15 -2.101684237342145434e-14 -2.251804564210382886e-14
1.560000000000000000e+03 3.734421157836914062e+01 1.715580177307128906e+01 7.806255641895631925e-14 1.020818019416107336e-13 5.404330750817011586e-14 -9.507618894651417851e-14
1.561000000000000000e+03 7.900083065032958984e+00 1.389048957824707031e+01 -1.301042606982605321e-14 6.305052373213257400e-14 1.501202929869195624e-14 -9.357498906596359300e-14
1.562000000000000000e+03 1.672237396240234375e+01 2.136596870422363281e+01 -1.421138868477195283e-13 -2.782229470681824024e-13 -1.261010474642651480e-13 -9.007217918028352643e-15
1.563000000000000000e+03 5.192280578613281250e+01 1.875043678283691406e+01 -1.701363422162375377e-14 -5.304250758780305885e-14 -2.101684237342145434e-14 1.581267126786467525e-13
1.564000000000000000e+03 5.921710968017578125e+00 1.684934806823730469e+01 -2.136712302317628209e-13 2.286832561423229881e-13 4.503608959014176322e-15 3.602887167211341057e-14
1.565000000000000000e+03 7.676784038543701172e+00 1.156488037109375000e+01 -1.313552673749829314e-13 -5.629511410525957216e-14 -5.629511410525957216e-14 -4.403528797570881170e-14
1.566000000000000000e+03 7.300868988037109375e+01 1.645186424255371094e+01 -6.405133042876320904e-14 6.405133042876320904e-14 0.000000000000000000e+00 9.607699564314481355e-14
1.567000000000000000e+03 6.432594299316406250e+01 1.773180198669433594e+01 -1.701363422162375377e-14 -5.304250758780305885e-14 -2.101684237342145434e-14 -1.741395520621011328e-13
1.568000000000000000e+03 6.458747100830078125e+01 1.849822998046875000e+01 -4.378508799561704745e-14 -1.788933584601082316e-13 -6.680353698603619383e-14 3.903127820947815962e-14
1.569000000000000000e+03 5.154520797729492188e+01 1.989539337158203125e+01 1.000802037949425141e-15 -9.107298248878237246e-14 -2.702165375408505793e-14 4.103288143834406265e-14
1.570000000000000000e+03 3.684955215454101562e+01 1.751216316223144531e+01 -2.201764398785440585e-14 8.206576287668812530e-14 1.801443583605670529e-14 -5.004010189747125706e-15
1.571000000000000000e+03 8.025969505310058594e+00 3.234512710571289062e+01 5.934442932724326436e-14 2.541880822579806187e-13 9.405974940980901811e-14 4.647474286380119668e-14
1.572000000000000000e+03 7.172916412353515625e+01 1.919439125061035156e+01 1.391114735340912012e-13 1.511210996835501974e-13 8.706977603105056640e-14 -9.107298248878237246e-14
1.573000000000000000e+03 7.131769561767578125e+01 1.668100357055664062e+01 -5.104090097080536681e-14 1.000802037949425141e-15 -1.501202929869195624e-14 -5.604491073703601889e-14
1.574000000000000000e+03 8.532918930053710938e+00 1.242005157470703125e+01 -1.720753937560146052e-13 -7.374659829204391337e-14 -7.374659829204391337e-14 -3.202566521438160452e-14
1.575000000000000000e+03 6.500460624694824219e+00 1.190990543365478516e+01 -2.421940957248597259e-13 -5.804651735403371093e-14 -9.007218256841531545e-14 4.103288143834406265e-14
1.576000000000000000e+03 3.138894844055175781e+01 1.813679122924804688e+01 -2.502005094873562853e-15 -9.257418236933295796e-14 -2.852285871683332696e-14 1.681347389873716347e-13
1.577000000000000000e+03 2.900244712829589844e+01 1.928239822387695312e+01 -7.105694342385976414e-14 6.104892389139845998e-14 -3.002406113848275424e-15 1.055846084391590112e-13
1.578000000000000000e+03 4.287566757202148438e+01 1.819474220275878906e+01 -6.004812227696550847e-15 -9.407538902614712151e-14 -3.002405859738391247e-14 1.376102736535406157e-13
1.579000000000000000e+03 2.274293708801269531e+01 2.131960868835449219e+01 -9.651484391423950648e-14 -6.423897871976613771e-14 -4.822614611257533546e-14 -2.231788430277770185e-13
1.580000000000000000e+03 2.259502029418945312e+01 2.309507942199707031e+01 -8.200321118759928973e-14 -1.037706568894278258e-13 -5.573216245598720808e-14 -1.941555911270237411e-13
1.581000000000000000e+03 1.784450531005859375e+01 2.150270843505859375e+01 -1.090874217129708668e-13 -3.212574520641831022e-13 -1.291034607778934751e-13 3.853087824929463112e-14
1.582000000000000000e+03 6.646816730499267578e+00 1.432468891143798828e+01 -1.651323256737433076e-14 2.216776431472264330e-13 6.154932385158198849e-14 8.807057595141762341e-14
1.583000000000000000e+03 1.398538398742675781e+01 1.858980178833007812e+01 -5.204170427930421283e-14 -2.682149478645118323e-13 -9.607699564314481355e-14 -1.901523745048965680e-14
1.584000000000000000e+03 1.235903453826904297e+01 1.615605545043945312e+01 -7.568565321995276984e-14 -3.984442983884228795e-13 -1.422389902258971994e-13 -1.401122768425900472e-14
1.585000000000000000e+03 6.263608169555664062e+01 1.820213317871093750e+01 9.069768336567767333e-16 -1.826150857050720666e-13 -5.451243501194101559e-14 -4.853889778175593528e-14
1.586000000000000000e+03 2.893942832946777344e+01 1.810898208618164062e+01 7.005613842129502361e-15 1.631307258330091936e-13 5.104090097080536681e-14 2.351884691772360148e-13
1.587000000000000000e+03 3.243849945068359375e+01 2.043710327148437500e+01 1.726383420171551802e-14 -1.298540539419051898e-13 -3.377706846315574329e-14 6.204972381176551699e-14
1.588000000000000000e+03 2.648326492309570312e+01 2.204904747009277344e+01 -2.050393139779380092e-13 3.627907334627106933e-15 -6.042342055303726034e-14 -8.857097591160115191e-14
1.589000000000000000e+03 4.806385421752929688e+01 1.966708183288574219e+01 9.007217918028352643e-15 -1.901523745048965680e-14 -3.002406113848275424e-15 2.201764398785440585e-14
1.590000000000000000e+03 5.947977447509765625e+01 1.877355384826660156e+01 6.717883356804205119e-14 -1.084619183746096671e-13 -1.238492442553074807e-14 5.904731727440076794e-14
1.591000000000000000e+03 6.933934783935546875e+01 1.755314445495605469e+01 -6.605293026949732305e-14 -3.142518255165593910e-13 -1.140914348673333079e-13 2.489495053517327278e-14
1.592000000000000000e+03 6.551347351074218750e+01 1.808156967163085938e+01 6.605293026949732305e-14 -8.606896933441993136e-14 -6.004812227696550847e-15 -1.621299259126421366e-13
1.593000000000000000e+03 4.411206436157226562e+01 1.955427932739257812e+01 4.203368474684290867e-14 -2.201764398785440585e-14 6.004812227696550847e-15 1.140914348673333079e-13
1.594000000000000000e+03 7.084469604492187500e+01 3.133505439758300781e+01 -5.004010189747125706e-16 -1.145918348275168364e-13 -3.452766840343103605e-14 3.552847171192988207e-14
1.595000000000000000e+03 5.286503982543945312e+01 1.922792243957519531e+01 2.702165375408505793e-14 -5.704571743366665393e-14 -9.007217918028352643e-15 1.801443583605670529e-14
1.596000000000000000e+03 7.017228698730468750e+01 3.825924682617187500e+01 -4.503608959014176322e-15 -7.055654346367623564e-14 -2.251804564210382886e-14 -2.752205540833448094e-14
1.597000000000000000e+03 7.015340423583984375e+01 3.595474243164062500e+01 -4.128308141843582690e-15 -2.464474886101561402e-14 -8.631917100857759012e-15 -3.002406113848275424e-15
1.598000000000000000e+03 7.214429473876953125e+01 3.093670082092285156e+01 1.526223097284961500e-14 5.229190425939597708e-14 2.026624073908026707e-14 -6.605293026949732305e-14
1.599000000000000000e+03 3.018478012084960938e+01 2.097586250305175781e+01 -4.453568793589234021e-14 4.953969770212299228e-14 1.501203056924137712e-15 -3.152526186606628700e-14
1.600000000000000000e+03 7.249917602539062500e+01 3.214200210571289062e+01 -7.005613842129502361e-15 -1.631307258330091936e-13 -5.104090097080536681e-14 -3.702967498061225660e-14
1.601000000000000000e+03 7.057444000244140625e+01 2.996230316162109375e+01 1.301042606982605321e-14 -6.305052373213257400e-14 -1.501202929869195624e-14 -1.501202929869195624e-14
1.602000000000000000e+03 7.009335041046142578e+00 2.003444862365722656e+01 5.504410996963601463e-15 -1.806447650970141594e-13 -5.254210423948774134e-14 5.204170427930421283e-14
1.603000000000000000e+03 1.126842784881591797e+01 1.631482887268066406e+01 -6.805453688649501509e-14 -1.321058605389946461e-13 -6.004811719476782494e-14 4.703769451307356075e-14
1.604000000000000000e+03 1.172052097320556641e+01 1.570935153961181641e+01 -1.488692930864607411e-13 -6.380113044867144478e-14 -6.380113044867144478e-14 -6.004811719476782494e-14
1.605000000000000000e+03 1.497267532348632812e+01 2.002478790283203125e+01 -2.011612041221202962e-13 -2.692157477848788893e-13 -1.411130869273524713e-13 2.101684237342145434e-14
1.606000000000000000e+03 7.309700012207031250e+01 1.721278762817382812e+01 2.201764398785440585e-14 -8.206576287668812530e-14 -1.801443583605670529e-14 -3.803047490097931360e-14
1.607000000000000000e+03 7.336637115478515625e+01 2.226356697082519531e+01 -1.050842084789754827e-13 -4.503609128420765773e-14 -4.503609128420765773e-14 3.402726844324750755e-14
1.608000000000000000e+03 7.180199432373046875e+01 2.603405761718750000e+01 -8.006416303595401129e-14 8.006416303595401129e-14 0.000000000000000000e+00 -2.802245536851800944e-14
1.609000000000000000e+03 7.206490325927734375e+01 2.267480850219726562e+01 -5.804651735403371093e-14 7.806255641895631925e-14 6.004812227696550847e-15 -1.225982443548486595e-14
1.610000000000000000e+03 6.783550262451171875e+00 2.588382530212402344e+01 -8.807057595141762341e-14 2.882309733769072846e-13 6.004811719476782494e-14 7.455974992140804170e-14
1.611000000000000000e+03 6.972359466552734375e+01 1.809733581542968750e+01 -8.506817110811876886e-15 -1.866495781717436575e-13 -5.854691731421723944e-14 -5.604491073703601889e-14
1.612000000000000000e+03 7.276185607910156250e+01 1.976928901672363281e+01 4.903929774193946378e-14 2.101684237342145434e-14 2.101684237342145434e-14 -2.401924891078620339e-14
1.613000000000000000e+03 7.636801242828369141e+00 1.534300994873046875e+01 -1.391114735340912012e-13 1.691355389077386917e-13 9.007217918028352643e-15 -2.602085213965210642e-14
1.614000000000000000e+03 7.241179656982421875e+01 2.398639869689941406e+01 -9.082278250869060821e-14 -2.219278499035817753e-13 -9.382518904605535726e-14 -1.000802037949425141e-14
1.615000000000000000e+03 6.600942134857177734e+00 1.740796852111816406e+01 -1.311050606186275891e-13 8.106496295632106830e-14 -1.501202929869195624e-14 1.000802021008766196e-13
1.616000000000000000e+03 6.502021789550781250e+00 1.506056880950927734e+01 -9.207378240914942946e-14 -1.080866150163402317e-13 -6.004811719476782494e-14 -5.304250758780305885e-14
1.617000000000000000e+03 5.981962203979492188e+00 1.343402767181396484e+01 3.002405859738391247e-14 1.501202997631831404e-13 5.404330750817011586e-14 -5.004010189747125706e-15
1.618000000000000000e+03 7.275262832641601562e+00 1.425930786132812500e+01 -1.356086738128065017e-13 1.706367387882892772e-13 1.050842118671072717e-14 8.406736949368581735e-14
1.619000000000000000e+03 6.005634307861328125e+00 1.125900840759277344e+01 -2.011612041221202962e-13 5.104090097080536681e-14 -4.503609128420765773e-14 5.004010189747125706e-15
1.620000000000000000e+03 8.480265617370605469e+00 1.343692302703857422e+01 -2.722807060113324740e-13 -1.624426775818227364e-13 -1.304170123674411319e-13 -9.007217918028352643e-15
1.621000000000000000e+03 5.930068492889404297e+00 1.267412281036376953e+01 -1.611291259922750796e-13 -6.905533680686207210e-14 -6.905533680686207210e-14 -1.090874217129708668e-13
1.622000000000000000e+03 8.219330787658691406e+00 1.600754928588867188e+01 -1.045838085187919542e-13 6.955573676704560060e-14 -1.050842118671072717e-14 -1.291034607778934751e-13
1.623000000000000000e+03 1.381319713592529297e+01 1.970038032531738281e+01 -1.597373763210369058e-13 -2.057117226127863630e-13 -1.096347337459051274e-13 1.651323256737433076e-14
1.624000000000000000e+03 1.452016735076904297e+01 1.907634925842285156e+01 -1.020818019416107336e-13 -2.381908689383371858e-13 -1.020818019416107336e-13 1.251002547436781426e-15
1.625000000000000000e+03 6.373352527618408203e+00 2.808928489685058594e+01 -3.953167816966168813e-14 7.455974992140804170e-14 1.050842118671072717e-14 1.160930347080674219e-13
1.626000000000000000e+03 7.708376884460449219e+00 1.988263130187988281e+01 -1.341074739322559162e-13 3.402726844324750755e-14 -3.002405859738391247e-14 9.407538902614712151e-14
1.627000000000000000e+03 6.239485263824462891e+00 1.935127067565917969e+01 7.506014649345978118e-15 -4.253408470702643718e-14 -1.050842118671072717e-14 7.606094980195862720e-14
1.628000000000000000e+03 7.143169879913330078e+00 2.073892021179199219e+01 -4.853889778175593528e-14 -6.655333022968085155e-14 -3.452766840343103605e-14 1.321058605389946461e-13
1.629000000000000000e+03 7.487236976623535156e+00 2.394674873352050781e+01 3.502807175174635357e-14 1.501202929869195624e-14 1.501202929869195624e-14 7.355895000104098469e-14
1.630000000000000000e+03 7.250810623168945312e+00 2.548503684997558594e+01 -1.387361769520853438e-13 1.700112354499280776e-13 9.382518735198946275e-15 1.393773199067846469e-13
1.631000000000000000e+03 6.530817508697509766e+00 2.641703033447265625e+01 -5.954771723458429644e-14 2.947361864118203112e-13 7.055654346367623564e-14 1.941555911270237411e-13
1.632000000000000000e+03 7.050290679931640625e+01 2.584612464904785156e+01 3.903127820947815962e-14 -2.902325867701685547e-14 3.002406113848275424e-15 -2.852285871683332696e-14
1.633000000000000000e+03 1.459464931488037109e+01 2.097393798828125000e+01 -1.831467648979318019e-13 -3.072462260739899920e-13 -1.471179000020819694e-13 5.554451077685249039e-14
1.634000000000000000e+03 1.186614990234375000e+01 1.673224449157714844e+01 -2.231788430277770185e-13 -6.705373696612795809e-14 -8.706977603105056640e-14 -1.012061053994213478e-13
1.635000000000000000e+03 1.562894439697265625e+01 2.115528297424316406e+01 -1.271018609371593611e-13 -4.433552862944528661e-13 -1.711371387484728057e-13 -7.305854326459387815e-14
1.636000000000000000e+03 2.442191314697265625e+01 2.321651458740234375e+01 -1.036768327439263615e-13 4.706897035761797854e-14 -1.698235837707933599e-14 -9.857899544406245607e-14
1.637000000000000000e+03 2.509065818786621094e+01 2.220974159240722656e+01 -1.228484409468086347e-13 -2.977385861729214822e-14 -4.578669122448295048e-14 -7.105694342385976414e-14
1.638000000000000000e+03 1.061590385437011719e+01 1.593461132049560547e+01 -1.421138868477195283e-13 -1.180946345488015359e-13 -7.806255641895631925e-14 1.901523745048965680e-14
1.639000000000000000e+03 7.509459018707275391e+00 1.600027084350585938e+01 -1.301042606982605321e-14 6.305052373213257400e-14 1.501202929869195624e-14 6.505213034913026604e-14
1.640000000000000000e+03 6.158078002929687500e+01 1.983838844299316406e+01 7.978268382318604024e-14 -2.608653039675584706e-13 -5.432478333280629790e-14 -8.078153217964262334e-14
1.641000000000000000e+03 7.191450500488281250e+01 2.968441772460937500e+01 5.779631737394194668e-14 2.476984885106149614e-14 2.476984885106149614e-14 1.801443583605670529e-14
1.642000000000000000e+03 6.247598648071289062e+01 2.085339546203613281e+01 4.703769451307356075e-14 -1.170938346284344789e-13 -2.101684237342145434e-14 -5.216680426935009496e-14
1.643000000000000000e+03 8.363141059875488281e+00 1.524413871765136719e+01 -3.452766840343103605e-14 -6.054852393121493148e-14 -2.852285871683332696e-14 -1.901523745048965680e-14
1.644000000000000000e+03 3.662491607666015625e+01 2.016471481323242188e+01 -1.801443583605670529e-14 3.803047490097931360e-14 6.004812227696550847e-15 -1.801443583605670529e-14
1.645000000000000000e+03 3.952252197265625000e+01 1.842710876464843750e+01 -8.506817110811876886e-15 -2.652125379390152943e-14 -1.050842118671072717e-14 1.621299259126421366e-13
1.646000000000000000e+03 5.894744491577148438e+01 2.009258460998535156e+01 8.106496295632106830e-14 -3.312654512678536722e-13 -7.506014988159157020e-14 7.656135653840573374e-14
1.647000000000000000e+03 5.613174819946289062e+01 1.941040611267089844e+01 1.065854151357896462e-13 -1.716375387086563342e-13 -1.951563910473907981e-14 8.857097591160115191e-14
1.648000000000000000e+03 1.346718883514404297e+01 1.810533905029296875e+01 -1.195958344293521214e-13 -2.552045048540268340e-14 -4.353488801552528320e-14 1.251002547436781426e-15
1.649000000000000000e+03 1.845473289489746094e+01 2.200235939025878906e+01 -1.631307258330091936e-13 -1.271018609371593611e-13 -8.706977603105056640e-14 -1.000802037949425141e-14
1.650000000000000000e+03 1.718696784973144531e+01 2.202873992919921875e+01 -7.005614350349270714e-14 -1.501202997631831404e-13 -6.605293026949732305e-14 -1.125902282105191443e-14
1.651000000000000000e+03 5.418853759765625000e+01 1.907690620422363281e+01 5.804651735403371093e-14 2.001604075898850282e-15 1.801443583605670529e-14 3.753007494079578510e-14
1.652000000000000000e+03 5.246353149414062500e+01 2.039796638488769531e+01 -1.551243095294137925e-14 -2.952365863720038397e-14 -1.351082687704252897e-14 1.496198998029996119e-13
1.653000000000000000e+03 2.087368583679199219e+01 2.269484519958496094e+01 -1.078364150362484675e-13 -1.148420280313450226e-13 -6.680353698603619383e-14 -1.140914348673333079e-13
1.654000000000000000e+03 6.066766262054443359e+00 2.263247871398925781e+01 -7.105694342385976414e-14 6.104892389139845998e-14 -3.002406113848275424e-15 3.452766840343103605e-14
1.655000000000000000e+03 7.150107860565185547e+00 2.228989982604980469e+01 -7.806255641895631925e-14 2.181748434259417335e-13 4.203368474684290867e-14 3.502807175174635357e-14
1.656000000000000000e+03 5.477147674560546875e+01 1.855409049987792969e+01 3.127506188597452275e-14 -1.238492544197028478e-13 -2.777225538842624519e-14 1.261010474642651480e-13
1.657000000000000000e+03 7.237383842468261719e+00 1.286977195739746094e+01 -1.053344084590672469e-13 1.378604804098959580e-13 9.757819552369539906e-15 1.000802037949425141e-14
1.658000000000000000e+03 8.078239440917968750e+00 1.291906166076660156e+01 -7.551363776902436653e-14 1.963917581077750940e-13 3.626343542399886044e-14 -7.756215645877279075e-14
1.659000000000000000e+03 6.576735019683837891e+00 2.149303436279296875e+01 -1.411130869273524713e-13 3.102486190588275849e-14 -3.302646513474866152e-14 -3.402726844324750755e-14
1.660000000000000000e+03 6.902011871337890625e+01 1.813749313354492188e+01 1.501202929869195624e-14 -8.506816941405287436e-14 -2.101684237342145434e-14 -5.804651735403371093e-14
1.661000000000000000e+03 6.989655017852783203e+00 1.190123462677001953e+01 7.005614350349270714e-14 3.502807039649363796e-13 1.261010474642651480e-13 -1.140914348673333079e-13
1.662000000000000000e+03 6.701803588867187500e+01 1.876262474060058594e+01 8.656937607086703790e-14 -3.152526186606628700e-14 1.651323256737433076e-14 -9.607699564314481355e-14
1.663000000000000000e+03 3.341289138793945312e+01 2.042193222045898438e+01 -9.382518904605535726e-14 5.129110433902892008e-14 -1.276022524270134170e-14 1.901523745048965680e-14
1.664000000000000000e+03 3.588936233520507812e+01 1.943474960327148438e+01 1.000802037949425141e-14 5.004010105043830980e-14 1.801443583605670529e-14 -6.004812227696550847e-15
1.665000000000000000e+03 6.594560241699218750e+01 1.899298095703125000e+01 1.676343424153198952e-14 -8.431756947377758160e-14 -2.026624073908026707e-14 3.102486190588275849e-14
1.666000000000000000e+03 3.758691406250000000e+01 1.902097892761230469e+01 -1.651323256737433076e-14 6.154932385158198849e-14 1.351082687704252897e-14 -7.506014988159157020e-14
1.667000000000000000e+03 3.603445053100585938e+01 2.111457633972167969e+01 -7.405934996122451319e-14 -1.060850151756061177e-13 -5.404330750817011586e-14 -9.695269557346598843e-15
1.668000000000000000e+03 2.601265525817871094e+01 2.284083557128906250e+01 -1.606287260320915511e-13 4.553649124439118623e-14 -3.452766840343103605e-14 -9.707779556351187056e-14
1.669000000000000000e+03 4.426462554931640625e+01 2.295526885986328125e+01 2.039134072912614920e-14 -1.413632852133783410e-14 1.876503662336494530e-15 8.206576287668812530e-14
1.670000000000000000e+03 4.228261947631835938e+01 2.118122482299804688e+01 -1.251002475438980910e-13 -6.505213034913026604e-14 -5.704571743366665393e-14 1.100882216333379238e-13
1.671000000000000000e+03 3.878160095214843750e+01 1.821902275085449219e+01 3.302646513474866152e-14 3.702967498061225660e-14 2.101684237342145434e-14 -2.502005094873562853e-15
1.672000000000000000e+03 4.036491012573242188e+01 1.974291419982910156e+01 -7.005614350349270714e-14 -3.002405859738391247e-14 -3.002405859738391247e-14 5.204170427930421283e-14
1.673000000000000000e+03 6.312280654907226562e+01 1.897276306152343750e+01 1.801443583605670529e-14 -3.803047490097931360e-14 -6.004812227696550847e-15 -1.010810020212436766e-13
1.674000000000000000e+03 5.072575378417968750e+01 1.950277709960937500e+01 7.005613842129502361e-15 3.002406113848275424e-15 3.002406113848275424e-15 4.603689120457471473e-14
1.675000000000000000e+03 6.053276443481445312e+01 2.070001792907714844e+01 6.204972381176551699e-14 -2.021620040424873532e-13 -4.203368474684290867e-14 1.401122768425900472e-14
1.676000000000000000e+03 7.827515602111816406e+00 3.460371780395507812e+01 3.552847171192988207e-14 1.296038607380770036e-13 4.953969770212299228e-14 3.302646513474866152e-14
1.677000000000000000e+03 7.266094970703125000e+01 2.200235939025878906e+01 -6.004812227696550847e-15 -9.407538902614712151e-14 -3.002405859738391247e-14 -6.179952383167375274e-14
1.678000000000000000e+03 1.581230258941650391e+01 2.365918922424316406e+01 -1.471179000020819694e-13 -3.833071555471578851e-13 -1.591275125990138095e-13 -6.605293026949732305e-14
1.679000000000000000e+03 4.905895233154296875e+01 2.224416542053222656e+01 -4.028228149806876990e-14 -1.773921585795576461e-13 -6.530233032922203029e-14 2.602085213965210642e-14
1.680000000000000000e+03 7.324721336364746094e+00 2.845634078979492188e+01 -7.906335633932337625e-14 2.291836696550336727e-13 4.503609128420765773e-14 6.855493684667854359e-14
1.681000000000000000e+03 7.801084518432617188e+00 3.027518272399902344e+01 -6.880513852083620235e-15 2.258059462068723322e-13 6.567763368749146569e-14 1.701363422162375377e-14
1.682000000000000000e+03 6.077503967285156250e+01 1.895965576171875000e+01 5.179150429921244858e-14 -5.929751725449253219e-14 -2.251804479507088161e-15 1.732638419673845909e-14
1.683000000000000000e+03 6.903083801269531250e+01 2.877440452575683594e+01 1.626303258728256651e-14 -3.878107822938639537e-14 -6.755413438521264483e-15 1.751403587587317678e-14
1.684000000000000000e+03 7.136083221435546875e+01 1.752637290954589844e+01 4.903929774193946378e-14 -1.391114735340912012e-13 -2.702165375408505793e-14 -1.361090737729900302e-13
1.685000000000000000e+03 5.485504913330078125e+01 1.968174934387207031e+01 1.200962445539310169e-14 -9.207378240914942946e-14 -2.401924891078620339e-14 7.355895000104098469e-14
1.686000000000000000e+03 6.760058593750000000e+01 3.243696594238281250e+01 3.077466192579099424e-14 -7.831275639904808350e-14 -1.426142935841666348e-14 -8.006416303595401129e-15
1.687000000000000000e+03 7.298607635498046875e+01 2.716774940490722656e+01 -5.104090097080536681e-14 1.000802037949425141e-15 -1.501202929869195624e-14 -5.004010189747125706e-15
1.688000000000000000e+03 5.641950607299804688e+00 4.055260086059570312e+01 3.803047490097931360e-14 1.821459649775647449e-13 6.605293026949732305e-14 -2.627105296677681792e-15
1.689000000000000000e+03 7.130143737792968750e+01 3.260851287841796875e+01 1.050842118671072717e-14 -1.556247128777291100e-13 -4.353488801552528320e-14 2.502005052521915490e-14
1.690000000000000000e+03 3.133612251281738281e+01 2.079930114746093750e+01 -8.832077593150938766e-14 -1.293536539817216613e-13 -6.530233032922203029e-14 1.501202929869195624e-14
1.691000000000000000e+03 2.784411048889160156e+01 2.069930839538574219e+01 -1.421138868477195283e-13 1.621299259126421366e-13 6.004812227696550847e-15 -5.566961076689837251e-14
1.692000000000000000e+03 6.997004699707031250e+01 3.336362075805664062e+01 -3.121251358501747619e-14 -8.200321118759928973e-14 -3.396471675415867197e-14 -3.002406113848275424e-15
1.693000000000000000e+03 6.934947967529296875e+01 3.186686325073242188e+01 5.604491073703601889e-14 -5.604491073703601889e-14 0.000000000000000000e+00 -1.801443583605670529e-14
1.694000000000000000e+03 3.238175964355468750e+01 1.928680610656738281e+01 -1.000802037949425141e-15 -6.905533680686207210e-14 -2.101684237342145434e-14 1.501202929869195624e-14
1.695000000000000000e+03 3.188923072814941406e+01 2.215706443786621094e+01 -6.423897871976613771e-14 2.012237490349455538e-13 4.109543312743289822e-14 -5.004010189747125706e-15
1.696000000000000000e+03 3.751711654663085938e+01 1.791962814331054688e+01 -1.651323256737433076e-14 2.216776431472264330e-13 6.154932385158198849e-14 9.007217918028352643e-15
1.697000000000000000e+03 3.285057449340820312e+01 2.135276985168457031e+01 -7.465357406690950604e-14 -3.199438936983718673e-14 -3.199438936983718673e-14 3.953167816966168813e-14
1.698000000000000000e+03 1.144599533081054688e+01 3.324040222167968750e+01 5.554451077685249039e-14 6.955573676704560060e-14 3.753007494079578510e-14 -3.002406113848275424e-15
1.699000000000000000e+03 6.974069595336914062e+00 1.376065349578857422e+01 -3.702967498061225660e-14 -7.305854326459387815e-14 -3.302646513474866152e-14 -3.352686848306397904e-14
1.700000000000000000e+03 1.295065879821777344e+01 1.763259506225585938e+01 -3.162534253572935050e-13 -2.842277736954390566e-13 -1.801443651368306309e-13 4.628709372576532075e-15
1.701000000000000000e+03 8.909744262695312500e+00 1.820404052734375000e+01 -7.656135653840573374e-14 -7.856295637913984775e-14 -4.653729455289003225e-14 4.003208151797700565e-14
1.702000000000000000e+03 6.911886596679687500e+01 2.062420272827148438e+01 1.501202929869195624e-14 -8.506816941405287436e-14 -2.101684237342145434e-14 -6.104892389139845998e-14
1.703000000000000000e+03 6.580554962158203125e+00 1.803090667724609375e+01 8.006416303595401129e-15 2.321860694161348437e-13 7.205774334422682115e-14 2.061652172764827373e-13
1.704000000000000000e+03 1.305036354064941406e+01 2.016228103637695312e+01 -1.200962445539310169e-14 -2.802245536851800944e-14 -1.200962445539310169e-14 3.102486190588275849e-14
1.705000000000000000e+03 9.567659378051757812e+00 2.542461013793945312e+01 -5.016520104048419193e-14 1.615044225742809370e-13 3.340176849301809692e-14 4.103288143834406265e-14
1.706000000000000000e+03 7.172611236572265625e+01 2.720398330688476562e+01 4.303448466720996568e-14 -7.305854326459387815e-14 -9.007217918028352643e-15 -2.702165375408505793e-14
1.707000000000000000e+03 7.142622375488281250e+01 2.356921768188476562e+01 -1.776423585596494104e-14 -1.448660934049925131e-13 -4.878909776184769953e-14 -1.120898214740720378e-13
1.708000000000000000e+03 7.235143184661865234e+00 2.148143196105957031e+01 -2.251804564210382886e-14 -3.252606517456513302e-14 -1.651323256737433076e-14 4.703769451307356075e-14
1.709000000000000000e+03 1.495615005493164062e+01 2.147884750366210938e+01 -1.351082738526229732e-13 -1.951563910473907981e-13 -9.907939540424598457e-14 5.904731727440076794e-14
1.710000000000000000e+03 7.289749145507812500e+01 2.058933067321777344e+01 -1.020818019416107336e-13 2.001604075898850282e-15 -3.002405859738391247e-14 3.402726844324750755e-14
1.711000000000000000e+03 7.289696502685546875e+01 2.135667228698730469e+01 -1.561251128379126385e-13 -2.041636038832214672e-13 -1.080866150163402317e-13 3.302646513474866152e-14
1.712000000000000000e+03 6.654442310333251953e+00 1.670646858215332031e+01 3.903127820947815962e-14 2.912333731380084556e-13 9.907939540424598457e-14 1.901523778930283570e-13
1.713000000000000000e+03 6.822600364685058594e+00 1.596165275573730469e+01 -5.204170427930421283e-14 2.522020949285302960e-13 6.004811719476782494e-14 3.102486190588275849e-14
1.714000000000000000e+03 7.748885631561279297e+00 1.800483131408691406e+01 -1.561251128379126385e-13 -4.403528797570881170e-14 -6.004811719476782494e-14 1.200962343895356499e-13
1.715000000000000000e+03 7.155733108520507812e+00 1.800412368774414062e+01 -1.000802037949425141e-15 -2.291836696550336727e-13 -6.905533680686207210e-14 -5.804651735403371093e-14
1.716000000000000000e+03 7.744695186614990234e+00 2.612032127380371094e+01 -2.702165375408505793e-14 2.972381997652651098e-13 8.106496295632106830e-14 1.447409900268148419e-13
1.717000000000000000e+03 7.735652923583984375e+00 2.497932815551757812e+01 2.001604075898850282e-15 5.804651735403371093e-14 1.801443583605670529e-14 8.206576287668812530e-14
1.718000000000000000e+03 6.509057521820068359e+00 1.256080532073974609e+01 -8.106496295632106830e-14 1.100882199392720293e-14 -2.101684237342145434e-14 1.200962445539310169e-14
1.719000000000000000e+03 8.700493812561035156e+00 1.677681922912597656e+01 -6.605293026949732305e-14 -2.341876692568689577e-13 -9.007218256841531545e-14 -1.541235129971785245e-13
1.720000000000000000e+03 8.190227508544921875e+00 1.911235046386718750e+01 -4.603689120457471473e-14 2.602085213965210642e-14 -6.004812227696550847e-15 1.010810020212436766e-13
1.721000000000000000e+03 6.962263584136962891e+00 1.932583808898925781e+01 -3.402726844324750755e-14 2.141716301919463494e-13 5.404330750817011586e-14 4.703769451307356075e-14
1.722000000000000000e+03 7.393551826477050781e+00 2.734253692626953125e+01 -4.503609128420765773e-14 2.552045217946857791e-13 6.305052373213257400e-14 1.801443583605670529e-14
1.723000000000000000e+03 8.192525863647460938e+00 2.432179069519042969e+01 -5.104090097080536681e-14 3.212574520641831022e-13 8.106496295632106830e-14 1.481186999224490264e-13
1.724000000000000000e+03 1.083345890045166016e+01 1.690184783935546875e+01 -6.605293026949732305e-14 -2.742197473867141744e-13 -1.020818019416107336e-13 -7.430954994131627744e-14
1.725000000000000000e+03 7.155176544189453125e+01 1.837349510192871094e+01 -8.406736949368581735e-14 -3.602887167211341057e-14 -3.602887167211341057e-14 -1.801443583605670529e-14
1.726000000000000000e+03 7.240259552001953125e+01 1.817587471008300781e+01 -5.004010189747125706e-15 -1.851483647386659159e-13 -5.704571743366665393e-14 -2.902325867701685547e-14
1.727000000000000000e+03 7.190083312988281250e+01 1.999916839599609375e+01 -5.304250758780305885e-14 2.301844560228735737e-14 -9.007217918028352643e-15 -3.402726844324750755e-14
1.728000000000000000e+03 7.047198486328125000e+01 1.778188133239746094e+01 -1.768917586193741176e-13 -7.581074982186686295e-14 -7.581074982186686295e-14 3.102486190588275849e-14
1.729000000000000000e+03 7.044671630859375000e+01 2.857867813110351562e+01 9.657739560332834206e-14 1.851483749030612830e-14 3.452766840343103605e-14 -1.150922280114367868e-14
1.730000000000000000e+03 1.426617050170898438e+01 2.157527542114257812e+01 -9.207378240914942946e-14 -2.682149478645118323e-13 -1.080866150163402317e-13 2.702165375408505793e-14
1.731000000000000000e+03 5.270175552368164062e+01 2.295462226867675781e+01 5.704571743366665393e-14 -6.705373696612795809e-14 -3.002406113848275424e-15 4.103288143834406265e-14
1.732000000000000000e+03 2.152470016479492188e+01 2.384918212890625000e+01 -7.205774334422682115e-14 -1.681347389873716347e-13 -7.205774334422682115e-14 -5.104090097080536681e-14
1.733000000000000000e+03 9.157342910766601562e+00 1.531655406951904297e+01 -1.691355389077386917e-13 1.901523745048965680e-14 -4.503609128420765773e-14 -1.030826086382413687e-13
1.734000000000000000e+03 7.148455047607421875e+01 2.195168495178222656e+01 1.301042606982605321e-14 -6.305052373213257400e-14 -1.501202929869195624e-14 3.002406113848275424e-15
1.735000000000000000e+03 6.898406982421875000e+01 1.888354492187500000e+01 7.305854326459387815e-14 -8.306656957331876034e-14 -3.002406113848275424e-15 -7.606094980195862720e-14
1.736000000000000000e+03 6.986029052734375000e+01 1.880515670776367188e+01 -8.757017599123409490e-14 1.225982477429804485e-13 1.050842118671072717e-14 9.407538902614712151e-14
1.737000000000000000e+03 1.333724975585937500e+01 1.914593124389648438e+01 -1.271018609371593611e-13 -1.230986477031639770e-13 -7.506014988159157020e-14 -1.100882199392720293e-14
1.738000000000000000e+03 8.244462013244628906e+00 1.450803565979003906e+01 -1.591275125990138095e-13 6.905533680686207210e-14 -2.702165375408505793e-14 -1.701363422162375377e-14
1.739000000000000000e+03 6.365626525878906250e+01 2.003452682495117188e+01 3.953167816966168813e-14 -2.747201608994248589e-13 -7.055654346367623564e-14 1.976583908483084406e-14
1.740000000000000000e+03 1.782275199890136719e+01 2.276171684265136719e+01 -6.905533680686207210e-14 -2.011612041221202962e-13 -8.106496295632106830e-14 1.663833255742021289e-14
1.741000000000000000e+03 1.519666290283203125e+01 2.211771202087402344e+01 -1.298540539419051898e-13 -1.929045844503013418e-13 -9.682759558342010631e-14 -8.206576287668812530e-14
1.742000000000000000e+03 4.127577209472656250e+01 1.949562263488769531e+01 -2.502005052521915490e-14 3.502807175174635357e-14 3.002406113848275424e-15 1.005806020610601481e-13
1.743000000000000000e+03 8.417768478393554688e+00 2.905975532531738281e+01 2.952365863720038397e-14 1.956567910075743266e-13 6.755413692631148659e-14 5.104090097080536681e-14
1.744000000000000000e+03 6.805200958251953125e+01 1.882489585876464844e+01 3.803047490097931360e-14 -9.807859548387892756e-14 -1.801443583605670529e-14 2.602085213965210642e-14
1.745000000000000000e+03 6.629766082763671875e+01 1.991508865356445312e+01 7.706175649858926224e-14 3.302646513474866152e-14 3.302646513474866152e-14 -1.701363388281057487e-13
1.746000000000000000e+03 6.485400390625000000e+01 1.946345520019531250e+01 6.004811719476782494e-14 -2.001604075898850282e-14 1.200962445539310169e-14 -1.376102736535406157e-13
1.747000000000000000e+03 5.930777740478515625e+01 2.117730331420898438e+01 1.080866150163402317e-13 -6.805453688649501509e-14 1.200962445539310169e-14 6.004812227696550847e-15
1.748000000000000000e+03 7.069347858428955078e+00 1.525701522827148438e+01 -1.901523745048965680e-14 1.291034607778934751e-13 3.302646513474866152e-14 1.881507780522942430e-13
1.749000000000000000e+03 1.847509002685546875e+01 2.373889160156250000e+01 -5.854691731421723944e-14 -1.165934346682509504e-13 -5.254210423948774134e-14 -6.505213034913026604e-14
1.750000000000000000e+03 1.970214080810546875e+01 2.321155548095703125e+01 -5.854691731421723944e-14 -1.165934346682509504e-13 -5.254210423948774134e-14 5.104090097080536681e-14
1.751000000000000000e+03 1.268859386444091797e+01 1.961660385131835938e+01 -2.111692168783180223e-13 -1.591275125990138095e-13 -1.110890215537049808e-13 5.504410996963601463e-15
1.752000000000000000e+03 3.682549667358398438e+01 2.234535026550292969e+01 -3.890617821943227750e-14 9.770329890187307020e-14 1.763913586591905891e-14 -2.201764398785440585e-14
1.753000000000000000e+03 3.435530471801757812e+01 2.100805664062500000e+01 1.376102770416724047e-14 2.877305869692509122e-14 1.276022524270134170e-14 4.803849782157240678e-14
1.754000000000000000e+03 1.770754432678222656e+01 2.538869285583496094e+01 -7.005614350349270714e-14 -3.002405859738391247e-14 -3.002405859738391247e-14 -2.201764398785440585e-14
1.755000000000000000e+03 7.224534606933593750e+01 2.151412391662597656e+01 -1.396118734942747297e-13 -1.055846084391590112e-13 -7.355895000104098469e-14 -7.405934996122451319e-14
1.756000000000000000e+03 7.030771636962890625e+01 2.130880355834960938e+01 -2.902325867701685547e-14 -8.106496295632106830e-14 -3.302646513474866152e-14 -6.705373696612795809e-14
1.757000000000000000e+03 5.767097091674804688e+01 2.252710914611816406e+01 6.705373696612795809e-14 -9.707779556351187056e-14 -9.007217918028352643e-15 7.005614350349270714e-14
1.758000000000000000e+03 5.613246154785156250e+01 2.094863891601562500e+01 1.055846084391590112e-13 -8.056456299613753980e-14 7.506014649345978118e-15 4.203368474684290867e-14
1.759000000000000000e+03 4.169824218750000000e+01 2.036364936828613281e+01 -3.571612000293281075e-14 7.568565491401866435e-15 -8.444267115788935824e-15 7.205774334422682115e-14
1.760000000000000000e+03 3.767371749877929688e+01 2.038628768920898438e+01 -7.756215645877279075e-14 1.251002526260957745e-14 -1.951563910473907981e-14 -6.004812227696550847e-15
1.761000000000000000e+03 3.928839111328125000e+01 2.160240936279296875e+01 -4.003208151797700565e-14 4.003208151797700565e-14 0.000000000000000000e+00 6.505213034913026604e-15
1.762000000000000000e+03 3.130995559692382812e+01 1.935975265502929688e+01 7.255814330441034965e-14 -3.753007494079578510e-14 1.050842118671072717e-14 1.090874217129708668e-13
1.763000000000000000e+03 5.347090148925781250e+01 2.191332054138183594e+01 2.176744400776264160e-14 -2.194258365501369767e-13 -5.929751725449253219e-14 1.180946345488015359e-13
1.764000000000000000e+03 5.368032836914062500e+01 1.977681922912597656e+01 -5.079070099071360256e-14 -2.176744400776264160e-14 -2.176744400776264160e-14 1.441154866884536423e-13
1.765000000000000000e+03 6.739417266845703125e+01 3.051094055175781250e+01 1.951563910473907981e-14 -9.457578898633065001e-14 -2.251804564210382886e-14 1.351082687704252897e-14
1.766000000000000000e+03 5.164308166503906250e+01 2.526522254943847656e+01 -3.377706719260632241e-15 -9.294948572760239336e-14 -2.889815868697097334e-14 8.006416303595401129e-15
1.767000000000000000e+03 4.673025131225585938e+01 2.345228958129882812e+01 -4.053248147816053415e-14 -7.455974992140804170e-14 -3.452766840343103605e-14 1.351082687704252897e-14
1.768000000000000000e+03 1.004109096527099609e+01 3.217074203491210938e+01 4.491099129416177560e-14 1.565004094199184959e-13 6.042342055303726034e-14 4.103288143834406265e-14
1.769000000000000000e+03 9.056413650512695312e+00 3.353342056274414062e+01 6.212791511719245596e-14 1.410036231655129035e-13 6.093946012955889224e-14 3.315156724237691178e-15
1.770000000000000000e+03 2.844145393371582031e+01 1.994894790649414062e+01 -1.753670993143163770e-13 -2.940637845532355354e-14 -6.143204028157336904e-14 1.219727444046192488e-13
1.771000000000000000e+03 2.947697830200195312e+01 1.868301582336425781e+01 -6.605293026949732305e-14 -2.341876692568689577e-13 -9.007218256841531545e-14 5.904731727440076794e-14
1.772000000000000000e+03 2.697540283203125000e+01 2.288215827941894531e+01 -2.141716301919463494e-13 -4.603689120457471473e-14 -7.806255641895631925e-14 -9.357498906596359300e-14
1.773000000000000000e+03 2.569886398315429688e+01 2.409795188903808594e+01 -6.717883356804205119e-14 -5.166640430916656646e-14 -3.565357170197576420e-14 -1.010810020212436766e-13
1.774000000000000000e+03 9.136383056640625000e+00 3.825662612915039062e+01 2.627105211974387067e-14 9.132318246887413671e-14 3.527827173183811782e-14 1.751403587587317678e-14
1.775000000000000000e+03 3.791495895385742188e+01 2.179627609252929688e+01 5.004010189747125706e-15 2.502005052521915490e-14 9.007217918028352643e-15 5.004010189747125706e-15
1.776000000000000000e+03 9.549620628356933594e+00 2.988918113708496094e+01 -1.251002547436781426e-15 1.138412281109779656e-13 3.377706846315574329e-14 2.802245536851800944e-14
1.777000000000000000e+03 6.592485809326171875e+01 3.541865158081054688e+01 5.129110179793007832e-15 -6.642823362776675844e-14 -1.838973750026024617e-14 -7.506014649345978118e-15
1.778000000000000000e+03 7.087226867675781250e+01 1.941171455383300781e+01 -4.303448466720996568e-14 7.305854326459387815e-14 9.007217918028352643e-15 3.602887167211341057e-14
1.779000000000000000e+03 1.331722640991210938e+01 2.082506370544433594e+01 -1.103384216134296880e-13 -4.728789449316532501e-14 -4.728789449316532501e-14 -2.001604075898850282e-14
1.780000000000000000e+03 1.419366455078125000e+01 2.037797355651855469e+01 -7.581074982186686295e-14 1.326062689695076471e-14 -1.876503747039789255e-14 4.903929774193946378e-14
1.781000000000000000e+03 7.796329498291015625e+00 2.321783447265625000e+01 -6.605293026949732305e-14 4.063256079257088205e-13 1.020818019416107336e-13 1.431146867680865853e-13
1.782000000000000000e+03 8.951657295227050781e+00 2.623731994628906250e+01 -2.814755705262978608e-14 3.996953050651452788e-13 1.114643249119744162e-13 9.207378240914942946e-14
1.783000000000000000e+03 9.078255653381347656e+00 1.754932403564453125e+01 -7.606094980195862720e-14 -1.240994476235310340e-13 -6.004811719476782494e-14 -1.341074739322559162e-13
1.784000000000000000e+03 7.255282402038574219e+00 1.735345077514648438e+01 -6.405133042876320904e-14 6.405133042876320904e-14 0.000000000000000000e+00 4.803849782157240678e-14
1.785000000000000000e+03 1.073525142669677734e+01 1.883170509338378906e+01 -9.407538902614712151e-14 -8.606896933441993136e-14 -5.404330750817011586e-14 -5.654531408535133641e-14
1.786000000000000000e+03 7.009731292724609375e+00 1.239449882507324219e+01 -1.611291259922750796e-13 -2.291836696550336727e-13 -1.170938346284344789e-13 -3.202566521438160452e-14
1.787000000000000000e+03 1.285518932342529297e+01 1.864198493957519531e+01 -2.832269737750719996e-13 -2.071660171968497943e-13 -1.471179000020819694e-13 7.180754336413505690e-14
1.788000000000000000e+03 8.047329902648925781e+00 2.235365486145019531e+01 -8.356696953350228885e-14 -8.156536291650459680e-14 -4.953969770212299228e-14 1.070858150959731747e-13
1.789000000000000000e+03 7.871826648712158203e+00 2.058569145202636719e+01 -1.651323256737433076e-14 -9.857899544406245607e-14 -3.452766840343103605e-14 6.204972381176551699e-14
1.790000000000000000e+03 8.895548820495605469e+00 2.482794952392578125e+01 -3.240096518451925089e-14 -1.388612769421312260e-14 -1.388612769421312260e-14 7.405934996122451319e-14
1.791000000000000000e+03 8.329162597656250000e+00 2.555500221252441406e+01 -2.714675374413094006e-14 2.435701922272326403e-13 6.492702697095259490e-14 6.089254805680816007e-14
1.792000000000000000e+03 9.995681762695312500e+00 1.795387268066406250e+01 2.527025050531091915e-14 -2.179246366695863912e-13 -5.779631737394194668e-14 -5.004010105043830980e-14
1.793000000000000000e+03 8.265340805053710938e+00 2.700086021423339844e+01 -2.764715539838036307e-14 1.940304877488460700e-13 4.991500106039242768e-14 1.351082738526229732e-13
1.794000000000000000e+03 7.206150817871093750e+01 2.078907585144042969e+01 -1.080866150163402317e-13 -9.207378240914942946e-14 -6.004811719476782494e-14 -1.491194998428160834e-13
1.795000000000000000e+03 6.997563934326171875e+01 1.960331344604492188e+01 6.505213034913026604e-14 -1.551243129175455815e-13 -2.702165375408505793e-14 -9.007218256841531545e-14
1.796000000000000000e+03 9.676483154296875000e+00 2.689735984802246094e+01 -1.150922280114367868e-14 2.466976818139843264e-13 7.055654346367623564e-14 6.204972381176551699e-14
1.797000000000000000e+03 9.910003662109375000e+00 1.560103797912597656e+01 1.601283260719080226e-14 -1.601283260719080226e-14 0.000000000000000000e+00 -2.802245536851800944e-14
1.798000000000000000e+03 1.188084220886230469e+01 1.772681427001953125e+01 -1.015814019814272051e-13 -2.637113346703329197e-13 -1.095878216731543953e-13 -8.982198258832355120e-14
1.799000000000000000e+03 6.711742401123046875e+01 1.970563125610351562e+01 4.003208151797700565e-15 -4.403528797570881170e-14 -1.200962445539310169e-14 -7.105694342385976414e-14
1.800000000000000000e+03 8.920087814331054688e+00 1.608839035034179688e+01 -7.506014988159157020e-14 -5.504411081666896188e-14 -3.903127820947815962e-14 -1.000802037949425141e-14
1.801000000000000000e+03 9.450776100158691406e+00 2.402271270751953125e+01 -4.753809447325708926e-14 1.626303258728256651e-13 3.452766840343103605e-14 5.704571743366665393e-14
1.802000000000000000e+03 1.683561325073242188e+01 2.329103660583496094e+01 -1.291034607778934751e-13 -1.811451650571976879e-13 -9.307458910578006450e-14 1.000802037949425141e-15
1.803000000000000000e+03 7.070478820800781250e+01 1.859768486022949219e+01 1.100882216333379238e-13 -9.007218256841531545e-14 6.004812227696550847e-15 -1.150922347877003649e-13
1.804000000000000000e+03 8.063961029052734375e+00 2.142308998107910156e+01 -1.551243095294137925e-14 1.306046606584440606e-13 3.452766840343103605e-14 1.741395520621011328e-13
1.805000000000000000e+03 2.354314994812011719e+01 2.425590705871582031e+01 -8.556856937423640286e-14 -5.954771723458429644e-14 -4.353488801552528320e-14 -6.134603594424095641e-14
1.806000000000000000e+03 8.377717018127441406e+00 1.965052986145019531e+01 -4.328468803543351895e-14 -6.430153040885497329e-14 -3.227586519447336877e-14 -2.602085213965210642e-14
1.807000000000000000e+03 8.897185325622558594e+00 2.111426544189453125e+01 -6.780433690640325084e-14 -7.480994990149980595e-14 -4.278428468711820143e-14 -1.501202929869195624e-14
1.808000000000000000e+03 1.616027069091796875e+01 2.455253791809082031e+01 -6.505213034913026604e-14 1.551243129175455815e-13 2.702165375408505793e-14 3.052446194569922999e-14
1.809000000000000000e+03 8.653247833251953125e+00 1.878775215148925781e+01 -5.454371085648543338e-14 2.196760433064923190e-13 4.953969770212299228e-14 -1.223480409866251062e-13
1.810000000000000000e+03 5.351182937622070312e+01 2.068231773376464844e+01 2.251804564210382886e-14 3.252606517456513302e-14 1.651323256737433076e-14 3.102486190588275849e-14
1.811000000000000000e+03 6.805022430419921875e+01 1.975470733642578125e+01 5.104090097080536681e-14 -1.000802037949425141e-15 1.501202929869195624e-14 -8.606896933441993136e-14
1.812000000000000000e+03 2.790245246887207031e+01 2.231377601623535156e+01 -1.964699426369384549e-13 -1.557498094796432031e-14 -6.361347538140493807e-14 -9.307458910578006450e-14
1.813000000000000000e+03 6.918487548828125000e+01 2.537712669372558594e+01 -2.652125379390152943e-14 9.157338244896590096e-14 1.951563910473907981e-14 1.501202929869195624e-14
1.814000000000000000e+03 6.976177215576171875e+01 2.418150138854980469e+01 -2.552045048540268340e-14 8.056456299613753980e-14 1.651323256737433076e-14 -1.000802037949425141e-14
1.815000000000000000e+03 2.030377769470214844e+01 2.448740577697753906e+01 -4.328468803543351895e-14 -6.430153040885497329e-14 -3.227586519447336877e-14 -8.506816941405287436e-14
1.816000000000000000e+03 1.023933982849121094e+01 1.655386924743652344e+01 -5.904731727440076794e-14 8.907137587178468041e-14 9.007217918028352643e-15 8.606896933441993136e-14
1.817000000000000000e+03 6.900495147705078125e+01 2.739709472656250000e+01 5.429350748826188011e-14 2.326864727644501613e-14 2.326864727644501613e-14 -5.104090097080536681e-14
1.818000000000000000e+03 6.908267974853515625e+01 3.028185462951660156e+01 4.603689120457471473e-14 -1.861491782115601290e-13 -4.203368474684290867e-14 -4.503608959014176322e-15
1.819000000000000000e+03 6.931618499755859375e+01 2.153963661193847656e+01 -8.506816941405287436e-14 -1.050842084789754827e-13 -5.704571743366665393e-14 -3.002405859738391247e-14
1.820000000000000000e+03 5.810323333740234375e+01 2.091966629028320312e+01 9.032238254850707970e-14 -5.279230421957950559e-14 1.125902282105191443e-14 1.441154866884536423e-13
1.821000000000000000e+03 4.969004058837890625e+01 2.623143386840820312e+01 -3.377706719260632241e-15 -1.288532607978017108e-14 -4.878909776184769953e-15 5.654531408535133641e-14
1.822000000000000000e+03 4.709482192993164062e+01 2.515258979797363281e+01 1.751403460532375590e-15 7.506015284620688559e-16 7.506015284620688559e-16 4.753809447325708926e-14
1.823000000000000000e+03 6.133582687377929688e+01 2.183293151855468750e+01 4.891419775189358166e-14 -2.077915205352109940e-13 -4.766319446330297138e-14 -5.979791721467606069e-14
1.824000000000000000e+03 5.507266616821289062e+01 2.096232223510742188e+01 3.527827173183811782e-14 -1.678845322310162924e-13 -3.978187814975345238e-14 1.971579908881249121e-13
1.825000000000000000e+03 5.231044006347656250e+01 2.167860603332519531e+01 -4.153328478665938017e-14 -6.355093046857968053e-14 -3.152526186606628700e-14 6.104892389139845998e-14
1.826000000000000000e+03 4.530915832519531250e+01 2.233868789672851562e+01 -2.151724233360498284e-14 -1.235990476633475055e-13 -4.353488801552528320e-14 5.404330750817011586e-14
1.827000000000000000e+03 4.148961257934570312e+01 2.205377388000488281e+01 -2.702165375408505793e-14 5.704571743366665393e-14 9.007217918028352643e-15 7.831275639904808350e-14
1.828000000000000000e+03 2.980222892761230469e+01 1.994697570800781250e+01 -9.507618894651417851e-14 1.251002475438980910e-13 9.007217918028352643e-15 2.802245536851800944e-14
1.829000000000000000e+03 3.785368347167968750e+01 2.324480628967285156e+01 2.251804564210382886e-14 3.252606517456513302e-14 1.651323256737433076e-14 1.701363422162375377e-14
1.830000000000000000e+03 3.522459030151367188e+01 2.186701965332031250e+01 -1.225356892776280349e-13 -9.826624377488185624e-14 -6.624058533676382976e-14 -2.802245536851800944e-14
1.831000000000000000e+03 1.315285301208496094e+01 3.424964904785156250e+01 2.739695541828859882e-14 6.893024020494797899e-14 2.889815868697097334e-14 1.651323256737433076e-14
1.832000000000000000e+03 5.556793212890625000e+01 2.020011520385742188e+01 9.657739560332834206e-14 -4.153328478665938017e-14 1.651323256737433076e-14 9.983000212078485536e-14
1.833000000000000000e+03 2.864201164245605469e+01 2.337858963012695312e+01 -1.388925595629392218e-13 9.101042910562764238e-15 -3.893745406397669528e-14 -2.401924891078620339e-14
1.834000000000000000e+03 1.058015918731689453e+01 2.738099670410156250e+01 -9.382518904605535726e-14 5.129110433902892008e-14 -1.276022524270134170e-14 7.105694342385976414e-14
1.835000000000000000e+03 6.331570816040039062e+01 2.197897338867187500e+01 3.002405859738391247e-14 -2.502004950877961820e-13 -6.605293026949732305e-14 1.751403460532375590e-15
1.836000000000000000e+03 6.439691925048828125e+01 2.117202949523925781e+01 5.604491073703601889e-14 -1.601283260719080226e-14 1.200962445539310169e-14 -1.256006475040816195e-13
1.837000000000000000e+03 6.543038940429687500e+01 2.048171806335449219e+01 5.354290754798658736e-14 -1.486190998826325549e-13 -2.852285871683332696e-14 2.602085213965210642e-14
1.838000000000000000e+03 5.112860488891601562e+01 2.181656265258789062e+01 -2.401924891078620339e-14 -5.604491073703601889e-14 -2.401924891078620339e-14 3.953167816966168813e-14
1.839000000000000000e+03 4.985728454589843750e+01 2.325176811218261719e+01 1.914033913460143344e-14 -6.042342055303726034e-14 -1.238492442553074807e-14 1.100882199392720293e-14
1.840000000000000000e+03 6.963045501708984375e+01 2.248408317565917969e+01 3.052446194569922999e-14 -5.554451077685249039e-14 -7.506014649345978118e-15 -2.902325867701685547e-14
1.841000000000000000e+03 7.204376220703125000e+01 2.495922851562500000e+01 1.501203056924137712e-15 2.351884725653678038e-14 7.506014649345978118e-15 -3.702967498061225660e-14
1.842000000000000000e+03 7.034994506835937500e+01 2.719359016418457031e+01 1.951563910473907981e-14 -1.451162933850842773e-14 1.501203056924137712e-15 7.506014649345978118e-15
1.843000000000000000e+03 6.840414428710937500e+01 3.454001235961914062e+01 3.114996189592864062e-14 -1.124651248323414732e-13 -2.439454888092384977e-14 -1.200962445539310169e-14
1.844000000000000000e+03 4.611537551879882812e+01 2.073534774780273438e+01 2.401924891078620339e-14 -1.040834085586084257e-13 -2.401924891078620339e-14 9.007217918028352643e-15
1.845000000000000000e+03 1.163812637329101562e+01 3.666744232177734375e+01 8.272253867146195372e-14 5.832798979053810395e-14 4.231516057147909071e-14 -9.007217918028352643e-15
1.846000000000000000e+03 8.428696632385253906e+00 4.096689224243164062e+01 7.155734338404329264e-14 1.336070739720723877e-13 6.154932385158198849e-14 -7.005613842129502361e-15
1.847000000000000000e+03 1.096196079254150391e+01 2.085849952697753906e+01 -2.947361864118203112e-13 -8.056456299613753980e-14 -1.125902282105191443e-13 -8.006416303595401129e-15
1.848000000000000000e+03 1.475016307830810547e+01 2.395936965942382812e+01 -1.055846084391590112e-13 1.606287260320915511e-13 1.651323256737433076e-14 2.702165375408505793e-14
1.849000000000000000e+03 1.017028808593750000e+01 2.861603927612304688e+01 2.502005094873562853e-16 1.373600804497124295e-13 4.128308141843582690e-14 3.002405859738391247e-14
1.850000000000000000e+03 1.030844116210937500e+01 2.465436744689941406e+01 -7.896953282909662235e-16 1.516136798355646742e-13 4.524719561158595249e-14 8.464986388711723264e-14
1.851000000000000000e+03 9.597049713134765625e+00 1.768815803527832031e+01 -5.904731727440076794e-14 -7.105694342385976414e-14 -3.903127820947815962e-14 4.903929774193946378e-14
1.852000000000000000e+03 9.359656333923339844e+00 1.993005752563476562e+01 -1.311050606186275891e-13 -7.906335633932337625e-14 -6.305052373213257400e-14 -4.753809447325708926e-14
1.853000000000000000e+03 9.028874397277832031e+00 1.926680564880371094e+01 -3.502807175174635357e-14 1.451162866088206993e-13 3.302646513474866152e-14 1.010810020212436766e-13
1.854000000000000000e+03 9.700847625732421875e+00 1.883112144470214844e+01 -5.004010105043830980e-14 -1.000802037949425141e-14 -1.801443583605670529e-14 -4.603689120457471473e-14
1.855000000000000000e+03 8.989446640014648438e+00 2.265472030639648438e+01 -1.626303258728256651e-14 1.989093975250308399e-13 5.479391083657719763e-14 3.803047490097931360e-14
1.856000000000000000e+03 7.035981750488281250e+01 2.314340591430664062e+01 -4.253408470702643718e-14 1.075862150561567032e-13 1.951563910473907981e-14 6.004812227696550847e-15
1.857000000000000000e+03 6.801389312744140625e+01 2.075599670410156250e+01 -1.060850151756061177e-13 4.603689120457471473e-14 -1.801443583605670529e-14 -1.100882199392720293e-14
1.858000000000000000e+03 8.048404693603515625e+00 1.670104026794433594e+01 -3.202566521438160452e-14 3.202566521438160452e-14 0.000000000000000000e+00 4.003208151797700565e-14
1.859000000000000000e+03 1.087718963623046875e+01 1.785521125793457031e+01 -1.531227130768114675e-13 -2.371900690179701288e-13 -1.170938346284344789e-13 -7.418444656313860630e-14
1.860000000000000000e+03 9.317479133605957031e+00 1.692360305786132812e+01 -8.006416303595401129e-14 -8.006416303595401129e-14 -4.803849782157240678e-14 -1.301042606982605321e-14
1.861000000000000000e+03 9.615519523620605469e+00 2.063758659362792969e+01 -1.240994476235310340e-13 8.406736949368581735e-14 -1.200962445539310169e-14 1.681347389873716347e-13
1.862000000000000000e+03 8.608643531799316406e+00 2.031737518310546875e+01 -1.080866150163402317e-13 2.281828697346666157e-13 3.602887167211341057e-14 1.120898214740720378e-13
1.863000000000000000e+03 1.245929622650146484e+01 2.104726600646972656e+01 -1.235990476633475055e-13 3.853087824929463112e-14 -2.552045048540268340e-14 8.606896933441993136e-14
1.864000000000000000e+03 8.609519958496093750e+00 2.354044151306152344e+01 5.604491073703601889e-14 2.401924891078620339e-14 2.401924891078620339e-14 1.070858150959731747e-13
1.865000000000000000e+03 1.155434703826904297e+01 2.180191612243652344e+01 -1.631307258330091936e-13 1.130906281707026728e-13 -1.501202929869195624e-14 6.805453688649501509e-14
1.866000000000000000e+03 6.624938964843750000e+01 2.139511680603027344e+01 7.906335633932337625e-14 -2.902325867701685547e-14 1.501202929869195624e-14 -1.889639296816583713e-13
1.867000000000000000e+03 1.177891826629638672e+01 1.870297622680664062e+01 -1.180946345488015359e-13 -3.022421993671003948e-13 -1.261010474642651480e-13 -3.953167816966168813e-14
1.868000000000000000e+03 1.212583446502685547e+01 2.001151275634765625e+01 -1.000802021008766196e-13 -1.000802021008766196e-13 -6.004811719476782494e-14 6.630313024958908730e-14
1.869000000000000000e+03 1.218823051452636719e+01 2.439092063903808594e+01 -2.401924891078620339e-14 1.040834085586084257e-13 2.401924891078620339e-14 1.281026608575264181e-13
1.870000000000000000e+03 1.084457111358642578e+01 2.545541000366210938e+01 4.353488801552528320e-14 2.016616040823038247e-13 7.355895000104098469e-14 -1.901523745048965680e-14
1.871000000000000000e+03 7.121691894531250000e+01 2.106510734558105469e+01 -2.251804564210382886e-14 -1.926543912464731556e-13 -6.455173038894673754e-14 4.203368474684290867e-14
1.872000000000000000e+03 1.508597946166992188e+01 2.482179069519042969e+01 -1.015814019814272051e-13 -2.837273601827283720e-13 -1.155926347478838934e-13 -5.504411081666896188e-14
1.873000000000000000e+03 1.238188076019287109e+01 2.044956588745117188e+01 -2.161732300326804634e-13 -1.841475648182988589e-13 -1.200962343895356499e-13 -2.602085213965210642e-14
1.874000000000000000e+03 1.167604541778564453e+01 2.105374336242675781e+01 -1.386110735739076727e-13 -1.966575909279413836e-13 -1.005806020610601481e-13 1.020818019416107336e-13
1.875000000000000000e+03 1.436954784393310547e+01 2.232299232482910156e+01 -7.656135653840573374e-14 8.156536291650459680e-14 1.501203056924137712e-15 2.121700303512122354e-13
1.876000000000000000e+03 1.548998546600341797e+01 2.285248184204101562e+01 -1.931547912066566841e-13 -3.702967498061225660e-14 -6.905533680686207210e-14 1.801443583605670529e-14
1.877000000000000000e+03 5.517335891723632812e+01 2.349439239501953125e+01 8.156536291650459680e-14 -9.657739560332834206e-14 -4.503608959014176322e-15 1.175942362826839019e-14
1.878000000000000000e+03 6.773711395263671875e+01 2.320594024658203125e+01 1.501202929869195624e-14 -5.004010189747125706e-15 3.002406113848275424e-15 -4.991500106039242768e-14
1.879000000000000000e+03 1.137565803527832031e+01 1.730060768127441406e+01 -1.088372149566155245e-13 -2.939855932478085965e-13 -1.208468411060745207e-13 1.130280764816138372e-13
1.880000000000000000e+03 1.804976272583007812e+01 2.678386116027832031e+01 3.953167816966168813e-14 5.504410996963601463e-15 1.351082687704252897e-14 4.303448466720996568e-14
1.881000000000000000e+03 6.902602386474609375e+01 1.972718048095703125e+01 -4.453568793589234021e-14 4.953969770212299228e-14 1.501203056924137712e-15 3.002405859738391247e-14
1.882000000000000000e+03 6.696606445312500000e+01 2.057014846801757812e+01 -2.426944889087796764e-14 -1.934049844104848703e-13 -6.530233032922203029e-14 -4.803849782157240678e-14
1.883000000000000000e+03 1.901250648498535156e+01 2.500960922241210938e+01 2.502005094873562853e-15 -6.755413692631148659e-14 -1.951563910473907981e-14 3.702967498061225660e-14
1.884000000000000000e+03 2.924223136901855469e+01 2.063243103027343750e+01 -1.183448413051568782e-13 4.078268145825229840e-14 -2.326864727644501613e-14 2.101684237342145434e-14
1.885000000000000000e+03 6.599622344970703125e+01 2.504366493225097656e+01 2.101684237342145434e-14 -3.102486190588275849e-14 -3.002406113848275424e-15 -2.983641030638098379e-14
1.886000000000000000e+03 5.477680206298828125e+01 2.214207458496093750e+01 5.854691731421723944e-14 -4.353488801552528320e-14 4.503608959014176322e-15 3.602887167211341057e-14
1.887000000000000000e+03 6.284785461425781250e+01 2.401174163818359375e+01 2.426944889087796764e-14 -1.268516541808040188e-13 -3.077466192579099424e-14 -6.004812227696550847e-15
1.888000000000000000e+03 1.075352287292480469e+01 3.072158050537109375e+01 6.079872391130669573e-14 7.180754336413505690e-14 3.978187814975345238e-14 2.001604075898850282e-15
1.889000000000000000e+03 7.103000640869140625e+01 2.023056793212890625e+01 8.506816941405287436e-14 -5.504411081666896188e-14 9.007217918028352643e-15 2.001604075898850282e-14
1.890000000000000000e+03 2.338512229919433594e+01 2.668859100341796875e+01 -1.901523745048965680e-14 -5.104090097080536681e-14 -2.101684237342145434e-14 -5.654531408535133641e-14
1.891000000000000000e+03 3.563772964477539062e+01 2.453472518920898438e+01 8.006416303595401129e-15 -8.006416303595401129e-15 0.000000000000000000e+00 2.877305869692509122e-14
1.892000000000000000e+03 3.368022155761718750e+01 2.209279441833496094e+01 2.064154070921791345e-14 -3.690457499056637447e-14 -4.878909776184769953e-15 -2.201764398785440585e-14
1.893000000000000000e+03 9.064867973327636719e+00 2.790693092346191406e+01 -2.864795870687920909e-14 1.249751441657204198e-13 2.889815868697097334e-14 7.706175649858926224e-14
1.894000000000000000e+03 4.060964584350585938e+01 2.106696128845214844e+01 -3.190056522433572239e-14 -5.942262063267020333e-14 -2.739695541828859882e-14 9.607699564314481355e-14
1.895000000000000000e+03 6.226910018920898438e+01 2.284069633483886719e+01 1.801443583605670529e-14 -7.806255641895631925e-14 -1.801443583605670529e-14 -6.980593674713736485e-14
1.896000000000000000e+03 1.369326114654541016e+01 2.401217460632324219e+01 -6.380113044867144478e-14 -1.188452412653404067e-13 -5.479391083657719763e-14 9.407538902614712151e-14
1.897000000000000000e+03 9.493532180786132812e+00 1.824078750610351562e+01 5.654531408535133641e-14 2.987393860932885392e-13 1.065854151357896462e-13 -5.404330750817011586e-14
1.898000000000000000e+03 1.033851146697998047e+01 1.837993049621582031e+01 3.202566521438160452e-14 1.281026608575264181e-13 4.803849782157240678e-14 7.956375629950690476e-14
1.899000000000000000e+03 1.119049549102783203e+01 1.925472640991210938e+01 4.003208151797700565e-15 -8.406736949368581735e-14 -2.401924891078620339e-14 4.203368474684290867e-14
1.900000000000000000e+03 1.124035739898681641e+01 2.021171569824218750e+01 -5.004010105043830980e-14 -1.000802037949425141e-14 -1.801443583605670529e-14 8.006416303595401129e-14
1.901000000000000000e+03 1.041137981414794922e+01 1.746127891540527344e+01 -1.251002475438980910e-13 -2.652125209983563492e-13 -1.170938346284344789e-13 1.029575052600636975e-13
1.902000000000000000e+03 1.132390594482421875e+01 1.827537155151367188e+01 4.766319446330297138e-14 6.617803364767499419e-14 3.415236843329338967e-14 1.100882216333379238e-13
1.903000000000000000e+03 1.168106269836425781e+01 1.964489555358886719e+01 -4.053248147816053415e-14 -5.454371085648543338e-14 -2.852285871683332696e-14 5.629511410525957216e-14
1.904000000000000000e+03 7.055696105957031250e+01 2.222057914733886719e+01 -3.702967498061225660e-14 1.671339390670045777e-13 3.903127820947815962e-14 -5.604491073703601889e-14
1.905000000000000000e+03 6.865546417236328125e+01 2.279366874694824219e+01 -1.451162933850842773e-14 3.953167816966168813e-14 7.506014649345978118e-15 -6.054852393121493148e-14
1.906000000000000000e+03 1.247264671325683594e+01 2.180536460876464844e+01 -7.906335633932337625e-14 -1.711371387484728057e-13 -7.506014988159157020e-14 1.371098736933570872e-13
1.907000000000000000e+03 1.366847610473632812e+01 2.324278831481933594e+01 -7.956375629950690476e-14 1.946559910872072696e-13 3.452766840343103605e-14 1.100882216333379238e-13
1.908000000000000000e+03 1.646320343017578125e+01 2.561553001403808594e+01 -9.507618725244828400e-15 -9.557658890669770702e-14 -3.152526186606628700e-14 4.453568793589234021e-14
1.909000000000000000e+03 1.153859519958496094e+01 2.740747451782226562e+01 3.402726844324750755e-14 1.060850151756061177e-13 4.203368474684290867e-14 -3.402726844324750755e-14
1.910000000000000000e+03 6.839479064941406250e+01 2.641352081298828125e+01 -6.255012377194904549e-14 -2.326864558237912162e-13 -8.857097591160115191e-14 -2.076664239332969009e-14
1.911000000000000000e+03 6.692433929443359375e+01 2.401791381835937500e+01 4.428548795580057595e-14 -9.682759558342010631e-14 -1.576263093303314350e-14 -2.695910375906211687e-14
1.912000000000000000e+03 3.290277481079101562e+01 2.320837211608886719e+01 -4.553649124439118623e-14 5.004010189747125706e-16 -1.351082687704252897e-14 1.488692930864607411e-14
1.913000000000000000e+03 2.956166267395019531e+01 2.461508178710937500e+01 -1.075862150561567032e-13 4.253408470702643718e-14 -1.951563910473907981e-14 -8.619407271259760250e-14
1.914000000000000000e+03 3.077919578552246094e+01 2.593617439270019531e+01 -1.191579929345210065e-13 2.220529397292322904e-14 -2.908580697797390202e-14 -2.370649724160560357e-14
1.915000000000000000e+03 4.381628417968750000e+01 2.159127616882324219e+01 -4.028228149806876990e-14 -1.726383420171551802e-14 -1.726383420171551802e-14 7.606094980195862720e-14
1.916000000000000000e+03 4.290626525878906250e+01 2.359642410278320312e+01 -7.255814669254213867e-15 1.976583908483084406e-14 3.753007324672989059e-15 6.305052373213257400e-14
1.917000000000000000e+03 5.605001449584960938e+01 2.500054168701171875e+01 3.002405859738391247e-14 -1.301042606982605321e-13 -3.002405859738391247e-14 5.104090097080536681e-14
1.918000000000000000e+03 5.347084045410156250e+01 2.435787773132324219e+01 5.254210423948774134e-14 -1.751403587587317678e-14 1.050842118671072717e-14 9.983000212078485536e-14
1.919000000000000000e+03 2.236712646484375000e+01 2.517609214782714844e+01 -1.551243095294137925e-14 -4.953969770212299228e-14 -1.951563910473907981e-14 -1.595028227335468229e-13
1.920000000000000000e+03 6.520542144775390625e+01 2.220942687988281250e+01 -1.651323256737433076e-14 -2.987393860932885392e-13 -9.457578898633065001e-14 -2.789735537847212732e-14
1.921000000000000000e+03 6.642000579833984375e+01 2.702610015869140625e+01 -5.504410996963601463e-15 -9.957980214069309111e-14 -3.152526186606628700e-14 -2.502005094873562853e-15
1.922000000000000000e+03 9.955230712890625000e+00 2.318354606628417969e+01 -1.301042606982605321e-14 6.305052373213257400e-14 1.501202929869195624e-14 8.606896933441993136e-14
1.923000000000000000e+03 1.197348499298095703e+01 2.831655502319335938e+01 3.552847171192988207e-14 6.955573676704560060e-14 3.152526186606628700e-14 4.697514282398472518e-14
1.924000000000000000e+03 5.000814819335937500e+01 2.192998504638671875e+01 -6.505213034913026604e-15 -4.853889778175593528e-14 -1.651323256737433076e-14 -1.601283260719080226e-14
1.925000000000000000e+03 5.122710800170898438e+01 2.345757102966308594e+01 6.255012631304788726e-15 -8.757017937936588392e-15 -7.506015284620688559e-16 4.653729455289003225e-14
1.926000000000000000e+03 1.140509223937988281e+01 2.272619056701660156e+01 -3.177546523428984027e-14 9.257418745153064149e-15 -6.755413438521264483e-15 1.110890215537049808e-13
1.927000000000000000e+03 1.438780117034912109e+01 2.545100212097167969e+01 4.503608959014176322e-15 7.055654346367623564e-14 2.251804564210382886e-14 7.506014988159157020e-14
1.928000000000000000e+03 1.023251247406005859e+01 3.495435333251953125e+01 5.454371085648543338e-14 1.306046606584440606e-13 5.554451077685249039e-14 1.976583908483084406e-14
1.929000000000000000e+03 1.131478118896484375e+01 2.934001922607421875e+01 -2.251804564210382886e-14 1.276022608973428896e-13 3.152526186606628700e-14 2.301844560228735737e-14
1.930000000000000000e+03 5.850768280029296875e+01 2.878160476684570312e+01 1.751403587587317678e-14 -1.526222995641007829e-13 -4.053248147816053415e-14 3.127506188597452275e-14
1.931000000000000000e+03 5.944001388549804688e+01 2.393439865112304688e+01 5.954771723458429644e-14 -1.346078738924394447e-13 -2.251804564210382886e-14 -3.502806921064751181e-15
1.932000000000000000e+03 3.943785476684570312e+01 2.342435073852539062e+01 -3.127506188597452275e-14 1.238492544197028478e-13 2.777225538842624519e-14 4.153328478665938017e-14
1.933000000000000000e+03 4.879290390014648438e+01 2.440328788757324219e+01 -4.534883956525646853e-14 -1.566880577109214245e-13 -6.061106884404018902e-14 2.101684237342145434e-14
1.934000000000000000e+03 4.517540359497070312e+01 2.546887397766113281e+01 -1.526223097284961500e-14 -5.229190425939597708e-14 -2.026624073908026707e-14 2.902325867701685547e-14
1.935000000000000000e+03 3.078668403625488281e+01 2.328072357177734375e+01 -1.034891844529234328e-13 1.188139620326641999e-13 4.597434375065061543e-15 -5.363673084645510444e-15
1.936000000000000000e+03 2.484357452392578125e+01 2.552013969421386719e+01 -6.530233032922203029e-14 -1.225982443548486595e-14 -2.326864727644501613e-14 -1.182197379269792070e-13
1.937000000000000000e+03 2.175872611999511719e+01 2.757180595397949219e+01 1.050842118671072717e-14 -3.552847171192988207e-14 -7.506014649345978118e-15 -1.013312020013354409e-13
1.938000000000000000e+03 1.008635520935058594e+01 1.941613006591796875e+01 -5.066560184770066769e-15 1.808324133880170881e-13 5.272975591862245903e-14 9.457578898633065001e-14
1.939000000000000000e+03 9.893910408020019531e+00 1.714491081237792969e+01 -1.050842084789754827e-13 -2.852285736158061136e-13 -1.170938346284344789e-13 -4.353488801552528320e-14
1.940000000000000000e+03 1.062202930450439453e+01 1.988212776184082031e+01 -1.701363388281057487e-13 1.501202997631831404e-13 -6.004812227696550847e-15 -1.713873421166963590e-14
1.941000000000000000e+03 1.180387687683105469e+01 2.045785331726074219e+01 -1.281026608575264181e-13 1.281026608575264181e-13 0.000000000000000000e+00 1.961571909677578551e-13
1.942000000000000000e+03 1.535027790069580078e+01 2.571599578857421875e+01 -5.904731727440076794e-14 8.907137587178468041e-14 9.007217918028352643e-15 -5.104090097080536681e-14
1.943000000000000000e+03 1.408188152313232422e+01 2.654151535034179688e+01 -1.851483749030612830e-14 -7.656135653840573374e-14 -2.852285871683332696e-14 -8.807057595141762341e-14
1.944000000000000000e+03 1.348381900787353516e+01 2.247658729553222656e+01 -5.504411081666896188e-14 -2.752205473070812314e-13 -9.907939540424598457e-14 -3.903127820947815962e-14
1.945000000000000000e+03 1.335786056518554688e+01 2.493951416015625000e+01 -6.505213034913026604e-15 1.115894215138885093e-13 3.152526186606628700e-14 -5.304250758780305885e-14
1.946000000000000000e+03 6.861922454833984375e+01 2.375488853454589844e+01 -4.103288143834406265e-14 -2.902325867701685547e-14 -2.101684237342145434e-14 -6.104892389139845998e-14
1.947000000000000000e+03 1.663982582092285156e+01 2.689059829711914062e+01 -4.803849782157240678e-14 4.803849782157240678e-14 0.000000000000000000e+00 -2.451964887096973189e-14
1.948000000000000000e+03 1.016457653045654297e+01 2.601251602172851562e+01 1.342325637579064312e-13 1.947810944653849408e-13 9.870409882224012721e-14 5.204170427930421283e-14
1.949000000000000000e+03 1.493042182922363281e+01 2.955764198303222656e+01 1.263512525265545958e-14 5.116600096085124894e-14 1.914033913460143344e-14 4.503609128420765773e-14
1.950000000000000000e+03 3.734866714477539062e+01 2.497041511535644531e+01 -5.104090097080536681e-14 8.106496295632106830e-14 9.007217918028352643e-15 -3.377706846315574329e-14
1.951000000000000000e+03 9.478425979614257812e+00 2.183552932739257812e+01 -5.104090097080536681e-14 1.611291259922750796e-13 3.302646513474866152e-14 1.038332085785166614e-13
1.952000000000000000e+03 5.058878326416015625e+01 2.835691261291503906e+01 2.977385861729214822e-14 -2.727185542824271669e-14 7.506015284620688559e-16 1.476182931860019198e-14
1.953000000000000000e+03 1.215537643432617188e+01 3.150298690795898438e+01 1.351082687704252897e-14 5.154130431912068433e-14 1.951563910473907981e-14 -1.351082687704252897e-14
1.954000000000000000e+03 1.421337032318115234e+01 3.792382812500000000e+01 7.155734338404329264e-14 5.354290754798658736e-14 3.753007494079578510e-14 2.877305700285919671e-15
1.955000000000000000e+03 2.798829650878906250e+01 2.581389427185058594e+01 -9.007218256841531545e-14 1.100882216333379238e-13 6.004812227696550847e-15 -1.114643249119744162e-13
1.956000000000000000e+03 4.528603744506835938e+01 2.366044235229492188e+01 -3.202566521438160452e-14 -4.803849782157240678e-14 -2.401924891078620339e-14 5.254210423948774134e-14
1.957000000000000000e+03 6.602688598632812500e+01 2.315559387207031250e+01 4.203368474684290867e-14 -1.020818019416107336e-13 -1.801443583605670529e-14 -1.044587119168778611e-13
1.958000000000000000e+03 3.917304992675781250e+01 2.540365028381347656e+01 -4.853889778175593528e-14 1.351082687704252897e-14 -1.050842118671072717e-14 3.753007494079578510e-14
1.959000000000000000e+03 3.335132217407226562e+01 2.552135848999023438e+01 -1.163432363822250806e-14 1.788933584601082316e-14 1.876503662336494530e-15 -3.302646513474866152e-14
1.960000000000000000e+03 1.282075595855712891e+01 2.882919311523437500e+01 -3.352686848306397904e-14 8.506817110811876886e-15 -7.506014649345978118e-15 4.803849782157240678e-14
1.961000000000000000e+03 1.392524337768554688e+01 3.027621459960937500e+01 3.152526186606628700e-14 9.357498906596359300e-14 3.753007494079578510e-14 -2.652125379390152943e-14
1.962000000000000000e+03 4.116449737548828125e+01 2.359184646606445312e+01 -2.627105211974387067e-14 6.880513682677030785e-14 1.276022524270134170e-14 5.404330750817011586e-14
1.963000000000000000e+03 4.089139175415039062e+01 2.782515716552734375e+01 -1.000802037949425141e-14 3.002405859738391247e-14 6.004812227696550847e-15 4.003208151797700565e-14
1.964000000000000000e+03 2.003361511230468750e+01 2.816674995422363281e+01 8.506816941405287436e-14 2.502005052521915490e-14 3.302646513474866152e-14 -4.153328478665938017e-14
1.965000000000000000e+03 6.798535156250000000e+01 2.472812080383300781e+01 4.403528797570881170e-14 3.602887167211341057e-14 2.401924891078620339e-14 -3.102486190588275849e-14
1.966000000000000000e+03 6.719754791259765625e+01 2.577258110046386719e+01 2.802245536851800944e-14 5.204170427930421283e-14 2.401924891078620339e-14 2.877305869692509122e-14
1.967000000000000000e+03 4.762351989746093750e+01 2.717931365966796875e+01 4.078268145825229840e-14 -2.827265704267566820e-14 3.753007324672989059e-15 6.755413438521264483e-15
1.968000000000000000e+03 4.539923095703125000e+01 2.775163459777832031e+01 -2.702165375408505793e-14 -2.301844560228735737e-14 -1.501202929869195624e-14 7.305854326459387815e-14
1.969000000000000000e+03 1.028785896301269531e+01 2.057320404052734375e+01 -2.602085213965210642e-14 -1.941555911270237411e-13 -6.605293026949732305e-14 7.606094980195862720e-14
1.970000000000000000e+03 1.248815822601318359e+01 2.272113418579101562e+01 -1.486190998826325549e-13 7.355895000104098469e-14 -2.251804564210382886e-14 1.080866150163402317e-13
1.971000000000000000e+03 1.037230300903320312e+01 2.234996986389160156e+01 -9.657739560332834206e-14 1.416134868875359998e-13 1.351082687704252897e-14 -2.502005052521915490e-14
1.972000000000000000e+03 1.000704002380371094e+01 2.120362091064453125e+01 -2.096680169977674368e-13 1.846479647784823874e-13 -7.506014649345978118e-15 1.200962445539310169e-14
1.973000000000000000e+03 1.103035259246826172e+01 2.376330947875976562e+01 -4.503609128420765773e-14 9.507618894651417851e-14 1.501202929869195624e-14 -2.802245536851800944e-14
1.974000000000000000e+03 1.183992958068847656e+01 2.549088096618652344e+01 3.252606517456513302e-15 1.843977715746542012e-13 5.629511410525957216e-14 -1.000802037949425141e-14
1.975000000000000000e+03 1.533246135711669922e+01 2.681692695617675781e+01 2.802245536851800944e-14 1.200962445539310169e-14 1.200962445539310169e-14 9.007218256841531545e-14
1.976000000000000000e+03 1.160971069335937500e+01 2.646895790100097656e+01 1.351082687704252897e-14 5.154130431912068433e-14 1.951563910473907981e-14 0.000000000000000000e+00
1.977000000000000000e+03 1.396449851989746094e+01 2.779480171203613281e+01 3.327666511484042577e-14 1.426142935841666348e-14 1.426142935841666348e-14 3.002405859738391247e-14
1.978000000000000000e+03 6.706390380859375000e+01 2.231147575378417969e+01 -7.355895000104098469e-14 -1.516214996437337259e-13 -6.755413692631148659e-14 -2.877305869692509122e-14
1.979000000000000000e+03 1.667650032043457031e+01 2.840568923950195312e+01 6.555253030931379454e-14 1.195958344293521214e-13 5.554451077685249039e-14 6.605293026949732305e-14
1.980000000000000000e+03 2.099350929260253906e+01 2.592349052429199219e+01 -3.502806921064751181e-15 -8.156536291650459680e-14 -2.552045048540268340e-14 -5.704571743366665393e-14
1.981000000000000000e+03 6.750072479248046875e+01 2.883117294311523438e+01 5.404330750817011586e-14 -1.140914348673333079e-13 -1.801443583605670529e-14 1.601283260719080226e-14
1.982000000000000000e+03 1.253011512756347656e+01 3.000501823425292969e+01 6.955573676704560060e-14 7.556054984177509870e-14 4.353488801552528320e-14 -1.501202929869195624e-14
1.983000000000000000e+03 1.641849136352539062e+01 3.021776771545410156e+01 4.678749453298179650e-14 -1.426142935841666348e-14 9.757819552369539906e-15 1.626303258728256651e-14
1.984000000000000000e+03 6.581501770019531250e+01 2.859433937072753906e+01 1.251002547436781426e-15 -3.377706846315574329e-14 -9.757819552369539906e-15 0.000000000000000000e+00
1.985000000000000000e+03 1.293183422088623047e+01 2.602322578430175781e+01 1.313552605987193533e-14 5.629511410525957216e-15 5.629511410525957216e-15 6.805453688649501509e-14
1.986000000000000000e+03 5.253769302368164062e+01 2.710420417785644531e+01 2.871050700783625564e-14 6.949319185422034306e-14 2.946111033624333742e-14 5.704571743366665393e-14
1.987000000000000000e+03 5.786080169677734375e+01 2.441222763061523438e+01 4.753809447325708926e-14 -1.626303258728256651e-13 -3.452766840343103605e-14 7.105694342385976414e-14
1.988000000000000000e+03 5.518931579589843750e+01 2.741756629943847656e+01 3.502807175174635357e-14 1.501202929869195624e-14 1.501202929869195624e-14 5.004010105043830980e-14
1.989000000000000000e+03 3.099189186096191406e+01 2.899144363403320312e+01 -2.777225538842624519e-14 1.053344084590672469e-13 2.326864727644501613e-14 -3.477786838352280030e-14
1.990000000000000000e+03 2.769502830505371094e+01 2.899287605285644531e+01 -3.896872652038932405e-14 6.336327540131317382e-14 7.318364664277154930e-15 -8.256616283687165381e-14
1.991000000000000000e+03 2.452497100830078125e+01 2.844395065307617188e+01 -2.270569562717265205e-14 2.458219886599267295e-14 5.629511198767720402e-16 -9.107298248878237246e-14
1.992000000000000000e+03 3.605257415771484375e+01 2.905416297912597656e+01 -2.802245536851800944e-14 2.802245536851800944e-14 0.000000000000000000e+00 -1.050842118671072717e-14
1.993000000000000000e+03 3.497584533691406250e+01 2.633368110656738281e+01 -9.507618725244828400e-15 1.045838085187919542e-13 2.852285871683332696e-14 -1.826463581614846954e-14
1.994000000000000000e+03 6.775815582275390625e+01 2.745401954650878906e+01 2.552045048540268340e-14 7.956375629950690476e-14 3.152526186606628700e-14 4.003208151797700565e-14
1.995000000000000000e+03 3.195453834533691406e+01 2.448386192321777344e+01 -8.491179357946257444e-14 1.008620744975645411e-13 4.785084783650358359e-15 -7.606094980195862720e-14
1.996000000000000000e+03 6.398260116577148438e+01 2.802523422241210938e+01 7.018124010540680024e-14 -6.142422047340431734e-14 2.627105296677681792e-15 -1.701363422162375377e-14
1.997000000000000000e+03 1.071022987365722656e+01 2.157031250000000000e+01 -1.501202929869195624e-14 8.506816941405287436e-14 2.101684237342145434e-14 3.002405859738391247e-14
1.998000000000000000e+03 1.829417991638183594e+01 2.843734741210937500e+01 -8.506817110811876886e-15 1.336070739720723877e-13 3.753007494079578510e-14 -1.301042606982605321e-14
1.999000000000000000e+03 1.841629791259765625e+01 3.040932273864746094e+01 -1.876503747039789255e-14 -1.338572671759005739e-13 -4.578669122448295048e-14 -1.701363422162375377e-14
2.000000000000000000e+03 3.413950347900390625e+01 2.403013038635253906e+01 -4.053248147816053415e-14 1.256006475040816195e-13 2.552045048540268340e-14 -1.175942362826839019e-14
2.001000000000000000e+03 3.229715347290039062e+01 2.718734169006347656e+01 -7.149479169495445707e-14 6.086126882413195327e-14 -3.190056310675335426e-15 -9.057258252859884395e-14
2.002000000000000000e+03 1.843992424011230469e+01 3.274556732177734375e+01 4.553649124439118623e-14 -6.054852393121493148e-14 -4.503608959014176322e-15 -1.601283260719080226e-14
2.003000000000000000e+03 4.108311843872070312e+01 2.562263488769531250e+01 -1.951563910473907981e-14 1.451162933850842773e-14 -1.501203056924137712e-15 2.852285871683332696e-14
2.004000000000000000e+03 2.626446723937988281e+01 2.710930633544921875e+01 -1.585645677260050235e-14 -1.823336166566994626e-14 -1.022694536207454513e-14 -7.706175649858926224e-14
2.005000000000000000e+03 2.582030487060546875e+01 3.047721862792968750e+01 -1.332317689197370578e-14 -2.858540701779037352e-14 -1.257257525763251851e-14 -4.803849782157240678e-14
2.006000000000000000e+03 2.053443336486816406e+01 3.016222953796386719e+01 -1.100882199392720293e-14 -1.190954344691685929e-13 -3.903127820947815962e-14 -4.078268145825229840e-14
2.007000000000000000e+03 1.385703563690185547e+01 2.902404022216796875e+01 7.856295637913984775e-14 5.654531408535133641e-14 4.053248147816053415e-14 -6.104892389139845998e-14
2.008000000000000000e+03 1.285159111022949219e+01 2.780768394470214844e+01 2.802245536851800944e-14 1.721379386688398627e-13 6.004811719476782494e-14 -3.102486190588275849e-14
2.009000000000000000e+03 1.525435924530029297e+01 2.812541007995605469e+01 4.203368474684290867e-14 1.801443583605670529e-14 1.801443583605670529e-14 1.601283260719080226e-14
2.010000000000000000e+03 4.311315536499023438e+01 2.794270515441894531e+01 -1.200962445539310169e-14 -2.802245536851800944e-14 -1.200962445539310169e-14 1.451162933850842773e-14
2.011000000000000000e+03 5.371324539184570312e+01 2.880901527404785156e+01 4.231125066739456486e-14 -1.648703959813979658e-13 -3.676774528826691479e-14 -2.323737143190059834e-14
2.012000000000000000e+03 5.429634094238281250e+01 2.595940780639648438e+01 5.279230421957950559e-14 -1.603785192757362088e-13 -3.227586519447336877e-14 -8.006416303595401129e-15
2.013000000000000000e+03 2.162144851684570312e+01 3.516693878173828125e+01 5.254210423948774134e-14 -5.754611739385018243e-14 -1.501203056924137712e-15 -2.727185542824271669e-14
2.014000000000000000e+03 6.494624328613281250e+01 2.414281082153320312e+01 4.703769451307356075e-14 -1.771419518232023038e-13 -3.903127820947815962e-14 -3.903127820947815962e-14
2.015000000000000000e+03 3.678895187377929688e+01 2.697833824157714844e+01 -3.152526186606628700e-14 -1.351082687704252897e-14 -1.351082687704252897e-14 -1.251002526260957745e-14
2.016000000000000000e+03 4.052198028564453125e+01 3.022919845581054688e+01 -3.327666511484042577e-14 -1.426142935841666348e-14 -1.426142935841666348e-14 1.000802037949425141e-14
2.017000000000000000e+03 3.406648254394531250e+01 2.823782157897949219e+01 -2.827265704267566820e-14 1.075862116680249142e-14 -5.254210593355363584e-15 -1.976583908483084406e-14
2.018000000000000000e+03 6.256970977783203125e+01 3.549301528930664062e+01 4.140818140848170903e-14 -8.519327279223054550e-14 -1.313552605987193533e-14 5.004010189747125706e-16
2.019000000000000000e+03 2.934319305419921875e+01 2.745871353149414062e+01 -3.878107822938639537e-14 6.255012631304788726e-15 -9.757819552369539906e-15 -1.207217377278968495e-13
2.020000000000000000e+03 5.921906280517578125e+01 2.251910018920898438e+01 9.432558900623888576e-14 -1.768917586193741176e-13 -2.476984885106149614e-14 3.452766840343103605e-14
2.021000000000000000e+03 6.046351242065429688e+01 2.549427604675292969e+01 4.778829445334885351e-14 -1.753905451862963760e-13 -3.828067826920286687e-14 -1.632558258230550757e-14
2.022000000000000000e+03 6.361459732055664062e+01 2.531832122802734375e+01 1.676343424153198952e-14 -1.643817325097315929e-13 -4.428548795580057595e-14 -3.271371685369985072e-14
2.023000000000000000e+03 6.207802963256835938e+01 2.700043296813964844e+01 7.455974992140804170e-14 -1.396118734942747297e-13 -1.951563910473907981e-14 -1.563753094298726137e-14
2.024000000000000000e+03 2.106433105468750000e+01 3.250060272216796875e+01 3.828067826920286687e-14 -7.506015284620688559e-16 1.125902282105191443e-14 -1.576263093303314350e-14
2.025000000000000000e+03 6.497267150878906250e+01 2.634028434753417969e+01 5.354290754798658736e-14 -6.855493684667854359e-14 -4.503608959014176322e-15 -1.538733096289549712e-14
2.026000000000000000e+03 6.247072601318359375e+01 4.114937973022460938e+01 2.502005052521915490e-14 -3.502807175174635357e-14 -3.002406113848275424e-15 -5.504410996963601463e-15
2.027000000000000000e+03 1.540367126464843750e+01 3.504424667358398438e+01 7.806255641895631925e-14 -1.801443583605670529e-14 1.801443583605670529e-14 -1.526223097284961500e-14
2.028000000000000000e+03 1.599765586853027344e+01 3.245440673828125000e+01 4.753809447325708926e-14 -2.502005094873562853e-15 1.351082687704252897e-14 3.252606517456513302e-14
2.029000000000000000e+03 4.574032211303710938e+01 3.032781600952148438e+01 1.501202929869195624e-14 -5.004010189747125706e-15 3.002406113848275424e-15 2.627105211974387067e-14
2.030000000000000000e+03 5.410136795043945312e+01 3.700481414794921875e+01 5.917242065257843908e-14 5.967282061276196758e-14 3.565357170197576420e-14 -6.755413438521264483e-15
2.031000000000000000e+03 3.773959350585937500e+01 3.718807601928710938e+01 -1.488692930864607411e-14 7.368404660295507780e-14 1.763913586591905891e-14 1.251002526260957745e-14
2.032000000000000000e+03 4.240776443481445312e+01 3.703438186645507812e+01 3.252606517456513302e-15 2.426944889087796764e-14 8.256616283687165381e-15 1.476182931860019198e-14
2.033000000000000000e+03 3.320916748046875000e+01 3.692436981201171875e+01 -9.132317908074234769e-15 -9.632719562323657780e-15 -5.629511410525957216e-15 -2.126704235351321859e-14
2.034000000000000000e+03 2.214769363403320312e+01 3.806724929809570312e+01 4.541139125434530410e-14 -4.916439773198534591e-14 -1.125902239753544080e-15 -1.876503747039789255e-14
2.035000000000000000e+03 5.648690795898437500e+01 2.836432647705078125e+01 1.651323256737433076e-14 -6.154932385158198849e-14 -1.351082687704252897e-14 2.952365863720038397e-14
2.036000000000000000e+03 5.854572677612304688e+01 2.643374443054199219e+01 2.476984885106149614e-14 -1.723881454251952050e-13 -4.428548795580057595e-14 2.426944889087796764e-14
2.037000000000000000e+03 6.544233703613281250e+01 3.051412391662597656e+01 4.028228149806876990e-14 -6.280032375204080974e-14 -6.755413438521264483e-15 -5.004010189747125706e-16
2.038000000000000000e+03 1.833160209655761719e+01 3.540331268310546875e+01 6.580273028940555879e-14 1.676343424153198952e-14 2.476984885106149614e-14 1.776423585596494104e-14
2.039000000000000000e+03 5.665827560424804688e+01 2.669155120849609375e+01 5.454371085648543338e-14 -1.596279261117244941e-13 -3.152526186606628700e-14 4.403528797570881170e-14
2.040000000000000000e+03 5.354437255859375000e+01 3.242058181762695312e+01 5.172895261012361301e-14 -2.358139725155972144e-14 8.444267115788935824e-15 9.007217918028352643e-15
2.041000000000000000e+03 4.832821273803710938e+01 2.952138710021972656e+01 7.506015284620688559e-16 1.175942362826839019e-14 3.753007324672989059e-15 4.203368474684290867e-14
2.042000000000000000e+03 2.481709861755371094e+01 3.427307891845703125e+01 6.004812227696550847e-15 -2.602085213965210642e-14 -6.004812227696550847e-15 -2.614595212969798854e-14
2.043000000000000000e+03 4.302208328247070312e+01 3.055625915527343750e+01 -8.131516293641283255e-15 1.939053911469319769e-14 3.377706719260632241e-15 6.555253030931379454e-14
2.044000000000000000e+03 4.624372863769531250e+01 3.327243041992187500e+01 1.088372200388132080e-14 -2.964875862724626610e-14 -5.629511410525957216e-15 4.653729455289003225e-14
2.045000000000000000e+03 5.828511810302734375e+01 3.796898269653320312e+01 3.990698152793112352e-14 -2.864795870687920909e-14 3.377706719260632241e-15 1.551243095294137925e-14
2.046000000000000000e+03 6.002758026123046875e+01 3.217681121826171875e+01 3.415236843329338967e-14 -6.542743370739970143e-14 -9.382518735198946275e-15 2.301844560228735737e-14
2.047000000000000000e+03 3.155306243896484375e+01 3.263130569458007812e+01 -6.255012631304788726e-15 8.757017937936588392e-15 7.506015284620688559e-16 -3.102486190588275849e-14
2.048000000000000000e+03 3.518521118164062500e+01 3.131756401062011719e+01 -3.627907165220517482e-14 5.879711729430900369e-14 6.755413438521264483e-15 3.227586519447336877e-14
2.049000000000000000e+03 3.756856918334960938e+01 3.189199256896972656e+01 -7.506015284620688559e-16 2.827265704267566820e-14 8.256616283687165381e-15 -1.801443583605670529e-14
2.050000000000000000e+03 6.088174057006835938e+01 2.940852928161621094e+01 7.468484652332213480e-14 -7.093184004568209300e-14 1.125902239753544080e-15 5.004010189747125706e-16
2.051000000000000000e+03 6.277949142456054688e+01 3.272285461425781250e+01 5.579471075694425464e-14 -3.327666511484042577e-14 6.755413438521264483e-15 -1.100882199392720293e-14
2.052000000000000000e+03 5.533055114746093750e+01 3.024681854248046875e+01 5.104090097080536681e-14 -5.104090097080536681e-14 0.000000000000000000e+00 5.204170427930421283e-14
2.053000000000000000e+03 4.714391708374023438e+01 3.661661911010742188e+01 2.627105296677681792e-15 1.125902239753544080e-15 1.125902239753544080e-15 1.901523745048965680e-14
2.054000000000000000e+03 5.181194305419921875e+01 3.046209526062011719e+01 1.241620027007516586e-14 -2.899198283247243768e-14 -4.972734768719181547e-15 1.251002526260957745e-14
2.055000000000000000e+03 2.638759422302246094e+01 3.722172164916992188e+01 2.989895860733803035e-14 -3.865597823934051325e-14 -2.627105296677681792e-15 -1.763913586591905891e-14
2.056000000000000000e+03 5.914517974853515625e+01 3.502063751220703125e+01 5.404330750817011586e-14 6.004812227696550847e-15 1.801443583605670529e-14 -1.125902282105191443e-14
2.057000000000000000e+03 2.743949508666992188e+01 3.274224853515625000e+01 -1.000802037949425141e-14 -4.003208151797700565e-14 -1.501202929869195624e-14 -3.746752663983873854e-14
2.058000000000000000e+03 3.430502319335937500e+01 3.388420867919921875e+01 -9.257418745153064149e-15 8.181556289659636105e-14 2.176744400776264160e-14 -4.678749453298179650e-14
2.059000000000000000e+03 2.965887260437011719e+01 3.522687911987304688e+01 1.407377852631489304e-15 1.204089945290457223e-14 4.034483149309171096e-15 -5.241700424944185921e-14
2.060000000000000000e+03 1.552473640441894531e+01 6.565309047698974609e+00 -3.202566521438160452e-14 3.522823038056704936e-13 9.607699564314481355e-14 4.793841647428298547e-13
2.061000000000000000e+03 1.594722175598144531e+01 6.431865692138671875e+00 3.102486258350911630e-13 5.904731998490619915e-13 2.702165477052459464e-13 6.605293026949732305e-14
2.062000000000000000e+03 3.409500122070312500e+00 4.177731704711914062e+01 1.205966479022463345e-13 2.346880827695796423e-13 1.065854151357896462e-13 2.051644071917203133e-14
2.063000000000000000e+03 3.615298461914062500e+01 1.369796180725097656e+01 7.806255641895631925e-14 2.622101212372551782e-13 1.020818019416107336e-13 -1.180946345488015359e-13
2.064000000000000000e+03 5.995148849487304688e+01 1.314314174652099609e+01 -5.754611739385018243e-14 1.125902282105191443e-13 1.651323256737433076e-14 -9.407538902614712151e-14
2.065000000000000000e+03 3.756216430664062500e+01 1.489913558959960938e+01 1.251002475438980910e-13 1.451162866088206993e-13 8.106496295632106830e-14 -7.606094980195862720e-14
2.066000000000000000e+03 3.469353866577148438e+01 1.633973312377929688e+01 6.204972381176551699e-14 1.180946345488015359e-13 5.404330750817011586e-14 -8.406736949368581735e-14
2.067000000000000000e+03 6.147208404541015625e+01 1.398000621795654297e+01 -9.832879546397069181e-14 -6.930553678695383635e-14 -5.029030103053007406e-14 2.749077956379006316e-14
2.068000000000000000e+03 2.588748550415039062e+01 1.736072921752929688e+01 -4.783833377174084855e-13 5.384314955697577787e-13 1.801443583605670529e-14 1.060850151756061177e-13
2.069000000000000000e+03 4.612083053588867188e+01 1.826327323913574219e+01 3.252606517456513302e-14 2.502005094873562853e-15 1.050842118671072717e-14 -9.507618725244828400e-15
2.070000000000000000e+03 4.470137405395507812e+01 1.346960067749023438e+01 -3.803047490097931360e-14 -6.204972381176551699e-14 -3.002405859738391247e-14 -1.160930347080674219e-13
2.071000000000000000e+03 6.375415802001953125e+00 7.766559123992919922e+00 6.455173038894673754e-14 2.106688169181344938e-13 8.256616283687165381e-14 -2.001604075898850282e-15
2.072000000000000000e+03 4.961472320556640625e+01 1.632295608520507812e+01 3.402726844324750755e-14 2.662133209187234062e-13 9.007218256841531545e-14 -5.104090097080536681e-14
2.073000000000000000e+03 3.598472213745117188e+01 1.547807502746582031e+01 8.006416303595401129e-14 8.006416303595401129e-14 4.803849782157240678e-14 -1.160930347080674219e-13
2.074000000000000000e+03 2.629008865356445312e+01 1.809149169921875000e+01 -3.853087824929463112e-13 5.154130160861525312e-13 3.903127820947815962e-14 9.907939540424598457e-14
2.075000000000000000e+03 7.532546520233154297e+00 9.132063865661621094e+00 -6.305052373213257400e-14 -2.702165375408505793e-14 -2.702165375408505793e-14 -1.321058605389946461e-13
2.076000000000000000e+03 6.977398872375488281e+00 8.383623123168945312e+00 2.001604075898850282e-14 1.000802021008766196e-13 3.602887167211341057e-14 -1.040834085586084257e-13
2.077000000000000000e+03 6.090987777709960938e+01 1.449807262420654297e+01 7.706175649858926224e-14 -2.071660171968497943e-13 -3.903127820947815962e-14 -9.632719562323657780e-14
2.078000000000000000e+03 4.582761383056640625e+01 1.969369888305664062e+01 5.554451077685249039e-14 6.955573676704560060e-14 3.753007494079578510e-14 1.301042606982605321e-14
2.079000000000000000e+03 5.032733154296875000e+01 1.650078392028808594e+01 9.757819552369539906e-14 8.757017599123409490e-14 5.554451077685249039e-14 1.000802021008766196e-13
2.080000000000000000e+03 2.779662704467773438e+01 1.394790363311767578e+01 5.584474939770989188e-13 -5.804651735403371093e-14 1.501202997631831404e-13 1.846479647784823874e-13
2.081000000000000000e+03 3.540036392211914062e+01 1.841504669189453125e+01 5.754611400571839341e-15 -4.328468803543351895e-14 -1.125902282105191443e-14 -4.403528797570881170e-14
2.082000000000000000e+03 6.635247802734375000e+01 1.670725440979003906e+01 3.202566521438160452e-14 -3.202566521438160452e-14 0.000000000000000000e+00 -1.301042606982605321e-14
2.083000000000000000e+03 2.075160789489746094e+01 8.218139648437500000e+00 3.963175816169839383e-13 4.443560862148199231e-13 2.522020949285302960e-13 4.185854408315231590e-13
2.084000000000000000e+03 2.117187309265136719e+01 7.924247264862060547e+00 2.451964887096973189e-14 2.306848559830571022e-13 7.656135653840573374e-14 1.787682550819305605e-13
2.085000000000000000e+03 1.915854835510253906e+01 1.867262840270996094e+01 -1.691355389077386917e-13 -2.101684237342145434e-14 -5.704571743366665393e-14 -2.502005094873562853e-15
2.086000000000000000e+03 1.513105869293212891e+00 5.584398746490478516e+00 -1.301042606982605321e-14 6.305052373213257400e-14 1.501202929869195624e-14 -3.402726844324750755e-14
2.087000000000000000e+03 4.957555770874023438e+01 1.715279960632324219e+01 1.721379386688398627e-13 2.802245536851800944e-14 6.004811719476782494e-14 2.001604075898850282e-14
2.088000000000000000e+03 1.501297950744628906e+01 1.445415019989013672e+01 -2.111692168783180223e-13 -1.190954344691685929e-13 -9.907939540424598457e-14 -2.374402757743254710e-13
2.089000000000000000e+03 2.717291450500488281e+01 1.205868721008300781e+01 1.145918348275168364e-13 1.406126869671689428e-13 7.656135653840573374e-14 -2.802245536851800944e-14
2.090000000000000000e+03 2.808655738830566406e+01 1.329041957855224609e+01 3.913135820151486532e-13 -5.414338682258046376e-13 -4.503609128420765773e-14 5.704571743366665393e-14
2.091000000000000000e+03 2.717420578002929688e+01 2.141469573974609375e+01 -2.361892690976030718e-13 1.160930347080674219e-13 -3.602887167211341057e-14 -6.395750628326174470e-14
2.092000000000000000e+03 3.664522552490234375e+01 1.906417465209960938e+01 -5.504411081666896188e-14 -3.502807175174635357e-14 -2.702165375408505793e-14 2.001604075898850282e-15
2.093000000000000000e+03 2.354987382888793945e+00 6.779833793640136719e+00 -1.301042606982605321e-14 6.305052373213257400e-14 1.501202929869195624e-14 8.206576287668812530e-14
2.094000000000000000e+03 2.862188339233398438e+01 1.727455520629882812e+01 4.603689120457471473e-14 -2.602085213965210642e-14 6.004812227696550847e-15 3.052445991282015658e-13
2.095000000000000000e+03 3.045310211181640625e+01 1.806692695617675781e+01 7.906335633932337625e-14 -1.491194998428160834e-13 -2.101684237342145434e-14 8.306656957331876034e-14
2.096000000000000000e+03 2.138718795776367188e+01 7.331420421600341797e+00 -1.200962445539310169e-14 1.321058605389946461e-13 3.602887167211341057e-14 1.401122870069854143e-13
2.097000000000000000e+03 2.224312400817871094e+01 8.131139755249023438e+00 -1.110890215537049808e-13 -1.391114735340912012e-13 -7.506014988159157020e-14 1.200962343895356499e-13
2.098000000000000000e+03 2.854308509826660156e+01 1.312271404266357422e+01 9.983000212078485536e-14 4.278428468711820143e-14 4.278428468711820143e-14 -7.405934996122451319e-14
2.099000000000000000e+03 6.682067871093750000e+01 1.528789615631103516e+01 3.853087824929463112e-14 1.651323256737433076e-14 1.651323256737433076e-14 -4.603689120457471473e-14
2.100000000000000000e+03 8.049168586730957031e+00 1.110459518432617188e+01 -1.368596804895289010e-13 1.243496543798863763e-13 -3.753007324672989059e-15 -2.602085213965210642e-14
2.101000000000000000e+03 4.209174346923828125e+01 1.888556289672851562e+01 -6.204972381176551699e-14 1.220978477827969200e-13 1.801443583605670529e-14 3.803047490097931360e-14
2.102000000000000000e+03 4.973933792114257812e+01 2.060932159423828125e+01 -2.902325867701685547e-14 -8.106496295632106830e-14 -3.302646513474866152e-14 -2.602085213965210642e-14
2.103000000000000000e+03 3.919980049133300781e+00 3.269403839111328125e+01 1.701363422162375377e-14 2.131708302715792924e-13 6.905533680686207210e-14 1.050842084789754827e-13
2.104000000000000000e+03 2.211685562133789062e+01 7.763419628143310547e+00 -7.205774334422682115e-14 3.923143819355157103e-13 9.607699564314481355e-14 9.807859548387892756e-14
2.105000000000000000e+03 2.184690666198730469e+01 7.985026359558105469e+00 -3.202566521438160452e-14 5.124106434301056723e-13 1.441154866884536423e-13 1.491194998428160834e-13
2.106000000000000000e+03 5.082807922363281250e+01 2.052329826354980469e+01 -2.752205540833448094e-14 2.251804564210382886e-14 -1.501203056924137712e-15 2.502005094873562853e-15
2.107000000000000000e+03 5.995221328735351562e+01 1.962941741943359375e+01 -3.878107822938639537e-14 -3.140016187602040487e-13 -1.058348151955143535e-13 1.200962445539310169e-14
2.108000000000000000e+03 2.969514656066894531e+01 2.228058242797851562e+01 -1.219727444046192488e-13 -2.939855864715450184e-14 -4.541139125434530410e-14 -6.605293026949732305e-14
2.109000000000000000e+03 4.040004253387451172e+00 3.509122085571289062e+01 2.301844560228735737e-14 3.873103823336804252e-13 1.230986477031639770e-13 1.090874217129708668e-13
2.110000000000000000e+03 3.306241035461425781e+00 3.540552902221679688e+01 6.355093046857968053e-14 3.017418129594440224e-13 1.095878216731543953e-13 8.406736949368581735e-14
2.111000000000000000e+03 3.943082427978515625e+01 1.946630859375000000e+01 2.927345865710861972e-14 5.829671733412547519e-14 2.627105211974387067e-14 5.004010189747125706e-15
2.112000000000000000e+03 1.406776809692382812e+01 1.652886009216308594e+01 -2.937353864914532542e-13 -3.152526186606628700e-14 -9.757819552369539906e-14 -8.412992118277465292e-14
2.113000000000000000e+03 5.430746841430664062e+01 2.040203285217285156e+01 4.448877586314160804e-14 -2.554390618296487059e-13 -6.328509087214981288e-14 1.601283260719080226e-14
2.114000000000000000e+03 3.877577972412109375e+01 2.749058532714843750e+01 -4.628709118466647898e-14 4.878909776184769953e-14 7.506015284620688559e-16 -3.502806921064751181e-15
2.115000000000000000e+03 5.531236267089843750e+01 1.904903221130371094e+01 4.903929774193946378e-14 -2.191756433463087905e-13 -5.104090097080536681e-14 8.406736949368581735e-14
2.116000000000000000e+03 6.043141555786132812e+01 2.297482872009277344e+01 6.624058533676382976e-14 -2.232414014931294322e-13 -4.710024281403060731e-14 -2.201764398785440585e-14
2.117000000000000000e+03 3.030473136901855469e+01 1.913437652587890625e+01 -3.953167816966168813e-14 -5.504410996963601463e-15 -1.351082687704252897e-14 9.557658890669770702e-14
2.118000000000000000e+03 1.566579627990722656e+01 1.885184860229492188e+01 -2.461972954063279539e-13 -1.341074739322559162e-13 -1.140914348673333079e-13 -1.064603117576119751e-13
2.119000000000000000e+03 1.953210067749023438e+01 2.647074317932128906e+01 -2.802245536851800944e-14 -1.200962445539310169e-14 -1.200962445539310169e-14 -1.150922280114367868e-14
2.120000000000000000e+03 1.406220626831054688e+01 1.754525566101074219e+01 -2.181748434259417335e-13 -3.622903301143953758e-13 -1.741395520621011328e-13 -5.097835266984832026e-14
2.121000000000000000e+03 1.103990745544433594e+01 1.365202140808105469e+01 -1.841475648182988589e-13 -5.604491073703601889e-14 -7.205774334422682115e-14 -1.301042606982605321e-14
2.122000000000000000e+03 7.011408233642578125e+01 2.044258308410644531e+01 -2.351884725653678038e-14 -1.015814019814272051e-13 -3.753007494079578510e-14 -2.301844560228735737e-14
2.123000000000000000e+03 3.623955488204956055e+00 1.129595756530761719e+01 -1.476182931860019198e-14 2.224282498637653038e-13 6.229992379185728124e-14 4.203368474684290867e-14
2.124000000000000000e+03 3.719363689422607422e+00 8.970820426940917969e+00 7.005613842129502361e-15 3.002406113848275424e-15 3.002406113848275424e-15 -1.401122870069854143e-13
2.125000000000000000e+03 7.373877048492431641e+00 1.207860755920410156e+01 -1.095878216731543953e-13 4.453568793589234021e-14 -1.951563910473907981e-14 -3.803047490097931360e-14
2.126000000000000000e+03 1.081702613830566406e+01 2.633668327331542969e+01 -4.003208151797700565e-15 2.041636038832214672e-13 6.004811719476782494e-14 3.452766840343103605e-14
2.127000000000000000e+03 7.052153778076171875e+01 1.653289031982421875e+01 -4.203368474684290867e-14 -1.781427517435693608e-13 -6.605293026949732305e-14 4.353488801552528320e-14
2.128000000000000000e+03 3.843632221221923828e+00 3.030603981018066406e+01 -1.381106736137241442e-13 3.983192085627723644e-13 7.806255641895631925e-14 8.807057595141762341e-14
2.129000000000000000e+03 1.638284492492675781e+01 2.249305152893066406e+01 -4.603689120457471473e-14 -2.141716301919463494e-13 -7.806255641895631925e-14 2.552045048540268340e-14
2.130000000000000000e+03 1.237204074859619141e+01 2.692058372497558594e+01 1.476182931860019198e-14 -3.227586519447336877e-14 -5.254210593355363584e-15 3.158781355515512257e-14
2.131000000000000000e+03 6.819628143310546875e+01 2.179371261596679688e+01 -3.502806921064751181e-15 -8.156536291650459680e-14 -2.552045048540268340e-14 -1.180946345488015359e-13
2.132000000000000000e+03 7.553825378417968750e+00 1.335934162139892578e+01 -3.455268840144021247e-13 -1.023320019217024979e-13 -1.343576671360841024e-13 4.803849782157240678e-14
2.133000000000000000e+03 4.717310428619384766e+00 2.835555076599121094e+01 -1.731387521417340758e-13 2.231788430277770185e-13 1.501202929869195624e-14 7.405934996122451319e-14
2.134000000000000000e+03 1.236980724334716797e+01 1.817269706726074219e+01 -2.051644173561156803e-13 -6.505213034913026604e-14 -8.106496295632106830e-14 -2.852285871683332696e-14
2.135000000000000000e+03 7.226677703857421875e+01 1.737840461730957031e+01 -8.807057595141762341e-14 8.006416303595401129e-15 -2.401924891078620339e-14 2.902325867701685547e-14
2.136000000000000000e+03 1.224596118927001953e+01 1.914316558837890625e+01 -1.110890215537049808e-13 1.811451650571976879e-13 2.101684237342145434e-14 -1.301042606982605321e-14
2.137000000000000000e+03 1.456781578063964844e+01 2.309895133972167969e+01 -1.721379386688398627e-13 -3.482791041242022656e-13 -1.561251128379126385e-13 -9.707779556351187056e-14
2.138000000000000000e+03 9.595179557800292969e+00 1.627806472778320312e+01 -6.405133042876320904e-14 -2.562053217150528361e-13 -9.607699564314481355e-14 -1.160930347080674219e-13
2.139000000000000000e+03 1.342447185516357422e+01 2.163118743896484375e+01 -1.611291259922750796e-13 -6.905533680686207210e-14 -6.905533680686207210e-14 2.001604075898850282e-14
2.140000000000000000e+03 6.572341918945312500e+00 2.437158393859863281e+01 -9.207378240914942946e-14 5.204170427930421283e-14 -1.200962445539310169e-14 -3.903127820947815962e-14
2.141000000000000000e+03 7.403417968750000000e+01 1.887722778320312500e+01 -8.306656957331876034e-14 1.931547912066566841e-13 3.302646513474866152e-14 -2.001604075898850282e-15
2.142000000000000000e+03 6.258319854736328125e+00 1.577677917480468750e+01 -2.066656172366662658e-13 2.316856559034241592e-13 7.506014649345978118e-15 2.461972954063279539e-13
2.143000000000000000e+03 7.364805698394775391e+00 1.668638610839843750e+01 -3.102486190588275849e-14 2.612093213168881212e-13 6.905533680686207210e-14 -6.805453688649501509e-14
2.144000000000000000e+03 1.284657955169677734e+01 2.356784057617187500e+01 -4.053248147816053415e-14 -3.452766840343103605e-14 -2.251804564210382886e-14 -2.764715539838036307e-14
2.145000000000000000e+03 7.447856140136718750e+01 1.938446235656738281e+01 -1.043336085387001899e-13 4.678749453298179650e-14 -1.726383420171551802e-14 1.401122768425900472e-14
2.146000000000000000e+03 8.503219604492187500e+00 1.742987823486328125e+01 -5.904731727440076794e-14 -7.105694342385976414e-14 -3.903127820947815962e-14 -3.702967498061225660e-14
2.147000000000000000e+03 5.930063247680664062e+00 2.203969573974609375e+01 -1.030826086382413687e-13 9.307458910578006450e-14 -3.002406113848275424e-15 1.501202997631831404e-13
2.148000000000000000e+03 5.805243968963623047e+00 1.622390365600585938e+01 1.045838085187919542e-13 9.057258252859884395e-14 5.854691731421723944e-14 8.006416303595401129e-14
2.149000000000000000e+03 8.332239151000976562e+00 1.805846977233886719e+01 -7.105694342385976414e-14 -9.907939540424598457e-14 -5.104090097080536681e-14 -1.641315257533762506e-13
2.150000000000000000e+03 8.182156562805175781e+00 1.861998939514160156e+01 1.601283260719080226e-14 1.441154866884536423e-13 4.803849782157240678e-14 6.505213034913026604e-14
2.151000000000000000e+03 6.416864395141601562e+00 1.861962127685546875e+01 -5.204170427930421283e-14 9.207378240914942946e-14 1.200962445539310169e-14 1.090874217129708668e-13
2.152000000000000000e+03 7.037345886230468750e+00 1.865004158020019531e+01 -7.005613842129502361e-15 1.571259127582796955e-13 4.503609128420765773e-14 7.906335633932337625e-14
2.153000000000000000e+03 7.614632606506347656e+00 1.924419975280761719e+01 -4.753809447325708926e-14 1.626303258728256651e-13 3.452766840343103605e-14 4.003208151797700565e-15
2.154000000000000000e+03 7.636689662933349609e+00 1.862689018249511719e+01 -6.305052373213257400e-14 -2.702165375408505793e-14 -2.702165375408505793e-14 6.905533680686207210e-14
2.155000000000000000e+03 6.537077331542968750e+01 1.154374980926513672e+01 -8.006416303595401129e-15 8.807057595141762341e-14 2.401924891078620339e-14 1.601283260719080226e-13
2.156000000000000000e+03 6.599910736083984375e+01 1.145513153076171875e+01 5.304250758780305885e-14 -2.301844560228735737e-14 9.007217918028352643e-15 -1.220978477827969200e-13
2.157000000000000000e+03 6.592704010009765625e+01 1.071832180023193359e+01 1.150922280114367868e-14 7.355895000104098469e-14 2.552045048540268340e-14 2.802245536851800944e-14
2.158000000000000000e+03 6.681579589843750000e+01 1.057724952697753906e+01 1.851483749030612830e-14 -8.356696953350228885e-14 -1.951563910473907981e-14 -2.401924891078620339e-14
2.159000000000000000e+03 6.688600921630859375e+01 1.131429767608642578e+01 2.451964887096973189e-14 1.050842118671072717e-14 1.050842118671072717e-14 7.405934996122451319e-14
2.160000000000000000e+03 6.544891357421875000e+01 1.100165748596191406e+01 3.753007494079578510e-14 1.075862150561567032e-13 4.353488801552528320e-14 -5.004010105043830980e-14
2.161000000000000000e+03 6.550585937500000000e+01 1.155421638488769531e+01 8.006416303595401129e-15 -8.807057595141762341e-14 -2.401924891078620339e-14 -4.003208151797700565e-15
2.162000000000000000e+03 5.728100204467773438e+01 1.119135379791259766e+01 -7.355895000104098469e-14 -3.152526186606628700e-14 -3.152526186606628700e-14 4.803849782157240678e-14
2.163000000000000000e+03 5.644290161132812500e+01 1.204695510864257812e+01 6.855493684667854359e-14 -1.536231130369949960e-13 -2.552045048540268340e-14 7.906335633932337625e-14
2.164000000000000000e+03 5.860596847534179688e+01 1.182725715637207031e+01 -1.240994476235310340e-13 -2.361892690976030718e-13 -1.080866150163402317e-13 -2.161732300326804634e-13
2.165000000000000000e+03 5.924350357055664062e+01 1.158041286468505859e+01 1.801443583605670529e-14 2.001604075898850282e-15 6.004812227696550847e-15 -1.009559054193295835e-13
2.166000000000000000e+03 5.559487915039062500e+01 1.142307090759277344e+01 -6.455173038894673754e-14 -2.106688169181344938e-13 -8.256616283687165381e-14 6.905533680686207210e-14
2.167000000000000000e+03 5.806456375122070312e+01 1.135558986663818359e+01 -2.101684237342145434e-14 -9.007217918028352643e-15 -9.007217918028352643e-15 4.203368474684290867e-14
2.168000000000000000e+03 5.858398056030273438e+01 1.097809410095214844e+01 -1.838973716144706727e-13 -4.878909776184769953e-14 -6.980593674713736485e-14 -5.316760757784894098e-14
2.169000000000000000e+03 5.564429855346679688e+01 1.216481208801269531e+01 -6.104892389139845998e-14 1.110890215537049808e-13 1.501202929869195624e-14 -4.103288143834406265e-14
2.170000000000000000e+03 5.722286987304687500e+01 1.195329093933105469e+01 -3.753007494079578510e-14 2.126704303113957639e-13 5.254210423948774134e-14 -5.904731727440076794e-14
2.171000000000000000e+03 5.796066284179687500e+01 1.192100620269775391e+01 -7.355895000104098469e-14 -3.152526186606628700e-14 -3.152526186606628700e-14 5.804651735403371093e-14
2.172000000000000000e+03 5.644725799560546875e+01 1.129511547088623047e+01 -4.803849782157240678e-14 2.081668171172168513e-13 4.803849782157240678e-14 -7.005613842129502361e-15
2.173000000000000000e+03 5.328820800781250000e+01 1.160719490051269531e+01 -2.201764398785440585e-14 8.206576287668812530e-14 1.801443583605670529e-14 -3.903127820947815962e-14
2.174000000000000000e+03 5.253549957275390625e+01 1.165647983551025391e+01 -8.406736949368581735e-14 -3.602887167211341057e-14 -3.602887167211341057e-14 7.005613842129502361e-15
2.175000000000000000e+03 5.479130554199218750e+01 1.151412296295166016e+01 -2.502005052521915490e-14 1.951563910473907981e-13 5.104090097080536681e-14 -2.702165375408505793e-14
2.176000000000000000e+03 5.334827423095703125e+01 1.234487724304199219e+01 -7.556054984177509870e-14 -1.696359388679222202e-13 -7.355895000104098469e-14 -8.306656957331876034e-14
2.177000000000000000e+03 5.404014587402343750e+01 1.155970287322998047e+01 -2.502005052521915490e-14 -1.251002475438980910e-13 -4.503609128420765773e-14 4.303448466720996568e-14
2.178000000000000000e+03 5.486436843872070312e+01 1.225100231170654297e+01 -6.305052373213257400e-14 -2.702165375408505793e-14 -2.702165375408505793e-14 5.204170427930421283e-14
2.179000000000000000e+03 5.258906936645507812e+01 1.239457130432128906e+01 2.502005052521915490e-14 -3.502807175174635357e-14 -3.002406113848275424e-15 -6.905533680686207210e-14
2.180000000000000000e+03 5.410670852661132812e+01 1.229697513580322266e+01 -8.456776945386934585e-14 9.507618725244828400e-15 -2.251804564210382886e-14 -6.004812227696550847e-15
2.181000000000000000e+03 5.029555892944335938e+01 1.207565784454345703e+01 7.430954994131627744e-14 1.233488409069921632e-13 5.929751725449253219e-14 6.605293026949732305e-14
2.182000000000000000e+03 5.078002548217773438e+01 1.182022094726562500e+01 -2.802245536851800944e-14 -1.200962445539310169e-14 -1.200962445539310169e-14 3.002406113848275424e-15
2.183000000000000000e+03 5.021333312988281250e+01 1.261159992218017578e+01 -3.202566521438160452e-14 -2.882309733769072846e-13 -9.607699564314481355e-14 2.041636038832214672e-13
2.184000000000000000e+03 5.168254852294921875e+01 1.172753429412841797e+01 -5.004010189747125706e-16 -1.145918348275168364e-13 -3.452766840343103605e-14 1.801443583605670529e-14
2.185000000000000000e+03 5.173012924194335938e+01 1.246603202819824219e+01 -6.705373696612795809e-14 1.701363422162375377e-14 -1.501202929869195624e-14 3.402726844324750755e-14
2.186000000000000000e+03 5.032855606079101562e+01 1.262999343872070312e+01 -2.401924891078620339e-14 -3.763015561045884860e-13 -1.200962343895356499e-13 4.003208151797700565e-14
2.187000000000000000e+03 5.082211685180664062e+01 1.255912017822265625e+01 4.903929774193946378e-14 -1.391114735340912012e-13 -2.702165375408505793e-14 1.301042606982605321e-14
2.188000000000000000e+03 4.031083583831787109e+00 1.132906794548034668e+00 1.801443583605670529e-14 -3.803047490097931360e-14 -6.004812227696550847e-15 1.050842084789754827e-13
2.189000000000000000e+03 3.863600015640258789e+00 3.929068446159362793e-01 -7.756215645877279075e-14 1.251002526260957745e-14 -1.951563910473907981e-14 8.606896933441993136e-14
2.190000000000000000e+03 2.989670753479003906e+00 3.542558252811431885e-01 3.702967498061225660e-14 -1.671339390670045777e-13 -3.903127820947815962e-14 6.405133042876320904e-14
2.191000000000000000e+03 1.716356039047241211e+00 1.218976974487304688e+00 1.025822086780578402e-13 2.727185339536364328e-13 1.125902282105191443e-13 8.006416303595401129e-15
2.192000000000000000e+03 2.113904714584350586e+00 3.504228591918945312e-01 4.853889778175593528e-14 6.655333022968085155e-14 3.452766840343103605e-14 -3.803047490097931360e-14
2.193000000000000000e+03 1.245388984680175781e+00 3.806717991828918457e-01 -7.005613842129502361e-15 -3.002406113848275424e-15 -3.002406113848275424e-15 6.004812227696550847e-15
2.194000000000000000e+03 3.546209037303924561e-01 1.121597886085510254e+00 -3.652927163229693908e-14 -3.853087824929463112e-14 -2.251804564210382886e-14 5.104090097080536681e-14
2.195000000000000000e+03 4.069884419441223145e-01 3.815979361534118652e-01 -4.503608959014176322e-15 8.957178260823178695e-14 2.552045048540268340e-14 9.007217918028352643e-15
2.196000000000000000e+03 2.922404527664184570e+00 8.942048549652099609e-01 -1.481186999224490264e-13 2.802245536851800944e-14 -3.602887167211341057e-14 1.561251128379126385e-13
2.197000000000000000e+03 2.854472875595092773e+00 1.299949049949645996e+00 -1.160930347080674219e-13 -3.242598518252842732e-13 -1.321058605389946461e-13 3.803047490097931360e-14
2.198000000000000000e+03 2.261663675308227539e+00 1.298247218132019043e+00 1.301042606982605321e-14 9.707779556351187056e-14 3.302646513474866152e-14 -4.003208151797700565e-15
2.199000000000000000e+03 1.088286399841308594e+00 1.120671868324279785e+00 -6.505213034913026604e-14 -5.004010189747125706e-15 -2.101684237342145434e-14 6.004812227696550847e-15
2.200000000000000000e+03 2.197355985641479492e+00 8.886700272560119629e-01 -1.566255127980961670e-13 -1.586271126388302810e-13 -9.457578898633065001e-14 -9.407538902614712151e-14
2.201000000000000000e+03 3.399591922760009766e+00 1.224511742591857910e+00 -5.504410996963601463e-15 1.806447650970141594e-13 5.254210423948774134e-14 3.002405859738391247e-14
2.202000000000000000e+03 2.034901237487792969e+01 5.342971324920654297e+00 -3.517819173980141212e-13 -3.337674646212984708e-13 -2.056648173162992088e-13 3.102486190588275849e-14
2.203000000000000000e+03 2.110828781127929688e+01 5.289262771606445312e+00 -2.441956955655938399e-13 1.240994476235310340e-13 -3.602887167211341057e-14 -1.000802021008766196e-13
2.204000000000000000e+03 1.883009910583496094e+01 5.447298526763916016e+00 -9.357498906596359300e-14 -1.316054605788111176e-13 -6.755413692631148659e-14 1.551243129175455815e-13
2.205000000000000000e+03 1.954028892517089844e+01 4.657379150390625000e+00 -4.593681121253800903e-13 -1.511210996835501974e-13 -1.831467648979318019e-13 4.603689120457471473e-14
2.206000000000000000e+03 2.104417419433593750e+01 4.551930904388427734e+00 -4.988998038475689345e-13 -2.366896826103137563e-13 -2.206768432268593760e-13 -7.405934996122451319e-14
2.207000000000000000e+03 1.878804969787597656e+01 4.708437442779541016e+00 -4.108292211198877331e-13 2.356888826899466993e-13 -5.254210423948774134e-14 1.220978477827969200e-13
2.208000000000000000e+03 2.029225349426269531e+01 4.605130195617675781e+00 -6.250008648643612386e-13 1.896519779328448285e-13 -1.306046606584440606e-13 9.807859548387892756e-14
2.209000000000000000e+03 1.958969306945800781e+01 5.395730018615722656e+00 -2.306848559830571022e-13 1.756407519426517183e-13 -1.651323256737433076e-14 1.871499781319271860e-13
2.210000000000000000e+03 1.637947654724121094e+01 4.803587436676025391e+00 4.168340477471443872e-13 -1.416134868875359998e-13 8.256616283687165381e-14 1.251002475438980910e-13
2.211000000000000000e+03 1.397352027893066406e+01 5.439821243286132812e+00 -2.031628039628544102e-13 -7.275830328848376105e-13 -2.792237469885494594e-13 2.882309733769072846e-13
2.212000000000000000e+03 1.010553455352783203e+01 5.775064945220947266e+00 2.056648173162992088e-13 -4.608692984534035197e-13 -7.656135653840573374e-14 -3.082470259943570490e-13
2.213000000000000000e+03 9.268284797668457031e+00 5.873455047607421875e+00 5.759615332411038846e-13 -2.106688169181344938e-13 1.095878216731543953e-13 -2.762213472274482884e-13
2.214000000000000000e+03 9.962050437927246094e+00 4.842160224914550781e+00 6.805453553124229948e-13 2.001604042017532392e-13 2.642117210779892922e-13 4.083272077664429345e-13
2.215000000000000000e+03 1.803855323791503906e+01 5.487751483917236328e+00 1.150922280114367868e-14 2.336872557441582732e-13 7.355895000104098469e-14 4.233392607820574138e-13
2.216000000000000000e+03 1.639236259460449219e+01 5.543583869934082031e+00 1.561251128379126385e-13 2.041636038832214672e-13 1.080866150163402317e-13 2.872301734565402276e-13
2.217000000000000000e+03 1.475934505462646484e+01 5.574888706207275391e+00 2.201764432666758475e-13 7.806255641895631925e-13 3.002405995263662808e-13 1.471179000020819694e-13
2.218000000000000000e+03 1.397391319274902344e+01 4.807001590728759766e+00 1.988093283750158591e-12 -2.917337866507191402e-13 5.089078030512395046e-13 2.421940957248597259e-13
2.219000000000000000e+03 1.317943286895751953e+01 4.738107681274414062e+00 4.435053886642226217e-12 8.942166126492401279e-13 1.598781220260581115e-12 9.627715291671279374e-13
2.220000000000000000e+03 1.238088989257812500e+01 4.660449504852294922e+00 8.296648958128205464e-12 -4.703769383544720295e-13 2.347881437880783295e-12 -3.202566521438160452e-14
2.221000000000000000e+03 8.494715690612792969e+00 5.880544662475585938e+00 6.104892389139845998e-14 2.091676170375839083e-13 8.106496295632106830e-14 -1.371098736933570872e-13
2.222000000000000000e+03 9.217906951904296875e+00 4.906161785125732422e+00 7.265822600695248656e-13 -4.663737386730038015e-13 7.806255641895631925e-14 -3.753007561842214290e-13
2.223000000000000000e+03 7.731138229370117188e+00 5.860728263854980469e+00 3.372702778951103264e-13 2.131708302715792924e-13 1.651323256737433076e-13 -1.481186999224490264e-13
2.224000000000000000e+03 8.089071273803710938e+00 5.107919692993164062e+00 6.355092775807424932e-13 3.753007561842214290e-13 3.032429992874674518e-13 -1.145918348275168364e-13
2.225000000000000000e+03 1.085972213745117188e+01 4.910424232482910156e+00 4.441559099677139244e-12 6.224988515109164400e-13 1.519217477513601366e-12 -2.381908689383371858e-12
2.226000000000000000e+03 1.008083248138427734e+01 5.222311019897460938e+00 1.248000075677879739e-12 -1.971579908881249121e-13 3.152526254369264480e-13 -3.722983564231202580e-13
2.227000000000000000e+03 1.244511699676513672e+01 4.836139202117919922e+00 -2.677145397728120102e-12 -1.696359415784276514e-12 -1.312051379001588636e-12 -1.561251128379126385e-12
2.228000000000000000e+03 1.556862068176269531e+01 4.825209617614746094e+00 5.559455348337627445e-13 9.507618725244828400e-15 1.696359388679222202e-13 4.403528797570881170e-14
2.229000000000000000e+03 1.557131195068359375e+01 5.565557956695556641e+00 5.634515206839885160e-13 -3.532831037260375506e-13 6.305052373213257400e-14 4.833873644242980827e-13
2.230000000000000000e+03 1.719220733642578125e+01 4.777179718017578125e+00 1.281026608575264181e-13 1.921539912862896271e-13 9.607699564314481355e-14 1.841475648182988589e-13
2.231000000000000000e+03 1.800527954101562500e+01 4.748459815979003906e+00 -2.171740299530475204e-13 -9.307458910578006450e-14 -9.307458910578006450e-14 1.531227130768114675e-13
2.232000000000000000e+03 9.318325996398925781e+00 5.356408596038818359e+00 2.922341730583755126e-13 -6.525229033320367744e-13 -1.080866150163402317e-13 -1.180946345488015359e-13
2.233000000000000000e+03 8.727790832519531250e+00 5.248922824859619141e+00 7.440962993335298314e-13 1.816455650173812164e-13 2.777225606605260300e-13 5.204170427930421283e-14
2.234000000000000000e+03 1.476684761047363281e+01 4.834187984466552734e+00 1.050842138999863451e-12 4.503609128420765773e-13 4.503609128420765773e-13 4.003208084035064784e-13
2.235000000000000000e+03 1.721528816223144531e+01 5.516823768615722656e+00 3.252606517456513302e-14 -7.756215645877279075e-14 -1.351082687704252897e-14 3.372702778951103264e-13
2.236000000000000000e+03 1.075677967071533203e+01 4.723136425018310547e+00 -4.453568861351869801e-13 -1.105886215935214523e-12 -4.653729116475824323e-13 1.080866150163402317e-13
2.237000000000000000e+03 1.156710433959960938e+01 4.636063575744628906e+00 5.292241037763156797e-12 7.205774334422682115e-14 1.609289632976962370e-12 -6.565261030135050024e-13
2.238000000000000000e+03 1.163449478149414062e+01 4.698029041290283203e+00 1.144867447372410751e-11 1.246498889349856309e-12 3.808551998080167422e-12 -9.287442776645393749e-13
2.239000000000000000e+03 1.321089267730712891e+01 5.142216682434082031e+00 -1.411881462437536428e-12 1.179194979508690899e-12 -6.980593674713736485e-14 -3.442758773376797254e-13
2.240000000000000000e+03 6.064543247222900391e+00 3.573476552963256836e+00 -7.693665481447748561e-15 -1.780802068307441033e-13 -5.573216245598720808e-14 -8.112751464540990387e-14
2.241000000000000000e+03 6.481155872344970703e+00 4.280267238616943359e+00 -4.203368474684290867e-14 -1.801443583605670529e-14 -1.801443583605670529e-14 6.204972381176551699e-14
2.242000000000000000e+03 5.616716861724853516e+00 2.920150279998779297e+00 -9.094787911060470131e-14 5.466881084653131551e-14 -1.088372200388132080e-14 -1.029262328036510687e-13
2.243000000000000000e+03 6.529135227203369141e+00 3.343321800231933594e+00 -7.956375629950690476e-14 -1.256006475040816195e-13 -6.154932385158198849e-14 5.604491073703601889e-14
2.244000000000000000e+03 6.083950042724609375e+00 2.712398290634155273e+00 8.006416303595401129e-14 -2.401924687790712998e-13 -4.803849782157240678e-14 -2.014114074903438495e-14
2.245000000000000000e+03 6.081230640411376953e+00 4.429358959197998047e+00 -1.000802037949425141e-14 1.901523778930283570e-13 5.404330750817011586e-14 -5.029030103053007406e-14
2.246000000000000000e+03 7.072127342224121094e+00 5.498886585235595703e+00 3.195060318747500183e-13 -9.182358242905766521e-14 6.830473686658677934e-14 -8.106496295632106830e-14
2.247000000000000000e+03 5.160166740417480469e+00 3.122973203659057617e+00 -3.277626515465689727e-14 -2.899823935663403685e-13 -9.682759558342010631e-14 -1.081491667054290673e-13
2.248000000000000000e+03 5.633822441101074219e+00 3.782831668853759766e+00 1.000802021008766196e-13 1.801443651368306309e-13 8.406736949368581735e-14 -1.281026608575264181e-13
2.249000000000000000e+03 6.546886920928955078e+00 4.943883895874023438e+00 3.572863034075057787e-13 -7.005613842129502361e-15 1.050842084789754827e-13 6.004811719476782494e-14
2.250000000000000000e+03 6.969904899597167969e+00 4.040812969207763672e+00 9.732799554360363481e-14 -4.978990107034654555e-14 1.426142935841666348e-14 -3.803047490097931360e-14
2.251000000000000000e+03 7.447043418884277344e+00 4.761515140533447266e+00 2.390196601840394175e-13 5.668605030360353292e-14 8.871171212985334842e-14 2.231788430277770185e-13
2.252000000000000000e+03 5.466835975646972656e+00 1.780064940452575684e+00 -2.021620040424873532e-13 -1.781427517435693608e-13 -1.140914348673333079e-13 5.404330750817011586e-14
2.253000000000000000e+03 5.362783908843994141e+00 2.328254699707031250e+00 1.331066604593617031e-13 -2.632109211576222352e-13 -3.903127820947815962e-14 -8.006416303595401129e-14
2.254000000000000000e+03 4.886854648590087891e+00 2.462563276290893555e+00 2.952365863720038397e-14 -1.245998475837145625e-13 -2.852285871683332696e-14 -5.004010105043830980e-14
2.255000000000000000e+03 5.811068058013916016e+00 2.087705373764038086e+00 9.707779556351187056e-14 1.331066604593617031e-13 6.905533680686207210e-14 -2.361892690976030718e-13
2.256000000000000000e+03 4.849430561065673828e+00 1.816301584243774414e+00 4.553649124439118623e-14 1.951563910473907981e-14 1.951563910473907981e-14 -1.401122870069854143e-13
2.257000000000000000e+03 2.352721786499023438e+01 5.054647922515869141e+00 -2.827265704267566820e-14 -1.593777193553691518e-13 -5.629511410525957216e-14 -2.057899071419497239e-13
2.258000000000000000e+03 2.308097648620605469e+01 4.360989093780517578e+00 -1.931547912066566841e-13 -1.170938346284344789e-13 -9.307458910578006450e-14 -9.657739560332834206e-14
2.259000000000000000e+03 2.183312416076660156e+01 5.238581657409667969e+00 -3.332670782136420984e-13 -9.707779556351187056e-14 -1.291034607778934751e-13 -1.421138868477195283e-13
2.260000000000000000e+03 2.184036636352539062e+01 4.492896556854248047e+00 -3.162534253572935050e-13 1.160930347080674219e-13 -6.004811719476782494e-14 1.200962445539310169e-14
2.261000000000000000e+03 2.258285140991210938e+01 4.687993049621582031e+00 -1.981587908084919691e-13 -6.204972381176551699e-14 -7.806255641895631925e-14 -4.003208151797700565e-14
2.262000000000000000e+03 2.305534362792968750e+01 5.176393508911132812e+00 -1.971579908881249121e-13 -3.132510255961923340e-13 -1.531227130768114675e-13 -2.872301734565402276e-13
2.263000000000000000e+03 2.249032783508300781e+01 5.236608028411865234e+00 -3.002405995263662808e-13 1.000802021008766196e-13 -6.004811719476782494e-14 -5.604491073703601889e-14
2.264000000000000000e+03 3.883062744140625000e+01 1.149925899505615234e+01 1.911531778133954140e-13 5.904731727440076794e-14 7.506014988159157020e-14 -9.807859548387892756e-14
2.265000000000000000e+03 3.900292968750000000e+01 1.221970939636230469e+01 7.205774334422682115e-14 1.681347389873716347e-13 7.205774334422682115e-14 1.601283260719080226e-14
2.266000000000000000e+03 4.270645523071289062e+01 1.137148189544677734e+01 7.906335633932337625e-14 1.100882199392720293e-14 2.702165375408505793e-14 0.000000000000000000e+00
2.267000000000000000e+03 4.338527297973632812e+01 1.115065574645996094e+01 7.906335633932337625e-14 -1.090874217129708668e-13 -9.007217918028352643e-15 1.626303258728256651e-14
2.268000000000000000e+03 4.049100112915039062e+01 1.189076042175292969e+01 9.907939540424598457e-14 1.110890215537049808e-13 6.305052373213257400e-14 1.401122768425900472e-14
2.269000000000000000e+03 4.152891921997070312e+01 1.088550662994384766e+01 -3.402726844324750755e-14 -2.602085213965210642e-14 -1.801443583605670529e-14 -5.204170427930421283e-14
2.270000000000000000e+03 4.219334030151367188e+01 1.072134494781494141e+01 4.103288143834406265e-14 -1.100882199392720293e-14 9.007217918028352643e-15 3.502807175174635357e-14
2.271000000000000000e+03 4.197386932373046875e+01 1.154970645904541016e+01 -1.100882199392720293e-14 4.103288143834406265e-14 9.007217918028352643e-15 -3.853087824929463112e-14
2.272000000000000000e+03 4.284118652343750000e+01 1.054783821105957031e+01 1.701363422162375377e-14 9.307458910578006450e-14 3.302646513474866152e-14 6.255012631304788726e-15
2.273000000000000000e+03 3.974774169921875000e+01 1.205864620208740234e+01 1.911531778133954140e-13 2.191756433463087905e-13 1.230986477031639770e-13 3.402726844324750755e-14
2.274000000000000000e+03 4.123329162597656250e+01 1.172112464904785156e+01 9.907939540424598457e-14 -4.903929774193946378e-14 1.501202929869195624e-14 -1.150922280114367868e-14
2.275000000000000000e+03 3.950727844238281250e+01 1.135225868225097656e+01 1.381106736137241442e-13 8.206576287668812530e-14 6.605293026949732305e-14 4.203368474684290867e-14
2.276000000000000000e+03 4.018237304687500000e+01 1.119843482971191406e+01 1.000802021008766196e-13 2.001604075898850282e-14 3.602887167211341057e-14 -3.152526186606628700e-14
2.277000000000000000e+03 4.085649871826171875e+01 1.104286193847656250e+01 1.471179000020819694e-13 1.431146867680865853e-13 8.706977603105056640e-14 7.405934996122451319e-14
2.278000000000000000e+03 3.660844421386718750e+01 1.264014816284179688e+01 5.004010189747125706e-15 1.851483647386659159e-13 5.704571743366665393e-14 -8.206576287668812530e-14
2.279000000000000000e+03 3.708995437622070312e+01 1.262835311889648438e+01 1.501202929869195624e-14 -8.506816941405287436e-14 -2.101684237342145434e-14 -1.190954344691685929e-13
2.280000000000000000e+03 3.741391754150390625e+01 1.203295421600341797e+01 1.326062604991781746e-13 8.256616283687165381e-14 6.455173038894673754e-14 -8.281636281696341806e-14
2.281000000000000000e+03 3.807363891601562500e+01 1.165119171142578125e+01 1.271018609371593611e-13 -3.702967498061225660e-14 2.702165375408505793e-14 -8.006416303595401129e-15
2.282000000000000000e+03 3.684595489501953125e+01 1.185508537292480469e+01 6.405133042876320904e-14 9.607699564314481355e-14 4.803849782157240678e-14 -2.101684237342145434e-14
2.283000000000000000e+03 3.828802871704101562e+01 1.236698246002197266e+01 1.130906281707026728e-13 -4.303448466720996568e-14 2.101684237342145434e-14 -6.204972381176551699e-14
2.284000000000000000e+03 3.765207290649414062e+01 1.253643894195556641e+01 9.607699564314481355e-14 -9.607699564314481355e-14 0.000000000000000000e+00 -1.200962445539310169e-14
2.285000000000000000e+03 5.544353008270263672e+00 1.129850029945373535e+00 -3.002405859738391247e-14 -1.501202997631831404e-13 -5.404330750817011586e-14 -5.504411081666896188e-14
2.286000000000000000e+03 4.790751457214355469e+00 1.129850029945373535e+00 -1.606287260320915511e-13 4.553649124439118623e-14 -3.452766840343103605e-14 -9.607699564314481355e-14
2.287000000000000000e+03 4.676749229431152344e+00 3.898500204086303711e-01 -7.155734338404329264e-14 1.065854151357896462e-13 1.050842118671072717e-14 -4.203368474684290867e-14
2.288000000000000000e+03 5.432579994201660156e+00 3.898500204086303711e-01 2.101684237342145434e-14 9.007217918028352643e-15 9.007217918028352643e-15 -8.006416303595401129e-15
2.289000000000000000e+03 6.907563018798828125e+01 9.613474845886230469e+00 4.842805843841002655e-14 2.075488218789001138e-14 2.075488218789001138e-14 5.107100113361899563e-14
2.290000000000000000e+03 6.825119781494140625e+01 8.921934127807617188e+00 8.611741284273929931e-14 -3.171896136044440040e-14 1.631953476706211187e-14 2.786313016520537006e-14
2.291000000000000000e+03 6.751199340820312500e+01 8.968356132507324219e+00 1.104512260732132267e-13 1.585290029301321835e-15 3.361095513780380795e-14 -4.974616367708212250e-14
2.292000000000000000e+03 6.972740173339843750e+01 8.834673881530761719e+00 -2.946522691636699331e-14 5.599846961460396011e-14 7.959971793031553333e-15 6.493036766889656586e-14
2.293000000000000000e+03 6.898968505859375000e+01 8.877312660217285156e+00 -2.807557280464032662e-14 1.023449852427180118e-13 2.228082390082989500e-14 5.369383187852835859e-14
2.294000000000000000e+03 6.833048248291015625e+01 9.658497810363769531e+00 5.820550205010155409e-14 2.494521685839513198e-14 2.494521685839513198e-14 -1.610626711753652962e-14
2.295000000000000000e+03 6.982001495361328125e+01 9.570433616638183594e+00 2.591626728758872344e-13 1.568206691891435578e-13 1.247950039747619533e-13 1.663025355716930137e-14
2.296000000000000000e+03 6.758460998535156250e+01 9.705322265625000000e+00 6.615983260370439378e-14 -6.314768179931443126e-14 9.036448178005151294e-16 8.307528046014832357e-15
2.297000000000000000e+03 7.147385406494140625e+01 8.767812728881835938e+00 -4.408623531342026336e-13 -3.261938516605639160e-13 -2.301168695699462585e-13 -2.271120303539569951e-13
2.298000000000000000e+03 7.143866729736328125e+01 9.382119178771972656e+00 3.068090486529895244e-13 2.229914928923715234e-13 1.589401624636083143e-13 -2.783776957524810268e-15
2.299000000000000000e+03 7.307790374755859375e+01 9.231614112854003906e+00 -1.148301397545237190e-12 5.688220619352868379e-14 -3.274257763790505704e-13 -6.331329368116159206e-14
2.300000000000000000e+03 7.513105010986328125e+01 8.432328224182128906e+00 -3.252461234365400244e-13 1.808654544492235838e-13 -4.331419866331585877e-14 6.773160726942020760e-14
2.301000000000000000e+03 7.571532440185546875e+01 8.448059082031250000e+00 1.596499760734074180e-13 1.370478437765637603e-13 8.900934595499135349e-14 -4.173357080923534301e-14
2.302000000000000000e+03 7.546918487548828125e+01 7.697641372680664062e+00 -2.545315032961154023e-13 -3.950283568136814250e-13 -1.948679661644553418e-13 4.004943891713214077e-13
2.303000000000000000e+03 7.603138732910156250e+01 7.629337310791015625e+00 -2.850885218001752985e-13 -2.594336421038456741e-13 -1.633566600132280167e-13 1.961664947776504964e-14
2.304000000000000000e+03 7.644174194335937500e+01 8.318575859069824219e+00 9.315119476552974342e-14 -5.157995612656979256e-14 1.247137176109457471e-14 -5.029922875779413438e-14
2.305000000000000000e+03 7.060559082031250000e+01 8.727299690246582031e+00 -1.901251779710261269e-13 -8.148221816240211468e-14 -8.148221816240211468e-14 -1.022533769354065647e-13
2.306000000000000000e+03 7.222555541992187500e+01 8.980293273925781250e+00 -1.003047796731271202e-12 -2.468738375619589087e-13 -3.749764984194853268e-13 -1.775307738273099178e-13
2.307000000000000000e+03 7.660232543945312500e+01 7.531237602233886719e+00 -2.136258563708443026e-13 -1.373048810066057612e-13 -1.052792225684877347e-13 -6.506356868204998811e-14
2.308000000000000000e+03 7.718956756591796875e+01 7.397714614868164062e+00 -8.676287905360138830e-14 -1.744369351654867506e-13 -7.835994629860551508e-14 -1.043537882516355764e-13
2.309000000000000000e+03 7.718447875976562500e+01 8.153775215148925781e+00 3.293404367580785030e-14 5.986553754892126600e-14 2.783987572267145050e-14 -4.376578242068322744e-14
2.310000000000000000e+03 7.459939575195312500e+01 8.560563087463378906e+00 -1.005809910185895273e-12 -1.163076579491217899e-12 -6.506659360611122267e-13 8.722868347771361996e-13
2.311000000000000000e+03 7.390641021728515625e+01 9.072031021118164062e+00 -1.066722231379824137e-12 2.748485033315928305e-13 -2.375621129934585296e-13 4.965492535376203609e-13
2.312000000000000000e+03 7.305329895019531250e+01 9.056441307067871094e+00 -5.523307454983897649e-15 -3.683747100760581539e-13 -1.121694086897960518e-13 -3.406742119307915040e-13
2.313000000000000000e+03 7.061698913574218750e+01 9.479925155639648438e+00 2.117109927039090289e-13 -1.837724037615645623e-13 8.381575666263803293e-15 -6.820472599243856959e-14
2.314000000000000000e+03 7.224602508544921875e+01 9.321455001831054688e+00 2.217356750685087197e-13 -4.997327421665809233e-13 -8.339912826093795473e-14 -1.363082688171299295e-13
2.315000000000000000e+03 7.389241027832031250e+01 8.903426170349121094e+00 -4.365990804566094452e-13 3.618974965622495654e-13 -2.241048092813200526e-14 2.629661625171836326e-13
2.316000000000000000e+03 7.465680694580078125e+01 8.874684333801269531e+00 5.050074941559401509e-13 -1.495758134321609201e-13 1.066295082828919161e-13 5.395389809838974093e-14
2.317000000000000000e+03 7.874211883544921875e+01 7.323916435241699219e+00 6.386461133290341832e-15 2.737054831912499875e-15 2.737054831912499875e-15 1.790435543423153641e-14
2.318000000000000000e+03 7.958081054687500000e+01 7.330793857574462891e+00 -8.119289881267435782e-14 -3.479695711802212321e-14 -3.479695711802212321e-14 -5.880075614785040816e-14
2.319000000000000000e+03 7.796375274658203125e+01 8.063729286193847656e+00 -5.178286117501866570e-14 -4.506812945840460438e-14 -2.905529685121380212e-14 -1.074394293285952165e-14
2.320000000000000000e+03 7.959292602539062500e+01 8.079203605651855469e+00 2.788017416217002109e-14 -3.380230326872034341e-14 -1.776638689613449333e-15 -2.089390739958875420e-14
2.321000000000000000e+03 7.790320587158203125e+01 7.321667194366455078e+00 -5.536253760659616552e-14 1.135260437631728514e-13 1.744905150815982686e-14 4.763456474968577603e-14
2.322000000000000000e+03 7.877845001220703125e+01 8.069152832031250000e+00 3.446328034691255315e-14 -3.098097204668782967e-14 1.044693061814656442e-15 3.306970447264009905e-14
2.323000000000000000e+03 6.507482147216796875e+01 9.227519989013671875e+00 1.177684252201549597e-13 1.963033278680817451e-13 9.422152592647101144e-14 7.808184844136298319e-14
2.324000000000000000e+03 6.554332733154296875e+01 9.913635253906250000e+00 6.839428518977050397e-14 7.506278584812342558e-14 4.303712063374182106e-14 1.541404299392010874e-14
2.325000000000000000e+03 6.679553222656250000e+01 9.019088745117187500e+00 1.157859751002923709e-13 3.871609724980483447e-15 3.589727324529619346e-14 -1.348451379853607413e-13
2.326000000000000000e+03 6.679153442382812500e+01 9.765625953674316406e+00 1.235148729171811621e-13 -1.569148016546378227e-14 3.234701596204273000e-14 -7.733353210191348803e-14
2.327000000000000000e+03 6.604345703125000000e+01 9.579406738281250000e+00 -6.028871520936951445e-14 -1.859663410676976047e-13 -7.387651959362556697e-14 1.476564503262098316e-13
2.328000000000000000e+03 6.556449127197265625e+01 9.097209930419921875e+00 1.264944908801329815e-13 9.996287787328653196e-14 6.793721265890492744e-14 -2.196154906151590036e-13
2.329000000000000000e+03 6.613393402099609375e+01 9.029633522033691406e+00 1.010598465263530532e-13 -2.439585966440972579e-15 2.958607818914944787e-14 3.006966420651679961e-13
2.330000000000000000e+03 1.541213321685791016e+01 -1.200276851654052734e+00 9.004429146752812585e-14 -1.672888580049256002e-13 -2.317336962240606341e-14 -8.198541671944337139e-14
2.331000000000000000e+03 1.492779254913330078e+01 -1.209148883819580078e+00 -6.366526636393185501e-14 -1.416624928257323446e-13 -6.159832978977833329e-14 1.299129125673439966e-13
2.332000000000000000e+03 1.413628101348876953e+01 -4.783181548118591309e-01 -6.649870676897831623e-14 1.725150140200349541e-14 -1.477416211831221460e-14 1.465177093963165172e-14
2.333000000000000000e+03 1.504627418518066406e+01 -2.403991073369979858e-01 -7.096684622332621872e-14 8.396300825832050951e-14 3.898848610498287237e-15 1.094217998273607634e-14
2.334000000000000000e+03 1.338533020019531250e+01 -5.051840543746948242e-01 -7.552651266982263190e-14 -1.238704099145934712e-13 -5.981907270956668410e-14 8.779899685973716061e-15
2.335000000000000000e+03 1.341003894805908203e+01 -1.247041940689086914e+00 -6.804626306866623509e-14 6.233921256808272471e-14 -1.712115319581642564e-15 3.515501488548546105e-14
2.336000000000000000e+03 1.478596019744873047e+01 -6.010243296623229980e-01 -4.364810243925529298e-14 -1.102082292613049130e-13 -4.615689883254170400e-14 -2.908574937973348873e-14
2.337000000000000000e+03 1.418866443634033203e+01 -1.221349954605102539e+00 -3.834290130950816777e-14 -2.909383617268751498e-13 -9.878437721684910078e-14 -1.096302779290860962e-15
2.338000000000000000e+03 1.524489021301269531e+01 -7.194287776947021484e-01 -6.168257907484403502e-14 -1.179372897085195770e-13 -5.388595927975636801e-14 1.143576607107871235e-13
2.339000000000000000e+03 3.690422439575195312e+01 1.020223522186279297e+01 7.855548724261095933e-15 4.911761102011080737e-14 1.709194919386099187e-14 -2.076360662724673067e-14
2.340000000000000000e+03 3.796553421020507812e+01 1.098825454711914062e+01 9.002541279719972200e-14 3.130880157995591384e-13 1.209340245132695113e-13 -3.130370557563534779e-15
2.341000000000000000e+03 3.791804885864257812e+01 1.050252246856689453e+01 4.889376054094222990e-14 -7.054742938916377937e-14 -6.496100230949991214e-15 9.346135790202353411e-14
2.342000000000000000e+03 3.733737182617187500e+01 1.076026248931884766e+01 -2.759148161682323241e-14 -1.337083113499282216e-13 -4.838993517952000500e-14 5.519563823466917818e-14
2.343000000000000000e+03 3.674065399169921875e+01 1.102671718597412109e+01 2.018765979849759112e-14 7.727827844869819551e-14 2.923978062712578874e-14 6.839941820943086503e-15
2.344000000000000000e+03 3.630093765258789062e+01 1.034548854827880859e+01 3.186410553815410829e-14 8.800133609017726788e-14 3.595963181087305505e-14 1.008336226608662692e-14
2.345000000000000000e+03 3.774382019042968750e+01 1.002957153320312500e+01 8.640183973016371533e-14 -1.002234861942341571e-13 -4.146493515704658891e-15 1.231611655109349224e-13
2.346000000000000000e+03 1.112103080749511719e+01 -4.428110718727111816e-01 -3.820972062514547962e-14 2.937535333253152303e-14 -2.650309552509476536e-15 -4.578436018981210665e-14
2.347000000000000000e+03 1.187371921539306641e+01 -4.752737879753112793e-01 -1.031994314223266818e-13 -1.814811728629781018e-13 -8.540418399609686628e-14 7.832168751444393284e-14
2.348000000000000000e+03 1.111492252349853516e+01 -1.183259963989257812e+00 -8.750442590573642709e-14 -1.747547419272965641e-13 -7.867775306041532857e-14 -3.870774211681311805e-14
2.349000000000000000e+03 1.262644767761230469e+01 -5.069373250007629395e-01 -3.871012058532900812e-14 2.121646906555127443e-13 5.203637135986829976e-14 -3.823130302464151919e-14
2.350000000000000000e+03 1.035515594482421875e+01 -1.148333072662353516e+00 -8.388140171605024120e-14 -8.170012247028096697e-14 -4.967445725589936245e-14 3.654463511589423758e-15
2.351000000000000000e+03 1.036805534362792969e+01 -4.081833958625793457e-01 2.556510945051371914e-14 -8.054542005152959261e-14 -1.649409301089817259e-14 6.313805950503362241e-14
2.352000000000000000e+03 1.263392257690429688e+01 -1.248021602630615234e+00 -8.412258926558321970e-14 -2.648072733313355798e-13 -1.046789608119547133e-13 -8.274546954741002214e-14
2.353000000000000000e+03 1.187440204620361328e+01 -1.216021895408630371e+00 -6.577431741622286054e-14 -1.654418382889336070e-13 -6.936484942205237147e-14 -2.758064637136195540e-15
2.354000000000000000e+03 1.038163661956787109e+01 3.719484806060791016e-01 -3.971392713384563899e-13 1.958050421021345633e-13 -6.040026606039111678e-14 9.323385162865460707e-14
2.355000000000000000e+03 1.112833786010742188e+01 3.352923989295959473e-01 -4.556495697242979315e-13 -1.227458229052487762e-14 -1.403772389128865594e-13 4.046988320225959959e-15
2.356000000000000000e+03 1.187404060363769531e+01 3.023687005043029785e-01 -4.527709045361316686e-13 -5.679182438992486093e-14 -1.528688200330696745e-13 6.793259802340828601e-14
2.357000000000000000e+03 1.187335777282714844e+01 1.043116807937622070e+00 -3.552720997165165207e-13 7.649527441599274225e-14 -8.363304487965170231e-14 9.501478244597003076e-14
2.358000000000000000e+03 1.261872673034667969e+01 2.733090519905090332e-01 -3.997913653776274945e-13 -3.408630663967113228e-14 -1.301632955065523678e-13 -6.206346607430177076e-14
2.359000000000000000e+03 1.261125278472900391e+01 1.014356493949890137e+00 -2.901756526035859096e-13 5.864280144384642623e-14 -6.945985263741641380e-14 -7.267345498171776108e-14
2.360000000000000000e+03 1.039453697204589844e+01 1.112098097801208496e+00 -2.754664443598009438e-13 -2.655514697025296300e-14 -9.060647739901617204e-14 5.338499011343228462e-14
2.361000000000000000e+03 1.113444709777832031e+01 1.075741291046142578e+00 -2.600646477682322377e-13 7.154751780185514276e-14 -5.655513966753948629e-14 9.269531485705390095e-14
2.362000000000000000e+03 1.478255176544189453e+01 1.125994801521301270e+00 -4.530967614990721870e-14 -6.516938003782099531e-14 -3.314371821157117981e-14 -1.198503915469245618e-13
2.363000000000000000e+03 1.406890583038330078e+01 1.073610067367553711e+00 -1.083320377306094817e-13 -1.379299100065164985e-13 -7.387858635401686747e-14 -1.761717535091536502e-13
2.364000000000000000e+03 1.411068916320800781e+01 3.298048675060272217e-01 -1.671949796493155116e-13 6.559785673638726666e-14 -3.047913551862575787e-14 -8.251234575153490458e-14
2.365000000000000000e+03 1.334397411346435547e+01 1.023863434791564941e+00 -3.009635184299253030e-13 8.268484062311145383e-15 -8.780851073380072092e-14 -2.204371261265228310e-13
2.366000000000000000e+03 1.484494400024414062e+01 3.804935514926910400e-01 -3.715537805811658378e-14 -6.167468472777562494e-14 -2.964901951339402042e-14 -6.361338728997842362e-14
2.367000000000000000e+03 1.336514949798583984e+01 2.817863523960113525e-01 -2.727480242527280385e-13 -1.168920103940263022e-13 -1.168920103940263022e-13 -4.814450907711896599e-14
2.368000000000000000e+03 3.878360366821289062e+01 1.077974700927734375e+01 1.031283077598116327e-13 -4.730405249366714804e-14 1.674727624103016649e-14 -1.286725209075165882e-14
2.369000000000000000e+03 3.957522964477539062e+01 1.056512928009033203e+01 7.164084728011541059e-14 -6.079867647746164949e-14 3.252650351411533712e-15 -5.503825951306932918e-14
2.370000000000000000e+03 4.090800857543945312e+01 1.034381008148193359e+01 -2.144700466755276175e-14 1.051857982225373744e-13 2.512163857471515216e-14 -2.797606676212868043e-15
2.371000000000000000e+03 3.851947784423828125e+01 9.862163543701171875e+00 1.009697222207651957e-13 -3.227348401545204748e-13 -6.652953876825837276e-14 8.421226972590671600e-15
2.372000000000000000e+03 4.172409439086914062e+01 9.294953346252441406e+00 3.957304387067379914e-14 -1.735333509105419642e-14 6.665912972699059719e-15 5.380499309439422395e-14
2.373000000000000000e+03 4.155122756958007812e+01 1.012382030487060547e+01 -1.105121175777254439e-14 2.957697766716414767e-14 5.557730026927365161e-15 -4.437083414853297200e-15
2.374000000000000000e+03 4.225697326660156250e+01 9.941902160644531250e+00 9.019878519490962671e-15 2.674113677074516776e-14 1.072830416355436550e-14 1.115118282137223318e-14
2.375000000000000000e+03 3.865528106689453125e+01 1.028447341918945312e+01 -5.220991485823354983e-14 6.912622330015188998e-14 5.074892024355733694e-15 -4.339907814089431770e-14
2.376000000000000000e+03 4.028055191040039062e+01 1.048345947265625000e+01 -1.009378941107391681e-13 -2.262628967649935041e-13 -9.816023590746708605e-14 4.156426586373815346e-14
2.377000000000000000e+03 3.979833984375000000e+01 9.753077507019042969e+00 5.509281859926787317e-14 -1.593925864776593593e-13 -3.128992900826473023e-14 -4.079364545272155806e-14
2.378000000000000000e+03 4.048064422607421875e+01 9.892707824707031250e+00 9.009228096618776549e-14 5.004871368144599153e-14 4.204229737785059040e-14 -1.829250997637671405e-14
2.379000000000000000e+03 4.102310943603515625e+01 9.477449417114257812e+00 -2.227160310016608469e-14 -9.818743582946931614e-14 -3.613771201770379915e-14 1.792723210007098056e-14
2.380000000000000000e+03 3.913888168334960938e+01 9.795186042785644531e+00 1.027223689139059037e-13 8.977481979382043176e-14 5.774915457943882724e-14 -7.090184830308571273e-14
2.381000000000000000e+03 5.397003936767578125e+01 1.078238105773925781e+01 -1.713261185752688182e-14 -2.818482480824308078e-13 -8.969425679614118074e-14 -3.630934122160825450e-14
2.382000000000000000e+03 5.390347290039062500e+01 1.004510879516601562e+01 3.190494269060713262e-14 -3.207740198679989718e-14 -5.173739776683575480e-17 -2.982632722617686860e-14
2.383000000000000000e+03 5.471431732177734375e+01 1.073740196228027344e+01 -1.394815252880876599e-14 1.312750635192733162e-13 3.519807465239208066e-14 1.744825699125530233e-14
2.384000000000000000e+03 5.322494125366210938e+01 1.082944869995117188e+01 1.849193710754416103e-14 -3.782583174092267464e-14 -5.800169067639911885e-15 1.346004216965695013e-14
2.385000000000000000e+03 5.242547225952148438e+01 1.014035129547119141e+01 2.847848774292435770e-14 5.795601357768548345e-14 2.593035175143566795e-14 -4.905837970017520866e-14
2.386000000000000000e+03 5.247904205322265625e+01 1.087844371795654297e+01 4.208679710076754232e-14 -7.346469895093410418e-14 -9.413370216236789656e-15 1.759863075038135827e-14
2.387000000000000000e+03 5.464125442504882812e+01 1.000053882598876953e+01 -8.151936563933689928e-14 -1.950651960921576111e-13 -8.297536784182199532e-14 -9.950968136518759111e-14
2.388000000000000000e+03 5.316487503051757812e+01 1.009176635742187500e+01 -1.235966929117541385e-14 -1.654253177583303591e-13 -5.333549628425832134e-14 -5.039408289535945995e-14
2.389000000000000000e+03 3.829926013946533203e+00 -2.321696430444717407e-01 -1.444479843897006344e-14 -6.190627962918094848e-15 -6.190627962918094848e-15 1.409112220353628264e-13
2.390000000000000000e+03 3.970147609710693359e+00 -1.114165306091308594e+00 -1.135299197859394871e-13 -9.440662634236859918e-14 -6.238096112798699466e-14 1.163511832453362205e-13
2.391000000000000000e+03 3.338446617126464844e+00 -1.248300433158874512e+00 -2.345733911203896210e-14 -2.388078883946986863e-13 -7.867956909905424179e-14 6.984422263635325923e-14
2.392000000000000000e+03 2.908796072006225586e+00 -7.017013430595397949e-01 -3.707350554750087762e-15 -1.617171836981040611e-13 -4.962736222403202335e-14 -1.232366530871942256e-14
2.393000000000000000e+03 2.229920864105224609e+00 -6.232479214668273926e-01 2.978056711823440228e-14 2.872687981589350237e-13 9.511480687264539657e-14 4.265039588321160868e-15
2.394000000000000000e+03 1.127424359321594238e+00 -3.858661353588104248e-01 -4.004040615778262091e-14 -1.716017430963053675e-14 -1.716017430963053675e-14 5.217458680806946747e-15
2.395000000000000000e+03 3.723000884056091309e-01 -1.130045890808105469e+00 4.577720106734191330e-14 1.111207005859322916e-13 4.706937015716908257e-14 -1.384050311154221696e-14
2.396000000000000000e+03 3.652943074703216553e-01 -3.900459408760070801e-01 -5.740210146402621727e-14 -2.460089965940215340e-14 -2.460089965940215340e-14 -3.661440860789136331e-14
2.397000000000000000e+03 3.576082229614257812e+00 -7.204700112342834473e-01 5.356224700423829754e-14 -1.142975959104314265e-13 -1.822060534948429650e-14 1.284248179805533296e-13
2.398000000000000000e+03 2.670625686645507812e+00 -1.228771686553955078e+00 2.919835065748880481e-16 -1.371277088190944737e-13 -4.105071656408144920e-14 1.381891562984849386e-14
2.399000000000000000e+03 1.935171604156494141e+00 -1.170798420906066895e+00 -4.168363652292880750e-14 -6.361536595894320967e-14 -3.158970074456160515e-14 7.752450415020144259e-15
2.400000000000000000e+03 1.148441791534423828e+00 -1.125866174697875977e+00 8.971103821289218294e-15 -4.190618934762219139e-14 -9.880525827306481379e-15 -7.207013035404746804e-14
2.401000000000000000e+03 3.110601663589477539e+00 -2.329296469688415527e-01 -1.071547568016160967e-13 -4.592346671667378588e-14 -4.592346671667378588e-14 -6.815108508995484926e-14
2.402000000000000000e+03 2.447321176528930664e+00 -2.124495506286621094e-01 2.818601912469870935e-14 1.950835191088726162e-13 6.698085825134619808e-14 -6.187186044536926999e-14
2.403000000000000000e+03 1.827513575553894043e+00 -2.878513634204864502e-01 -3.012550942754245453e-14 7.859096267650786394e-14 1.453963563587644392e-14 5.614303780990953507e-14
2.404000000000000000e+03 8.670824050903320312e+00 3.840262591838836670e-01 -2.584508670445961886e-13 2.648818901577251056e-14 -6.958880493330640848e-14 5.871851263680380462e-14
2.405000000000000000e+03 7.878619670867919922e+00 1.127028346061706543e+00 -1.521315490032523754e-13 2.630266338933540116e-14 -3.774866365129601886e-14 1.654892043713440675e-13
2.406000000000000000e+03 7.779973506927490234e+00 3.870283365249633789e-01 -1.258317451971469048e-13 8.332495527981279015e-14 -1.275203528113433987e-14 7.858211287627495101e-14
2.407000000000000000e+03 9.562618255615234375e+00 3.869979083538055420e-01 -3.322771203149998964e-13 -9.665353370089113660e-14 -1.286791989152727411e-13 1.549484517252784068e-16
2.408000000000000000e+03 9.595384597778320312e+00 1.126997947692871094e+00 -1.116913094130478346e-13 1.351360971908743824e-13 7.033435486315017110e-15 1.125230822147244014e-13
2.409000000000000000e+03 8.736529350280761719e+00 1.124026298522949219e+00 -1.057880522005623380e-13 -4.533773665738385916e-14 -4.533773665738385916e-14 5.054418052174471099e-14
2.410000000000000000e+03 6.957012653350830078e+00 3.898485600948333740e-01 -8.034460717446043759e-15 8.805855485983019038e-14 2.400722951326466487e-14 8.098320733625208323e-14
2.411000000000000000e+03 7.073252201080322266e+00 1.129848599433898926e+00 -5.023282815099297527e-14 -6.727930522811356728e-14 -3.525364001373196277e-14 1.324719820601158449e-13
2.412000000000000000e+03 6.319694042205810547e+00 1.129848599433898926e+00 2.957329476790948597e-14 8.130068883741015107e-14 3.326219440396953331e-14 8.634933046369752674e-14
2.413000000000000000e+03 6.201207637786865234e+00 3.898485600948333740e-01 -1.184635123151331002e-14 -5.082795688786563570e-14 -1.880229167348403119e-14 2.376858814477113280e-14
2.414000000000000000e+03 2.364089393615722656e+01 2.601082563400268555e+00 7.240971602699708409e-13 8.593387503322280629e-13 4.750307677596488087e-13 -3.479311294369430430e-13
2.415000000000000000e+03 2.332264328002929688e+01 2.560712575912475586e+00 7.799742839445511500e-13 6.545313336464575471e-13 4.303516906983134716e-13 -2.718405741394119834e-13
2.416000000000000000e+03 2.290981674194335938e+01 3.515486240386962891e+00 3.757197596663056083e-14 -2.964867392395154067e-14 2.376990443397116598e-15 -4.551441417765395014e-14
2.417000000000000000e+03 2.310150527954101562e+01 2.904940843582153320e+00 3.888262867061953454e-13 -1.078658579014950269e-13 8.428813338479460016e-14 -3.211428247894970722e-13
2.418000000000000000e+03 2.188722229003906250e+01 3.671722650527954102e+00 3.293248920094304921e-13 1.640147165218180936e-13 1.480018906908908694e-13 -1.986880034414092999e-13
2.419000000000000000e+03 2.182034492492675781e+01 2.934541463851928711e+00 2.741543428906589863e-13 -1.975812769687904091e-14 7.631886794626577264e-14 -3.221528404283302560e-13
2.420000000000000000e+03 2.274585723876953125e+01 2.712561368942260742e+00 3.172367967277378575e-13 3.647133864446289175e-13 2.045850603727208950e-13 -1.315236304198427741e-13
2.421000000000000000e+03 1.948812866210937500e+01 3.877326726913452148e+00 1.342709363832961245e-12 -1.108173543705980035e-13 3.695676035163353301e-13 -3.329165014411689105e-13
2.422000000000000000e+03 2.017558670043945312e+01 3.088615179061889648e+00 3.048961365499647247e-13 3.916787751881596613e-14 1.032192045594473861e-13 -3.030763845186107419e-13
2.423000000000000000e+03 2.097657775878906250e+01 3.774520874023437500e+00 7.654008720228699936e-13 7.772299785106101533e-15 2.319519359569865991e-13 -2.029804140523880363e-13
2.424000000000000000e+03 1.870165252685546875e+01 3.189713239669799805e+00 -1.580599800349302697e-13 1.152638097814961959e-13 -1.283885277009611664e-14 -4.105028491609152841e-13
2.425000000000000000e+03 1.874370384216308594e+01 3.928573846817016602e+00 1.850061770447553045e-12 1.981213045183782828e-13 6.144549387528119855e-13 -4.576204866435507057e-13
2.426000000000000000e+03 2.091246414184570312e+01 3.037189483642578125e+00 2.296155344853889613e-13 2.127840275940179326e-13 1.327198713343274994e-13 -3.583489570618131337e-13
2.427000000000000000e+03 1.943872451782226562e+01 3.138975620269775391e+00 1.827984920550751458e-13 5.358516907104371452e-13 2.155950521191482561e-13 -4.379755835347970416e-13
2.428000000000000000e+03 2.023234558105468750e+01 3.826456785202026367e+00 1.000618641763817429e-12 1.543308666626663772e-13 3.464848579489560043e-13 -2.084141778428694192e-13
2.429000000000000000e+03 1.782813644409179688e+01 3.230336189270019531e+00 -1.971708169998254156e-12 -1.816290309342508125e-13 -6.460011562139933439e-13 1.313692671355351504e-13
2.430000000000000000e+03 1.714118003845214844e+01 3.993535280227661133e+00 4.068495974146602023e-12 -3.380271052216138328e-13 1.119140587493849814e-12 -5.349415571967441885e-13
2.431000000000000000e+03 1.640178298950195312e+01 3.836274147033691406e+00 2.368633717983459341e-12 -1.286450058892579795e-13 6.719965838127006652e-13 1.165704631347214137e-13
2.432000000000000000e+03 1.699339294433593750e+01 3.295831918716430664e+00 -4.872547244155756019e-12 -6.242041388979102656e-13 -1.649025425758121610e-12 5.442375066236349035e-13
2.433000000000000000e+03 1.504697895050048828e+01 3.569142580032348633e+00 -5.572631115238757538e-13 4.474371719485892296e-13 -3.294778932647589309e-14 5.230685134159640537e-13
2.434000000000000000e+03 1.613087272644042969e+01 4.177633762359619141e+00 4.868055177714714077e-12 -2.012381011612038306e-13 1.400045118900294927e-12 -1.867252792003056688e-14
2.435000000000000000e+03 1.794593238830566406e+01 3.966707706451416016e+00 2.830450934396266938e-12 -6.797621005579651543e-14 8.287424023943612550e-13 -7.137110997687545755e-13
2.436000000000000000e+03 1.581964015960693359e+01 3.551553249359130859e+00 -1.611083228630905140e-12 -1.147973751648712071e-12 -8.277170723998417134e-13 1.047836513737299136e-12
2.437000000000000000e+03 1.634242057800292969e+01 3.298486232757568359e+00 -5.641029744013481562e-12 7.216111693917563047e-15 -1.690144118410286111e-12 -2.924021769612657196e-14
2.438000000000000000e+03 1.438128376007080078e+01 3.381505727767944336e+00 -2.580932971681104693e-13 2.782716548507813137e-13 6.053507304801253319e-15 5.131575503067309363e-13
2.439000000000000000e+03 1.329719638824462891e+01 4.140827655792236328e+00 7.626442337892169743e-13 -6.203554109209669098e-14 2.101826064538833694e-13 2.166844178044802227e-13
2.440000000000000000e+03 1.248904895782470703e+01 4.164506435394287109e+00 5.206713424125986034e-13 -7.423629853203772555e-14 1.339305185851791258e-13 -2.001496502714548986e-15
2.441000000000000000e+03 1.165110397338867188e+01 4.189637184143066406e+00 4.508222679715234715e-13 -1.041716219578672775e-13 1.039951951593495738e-13 3.253363087285000843e-14
2.442000000000000000e+03 1.078309440612792969e+01 4.266150951385498047e+00 3.515800118484430081e-13 1.506771459989716955e-13 1.506771459989716955e-13 8.437102741714469500e-14
2.443000000000000000e+03 9.957122802734375000e+00 4.345417976379394531e+00 1.523463023485674417e-13 -7.196157461152735690e-14 2.411541594941977312e-14 -1.136738120489531531e-14
2.444000000000000000e+03 1.061056041717529297e+01 3.322474718093872070e+00 2.186455633516534713e-13 -4.354760706226125377e-14 5.252938519275177076e-14 1.323857473298217791e-13
2.445000000000000000e+03 9.205513000488281250e+00 4.340375423431396484e+00 2.464044864414899338e-13 2.199792946541365146e-13 1.399151383944460814e-13 -5.124631662490990169e-14
2.446000000000000000e+03 8.465495109558105469e+00 4.315532207489013672e+00 1.627188916377905747e-13 2.398571657047030015e-14 5.601138178485190466e-14 2.253484230544788164e-14
2.447000000000000000e+03 8.824831008911132812e+00 3.562674760818481445e+00 1.433512054720142981e-13 9.574943783804620856e-14 7.173019231539179419e-14 5.278897368603090168e-14
2.448000000000000000e+03 1.547477531433105469e+01 3.193459987640380859e+00 -2.767942559184222162e-12 -4.313704883747437879e-13 -9.597939847408309966e-13 -6.792506552881494297e-13
2.449000000000000000e+03 1.360832500457763672e+01 3.389636039733886719e+00 1.885164252349649794e-13 2.866720261781446899e-13 1.425565394896910476e-13 3.124234811829884606e-13
2.450000000000000000e+03 1.280821132659912109e+01 3.413037061691284180e+00 2.548120406082460265e-13 -2.804768339781903153e-14 6.802930885719399301e-14 1.706821262017349516e-13
2.451000000000000000e+03 1.197830200195312500e+01 3.437890291213989258e+00 3.954409499504207837e-13 2.609765973205641076e-13 1.969252533392737425e-13 7.232059460841877563e-14
2.452000000000000000e+03 1.125793457031250000e+01 3.370205402374267578e+00 6.562607987418977995e-14 1.196273576075171374e-13 5.557603395501750643e-14 1.263092278339095209e-13
2.453000000000000000e+03 9.924852371215820312e+00 3.370126008987426758e+00 6.894270852993156229e-14 7.529782055032754884e-14 4.327215872407773334e-14 1.381406382512662123e-13
2.454000000000000000e+03 9.442854881286621094e+00 3.711458683013916016e+00 9.962267556035131477e-14 -1.403083649698794177e-13 -1.220570495938594693e-14 -2.730007009571575743e-14
2.455000000000000000e+03 1.588258934020996094e+01 3.193311452865600586e+00 -5.188620366691765184e-12 -2.086441696497187692e-12 -2.182518488852425165e-12 -1.099793975507801225e-12
2.456000000000000000e+03 1.482505226135253906e+01 4.168435573577880859e+00 2.619282395144306719e-12 -2.042278835195227016e-13 7.245163670399623612e-13 5.421345338797733948e-13
2.457000000000000000e+03 1.407818984985351562e+01 4.132420063018798828e+00 1.318595189633842146e-12 1.304781884750236265e-13 4.347220012353852914e-13 3.404179065372159307e-13
2.458000000000000000e+03 1.072359371185302734e+01 3.738227844238281250e+00 2.076028015945627359e-13 1.347235718167708041e-13 1.026979133786527776e-13 2.547496176681651736e-13
2.459000000000000000e+03 1.001025485992431641e+01 3.837562084197998047e+00 3.287273339820651064e-13 -4.212065808986698023e-14 8.598200276765943784e-14 -7.601573179510240363e-14
2.460000000000000000e+03 1.553332519531250000e+01 4.223847389221191406e+00 4.212355290966751653e-12 -2.992484461183247957e-13 1.173932153743229012e-12 2.903538480068974803e-14
2.461000000000000000e+03 1.561140918731689453e+01 3.858365535736083984e+00 6.907891684886091621e-13 -8.019702523592853183e-13 -3.335432787170827806e-14 1.075616917582677967e-12
2.462000000000000000e+03 6.373831748962402344e+00 -1.654220223426818848e+00 -1.650115862093098906e-13 -2.537230408411472737e-13 -1.256203935361480117e-13 -4.390227669793557441e-14
2.463000000000000000e+03 4.977941989898681641e+00 -1.675483345985412598e+00 -5.886254211915492585e-14 -7.097775600768685411e-14 -3.895209079330524959e-14 -8.142974955351739430e-14
2.464000000000000000e+03 5.699637889862060547e+00 -1.622012615203857422e+00 -3.554669986095479461e-14 4.422751769851684944e-13 1.220185519464067614e-13 7.508562863264497955e-14
2.465000000000000000e+03 5.981669902801513672e+00 -1.885923504829406738e+00 -2.669917238684593741e-13 1.143297289523184657e-13 -4.579859711958955693e-14 -1.645562924476335481e-14
2.466000000000000000e+03 5.394245147705078125e+00 -1.995614171028137207e+00 -9.061334853028429892e-14 -2.218380915162271316e-13 -9.373543065870071356e-14 8.091178551813960063e-14
2.467000000000000000e+03 7.861133575439453125e+00 4.031277179718017578e+00 8.089273066495816789e-14 -1.025845329364651060e-13 -6.507540257935607794e-15 9.533260953657057835e-14
2.468000000000000000e+03 7.410462379455566406e+00 3.546055316925048828e+00 3.623017413422607857e-14 6.127816488824336383e-14 2.925250306199354833e-14 1.325362074863084549e-13
2.469000000000000000e+03 7.613649845123291016e+00 2.915391683578491211e+00 1.149447019770793998e-13 3.511065068784006982e-15 3.553672858909971699e-14 3.882571347757490798e-14
2.470000000000000000e+03 6.688477516174316406e+00 2.444559097290039062e+00 -5.036586653382052470e-14 2.986712710918021374e-13 7.449162136739448381e-14 1.309337702279020355e-13
2.471000000000000000e+03 8.198487281799316406e+00 3.243148326873779297e+00 5.560946634544563366e-15 1.853870518469385997e-13 5.728440454193933773e-14 1.807157261292033357e-13
2.472000000000000000e+03 7.040536880493164062e+00 3.044068336486816406e+00 1.523619961750141694e-13 2.940527324673397613e-13 1.339244199479588948e-13 1.075223148906158388e-13
2.473000000000000000e+03 7.417679786682128906e+00 2.185935020446777344e+00 -3.665876941740496553e-14 6.435326040500968792e-14 8.308346279841880011e-15 1.961391390015859715e-13
2.474000000000000000e+03 1.486086845397949219e+01 1.910670876502990723e+00 -1.754577250634090091e-13 -6.928339737859168235e-13 -2.604875137205558966e-13 -3.843479083175810329e-13
2.475000000000000000e+03 1.441807270050048828e+01 2.632230043411254883e+00 -1.046560624620718194e-12 4.207420273728140758e-13 -1.877455981479092539e-13 -1.300753125002551691e-13
2.476000000000000000e+03 1.515294456481933594e+01 2.633700370788574219e+00 -1.641445117848971957e-12 -1.252487913730448987e-12 -8.681799311578697331e-13 -1.237744498908122104e-12
2.477000000000000000e+03 9.320219993591308594e+00 2.530618667602539062e+00 -4.272197440241933333e-15 -1.733969955466929669e-13 -5.330075776902552798e-14 5.057106873562235150e-14
2.478000000000000000e+03 7.954463481903076172e+00 1.631015539169311523e+00 -1.478327687045102867e-13 -2.463606846737215195e-13 -1.182580373687222575e-13 1.520978167631609201e-13
2.479000000000000000e+03 1.362024402618408203e+01 2.622726678848266602e+00 -3.918757408415823873e-13 3.581891727666430825e-13 -1.010596788138294969e-14 3.581271902836948018e-14
2.480000000000000000e+03 1.213529682159423828e+01 2.841613292694091797e+00 -1.713883924375509543e-14 8.415668064764431078e-14 2.010535191294699625e-14 1.060228226284869180e-13
2.481000000000000000e+03 1.246604442596435547e+01 2.231173515319824219e+00 -9.625542143941803741e-14 2.561288312517839838e-13 4.796202768709428854e-14 9.740800966393306504e-14
2.482000000000000000e+03 1.121925067901611328e+01 1.683605432510375977e+00 -2.449438492747174623e-13 2.152807148042903962e-13 -8.898937461216099160e-15 1.067123819864512768e-13
2.483000000000000000e+03 1.092191886901855469e+01 2.323719978332519531e+00 -1.006765539533251153e-13 -5.458483261200873515e-14 -4.657841630841333402e-14 1.925952615704912274e-13
2.484000000000000000e+03 1.054383754730224609e+01 1.827692747116088867e+00 -3.133346650175360126e-14 -8.205504960397125291e-14 -3.401655517053063515e-14 1.347643784760377272e-13
2.485000000000000000e+03 9.875646591186523438e+00 2.120020151138305664e+00 -2.020617424465867562e-14 3.709115940818755175e-14 5.065495464355368113e-15 1.112586043260088697e-13
2.486000000000000000e+03 8.908401489257812500e+00 2.015216827392578125e+00 7.259757438217093184e-14 3.111324471173106121e-14 3.111324471173106121e-14 2.157796646440682253e-13
2.487000000000000000e+03 9.933563232421875000e+00 2.792637109756469727e+00 8.286763202719482635e-14 -2.389909830365771759e-13 -4.683700869094649388e-14 3.369832828037898353e-14
2.488000000000000000e+03 8.757310867309570312e+00 1.653185367584228516e+00 -1.092997694847157308e-13 4.465913790575697095e-14 -1.939218913487444906e-14 1.043852368909012340e-13
2.489000000000000000e+03 1.199959182739257812e+01 2.437921524047851562e+00 -1.014533238235387769e-13 -4.347999689241141552e-14 -4.347999689241141552e-14 2.347654304301911160e-14
2.490000000000000000e+03 1.416259574890136719e+01 1.869194746017456055e+00 -5.365003688702352225e-13 -1.841777869538568924e-13 -2.162034521682384969e-13 -4.839530469077923946e-13
2.491000000000000000e+03 1.285188007354736328e+01 2.713786363601684570e+00 -5.069617211380002264e-14 -2.172693042189546841e-14 -2.172693042189546841e-14 1.248164847303043223e-13
2.492000000000000000e+03 1.340136623382568359e+01 1.819685459136962891e+00 -4.410145480141652863e-13 1.083749382553220175e-13 -9.979187886189483381e-14 -9.456629544105782381e-14
2.493000000000000000e+03 1.141055202484130859e+01 2.873400926589965820e+00 9.707904239601022889e-14 -4.145645212207983710e-15 2.788001830810772630e-14 1.454205543960016001e-13
2.494000000000000000e+03 1.190652084350585938e+01 1.648859262466430664e+00 -8.771206417429455726e-14 1.911638572047943962e-13 3.103553790914995170e-14 1.191141776142254360e-13
2.495000000000000000e+03 1.067257690429687500e+01 2.810105800628662109e+00 -5.481469363697102914e-14 -2.979977104921455178e-13 -1.058437192058558907e-13 1.350662203608576917e-13
2.496000000000000000e+03 1.263086509704589844e+01 1.723312616348266602e+00 -3.344150585789240626e-13 1.769358992003214337e-13 -4.724374713595443087e-14 -7.135930708097523723e-15
2.497000000000000000e+03 8.728909492492675781e+00 2.783299684524536133e+00 7.425418786788373637e-14 1.466661603906523059e-14 2.667624049445833229e-14 1.970232787681935882e-13
2.498000000000000000e+03 9.416424751281738281e+00 1.719141721725463867e+00 -1.824711849717289280e-13 -1.925793102460285344e-13 -1.125151472100745231e-13 5.337583538133836014e-14
2.499000000000000000e+03 8.204346656799316406e+00 2.080995082855224609e+00 1.252944264589243503e-15 5.369761133953900728e-16 5.369761133953900728e-16 3.571358906848641490e-14
2.500000000000000000e+03 1.143923473358154297e+01 2.474701642990112305e+00 -4.996076116833489400e-14 -1.586645989289439673e-13 -6.258761006206273181e-14 1.837994817108223877e-13
2.501000000000000000e+03 1.193029308319091797e+01 2.064385175704956055e+00 -1.781450963307673607e-13 1.515399879691535501e-14 -4.889733163184785403e-14 9.680196097830440216e-14
2.502000000000000000e+03 1.138001060485839844e+01 2.101572513580322266e+00 -8.877992199902984272e-14 -8.379949024191896134e-14 -5.177382163940556781e-14 8.107167145726332236e-14
2.503000000000000000e+03 6.431427001953125000e+00 1.820162296295166016e+00 5.737486766070609701e-14 1.618420702358472352e-13 6.576508136896599965e-14 5.178436550553298934e-14
2.504000000000000000e+03 7.159246444702148438e+00 1.673283696174621582e+00 -6.524821508828784755e-14 2.465421801173955929e-13 5.438818883110596580e-14 2.858360249879954296e-13
2.505000000000000000e+03 5.357113838195800781e+00 -3.411730229854583740e-01 5.399904834261018416e-14 -1.141103948528246481e-13 -1.803340598594341260e-14 -2.339372227901895425e-15
2.506000000000000000e+03 4.608037471771240234e+00 -2.835304141044616699e-01 1.523678779717999032e-13 1.568024139350643331e-13 9.275109028256470212e-14 -2.169485836638063159e-14
2.507000000000000000e+03 4.710992336273193359e+00 -1.023530364036560059e+00 -1.252610347260776913e-13 2.665733302500972179e-13 4.239369069008493141e-14 -3.821970883765950233e-14
2.508000000000000000e+03 6.770234584808349609e+00 -9.647852182388305664e-01 -6.824878187009116026e-15 -2.774306392255843079e-13 -8.527665471555825882e-14 7.994013200148756410e-15
2.509000000000000000e+03 6.622198104858398438e+00 -1.325361490249633789e+00 -6.441594084310650614e-14 2.926498019611978307e-13 6.847015901305375518e-14 1.040765306510767207e-14
2.510000000000000000e+03 5.497839450836181641e+00 -1.081173062324523926e+00 -8.186040820895579273e-14 -1.494604001108998381e-13 -6.939624385120940486e-14 1.801852869925783807e-14
2.511000000000000000e+03 6.087662220001220703e+00 -3.417811095714569092e-01 -6.454905376483341395e-14 1.808706891128376154e-14 -1.393859545606489572e-14 -1.295084661934913298e-14
2.512000000000000000e+03 6.836730003356933594e+00 -3.994237184524536133e-01 -1.222664683256727280e-13 -7.527539111788425497e-14 -5.926255851069345271e-14 -1.869954827104797906e-14
2.513000000000000000e+03 6.154234409332275391e+00 -9.790045022964477539e-01 -7.656102450149041005e-14 2.645692909544750115e-13 5.640248400165352727e-14 2.558488258763442352e-14
2.514000000000000000e+03 7.288505554199218750e+00 -1.008993744850158691e+00 -1.013634231346489945e-13 4.806043258677450414e-14 -1.599089614792281039e-14 -6.272497170105306719e-14
2.515000000000000000e+03 8.226066589355468750e+00 -9.436585903167724609e-01 -1.172048298258426824e-13 4.127125683849215687e-14 -2.278007359027105216e-14 1.239690316547081839e-13
2.516000000000000000e+03 7.266155719757080078e+00 -1.347543597221374512e+00 -7.594716956021985155e-14 -3.070544849197859305e-13 -1.149004936334963034e-13 -7.997675601206094553e-14
2.517000000000000000e+03 9.589775085449218750e+00 -1.124231696128845215e+00 2.824363261170505235e-14 -7.939748034382909658e-14 -1.534615499726357107e-14 7.515908332983087248e-14
2.518000000000000000e+03 9.570323944091796875e+00 -3.842316865921020508e-01 -3.744210548702574248e-14 -1.990504115700897358e-13 -7.094775748882689581e-14 -4.039574325541937794e-14
2.519000000000000000e+03 7.704401016235351562e+00 -8.609120845794677734e-01 -5.384580652992472516e-14 1.256138070079501623e-13 2.153040183747352565e-14 -1.475634393323377314e-14
2.520000000000000000e+03 7.527443408966064453e+00 -4.214501380920410156e-01 -1.525442776652632948e-13 3.250303011356455232e-15 -4.478819184560063615e-14 -2.342018655290649398e-14
2.521000000000000000e+03 8.775301933288574219e+00 -3.828902840614318848e-01 1.490467803702284072e-14 1.436405654793235231e-13 4.756357322431049861e-14 -3.361683693458954181e-14
2.522000000000000000e+03 8.866243362426757812e+00 -1.122890233993530273e+00 -3.784339920424872883e-14 -2.449733395738090680e-13 -8.484502027816462344e-14 -5.173221199290464756e-14
2.523000000000000000e+03 5.550102233886718750e+01 1.066995906829833984e+01 -1.029079165631996418e-13 -2.728581249833439415e-13 -1.127298192402266530e-13 -1.339060156160809534e-14
2.524000000000000000e+03 5.632652664184570312e+01 1.056964015960693359e+01 -1.278891272396553980e-13 3.669227126453476762e-14 -2.735905577609665240e-14 -1.249560622074846750e-14
2.525000000000000000e+03 5.673705673217773438e+01 9.758838653564453125e+00 -4.722803298071696909e-14 -3.167832410776692809e-14 -2.367190611010563245e-14 1.302456948716612661e-13
2.526000000000000000e+03 5.535813522338867188e+01 9.941739082336425781e+00 2.273387133113011910e-14 9.743087108317945860e-15 9.743087108317945860e-15 -4.846333566659727365e-14
2.527000000000000000e+03 5.741368103027343750e+01 9.646233558654785156e+00 -1.317004231365936917e-13 -4.973220965630905516e-15 -4.100209348477726334e-14 8.331463503038344376e-14
2.528000000000000000e+03 5.714625549316406250e+01 1.045326423645019531e+01 7.799226623686136839e-14 -8.095211783895606139e-14 -8.879546441833724869e-16 8.060917113927174027e-14
2.529000000000000000e+03 5.795603942871093750e+01 1.032375431060791016e+01 3.643407868155271179e-14 -7.260868914850480277e-15 8.751963692340321982e-15 -1.942710383296027132e-14
2.530000000000000000e+03 5.605047988891601562e+01 9.858309745788574219e+00 -1.709717369307965640e-14 -1.217047296275808321e-13 -4.164057336789039887e-14 -7.380562632407217105e-14
2.531000000000000000e+03 5.044127273559570312e+01 1.099644851684570312e+01 6.070386977374137016e-14 3.140468672602463734e-15 1.915330043276031874e-14 4.574708735200112841e-14
2.532000000000000000e+03 5.050074005126953125e+01 1.018372249603271484e+01 4.833323140589901312e-14 8.934066458637576758e-14 4.130217015293514982e-14 6.639653426674871350e-14
2.533000000000000000e+03 5.168460845947265625e+01 1.091720294952392578e+01 1.310045279721838707e-13 5.614479625030803500e-14 5.614479625030803500e-14 -3.233606213196883739e-14
2.534000000000000000e+03 5.002314758300781250e+01 1.028509712219238281e+01 3.652546337216608374e-14 1.529066180313079504e-13 5.682962238816313683e-14 1.337120925050047648e-13
2.535000000000000000e+03 5.171300888061523438e+01 1.017313861846923828e+01 8.006595196953861238e-14 -5.718791732485170587e-14 6.863408868746766894e-15 -6.501093744283939491e-14
2.536000000000000000e+03 5.106197738647460938e+01 1.014778423309326172e+01 2.578961045098578792e-14 1.105269067729845039e-14 1.105269067729845039e-14 -1.031901593761695626e-15
2.537000000000000000e+03 5.095102310180664062e+01 1.069138431549072266e+01 6.556491731913444143e-14 1.196011470199973004e-13 5.554981659123409132e-14 5.026160101317825660e-15
2.538000000000000000e+03 6.566615295410156250e+01 7.037470817565917969e+00 1.006704078822598381e-14 -8.718745262434671184e-14 -2.313612388964939731e-14 8.339915536599226686e-14
2.539000000000000000e+03 6.478726959228515625e+01 6.128361225128173828e+00 -5.471741359704476726e-14 2.230062922520259505e-14 -9.725035142146062211e-15 -1.261317303857464878e-13
2.540000000000000000e+03 6.692786407470703125e+01 4.120402812957763672e+00 -1.424927477443674317e-13 1.905618946061032881e-13 1.442074270326804131e-14 -8.670609396481746001e-14
2.541000000000000000e+03 6.788767242431640625e+01 2.157598495483398438e+00 -8.983832015981019214e-14 1.868654970343941457e-14 -2.134553012047169657e-14 -1.065344576336828275e-13
2.542000000000000000e+03 6.914002990722656250e+01 1.408287286758422852e+00 -3.825470823904005002e-14 9.798249451381524366e-14 1.791833656005891590e-14 -6.477352427211938157e-14
2.543000000000000000e+03 6.877989959716796875e+01 -1.206258416175842285e+00 -4.597486467591317683e-14 8.323611846430475913e-14 1.117837766117677975e-14 -9.518691986964283869e-15
2.544000000000000000e+03 7.038430786132812500e+01 -3.130720376968383789e+00 7.593038475533706033e-14 -1.320935683968640917e-14 1.881630837469519535e-14 -3.599103640442545549e-14
2.545000000000000000e+03 7.159612274169921875e+01 -4.406059265136718750e+00 3.063883172236929464e-14 2.247290623990511049e-13 7.661036925286565658e-14 1.712976540330763374e-15
2.546000000000000000e+03 7.383326721191406250e+01 -6.640564441680908203e+00 1.791999505056963982e-14 -2.668257054107975312e-13 -7.467170734824432610e-14 1.315044231007308356e-14
2.547000000000000000e+03 7.580497741699218750e+01 -7.513678550720214844e+00 7.519291043761242022e-14 -2.880311007064095818e-13 -6.385145775826550629e-14 -8.667539749080896416e-14
2.548000000000000000e+03 7.779270172119140625e+01 -9.489192962646484375e+00 -5.948713066193309085e-14 6.600741410704366596e-14 1.956083678280456928e-15 1.348355326317388775e-14
2.549000000000000000e+03 7.952440643310546875e+01 -1.179578590393066406e+01 7.123318048699728289e-14 -1.524752953020389046e-13 -2.437263444451248651e-14 -7.076602487592759116e-14
2.550000000000000000e+03 7.961139678955078125e+01 -1.015021705627441406e+01 1.014275807982058242e-13 -2.310367337981372726e-13 -3.888274589997943453e-14 3.882807161730006396e-14
2.551000000000000000e+03 7.825557708740234375e+01 -1.133596038818359375e+01 -6.860601060405737295e-16 -2.519242410167765733e-13 -7.578308911394132652e-14 -2.588897758009408440e-14
2.552000000000000000e+03 7.963057708740234375e+01 -8.583240509033203125e+00 1.158633058202448995e-13 -2.706009244804463698e-13 -4.642128830856587229e-14 2.815368279490432918e-14
2.553000000000000000e+03 7.791306304931640625e+01 -6.875517368316650391e+00 1.256607394094916286e-13 -3.121529727409533272e-13 -5.594767135469122521e-14 -1.521666500485865936e-13
2.554000000000000000e+03 7.552669525146484375e+01 -5.425905227661132812e+00 5.152994730136389867e-14 -4.354252147644593895e-13 -1.151685897256976565e-13 -1.096847764524289115e-13
2.555000000000000000e+03 7.416793060302734375e+01 -4.220912933349609375e+00 -9.827604055794979948e-15 1.787919584519265248e-13 5.068930775879547379e-14 1.169038553027607064e-13
2.556000000000000000e+03 7.190930938720703125e+01 -5.382521748542785645e-01 -6.894616442435635983e-14 -2.954835811794231937e-14 -2.954835811794231937e-14 1.212172316732498811e-13
2.557000000000000000e+03 7.071524047851562500e+01 1.849592566490173340e+00 -1.540813917427774626e-13 -5.459714508293002366e-14 -6.260356138652542479e-14 3.223930386433808415e-14
2.558000000000000000e+03 7.097970581054687500e+01 1.167554020881652832e+00 -1.077246880023738362e-13 4.533417234274181307e-14 -1.871715469788960695e-14 -3.129051854319601922e-14
2.559000000000000000e+03 7.021114349365234375e+01 2.444335460662841797e+00 2.221798930273667649e-14 -5.910442762383644189e-14 -1.106593149632992962e-14 -1.751549446660834869e-14
2.560000000000000000e+03 6.967848205566406250e+01 3.120181322097778320e+00 -7.790304317432938941e-14 -2.194928165274740578e-14 -2.995569626227691240e-14 -5.391126269498969573e-15
2.561000000000000000e+03 6.944618988037109375e+01 4.864017963409423828e+00 7.760276046540708333e-16 -1.140447870688621190e-13 -3.398062742103989675e-14 -5.434020272057811518e-14
2.562000000000000000e+03 6.959867095947265625e+01 5.704747200012207031e+00 3.450160689370991574e-14 -1.682173958504964983e-13 -4.011473499297008027e-14 -2.974418535908393557e-14
2.563000000000000000e+03 7.045451354980468750e+01 7.988860130310058594e+00 -3.089612712805361872e-13 -2.010383911210320007e-13 -1.529999000757231720e-13 -1.766976728779720562e-13
2.564000000000000000e+03 6.885944366455078125e+01 8.160491943359375000e+00 -3.190241853242431480e-14 -1.051743598896176524e-13 -4.112303623711802136e-14 -4.887439059150441856e-14
2.565000000000000000e+03 6.742662811279296875e+01 8.293157577514648438e+00 3.512114373199065609e-14 -3.509556740274172304e-13 -9.475035908862797229e-14 -1.629613599011398017e-13
2.566000000000000000e+03 6.672838592529296875e+01 8.360486984252929688e+00 2.821269558033953628e-14 1.035930510210475441e-13 3.954172398041612413e-14 7.018305614404571346e-14
2.567000000000000000e+03 6.469006347656250000e+01 8.500629425048828125e+00 -1.591168840295916626e-14 1.876222430457347157e-13 5.151316588461289647e-14 3.503942538137135021e-14
2.568000000000000000e+03 6.477011871337890625e+01 7.229097366333007812e+00 -3.437776390055775899e-14 7.676856790235844774e-14 1.271724255579292223e-14 -2.593450390694310853e-14
2.569000000000000000e+03 6.533942413330078125e+01 8.407634735107421875e+00 6.847422477120057582e-14 3.038517788073180625e-13 1.116978078498191695e-13 2.022263040075793217e-14
2.570000000000000000e+03 6.814071655273437500e+01 8.225725173950195312e+00 -1.073990478798678150e-13 -4.602816337708620642e-14 -4.602816337708620642e-14 -2.794383546441975980e-14
2.571000000000000000e+03 6.738327026367187500e+01 6.136661052703857422e+00 4.557087061765434377e-14 6.528132391213012364e-14 3.325565869774851913e-14 -5.862739222046997600e-14
2.572000000000000000e+03 6.713637542724609375e+01 7.075923442840576172e+00 7.586714188736326525e-14 9.639014711187651741e-15 2.565184731837845400e-14 -5.689361742139409372e-14
2.573000000000000000e+03 6.329948043823242188e+01 6.466569900512695312e+00 8.909345293852191650e-14 2.674517203570588725e-14 3.475159003336718289e-14 -3.937011124071458103e-17
2.574000000000000000e+03 6.681361389160156250e+01 1.627390861511230469e+00 -7.589016763100142615e-14 1.504794417328189637e-13 2.237678087529254567e-14 -2.049364502968234469e-13
2.575000000000000000e+03 6.690892791748046875e+01 3.529548645019531250e-01 -9.623188069974794590e-14 1.417615617992432075e-13 1.365890348281563124e-14 -2.285869789894062754e-13
2.576000000000000000e+03 6.696429443359375000e+01 -7.590887546539306641e-01 -2.323668330233424895e-13 8.341800693126635857e-14 -4.468464714999648146e-14 -1.436610433478563431e-13
2.577000000000000000e+03 6.834500122070312500e+01 -2.951807975769042969e+00 -1.246858756379694982e-14 -5.109462996471560159e-14 -1.906896475033399707e-14 1.526463824048571172e-14
2.578000000000000000e+03 6.988806915283203125e+01 -4.609951972961425781e+00 7.064291371924186214e-14 1.217774253832459852e-13 5.772610173074635420e-14 -2.136038707836653699e-14
2.579000000000000000e+03 7.314006805419921875e+01 -7.375905990600585938e+00 2.276403078625005572e-14 -8.174588257822343329e-14 -1.769455553759201327e-14 -3.454111589850164532e-14
2.580000000000000000e+03 7.395458221435546875e+01 -7.948825359344482422e+00 4.907995193527588118e-15 -2.495267989628680017e-13 -7.338564028376917681e-14 9.435431358754617359e-14
2.581000000000000000e+03 7.496093750000000000e+01 -1.008768367767333984e+01 -8.063624061820009320e-15 -2.779615188193418351e-13 -8.580754786184294214e-14 -5.499218769700227327e-14
2.582000000000000000e+03 7.775598144531250000e+01 -1.176615047454833984e+01 -7.856442005207270318e-14 -8.799971656318211766e-14 -4.996924166220280406e-14 -6.073779174921301038e-14
2.583000000000000000e+03 7.880134582519531250e+01 -1.424140453338623047e+01 3.169918737629074876e-15 -2.151693740174397129e-14 -5.504105641586116288e-15 -4.535212605309181522e-14
2.584000000000000000e+03 6.383026885986328125e+01 6.050803184509277344e+00 8.592999494469802380e-14 3.570837744416854864e-13 1.329041314935414109e-13 7.732444513245534390e-14
2.585000000000000000e+03 6.286818695068359375e+01 5.831077575683593750e+00 1.091953337104510646e-13 3.041470883740488018e-13 1.240027232372181709e-13 9.236899710819007625e-14
2.586000000000000000e+03 6.423855590820312500e+01 4.523191928863525391e+00 1.905009455033506577e-14 5.391527678412673386e-14 2.188961156974512934e-14 -2.440229923239122661e-14
2.587000000000000000e+03 6.172809219360351562e+01 2.310242891311645508e+00 1.369180512239900893e-13 1.330244508296329897e-13 8.098274655032877689e-14 -7.884793214391408456e-14
2.588000000000000000e+03 6.003269195556640625e+01 5.978753566741943359e-01 -6.634191758230975622e-14 6.878851465221338946e-14 7.339791950864728558e-16 -4.222622211201738918e-14
2.589000000000000000e+03 6.013560485839843750e+01 -1.378827214241027832e+00 -1.437970158528131814e-13 1.556897107979696160e-13 3.567812041085308833e-15 -3.629741160957912494e-14
2.590000000000000000e+03 5.989109420776367188e+01 -3.363186120986938477e+00 -6.281122676013786710e-14 1.883185312334320627e-14 -1.319381209103839825e-14 3.037607871399922166e-14
2.591000000000000000e+03 6.034718322753906250e+01 -6.028220653533935547e+00 -2.345641042511559249e-13 8.247632313435407370e-14 -4.562633772317234437e-14 -1.387130698932842465e-13
2.592000000000000000e+03 6.054124832153320312e+01 -7.480876445770263672e+00 -5.674015538014234861e-14 2.959394339828447240e-13 7.175978425843707043e-14 1.245096284104366124e-13
2.593000000000000000e+03 5.962507247924804688e+01 -1.082537460327148438e+01 -1.344069712298778807e-13 1.711517483727470479e-13 1.102343331226733961e-14 -1.803064127040357456e-14
2.594000000000000000e+03 6.038031768798828125e+01 -1.287974452972412109e+01 5.336854750986018414e-14 2.287223585713000357e-14 2.287223585713000357e-14 3.455492931180546845e-14
2.595000000000000000e+03 5.972928619384765625e+01 -1.381905460357666016e+01 -8.479614986523983933e-14 -5.921668320627015980e-14 -4.320384721094756852e-14 2.280251996337329112e-14
2.596000000000000000e+03 6.033931350708007812e+01 -1.528028011322021484e+01 6.613768099806779932e-14 2.834471921769627506e-14 2.834471921769627506e-14 4.260926057516115084e-14
2.597000000000000000e+03 5.952372360229492188e+01 -1.711408233642578125e+01 -1.670594103320415663e-14 -9.866158454455153937e-14 -3.461025750392011935e-14 1.069888941980165487e-13
2.598000000000000000e+03 5.994081497192382812e+01 -1.873918151855468750e+01 -2.598985073378259902e-14 2.176162353616228895e-13 5.748791606597844495e-14 1.161099211569038836e-15
2.599000000000000000e+03 5.967739868164062500e+01 -2.046150779724121094e+01 3.223583780551791955e-14 2.525309639406312506e-14 1.724668009046772393e-14 1.200111516240498499e-13
2.600000000000000000e+03 6.053068923950195312e+01 -2.328639793395996094e+01 -1.310643217219964463e-13 -1.019213739014007691e-13 -6.989570868701916462e-14 1.018010139077277221e-13
2.601000000000000000e+03 6.068395996093750000e+01 -2.561891174316406250e+01 -1.103746017787387082e-14 2.468998855191528730e-13 7.075872684005404811e-14 -3.548150881720231464e-14
2.602000000000000000e+03 6.043791198730468750e+01 -2.697010993957519531e+01 -2.947373112715742649e-14 -5.838254548860485893e-14 -2.635688366235504343e-14 5.393317967249990075e-14
2.603000000000000000e+03 5.937945175170898438e+01 -2.958556365966796875e+01 -2.774383573897996891e-14 -1.262675809179589215e-13 -4.620342804640027723e-14 7.503145918160217254e-14
2.604000000000000000e+03 5.783295440673828125e+01 -3.076257514953613281e+01 3.429073634742506316e-14 -6.536812784856474434e-14 -9.323218805594619962e-15 1.159666878855231814e-14
2.605000000000000000e+03 6.434866333007812500e+01 -3.807793045043945312e+01 -1.084091211169414121e-15 -5.765329755486395258e-14 -1.762121603688694693e-14 -5.322676689998402308e-15
2.606000000000000000e+03 6.003241348266601562e+01 -3.922702407836914062e+01 1.385410730770806828e-14 -5.500262653104423527e-15 2.506153226974503975e-15 2.748318167825319208e-14
2.607000000000000000e+03 6.318179702758789062e+01 -4.091862869262695312e+01 3.547973343614486963e-14 -3.054534977817852104e-14 1.480315330323965072e-15 -1.712549741604465613e-15
2.608000000000000000e+03 5.823776245117187500e+01 -3.645547103881835938e+01 -1.429610011101367650e-14 -5.187784744972376294e-14 -1.985218392940805293e-14 2.092247951496553626e-14
2.609000000000000000e+03 6.026483154296875000e+01 -3.485605239868164062e+01 6.466581556254652474e-15 -8.666344754998910049e-15 -6.599290866782193607e-16 -6.196713047611169742e-16
2.610000000000000000e+03 6.055851745605468750e+01 -3.147377204895019531e+01 5.487695225266011473e-15 -4.339907814089431770e-14 -1.137341546761155495e-14 -6.121185660803345543e-15
2.611000000000000000e+03 6.197129058837890625e+01 -3.023994255065917969e+01 1.106813081737747541e-15 2.334982352597807925e-14 7.336990918787276994e-15 2.997141041751437418e-14
2.612000000000000000e+03 6.218202972412109375e+01 -2.784615516662597656e+01 -1.799317022688293882e-14 -1.678396733661297047e-13 -5.574985528018945591e-14 -3.939442240978975954e-15
2.613000000000000000e+03 6.233557510375976562e+01 -2.615279197692871094e+01 -1.790609185177340773e-14 -1.449268900418146377e-13 -4.884989439866982419e-14 4.558358627625852533e-16
2.614000000000000000e+03 6.186009597778320312e+01 -2.493801879882812500e+01 1.788188534420677434e-14 3.053913933260925251e-14 1.452630841948434476e-14 -3.725590138719788239e-15
2.615000000000000000e+03 6.123743820190429688e+01 -2.234520339965820312e+01 1.513340234376991944e-14 5.223669126376215277e-14 2.021102774344644276e-14 4.019949588593592360e-14
2.616000000000000000e+03 6.223690795898437500e+01 -1.945059776306152344e+01 -6.967200389751751488e-14 1.531443700152068654e-13 2.504170746361455285e-14 -6.951101342743057354e-14
2.617000000000000000e+03 6.103684616088867188e+01 -1.630347824096679688e+01 -5.237582489567814414e-14 -6.819773288842603809e-14 -3.617206767404443357e-14 7.789791354280081737e-14
2.618000000000000000e+03 6.234303283691406250e+01 -1.335533809661865234e+01 -6.889104629641262800e-14 3.364828489622884167e-13 8.027754079976273660e-14 1.127650151532509637e-13
2.619000000000000000e+03 6.103908920288085938e+01 -1.146044445037841797e+01 -9.235082316927378798e-14 5.192297397702168305e-14 -1.212835391064268423e-14 8.713059299666342516e-14
2.620000000000000000e+03 6.085449600219726562e+01 -9.761946678161621094e+00 -9.702363288873264158e-14 3.244260329132719889e-13 6.822071797448273078e-14 6.041702376021959586e-14
2.621000000000000000e+03 6.139002609252929688e+01 -7.799072265625000000e+00 -7.072247382991156406e-14 2.441960750363542099e-13 5.204207697380100472e-14 -4.755617693261507406e-14
2.622000000000000000e+03 6.191149902343750000e+01 -6.977300643920898438e+00 -4.591210969891700022e-14 2.090781297007723860e-13 4.894980362886436343e-14 -8.782821610828564496e-14
2.623000000000000000e+03 6.196966552734375000e+01 -2.601791858673095703e+00 -1.497738700640197096e-13 7.306404559061924209e-14 -2.301294497032788794e-14 -9.846763941061872222e-15
2.624000000000000000e+03 6.299296569824218750e+01 7.150422781705856323e-02 -1.738224093741219667e-13 -2.874437138506748257e-14 -6.077003321131729807e-14 -9.900877996149928806e-14
2.625000000000000000e+03 6.479890441894531250e+01 3.099892377853393555e+00 -1.305268962576225378e-13 1.270636970206878713e-13 -1.038956954695850320e-15 -1.558726021519407645e-13
2.626000000000000000e+03 6.340018081665039062e+01 4.211948394775390625e+00 6.397420977298159950e-14 2.104213206672103653e-13 8.231865980968394725e-14 3.551366557601187690e-14
2.627000000000000000e+03 6.248158645629882812e+01 5.138372421264648438e+00 2.677807418350903329e-14 1.601668965641941944e-13 5.608349139371755776e-14 1.714923640377605252e-13
2.628000000000000000e+03 6.190325546264648438e+01 3.336059331893920898e+00 1.196592195988610552e-13 5.128252558933912852e-14 5.128252558933912852e-14 8.627789509305788807e-15
2.629000000000000000e+03 6.259418106079101562e+01 3.838181972503662109e+00 -4.843371119219286693e-17 -9.152265533982073542e-14 -2.747132660512342089e-14 8.741833347697750001e-14
2.630000000000000000e+03 6.063177871704101562e+01 2.316946744918823242e+00 1.124926296862047148e-13 1.511507661654948320e-13 7.909301604500443283e-14 -6.960129549290485721e-16
2.631000000000000000e+03 5.884234237670898438e+01 1.881731748580932617e+00 -1.336607911075213609e-14 4.574149693454925003e-14 9.712625262435839457e-15 2.214651124163649620e-13
2.632000000000000000e+03 5.668234252929687500e+01 9.026823043823242188e-01 -1.311968247800013310e-13 6.680345567087325742e-15 -3.735494240862148596e-14 -1.141462277346252940e-14
2.633000000000000000e+03 5.718018341064453125e+01 1.480433493852615356e-01 -5.046704292530415636e-14 -3.306646880678158762e-14 -2.506005419725208100e-14 1.440458131463442926e-13
2.634000000000000000e+03 5.543385314941406250e+01 1.079864263534545898e+00 -4.370449789288348430e-14 4.144975209146705558e-15 -1.186785655101114945e-14 -1.165655994715382796e-14
2.635000000000000000e+03 5.498694610595703125e+01 4.062034785747528076e-01 -6.126290728376447212e-16 3.405065671698709329e-14 1.003140780620088990e-14 6.558022489855722115e-14
2.636000000000000000e+03 5.435798645019531250e+01 8.726845979690551758e-01 -7.405972265572130508e-14 3.800186619377921016e-13 9.178768178462123895e-14 -3.240320135150000225e-14
2.637000000000000000e+03 5.421797180175781250e+01 2.691235303878784180e+00 -2.816210738459772045e-14 1.709343251795822360e-13 4.283166432205581797e-14 5.666447806850286040e-14
2.638000000000000000e+03 5.427525711059570312e+01 4.217425823211669922e+00 2.271370347665599421e-13 2.345972808376339813e-13 1.385202987470163238e-13 4.125703346124186266e-14
2.639000000000000000e+03 5.447522354125976562e+01 4.985733032226562500e+00 -1.461880340088497765e-13 1.203517808415904833e-13 -7.750874933738251260e-15 3.014665814616949990e-14
2.640000000000000000e+03 5.474871444702148438e+01 5.727184295654296875e+00 2.612711454046752653e-15 -2.175574140056337619e-14 -5.742908793372573928e-15 -1.339177792096524211e-13
2.641000000000000000e+03 5.505911636352539062e+01 6.438976287841796875e+00 -9.104440698527380138e-14 -1.991473527968370960e-13 -8.705753132276505823e-14 -5.790537455996683236e-14
2.642000000000000000e+03 5.538585281372070312e+01 7.110906124114990234e+00 5.050181870998662892e-14 -1.384846827056501750e-13 -2.639485953751224273e-14 -5.678181584862010411e-14
2.643000000000000000e+03 5.310210418701171875e+01 9.429493904113769531e+00 -6.506110889837116162e-16 4.547211674039985940e-14 1.344645152601825489e-14 -9.942190672899541698e-15
2.644000000000000000e+03 5.236985397338867188e+01 9.457737922668457031e+00 -1.170355587616633830e-14 -2.795214960101682911e-13 -8.736751827640582002e-14 -1.072512440187037286e-13
2.645000000000000000e+03 5.162478256225585938e+01 9.466178894042968750e+00 3.694452784062246531e-14 6.158431647669895814e-14 2.955865465044914264e-14 1.537267898697389223e-14
2.646000000000000000e+03 4.971417999267578125e+01 9.634900093078613281e+00 9.725334822402800783e-14 -4.982189181069844597e-14 1.422943692399886856e-14 6.845067047900332824e-14
2.647000000000000000e+03 4.982394790649414062e+01 8.933295249938964844e+00 1.125292757196347249e-13 3.456080094419583526e-13 1.374411787722143452e-13 -1.049448410659660491e-14
2.648000000000000000e+03 4.969218063354492188e+01 7.857174873352050781e+00 9.374222047480590403e-14 4.976847384728644297e-13 1.774280863290483845e-13 -1.052410450994890889e-13
2.649000000000000000e+03 4.868933868408203125e+01 6.849600791931152344e+00 4.684869435748681421e-14 2.895796937744249400e-13 1.009285157619471684e-13 -3.042194385402714751e-14
2.650000000000000000e+03 5.019329833984375000e+01 6.202651023864746094e+00 -8.056619607565984609e-14 5.697352989776985344e-14 -7.077801801542776480e-15 1.422662443580080538e-13
2.651000000000000000e+03 5.178288269042968750e+01 4.103383064270019531e+00 -4.828213837852063373e-14 1.623114484613705222e-13 3.420879438010768214e-14 -6.083454324058018559e-14
2.652000000000000000e+03 5.336469268798828125e+01 2.950672864913940430e+00 -1.168948564247290767e-13 1.786569481763977674e-13 1.852862549262153380e-14 1.638553659075170366e-13
2.653000000000000000e+03 6.075448226928710938e+01 3.368043422698974609e+00 1.234981626511977293e-13 4.149004544876794265e-14 4.949646175236334378e-14 1.552609901539145354e-13
2.654000000000000000e+03 5.606097793579101562e+01 8.613804817199707031e+00 1.302757137193119585e-13 -9.285813491830691158e-14 1.122527533436740860e-14 -4.567808804811779311e-14
2.655000000000000000e+03 5.637446975708007812e+01 9.131252288818359375e+00 -5.980971468956541859e-14 -4.850820808401101747e-14 -3.249537886495200423e-14 -1.448377550707091732e-13
2.656000000000000000e+03 5.559035110473632812e+01 8.759941101074218750e+00 3.499258445938818740e-14 -3.052598321687249872e-13 -8.108016889179017750e-14 -2.346835392848505703e-14
2.657000000000000000e+03 5.453951644897460938e+01 9.342644691467285156e+00 5.803381185982489643e-14 -6.663026115008227612e-14 -2.578936015274987427e-15 -1.159983160957736570e-13
2.658000000000000000e+03 4.768289947509765625e+01 6.825949668884277344e+00 6.431149829257826189e-14 2.563168048034386581e-13 9.618849228405779161e-14 -2.807415656555251743e-14
2.659000000000000000e+03 4.822042465209960938e+01 5.148559570312500000e+00 -1.984178575294755914e-14 4.046419029382110344e-14 6.186721446965358015e-15 1.374100757223911673e-13
2.660000000000000000e+03 4.908346939086914062e+01 2.304936885833740234e+00 -3.439891329681116217e-13 4.473384282357301123e-13 3.100478383690104256e-14 2.643861556550150538e-14
2.661000000000000000e+03 5.057839584350585938e+01 8.966693282127380371e-02 -2.067408473149096038e-13 1.859024680072110525e-13 -6.251513114683207584e-15 1.374192372307486698e-13
2.662000000000000000e+03 5.200596237182617188e+01 -9.571914076805114746e-01 -3.392875173521825438e-13 -5.390704362387942206e-14 -1.179583774407744201e-13 -5.774650506037981579e-14
2.663000000000000000e+03 5.312899017333984375e+01 -3.052933454513549805e+00 -2.240487797459250752e-13 -1.017397768137730252e-13 -9.773657035604121912e-14 5.787872351531442305e-14
2.664000000000000000e+03 5.459219360351562500e+01 -4.198211669921875000e+00 -1.513530647383534711e-13 -6.486560014161771304e-14 -6.486560014161771304e-14 1.440348525400068219e-14
2.665000000000000000e+03 5.621900558471679688e+01 -5.738352298736572266e+00 -1.711575895119513135e-13 -1.191042029542385694e-13 -8.707853773985696488e-14 7.686180251292862309e-14
2.666000000000000000e+03 5.776491928100585938e+01 -9.116480827331542969e+00 -1.052355698785180371e-13 1.607783052743130825e-13 1.666282027992533471e-14 -8.499073705014667524e-14
2.667000000000000000e+03 5.914022827148437500e+01 -7.794587612152099609e+00 -1.348443654913128453e-13 -2.865451745239638859e-13 -1.264168620045830194e-13 -1.069316618758364701e-13
2.668000000000000000e+03 5.813388061523437500e+01 -6.191727638244628906e+00 -1.117100593343682557e-13 1.122525805489528461e-13 1.627577116871588314e-16 -8.497017786645091886e-14
2.669000000000000000e+03 5.851360702514648438e+01 -4.922056198120117188e+00 -1.903504480774143026e-13 1.243004993638913147e-13 -1.981498393643053857e-14 -5.388553915141452988e-14
2.670000000000000000e+03 5.606929779052734375e+01 -1.769204974174499512e+00 -8.918895082112715533e-14 -2.212276314830091684e-13 -9.312497062548275029e-14 -1.620617126553338533e-14
2.671000000000000000e+03 5.471928787231445312e+01 -1.247726082801818848e+00 -1.234666665780870254e-13 -1.444161766084653409e-13 -8.036485295596570988e-14 6.908360737850963162e-14
2.672000000000000000e+03 5.326047897338867188e+01 2.299845695495605469e+00 -1.266338244118245249e-13 3.803623811315243186e-13 7.611856159489907570e-14 1.662717950519712606e-13
2.673000000000000000e+03 5.093306732177734375e+01 4.224652290344238281e+00 -1.583576341888590089e-13 4.353928784346650094e-13 8.311057462899451576e-14 1.290594963797991879e-13
2.674000000000000000e+03 4.936582565307617188e+01 5.058926582336425781e+00 -8.400319827760183156e-14 1.698779056877666727e-13 2.576241222304945233e-14 1.740431393839128593e-13
2.675000000000000000e+03 4.819097137451171875e+01 6.281854152679443359e+00 4.864674201660035280e-14 6.659955112354662421e-14 3.457388929729680871e-14 2.020616204738423516e-13
2.676000000000000000e+03 4.660519027709960938e+01 5.660937786102294922e+00 -2.857787181269159926e-14 -5.799860917053700771e-14 -2.597294395615540319e-14 -1.120892166925476982e-14
2.677000000000000000e+03 4.551969528198242188e+01 4.503253936767578125e+00 -1.675741522540880046e-13 -1.175684441294400084e-13 -8.554277891505840392e-14 9.356554973079939108e-14
2.678000000000000000e+03 4.611109161376953125e+01 3.070833921432495117e+00 -1.926575354327733636e-13 2.319702589737016041e-13 1.179381740109165105e-14 -3.900142199215334005e-14
2.679000000000000000e+03 4.785547637939453125e+01 1.153679728507995605e+00 -8.717448285585835399e-14 9.989235729822992793e-14 3.815362502118061633e-15 9.486516254616703114e-14
2.680000000000000000e+03 4.681821441650390625e+01 -1.393515586853027344e+00 -2.258920454118948373e-13 -5.105992871893248741e-14 -8.308559732144588095e-14 1.140976690298250995e-13
2.681000000000000000e+03 5.059629440307617188e+01 -3.657050371170043945e+00 -3.085960306736801328e-13 3.359174443056008041e-14 -8.250128688937555244e-14 8.727874244726999131e-14
2.682000000000000000e+03 5.002208709716796875e+01 -4.270652770996093750e+00 -1.915972128131368524e-13 9.388807107799362200e-15 -5.466252247393089958e-14 2.946416710874338873e-13
2.683000000000000000e+03 5.228498840332031250e+01 -6.372024536132812500e+00 -1.039396772318547379e-13 1.205371929656126606e-15 -3.082029328472547791e-14 2.450944720615300110e-13
2.684000000000000000e+03 5.402352905273437500e+01 -6.559962272644042969e+00 -1.708780889681481285e-14 2.671823537154366379e-13 7.502836242914701081e-14 1.233878315276201731e-13
2.685000000000000000e+03 5.399822235107421875e+01 -9.406765937805175781e+00 7.391183070313070425e-14 -8.270087495680297773e-14 -2.636713403156624135e-15 2.100365373161952598e-13
2.686000000000000000e+03 5.471512985229492188e+01 -1.078705787658691406e+01 1.667518797739478420e-13 4.858961811463752278e-14 6.460245072182832504e-14 2.284308267715140506e-13
2.687000000000000000e+03 5.595956420898437500e+01 -1.201255798339843750e+01 -1.772274547170299419e-13 6.129822262843434566e-14 -3.477876962657867888e-14 1.876314452116736864e-13
2.688000000000000000e+03 5.788685607910156250e+01 -1.375325298309326172e+01 -7.193303976560025403e-14 1.064243975606483927e-13 1.034740699970126271e-14 3.888913591653352098e-14
2.689000000000000000e+03 5.754161453247070312e+01 -1.237265300750732422e+01 -6.490793823645327199e-14 1.551861124413772552e-13 2.708345158385083717e-14 -4.270410116019932034e-14
2.690000000000000000e+03 5.730147552490234375e+01 -1.080158138275146484e+01 -1.293374722642973151e-13 1.275734482246090873e-13 -5.292079212965616810e-16 6.191907744998101371e-14
2.691000000000000000e+03 5.591036224365234375e+01 -8.186982154846191406e+00 -6.718585377710889484e-14 6.270796327947220083e-14 -1.343366619895416166e-15 1.303521906300536548e-13
2.692000000000000000e+03 5.490325164794921875e+01 -7.123001098632812500e+00 -2.320516554518009533e-13 -1.452016675299039328e-13 -1.131760023155223283e-13 1.697770071230897404e-13
2.693000000000000000e+03 5.338951873779296875e+01 -5.718454360961914062e+00 -1.072047385217676785e-13 1.828098490728319314e-13 2.268153316531927588e-14 3.970154215690406552e-14
2.694000000000000000e+03 4.605448532104492188e+01 4.056885242462158203e+00 3.183933151851281451e-14 1.215890723608309409e-13 4.602852251905584224e-14 -7.487079397216697685e-14
2.695000000000000000e+03 4.451472854614257812e+01 3.278254985809326172e+00 -1.510950788314105453e-13 -1.105059850591873227e-13 -7.848031984480571821e-14 -1.083113565741693207e-14
2.696000000000000000e+03 4.415872955322265625e+01 1.727889537811279297e+00 -1.111421542364203485e-13 -1.276965187237133481e-13 -7.165160121041375119e-14 4.861011122976339333e-15
2.697000000000000000e+03 4.225099182128906250e+01 -1.221818625926971436e-01 -1.965246033670906695e-14 -1.914262747881173565e-13 -6.332362070685451649e-14 -8.662285434302488540e-14
2.698000000000000000e+03 4.270087051391601562e+01 -1.548440694808959961e+00 -2.519201481535754406e-13 -1.079657739079531442e-13 -1.079657739079531442e-13 -7.362346003030387220e-14
2.699000000000000000e+03 4.298904037475585938e+01 -2.170198440551757812e+00 -1.818447736140482718e-13 -9.307054028829218895e-15 -5.734555354446752018e-14 -3.924086126568318567e-14
2.700000000000000000e+03 4.354803848266601562e+01 -5.460530757904052734e+00 -4.071959783247258713e-14 2.829969264028613096e-14 -3.725971727062526301e-15 1.151169952548145026e-13
2.701000000000000000e+03 4.309817123413085938e+01 -7.779487133026123047e+00 -1.378458165755130915e-13 -1.277032001196012900e-13 -7.966470907429246129e-14 3.878049208258689540e-14
2.702000000000000000e+03 4.319004440307617188e+01 -8.439692497253417969e+00 -2.601665932656319763e-14 -1.026518957726943460e-13 -3.860056534393113692e-14 1.315990366809391410e-13
2.703000000000000000e+03 4.328233337402343750e+01 -1.065536689758300781e+01 -7.842137990420397498e-14 -2.051752187202590672e-13 -8.507897755445983923e-14 1.061277462937292027e-13
2.704000000000000000e+03 4.227007293701171875e+01 -1.243312072753906250e+01 -9.353670995301127666e-14 -2.688419148758058874e-13 -1.087135888038978648e-13 4.880126115497027128e-14
2.705000000000000000e+03 4.311392974853515625e+01 -1.399078083038330078e+01 1.977324892905342468e-14 -1.859672897445985296e-13 -4.985820919534492135e-14 -1.244545509400743488e-14
2.706000000000000000e+03 4.193513870239257812e+01 -1.597892189025878906e+01 7.592383210845710106e-15 -3.856291913399700899e-13 -1.134110437939900295e-13 2.947677028137217492e-14
2.707000000000000000e+03 4.071985626220703125e+01 -1.601405143737792969e+01 1.143523108506922653e-14 -4.068577343519647060e-13 -1.186267474225302654e-13 -9.495062478241320103e-14
2.708000000000000000e+03 3.962324142456054688e+01 -1.644988632202148438e+01 1.110559601637077509e-13 -2.103101154056312427e-14 2.700748458694338799e-14 -2.446436472456833822e-14
2.709000000000000000e+03 4.152705001831054688e+01 -1.654590034484863281e+01 3.429231182870695616e-14 -2.826844661130145653e-13 -7.451764221953413592e-14 1.056170531891706399e-13
2.710000000000000000e+03 3.901125335693359375e+01 -1.941975402832031250e+01 9.988558103465189353e-14 -1.630711624761582712e-13 -1.895567578770462891e-14 1.044128959047608760e-14
2.711000000000000000e+03 3.880989074707031250e+01 -2.040357589721679688e+01 -4.954838826016182141e-14 -1.127369207644564331e-13 -4.868559372382501305e-14 6.526256721454612442e-15
2.712000000000000000e+03 3.902826309204101562e+01 -2.283560180664062500e+01 5.121342802963391172e-14 -4.667781054257594264e-14 1.360685267293214405e-15 2.608099317297305625e-14
2.713000000000000000e+03 3.909086227416992188e+01 -2.590731048583984375e+01 -1.329834950925673498e-14 -1.429521377573766960e-13 -4.687514550236367150e-14 1.566308592700592361e-14
2.714000000000000000e+03 3.814929962158203125e+01 -2.773136711120605469e+01 -1.140329709592479215e-14 -1.478588437667585631e-13 -4.777864166588194350e-14 2.341725412484309959e-14
2.715000000000000000e+03 3.726488494873046875e+01 -3.016777229309082031e+01 -1.584864882289271221e-14 -9.829417553335051405e-14 -3.424284849271909403e-14 2.077157551321449913e-14
2.716000000000000000e+03 3.793180084228515625e+01 -3.538643646240234375e+01 -1.179403699438322673e-15 -8.056961808876675346e-14 -2.452470735173073457e-14 -9.146710691913979840e-15
2.717000000000000000e+03 4.144531250000000000e+01 -4.086099624633789062e+01 2.388099449906946198e-14 -5.553227623296234927e-14 -9.495385028387634541e-15 -1.641068567658204164e-14
2.718000000000000000e+03 4.450170135498046875e+01 -3.915439987182617188e+01 1.033658700083303628e-14 -5.275872105728676709e-14 -1.272664038634270869e-14 -8.968881418593859824e-16
2.719000000000000000e+03 3.956340408325195312e+01 -3.789702606201171875e+01 1.389893398534266036e-14 -4.551313007570591262e-14 -9.484259250625449306e-15 -4.634544159033693322e-15
2.720000000000000000e+03 4.004733276367187500e+01 -3.420192337036132812e+01 7.136302555561368360e-15 -3.125479746974441086e-14 -7.235547711925260222e-15 1.559902651927097539e-14
2.721000000000000000e+03 4.026027679443359375e+01 -3.101134872436523438e+01 5.554340201072453451e-15 -6.910542694723090240e-14 -1.906532589679259260e-14 -1.367571433396155053e-15
2.722000000000000000e+03 4.044552612304687500e+01 -2.840553855895996094e+01 -1.412130300388649007e-14 -1.004133164421092128e-13 -3.436038617261188977e-14 -1.966076125959215909e-14
2.723000000000000000e+03 4.032612991333007812e+01 -2.635718345642089844e+01 -7.162198216231416281e-14 -5.357060891349359200e-14 -3.755777969443457875e-14 -2.292781307693114723e-14
2.724000000000000000e+03 4.088482666015625000e+01 -2.522633171081542969e+01 2.650144539903439558e-16 -2.286411619929762384e-13 -6.851284269733179388e-14 -3.132753049485924313e-14
2.725000000000000000e+03 4.141015625000000000e+01 -2.394704818725585938e+01 3.054145342662115126e-14 -1.584768693227781022e-13 -3.838062138071529628e-14 -1.088596647178495525e-13
2.726000000000000000e+03 4.166363143920898438e+01 -2.257499694824218750e+01 -5.001261313723401325e-14 -1.815622982905343297e-13 -6.947247681646229189e-14 -5.056473292917688933e-14
2.727000000000000000e+03 4.062962341308593750e+01 -2.104257392883300781e+01 -4.905868463203622021e-14 -4.390062328962253402e-14 -2.788779237649762627e-14 -3.092018896239286108e-14
2.728000000000000000e+03 4.255652618408203125e+01 -1.850761795043945312e+01 -3.315500746669218513e-14 -1.514621354769055128e-13 -5.538514322189248829e-14 -1.153177217345230376e-13
2.729000000000000000e+03 4.284418106079101562e+01 -1.732753372192382812e+01 7.013282370214174444e-14 -1.071959226028526557e-13 -1.111892865377373668e-14 -1.424252561591302091e-13
2.730000000000000000e+03 4.349743270874023438e+01 -1.511585712432861328e+01 -1.600850935102801631e-13 -2.516116926355033145e-13 -1.235090317779768965e-13 7.750118363909763719e-14
2.731000000000000000e+03 4.319932556152343750e+01 -1.327525138854980469e+01 -8.938389714800362706e-14 -1.755602363788175135e-13 -7.948324073567269998e-14 1.586967726284124747e-13
2.732000000000000000e+03 4.422495269775390625e+01 -1.223442935943603516e+01 -1.756574893136894633e-14 -3.735357563625779642e-13 -1.173304617525794402e-13 1.744413668418667851e-13
2.733000000000000000e+03 4.362524414062500000e+01 -9.956180572509765625e+00 -1.485664212095769154e-13 -1.551732239880518338e-13 -9.112189355928862478e-14 1.498826833045557860e-13
2.734000000000000000e+03 4.386432266235351562e+01 -8.480682373046875000e+00 -1.559266902878206351e-13 -1.583276153412083165e-13 -9.427629168870868548e-14 1.377352957165553504e-13
2.735000000000000000e+03 4.490034484863281250e+01 -6.126696586608886719e+00 6.482244211888921193e-14 -1.780982181393345187e-13 -3.398273483901266545e-14 -4.856587069892830122e-14
2.736000000000000000e+03 4.483413314819335938e+01 -5.338854312896728516e+00 2.850841511101674663e-14 1.723462139061743281e-13 6.025638565583871231e-14 -1.057505980977006474e-14
2.737000000000000000e+03 4.353016662597656250e+01 -4.713834285736083984e+00 9.476658823989736469e-15 1.870652206270931317e-13 5.896256654583029166e-14 3.864926973839825919e-14
2.738000000000000000e+03 4.349610519409179688e+01 2.093360185623168945e+00 -4.217728732458861374e-14 -1.807597955593830824e-14 -1.807597955593830824e-14 -1.657915612521959625e-13
2.739000000000000000e+03 4.286987304687500000e+01 5.678169429302215576e-03 -6.651321474929888788e-14 -1.657585066384623107e-13 -6.968151777158107518e-14 -3.816801272282267787e-14
2.740000000000000000e+03 4.139953613281250000e+01 4.116418659687042236e-01 -8.372729592975858282e-14 -3.588312440694525762e-14 -3.588312440694525762e-14 -6.770599299309523755e-14
2.741000000000000000e+03 4.072868347167968750e+01 3.207476437091827393e-02 -2.579793746248365549e-13 2.669026227786717997e-14 -6.938672997714584456e-14 -3.456441946894650563e-14
2.742000000000000000e+03 3.952797698974609375e+01 -6.185976862907409668e-01 -6.651258320153341508e-13 -3.765558286190906490e-13 -3.125044981903274399e-13 3.193677147825951801e-13
2.743000000000000000e+03 4.004670715332031250e+01 -2.077240794897079468e-01 -6.100893444951904776e-13 -3.271211087923185656e-14 -1.928404267867445121e-13 7.611118224386259623e-14
2.744000000000000000e+03 3.720274353027343750e+01 -2.293028309941291809e-02 -4.171605010212797726e-13 -3.961000906611833461e-13 -2.439781775047389356e-13 2.249277695522133858e-13
2.745000000000000000e+03 3.807363128662109375e+01 3.086649656295776367e+00 -6.723413465510238995e-14 -4.405731693097464374e-13 -1.523421959328391528e-13 -1.323073866178053892e-13
2.746000000000000000e+03 3.690186309814453125e+01 6.000681877136230469e+00 2.223226621246923718e-13 -1.563490819016938316e-13 1.979207508333909876e-14 8.269645005668652127e-14
2.747000000000000000e+03 3.693463134765625000e+01 8.104247093200683594e+00 1.385955017202053496e-13 -1.135977027505105652e-13 7.499340029721614231e-15 9.158718569787435704e-14
2.748000000000000000e+03 3.909437179565429688e+01 9.185637474060058594e+00 1.045635203856393192e-13 -2.525682300021786508e-13 -4.440141288496179950e-14 -1.482561361003387201e-13
2.749000000000000000e+03 3.836983871459960938e+01 9.336838722229003906e+00 1.344978002668778538e-13 -5.673545604135098175e-14 2.332870360647124053e-14 4.809394798643146229e-14
2.750000000000000000e+03 3.813652801513671875e+01 8.713679313659667969e+00 7.533563887735655884e-14 -2.879699517038813994e-13 -6.379028842694658974e-14 3.235203039709047546e-14
2.751000000000000000e+03 3.593946838378906250e+01 9.739810943603515625e+00 -1.599483823925933190e-14 3.889601721219701491e-14 6.870354115397778530e-15 4.705149098571843880e-14
2.752000000000000000e+03 3.667260360717773438e+01 9.643218994140625000e+00 5.538543460122634376e-14 3.439932529363670666e-13 1.198136099882229910e-13 1.146046148606250092e-13
2.753000000000000000e+03 3.531490325927734375e+01 8.862743377685546875e+00 2.033480399040235587e-13 4.139821013662663141e-14 7.342387873914002494e-14 1.867813087357006463e-13
2.754000000000000000e+03 3.472872161865234375e+01 8.412814140319824219e+00 1.835438132860231497e-13 3.291068589525436572e-14 6.493635110963597024e-14 2.117141775477907051e-13
2.755000000000000000e+03 3.411850357055664062e+01 7.945541381835937500e+00 1.769478660818002425e-13 3.008385234719648804e-14 6.210951756157809256e-14 2.280489978714189681e-13
2.756000000000000000e+03 3.611811065673828125e+01 6.156976699829101562e+00 2.144588827812828058e-14 -1.368437884573725158e-14 2.328452914420603426e-15 1.152262286236924171e-13
2.757000000000000000e+03 3.732088470458984375e+01 5.039586544036865234e+00 3.439119784310121219e-15 -1.586544074285226036e-13 -4.656458934258235483e-14 -7.637734710094420953e-14
2.758000000000000000e+03 3.770208740234375000e+01 4.070630550384521484e+00 -5.241280974228705591e-14 -3.427192882786422867e-13 -1.185396317779710551e-13 -8.839122196766663331e-14
2.759000000000000000e+03 3.699073410034179688e+01 4.318714141845703125e+00 2.316014235590174025e-14 -3.560818090039830075e-13 -9.987650084145732743e-14 -1.751893850257188467e-14
2.760000000000000000e+03 3.874584197998046875e+01 4.555316448211669922e+00 -1.229786671802512998e-13 -1.670825207789744526e-13 -8.701835774302044135e-14 -9.745549771908793013e-14
2.761000000000000000e+03 3.878097152709960938e+01 6.232692241668701172e+00 -3.260254208530682929e-14 -1.283498860579074252e-13 -4.828572979821699196e-14 -5.810151350923303815e-14
2.762000000000000000e+03 3.964580917358398438e+01 7.568619251251220703e+00 1.103007184828815046e-13 -3.279242315515872030e-14 2.325248758187729858e-14 -6.704538860939981970e-14
2.763000000000000000e+03 4.077435684204101562e+01 8.001079559326171875e+00 5.181691867576186661e-14 -2.354369750914332704e-14 8.481966858205330223e-15 4.571009572912863861e-14
2.764000000000000000e+03 4.051605987548828125e+01 8.820900917053222656e+00 1.944840501751782247e-14 -1.060423382675916570e-13 -2.597818031383532927e-14 2.730879622913837124e-14
2.765000000000000000e+03 3.980517578125000000e+01 9.004741668701171875e+00 -7.288683782772416991e-15 -1.403765748390559120e-13 -4.429957580777930948e-14 -5.446433031680054937e-14
2.766000000000000000e+03 3.895805358886718750e+01 7.824452400207519531e+00 5.448096265575283481e-14 -3.383970146740751528e-14 6.192378780020069487e-15 -1.053180641113170279e-13
2.767000000000000000e+03 3.400480651855468750e+01 6.979951381683349609e+00 2.304061347095653911e-13 9.731577116410886075e-14 9.831657108447591775e-14 2.496090085925967150e-13
2.768000000000000000e+03 3.399444580078125000e+01 5.948905467987060547e+00 1.844612109542717593e-13 5.046045978523809594e-14 7.047650223829249327e-14 1.363962382708999721e-13
2.769000000000000000e+03 3.450741195678710938e+01 4.421449661254882812e+00 -1.506587145620394419e-13 1.641867251964829189e-13 4.058405053805527046e-15 7.397167188678832606e-14
2.770000000000000000e+03 3.359943008422851562e+01 1.890051960945129395e+00 -2.658638825585313281e-13 6.906212662296726257e-14 -5.904052745829557747e-14 1.514538548828131548e-13
2.771000000000000000e+03 3.424436187744140625e+01 -4.479158520698547363e-01 -2.331690884208731385e-13 3.732323288320807397e-14 -5.875376275993673958e-14 5.335388706360910671e-14
2.772000000000000000e+03 3.307216644287109375e+01 -1.099186182022094727e+00 -1.191644574899744513e-13 3.757198274289413886e-14 -2.447774276293727264e-14 -5.338459878421065313e-15
2.773000000000000000e+03 3.425483703613281250e+01 -2.191240072250366211e+00 4.401150667868169997e-14 6.461302169301005871e-14 3.258735986676024321e-14 -1.087146730060703503e-13
2.774000000000000000e+03 3.372085189819335938e+01 -1.602598547935485840e+00 1.607682764042175916e-14 1.098297004015723333e-13 3.777196044547730114e-14 -1.824364125751782445e-14
2.775000000000000000e+03 3.535808563232421875e+01 -2.861363649368286133e+00 7.547321735678139132e-14 -1.735336050204261404e-13 -2.941811494384070913e-14 8.641604616675506445e-15
2.776000000000000000e+03 3.623135757446289062e+01 -4.154538512229919434e-01 -2.884853814166810082e-13 -7.788564172946099706e-14 -1.099113069438426016e-13 1.626555064682816409e-13
2.777000000000000000e+03 3.527799606323242188e+01 7.672613859176635742e-01 -3.453071704441479373e-13 1.209767556313925962e-13 -6.729912579907931791e-14 -2.509337308526527616e-14
2.778000000000000000e+03 3.577518844604492188e+01 1.790025353431701660e+00 -3.064434014703187881e-13 -6.270645894895787720e-14 -1.107449567705302840e-13 2.588233684178761068e-14
2.779000000000000000e+03 3.524645233154296875e+01 4.143102645874023438e+00 3.915674072962546659e-15 -1.355746976272262372e-13 -3.949770876034500167e-14 1.621762484504615798e-13
2.780000000000000000e+03 3.586862182617187500e+01 5.461733341217041016e+00 9.434704265672694268e-14 -2.819197546038380159e-14 1.984652066712271068e-14 1.241809660743747878e-13
2.781000000000000000e+03 3.228289413452148438e+01 6.487195491790771484e+00 4.074824516437508537e-13 4.033900763335956929e-13 2.432617638142148264e-13 2.031546046839249886e-13
2.782000000000000000e+03 3.042858505249023438e+01 5.019351959228515625e+00 1.450917158770867466e-13 1.643121436709169686e-14 4.845687788740740687e-14 1.224904509419810772e-13
2.783000000000000000e+03 3.089537620544433594e+01 4.514336109161376953e+00 1.586815395878890533e-13 2.225542646493942206e-14 5.428108998525513207e-14 8.960615859336315547e-14
2.784000000000000000e+03 3.050158309936523438e+01 2.568330526351928711e+00 8.398792457949694201e-14 2.304363568451234245e-13 9.432728307213339436e-14 8.884868752181973584e-14
2.785000000000000000e+03 3.223512649536132812e+01 1.129733562469482422e+00 -3.437124716787476331e-13 1.729513071386384881e-13 -5.122834936203274347e-14 4.930669926712406836e-14
2.786000000000000000e+03 3.134778785705566406e+01 1.418959498405456543e+00 -2.886262192788868752e-13 3.338125403266195557e-13 1.355589495906708852e-14 1.420271777789750001e-13
2.787000000000000000e+03 3.134879493713378906e+01 3.974246501922607422e+00 -4.104283576954019519e-14 -6.334073754865263139e-14 -3.131507233427102688e-14 2.272228493685121697e-13
2.788000000000000000e+03 2.962301445007324219e+01 3.615066766738891602e+00 1.757476000667501648e-13 3.383883613854860029e-13 1.542407830146599879e-13 -1.259185018056155976e-16
2.789000000000000000e+03 2.917543029785156250e+01 4.068720817565917969e+00 -5.225301189458984863e-14 6.910775120563816820e-14 5.056422047424380048e-15 1.025666910344641414e-13
2.790000000000000000e+03 2.838516044616699219e+01 2.637109041213989258e+00 -1.999522915947446466e-13 1.802335543180447197e-13 -5.915620928900093903e-15 9.721331405880898058e-14
2.791000000000000000e+03 2.869512176513671875e+01 -5.501044392585754395e-01 -1.310770475449959949e-13 -1.042492914909987078e-14 -4.245059436348147530e-14 1.280781324774398280e-14
2.792000000000000000e+03 2.921795654296875000e+01 -1.506867170333862305e+00 -1.332938886220227936e-13 1.716287973286406698e-13 1.150047040969970000e-14 -5.634161960219562226e-14
2.793000000000000000e+03 2.880310058593750000e+01 -3.957555770874023438e+00 -1.071817331069202517e-13 2.269139432289121044e-14 -2.534710180461530182e-14 -3.357987919303494218e-14
2.794000000000000000e+03 2.906240653991699219e+01 -4.699238777160644531e+00 -4.055747233823632503e-14 3.943767784130719489e-13 1.061457914836375083e-13 -2.666297934663611896e-14
2.795000000000000000e+03 2.884863853454589844e+01 -6.487020015716552734e+00 7.850881403315135287e-14 -1.722326301760793155e-13 -2.811714687575746219e-14 5.598717358321937676e-14
2.796000000000000000e+03 2.781767845153808594e+01 -8.299543380737304688e+00 1.480282232511551110e-13 4.056519389058349523e-14 5.657802649777429749e-14 1.581360232648029718e-13
2.797000000000000000e+03 2.671521949768066406e+01 -1.067888736724853516e+01 -2.059076447216180716e-14 1.055527600003422495e-13 2.548859865845413269e-14 -1.550241055317536087e-14
2.798000000000000000e+03 2.677255249023437500e+01 -1.159406471252441406e+01 1.237075356432318363e-13 2.131458394115035015e-13 1.010560111611678857e-13 -4.874561447846745277e-14
2.799000000000000000e+03 2.748311233520507812e+01 -1.359795761108398438e+01 -2.472354664203278707e-14 3.096608256272781468e-13 8.548118945539764924e-14 -4.235776632872598202e-14
2.800000000000000000e+03 2.757097625732421875e+01 -1.533438682556152344e+01 -9.640084683206623373e-14 2.331910435148659699e-13 4.103705900483992086e-14 2.269197708155892140e-14
2.801000000000000000e+03 2.729916954040527344e+01 -1.753358650207519531e+01 -6.113656130825317891e-14 1.954956446834250905e-14 -1.247609905197320096e-14 -4.965001527317339236e-14
2.802000000000000000e+03 2.560449218750000000e+01 -1.931168174743652344e+01 2.109550462916706670e-14 -1.383454338772533571e-14 2.178288372432519299e-15 9.720775074641141433e-14
2.803000000000000000e+03 2.549570465087890625e+01 -2.221287345886230469e+01 1.083790446710503064e-13 -4.505373667456485931e-14 1.899759375419834972e-14 7.110353701222232869e-14
2.804000000000000000e+03 2.673204421997070312e+01 -2.309283065795898438e+01 -3.752391531720335183e-14 5.254474359415138573e-14 4.506248737194294349e-15 -2.307157828500272512e-14
2.805000000000000000e+03 2.523444557189941406e+01 -2.559086418151855469e+01 -1.388957744764905255e-15 -6.922169407770281668e-14 -2.118319456206451540e-14 1.499468968722871345e-15
2.806000000000000000e+03 2.433411026000976562e+01 -2.682221412658691406e+01 1.898654166830257561e-14 -1.519912261370784390e-13 -3.990140805113819022e-14 -1.264603778987317354e-15
2.807000000000000000e+03 2.327481079101562500e+01 -2.802735137939453125e+01 -1.902270489295265071e-14 4.257154240977815366e-16 -5.579096433021854887e-15 -2.024605255581540808e-14
2.808000000000000000e+03 2.366190910339355469e+01 -3.101995468139648438e+01 2.323732738618734112e-14 -7.010530529575134673e-14 -1.406039371168238059e-14 -7.236472671903661918e-15
2.809000000000000000e+03 2.154101371765136719e+01 -4.080167388916015625e+01 2.531062348370884812e-14 -6.063844494889544801e-14 -1.059834728658892722e-14 5.144181013507029970e-15
2.810000000000000000e+03 2.952464103698730469e+01 -3.798232269287109375e+01 4.490924301815864272e-14 -3.222300017416933338e-14 3.805873615526445333e-15 -1.804404302569503210e-14
2.811000000000000000e+03 2.661590194702148438e+01 -3.654087066650390625e+01 2.344736614611798997e-14 -3.570207619666733445e-14 -3.676413523384571697e-15 2.289623362401469798e-17
2.812000000000000000e+03 2.685573387145996094e+01 -3.095372962951660156e+01 6.854653089170999192e-15 8.656576771051173458e-15 4.653369042769946520e-15 -3.464041526497416146e-14
2.813000000000000000e+03 2.590150833129882812e+01 -2.811263275146484375e+01 -1.045136758848251926e-14 -7.310557731008901494e-14 -2.506708457071429169e-14 -3.504940681762179489e-14
2.814000000000000000e+03 2.672350883483886719e+01 -2.669450187683105469e+01 9.041103471083260928e-15 -1.105026104799254616e-13 -3.043845422023502834e-14 9.280246283081567543e-15
2.815000000000000000e+03 2.742452239990234375e+01 -2.529623222351074219e+01 3.125697265035295991e-15 -1.130377868673211605e-13 -3.297362721949893827e-14 -2.134938581444759814e-14
2.816000000000000000e+03 2.805360984802246094e+01 -2.392408752441406250e+01 7.587950856839317804e-14 -1.276085357174161494e-13 -1.551870746708053361e-14 -3.114700066874503959e-14
2.817000000000000000e+03 2.737149047851562500e+01 -2.182410621643066406e+01 -1.869760009526929417e-14 -1.223906230269494744e-13 -4.232647015539083013e-14 -4.199837363733777140e-14
2.818000000000000000e+03 2.612292671203613281e+01 -2.109009170532226562e+01 6.085813141409532334e-15 -1.575201151156682688e-13 -4.543029025346444205e-14 1.061216493505748662e-14
2.819000000000000000e+03 2.827003097534179688e+01 -1.656130790710449219e+01 -1.202879755437397113e-13 8.570085559180679047e-14 -1.037613666320623407e-14 3.601209025536240838e-14
2.820000000000000000e+03 2.965052032470703125e+01 -1.466177177429199219e+01 -8.555274002251811449e-14 5.483643866679294154e-14 -9.214889220871425729e-15 -1.013793659887822149e-14
2.821000000000000000e+03 2.954143905639648438e+01 -1.290005874633789062e+01 -7.635123138111446495e-14 9.309315606798387877e-14 5.022576304917992715e-15 -1.011401384734891828e-13
2.822000000000000000e+03 2.845422744750976562e+01 -1.188593292236328125e+01 -4.337571358407725508e-14 7.291230472031631771e-14 8.860976832651950436e-15 -5.881176757616471407e-14
2.823000000000000000e+03 2.864347457885742188e+01 -9.751059532165527344e+00 7.558516123109051965e-14 2.667477173932779333e-14 3.067798158519138840e-14 -4.087989373554277994e-14
2.824000000000000000e+03 3.067207145690917969e+01 -8.292636871337890625e+00 5.632459085182402181e-14 2.413911084908626492e-14 2.413911084908626492e-14 -2.501191731485961911e-14
2.825000000000000000e+03 3.164515686035156250e+01 -7.168989181518554688e+00 -1.722088183858661026e-13 -1.538679394400693790e-13 -9.782302870303336007e-14 5.078575770643342646e-14
2.826000000000000000e+03 3.130135345458984375e+01 -6.453239440917968750e+00 3.973046663798690536e-14 -1.202254983935502342e-13 -2.414851122073489315e-14 9.319414950035090350e-14
2.827000000000000000e+03 3.070032501220703125e+01 -4.964500904083251953e+00 2.632079497660432671e-14 -1.159513396485189335e-14 4.417698218822435283e-15 5.720096163223942209e-14
2.828000000000000000e+03 3.002368545532226562e+01 -5.210795402526855469e+00 -1.855138899485922477e-13 1.034978445177761608e-13 -2.460481464568436277e-14 3.702388805151661522e-14
2.829000000000000000e+03 2.976445388793945312e+01 -4.430749893188476562e+00 -1.376532300824276703e-14 8.560247102091730897e-14 2.155114567435178347e-14 1.146714965821402088e-13
2.830000000000000000e+03 2.851155090332031250e+01 -3.275754451751708984e+00 -2.496947249387270612e-14 4.925592269125478317e-13 1.402769231068773381e-13 -3.176402351323832918e-14
2.831000000000000000e+03 2.853126716613769531e+01 3.607075929641723633e+00 1.441111092221822321e-13 4.277695005942133699e-13 1.715641788791605338e-13 2.311277119129359625e-14
2.832000000000000000e+03 2.546406555175781250e+01 2.272249698638916016e+00 4.775462252200324276e-13 -2.528468157503988012e-13 6.740982284089008791e-14 -1.555192064538191143e-13
2.833000000000000000e+03 2.899706268310546875e+01 2.267964124679565430e+00 2.771449248480800653e-13 1.244952627316511795e-13 1.204920494976557954e-13 9.012396677467865436e-14
2.834000000000000000e+03 2.691115379333496094e+01 1.558862447738647461e+00 3.011204837994468919e-13 4.493082880578647131e-13 2.251286315571934815e-13 -2.188513584765183762e-13
2.835000000000000000e+03 2.608425903320312500e+01 1.711056590080261230e+00 3.007808303638614955e-13 -7.697320428615150867e-14 6.714228240230213363e-14 -3.900313299870679373e-14
2.836000000000000000e+03 2.536282348632812500e+01 1.813433885574340820e+00 6.346155155198540676e-13 9.124913281574609236e-13 4.641320422611727725e-13 -3.781551623487783287e-13
2.837000000000000000e+03 2.599586486816406250e+01 9.588063359260559082e-01 2.512340650188266133e-13 6.109322032640807087e-13 2.586498723533559030e-13 -3.760476901659010052e-13
2.838000000000000000e+03 2.472331428527832031e+01 -1.273126125335693359e+00 -1.902000150259819389e-13 3.302442412415895756e-13 4.201326786468229102e-14 -1.383235973678731412e-14
2.839000000000000000e+03 2.539744949340820312e+01 -3.521391391754150391e+00 -1.568249382351977195e-13 1.729817867722124869e-13 4.847054561104430226e-15 3.235321539618368422e-15
2.840000000000000000e+03 2.492267417907714844e+01 -5.683441162109375000e+00 3.816696917823166058e-14 1.536101161634523260e-13 5.753312729657109048e-14 -9.771558426774004658e-14
2.841000000000000000e+03 2.582784080505371094e+01 -6.322197437286376953e+00 4.555357081673962194e-14 3.397796096132194021e-13 1.155999531125481705e-13 6.097876923457506981e-14
2.842000000000000000e+03 2.537401008605957031e+01 -8.059757232666015625e+00 -4.709624143038777799e-14 7.347065664187191203e-13 2.062830971576862238e-13 8.960688365356600515e-14
2.843000000000000000e+03 2.485793495178222656e+01 -9.153103828430175781e+00 2.716137590449280159e-13 5.281644262569717974e-13 2.399334528800645128e-13 2.720994003030385855e-13
2.844000000000000000e+03 2.443496322631835938e+01 -1.018135929107666016e+01 7.021341380487530759e-14 3.732235874520650754e-13 1.330311051204666195e-13 2.563314957428758367e-13
2.845000000000000000e+03 2.338821792602539062e+01 -9.728385925292968750e+00 2.459017452822401945e-14 1.020405412726840821e-13 3.798921423205266212e-14 1.219659816935683705e-13
2.846000000000000000e+03 2.291425514221191406e+01 -9.083414077758789062e+00 -2.127406052970098882e-13 -1.369254915613987711e-13 -1.048998263470171666e-13 5.342386553757946799e-14
2.847000000000000000e+03 2.228892707824707031e+01 -8.664273262023925781e+00 -1.619803873280020734e-13 4.352748833569806963e-14 -3.553586800362530662e-14 2.068475328086821774e-13
2.848000000000000000e+03 2.102312278747558594e+01 -7.742187023162841797e+00 -2.503905557286328909e-13 -1.759366578205773246e-13 -1.278981667752684959e-13 2.361707563455078818e-13
2.849000000000000000e+03 1.817976760864257812e+01 -6.079194545745849609e+00 -2.338469316191110758e-13 -1.459710716016082710e-13 -1.139454063872266665e-13 9.123763891746503041e-14
2.850000000000000000e+03 1.818647384643554688e+01 -4.986131668090820312e+00 -1.395661608201773096e-13 -8.268954504410050421e-14 -6.667671243690970195e-14 1.059290865744119681e-13
2.851000000000000000e+03 1.718811416625976562e+01 -4.920948982238769531e+00 -1.300539401649300486e-13 -1.014883503299736367e-13 -6.946269189185561022e-14 5.345291199140671246e-14
2.852000000000000000e+03 1.710768699645996094e+01 -3.892094135284423828e+00 -1.670537216587678064e-13 -1.688152249284050055e-13 -1.007606812656464124e-13 1.961087440713066982e-14
2.853000000000000000e+03 1.634011459350585938e+01 -7.150112628936767578e+00 -7.685960700352933994e-14 1.281111837030416908e-14 -1.921454599704448818e-14 5.715273496435455125e-14
2.854000000000000000e+03 1.725121116638183594e+01 -8.372385978698730469e+00 -1.729758914228995970e-13 -1.198834732657125257e-13 -8.785780805133092120e-14 -3.992738824569637412e-14
2.855000000000000000e+03 1.684403228759765625e+01 -1.023516654968261719e+01 -5.216840346755451108e-15 -2.511126242111128698e-14 -9.098431507986379230e-15 4.017409506191366164e-14
2.856000000000000000e+03 1.587354469299316406e+01 -1.206285095214843750e+01 4.667267074665200355e-14 -2.545031243042505942e-13 -6.234913301796096707e-14 -7.821867475553065385e-14
2.857000000000000000e+03 1.699169731140136719e+01 -1.321189785003662109e+01 7.757007791089551296e-14 -2.412613837009247586e-13 -4.910738902650334248e-14 5.264674668979153760e-14
2.858000000000000000e+03 1.662542915344238281e+01 -1.512121582031250000e+01 -8.649622630554215652e-14 -2.200736066906155974e-13 -9.197094583308917937e-14 5.182314267385829121e-14
2.859000000000000000e+03 1.710324478149414062e+01 -1.678631591796875000e+01 2.711248109701913656e-14 -2.171351070950552908e-13 -5.700678779941084628e-14 -1.049812888936864017e-14
2.860000000000000000e+03 1.572965145111083984e+01 -1.931085777282714844e+01 -1.370381316967905425e-14 -1.431259082605718103e-13 -4.704891600555878572e-14 -5.084283417455121024e-14
2.861000000000000000e+03 1.542808437347412109e+01 -2.155074501037597656e+01 2.437700174638852968e-14 -1.954319816871094573e-13 -5.131649499865581499e-14 -3.208102051155056755e-14
2.862000000000000000e+03 1.513882541656494141e+01 -2.249534034729003906e+01 1.559034443156161881e-14 -8.482032079742268804e-14 -2.076899375679126802e-14 -1.055237372634375281e-14
2.863000000000000000e+03 1.552749729156494141e+01 -2.500366783142089844e+01 1.817996979087271869e-14 7.791415624659736583e-15 7.791415624659736583e-15 -8.069033722440943635e-14
2.864000000000000000e+03 1.574017715454101562e+01 -2.639595222473144531e+01 2.700093532819521774e-14 -1.256810139901171075e-13 -2.960402512323587199e-14 -3.320579556220955297e-14
2.865000000000000000e+03 1.449071216583251953e+01 -2.749646568298339844e+01 8.439783431585939910e-14 -3.245592068213710990e-14 1.558257544536940237e-14 -4.233946702893350011e-14
2.866000000000000000e+03 1.343617439270019531e+01 -2.932894897460937500e+01 8.933321916676940228e-16 1.147602249774309913e-13 3.469606871774055801e-14 -3.599303540218097563e-14
2.867000000000000000e+03 1.470864009857177734e+01 -3.026668930053710938e+01 3.190559321191062392e-14 -3.779599246425680015e-14 -1.767119521593968692e-15 -3.185435449486531678e-14
2.868000000000000000e+03 1.457234287261962891e+01 -3.169063758850097656e+01 -6.432539640917681045e-14 6.745184668650221552e-15 -1.727406297158656096e-14 -4.166321625263640083e-14
2.869000000000000000e+03 1.521710777282714844e+01 -3.356783294677734375e+01 4.818616615746493248e-14 -8.228841734533517971e-14 -1.023067654220720032e-14 -3.936615776737283079e-14
2.870000000000000000e+03 9.631079673767089844e+00 -3.999468231201171875e+01 -9.266786929549696711e-15 -7.831677472334985790e-14 -2.627506705591385605e-14 -1.344793976290658069e-15
2.871000000000000000e+03 1.595470333099365234e+01 -3.580551147460937500e+01 3.340317117957875004e-14 -6.574851340451770554e-14 -9.703603514514633904e-15 -2.979360126122675145e-14
2.872000000000000000e+03 1.981785583496093750e+01 -3.769118118286132812e+01 2.574829048975282864e-14 -4.615370382426466078e-14 -6.121624000353549644e-15 5.240344240492337061e-15
2.873000000000000000e+03 1.712624931335449219e+01 -3.284613800048828125e+01 2.069831732767236920e-14 -3.688024142805765293e-14 -4.854577484225469294e-15 -3.904714144251433816e-14
2.874000000000000000e+03 1.542927551269531250e+01 -2.912116050720214844e+01 -1.566370764918920827e-14 -2.958849053898322812e-14 -1.357566047289126762e-14 -1.053484488772009342e-13
2.875000000000000000e+03 1.719074821472167969e+01 -2.644989395141601562e+01 6.354427617774605075e-14 5.010873782422022027e-14 3.409590521702941801e-14 -3.655135208716596418e-14
2.876000000000000000e+03 1.657142829895019531e+01 -2.352419090270996094e+01 -4.930533046188130541e-15 -9.361498257360115205e-14 -2.956365553296973203e-14 -1.582918366695162948e-13
2.877000000000000000e+03 1.618362236022949219e+01 -2.231829452514648438e+01 7.037708089907557252e-14 1.300499912973299491e-14 2.501462273809314935e-14 -6.827959015244869367e-14
2.878000000000000000e+03 1.610975837707519531e+01 -2.072238731384277344e+01 3.144442104158033657e-14 -1.066200621714641361e-13 -2.255269098371242426e-14 -5.748390451794024858e-14
2.879000000000000000e+03 1.741962432861328125e+01 -1.867056083679199219e+01 8.215424732649009854e-14 -1.249193619639460406e-13 -1.282953286657747757e-14 8.595990537213146765e-14
2.880000000000000000e+03 1.797064018249511719e+01 -1.649728775024414062e+01 6.160117582048110774e-14 -2.023542466401961892e-13 -4.222592056828816665e-14 1.465541826350252874e-13
2.881000000000000000e+03 1.773673629760742188e+01 -1.560477066040039062e+01 -2.823192153417631439e-14 -2.408541302598848910e-13 -8.072581774050402448e-14 3.263572883618025278e-14
2.882000000000000000e+03 1.811493873596191406e+01 -1.360226726531982422e+01 5.801144341375380487e-14 -2.953945952861164459e-13 -7.121494556170879231e-14 1.043873714139283149e-13
2.883000000000000000e+03 1.740197753906250000e+01 -1.143200588226318359e+01 -5.097645192791468161e-14 2.390389826996321826e-14 -8.121766097385439004e-15 4.617643141230538817e-14
2.884000000000000000e+03 1.752977943420410156e+01 -9.812862396240234375e+00 1.061221965338587925e-13 -4.602095682077096683e-14 1.803037191392634769e-14 3.881350942687086802e-14
2.885000000000000000e+03 1.769723129272460938e+01 -7.779259681701660156e+00 -1.300332590084898876e-13 -9.977591567897087926e-15 -4.200325593524574519e-14 -1.318724504459833566e-14
2.886000000000000000e+03 1.987216377258300781e+01 -6.643505096435546875e+00 -1.237014505585387614e-13 -1.788300139481807660e-13 -9.075944477302672064e-14 1.818084663937971635e-13
2.887000000000000000e+03 1.875080490112304688e+01 -6.619322299957275391e+00 -1.641600843162258766e-14 -1.442882814096935196e-13 -4.821128576654870601e-14 1.169341045433730519e-13
2.888000000000000000e+03 1.660920143127441406e+01 -5.088127613067626953e+00 -1.899249122772408982e-13 5.585645268253551510e-14 -4.022053957247750944e-14 1.654691330786259296e-13
2.889000000000000000e+03 2.416744995117187500e+01 1.989815711975097656e+00 9.779605510823463632e-13 -4.501420937386146903e-13 1.583455317821086394e-13 -2.722950174800092826e-13
2.890000000000000000e+03 2.460295104980468750e+01 1.279993653297424316e+00 1.139334801633293259e-13 6.435909747845580675e-13 2.272573405501243649e-13 -1.903188029265048820e-13
2.891000000000000000e+03 2.258130264282226562e+01 1.634248256683349609e+00 2.444596174794311239e-13 5.901745428081237033e-14 9.104311949519397484e-14 -1.241520314288965809e-13
2.892000000000000000e+03 2.137394523620605469e+01 1.113066434860229492e+00 -1.326552664373745194e-13 -1.941051079633673848e-13 -9.802811232022257126e-14 1.041791368341753177e-13
2.893000000000000000e+03 1.980240249633789062e+01 1.901902675628662109e+00 -8.066513494491001079e-13 1.575527224960057704e-13 -1.947295813096647232e-13 3.538765959952561158e-13
2.894000000000000000e+03 2.158613014221191406e+01 8.424928039312362671e-02 -3.422879926544275531e-13 -3.868873266459765814e-13 -2.187526012111321028e-13 2.093945947623937487e-13
2.895000000000000000e+03 2.079398536682128906e+01 1.561236619949340820e+00 -3.499455228633124859e-13 -1.272380197893645953e-14 -1.088007925398835896e-13 4.647077282037741577e-15
2.896000000000000000e+03 1.893599319458007812e+01 1.763426780700683594e+00 -1.099134563746495541e-12 -7.684388607202830013e-13 -5.602720436030661499e-13 8.306433340633800899e-13
2.897000000000000000e+03 1.797154617309570312e+01 2.688580751419067383e+00 -3.214619542779573180e-12 -8.744337177089833713e-13 -1.226715994409599553e-12 1.559450810671714205e-12
2.898000000000000000e+03 2.114404487609863281e+01 -4.055617153644561768e-01 -4.647097051786730493e-13 -4.679481086476700025e-13 -2.797973712529572277e-13 3.837517597530398783e-13
2.899000000000000000e+03 2.407059097290039062e+01 -1.523896455764770508e+00 -2.600676293242065729e-13 2.545500431532649044e-13 -1.655273373711129824e-15 2.204515731204712004e-13
2.900000000000000000e+03 2.365606307983398438e+01 -3.594385385513305664e+00 -1.860491063510397169e-13 -1.369240143359387596e-13 -9.689193620609354296e-14 1.362996358573315137e-13
2.901000000000000000e+03 2.455435943603515625e+01 -4.948852062225341797e+00 4.044941803922098844e-14 -1.697774712971448358e-14 7.041500934038772558e-15 -4.553117526561421824e-14
2.902000000000000000e+03 2.220721244812011719e+01 -1.642294406890869141e+00 -2.568597732514193988e-13 -4.246205438044464708e-13 -2.044440869852434672e-13 4.104454135508278645e-13
2.903000000000000000e+03 1.465320777893066406e+01 -2.894446134567260742e+00 -1.152634980733716064e-13 -4.939864638761441717e-14 -4.939864638761441717e-14 1.448197844197002260e-13
2.904000000000000000e+03 1.267321681976318359e+01 -2.476895570755004883e+00 -9.944062446306384251e-14 -3.171230910248984403e-13 -1.249691132911359692e-13 -4.971779484961268147e-14
2.905000000000000000e+03 1.264696216583251953e+01 -1.892938375473022461e+00 -1.513922146011755648e-14 -1.437410845732400855e-13 -4.766409231822706094e-14 -1.020689067120217342e-13
2.906000000000000000e+03 1.119728469848632812e+01 -2.487072229385375977e+00 -2.486803182810953111e-15 -9.256767038003446690e-14 -2.851634333940304689e-14 -2.543709905526107123e-14
2.907000000000000000e+03 1.197734832763671875e+01 -3.134160757064819336e+00 3.640882354719737757e-14 -1.674000158326596766e-13 -3.929735836326504750e-14 -2.738238645159582485e-14
2.908000000000000000e+03 1.137045860290527344e+01 -4.465746402740478516e+00 -8.326990491450483867e-14 -2.186908965549905215e-13 -9.058824247372768146e-14 2.673245976523349471e-14
2.909000000000000000e+03 1.180737972259521484e+01 -6.999362468719482422e+00 -4.717781409134015613e-14 -1.574719087765741321e-13 -6.139491990969289659e-14 -8.811317832053272570e-14
2.910000000000000000e+03 1.129614925384521484e+01 -7.468027591705322266e+00 -5.755894231970455979e-15 1.004728255888515109e-13 2.841507885649290077e-14 -4.122301407698128820e-15
2.911000000000000000e+03 1.134218597412109375e+01 -9.917854309082031250e+00 -1.330076016502462072e-14 1.544279976247939223e-13 4.233816937445830653e-14 -3.606646299431255642e-14
2.912000000000000000e+03 1.184371376037597656e+01 -1.223872852325439453e+01 4.247287810625784144e-14 -2.505841671315844899e-13 -6.243338907929024684e-14 -2.548187321685293355e-14
2.913000000000000000e+03 1.274940872192382812e+01 -1.288391399383544922e+01 1.027748171939998900e-13 -1.847083954970712982e-13 -2.458007111922917015e-14 -4.197767554023866532e-14
2.914000000000000000e+03 1.037714767456054688e+01 -1.537983608245849609e+01 5.472831660514182461e-14 1.487669037437966413e-14 2.088150175504326772e-14 4.847333234944076891e-15
2.915000000000000000e+03 1.120859146118164062e+01 -1.723440551757812500e+01 -1.847682942789693333e-14 8.358325289488030552e-14 1.953192754831478001e-14 4.512948513697191688e-14
2.916000000000000000e+03 9.868120193481445312e+00 -2.132864379882812500e+01 1.412880907105187878e-13 -1.195923243248186996e-13 6.508732456808868222e-15 4.055385381348565466e-14
2.917000000000000000e+03 9.880622863769531250e+00 -2.510283088684082031e+01 -2.136924365486302796e-14 -1.464110950533115130e-13 -5.033410279829848843e-14 -3.592993483574231928e-14
2.918000000000000000e+03 1.040747928619384766e+01 -2.619120597839355469e+01 2.537237387962958113e-14 7.950029659109861258e-14 3.146180215765799482e-14 1.790656619022387014e-14
2.919000000000000000e+03 9.452139854431152344e+00 -2.880587959289550781e+01 2.423712441954484903e-14 3.326281443208692346e-14 1.724998182489612120e-14 -1.735360783566321230e-14
2.920000000000000000e+03 9.411437988281250000e+00 -3.015423011779785156e+01 -1.522187662917652562e-14 -7.515008445179924279e-14 -2.711158832429273052e-14 2.747588872457733256e-14
2.921000000000000000e+03 9.391085624694824219e+00 -3.165496063232421875e+01 4.127733853505344275e-14 6.344123631377845962e-14 3.141557109939685510e-14 -3.411510957152604114e-15
2.922000000000000000e+03 9.262718200683593750e+00 -3.327038192749023438e+01 7.283251442844319943e-16 -6.831428462196822982e-14 -2.027578680039582304e-14 2.290114509161979284e-14
2.923000000000000000e+03 1.063463783264160156e+01 -3.772531890869140625e+01 9.261071998254571946e-15 -1.890644284467841996e-14 -2.893611508037038579e-15 -1.316966572281101991e-14
2.924000000000000000e+03 8.453257560729980469e+00 -3.667533493041992188e+01 1.357840316557447705e-14 -5.618421631664030289e-15 2.387994248414897214e-15 2.400833404422788447e-14
2.925000000000000000e+03 1.723798942565917969e+01 -4.112743377685546875e+01 8.329042682875091586e-15 -7.649456968458062667e-14 -2.044965894754460778e-14 -1.726827096029323605e-14
2.926000000000000000e+03 8.974116325378417969e+00 -3.496420669555664062e+01 5.423021718644303879e-14 9.186794662670305645e-14 4.382944880513064967e-14 1.086153228176209989e-14
2.927000000000000000e+03 1.317614936828613281e+01 -3.379313278198242188e+01 -3.505129697164359286e-15 2.137327553169195843e-14 5.360443771534103424e-15 4.369825356599632560e-14
2.928000000000000000e+03 1.107882022857666016e+01 -3.186013412475585938e+01 -4.801083965474571211e-15 -3.637081887291997162e-14 -1.235157080916671549e-14 3.318109057575346042e-15
2.929000000000000000e+03 1.160301017761230469e+01 -2.853367233276367188e+01 -2.634779330476511028e-14 6.305338331536250451e-14 1.101167649495944992e-14 4.894510005490826030e-15
2.930000000000000000e+03 1.203131389617919922e+01 -2.679286384582519531e+01 -4.519588913190486501e-14 -4.224514143992726123e-14 -2.623230883273645897e-14 -3.127763008987059778e-14
2.931000000000000000e+03 1.437764739990234375e+01 -2.632195281982421875e+01 -1.517892358842126005e-14 -1.437580929948209518e-13 -4.768110751607150533e-14 -5.878822683649462255e-14
2.932000000000000000e+03 1.144876861572265625e+01 -2.351292228698730469e+01 4.064656326362853234e-14 -1.655838416684748959e-13 -3.748118081094847787e-14 3.677434198086013128e-14
2.933000000000000000e+03 1.061446952819824219e+01 -2.182108306884765625e+01 4.321529232013086863e-14 8.714726260506538980e-14 3.910876817162477204e-14 -2.760488676024647897e-14
2.934000000000000000e+03 1.096291255950927734e+01 -2.077974891662597656e+01 4.947794222400457576e-14 2.120483286573507375e-14 2.120483286573507375e-14 -5.146757179512809199e-14
2.935000000000000000e+03 1.312978935241699219e+01 -2.016778564453125000e+01 4.206770836626821941e-14 -9.634835789439077924e-14 -1.628419485843676795e-14 -4.465564135375070520e-14
2.936000000000000000e+03 1.299195671081542969e+01 -1.692051696777343750e+01 5.590663091433085985e-14 6.971093353177332252e-14 3.768526831739171801e-14 -6.932337191269122290e-14
2.937000000000000000e+03 1.450418376922607422e+01 -1.588944911956787109e+01 -9.439225388731958821e-14 -3.149595113795949919e-13 -1.228055336458325209e-13 3.606651720442118070e-14
2.938000000000000000e+03 1.342690563201904297e+01 -1.282737731933593750e+01 3.644360272001163914e-14 -1.673851080527880009e-13 -3.928245058339337181e-14 -8.164992390969488811e-14
2.939000000000000000e+03 1.293982505798339844e+01 -1.096651935577392578e+01 7.899306446316253089e-15 -1.338674315712676255e-13 -3.779043592812281194e-14 -2.518974510587208143e-14
2.940000000000000000e+03 1.221605682373046875e+01 -9.336528778076171875e+00 -5.885859155748893179e-14 -2.522511042548584298e-14 -2.522511042548584298e-14 -1.103598481588634328e-13
2.941000000000000000e+03 1.316192150115966797e+01 -5.836987972259521484e+00 -2.537869782761378173e-14 -3.768841792470278840e-13 -1.206788575319750478e-13 -1.150062440028951083e-13
2.942000000000000000e+03 1.266954898834228516e+01 -4.523091316223144531e+00 -1.241120108162047098e-13 -3.276965558716288252e-13 -1.355425645853391980e-13 -7.977122516147558406e-14
2.943000000000000000e+03 1.270578098297119141e+01 -3.122603416442871094e+00 -2.732806792275430108e-14 -1.171202874673772307e-14 -1.171202874673772307e-14 -1.144478934365922296e-13
2.944000000000000000e+03 1.345524978637695312e+01 -3.090360403060913086e+00 -3.997365657340719303e-14 -1.543844126974600051e-13 -5.830742383057876954e-14 -3.202410328562686759e-14
2.945000000000000000e+03 1.599357318878173828e+01 -2.839954853057861328e+00 -1.496235047752231262e-13 -1.270319163445068900e-13 -8.299662498066628924e-14 1.530567122695614124e-13
2.946000000000000000e+03 1.038807487487792969e+01 -1.836506247520446777e+00 -2.399730948690289613e-15 -4.677940367426962343e-14 -1.475374015395391342e-14 7.695469661625400221e-15
2.947000000000000000e+03 9.639736175537109375e+00 -1.826561689376831055e+00 -5.391924428645167300e-14 -1.603610907258135043e-13 -6.428410185893226880e-14 -3.481399264465730170e-14
2.948000000000000000e+03 9.211521148681640625e+00 -3.227004528045654297e+00 4.271198195474057435e-14 -2.744581397275212137e-14 4.579850394596535895e-15 1.010966941536245098e-14
2.949000000000000000e+03 9.643773078918457031e+00 -4.746678829193115234e+00 -2.258915236395993287e-14 -1.011829644593023603e-13 -3.713163403053915124e-14 -2.105291750664501499e-14
2.950000000000000000e+03 9.312057495117187500e+00 -7.058529853820800781e+00 5.654858447956068526e-15 -2.492067153764959686e-13 -7.306555669739714376e-14 -7.684476698629344460e-14
2.951000000000000000e+03 9.444003105163574219e+00 -8.593894004821777344e+00 -5.273462381697032950e-15 -9.376195295434514021e-14 -2.971062591371372019e-14 -1.322678945536726047e-13
2.952000000000000000e+03 9.995639801025390625e+00 -1.053163909912109375e+01 -8.784658317071390721e-15 1.334879879159520111e-13 3.741099904907077556e-14 -1.448807301343210674e-13
2.953000000000000000e+03 9.228442192077636719e+00 -1.127706527709960938e+01 -7.447673391631354223e-14 1.053342458287413741e-13 9.257255267794244069e-15 -1.918224863076568171e-14
2.954000000000000000e+03 9.726275444030761719e+00 -1.328249645233154297e+01 -6.519470971107568791e-14 -7.369154115047238385e-14 -4.166587254795899031e-14 -1.745924910721841083e-13
2.955000000000000000e+03 8.598800659179687500e+00 -1.727925491333007812e+01 -4.615068330477475195e-15 -7.060430934563780014e-14 -2.256581321813128788e-14 3.395293283179647015e-14
2.956000000000000000e+03 7.880290985107421875e+00 -1.981853866577148438e+01 -8.123145914056516259e-15 4.226960036331217641e-14 1.024393599596351914e-14 2.688935398398751425e-14
2.957000000000000000e+03 8.333313941955566406e+00 -2.051075935363769531e+01 1.332839800306058128e-14 5.146311978995732339e-14 1.943745457557571887e-14 -7.573305995994469852e-14
2.958000000000000000e+03 8.329189300537109375e+00 -2.252865028381347656e+01 5.496258220142984097e-14 3.499312994860621917e-14 2.698671364501081804e-14 1.172790066186161096e-15
2.959000000000000000e+03 8.028422355651855469e+00 -2.517918014526367188e+01 -2.107813537155067002e-14 2.654722145237209396e-13 7.331822323743131253e-14 -1.341066472280993960e-13
2.960000000000000000e+03 8.147834777832031250e+00 -2.844466590881347656e+01 8.397708255777208697e-14 8.174112564119165314e-14 4.971546381494183764e-14 -4.599335032295405468e-14
2.961000000000000000e+03 8.014681816101074219e+00 -2.986397743225097656e+01 -1.266649596488996984e-14 -2.830397185073565969e-14 -1.229114009057780468e-14 -6.435412776674767632e-14
2.962000000000000000e+03 7.534638881683349609e+00 -3.270493698120117188e+01 1.124904223183441701e-14 5.057196659054644106e-14 1.854630307023073105e-14 1.283119813335177953e-14
2.963000000000000000e+03 7.128844738006591797e+00 -3.417140960693359375e+01 -6.896667193904233370e-15 -7.158213773247532052e-14 -2.354364160496880826e-14 2.460606656038040463e-14
2.964000000000000000e+03 6.578613758087158203e+00 -3.562215423583984375e+01 3.829871668284759445e-14 8.504015634042128013e-14 3.700166190698066238e-14 -5.109192200038322959e-15
2.965000000000000000e+03 7.117185115814208984e+00 -4.135755157470703125e+01 4.513471810652005395e-15 -1.124430274368135030e-13 -3.237886778899128071e-14 4.112596358298373223e-14
2.966000000000000000e+03 8.156682968139648438e+00 -1.840046763420104980e+00 -7.374573770656950300e-14 -1.917336325514898410e-13 -7.964381107741780319e-14 5.714856078599048206e-14
2.967000000000000000e+03 7.739235877990722656e+00 -2.573800086975097656e+00 -1.211438853962812368e-13 -1.205452296142162094e-13 -7.250673856890738067e-14 3.516302104090290870e-14
2.968000000000000000e+03 7.183215618133544922e+00 -4.640615463256835938e+00 5.432873982370292273e-15 -3.808358251151944263e-13 -1.126208840269461720e-13 3.039042067586213147e-14
2.969000000000000000e+03 7.461276531219482422e+00 -9.108417510986328125e+00 4.114002432990815361e-14 -7.387046161398680422e-14 -9.819130338190647928e-15 1.491722191734531910e-13
2.970000000000000000e+03 6.836290836334228516e+00 -1.093821048736572266e+01 1.586517240281457020e-13 1.366200175993009802e-13 8.858151977772857344e-14 -8.050928223786793514e-14
2.971000000000000000e+03 7.150238990783691406e+00 -1.163119983673095703e+01 1.449073879552370547e-13 -2.939873144187574172e-14 3.465259898688746731e-14 -2.668515128106344753e-14
2.972000000000000000e+03 7.050171852111816406e+00 -1.409690761566162109e+01 1.174279315278858871e-13 1.189526857006337202e-13 7.091418787906131338e-14 -1.192342360641692606e-14
2.973000000000000000e+03 6.134700775146484375e+00 -1.914962196350097656e+01 4.576837498403152349e-14 1.339923858716465799e-13 5.392822961195614662e-14 4.222830242493584574e-14
2.974000000000000000e+03 5.564830303192138672e+00 -2.077376365661621094e+01 1.015269953611591669e-13 -2.511485384080764521e-14 2.292364228669886705e-14 -6.124160016997629019e-14
2.975000000000000000e+03 6.964815139770507812e+00 -2.224705123901367188e+01 3.830112903268137470e-14 -1.208380726210045442e-13 -2.476108375412330864e-14 3.417475382002342632e-14
2.976000000000000000e+03 7.088494777679443359e+00 -2.478680229187011719e+01 2.850168289315196946e-14 -1.066046783590761035e-14 5.352364347766718281e-15 -2.817810614290545967e-14
2.977000000000000000e+03 6.373383522033691406e+00 -2.712394332885742188e+01 -3.573951844106776354e-14 1.899627577093242203e-14 -5.022972716337307728e-15 -6.959408364263369728e-14
2.978000000000000000e+03 6.418656826019287109e+00 -3.080303764343261719e+01 5.521362243820528148e-14 1.494780861588385079e-13 6.140751698368446254e-14 -2.228616190246349160e-14
2.979000000000000000e+03 5.941367149353027344e+00 -3.203982925415039062e+01 2.017032442219908461e-14 5.439537505863047129e-14 2.236970984424886677e-14 7.804888530718763484e-15
2.980000000000000000e+03 5.447143554687500000e+00 -3.335683059692382812e+01 7.211713729448829269e-14 9.953377098220750341e-14 5.149527316063509663e-14 1.350720348185241188e-15
2.981000000000000000e+03 5.859181880950927734e+00 -3.698923110961914062e+01 -2.200744232303767506e-14 1.278210800008047765e-13 3.174409113392354098e-14 -3.851633723468911655e-15
2.982000000000000000e+03 5.128255844116210938e+00 -3.815647506713867188e+01 2.779432059670221972e-14 -1.253409946362984972e-13 -2.926400238128547271e-14 9.966448002443010351e-16
2.983000000000000000e+03 6.223188400268554688e+00 -3.943032073974609375e+01 1.668668289211538286e-14 -1.572403841789034307e-14 2.887933952070711411e-16 -3.456046255453340717e-15
2.984000000000000000e+03 5.856838226318359375e+00 -2.497807741165161133e+00 -1.814558431897234092e-13 1.681445645695597846e-13 -3.993384687191918817e-15 1.900250112428156224e-13
2.985000000000000000e+03 4.529582500457763672e+00 -3.070530176162719727e+00 -4.319095875762214709e-14 -1.851041089612377732e-14 -1.851041089612377732e-14 -4.147263045137239423e-14
2.986000000000000000e+03 4.232573032379150391e+00 -4.372925758361816406e+00 -1.599009011137020320e-13 -3.430346555855640078e-13 -1.508806642992743807e-13 -2.406702156901134593e-14
2.987000000000000000e+03 3.795596599578857422e+00 -6.602520465850830078e+00 -8.061730943182895959e-14 3.407614902056765871e-14 -1.396234880100474807e-14 1.376040259385216680e-14
2.988000000000000000e+03 4.327615261077880859e+00 -8.520415306091308594e+00 8.206770088807144314e-14 1.953001969130438442e-13 8.321036866270822840e-14 -4.083075904833845249e-14
2.989000000000000000e+03 4.376381874084472656e+00 -1.090779209136962891e+01 -5.342155821983114727e-14 2.058597839719664147e-13 4.573146806445375911e-14 -2.691247290124987313e-14
2.990000000000000000e+03 4.278446674346923828e+00 -1.258025169372558594e+01 -8.799956748538340090e-14 5.378779832556496165e-14 -1.026353040913235287e-14 -2.151688657976713603e-14
2.991000000000000000e+03 4.199526786804199219e+00 -1.404405021667480469e+01 -4.750509068150027270e-14 1.626444747111766009e-13 3.454181385365018286e-14 -5.749112801491443325e-14
2.992000000000000000e+03 4.208539009094238281e+00 -1.474806880950927734e+01 1.208874173723797907e-13 3.263145775724701769e-13 1.341605998387077059e-13 8.240315981650203625e-14
2.993000000000000000e+03 4.875532150268554688e+00 -1.613817787170410156e+01 4.168437852379060227e-14 1.093666308774401963e-13 4.531530383680877627e-14 -2.948352960429126424e-14
2.994000000000000000e+03 2.705142259597778320e+00 -1.857763290405273438e+01 7.296884586361143676e-14 8.396888327884266534e-15 2.440972093507506879e-14 -7.571685113746604023e-14
2.995000000000000000e+03 2.186617612838745117e+00 -2.107394599914550781e+01 7.504545216589081358e-14 3.216233567448698039e-14 3.216233567448698039e-14 4.605078254490968526e-14
2.996000000000000000e+03 1.912108540534973145e+00 -2.322621726989746094e+01 4.626471596233180938e-14 1.982773517041850481e-14 1.982773517041850481e-14 -3.034641562018637606e-14
2.997000000000000000e+03 2.375351905822753906e+00 -2.397854614257812500e+01 -2.193623226316200603e-14 1.736025467260690625e-13 4.549989603293801144e-14 -9.313654109554224403e-15
2.998000000000000000e+03 2.545100927352905273e+00 -2.624757194519042969e+01 2.218671303467578508e-15 4.670180868003755148e-14 1.467614346565594696e-14 -7.359312269826501218e-14
2.999000000000000000e+03 3.352383852005004883e+00 -2.802750587463378906e+01 -1.720005939705084724e-14 8.413044295507016157e-14 2.007911591443874155e-14 3.143427697500401907e-14
3.000000000000000000e+03 2.306302309036254883e+00 -3.019091415405273438e+01 1.055907003001156641e-13 2.282569478481016878e-13 1.001542937668388478e-13 3.828283650915247083e-14
3.001000000000000000e+03 2.607980012893676758e+00 -3.184028053283691406e+01 5.698524605749627492e-14 1.546772688332590222e-15 1.755960455436956363e-14 -1.462502502728914994e-14
3.002000000000000000e+03 2.674016952514648438e+00 -3.350976562500000000e+01 1.013334568030410318e-14 5.009380971555781048e-14 1.806814788930799498e-14 -8.193333435758259897e-14
3.003000000000000000e+03 2.891938686370849609e+00 -3.526945495605468750e+01 5.160842659799290411e-14 9.074432015272054786e-14 4.270582233114814108e-14 3.576930350762501376e-14
3.004000000000000000e+03 2.590034246444702148e+00 -3.747668457031250000e+01 2.729657693184128070e-14 -5.692789176257179173e-14 -8.889393940999384958e-15 -1.635037354260574644e-14
3.005000000000000000e+03 3.034418821334838867e+00 -3.916711807250976562e+01 5.238999363930334045e-16 -1.827792610190406841e-13 -5.467661032590963310e-14 -9.176538787744950576e-14
3.006000000000000000e+03 4.631266593933105469e+00 -3.994641113281250000e+01 -1.488102379493781713e-14 -1.665059014060651932e-13 -5.441607654386136639e-14 7.564773324897008933e-15
3.007000000000000000e+03 3.247942209243774414e+00 -4.203595733642578125e+01 3.750995282610081194e-14 -1.211771568504493857e-13 -2.510016120730457212e-14 -1.125383897941471811e-13
3.008000000000000000e+03 4.228510856628417969e+00 -3.884703445434570312e+01 1.548227658001912616e-14 5.238620951961148187e-14 2.036054599929577186e-14 3.484574960391575993e-14
3.009000000000000000e+03 3.494159460067749023e+00 -3.696259307861328125e+01 7.614916320121747906e-14 -1.311559368055714714e-14 1.891006983975856287e-14 1.059162320024044368e-13
3.010000000000000000e+03 4.223649501800537109e+00 -3.595008087158203125e+01 3.212368725516966117e-14 1.281446736917102314e-13 4.808050726762443106e-14 -5.942694388883298928e-14
3.011000000000000000e+03 4.901097297668457031e+00 -3.467288589477539062e+01 1.838361345205159758e-14 7.878691358445977927e-15 7.878691358445977927e-15 -4.081087410286871053e-14
3.012000000000000000e+03 4.703546524047851562e+00 -3.124614906311035156e+01 -3.836938633570291524e-14 -1.644402319932007639e-14 -1.644402319932007639e-14 -3.682183003601499638e-14
3.013000000000000000e+03 4.329734325408935547e+00 -2.902702140808105469e+01 1.769402868309882110e-14 2.363378861103965223e-13 7.620958036727923379e-14 -1.186684519367212781e-14
3.014000000000000000e+03 4.393752574920654297e+00 -2.821325111389160156e+01 3.284233372454273270e-14 1.513281280883863045e-13 5.525113922150506895e-14 -4.857317551106542231e-14
3.015000000000000000e+03 4.922882080078125000e+00 -2.608529663085937500e+01 4.211911648990297741e-14 6.380199781040943319e-14 3.177633598415961769e-14 -1.491380939100742098e-13
3.016000000000000000e+03 3.673724889755249023e+00 -2.388714981079101562e+01 8.052038175760875549e-14 3.450873552299400793e-14 3.450873552299400793e-14 -4.175937482094049802e-14
3.017000000000000000e+03 4.125825881958007812e+00 -2.130089378356933594e+01 6.743875748636829481e-14 2.890232608907146450e-14 2.890232608907146450e-14 -7.841043623852544941e-14
3.018000000000000000e+03 4.669949054718017578e+00 -2.030262374877929688e+01 6.709797919102894470e-14 2.875627728017408902e-14 2.875627728017408902e-14 -4.857509658178979506e-14
3.019000000000000000e+03 5.141578197479248047e+00 -1.875563049316406250e+01 1.109691020171645059e-13 2.763129352059690014e-13 1.161846091340609788e-13 1.470743455679341533e-14
3.020000000000000000e+03 6.367199897766113281e+00 -1.768963432312011719e+01 6.233790474921216407e-14 1.182181387287747909e-13 5.416681168814337088e-14 7.571031204311323703e-15
3.021000000000000000e+03 6.265807628631591797e+00 -1.664531326293945312e+01 1.265971241682858905e-13 1.457578090342803723e-13 8.170647860551716324e-14 -2.048390110147031012e-14
3.022000000000000000e+03 6.096188068389892578e+00 -1.205894947052001953e+01 -5.819043841616758361e-14 -2.079425498978382247e-13 -7.983989581657538470e-14 6.091017989463820559e-14
3.023000000000000000e+03 5.591638565063476562e+00 -9.528794288635253906e+00 -1.023430353728734324e-14 -9.588802598074416816e-14 -3.183669894011274815e-14 -2.616510185056951376e-14
3.024000000000000000e+03 5.996250629425048828e+00 -7.616529941558837891e+00 7.579239800603165128e-15 2.612371920889845767e-14 1.011088744874060266e-14 -8.549779807742741156e-14
3.025000000000000000e+03 5.068646430969238281e+00 -6.321835994720458984e+00 -1.382258971996050412e-13 -5.923966829232685249e-14 -5.923966829232685249e-14 -1.757922149861479433e-13
3.026000000000000000e+03 6.593700885772705078e+00 -4.370396137237548828e+00 -4.144338070963780873e-14 -4.063692402868877840e-14 -2.462409142149797614e-14 1.515928428250622184e-14
3.027000000000000000e+03 6.379433155059814453e+00 -2.319585561752319336e+00 -2.153422432775789486e-13 -2.752933243779093209e-13 -1.471906635203829028e-13 -9.104580289557087647e-14
3.028000000000000000e+03 5.848632335662841797e+00 -3.464684963226318359e+00 -1.127343457842967800e-13 2.031170269142529988e-14 -2.772679343608121239e-14 1.075605194646687968e-13
3.029000000000000000e+03 4.183260440826416016e+00 -1.742988109588623047e+00 -1.460846688842304397e-13 -1.998605545384252169e-13 -1.037835656715439814e-13 -8.370817331394136973e-14
3.030000000000000000e+03 3.371568441390991211e+00 -1.852604269981384277e+00 -3.341004231084687692e-14 -1.058204901743103887e-13 -4.176915974554717970e-14 1.617994204328870866e-13
3.031000000000000000e+03 1.829607605934143066e+00 -1.888969898223876953e+00 4.083330014718021539e-14 -2.570057068638359477e-13 -6.485172235380989858e-14 -7.750776677916369761e-15
3.032000000000000000e+03 3.577934205532073975e-01 -2.689805269241333008e+00 2.979984897624569917e-14 1.277136372595773575e-14 1.277136372595773575e-14 -1.188182243024547835e-14
3.033000000000000000e+03 1.076379060745239258e+00 -2.661478281021118164e+00 4.227047788944553186e-14 -2.763502927470747050e-14 4.390634669124713133e-15 7.511045686239489760e-14
3.034000000000000000e+03 3.602595031261444092e-01 -3.482484102249145508e+00 4.304712578691478886e-14 6.419971704859500639e-14 3.217405183421340187e-14 1.877515782005168693e-14
3.035000000000000000e+03 1.117810964584350586e+00 -4.174250602722167969e+00 -3.284793091825818911e-14 7.742421206111474441e-14 1.337288502048332439e-14 1.414397892291743494e-14
3.036000000000000000e+03 2.433877229690551758e+00 -6.328177928924560547e+00 -4.004413649088232885e-14 -1.086636680701184854e-13 -4.461234102948706537e-14 -2.989812851504972113e-14
3.037000000000000000e+03 1.664384007453918457e+00 -5.499011993408203125e+00 -2.348107297522102760e-14 1.522095844546170196e-13 3.861855293559902924e-14 -1.086944949872008584e-14
3.038000000000000000e+03 1.901626348495483398e+00 -4.660336017608642578e+00 4.933922194416684448e-14 3.414020097441267110e-13 1.172223667959826354e-13 -9.238338480983213780e-15
3.039000000000000000e+03 1.770362257957458496e+00 -3.382723569869995117e+00 -4.969801493622839905e-14 -1.585519909808041916e-13 -6.247500211392295610e-14 8.594088440026792508e-14
3.040000000000000000e+03 2.535596847534179688e+00 -2.690360307693481445e+00 1.151550355044756932e-14 -2.466949984136074248e-13 -7.055384651077217795e-14 1.210353669232108048e-14
3.041000000000000000e+03 2.593774318695068359e+00 -1.909387826919555664e+00 2.189103797322830558e-14 5.513282227130079927e-14 2.310715875098508926e-14 -3.900501679998148730e-14
3.042000000000000000e+03 4.507305324077606201e-01 -5.093052387237548828e+00 2.727769656744698235e-14 1.031923366743604797e-13 3.914100963372905972e-14 -1.694820939677783161e-14
3.043000000000000000e+03 1.270700454711914062e+00 -6.086483478546142578e+00 -3.654738119670923602e-14 2.130915750927706021e-13 5.296325918525794652e-14 -8.135458046164625867e-14
3.044000000000000000e+03 2.960293769836425781e+00 -8.825516700744628906e+00 -1.205431560775613309e-13 3.984054365168028522e-14 -2.421078508301702931e-14 -4.828413907034204838e-16
3.045000000000000000e+03 2.536151647567749023e+00 -6.881284236907958984e+00 1.624945973133576360e-14 1.899678466832713242e-13 6.186519260200848414e-14 1.131538303810949997e-13
3.046000000000000000e+03 3.909366428852081299e-01 -7.544925689697265625e+00 1.448600760829352185e-13 6.208288684571641736e-14 6.208288684571641736e-14 -5.256821657118569691e-14
3.047000000000000000e+03 1.161320447921752930e+00 -7.571154117584228516e+00 -2.336344550983582291e-14 8.148899442598014908e-14 1.743766399721694005e-14 -7.263209944510101712e-14
3.048000000000000000e+03 3.411260128021240234e+00 -1.019135284423828125e+01 -4.400850818204841974e-14 4.976563188234181534e-14 1.727137131263842360e-15 -4.307873028024274131e-14
3.049000000000000000e+03 4.274787008762359619e-01 -9.143820762634277344e+00 2.021569150685402494e-14 8.663867183628191221e-15 8.663867183628191221e-15 -7.028189472459492326e-14
3.050000000000000000e+03 1.219587206840515137e+00 -1.080583095550537109e+01 -7.751271006344387371e-14 1.040331151303322543e-13 7.956119487187440775e-15 -6.256358566657975809e-15
3.051000000000000000e+03 1.976021885871887207e+00 -1.164657974243164062e+01 -1.536650310034887168e-13 -6.585644573078863750e-14 -6.585644573078863750e-14 -5.403741215885722593e-14
3.052000000000000000e+03 2.751376152038574219e+00 -1.095046710968017578e+01 -1.008783849639968699e-13 -8.898454483029574758e-14 -5.695887961591414306e-14 2.541222847386379047e-14
3.053000000000000000e+03 4.114479124546051025e-01 -1.075867366790771484e+01 4.034725231325496375e-14 1.729167956282355589e-14 1.729167956282355589e-14 2.095799052424622555e-14
3.054000000000000000e+03 1.194571852684020996e+00 -1.159932613372802734e+01 2.822462519236866585e-14 -5.653015558372727345e-14 -8.491658609187813928e-15 -8.723765796119636873e-14
3.055000000000000000e+03 1.957294225692749023e+00 -1.320044994354248047e+01 -9.423539693801524786e-14 1.883681470353504306e-13 2.823982435157419701e-14 -8.248271315090816014e-14
3.056000000000000000e+03 1.968637228012084961e+00 -1.241831493377685547e+01 5.954560981661152774e-14 2.542743034357475285e-13 9.414597058757592785e-14 -1.032736518372968926e-13
3.057000000000000000e+03 3.959421813488006592e-01 -1.236404037475585938e+01 -3.489372555004824350e-14 -6.070540120931000594e-14 -2.867973938306019044e-14 4.490276829830983085e-14
3.058000000000000000e+03 1.178025364875793457e+00 -1.318092823028564453e+01 4.009059116584154370e-14 2.001854763769919665e-13 7.208282229572912647e-14 -7.158479402779791001e-14
3.059000000000000000e+03 1.924058556556701660e+00 -1.476540088653564453e+01 -4.430501375930068209e-14 4.385216148539150538e-13 1.182649898151533208e-13 -8.587845468392349413e-14
3.060000000000000000e+03 1.941361665725708008e+00 -1.398411560058593750e+01 1.197187829557119776e-13 5.130805177423758412e-14 5.130805177423758412e-14 -2.031785384468826061e-14
3.061000000000000000e+03 3.895945250988006592e-01 -1.396473884582519531e+01 -1.098411065472400597e-14 2.240472618628835955e-13 6.391894934350272894e-14 -5.210706557667909092e-15
3.062000000000000000e+03 1.157823324203491211e+00 -1.476650810241699219e+01 1.447893725487620076e-13 3.823092287625479146e-13 1.581295858144038391e-13 -1.349197022957075373e-14
3.063000000000000000e+03 2.649377584457397461e+00 -1.628714370727539062e+01 4.890370131961120637e-14 2.954644179060245124e-13 1.033104401722620413e-13 -4.791553913081718352e-14
3.064000000000000000e+03 1.908710479736328125e+00 -1.554526996612548828e+01 4.162017681452051532e-14 2.465919721021669897e-13 8.646363925399538908e-14 -1.194419853205132607e-17
3.065000000000000000e+03 3.802725076675415039e-01 -1.636737632751464844e+01 -5.354131173791396026e-14 4.116877466101703797e-13 1.074439270735451368e-13 -2.284362816636943683e-14
3.066000000000000000e+03 1.139836788177490234e+00 -1.635162925720214844e+01 1.216190912084816333e-13 3.723791023799161160e-13 1.481994594317720404e-13 -1.915962607481041385e-14
3.067000000000000000e+03 2.644521951675415039e+00 -1.705163955688476562e+01 -2.458212263302742007e-14 -1.477880453648952597e-13 -5.171104972175044612e-14 -1.656301913113486513e-13
3.068000000000000000e+03 3.830119967460632324e-01 -1.796976852416992188e+01 -8.777334192583072237e-14 2.826394988279107290e-13 5.845984910350307540e-14 1.338652563906590764e-14
3.069000000000000000e+03 3.901725411415100098e-01 -1.877332496643066406e+01 1.111648953769882320e-13 2.763968524541193794e-13 1.162685263822113568e-13 4.453677552619661473e-14
3.070000000000000000e+03 1.146997928619384766e+00 -1.793974876403808594e+01 2.438160452342390955e-14 1.934530552243074464e-13 6.535039436678102831e-14 -1.332190126035514080e-14
3.071000000000000000e+03 1.308785080909729004e+00 -2.117791748046875000e+01 3.769413505828357602e-14 1.762829519944691947e-13 6.419312374413357891e-14 6.284462696331399867e-14
3.072000000000000000e+03 1.269294381141662598e+00 -2.283862495422363281e+01 -8.329577668884577402e-14 5.580370624684409531e-14 -8.247620793787324711e-15 8.224752937090532012e-14
3.073000000000000000e+03 1.481055498123168945e+00 -2.434462547302246094e+01 -6.915312506655668656e-15 -2.583918051312500408e-14 -9.826347905934201821e-15 -6.913312661867201253e-15
3.074000000000000000e+03 4.761847257614135742e-01 -2.685365104675292969e+01 -2.213932154127690698e-15 1.363040133236029239e-13 4.022702445672168836e-14 2.146183621445918455e-14
3.075000000000000000e+03 4.613402485847473145e-01 -2.766245841979980469e+01 -6.651235416382447752e-14 -1.428826675031746873e-13 -6.281850446722067605e-14 -1.978663374368593714e-14
3.076000000000000000e+03 1.395721316337585449e+00 -3.014582824707031250e+01 -2.267082836293187603e-14 8.178582865201594609e-14 1.773449991731863157e-14 -6.577120711124054275e-14
3.077000000000000000e+03 1.534473419189453125e+00 -3.178730010986328125e+01 1.186633527983788072e-14 -8.641632738169355288e-14 -2.236499695293034384e-14 -2.071780416765690164e-14
3.078000000000000000e+03 1.615865826606750488e+00 -3.342536163330078125e+01 3.639485089169947063e-14 1.070996928837809892e-13 4.304836245501778014e-14 1.132580882784407425e-14
3.079000000000000000e+03 1.018914937973022461e+00 -3.542306518554687500e+01 1.326833201685875818e-13 1.483661826208459988e-13 8.431485219208278981e-14 1.184868988948067914e-13
3.080000000000000000e+03 2.470640420913696289e+00 -3.668780899047851562e+01 1.580788858103129857e-13 1.592499867869232033e-13 9.519866313442357231e-14 -6.709414382584377723e-14
3.081000000000000000e+03 1.570700883865356445e+00 -3.775521087646484375e+01 1.766665257824356211e-14 -8.393047541688236635e-14 -1.987914668218505182e-14 -1.557017657708749392e-14
3.082000000000000000e+03 1.810255169868469238e+00 -4.027708816528320312e+01 6.052271314324619844e-14 -1.799409688092723503e-13 -3.582547534455512994e-14 -7.300352678060381684e-14
3.083000000000000000e+03 1.463849663734436035e+00 -4.205172729492187500e+01 -3.709859296933265549e-14 -1.589939795489450636e-14 -1.589939795489450636e-14 1.381917041735902796e-13
3.084000000000000000e+03 4.288930296897888184e-01 -4.207195663452148438e+01 3.746131958240125903e-14 -5.257157082165682394e-14 -4.533075964699732549e-15 -4.240878481720500304e-14
3.085000000000000000e+03 1.115788078308105469e+01 -3.366622161865234375e+01 5.343666928761016399e-14 6.865237951693067830e-14 3.662671430254907379e-14 -5.061671025895220222e-14
3.086000000000000000e+03 1.228618049621582031e+01 -3.001462364196777344e+01 -1.411145285774286981e-14 3.970318201268994984e-14 7.677519339407187088e-15 -7.915317063085253874e-15
3.087000000000000000e+03 1.258920860290527344e+01 -2.803919601440429688e+01 5.378065275562192438e-14 -6.845304894751921831e-14 -4.401718518756009280e-15 5.843202153008692987e-15
3.088000000000000000e+03 1.349381160736083984e+01 -2.756791687011718750e+01 -1.032775414125906843e-14 8.707571881420850257e-14 2.302438838544529354e-14 -2.353727361127135043e-14
3.089000000000000000e+03 1.270065212249755859e+01 -2.374382781982421875e+01 5.975114066719688921e-14 7.135858202077238754e-14 3.933291680639078303e-14 -7.403344430556568767e-14
3.090000000000000000e+03 1.279289817810058594e+01 -2.241847991943359375e+01 3.016518783892363498e-14 -1.014494342482449851e-13 -2.138527460042276285e-14 -5.294303203847751382e-14
3.091000000000000000e+03 1.290931797027587891e+01 -2.123118782043457031e+01 7.789244509809334360e-14 7.913342290472025198e-14 4.710776107847043648e-14 -6.238626694236859560e-14
3.092000000000000000e+03 1.408355903625488281e+01 -1.839015960693359375e+01 -3.796405735351920940e-14 -3.822778953197630836e-13 -1.260725871572374035e-13 -3.948324651980358174e-15
3.093000000000000000e+03 1.444183349609375000e+01 -1.757906150817871094e+01 4.606315600220317608e-14 6.549230287863222477e-14 3.346663766425062025e-14 -4.251168576776924446e-14
3.094000000000000000e+03 1.495438003540039062e+01 -1.545916748046875000e+01 4.029807358033737907e-14 -1.657331905177347742e-13 -3.763053643647193414e-14 -9.297266732530284905e-14
3.095000000000000000e+03 1.424010276794433594e+01 -1.278728771209716797e+01 1.421515256037637204e-14 -1.997870591836578558e-13 -5.567157249520421347e-14 -5.101180708313307610e-14
3.096000000000000000e+03 1.563989925384521484e+01 -1.151802635192871094e+01 3.132224500926837629e-14 -1.467045072662404026e-13 -3.461467562777299778e-14 -1.308195630815578436e-13
3.097000000000000000e+03 1.590323543548583984e+01 -9.977013587951660156e+00 -5.174768559078508912e-14 -1.136794786993702844e-13 -4.962814827060707534e-14 3.367220578428566091e-14
3.098000000000000000e+03 1.467575645446777344e+01 -7.812720298767089844e+00 -9.077519280958207260e-14 -1.602817915012915567e-14 -3.204101006325406342e-14 -4.052571199084607778e-14
3.099000000000000000e+03 1.431672573089599609e+01 -6.205261230468750000e+00 2.832403975532200857e-14 -2.852422887732880552e-13 -7.707547843233478191e-14 8.255394015144277425e-15
3.100000000000000000e+03 1.402833366394042969e+01 -4.639461994171142578e+00 -2.018421915066584416e-13 -4.067604272069841320e-13 -1.825807842588400565e-13 9.535481874044758610e-16
3.101000000000000000e+03 1.546572113037109375e+01 -3.388343095779418945e+00 -3.630984944137660708e-14 -2.900670697560114863e-13 -9.791307169345828121e-14 -3.344396089818672813e-14
3.102000000000000000e+03 1.877813911437988281e+01 -3.160391044616699219e+01 6.248667761606790938e-14 -7.615963252844554221e-14 -4.101885796086932046e-15 -6.767055271106564400e-16
3.103000000000000000e+03 1.923456192016601562e+01 -2.816979789733886719e+01 6.487671999014926749e-14 -1.037296672710442957e-13 -1.165588570892781353e-14 4.527517141576786752e-14
3.104000000000000000e+03 1.857704925537109375e+01 -2.624951362609863281e+01 -1.161647072479322917e-14 4.077246285277662252e-14 8.746797638395018004e-15 4.382619958674498217e-14
3.105000000000000000e+03 1.896500205993652344e+01 -2.422970199584960938e+01 -2.861082478247158056e-14 7.924011517475640365e-14 1.518878644005908912e-14 5.179596646877858424e-14
3.106000000000000000e+03 1.803118896484375000e+01 -2.218949317932128906e+01 -9.808007948560251710e-15 -2.707890640505587060e-14 -1.106607464489801559e-14 1.525007774412241029e-14
3.107000000000000000e+03 1.755048751831054688e+01 -1.978357887268066406e+01 3.942789715186524949e-15 -4.406118346697227017e-14 -1.203551740555771840e-14 3.657124719703107318e-14
3.108000000000000000e+03 1.954669570922851562e+01 -1.923919677734375000e+01 -1.889364078871361846e-14 -5.384822226789029442e-14 -2.182255874757458441e-14 1.104931033821254793e-13
3.109000000000000000e+03 1.973431587219238281e+01 -1.580807590484619141e+01 1.099041105519227290e-13 -6.727561216446353853e-14 1.278855002445752551e-14 1.241987876475850183e-13
3.110000000000000000e+03 1.922770690917968750e+01 -1.403396797180175781e+01 8.003778981810830140e-14 -4.232075844282090493e-13 -1.029509322843930041e-13 1.103905581853990847e-13
3.111000000000000000e+03 2.041314125061035156e+01 -1.174540233612060547e+01 -2.342172307067281328e-14 -1.472907218283761588e-13 -5.121373634962671229e-14 1.629832472324968529e-13
3.112000000000000000e+03 2.100064277648925781e+01 -9.788228034973144531e+00 2.302203871604961011e-14 2.130432535571956387e-14 1.329790905212416274e-14 1.998259413840686172e-13
3.113000000000000000e+03 2.108271408081054688e+01 -8.754643440246582031e+00 -6.033850719414091124e-14 1.113934858525296445e-13 1.531649359751661998e-14 1.761419515019374549e-13
3.114000000000000000e+03 1.839182853698730469e+01 -3.505714416503906250e+01 6.950603964996429629e-14 -2.740038420765908422e-14 1.263169646328497417e-14 -1.775515566277037494e-14
3.115000000000000000e+03 2.044301795959472656e+01 -3.387212371826171875e+01 -5.176805758019950229e-15 -2.218631069402583929e-15 -2.218631069402583929e-15 -1.385912004868991923e-14
3.116000000000000000e+03 2.040905380249023438e+01 -3.033568763732910156e+01 2.115168154829486641e-14 -4.776625126792950760e-14 -7.984370577077213454e-15 1.216736316599553377e-14
3.117000000000000000e+03 2.073109245300292969e+01 -2.739512443542480469e+01 -1.767146203131807203e-14 -4.474612818943998760e-14 -1.872527774385377569e-14 1.619592322566279236e-15
3.118000000000000000e+03 1.979413223266601562e+01 -2.569692993164062500e+01 -9.337633612290993645e-15 -7.262826407991584965e-14 -2.458976964647523189e-14 6.112197201276967085e-14
3.119000000000000000e+03 2.088234710693359375e+01 -2.495260620117187500e+01 -2.440309205522985664e-14 -4.834597078142571780e-14 -2.182471868159008288e-14 2.484927343645963738e-14
3.120000000000000000e+03 1.924927139282226562e+01 -2.205499839782714844e+01 3.269947314765882240e-14 -7.748783439984890942e-14 -1.343650905328338391e-14 1.077618151505178867e-13
3.121000000000000000e+03 2.028913879394531250e+01 -2.159770774841308594e+01 -1.557030024389779305e-14 -1.210503594063772059e-13 -4.098619637042319463e-14 -3.723042178911152578e-14
3.122000000000000000e+03 2.143357276916503906e+01 -1.872060775756835938e+01 1.212594494894069300e-14 -1.549314875611690345e-13 -4.284166269896520773e-14 1.084202375773411775e-13
3.123000000000000000e+03 2.141308212280273438e+01 -1.504089736938476562e+01 3.104435721619676347e-14 -1.239481201053063697e-13 -2.787112954435923967e-14 1.414619018712953702e-13
3.124000000000000000e+03 2.096487617492675781e+01 -1.327221202850341797e+01 7.779216994966559051e-14 -2.411661907501805313e-13 -4.901220624015448224e-14 1.569978549291820014e-13
3.125000000000000000e+03 2.118113327026367188e+01 -1.136781883239746094e+01 -1.077642071715609329e-13 -9.193560761852972996e-14 -5.990994240414812544e-14 4.086582621235478052e-14
3.126000000000000000e+03 2.472052955627441406e+01 -3.914626693725585938e+01 2.224891955783861452e-14 -3.621569664709160807e-14 -4.190033126775898065e-15 -2.047559679045542896e-14
3.127000000000000000e+03 2.216536712646484375e+01 -3.248332214355468750e+01 3.285464619546402121e-14 -9.600766091421436554e-14 -1.894590441562510330e-14 3.192878158587465764e-14
3.128000000000000000e+03 2.195928001403808594e+01 -2.647185516357421875e+01 1.982075223080134035e-14 -7.085469228484617132e-14 -1.531018320205957545e-14 2.234598275733037931e-14
3.129000000000000000e+03 2.189528846740722656e+01 -2.414753532409667969e+01 -2.491633134082786583e-14 -1.021803288140353538e-13 -3.812899838527214480e-14 4.578124988482978885e-14
3.130000000000000000e+03 2.097145843505859375e+01 -2.285574913024902344e+01 -4.636746783509733405e-14 4.875465062594876164e-14 7.161556101729926477e-16 1.391581111681670230e-14
3.131000000000000000e+03 2.335533523559570312e+01 -1.845357894897460938e+01 -3.384692496438169995e-14 -9.456998172844427453e-14 -3.852507099140825564e-14 1.359021131307897035e-13
3.132000000000000000e+03 2.382096481323242188e+01 -1.727352714538574219e+01 -3.426024316132390835e-14 -1.061848566431648766e-13 -4.213352960253345658e-14 5.931305522687696508e-14
3.133000000000000000e+03 2.392085266113281250e+01 -1.552384090423583984e+01 -2.702686470077656639e-14 -2.403376976600757331e-13 -8.020936481190413248e-14 7.039156177434183204e-14
3.134000000000000000e+03 2.325657081604003906e+01 -1.294714355468750000e+01 -6.472190269618191549e-14 8.056311965199541847e-14 4.752364747930871991e-15 1.344446472553717520e-13
3.135000000000000000e+03 2.302185440063476562e+01 -1.102510643005371094e+01 1.328393470256036130e-14 5.144406493677589065e-14 1.941839972239428613e-14 1.633590317054803287e-13
3.136000000000000000e+03 2.232537841796875000e+01 -3.634932708740234375e+01 -1.198154023099393811e-14 -5.088589394145782985e-14 -1.886023042114211984e-14 3.763511380251889638e-14
3.137000000000000000e+03 2.199128150939941406e+01 -2.920924377441406250e+01 2.311626266110217848e-14 -8.159492775449556090e-14 -1.754359901979824637e-14 1.148730667066642092e-14
3.138000000000000000e+03 2.301032447814941406e+01 -2.547907447814941406e+01 -5.006635907180319311e-14 -4.433248473184603355e-14 -2.831965381872112580e-14 -3.323189434138035248e-14
3.139000000000000000e+03 2.393757438659667969e+01 -2.442733764648437500e+01 4.820222590214487401e-14 2.065809681520494601e-14 2.065809681520494601e-14 -2.410741657026590351e-14
3.140000000000000000e+03 2.365777969360351562e+01 -2.231068992614746094e+01 6.646035311712664151e-14 -1.726794231150970138e-14 1.475772290287190314e-14 -2.261738058396012968e-14
3.141000000000000000e+03 2.271120834350585938e+01 -2.135018348693847656e+01 -3.380419723439040403e-14 -6.023846243867481132e-14 -2.821279722429320680e-14 1.848089349197785947e-14
3.142000000000000000e+03 2.471992492675781250e+01 -1.866871452331542969e+01 -7.387586229605849764e-14 8.843515926070660838e-14 4.367787649438422889e-15 9.187539374037531625e-14
3.143000000000000000e+03 2.545974349975585938e+01 -1.685833358764648438e+01 -6.767227430553093837e-14 3.962402170157135195e-14 -8.414475272968107572e-15 9.807085699087281228e-14
3.144000000000000000e+03 2.575737762451171875e+01 -1.491882038116455078e+01 -1.914735188977834124e-13 2.153210877826883252e-13 7.154268971405579325e-15 4.197734350332334163e-14
3.145000000000000000e+03 2.376392745971679688e+01 -1.359565353393554688e+01 -1.039252336260381576e-14 -5.020488622812895041e-14 -1.817922270781324040e-14 1.246570528008403289e-13
3.146000000000000000e+03 2.444228363037109375e+01 -1.189374923706054688e+01 2.533295127219847148e-14 5.660792676081237429e-14 2.458226324049666428e-14 7.686842969870794073e-14
3.147000000000000000e+03 2.416920852661132812e+01 -9.374225616455078125e+00 2.053904870616060641e-13 4.227354753684638144e-14 7.429920936309619695e-14 1.237718965946960070e-13
3.148000000000000000e+03 2.803977012634277344e+01 -3.424371719360351562e+01 1.315791737583260276e-14 -5.154957813694946434e-14 -1.151749831303835320e-14 -2.308138353840014090e-14
3.149000000000000000e+03 2.913910293579101562e+01 -3.216015243530273438e+01 4.085125046939842852e-14 -3.968100669013083226e-14 3.510735308269729042e-16 4.458503607539937574e-14
3.150000000000000000e+03 2.774067878723144531e+01 -2.927368354797363281e+01 4.693431583592706791e-14 -5.994945479707164404e-14 -3.904541942453257017e-15 -1.399917017025483976e-14
3.151000000000000000e+03 2.841946411132812500e+01 -2.766244125366210938e+01 9.705345861287136000e-15 -1.871604000253102029e-14 -2.703208454131402101e-15 -3.438485526039217199e-14
3.152000000000000000e+03 2.944430351257324219e+01 -2.464814949035644531e+01 4.579653882952772898e-15 -8.953918878042144147e-14 -2.548786004572412695e-14 -2.633739174017282747e-14
3.153000000000000000e+03 2.991845512390136719e+01 -2.329836082458496094e+01 2.315922247812102208e-14 -1.730784162908352575e-13 -4.497575882144062842e-14 5.995640046723912930e-14
3.154000000000000000e+03 2.958300399780273438e+01 -2.046253395080566406e+01 5.850121565154813366e-15 -6.611922923234481164e-14 -1.808073141077240487e-14 2.670005059060565067e-14
3.155000000000000000e+03 2.893501472473144531e+01 -1.762878799438476562e+01 -8.626070371236041479e-14 8.782076560648159613e-15 -2.324358695966755040e-14 5.241364322270715415e-14
3.156000000000000000e+03 3.005426216125488281e+01 -1.610462188720703125e+01 -4.245451782009315722e-14 -6.394574268969027697e-14 -3.192007747530867245e-14 3.618690769128032891e-14
3.157000000000000000e+03 3.026425933837890625e+01 -1.167576408386230469e+01 1.258572375007274702e-13 9.968976734603743339e-14 6.766410213165582888e-14 -1.372286344888257181e-13
3.158000000000000000e+03 3.049100303649902344e+01 -1.045008468627929688e+01 5.596068855702462930e-14 2.527379076421726323e-13 9.260957479400103165e-14 -3.793078928748284950e-14
3.159000000000000000e+03 3.159642791748046875e+01 -8.758802413940429688e+00 -2.414174342748633129e-14 -1.475993128717198455e-13 -5.152231384044324292e-14 1.805393535407942562e-13
3.160000000000000000e+03 3.713821792602539062e+01 -4.122355270385742188e+01 -6.117679791434659994e-15 -2.621862798008888114e-15 -2.621862798008888114e-15 1.362572604930462755e-14
3.161000000000000000e+03 3.290612030029296875e+01 -3.871202087402343750e+01 1.495714156370987757e-14 -3.934074677895520178e-14 -7.315080717540650007e-15 1.484525020544347901e-14
3.162000000000000000e+03 3.063666534423828125e+01 -3.546479034423828125e+01 1.465358189607288142e-14 -5.090858087191708903e-14 -1.087649935394008338e-14 1.119540556451543295e-14
3.163000000000000000e+03 3.065110206604003906e+01 -2.671358108520507812e+01 2.151434548092537313e-14 -8.228146489890411641e-14 -1.823013616420680189e-14 -1.215706663348871050e-14
3.164000000000000000e+03 3.091229057312011719e+01 -2.517482948303222656e+01 1.225669041358002503e-14 -8.624902821021546151e-14 -2.219770116958404149e-14 6.541025587922938422e-14
3.165000000000000000e+03 3.118893241882324219e+01 -2.380683326721191406e+01 -2.041990268010756421e-14 -5.450233499107795532e-14 -2.247667147076224531e-14 -2.017955199912647296e-14
3.166000000000000000e+03 3.043500328063964844e+01 -2.015919303894042969e+01 -8.935533519702221206e-15 -2.097087829994528918e-13 -6.559329631099924951e-14 1.598870572072121077e-14
3.167000000000000000e+03 3.215968704223632812e+01 -1.896193504333496094e+01 -3.528851913643400035e-15 -7.013878681409041471e-14 -2.210029238064979695e-14 3.309918460733633772e-14
3.168000000000000000e+03 3.253272628784179688e+01 -1.698013877868652344e+01 -1.075488846201053117e-13 -1.833452281056052735e-13 -8.726823246246045995e-14 -7.496468588030422153e-15
3.169000000000000000e+03 3.181891632080078125e+01 -1.530376815795898438e+01 -1.067609339149878933e-13 -1.372565797998215320e-13 -7.320525614732190101e-14 1.148150025981299269e-14
3.170000000000000000e+03 3.170994186401367188e+01 -1.285897636413574219e+01 -1.186069200753009367e-13 8.642130793542340816e-14 -9.655681778490774608e-15 -2.232633159295407954e-14
3.171000000000000000e+03 3.264555740356445312e+01 -9.271848678588867188e+00 -1.500890069779797775e-13 -4.144838159215839812e-14 -5.746121758748098940e-14 2.773615823234605593e-14
3.172000000000000000e+03 3.178225517272949219e+01 -3.317686843872070312e+01 2.593890964293913337e-16 -2.848317691732035750e-14 -8.467136158331854678e-15 -6.545858334403497833e-15
3.173000000000000000e+03 3.241991806030273438e+01 -3.094609069824218750e+01 3.341883451283937656e-14 -6.574180490357545148e-14 -9.696889931374696320e-15 -1.006848667346694690e-14
3.174000000000000000e+03 3.244844055175781250e+01 -2.700786399841308594e+01 -1.305899155088982577e-14 -5.134765903485119520e-14 -1.932199551453548519e-14 2.707682948026920305e-14
3.175000000000000000e+03 3.244271087646484375e+01 -2.542922019958496094e+01 1.031102947571553227e-14 -1.845646167364725643e-14 -2.443629489972927796e-15 -3.125347228669843151e-15
3.176000000000000000e+03 3.370597457885742188e+01 -2.406733512878417969e+01 -3.919732716032610365e-14 -6.254980528756087788e-14 -3.052414007317927336e-14 -3.425440837486674710e-15
3.177000000000000000e+03 3.322363662719726562e+01 -2.077863121032714844e+01 -6.017116058881777363e-14 -2.912166188263117655e-15 -1.892499794842097266e-14 1.880540536659813800e-14
3.178000000000000000e+03 3.243930053710937500e+01 -2.055156326293945312e+01 3.431704857889857074e-14 -2.712361314282513147e-13 -7.107572045023449747e-14 5.763291455402122510e-14
3.179000000000000000e+03 3.401066207885742188e+01 -1.853749084472656250e+01 3.903075982531443999e-14 -1.662763215960413876e-13 -3.817367090291033660e-14 3.421506920018094200e-14
3.180000000000000000e+03 3.410322952270507812e+01 -1.670982742309570312e+01 -5.423106421939029309e-14 -1.604947321960994988e-13 -6.441773655295468526e-14 5.124008923868168808e-14
3.181000000000000000e+03 3.342549133300781250e+01 -1.592270565032958984e+01 -5.421821303551455085e-14 -1.147382698834381598e-13 -5.068694623093852880e-14 9.132923536631521594e-15
3.182000000000000000e+03 3.420061874389648438e+01 -1.365644168853759766e+01 -1.617905943495766968e-14 -1.441867323237130960e-13 -4.810973668056828245e-14 -3.905887793103149375e-14
3.183000000000000000e+03 3.587987136840820312e+01 -1.308651828765869141e+01 -1.029722978434545466e-13 -1.227654317179777133e-13 -6.772132090130875137e-14 2.191050109629031489e-14
3.184000000000000000e+03 3.426410675048828125e+01 -1.139416980743408203e+01 -8.987480356291432937e-14 -8.426871938964353159e-14 -5.224305756339371609e-14 1.686434737517561455e-13
3.185000000000000000e+03 3.334130859375000000e+01 -1.153276062011718750e+01 -8.458725121165619476e-14 -2.192554812837851919e-13 -9.115282042625877379e-14 2.447137646330570931e-14
3.186000000000000000e+03 3.324710464477539062e+01 -3.636048889160156250e+01 2.056098956999992400e-14 -5.981457327055086926e-14 -1.177607460194551522e-14 3.619978259207859428e-15
3.187000000000000000e+03 3.245000076293945312e+01 -2.883369827270507812e+01 -4.987707346611322187e-15 -4.788853910859050544e-14 -1.586287389420890093e-14 -5.064923632412676735e-14
3.188000000000000000e+03 3.425951766967773438e+01 -2.693818664550781250e+01 -2.177205186699570499e-14 -5.508182749974430137e-14 -2.305616397942859136e-14 -2.650535498548156621e-14
3.189000000000000000e+03 3.402604293823242188e+01 -2.531796836853027344e+01 -2.806743959428079083e-14 -5.777985105344732308e-14 -2.575418753313161307e-14 5.680594273508969561e-14
3.190000000000000000e+03 3.330743408203125000e+01 -1.995151329040527344e+01 -9.971703841880723285e-15 -4.160321176102654839e-13 -1.278011442333581993e-13 1.340153574051761165e-13
3.191000000000000000e+03 3.660746383666992188e+01 -1.973434829711914062e+01 -4.079094257058686959e-15 4.400276529866603559e-14 1.197710177835032558e-14 -2.413421118700287242e-15
3.192000000000000000e+03 3.471366882324218750e+01 -1.700985717773437500e+01 2.847464898960740121e-14 -1.786638193076658943e-13 -4.505675211185708462e-14 -4.238084628247276719e-14
3.193000000000000000e+03 3.589955902099609375e+01 -1.551224708557128906e+01 -3.570926920045541797e-14 -1.525568137528826584e-13 -5.647982488600142292e-14 1.883117007597454040e-13
3.194000000000000000e+03 3.789573287963867188e+01 -1.534174442291259766e+01 5.419551255252813560e-14 1.147285391689401024e-13 5.067721890457226042e-14 7.586752813438721321e-14
3.195000000000000000e+03 3.643045425415039062e+01 -1.363681602478027344e+01 -2.863360658062093222e-14 -8.876141602319823076e-14 -3.521850508707985439e-14 1.072188399262735681e-13
3.196000000000000000e+03 3.641677856445312500e+01 -3.867596435546875000e+01 1.176896460738626263e-14 -2.926936918203927596e-14 -5.250121541802493449e-15 -7.807628682303131146e-15
3.197000000000000000e+03 3.422470855712890625e+01 -3.444300079345703125e+01 4.430376015053874572e-14 -9.539004514665799794e-14 -1.532588549883577567e-14 7.573704440292858275e-15
3.198000000000000000e+03 3.504056167602539062e+01 -3.090167617797851562e+01 -1.804072265654179524e-14 -7.635816349875479414e-14 -2.831966567718238736e-14 2.561235694831156401e-14
3.199000000000000000e+03 3.457217788696289062e+01 -2.877954101562500000e+01 -1.432335593719042538e-14 -4.045179311960508950e-14 -1.643254420881888611e-14 4.745863939467284687e-14
3.200000000000000000e+03 3.599178314208984375e+01 -2.659742927551269531e+01 -2.183424780224669376e-15 -1.153131274278171303e-13 -3.524896439186311903e-14 2.856603706835256218e-14
3.201000000000000000e+03 3.673537445068359375e+01 -2.329067230224609375e+01 -9.613968963376878785e-14 -1.212668881327497172e-13 -6.522197061945012031e-14 1.759438880938150873e-14
3.202000000000000000e+03 3.599229812622070312e+01 -2.188097572326660156e+01 1.082315830111969107e-14 -8.686339814751795063e-14 -2.281207280095242512e-14 4.240740923569866205e-14
3.203000000000000000e+03 3.474641036987304688e+01 -2.046930122375488281e+01 -2.518070133509424727e-16 -1.079172914361182026e-16 -1.079172914361182026e-16 5.583761466978857946e-14
3.204000000000000000e+03 3.750903320312500000e+01 -1.901316642761230469e+01 -3.237428364668074043e-14 3.187625537874952397e-14 -1.494089885991332911e-16 5.586867367389850014e-14
3.205000000000000000e+03 3.787227630615234375e+01 -1.716001129150390625e+01 1.467994156139143525e-14 -1.309614444883547280e-13 -3.488444884520991440e-14 5.069776114760907171e-14
3.206000000000000000e+03 3.746054840087890625e+01 -1.476522254943847656e+01 3.041138982350435893e-14 -8.990618443954420669e-14 -1.784843770718559652e-14 2.829404928327504919e-15
3.207000000000000000e+03 3.611014938354492188e+01 -1.607255744934082031e+01 -7.314261636680655099e-14 -2.143506319706237062e-13 -8.624797788936086618e-14 1.900344844592977145e-13
3.208000000000000000e+03 3.762254714965820312e+01 -2.612432861328125000e+01 -5.378041728046258768e-15 -1.166822443787046693e-13 -3.661808811901423599e-14 -2.295824019446241621e-14
3.209000000000000000e+03 3.832496643066406250e+01 -2.387695884704589844e+01 -1.198004504843544482e-13 -1.353389378648192642e-13 -7.654181379424668252e-14 2.936907512432647416e-14
3.210000000000000000e+03 3.754186248779296875e+01 -2.205445098876953125e+01 -4.287523908499436820e-14 -6.412605228723819439e-14 -3.210038707285658988e-14 1.372634509310896589e-13
3.211000000000000000e+03 3.776584625244140625e+01 -2.110272407531738281e+01 -1.375765651303716836e-14 -6.308482517836458414e-14 -2.305274366038757849e-14 9.561901509295978041e-14
3.212000000000000000e+03 4.041447830200195312e+01 -1.679083633422851562e+01 1.453680383532718334e-13 -1.207032114232745035e-13 7.399451128317809101e-15 -7.313056139390122778e-14
3.213000000000000000e+03 3.889547348022460938e+01 -1.618319511413574219e+01 7.458318901712446269e-14 9.088748227333368068e-15 2.510158083452417033e-14 -2.132532160841610347e-14
3.214000000000000000e+03 4.183205413818359375e+01 -3.282031631469726562e+01 2.150984943004134731e-14 -8.228338935776027818e-14 -1.823206231712885816e-14 -5.922801311897263332e-14
3.215000000000000000e+03 4.152992248535156250e+01 -2.730906295776367188e+01 -4.135138954343420270e-14 -2.007258156347044298e-13 -7.262316155344158974e-14 -4.959418224942217790e-14
3.216000000000000000e+03 4.236563491821289062e+01 -2.604460525512695312e+01 -5.141868444154436280e-14 -1.821648978580017730e-13 -7.007507638392973526e-14 -7.921759087462301729e-14
3.217000000000000000e+03 4.295112609863281250e+01 -2.254647064208984375e+01 5.127252043616616073e-14 -1.610298537308568756e-13 -3.292719964959403556e-14 4.471877918963904075e-14
3.218000000000000000e+03 4.347646331787109375e+01 -2.021274566650390625e+01 5.352315473965661707e-14 -1.600652932681051466e-13 -3.196264257497409556e-14 -5.553614886759719593e-14
3.219000000000000000e+03 4.404051208496093750e+01 -1.929798889160156250e+01 -6.962086343629408924e-14 -3.272186666590515269e-13 -1.190518630943618317e-13 4.928641113397143336e-14
3.220000000000000000e+03 4.373280334472656250e+01 -1.627262496948242188e+01 -7.054450881956164654e-14 -9.314091517368186524e-14 -4.910562719797305353e-14 6.095476093271809392e-14
3.221000000000000000e+03 4.552807617187500000e+01 -1.505496978759765625e+01 -5.553070752794403431e-14 -2.068026739437955897e-13 -7.870001308626917158e-14 2.109033162955159524e-13
3.222000000000000000e+03 4.687233352661132812e+01 -1.369182491302490234e+01 5.710172325213910827e-14 -3.415354208214510523e-13 -8.533011265892537223e-14 1.656025848135317391e-13
3.223000000000000000e+03 4.789432144165039062e+01 -1.267716503143310547e+01 2.924838309373810341e-14 -5.930826440852729475e-14 -9.017965072063115206e-15 6.036772644268939558e-14
3.224000000000000000e+03 4.689513015747070312e+01 -1.144663047790527344e+01 -1.674502143932457554e-13 -4.148964971497498544e-13 -1.747040148181513985e-13 1.320164138597645920e-13
3.225000000000000000e+03 4.641629791259765625e+01 -1.079511642456054688e+01 -6.389969797867753321e-14 -2.618591920990759325e-13 -9.772766634569968192e-14 1.813470435017144888e-13
3.226000000000000000e+03 4.581472778320312500e+01 -1.136779594421386719e+01 -8.819073943344690747e-14 -5.868074038836712525e-13 -2.024994484161463104e-13 1.304554473344557430e-13
3.227000000000000000e+03 4.504658508300781250e+01 -6.899925708770751953e+00 -7.221973670132331158e-14 1.479963239903615141e-14 -1.722603281534545311e-14 -3.858150032635433713e-14
3.228000000000000000e+03 4.199146652221679688e+01 -3.650561141967773438e+01 2.395215373696829575e-14 2.170294583696101565e-14 1.369652953336561452e-14 -2.495856270951207073e-14
3.229000000000000000e+03 4.377058029174804688e+01 -3.470125579833984375e+01 -4.359099208981961904e-15 -8.193234502310020595e-14 -2.588743428606418706e-14 -2.792486362046715798e-14
3.230000000000000000e+03 4.327330780029296875e+01 -3.131999015808105469e+01 2.139676036718753116e-14 -5.087808090955235618e-14 -8.844396162709447506e-15 -5.195764134148690705e-14
3.231000000000000000e+03 4.172272872924804688e+01 -2.980872726440429688e+01 -3.383818273733308832e-15 -8.651837791117875098e-14 -2.697065898252856003e-14 -3.517144732466219448e-14
3.232000000000000000e+03 4.289733505249023438e+01 -2.850688552856445312e+01 4.639670741243655250e-14 -8.019589359991100008e-14 -1.013975602564892373e-14 -8.361173353069878411e-14
3.233000000000000000e+03 4.387722015380859375e+01 -2.715897941589355469e+01 -7.854106227151921860e-15 -1.978075770672424460e-13 -6.169850329425241586e-14 -3.637773066176956671e-14
3.234000000000000000e+03 4.524893569946289062e+01 -2.419700431823730469e+01 -4.708254236653183419e-15 -2.489329712686023238e-14 -8.880465366702377378e-15 6.544113531235448700e-14
3.235000000000000000e+03 4.412917709350585938e+01 -2.215516471862792969e+01 -3.995599085425925734e-14 -5.686258382827259067e-15 -1.369267468642266020e-14 -3.973404789328789655e-14
3.236000000000000000e+03 4.428900146484375000e+01 -2.001042556762695312e+01 1.857753825719368063e-14 -1.979174609574238519e-13 -5.380197765710199864e-14 1.356946917026660704e-13
3.237000000000000000e+03 4.672359848022460938e+01 -1.761622238159179688e+01 -6.945140941299818294e-14 1.598605958979398833e-14 -1.603960562458761618e-14 1.336614060534410675e-13
3.238000000000000000e+03 4.736321258544921875e+01 -1.429801082611083984e+01 -5.674876462301824132e-14 -3.445775294871195049e-13 -1.203978865389754294e-13 2.044254658129310287e-13
3.239000000000000000e+03 4.892559814453125000e+01 -1.386398315429687500e+01 1.556398476624306498e-14 1.238914773180575801e-14 8.385939580008057448e-15 9.870707360195088431e-14
3.240000000000000000e+03 4.839997482299804688e+01 -1.327875614166259766e+01 -2.878210500880176714e-14 -6.201785504415802119e-14 -2.723998835470111540e-14 7.971341685689137257e-14
3.241000000000000000e+03 4.511290740966796875e+01 -3.280565643310546875e+01 2.359103987463126439e-14 -1.042669233288287534e-13 -2.420276706913832010e-14 -4.392761992371742308e-14
3.242000000000000000e+03 4.441262435913085938e+01 -2.980319786071777344e+01 9.437536066221954845e-15 -1.560836692098693801e-13 -4.399383757140197526e-14 -2.016632981481983333e-14
3.243000000000000000e+03 4.534610366821289062e+01 -2.836882209777832031e+01 4.726144673642025673e-14 2.025490574418011003e-14 2.025490574418011003e-14 -2.459267666355020865e-14
3.244000000000000000e+03 4.623199844360351562e+01 -2.707245254516601562e+01 3.164239974640797870e-14 -1.923182343628940250e-13 -4.820275106257217168e-14 -6.501205552632977058e-14
3.245000000000000000e+03 4.606961441040039062e+01 -2.501025390625000000e+01 -6.726498698317318059e-14 -2.032533483967841059e-13 -8.115550061398718595e-14 -8.899563418564120088e-15
3.246000000000000000e+03 4.604675292968750000e+01 -2.107604789733886719e+01 -4.965676443169711463e-14 -1.585343184853926779e-13 -6.245732284224786435e-14 5.454147807763647104e-14
3.247000000000000000e+03 4.611976623535156250e+01 -1.971586227416992188e+01 -4.957343671847802558e-14 -1.584986075763364366e-13 -6.242161193319162305e-14 5.802239216163001395e-15
3.248000000000000000e+03 4.873539733886718750e+01 -1.845802879333496094e+01 -4.315045364208444645e-14 -1.786213727926130868e-13 -6.653155131854104898e-14 5.163762212961886533e-14
3.249000000000000000e+03 4.855148696899414062e+01 -1.638818740844726562e+01 -1.057425089330543688e-13 -2.626352369090867445e-13 -1.105133169763787560e-13 3.889085369935055270e-14
3.250000000000000000e+03 4.947224044799804688e+01 -1.442735004425048828e+01 -1.022991777009304992e-13 -3.240670535739620384e-13 -1.279098761587313393e-13 1.175792590461105513e-13
3.251000000000000000e+03 4.741071701049804688e+01 -1.544692039489746094e+01 -1.563080990595738795e-13 -2.213986372706644445e-13 -1.133120222543242128e-13 1.777622645436627291e-13
3.252000000000000000e+03 4.907899856567382812e+01 -3.761951446533203125e+01 2.159315681446970225e-14 -8.796655352923121729e-14 -1.991202003086799122e-14 -1.151048488023508759e-14
3.253000000000000000e+03 4.615820312500000000e+01 -3.645439529418945312e+01 6.149138679798979434e-14 -8.516448722455105536e-14 -7.101929958561788853e-15 -2.918703419143436895e-14
3.254000000000000000e+03 4.726642608642578125e+01 -3.407210922241210938e+01 1.231310280786716144e-14 -9.766259388655981755e-14 -2.560484715420120738e-14 -1.785541387053918294e-14
3.255000000000000000e+03 4.610723876953125000e+01 -3.100525856018066406e+01 -1.134795958644772146e-14 -7.348983211254503378e-14 -2.545133767910441602e-14 -5.111969536369075084e-14
3.256000000000000000e+03 4.686537551879882812e+01 -2.937982559204101562e+01 2.248730512238207579e-14 -1.504909071707929979e-13 -3.840107892045738214e-14 -1.902133947584167678e-14
3.257000000000000000e+03 4.752104568481445312e+01 -2.796081352233886719e+01 -2.770985701230086265e-15 2.168790930808135731e-14 5.675077124407028675e-15 -6.549380720914654841e-14
3.258000000000000000e+03 4.841784286499023438e+01 -2.472359466552734375e+01 -2.445353286723885022e-14 -1.934838872235875029e-13 -6.538122636606108484e-14 -1.621298479856109892e-14
3.259000000000000000e+03 4.746864318847656250e+01 -2.093943786621093750e+01 -8.790192152722392516e-14 -6.054772433211272342e-14 -4.453489172492192116e-14 -9.803724502945986713e-16
3.260000000000000000e+03 4.847296905517578125e+01 -1.945775794982910156e+01 -7.392916438536331625e-14 5.981796817860346449e-14 -4.233357591478534646e-15 8.680528491107272759e-14
3.261000000000000000e+03 4.986180114746093750e+01 -1.890094947814941406e+01 -8.027882828984256314e-14 -1.259071108006618034e-13 -6.185578037189859435e-14 -5.112130557332348127e-15
3.262000000000000000e+03 5.048794555664062500e+01 -1.663479614257812500e+01 -5.630142958291430022e-14 -2.071329761356432986e-13 -7.903032205438045854e-14 1.357249816008598842e-13
3.263000000000000000e+03 5.107167053222656250e+01 -1.614380836486816406e+01 -1.880505130682618570e-14 -8.059307581920801405e-15 -8.059307581920801405e-15 1.064769136033781594e-13
3.264000000000000000e+03 4.949908447265625000e+01 -1.546807670593261719e+01 -6.746273868317095856e-14 -2.837596965125227522e-13 -1.053667244600708930e-13 8.763597351057680895e-14
3.265000000000000000e+03 4.801247406005859375e+01 -3.196318626403808594e+01 3.657358161983370604e-14 -1.330161973405949438e-13 -2.893278200572294012e-14 -1.475655399740469220e-14
3.266000000000000000e+03 4.851244735717773438e+01 -3.013411140441894531e+01 4.880430623841565049e-15 -2.037876567799121186e-13 -5.967217009145847628e-14 -2.973996035874303112e-14
3.267000000000000000e+03 5.030529785156250000e+01 -2.889581871032714844e+01 -1.185858238727166211e-14 -1.423350911959608833e-13 -4.625810232907964781e-14 -5.657235137702769368e-14
3.268000000000000000e+03 5.062491989135742188e+01 -2.634166717529296875e+01 -2.309900521183481936e-14 -8.424486694184885049e-14 -3.220316266254463766e-14 -5.785737828504361469e-14
3.269000000000000000e+03 4.962525177001953125e+01 -2.368612480163574219e+01 2.121050798648167757e-14 9.090217829496854279e-15 9.090217829496854279e-15 -3.834855271333224846e-14
3.270000000000000000e+03 5.021949005126953125e+01 -2.193303871154785156e+01 3.505324302983990961e-15 -1.357505687721305421e-13 -3.967357312898572852e-14 8.401381520032095377e-16
3.271000000000000000e+03 4.876423645019531250e+01 -2.052075195312500000e+01 -2.557261077429460322e-14 -1.024615911863688278e-13 -3.841026075760561875e-14 1.954400793220852084e-14
3.272000000000000000e+03 5.136286926269531250e+01 -1.911310386657714844e+01 -5.322171604251954569e-14 -1.886564906031229505e-13 -7.256346267131910666e-14 -9.564968446191396412e-14
3.273000000000000000e+03 5.271840667724609375e+01 -1.783712577819824219e+01 -1.475428394910605068e-13 -1.089835958024282236e-13 -7.695793058804661912e-14 1.229043857789088867e-13
3.274000000000000000e+03 5.160868072509765625e+01 -1.671430587768554688e+01 -4.655728453044523374e-14 -1.114550211020817749e-13 -4.740369067331856590e-14 5.483551370681453985e-14
3.275000000000000000e+03 5.097369766235351562e+01 -1.724521446228027344e+01 -1.042260963407710961e-13 -1.607398499785077373e-14 -3.609002406277338204e-14 1.283987971284136775e-13
3.276000000000000000e+03 5.678227615356445312e+01 -4.077607345581054688e+01 1.697000524857657927e-14 -1.071045108071849716e-13 -2.704035285342864386e-14 -2.699783899925652965e-15
3.277000000000000000e+03 5.239986038208007812e+01 -3.796399688720703125e+01 4.206215183013423120e-14 -9.635073636290666932e-14 -1.628657502101855253e-14 2.590406831908236701e-14
3.278000000000000000e+03 4.970817947387695312e+01 -3.490292358398437500e+01 5.095789851823802341e-14 -7.538166325957856850e-14 -7.327129761215342429e-15 9.111311490982328121e-15
3.279000000000000000e+03 5.027285385131835938e+01 -3.054096794128417969e+01 -2.247330027963217319e-14 -1.583219910424385479e-13 -5.423858926009370029e-14 7.307419939807445301e-16
3.280000000000000000e+03 5.126279067993164062e+01 -2.732303237915039062e+01 -1.623524482441494193e-14 -1.728051566857874422e-13 -5.671211858958823127e-14 -4.552291161218080529e-14
3.281000000000000000e+03 5.123206329345703125e+01 -2.581344032287597656e+01 -5.947651903316988897e-14 -2.542446776113843621e-13 -9.411635831573991751e-14 -3.862120245465804069e-14
3.282000000000000000e+03 5.072087097167968750e+01 -2.439764213562011719e+01 5.320532764905606948e-14 -2.002335878483960108e-13 -4.410847839861516129e-14 1.082370209627182833e-14
3.283000000000000000e+03 5.105507659912109375e+01 -2.203110313415527344e+01 2.520766662897008792e-14 -5.782313782518380685e-14 -9.784641697677294581e-15 -1.081405879557392757e-13
3.284000000000000000e+03 5.046681213378906250e+01 -2.094194030761718750e+01 2.747148245918571569e-14 -1.826680354286708274e-13 -4.655896843194437529e-14 -9.177849317120942430e-14
3.285000000000000000e+03 5.206900024414062500e+01 -1.842796707153320312e+01 -1.567047408718505452e-13 -4.285398533428186330e-14 -5.986761786183972256e-14 -1.457135532568522296e-14
3.286000000000000000e+03 5.073128509521484375e+01 -1.846988487243652344e+01 -8.731855299579094343e-14 -3.742223748221494561e-14 -3.742223748221494561e-14 3.533279016045519361e-14
3.287000000000000000e+03 5.008279800415039062e+01 -3.255187988281250000e+01 5.731303425555653308e-14 -1.126901171119229494e-13 -1.661312485690992491e-14 -1.348835509295187238e-14
3.288000000000000000e+03 5.204667282104492188e+01 -3.056797218322753906e+01 5.950485059118965081e-14 -1.231885009582087132e-13 -1.910509578773207651e-14 -2.400241836612426044e-14
3.289000000000000000e+03 5.326510238647460938e+01 -2.841597747802734375e+01 3.944919748938985338e-14 -1.317837847311306709e-13 -2.770037617252224527e-14 5.737318037107516644e-14
3.290000000000000000e+03 5.408465957641601562e+01 -2.656512069702148438e+01 1.303677082736473536e-13 -1.500073936594459312e-13 -5.891904853409920748e-15 -5.979399121696553701e-15
3.291000000000000000e+03 5.265288543701171875e+01 -2.414294052124023438e+01 4.544497102850625359e-14 -2.035594593276582320e-13 -4.743434648974559353e-14 1.094614324989627921e-15
3.292000000000000000e+03 5.357472610473632812e+01 -2.327086067199707031e+01 -1.588125281509842474e-14 -9.830814818884842099e-14 -3.425682114821700097e-14 1.505861001215372252e-13
3.293000000000000000e+03 5.276328277587890625e+01 -2.129767036437988281e+01 -4.739705671127567022e-14 -3.176941945192551797e-13 -1.095273774020383284e-13 2.449018906506422733e-13
3.294000000000000000e+03 5.341117477416992188e+01 -1.951692008972167969e+01 -6.032665550914292907e-14 1.989666671166605977e-14 -1.212899765568259750e-14 -1.826720571411043909e-14
3.295000000000000000e+03 5.232748031616210938e+01 -3.515062332153320312e+01 5.503861526690717598e-14 -1.136648690750960422e-13 -1.758787682008301767e-14 -6.767392178461334798e-15
3.296000000000000000e+03 5.468024444580078125e+01 -2.800149345397949219e+01 -1.856146157185479401e-14 -3.510870251206138493e-13 -1.108945495652789714e-13 3.068089199039815418e-14
3.297000000000000000e+03 5.573518753051757812e+01 -2.391732215881347656e+01 7.199295548815723422e-15 4.883636220030448949e-14 1.681069698592288497e-14 1.178890833694254403e-13
3.298000000000000000e+03 5.579349517822265625e+01 -2.269975662231445312e+01 -9.015014348088060125e-14 -1.758886276643362168e-13 -7.981163202119140321e-14 2.119948097276114218e-13
3.299000000000000000e+03 5.409900665283203125e+01 -2.014105796813964844e+01 -2.124006943634085265e-13 -1.367798154469981875e-13 -1.047541570088801610e-13 2.303637966147298322e-13
3.300000000000000000e+03 5.471843719482421875e+01 -1.932794380187988281e+01 2.152529321236204551e-13 -6.787706654338629408e-14 4.421276170694932173e-14 2.340937231386230888e-13
3.301000000000000000e+03 5.402375411987304688e+01 -1.878303527832031250e+01 -1.971434761315407624e-13 -6.447402019823383901e-14 -7.848524618842694922e-14 1.567657001389985427e-13
3.302000000000000000e+03 5.561241531372070312e+01 -3.757940673828125000e+01 4.552149876122478511e-14 -7.771155274187771522e-14 -9.657015855382700131e-15 -2.021240628956809914e-15
3.303000000000000000e+03 5.426791763305664062e+01 -3.238406372070312500e+01 3.864895803027366961e-14 -2.918710873033372732e-14 2.838555213498456312e-15 1.272531477978025571e-14
3.304000000000000000e+03 5.536385726928710938e+01 -2.972492218017578125e+01 6.553328572075217684e-14 -5.086482082052132692e-16 1.950739239196461194e-14 -1.506648843500272422e-14
3.305000000000000000e+03 5.594712829589843750e+01 -2.732242202758789062e+01 8.879116890250348532e-15 -8.769656008322801455e-14 -2.364523304259659453e-14 2.248956331221945576e-14
3.306000000000000000e+03 5.709849166870117188e+01 -2.660339164733886719e+01 -8.329921225447983746e-14 -8.145060689281058419e-14 -4.942494506656076869e-14 9.669135202792014661e-14
3.307000000000000000e+03 5.798624038696289062e+01 -2.445502281188964844e+01 -8.612587639594826427e-14 -8.266204019023726257e-14 -5.063637497585565805e-14 1.310303048788347136e-14
3.308000000000000000e+03 5.687658691406250000e+01 -2.155735397338867188e+01 -1.442353045810404466e-13 -1.606417974445335795e-14 -4.808984157070317345e-14 1.589838693636866362e-13
3.309000000000000000e+03 5.730195999145507812e+01 -2.027582550048828125e+01 1.162288361123689148e-14 2.337359906318114966e-13 7.360765778363989598e-14 3.936314571821239450e-14
3.310000000000000000e+03 5.601281356811523438e+01 -1.686659240722656250e+01 -1.215737037950359589e-13 3.139045826657665961e-13 5.769926095071375993e-14 -2.928838337763924049e-15
3.311000000000000000e+03 5.588741683959960938e+01 -1.536543273925781250e+01 -5.740493394220183565e-14 2.041526263362250515e-13 4.402430704058060695e-14 -1.783796160369395534e-14
3.312000000000000000e+03 5.615903854370117188e+01 -1.279335212707519531e+01 -2.223995286705898050e-14 2.420988214589525622e-13 6.595765600359015934e-14 1.092442380046937389e-13
3.313000000000000000e+03 5.502316665649414062e+01 -1.151047801971435547e+01 -1.602773903180976234e-13 -6.869030626417693686e-14 -6.869030626417693686e-14 5.869133981985588666e-14
3.314000000000000000e+03 5.527676773071289062e+01 -1.226074981689453125e+01 5.102587799445286454e-14 1.591210751486146768e-13 6.304408628173344131e-14 3.641854748543185694e-14
3.315000000000000000e+03 5.706373596191406250e+01 -1.816163825988769531e+01 1.508684805773610749e-13 -1.183458712972207394e-13 9.756781937009153388e-15 -3.748147219028233335e-14
3.316000000000000000e+03 5.536066818237304688e+01 -1.866642189025878906e+01 -1.060813695458011352e-13 4.603845313332945166e-14 -1.801287560136786287e-14 3.075378222482799684e-13
3.317000000000000000e+03 5.598246765136718750e+01 -1.930386543273925781e+01 9.291088135399833137e-14 3.143246296924417926e-13 1.221706519586793216e-13 1.209869606843411161e-13
3.318000000000000000e+03 5.585035324096679688e+01 -1.811573219299316406e+01 3.012193359325232578e-13 4.951015725868090911e-13 2.388962779768105671e-13 1.816938120140568214e-13
3.319000000000000000e+03 5.651432418823242188e+01 -1.870715904235839844e+01 -3.519352777953121958e-14 4.881774780425562899e-13 1.358951877894129523e-13 3.424153728571674438e-14
3.320000000000000000e+03 5.484486770629882812e+01 -3.481064987182617188e+01 1.072347184059027972e-14 -9.834385909790466229e-14 -2.628611744774373565e-14 2.720904285300612679e-14
3.321000000000000000e+03 5.613713073730468750e+01 -3.172086334228515625e+01 5.867456094420372623e-15 -1.461759587071537192e-13 -4.209255014854529353e-14 2.598608990749678993e-14
3.322000000000000000e+03 5.684315109252929688e+01 -2.893855667114257812e+01 -4.069397677988403905e-14 -1.775685989306025059e-13 -6.547877068026689007e-14 4.887051456873778288e-14
3.323000000000000000e+03 5.819226074218750000e+01 -2.790687942504882812e+01 7.370510045389203069e-14 5.803766755380079800e-14 3.952283175756056421e-14 1.204104260147265820e-14
3.324000000000000000e+03 5.890417480468750000e+01 -2.414999961853027344e+01 -1.256619184793542066e-13 -8.104161364609705626e-15 -4.012982573195836289e-14 1.784915802400394158e-13
3.325000000000000000e+03 5.834505081176757812e+01 -2.249997711181640625e+01 -6.311470172448013782e-14 -2.704915860794829957e-14 -2.704915860794829957e-14 -3.143037045905128224e-14
3.326000000000000000e+03 5.894165802001953125e+01 -1.992455863952636719e+01 9.297614693665016972e-15 2.041450911311262773e-13 6.403281090040444101e-14 8.512027888096795891e-14
3.327000000000000000e+03 5.883424377441406250e+01 -1.875825309753417969e+01 -1.241621890480000545e-14 2.234335085655667075e-13 6.330518926992226292e-14 -4.734085438115945288e-14
3.328000000000000000e+03 5.835403442382812500e+01 -1.711030960083007812e+01 -7.480792379868997366e-14 -7.209262077286296422e-14 -4.407016201621316576e-14 1.035468436797089276e-13
3.329000000000000000e+03 5.820534515380859375e+01 -1.435534477233886719e+01 -3.119324866766512439e-14 2.611371676623092108e-13 6.898316959975600571e-14 1.647626669430343749e-13
3.330000000000000000e+03 5.702042770385742188e+01 -1.332680225372314453e+01 1.368841072256618205e-14 2.346212146005915988e-13 7.449288175241999821e-14 7.687157388500814870e-14
3.331000000000000000e+03 6.189199447631835938e+01 -3.321570968627929688e+01 -1.033958041526863297e-14 -2.730672269248349271e-14 -1.129389093232563770e-14 -3.394015703385303354e-15
3.332000000000000000e+03 6.409570312500000000e+01 -2.771938323974609375e+01 -2.120494975628179485e-14 5.953858960754468410e-14 1.150009178597227733e-14 -3.372221799762334382e-14
3.333000000000000000e+03 6.371523284912109375e+01 -2.573912048339843750e+01 -2.716312053825426127e-15 -1.164133812981695774e-15 -1.164133812981695774e-15 -2.637525750104688371e-14
3.334000000000000000e+03 6.284705352783203125e+01 -2.396589851379394531e+01 -1.242221843916540766e-14 -5.107475518364122669e-14 -1.904909166332551668e-14 2.018107835249742521e-14
3.335000000000000000e+03 6.405931091308593750e+01 -2.182191658020019531e+01 2.492263665408722684e-14 -3.506982031165062352e-14 -3.044154461994308565e-15 1.401414486572934853e-14
3.336000000000000000e+03 6.281961441040039062e+01 -2.166819572448730469e+01 -2.472962495046228393e-14 8.090348459525650848e-14 1.685215924869098297e-14 -1.087675752958240649e-13
3.337000000000000000e+03 6.402784729003906250e+01 -1.846213531494140625e+01 -1.159443634851653471e-13 -9.544138889578876461e-14 -6.341572368140716009e-14 -1.487113112774024470e-13
3.338000000000000000e+03 6.312725448608398438e+01 -1.663259887695312500e+01 -5.138611771878832946e-14 6.947927340883106040e-14 5.427947215232587636e-15 -2.020379408207689104e-14
3.339000000000000000e+03 6.451956176757812500e+01 -1.335000705718994141e+01 -9.156506797355565275e-14 1.923720107906493060e-13 3.024208148987538036e-14 2.321409496651005017e-14
3.340000000000000000e+03 6.289138031005859375e+01 -1.277813434600830078e+01 4.193559155528728266e-14 -1.650314000040120632e-13 -3.692874253461743417e-14 1.063610191674030370e-13
3.341000000000000000e+03 6.400490570068359375e+01 -1.154979228973388672e+01 3.157478280029456241e-14 -2.152226964355352656e-13 -5.509437375175903207e-14 -2.063325503292787189e-14
3.342000000000000000e+03 6.412796783447265625e+01 -1.029851913452148438e+01 -1.016165098030250014e-13 1.852048110142709425e-13 2.507649171862649795e-14 -8.322381276964704866e-14
3.343000000000000000e+03 6.379339981079101562e+01 -9.481391906738281250e+00 9.341515056068491751e-14 1.086614861132463583e-13 6.062298829167395153e-14 3.671912898522630697e-14
3.344000000000000000e+03 6.284242248535156250e+01 -8.616891860961914062e+00 -8.094584301888280153e-14 1.940636643353241264e-13 3.393534842781147087e-14 -2.610368349156410445e-14
3.345000000000000000e+03 6.354629898071289062e+01 -7.834262847900390625e+00 1.271563285437996016e-13 2.603748380097803405e-13 1.162593513213266982e-13 -6.987676903031855846e-14
3.346000000000000000e+03 6.339690780639648438e+01 -5.476826190948486328e+00 1.123309073796513458e-13 3.226475076695267674e-13 1.304935299357642964e-13 5.078189184806215783e-14
3.347000000000000000e+03 6.278963088989257812e+01 -4.620579719543457031e+00 -1.624083185373503130e-14 1.591511719232965166e-14 -9.771443547930533293e-17 -1.378246339755681560e-13
3.348000000000000000e+03 6.386189270019531250e+01 -3.174069881439208984e+00 -3.157186968458236542e-13 -1.238702743893219105e-13 -1.318766873047855226e-13 -2.464998962326686582e-13
3.349000000000000000e+03 6.434626770019531250e+01 -2.597973346710205078e+00 -5.080417965659667079e-13 -3.092341107572421643e-13 -2.451827803284789553e-13 -3.091629328846184910e-13
3.350000000000000000e+03 6.560675048828125000e+01 -2.471591234207153320e+00 -3.270879931922127115e-13 1.800760739524912002e-13 -4.410357916004824241e-14 -1.653610415101609138e-14
3.351000000000000000e+03 6.625425720214843750e+01 -2.948480606079101562e+00 8.711083341206987685e-15 -1.792704710807530022e-13 -5.116781699949016216e-14 -1.000680183789633138e-13
3.352000000000000000e+03 6.682476043701171875e+01 -3.503115653991699219e+00 1.568214958933000780e-13 2.145826173542177140e-14 5.348392694980337592e-14 -1.359414832221780833e-13
3.353000000000000000e+03 6.840334320068359375e+01 -4.055743217468261719e+00 1.056771654233713831e-13 1.825430540232375609e-13 8.646606515635632539e-14 -1.814938173708147140e-14
3.354000000000000000e+03 6.945812988281250000e+01 -5.153533458709716797e+00 1.146912561667337571e-13 4.915339646806640705e-14 4.915339646806640705e-14 -1.035696390303854353e-13
3.355000000000000000e+03 7.063806915283203125e+01 -7.272509098052978516e+00 5.457866621215272385e-14 2.521456079953438012e-13 9.201728192343577861e-14 -7.471369307737382726e-14
3.356000000000000000e+03 7.248001861572265625e+01 -8.838541984558105469e+00 2.687077008112475490e-14 1.258934227482341739e-13 4.582925632414837358e-14 -1.160662007042984056e-13
3.357000000000000000e+03 7.349875640869140625e+01 -1.030148029327392578e+01 6.257167483122603666e-15 -1.345712007539551225e-13 -3.849421188707388697e-14 -1.106451085267079470e-13
3.358000000000000000e+03 7.804861450195312500e+01 -1.349166965484619141e+01 2.254688203176015426e-14 5.541389829638587727e-14 2.338823477607016726e-14 -1.996570091330682195e-13
3.359000000000000000e+03 7.881578826904296875e+01 -1.581855010986328125e+01 5.571189803975709620e-14 -6.762536900904378423e-14 -3.574041544895890585e-15 -5.194574561077566766e-14
3.360000000000000000e+03 7.960527038574218750e+01 -1.341104602813720703e+01 7.908756115282411514e-14 7.964562033979313838e-14 4.761995173727974484e-14 -4.523182026952739243e-14
3.361000000000000000e+03 6.198870086669921875e+01 -3.676274871826171875e+01 9.043263405098759394e-15 -8.476678153889263823e-14 -2.271705433899533222e-14 -2.323176322675682762e-15
3.362000000000000000e+03 6.456881713867187500e+01 -3.309265518188476562e+01 1.747408133175119144e-14 -6.113753031394483783e-14 -1.309903503347127282e-14 1.973855276546799403e-15
3.363000000000000000e+03 6.447892761230468750e+01 -3.010746002197265625e+01 -2.356967431556972192e-14 5.852513162681385883e-14 1.048663804040618833e-14 -9.440652300434903416e-16
3.364000000000000000e+03 6.527575683593750000e+01 -2.850535011291503906e+01 6.021261776938818810e-14 9.443183404287888716e-14 4.639333622130648038e-14 -5.003464615825799211e-14
3.365000000000000000e+03 6.581116485595703125e+01 -2.708314704895019531e+01 -7.257737619332938340e-17 2.284437016723123159e-14 6.831537560040429335e-15 -4.750151281433107053e-14
3.366000000000000000e+03 6.515373229980468750e+01 -2.537269401550292969e+01 4.430954707963438710e-14 -3.885668777839010324e-15 1.212716382935179193e-14 -3.913366416401047043e-14
3.367000000000000000e+03 6.426216125488281250e+01 -2.481168365478515625e+01 -3.356556433622634450e-14 -1.001682731986003327e-13 -4.012014922756892976e-14 -3.958766027121161934e-14
3.368000000000000000e+03 6.584535217285156250e+01 -2.193932723999023438e+01 -4.322367794630868620e-14 4.351041384554731745e-15 -1.166179037560312326e-14 -8.443488586631290715e-16
3.369000000000000000e+03 6.560504913330078125e+01 -1.979993438720703125e+01 8.193973115040026345e-15 3.511702884593289470e-15 3.511702884593289470e-15 -5.415586463433305631e-14
3.370000000000000000e+03 6.555740356445312500e+01 -1.789117813110351562e+01 -1.557055774191375835e-14 -5.242404478729943695e-14 -2.039838126698372694e-14 -5.936686553595013627e-14
3.371000000000000000e+03 6.454581451416015625e+01 -1.686582183837890625e+01 -1.815380528194521226e-13 1.452338547818995962e-13 -1.089126144414483133e-14 6.043107095461686118e-14
3.372000000000000000e+03 6.494879150390625000e+01 -1.511226177215576172e+01 -1.379265760848361055e-14 -1.059913401079033701e-13 -3.593519999254245201e-14 1.337424524951749639e-16
3.373000000000000000e+03 6.623152160644531250e+01 -1.279395866394042969e+01 -1.148322837643198091e-13 -2.347892659373268520e-14 -4.149336242978939049e-14 -2.719041151629832120e-14
3.374000000000000000e+03 6.568326568603515625e+01 -1.223212623596191406e+01 -3.778945675803578597e-14 1.746717598035199548e-13 4.106469260771114516e-14 2.217195983831698330e-14
3.375000000000000000e+03 6.514134216308593750e+01 -1.164770317077636719e+01 8.826392477415557353e-15 -3.053047249149294651e-14 -6.511223580706743119e-15 -6.335525230523678109e-14
3.376000000000000000e+03 6.520790863037109375e+01 -3.580805587768554688e+01 1.462795237315486080e-14 -1.660635198146367952e-14 -5.935199566080285021e-16 -1.400533233494611479e-14
3.377000000000000000e+03 6.584600067138671875e+01 -3.402433776855468750e+01 5.581738413487635775e-14 -2.182921303840821420e-14 1.019645132894044307e-14 -3.051603905007173323e-15
3.378000000000000000e+03 6.592821502685546875e+01 -3.245940780639648438e+01 -2.560580938362928827e-14 -1.097391830726969497e-14 -1.097391830726969497e-14 -1.326353730215753049e-14
3.379000000000000000e+03 6.601549530029296875e+01 -3.077628898620605469e+01 3.166709922714991410e-14 -9.303860714618070182e-15 6.708971892572732076e-15 -3.450806806103157154e-14
3.380000000000000000e+03 6.662607574462890625e+01 -2.910641860961914062e+01 1.161898048341594367e-14 6.788711574227251910e-14 2.385182946062960191e-14 -2.125491453577443152e-14
3.381000000000000000e+03 6.707413482666015625e+01 -2.749323272705078125e+01 3.711220309472913759e-14 -4.128345411293261880e-14 -1.251375347812691725e-15 -7.366476813307556992e-14
3.382000000000000000e+03 6.709301757812500000e+01 -2.607511901855468750e+01 -1.854657412077385242e-15 4.495609410453717258e-14 1.293043143125440983e-14 -7.309417285848718304e-14
3.383000000000000000e+03 6.741125488281250000e+01 -2.410493087768554688e+01 -3.340879886648030761e-14 7.718384443947470808e-14 1.313251316367855179e-14 -3.589455257546961264e-14
3.384000000000000000e+03 6.659031677246093750e+01 -2.062143325805664062e+01 -5.537480264367240779e-14 -9.235848034711696686e-14 -4.431998591367634910e-14 -1.862140270540019182e-14
3.385000000000000000e+03 6.665225219726562500e+01 -1.783299636840820312e+01 5.582686412762202788e-14 -2.477204639333985270e-13 -5.756807926410659193e-14 8.854968489143896782e-14
3.386000000000000000e+03 6.756109619140625000e+01 -1.668204307556152344e+01 1.229682317343411269e-13 5.270067219534553538e-14 5.270067219534553538e-14 9.420132588474489088e-14
3.387000000000000000e+03 6.676637268066406250e+01 -1.336385154724121094e+01 -2.631629723165440637e-14 -3.701332046846667057e-14 -1.899888463240996528e-14 3.820794863221982363e-14
3.388000000000000000e+03 6.723065185546875000e+01 -1.505438137054443359e+01 -2.420431883349768998e-14 8.112861917637312348e-14 1.707729044167580895e-14 3.041489653990599173e-14
3.389000000000000000e+03 6.896387481689453125e+01 -3.257908630371093750e+01 9.873702468696579637e-14 4.231586530289120629e-14 4.231586530289120629e-14 -7.569635294014248617e-14
3.390000000000000000e+03 6.796997833251953125e+01 -2.981457901000976562e+01 -1.791894981191272801e-14 -7.679549677381755646e-15 -7.679549677381755646e-15 -1.008079118227853122e-13
3.391000000000000000e+03 6.878964233398437500e+01 -2.883711624145507812e+01 8.677223199140497029e-15 2.659428497461379520e-14 1.058145236742299294e-14 -5.519345966592884012e-14
3.392000000000000000e+03 6.831179809570312500e+01 -2.765185165405273438e+01 -5.605551220140385371e-14 7.891584385749314534e-14 6.858099666233376940e-15 -9.097238885596645175e-14
3.393000000000000000e+03 6.789359283447265625e+01 -2.568822288513183594e+01 -1.537323972278497458e-14 8.491336567261267843e-14 2.086203863198125841e-14 -2.483007966987485493e-14
3.394000000000000000e+03 6.934824371337890625e+01 -2.348932456970214844e+01 -7.171598926693223408e-14 1.501552415663232748e-14 -1.701014105774927704e-14 7.668038160815390802e-14
3.395000000000000000e+03 6.799731445312500000e+01 -2.220616340637207031e+01 2.991613304737655854e-14 -7.868070073507177353e-14 -1.462937030630856450e-14 -1.644140146294173488e-13
3.396000000000000000e+03 6.832020568847656250e+01 -2.005979156494140625e+01 -9.122264982243041831e-14 2.953100071878718424e-14 -1.850749540871932802e-14 -7.302961539537924929e-14
3.397000000000000000e+03 6.815718841552734375e+01 -1.910630798339843750e+01 3.342187705518591401e-14 8.295008560241234896e-14 3.491158778083994219e-14 -8.100897746663934806e-14
3.398000000000000000e+03 6.927008819580078125e+01 -1.646460151672363281e+01 -6.028321288334415051e-14 -7.158661006643682323e-14 -3.956094824018700773e-14 -1.182418827563522234e-13
3.399000000000000000e+03 6.886305236816406250e+01 -1.566385173797607422e+01 2.893303950373890543e-14 8.102629759634480400e-14 3.298780316290418624e-14 8.672581966809311815e-14
3.400000000000000000e+03 6.836934661865234375e+01 -1.506496620178222656e+01 -5.052801235684752090e-14 -7.312467959711549392e-14 -3.709580792500208335e-14 -1.484214328859295023e-14
3.401000000000000000e+03 7.327955627441406250e+01 -4.170512390136718750e+01 7.004301788094205450e-14 3.001843429861414392e-14 3.001843429861414392e-14 -3.545943175046507856e-14
3.402000000000000000e+03 6.748110198974609375e+01 -3.432329940795898438e+01 4.450320252829924328e-14 7.635063506991959792e-15 1.564147981058736092e-14 -5.796062821318212488e-14
3.403000000000000000e+03 6.920812225341796875e+01 -3.429413223266601562e+01 2.223975296728342849e-14 -1.734724695704251141e-13 -4.536981548916227402e-14 -1.652645559871391764e-15
3.404000000000000000e+03 7.035926055908203125e+01 -3.234186553955078125e+01 1.651832662351911812e-14 -1.072980883288186804e-13 -2.723392868099645814e-14 9.816186739880261624e-17
3.405000000000000000e+03 7.128054046630859375e+01 -3.063923645019531250e+01 7.537443806853848932e-15 -2.140866693992049541e-13 -6.196476979528769968e-14 3.433556471912554975e-14
3.406000000000000000e+03 7.106424713134765625e+01 -2.949847793579101562e+01 6.955726989668013088e-15 2.981025943468392815e-15 2.981025943468392815e-15 5.308124240448099801e-15
3.407000000000000000e+03 7.025508880615234375e+01 -2.830442810058593750e+01 -3.326712752385434235e-14 -1.425733988334731972e-14 -1.425733988334731972e-14 2.142942534576544600e-14
3.408000000000000000e+03 6.969269561767578125e+01 -2.690771102905273438e+01 -3.602832279476358979e-14 1.675630798394014964e-13 3.946042914627044540e-14 -5.055403998525075104e-14
3.409000000000000000e+03 6.958840942382812500e+01 -2.420453834533691406e+01 7.728537827886208106e-15 1.863160233733784921e-13 5.821336929211565203e-14 -4.632227693329542262e-14
3.410000000000000000e+03 6.975358581542968750e+01 -2.248194694519042969e+01 -3.817616795603884228e-14 -1.078631135147459230e-13 -4.381178308598271398e-14 3.316123824105218776e-14
3.411000000000000000e+03 7.004904937744140625e+01 -2.064214897155761719e+01 2.866804694025629208e-14 3.516178098466812840e-14 1.914894837747732614e-14 -6.724012487210537237e-14
3.412000000000000000e+03 6.989376831054687500e+01 -1.882861518859863281e+01 3.104444573113975155e-15 -2.154499790922061175e-14 -5.532166149062756749e-15 -7.078612327370004120e-14
3.413000000000000000e+03 6.959828186035156250e+01 -1.740552330017089844e+01 -6.220317230049010604e-14 -2.665850362454282724e-14 -2.665850362454282724e-14 3.381646565959843531e-14
3.414000000000000000e+03 7.003222656250000000e+01 -1.617434692382812500e+01 -9.974828038203376046e-14 -9.993794799958294339e-14 -5.990586986973772676e-14 -5.210811589753368625e-15
3.415000000000000000e+03 6.998752593994140625e+01 -3.817792129516601562e+01 1.897884891507561206e-14 -8.336810652627771323e-14 -1.931677779158039870e-14 -1.221053897641592723e-14
3.416000000000000000e+03 6.734294891357421875e+01 -4.112360000610351562e+01 2.808836130807797205e-14 -2.227534190359526517e-14 1.743905948399754151e-15 -1.411555165017463337e-14
3.417000000000000000e+03 7.150808715820312500e+01 -3.563881301879882812e+01 3.887868014183261389e-14 -2.908865639680846549e-14 2.937007335265481335e-15 -5.429500843064441473e-14
3.418000000000000000e+03 7.084111022949218750e+01 -3.395600128173828125e+01 4.466780474687327696e-14 -9.523402845403733386e-14 -1.516986711214921707e-14 1.802046162844347238e-14
3.419000000000000000e+03 7.165617370605468750e+01 -3.198824882507324219e+01 4.480725686317743595e-14 7.639179409489257888e-14 3.635971596504736225e-14 1.925862389755370746e-14
3.420000000000000000e+03 7.246703338623046875e+01 -3.028718757629394531e+01 -8.870144270240083728e-15 -3.801490220024404329e-15 -3.801490220024404329e-15 -4.044289588552713033e-14
3.421000000000000000e+03 7.196907043457031250e+01 -2.916886329650878906e+01 5.619831518004735071e-14 -6.741690403632913386e-14 -3.365576572181240220e-15 4.158530955027973930e-14
3.422000000000000000e+03 7.219895935058593750e+01 -2.763659858703613281e+01 7.708644920306761961e-14 3.303704965845755126e-14 3.303704965845755126e-14 -1.205574285827225658e-14
3.423000000000000000e+03 7.237605285644531250e+01 -2.638904762268066406e+01 1.918315665008513832e-14 -6.040507043126794318e-14 -1.236657345672848365e-14 2.127729992250446817e-14
3.424000000000000000e+03 7.228576660156250000e+01 -2.364006805419921875e+01 1.762279151816883993e-14 5.330357330654220127e-14 2.127790978622649126e-14 -9.090802790450228099e-14
3.425000000000000000e+03 7.115564727783203125e+01 -2.216721725463867188e+01 -1.037915752150932180e-13 -9.023305106575785217e-14 -5.820738585137624765e-14 8.483511338081353714e-14
3.426000000000000000e+03 7.147984313964843750e+01 -2.053488349914550781e+01 3.164933186404830789e-14 -1.465643199253380269e-13 -3.447449506313420009e-14 -1.234712608847929327e-13
3.427000000000000000e+03 7.256777954101562500e+01 -1.822765159606933594e+01 -3.393395251751439579e-14 1.119178534569886807e-14 -6.822650490357837216e-15 9.785883447977969385e-15
3.428000000000000000e+03 7.195346832275390625e+01 -1.682691764831542969e+01 -5.677549698283358703e-14 -1.158342492020222880e-13 -5.178292554952265703e-14 -6.371185317603084153e-14
3.429000000000000000e+03 7.212208557128906250e+01 -1.505145168304443359e+01 -5.166079695105574299e-14 -1.365177095717998168e-13 -5.645355331210938354e-14 -9.273241490014363930e-14
3.430000000000000000e+03 7.207376861572265625e+01 -1.362867355346679688e+01 3.744037076354976568e-14 -1.669579188443015560e-13 -3.885526476303871601e-14 -4.082042185825016101e-14
3.431000000000000000e+03 7.284191131591796875e+01 -1.200392532348632812e+01 1.152088475076147589e-14 1.421903637584612246e-13 4.611337489157998903e-14 -1.198442929097043308e-13
3.432000000000000000e+03 7.273590850830078125e+01 -1.039650726318359375e+01 1.471709174883165105e-13 8.594872453722771088e-14 6.993589193003690863e-14 -5.230348489385083788e-14
3.433000000000000000e+03 7.188073730468750000e+01 -9.700165748596191406e+00 1.337041371715641525e-13 2.403055781707158500e-13 1.122029105369258539e-13 -7.565495674594427400e-14
3.434000000000000000e+03 7.168280792236328125e+01 -6.640780925750732422e+00 1.246465360397672195e-13 1.220463617321310146e-13 7.400787068682218584e-14 -8.375239859818341126e-15
3.435000000000000000e+03 7.166760253906250000e+01 -8.950819015502929688e+00 -2.773555853301939988e-14 -1.491395169254255970e-13 -5.306252128228078346e-14 -6.071284154671868771e-14
3.436000000000000000e+03 7.471943664550781250e+01 -4.036003494262695312e+01 5.013868552110334331e-14 1.576913953419984554e-14 1.977234768599754611e-14 -2.211930996438155050e-14
3.437000000000000000e+03 7.330343627929687500e+01 -3.900614166259765625e+01 5.090862830576213527e-14 -1.097159946987329160e-13 -1.764220890145169751e-14 -6.508886447398679054e-14
3.438000000000000000e+03 7.431816864013671875e+01 -3.631255340576171875e+01 2.175468938564288635e-14 -1.021944979811770238e-13 -2.413194325628659903e-14 -8.560914564054167286e-14
3.439000000000000000e+03 7.429093933105468750e+01 -3.393615341186523438e+01 5.144348895437175773e-14 -9.233016234162436109e-14 -1.226600099973624430e-14 -9.522959677765729936e-14
3.440000000000000000e+03 7.405485534667968750e+01 -3.209092330932617188e+01 9.066231381089917551e-14 -2.356504206178777761e-13 -4.349642933158814895e-14 -1.484416769733688801e-15
3.441000000000000000e+03 7.355555725097656250e+01 -2.993212318420410156e+01 8.059405329522914552e-14 -6.839932672987256157e-14 3.658417461387206832e-15 -9.969415158857242165e-14
3.442000000000000000e+03 7.458531188964843750e+01 -2.728641891479492188e+01 1.012900904102075061e-13 -4.809186089724942770e-14 1.595946953151378134e-14 1.290713548410607481e-13
3.443000000000000000e+03 7.357946014404296875e+01 -2.666984939575195312e+01 4.248074873640372839e-14 7.539472111949344080e-14 3.536264298964822417e-14 -3.212677384322945584e-14
3.444000000000000000e+03 7.307414245605468750e+01 -2.351931190490722656e+01 2.742373690601488528e-14 -3.399791705755925153e-14 -1.972254384276488776e-15 2.790003708478313443e-14
3.445000000000000000e+03 7.347095489501953125e+01 -2.237275314331054688e+01 -1.040395576629290705e-14 -8.452299868040927255e-14 -2.847808794337325367e-14 2.495725658470740460e-14
3.446000000000000000e+03 7.435582733154296875e+01 -2.113476753234863281e+01 -7.541729962973545143e-14 5.918019980316602258e-14 -4.871131896146607340e-15 -9.000708300422113894e-14
3.447000000000000000e+03 7.400154876708984375e+01 -1.789217758178710938e+01 -2.928073636419142867e-14 -1.498017340598525871e-13 -5.372474180483956252e-14 6.228636025327289813e-15
3.448000000000000000e+03 7.341260528564453125e+01 -1.666647529602050781e+01 -8.710198361183696392e-14 1.456743796771076127e-13 1.757171881958119464e-14 7.895513940998216684e-14
3.449000000000000000e+03 7.548282623291015625e+01 -1.365998935699462891e+01 8.855442827594359190e-14 1.752047400389866727e-13 7.912775117210543718e-14 -8.583460548231003351e-14
3.450000000000000000e+03 7.525576782226562500e+01 -1.206060600280761719e+01 -6.349975612603836472e-14 1.100386668177917582e-13 1.396167286871283914e-14 -1.692450433271597277e-13
3.451000000000000000e+03 7.360932159423828125e+01 -1.274290752410888672e+01 2.083333268539881017e-14 -3.682237891336481717e-14 -4.796713275466739021e-15 -6.944614764432983922e-15
3.452000000000000000e+03 7.439213562011718750e+01 -1.103949737548828125e+01 1.048320840400275566e-14 -1.785109874589269063e-13 -5.040833337766406630e-14 -3.677650022080973524e-14
3.453000000000000000e+03 7.651737976074218750e+01 -4.201696395874023438e+01 9.125707324140683308e-14 -5.239172201003221285e-14 1.165960503059920716e-14 4.277781335540117857e-14
3.454000000000000000e+03 7.594105529785156250e+01 -3.943638992309570312e+01 6.419026416090364839e-14 -1.097427338348118397e-13 -1.366574157979881521e-14 4.168602854397185364e-14
3.455000000000000000e+03 7.551445770263671875e+01 -3.732861709594726562e+01 1.663705184360396439e-14 -1.288587495712999187e-14 1.125353044766368073e-15 5.323590553845194973e-14
3.456000000000000000e+03 7.525949096679687500e+01 -3.463390350341796875e+01 2.147494066118615583e-15 2.868637944374030635e-13 8.670338345938624625e-14 6.643374950631927844e-14
3.457000000000000000e+03 7.628388977050781250e+01 -3.207941055297851562e+01 3.568631121945303741e-14 -7.620776432864032057e-14 -1.215643559394300605e-14 6.376750662879723808e-14
3.458000000000000000e+03 7.593717956542968750e+01 -3.028517341613769531e+01 1.886887015720411370e-14 1.224640370665538991e-13 4.239987064246809878e-14 3.258010248846816836e-14
3.459000000000000000e+03 7.505954742431640625e+01 -2.998810577392578125e+01 9.219660896276488105e-14 -6.238115171040012688e-15 2.578754877279217095e-14 5.402050876936181911e-14
3.460000000000000000e+03 7.545197296142578125e+01 -2.806717872619628906e+01 -3.083411347429287908e-14 -1.047165148647041799e-13 -4.066518782407275989e-14 -7.923941552554197160e-15
3.461000000000000000e+03 7.548580169677734375e+01 -2.548303604125976562e+01 5.254523148512900421e-14 -2.323156417401422286e-14 8.794100193334434407e-15 5.839119200093043083e-14
3.462000000000000000e+03 7.605722808837890625e+01 -2.325618362426757812e+01 -8.352837871242538292e-14 -2.645526213460730469e-13 -1.044243020504286024e-13 -1.229140487307711638e-13
3.463000000000000000e+03 7.505097198486328125e+01 -2.337903785705566406e+01 5.659410826531086763e-15 -8.907643774067747211e-14 -2.502510731191426308e-14 2.312306602973452502e-14
3.464000000000000000e+03 7.495967864990234375e+01 -1.997118949890136719e+01 2.446729842318115349e-15 1.048598413097090801e-15 1.048598413097090801e-15 -5.791126313301614426e-14
3.465000000000000000e+03 7.540332794189453125e+01 -1.838526535034179688e+01 1.481413868529082856e-13 -7.376368125252413810e-14 2.231331100248888644e-14 -1.325754556049524302e-13
3.466000000000000000e+03 7.514606475830078125e+01 -1.656087493896484375e+01 4.142855424492906946e-14 -9.662227479700566390e-14 -1.655811684324933614e-14 -4.502167139531360052e-14
3.467000000000000000e+03 7.796549224853515625e+01 -1.425821208953857422e+01 -2.091792044483023472e-13 7.048009365798885151e-14 -4.160973120421497529e-14 -1.159826290455905073e-14
3.468000000000000000e+03 7.665041351318359375e+01 -4.104456329345703125e+01 6.559189362443859639e-14 -1.091420316211462460e-13 -1.306504106019911599e-14 6.059265095963509151e-14
3.469000000000000000e+03 7.656315612792968750e+01 -3.861332321166992188e+01 3.451125629304503672e-14 -8.084937104838822025e-15 7.927895502351980234e-15 2.081432018386474014e-14
3.470000000000000000e+03 7.804284667968750000e+01 -3.505090713500976562e+01 4.309801213825403821e-14 -2.102841690923909490e-13 -5.015584640861471544e-14 7.927378642847565660e-14
3.471000000000000000e+03 7.794594573974609375e+01 -3.428204345703125000e+01 -2.603195885917297843e-15 1.132617152735208854e-13 3.319755562569866314e-14 -5.720781243471681488e-14
3.472000000000000000e+03 7.772093963623046875e+01 -3.277828979492187500e+01 6.648118335136551926e-14 7.424288506023557499e-14 4.221722323398575949e-14 -5.864272690494706786e-14
3.473000000000000000e+03 7.766239929199218750e+01 -3.072763442993164062e+01 1.142494302289187580e-14 4.896404394677360272e-15 4.896404394677360272e-15 -9.797617225989693757e-14
3.474000000000000000e+03 7.702651214599609375e+01 -2.900275993347167969e+01 6.777931894127314782e-14 7.479922985251935552e-14 4.277356463813775100e-14 -2.725353410559360617e-14
3.475000000000000000e+03 7.713780212402343750e+01 -2.663163185119628906e+01 7.213836732827827447e-14 -1.063364010018240380e-13 -1.025941128790985521e-14 -5.791891353459574510e-14
3.476000000000000000e+03 7.804139709472656250e+01 -2.516723632812500000e+01 -6.082069255782668327e-14 -2.090698084490985598e-13 -8.096714759157214170e-14 6.865192550727095000e-14
3.477000000000000000e+03 7.813787078857421875e+01 -2.360596275329589844e+01 -5.854238399388353442e-14 -2.538443359591940895e-13 -9.371601666354964499e-14 -1.008202903622764865e-14
3.478000000000000000e+03 7.820794677734375000e+01 -2.206849670410156250e+01 -8.075472358686202473e-15 -3.460916694900052944e-15 -3.460916694900052944e-15 7.321509528203720696e-14
3.479000000000000000e+03 7.677909851074218750e+01 -2.064941024780273438e+01 -3.537317669138027865e-14 -1.515993310974381864e-14 -1.515993310974381864e-14 -1.200462797744383803e-13
3.480000000000000000e+03 7.657712554931640625e+01 -1.924294090270996094e+01 -3.944772365206163089e-14 -8.553258741463704018e-14 -3.749409298119642242e-14 -4.346292409632655784e-14
3.481000000000000000e+03 7.805022430419921875e+01 -1.664227294921875000e+01 3.539283463202015645e-14 6.091930752167781793e-14 2.889364230729621341e-14 4.678400136910731977e-14
3.482000000000000000e+03 7.960739135742187500e+01 -1.578742408752441406e+01 -1.348030709410683037e-13 2.624839093908620802e-13 3.830424611392727052e-14 -3.461193462915568286e-14
3.483000000000000000e+03 7.801912689208984375e+01 -1.587125968933105469e+01 -1.383996948078544675e-13 -1.508160458497942447e-13 -8.676472219729461366e-14 2.137572980965662776e-15
3.484000000000000000e+03 7.850316619873046875e+01 -4.206525039672851562e+01 8.571406252952037952e-14 1.282364920631925975e-13 6.418516841069296652e-14 -5.382468830448378094e-14
3.485000000000000000e+03 7.956986236572265625e+01 -4.208028030395507812e+01 -4.072348063150280084e-15 8.975660519732267528e-14 2.570527646262536076e-14 4.890429000750954810e-15
3.486000000000000000e+03 7.811999511718750000e+01 -3.967128753662109375e+01 1.381690477363171216e-14 -1.542067932765525673e-13 -4.211696502621695148e-14 4.213933347228804305e-14
3.487000000000000000e+03 7.796913909912109375e+01 -3.882312393188476562e+01 3.245964085084145079e-14 -5.471515032500970377e-14 -6.676652503437296993e-15 1.433153996952679643e-14
3.488000000000000000e+03 7.827691650390625000e+01 -3.627598571777343750e+01 8.121900097997694634e-14 1.491855142025932945e-13 6.912135794290286128e-14 3.469210121541561886e-14
3.489000000000000000e+03 7.878398132324218750e+01 -3.489692306518554688e+01 7.151987911678623494e-15 1.403179872641602266e-13 4.424099162101541305e-14 4.429038380623570581e-14
3.490000000000000000e+03 7.868595886230468750e+01 -3.340375518798828125e+01 1.968856765718462326e-14 9.993985212964837106e-14 3.588852508901695104e-14 -8.055390393352929168e-14
3.491000000000000000e+03 7.850012207031250000e+01 -3.170918846130371094e+01 -3.318815694811592942e-14 5.440292720438819063e-14 6.364430653365204735e-15 -1.006486357473836135e-13
3.492000000000000000e+03 7.956542968750000000e+01 -2.930777168273925781e+01 -3.238912027578484676e-14 3.186989924351332770e-14 -1.557665399685382516e-16 -5.326645971092530685e-14
3.493000000000000000e+03 7.876203918457031250e+01 -2.763499069213867188e+01 4.784117980244362300e-14 -2.524758559770828859e-14 6.778077922607421424e-15 6.858734093910870411e-14
3.494000000000000000e+03 7.880168914794921875e+01 -2.604742431640625000e+01 -4.164291371992366250e-15 -4.753564485397362982e-14 -1.550998133365791981e-14 -2.802149822128761208e-14
3.495000000000000000e+03 7.884791564941406250e+01 -2.446262550354003906e+01 3.816983892585695815e-14 -5.226791967446152432e-14 -4.229424393987959302e-15 -8.052287542260547215e-14
3.496000000000000000e+03 7.889850616455078125e+01 -2.288688659667968750e+01 -7.623122036501568666e-15 -4.901799994551370165e-14 -1.699233642519799165e-14 -1.292251760242821290e-14
3.497000000000000000e+03 7.964183044433593750e+01 -2.055301856994628906e+01 4.343664913430272945e-14 6.436665707810346193e-14 3.234099186372185741e-14 -4.647533239873248567e-14
3.498000000000000000e+03 7.888838958740234375e+01 -1.897157859802246094e+01 9.143608857261134593e-15 -2.248360596009482681e-13 -6.470773352904024556e-14 5.157562270601163956e-14
3.499000000000000000e+03 7.885284423828125000e+01 -1.739401626586914062e+01 1.412496388028452315e-14 5.180450456088690758e-14 1.977884104057119757e-14 -1.494418534774867580e-14
3.500000000000000000e+03 7.962012481689453125e+01 -1.737637901306152344e+01 -5.244827331772269896e-14 9.189953756750385283e-14 1.183537961374752506e-14 -1.088112838899682813e-14
3.501000000000000000e+03 7.894744110107421875e+01 -9.318009376525878906e+00 1.062513521176561282e-13 -9.171655134584261182e-14 4.360440909170412715e-15 5.879049688479326408e-14
3.502000000000000000e+03 7.959511566162109375e+01 -6.191913127899169922e+00 1.151184318226930459e-13 -1.336673285078082696e-13 -5.564666379732430626e-15 1.357151594068035233e-14
3.503000000000000000e+03 7.799724578857421875e+01 -5.328929424285888672e+00 4.474612480130819858e-14 -3.925816377710333871e-13 -1.043506508415989464e-13 -2.923774097178880038e-14
3.504000000000000000e+03 7.528920745849609375e+01 -3.125965356826782227e+00 -3.988719483828326307e-14 -2.000983065223241320e-13 -7.199565244106129192e-14 1.184583437200889544e-13
3.505000000000000000e+03 7.360409545898437500e+01 -1.934721946716308594e+00 -3.093400237569668421e-14 9.618043869479529773e-15 -6.394787890678325232e-15 1.034100512468591471e-13
3.506000000000000000e+03 7.234974670410156250e+01 9.346752762794494629e-01 -9.318950775979994994e-14 1.888163833185102503e-13 2.868806063473401669e-14 7.918154792865145231e-14
3.507000000000000000e+03 7.874421691894531250e+01 -6.986583709716796875e+00 -1.429115576794231634e-15 -3.437445911681075161e-13 -1.035521156127726383e-13 8.234980351708859336e-14
3.508000000000000000e+03 7.880480194091796875e+01 -5.362504959106445312e+00 1.777545057218658797e-14 -1.753857475916831277e-13 -4.728309012228849861e-14 -1.634989751008938952e-14
3.509000000000000000e+03 7.715120697021484375e+01 -3.737874269485473633e+00 -1.001046745767886909e-14 -2.330449472721235482e-13 -7.291662120021552562e-14 -1.593082491011671431e-13
3.510000000000000000e+03 7.350264739990234375e+01 1.112460851669311523e+00 -5.845605439589937613e-14 -1.279922348662587694e-13 -5.593448474576837026e-14 -2.292010846524292211e-14
3.511000000000000000e+03 7.420030975341796875e+01 1.481894373893737793e+00 2.359528859189469197e-15 2.960557011133166383e-14 9.589529352343161006e-15 -3.392343575644128639e-14
3.512000000000000000e+03 7.300852966308593750e+01 6.647843122482299805e-01 -4.948688350379579215e-14 -8.983508788208346973e-14 -4.179659344864285198e-14 -6.403373247225105369e-14
3.513000000000000000e+03 7.213220977783203125e+01 1.782674491405487061e-01 -1.109501284791460096e-13 -1.390519508348217470e-13 -7.500062718232211600e-14 4.908083962580460369e-14
3.514000000000000000e+03 7.960486602783203125e+01 -3.798281192779541016e+00 4.029297444199490819e-14 -3.944901317502053084e-13 -1.062591448207708678e-13 2.710045492323402000e-14
3.515000000000000000e+03 7.961357879638671875e+01 -2.206104755401611328e+00 1.719017723306182077e-13 -2.465844640021225276e-13 -2.240480241925361243e-14 1.870004293828917558e-14
3.516000000000000000e+03 7.802518463134765625e+01 -2.141087532043457031e+00 6.321517338455165391e-14 2.709221837485491918e-14 2.709221837485491918e-14 1.533158264243900809e-14
3.517000000000000000e+03 7.541960144042968750e+01 4.602200090885162354e-01 -1.296088074104889687e-13 1.274571675416100169e-13 -6.454949041031772354e-16 -1.630057478157077161e-14
3.518000000000000000e+03 7.528448486328125000e+01 1.526832580566406250e+00 -5.813851868463268402e-14 1.323523810079635377e-13 2.226415768055971939e-14 -9.791545016197417128e-14
3.519000000000000000e+03 7.481329345703125000e+01 2.054600238800048828e+00 1.050010671130047896e-14 -4.125090433083553054e-14 -9.225239116453926025e-15 1.411787760264779368e-13
3.520000000000000000e+03 7.960710906982421875e+01 -3.001898288726806641e+00 -1.156937230479410106e-13 -2.325868176441397983e-13 -1.044841635628769583e-13 -3.421705125727751706e-14
3.521000000000000000e+03 7.962589263916015625e+01 -1.412582635879516602e+00 -2.205830190813579117e-13 -2.775393847034846040e-13 -1.494367238459581859e-13 -3.853896910800680420e-14
3.522000000000000000e+03 7.829549407958984375e+01 1.904179453849792480e-01 -3.508737625532859505e-13 -5.163820759879200750e-13 -2.601767542728672389e-13 -1.202119729714484775e-13
3.523000000000000000e+03 7.787566375732421875e+01 2.194026231765747070e+00 -2.369207227051386283e-14 3.559720335340188502e-14 3.571538986053227754e-15 -8.886566883834629005e-14
3.524000000000000000e+03 7.533187103271484375e+01 2.653236865997314453e+00 1.002392681121073992e-13 1.344615879143168380e-13 7.041025748555362895e-14 -6.920815510307390395e-14
3.525000000000000000e+03 7.881214141845703125e+01 -2.979659318923950195e+00 1.169058610767798045e-13 -2.244031783310562744e-13 -3.224919720916201438e-14 3.687705319604418774e-14
3.526000000000000000e+03 7.966016387939453125e+01 1.686663329601287842e-01 -6.983848720686081091e-13 -6.195644583310844222e-13 -3.953847882778860345e-13 -4.322513755348339481e-13
3.527000000000000000e+03 7.897814941406250000e+01 1.612243801355361938e-01 -4.197210341869844763e-13 -2.713823360912109850e-13 -2.073310192149749320e-13 -5.000804932371420708e-14
3.528000000000000000e+03 7.904200744628906250e+01 1.693149566650390625e+00 -3.554200391029521677e-13 -6.098323343702027888e-13 -2.895757093314410557e-13 4.405292320167064624e-13
3.529000000000000000e+03 7.960228729248046875e+01 4.998154163360595703e+00 9.627993118477978784e-14 -5.023907247788013397e-14 1.381225710385012781e-14 5.559928500941963697e-15
3.530000000000000000e+03 7.875917816162109375e+01 6.600423336029052734e+00 -9.491844430668111565e-14 5.071615277399280433e-15 -2.695404866643290320e-14 -2.048111944527152700e-14
3.531000000000000000e+03 7.623718261718750000e+01 6.083913326263427734e+00 -6.163741527809643572e-14 -4.381745617385024438e-13 -1.499436019141223153e-13 3.577572740549699037e-14
3.532000000000000000e+03 7.671971893310546875e+01 6.748690605163574219e+00 -1.879569227038538348e-13 -3.093077009796996180e-13 -1.491793884603187514e-13 1.704584857867372932e-14
3.533000000000000000e+03 7.575354766845703125e+01 5.331775188446044922e+00 7.138601233573627081e-14 -8.378336273460323946e-14 -3.719204780846911695e-15 3.087828454842629633e-14
3.534000000000000000e+03 7.576304626464843750e+01 3.795067071914672852e+00 6.948262088303860939e-14 -1.597268493955684293e-14 1.605298027482476159e-14 4.161837094027696915e-14
3.535000000000000000e+03 7.683970642089843750e+01 2.882150888442993164e+00 -2.985416005119728711e-13 -8.219545378530812574e-14 -1.142211189996897303e-13 1.802646302628135855e-13
3.536000000000000000e+03 7.714340972900390625e+01 2.385334253311157227e+00 1.609400817909750758e-13 1.604762194440043088e-13 9.642488901524109979e-14 3.570864324310739704e-15
3.537000000000000000e+03 7.965673065185546875e+01 2.548583269119262695e+00 -2.649129830431529165e-13 -2.507869671479479035e-13 -1.547099850573302460e-13 1.023938421031156398e-13
3.538000000000000000e+03 6.959238433837890625e+01 8.106178283691406250e+00 -7.546974113356585967e-14 1.506596225813588985e-13 2.255696341789837495e-14 -2.300335825143086377e-14
3.539000000000000000e+03 3.194191169738769531e+01 -1.887193322181701660e-02 -3.924647065667308254e-13 1.063065312319720623e-13 -8.584745327805398674e-14 -8.239792515288800467e-15
3.540000000000000000e+03 3.240366744995117188e+01 -6.735481023788452148e-01 -9.938398167581505294e-14 1.032380154671400097e-13 1.156210666793079048e-15 7.724247267195186173e-14
3.541000000000000000e+03 3.255438232421875000e+01 4.909557700157165527e-01 -1.361270173189446653e-13 -1.258920166735417318e-14 -4.461486518766988318e-14 -4.065171661207962750e-14
3.542000000000000000e+03 3.044362831115722656e+01 -2.254668176174163818e-01 -9.843042586511405179e-14 9.506837591460870485e-14 -1.008615493371372435e-15 -3.015534192794475099e-14
3.543000000000000000e+03 2.958251953125000000e+01 -1.157606467604637146e-01 -1.969553670546145274e-13 2.815981497462927141e-13 2.539283650156935052e-14 -9.799594539701764195e-14
3.544000000000000000e+03 2.844877052307128906e+01 -1.145930767059326172e+00 -2.309049930697849168e-14 4.018625981028894900e-13 1.136316315022457835e-13 -6.210922618224423708e-14
3.545000000000000000e+03 2.945816230773925781e+01 -7.767059206962585449e-01 -1.505855851255052946e-14 4.053048586853680302e-13 1.170738988609879017e-13 -9.078044441385504926e-14
3.546000000000000000e+03 3.009393692016601562e+01 -1.702254652976989746e+00 1.028217631480685124e-13 2.728212078993708101e-13 1.126928953799899435e-13 1.212484550017515691e-14
3.547000000000000000e+03 3.591833114624023438e+01 -4.084320068359375000e+00 3.732290169332569754e-15 -8.418347399383185881e-14 -2.413535510499813935e-14 4.469747461694970059e-14
3.548000000000000000e+03 3.738413619995117188e+01 -4.978352069854736328e+00 -4.740532375284087219e-14 -3.119788769771064674e-13 -1.078152595413578441e-13 3.142112424739905430e-14
3.549000000000000000e+03 3.725427627563476562e+01 -6.021252632141113281e+00 -7.279563101402972136e-14 -2.142019200901401632e-13 -8.609926600887732318e-14 5.964324222224384742e-14
3.550000000000000000e+03 3.976202392578125000e+01 -7.154730796813964844e+00 1.631958389497305262e-14 -2.217606388235301984e-13 -6.163231952788575385e-14 4.154865335245436220e-14
3.551000000000000000e+03 3.954879760742187500e+01 -8.268876075744628906e+00 -1.373937178221137922e-13 -4.477660917826670195e-13 -1.755479442366869591e-13 6.967595445918350894e-14
3.552000000000000000e+03 4.083266448974609375e+01 -1.006919002532958984e+01 -9.130630957256483105e-14 -8.488222196520803231e-14 -5.285656013895821681e-14 5.691177780778322592e-14
3.553000000000000000e+03 4.091713714599609375e+01 -9.022240638732910156e+00 -1.181124696745389224e-13 4.088226881592688100e-14 -2.316905822470453902e-14 1.785521329313727312e-13
3.554000000000000000e+03 4.013379669189453125e+01 -7.834024429321289062e+00 -1.095282888094895740e-14 -1.419469197131567606e-13 -4.586992407001194705e-14 2.161694624301310763e-13
3.555000000000000000e+03 4.071614074707031250e+01 -7.451409339904785156e+00 4.018139309778720469e-14 -2.458473691551582574e-13 -6.169979078433224240e-14 8.283508563322952711e-14
3.556000000000000000e+03 3.893495178222656250e+01 -5.750445842742919922e+00 4.945204334460932827e-14 -2.990629120215582137e-13 -7.488326229715056015e-14 1.070795606046906490e-13
3.557000000000000000e+03 3.784781646728515625e+01 -5.599092483520507812e+00 2.181161847002784787e-14 -1.507804840185367201e-13 -3.869065915633289332e-14 1.041243914007283777e-13
3.558000000000000000e+03 3.935890197753906250e+01 -9.398699760437011719e+00 -1.625703423876329046e-13 -3.899296521520795311e-13 -1.657499956514082995e-13 1.130038174580044741e-13
3.559000000000000000e+03 4.152059173583984375e+01 -1.214729881286621094e+01 3.923924512681982446e-14 -3.491907826259910141e-13 -9.298546091093817800e-14 5.984438883029422063e-14
3.560000000000000000e+03 4.079699707031250000e+01 -1.485135650634765625e+01 2.789899015206032812e-14 -5.370546672309184366e-13 -1.527467117633934945e-13 -1.224431390696792410e-13
3.561000000000000000e+03 3.007739639282226562e+01 -2.565696477890014648e+00 -9.699725289462335365e-14 1.643090232015392838e-13 2.019352804275616892e-14 2.411735226673719645e-14
3.562000000000000000e+03 4.931840515136718750e+01 -3.857748270034790039e+00 -2.596333250389631919e-13 -2.027733314374433049e-13 -1.387220010086800959e-13 4.034577169966316323e-14
3.563000000000000000e+03 4.716412353515625000e+01 -3.224664926528930664e+00 -2.675518227107653857e-13 4.716309943498045443e-15 -7.885065620187245439e-14 5.548909449331132504e-14
3.564000000000000000e+03 4.591132736206054688e+01 -3.109589338302612305e+00 -1.996803601373581261e-13 7.455102209391953338e-14 -3.753880276828429341e-14 -5.255476907611508763e-14
3.565000000000000000e+03 4.505766296386718750e+01 -3.160112142562866211e+00 -1.564072900058291471e-13 -4.415622395178599169e-14 -6.016905317084500493e-14 4.005273641639580176e-15
3.566000000000000000e+03 5.161203002929687500e+01 -4.770807266235351562e+00 -2.681681645407690828e-13 -2.342731687625648068e-14 -8.747864222282200619e-14 4.155508402658991685e-14
3.567000000000000000e+03 4.416516113281250000e+01 -3.236023426055908203e+00 -1.259868809755024244e-13 -1.912472187993313755e-13 -9.517022993245013995e-14 -3.820738281421105775e-14
3.568000000000000000e+03 6.738960266113281250e+01 -4.046109676361083984e+00 1.318029208994750401e-13 1.479888667122938872e-13 8.393753628353067819e-14 -2.368934651848959849e-14
3.569000000000000000e+03 7.206233215332031250e+01 -1.127556991577148438e+01 8.253452615629170569e-15 -8.796470360927441390e-14 -2.391337487457709937e-14 -4.407918122303552955e-14
3.570000000000000000e+03 7.207687377929687500e+01 -1.284788990020751953e+01 -4.477856277505624927e-14 -6.494176534423481972e-14 -3.291609674172142619e-14 1.562443073142502636e-14
3.571000000000000000e+03 7.200981903076171875e+01 -1.436833763122558594e+01 -1.498897983813127222e-13 -2.929932229993326143e-13 -1.328649104799517477e-13 -9.333206001669105967e-14
3.572000000000000000e+03 7.148201751708984375e+01 -1.550739765167236328e+01 -2.269855446180094050e-13 -1.887814177984475927e-13 -1.247300873696843837e-13 -1.241296697590890674e-13
3.573000000000000000e+03 7.081456756591796875e+01 -1.599330043792724609e+01 -8.659701645000184023e-14 -3.711300608196313466e-14 -3.711300608196313466e-14 -1.525107893706606488e-13
3.574000000000000000e+03 6.866240692138671875e+01 7.442517280578613281e+00 -1.790683893483288602e-13 -1.224945438051822100e-13 -9.046887859080060545e-14 -2.203795414386366947e-14
3.575000000000000000e+03 7.012605285644531250e+01 7.274321556091308594e+00 4.251016110846418672e-14 -1.419096773685318835e-13 -2.981985589445984575e-14 -9.656643838512266043e-14
3.576000000000000000e+03 6.887911224365234375e+01 5.757098674774169922e+00 -8.393603872927993259e-14 9.778361795406351198e-15 -2.224730172490935881e-14 -1.423911715533326960e-13
3.577000000000000000e+03 6.436463928222656250e+01 5.565052509307861328e+00 1.022517235270935243e-13 4.382216770991605170e-14 4.382216770991605170e-14 8.391515597899832507e-15
3.578000000000000000e+03 6.940129852294921875e+01 3.960282325744628906e+00 -9.339110837751005145e-15 4.174847181284344066e-14 9.722808292527730656e-15 -4.930361945532785173e-14
3.579000000000000000e+03 6.344118499755859375e+01 2.497181415557861328e+00 1.905734345829766807e-14 -1.977118420154119760e-13 -5.359634855069475567e-14 -1.013816106260924388e-13
3.580000000000000000e+03 6.214843368530273438e+01 1.805380225181579590e+00 2.174766849894968490e-13 7.032882034987281150e-14 8.634165295706361376e-14 -1.047463507532382654e-13
3.581000000000000000e+03 4.507994079589843750e+01 2.873130321502685547e+00 -1.848038052882500226e-13 -4.488841617205155399e-14 -6.890766847096954639e-14 -8.177125290905959409e-14
3.582000000000000000e+03 4.544042968750000000e+01 -9.981254935264587402e-01 -3.020807345585629911e-13 3.066515073010638026e-14 -8.142467413209744653e-14 -1.213611781463721714e-14
3.583000000000000000e+03 4.783063888549804688e+01 -1.355250239372253418e+00 -1.625000454292743757e-13 6.760996656193091203e-14 -2.846702569308211250e-14 -5.706946315530998098e-15
3.584000000000000000e+03 4.417268371582031250e+01 -1.421192407608032227e+00 -1.257385851254760878e-13 -9.963891826414786324e-14 -6.761325304976625872e-14 -2.108765432781191385e-14
3.585000000000000000e+03 4.484947204589843750e+01 -4.545645713806152344e+00 -5.731175354174028458e-14 1.126906659892727702e-13 1.661367373425974570e-14 -6.849215476462805485e-14
3.586000000000000000e+03 4.772105026245117188e+01 1.760177493095397949e+00 -2.712182420924053039e-13 2.497712052376005465e-13 -6.434109277672237989e-15 1.396983572522552883e-14
3.587000000000000000e+03 4.756099319458007812e+01 3.106962919235229492e+00 -1.631998843790866127e-13 -1.385692369225768883e-13 -9.053073232474090348e-14 -9.743026121945743551e-15
3.588000000000000000e+03 4.749284744262695312e+01 3.659730672836303711e+00 -1.037566029187669825e-13 1.385366837523480110e-13 1.043402289482159295e-14 -1.050832123682295116e-13
3.589000000000000000e+03 4.793023681640625000e+01 2.341210365295410156e+00 -2.783562497252894952e-13 1.323346814074977118e-13 -4.380646710720574599e-14 -7.767350402188705205e-14
3.590000000000000000e+03 4.881585693359375000e+01 -3.903181254863739014e-01 -2.082758743032417370e-13 9.374270836578352251e-14 -3.435994910361110655e-14 2.953184436360264953e-14
3.591000000000000000e+03 4.918445587158203125e+01 -7.966413497924804688e-01 -1.201461618995786074e-13 2.230144779784282161e-13 3.086049685653395602e-14 2.587640930522272509e-13
3.592000000000000000e+03 5.127590179443359375e+01 -3.187860727310180664e+00 -2.559454926644166850e-13 -1.096909225234941887e-13 -1.096909225234941887e-13 9.810107235016726768e-14
3.593000000000000000e+03 5.306885147094726562e+01 -4.725536823272705078e+00 -1.200017326176763821e-13 1.315744795017323443e-13 3.471825208711267451e-15 7.199516455008367344e-14
3.594000000000000000e+03 5.484976577758789062e+01 -6.504010677337646484e+00 -6.610783155700655778e-14 6.316996893022258641e-14 -8.813572104363271483e-16 1.701372468474252053e-13
3.595000000000000000e+03 5.744213104248046875e+01 -9.947996139526367188e+00 -2.056665384872480296e-13 1.634874147952297685e-13 -1.265373795463842557e-14 4.855089515642084519e-14
3.596000000000000000e+03 5.177154541015625000e+01 2.446476221084594727e+00 -3.751979873707969593e-14 7.542198202786787320e-14 1.137065583426940044e-14 1.010231124014965287e-13
3.597000000000000000e+03 5.083208465576171875e+01 2.606288433074951172e+00 -1.848957591850039495e-13 2.638910682854767042e-13 2.369859781233950996e-14 3.262398557139951916e-14
3.598000000000000000e+03 5.513502120971679688e+01 -7.021828293800354004e-01 -1.132145457027541879e-13 8.873232552365772907e-14 -7.344665037289400955e-15 4.148155479050466554e-14
3.599000000000000000e+03 5.695396423339843750e+01 -1.801301002502441406e+00 -7.918795149773269482e-14 -2.169414821395765358e-13 -8.883882805831369578e-14 1.257759223377910573e-13
3.600000000000000000e+03 5.817127609252929688e+01 -4.100934505462646484e+00 -1.974492618017631429e-13 2.127600531734788469e-13 4.593237750327890112e-15 -2.309625574288803190e-14
3.601000000000000000e+03 5.862982177734375000e+01 -6.725311279296875000e-01 -8.992494113712820591e-14 -4.425812879160426205e-14 -4.025492233387245600e-14 2.994943499473080861e-14
3.602000000000000000e+03 5.607330703735351562e+01 4.892113208770751953e-01 -4.494797614077068737e-14 -1.926341810403516680e-14 -1.926341810403516680e-14 2.917113368894851122e-14
3.603000000000000000e+03 5.110382843017578125e+01 4.693812727928161621e-01 -3.132197734685704393e-13 5.875236515557376998e-15 -9.220335812128860331e-14 4.138209956996985461e-14
3.604000000000000000e+03 5.252778244018554688e+01 1.185254693031311035e+00 -3.139044200354407232e-13 3.703559404684766965e-14 -8.306064711895155828e-14 -9.696789812080330861e-14
3.605000000000000000e+03 5.814631271362304688e+01 1.469724893569946289e+00 7.417777194351424241e-14 5.466594787516959597e-14 3.865311526797879371e-14 -1.110162461769427858e-14
3.606000000000000000e+03 5.783285903930664062e+01 4.755589663982391357e-01 -3.183063418421040736e-14 2.379885297078970785e-13 6.184736425253467562e-14 -3.363583080139877224e-15
3.607000000000000000e+03 5.936732864379882812e+01 1.197485208511352539e+00 6.101769886883087746e-14 7.190139461469083337e-14 3.987572601217743984e-14 9.158745674841747841e-14
3.608000000000000000e+03 6.001216506958007812e+01 1.773379921913146973e+00 -6.533971497538204609e-14 2.007520126696971108e-13 4.062368998592087721e-14 -4.474192351788981725e-14
3.609000000000000000e+03 6.205927276611328125e+01 1.000234484672546387e+00 -1.709367375294160163e-14 -2.589560781519201216e-13 -8.281492624908487477e-14 -1.024886149255180290e-13
3.610000000000000000e+03 6.175360488891601562e+01 5.085294246673583984e-01 -1.587760142546940090e-13 -9.092233937317908965e-14 -7.490950676598828739e-14 -1.641183255919262396e-13
3.611000000000000000e+03 6.446107482910156250e+01 5.174640417098999023e-01 -6.864081921126655161e-14 -2.124212942046857511e-13 -8.431863334715933300e-14 -1.350206567645589883e-13
3.612000000000000000e+03 6.584064483642578125e+01 -7.800161838531494141e-01 -1.977316964676956168e-13 -3.327233508241406179e-14 -6.930120675452747236e-14 -1.776069796875084927e-13
3.613000000000000000e+03 6.713749694824218750e+01 -1.859268903732299805e+00 -1.956785563661869731e-13 7.639661201829656134e-15 -5.641166583880176388e-14 -7.937882529019876787e-14
3.614000000000000000e+03 6.716662597656250000e+01 2.411947727203369141e+00 -2.881269983885659247e-14 -1.234830041495736663e-14 -1.234830041495736663e-14 -2.645180081917164472e-13
3.615000000000000000e+03 6.962311553955078125e+01 1.967558741569519043e+00 -1.656285785606170791e-13 1.120201208269083759e-13 -1.608253833655214765e-14 -3.427062439712545705e-14
3.616000000000000000e+03 6.877713775634765625e+01 8.480301499366760254e-01 -7.547108961001788852e-14 5.915714695447354954e-14 -4.894184321322606751e-15 -1.434232778114302720e-13
3.617000000000000000e+03 7.152341461181640625e+01 3.517466187477111816e-01 -2.053992013365674163e-13 2.634914347528303363e-14 -5.371501786660508315e-14 1.880081783615580870e-14
3.618000000000000000e+03 5.345554733276367188e+01 3.677828073501586914e+00 5.304786422416149505e-14 -6.876709488304322271e-14 -4.715769959994170826e-15 1.146635819062810646e-13
3.619000000000000000e+03 5.264532852172851562e+01 3.957496881484985352e+00 -1.051430467756235554e-13 1.836934331858261493e-13 2.356511727831349379e-14 1.456010334001389683e-14
3.620000000000000000e+03 5.319918823242187500e+01 5.479069232940673828e+00 -1.077085062849494901e-13 -6.903626162488990525e-14 -5.302343240583089201e-14 -3.884955914910601105e-14
3.621000000000000000e+03 5.407373809814453125e+01 7.428812503814697266e+00 9.126407312168294261e-15 -1.333415257549763755e-13 -3.726453688809513998e-14 -5.974629563873859461e-14
3.622000000000000000e+03 5.364201736450195312e+01 8.193686485290527344e+00 -4.175647119199731028e-14 -1.789563099487481712e-14 -1.789563099487481712e-14 -1.074913609185913776e-13
3.623000000000000000e+03 5.120168304443359375e+01 7.917574405670166016e+00 3.009989515121748449e-14 -6.716420361497707492e-14 -1.111929287794105603e-14 -4.656027032158430515e-15
3.624000000000000000e+03 5.104991149902343750e+01 7.027174472808837891e+00 -1.185346308954504657e-13 -5.049608937913140083e-15 -3.707527245822885009e-14 4.744126844299055568e-14
3.625000000000000000e+03 5.073217391967773438e+01 5.713830947875976562e+00 -6.298909690279769213e-14 4.163109676327651776e-14 -6.407399787746468137e-15 6.457077846586459224e-14
3.626000000000000000e+03 5.218117904663085938e+01 5.214972019195556641e+00 -6.765057670955407221e-14 3.999220388444663099e-13 9.968143931810002911e-14 -6.071950261381589553e-14
3.627000000000000000e+03 5.351068496704101562e+01 6.153262615203857422e+00 -1.641784717074448730e-13 2.270189651499762706e-13 1.885214633869352480e-14 -4.271031160576858887e-14
3.628000000000000000e+03 5.361849212646484375e+01 4.442673683166503906e+00 -5.517884665352280893e-14 1.136047703934224551e-13 1.752777813840943055e-14 -2.298511993801058417e-14
3.629000000000000000e+03 4.918774032592773438e+01 8.589631080627441406e+00 -4.385291839403317182e-14 2.695684048702705338e-14 -5.068823456805130259e-15 2.599801342088869927e-13
3.630000000000000000e+03 5.015262985229492188e+01 7.223823070526123047e+00 -1.294794891963657602e-13 2.190144902458959764e-13 2.686050065367224376e-14 5.666940441212409141e-14
3.631000000000000000e+03 7.838437652587890625e+01 9.298703670501708984e-01 -3.444381281927921812e-13 -2.162427680495182525e-13 -1.682042634516822677e-13 1.347899249897269169e-13
3.632000000000000000e+03 7.581221008300781250e+01 1.055153012275695801e+00 -1.909526546215942200e-13 -1.275878003508673642e-13 -9.556213513648575963e-14 -4.934545610665863613e-14
3.633000000000000000e+03 6.741402435302734375e+01 -2.334379851818084717e-01 -1.825345836937650179e-13 -7.822911020144082683e-14 -7.822911020144082683e-14 -8.442799546504523023e-14
3.634000000000000000e+03 6.572332000732421875e+01 1.309537768363952637e+00 -1.540392704883764008e-13 2.548506991919587128e-14 -3.856625712143554874e-14 -2.157670878988673935e-13
3.635000000000000000e+03 6.413064575195312500e+01 1.330578804016113281e+00 -5.539571419307422195e-14 -6.949196535051271884e-14 -3.746630352426290334e-14 -2.223665587601508786e-13
3.636000000000000000e+03 6.380112075805664062e+01 -1.641930818557739258e+00 -2.351085092670152088e-13 -1.007607896858636609e-13 -1.007607896858636609e-13 2.297684103798412064e-14
3.637000000000000000e+03 6.599776458740234375e+01 -1.893137097358703613e+00 -3.352462892795143867e-13 -1.551147177283190848e-13 -1.471083048128554727e-13 -1.739525407398745394e-13
3.638000000000000000e+03 4.957563781738281250e+01 -5.046938657760620117e-01 -1.062291869594923777e-13 6.885057845032460655e-14 -1.121358204453056298e-14 1.548276887556807035e-13
3.639000000000000000e+03 4.442189407348632812e+01 8.930056095123291016e-01 -7.246830360189276954e-14 -5.393331858590325045e-14 -3.792048597871244819e-14 -1.899636386235893648e-14
3.640000000000000000e+03 2.003360557556152344e+01 7.205014228820800781e-01 -5.209722085154633309e-13 -3.948398411609405079e-13 -2.747436067714048580e-13 5.514958064875563615e-13
3.641000000000000000e+03 2.168648719787597656e+01 -1.010949134826660156e+00 -2.750007253166097954e-13 -3.380339085902461793e-13 -1.839103955930676548e-13 3.701589544862632364e-13
3.642000000000000000e+03 2.283227729797363281e+01 -1.146668195724487305e+00 -2.751238635783498365e-13 -7.215927887768008864e-14 -1.041849440920616932e-13 2.486690866242147191e-13
3.643000000000000000e+03 2.304478073120117188e+01 1.140792131423950195e+00 9.470271517941081241e-14 3.150925700912132754e-13 1.229385923574508044e-13 -2.116716090599934930e-13
3.644000000000000000e+03 2.679865264892578125e+01 8.639428615570068359e-01 -8.037534282374274395e-16 -9.184636422720701687e-14 -2.779503549250970235e-14 -6.409742257362099904e-14
3.645000000000000000e+03 2.670943832397460938e+01 2.291117459535598755e-01 2.289308337084100531e-13 3.726189007954155974e-13 1.804649230616531264e-13 -4.086749114031590357e-13
3.646000000000000000e+03 2.746694564819335938e+01 -1.335901379585266113e+00 -3.426417339419916830e-14 3.627606841218738998e-13 9.854894949135745152e-14 -1.612657354660082532e-13
3.647000000000000000e+03 2.696507263183593750e+01 -3.387433052062988281e+00 -2.660335601985253096e-13 3.778083260738002158e-13 3.353242501919796725e-14 2.182981612586665926e-14
3.648000000000000000e+03 2.640930938720703125e+01 -5.399997234344482422e+00 -1.427897378244655235e-13 2.361855557051623089e-13 2.801874705827493012e-14 1.048824994410481326e-13
3.649000000000000000e+03 2.740414047241210938e+01 -6.819223880767822266e+00 5.948041538472725875e-14 2.999973045588605336e-13 1.078433132725709065e-13 -3.383338598975278722e-14
3.650000000000000000e+03 2.638550567626953125e+01 -8.754635810852050781e+00 1.161620306238189682e-13 1.641610973676307927e-13 8.409694110794035948e-14 5.946205171043078552e-14
3.651000000000000000e+03 2.525499153137207031e+01 -9.318784475326538086e-01 -1.617612565164155969e-13 6.792659425387814753e-14 -2.815039969520077151e-14 -7.195372769830399307e-14
3.652000000000000000e+03 2.718341827392578125e+01 -5.169484019279479980e-01 1.482161832502826293e-13 5.896571208738321523e-13 2.213619912372344345e-13 -2.982008357691606770e-13
3.653000000000000000e+03 3.337457275390625000e+01 4.437815248966217041e-01 -2.076893209279270791e-13 -8.900971187322456735e-14 -8.900971187322456735e-14 1.474400605132406700e-14
3.654000000000000000e+03 3.585338973999023438e+01 4.282303452491760254e-01 -2.876445555268641874e-13 -2.033660715414047082e-14 -9.239435388649908099e-14 7.930314120229570163e-14
3.655000000000000000e+03 3.830088806152343750e+01 3.483197689056396484e-01 -5.274867456890597328e-13 -8.665789982299776373e-13 -4.182197123336894862e-13 5.595612406587846532e-13
3.656000000000000000e+03 3.783012008666992188e+01 -3.561476171016693115e-01 -4.014073958207714510e-13 -4.922883932098609527e-13 -2.681087231566625650e-13 2.239367952140344786e-13
3.657000000000000000e+03 3.956655120849609375e+01 -1.936448454856872559e+00 -2.213304274014879502e-13 -3.121728949558727484e-13 -1.600509953519554940e-13 3.688764788414844453e-13
3.658000000000000000e+03 4.063450622558593750e+01 -4.277306079864501953e+00 -7.694653291270836526e-14 -3.074827718829720169e-13 -1.153287941492095459e-13 2.127413506860034720e-13
3.659000000000000000e+03 4.090510177612304688e+01 -3.118736505508422852e+00 -1.603444482224658518e-13 -9.262748647034102631e-17 -4.813112256842055903e-14 1.416524232980553855e-13
3.660000000000000000e+03 4.030982589721679688e+01 -1.599409461021423340e+00 -2.676421096466791161e-13 -1.375792248138260621e-13 -1.215663989828988378e-13 1.645764010098013652e-13
3.661000000000000000e+03 3.891172027587890625e+01 -1.156874299049377441e-01 -8.760690198457432576e-13 -6.499638067342106140e-13 -4.578098425529752991e-13 3.304568803926682952e-13
3.662000000000000000e+03 3.844026947021484375e+01 -7.613487839698791504e-01 -3.672786358897839332e-13 -4.833806423708286726e-13 -2.551977726361620569e-13 1.614732382092948226e-13
3.663000000000000000e+03 4.161518096923828125e+01 -3.563367426395416260e-01 -2.089800365092167600e-13 1.939026128788649828e-15 -6.211230260590866470e-14 2.828553236699040720e-15
3.664000000000000000e+03 4.301809692382812500e+01 -6.883867383003234863e-01 -1.056840568834302441e-13 -1.367950620400487649e-13 -7.274373838754913391e-14 -1.393220527010421983e-13
3.665000000000000000e+03 4.624524307250976562e+01 -1.913464546203613281e+00 -2.884006239118469539e-13 2.424073311871333125e-13 -1.379798883385362912e-14 2.952804626786716125e-14
3.666000000000000000e+03 4.372869491577148438e+01 -1.020650148391723633e+00 -8.342731074115899981e-14 1.418084772601257287e-15 -2.460276821408379638e-14 -1.499973376842961281e-13
3.667000000000000000e+03 5.339479446411132812e+01 -1.003639817237854004e+00 -2.003450980418361449e-13 -1.773640777432902715e-13 -1.133127540907906405e-13 2.266213272269536338e-14
3.668000000000000000e+03 5.656023406982421875e+01 -1.287060379981994629e+00 -6.208243961232026709e-14 1.914418974637965148e-14 -1.288147377393605852e-14 -4.080253591053593920e-14
3.669000000000000000e+03 6.226689529418945312e+01 -1.640180110931396484e+00 -3.660965302611229877e-13 1.176071772520520531e-13 -7.454680048171041795e-14 2.131966681646023376e-14
3.670000000000000000e+03 7.060317993164062500e+01 -2.239314079284667969e+00 -5.300577007481474534e-14 6.878514007295152832e-14 4.733810914737740169e-15 -7.437122071613996854e-15
3.671000000000000000e+03 7.000405883789062500e+01 -1.173362612724304199e+00 -4.848812323876572350e-14 5.928353782273104722e-14 3.238624121079712939e-15 -3.599986926399942333e-14
3.672000000000000000e+03 7.253778076171875000e+01 -7.592122554779052734e-01 -4.953574714045699823e-14 1.617741856273224865e-13 3.367153154605964649e-14 -7.264287370419009182e-14
3.673000000000000000e+03 7.409564208984375000e+01 -5.393468737602233887e-01 -1.171786463433771575e-13 6.415794815990000233e-14 -1.590620979385632544e-14 -2.736885764136227916e-14
3.674000000000000000e+03 7.577200317382812500e+01 -5.556827187538146973e-01 -1.605397130337304912e-13 -6.880273125320010563e-14 -6.880273125320010563e-14 -8.350332008971381170e-14
3.675000000000000000e+03 7.746541595458984375e+01 -4.595044553279876709e-01 -1.910349184614315576e-13 -4.936306354993980072e-13 -2.053996621224907226e-13 -8.946103135631239267e-14
3.676000000000000000e+03 3.286587905883789062e+01 1.529932379722595215e+00 -1.955996128955028723e-13 5.342444490811538993e-14 -4.265254734689763461e-14 -2.578223618214699198e-14
3.677000000000000000e+03 3.635168457031250000e+01 1.581265926361083984e+00 -3.694248140902189892e-13 -3.413287176772666909e-13 -2.132260568197402728e-13 3.425178435149944800e-13
3.678000000000000000e+03 2.796188926696777344e+01 2.007691383361816406e+00 2.955659534394777799e-13 4.469277595578469153e-13 2.227481166097028398e-13 3.913450780882593572e-14
3.679000000000000000e+03 2.947390937805175781e+01 1.928440690040588379e+00 -1.465087647283935118e-14 -2.807846457512225280e-13 -8.863065446493290089e-14 -9.114794151648258902e-14
3.680000000000000000e+03 2.525400924682617188e+01 1.092205286026000977e+00 4.801162993648550037e-14 2.493311546808429924e-13 8.920283538519854782e-14 8.088588663874435314e-14
3.681000000000000000e+03 2.320796585083007812e+01 4.654965400695800781e-01 -5.793716878867496978e-14 3.754905999846236409e-13 9.526602597065281230e-14 5.955187786042120957e-14
3.682000000000000000e+03 3.759659957885742188e+01 7.027465701103210449e-01 -3.484756970831281997e-13 -6.869203556664205124e-13 -3.106188266668863385e-13 2.849094658113893175e-13
3.683000000000000000e+03 3.318314743041992188e+01 4.305148124694824219e+00 5.555936434661554180e-14 2.525658989675078070e-13 9.243757967186336244e-14 1.491946215008421728e-13
3.684000000000000000e+03 3.595372772216796875e+01 3.886424303054809570e+00 -7.328186858333515796e-14 -1.915348305306374677e-13 -7.944500905656542988e-14 5.441572756628709762e-14
3.685000000000000000e+03 3.774543380737304688e+01 1.499431133270263672e+00 -4.811133587877269857e-13 -1.075459491427233072e-12 -4.669718388014554300e-13 3.540674426826678767e-13
3.686000000000000000e+03 3.166591453552246094e+01 5.995713710784912109e+00 2.402931369507865789e-13 1.029827739469461878e-13 1.029827739469461878e-13 3.030412292631678994e-13
3.687000000000000000e+03 3.217473220825195312e+01 5.455847263336181641e+00 1.429637387206222909e-13 2.900249213965561124e-13 1.298965953246480898e-13 1.163043863690663149e-13
3.688000000000000000e+03 4.031940841674804688e+01 7.350651264190673828e+00 6.191825752208807154e-14 4.941187026598695131e-14 3.339903765879614905e-14 -2.748225163607710686e-14
3.689000000000000000e+03 3.988847351074218750e+01 6.678309440612792969e+00 -2.749854854998227960e-14 -2.176643603855540898e-13 -7.354887369710044753e-14 3.202209073534419137e-14
3.690000000000000000e+03 3.802770233154296875e+01 6.506608963012695312e+00 1.249111084749079947e-13 -1.409081998218070231e-13 -4.799130283981729167e-15 1.253543303230200689e-13
3.691000000000000000e+03 3.576322174072265625e+01 8.237281799316406250e+00 2.360120833575646282e-13 1.468989860309299900e-13 1.148733208165483854e-13 8.418694344078381242e-14
3.692000000000000000e+03 3.948936080932617188e+01 5.981627464294433594e+00 -8.019465354367621979e-14 -2.745616234367531661e-13 -1.064268776731179533e-13 -1.342552642408928465e-13
3.693000000000000000e+03 2.493505668640136719e+01 -2.854549884796142578e+00 -3.312442551153815806e-13 3.155476639531140659e-13 -4.708976755757191338e-15 3.606475876402268077e-14
3.694000000000000000e+03 2.717124938964843750e+01 -2.624580621719360352e+00 -2.539778283516813673e-13 1.828146602199723358e-13 -2.134895552171039296e-14 -1.061867336681759921e-13
3.695000000000000000e+03 3.523860931396484375e+01 -2.252178430557250977e+00 2.362945112472335241e-14 1.012690738287202324e-14 1.012690738287202324e-14 8.300401788422992477e-14
3.696000000000000000e+03 3.681287765502929688e+01 -6.584138870239257812e-01 -3.106717899430122554e-13 -2.074903427242216769e-13 -1.554486384449174641e-13 1.508013820154113782e-13
3.697000000000000000e+03 3.771966552734375000e+01 -3.026032209396362305e+00 -1.067142048013537681e-13 -3.202403620061744505e-13 -1.280863707198848234e-13 2.066658959105059125e-15
3.698000000000000000e+03 3.949691772460937500e+01 -4.623805999755859375e+00 -3.902174739475565424e-14 -2.912293073798616350e-13 -9.907531609357200786e-14 1.169667525812920217e-13
3.699000000000000000e+03 4.110244369506835938e+01 -6.560563564300537109e+00 -4.580825753035299222e-15 -9.346511195204576516e-14 -2.941378152328255613e-14 4.110474371358911749e-14
3.700000000000000000e+03 4.152002716064453125e+01 -5.279209613800048828e+00 -4.612561282360191917e-14 -2.485228548562007367e-13 -8.839454233681987017e-14 6.047401213691086519e-14
3.701000000000000000e+03 4.253047943115234375e+01 -3.014576435089111328e+00 -8.867800699481620530e-14 5.349703901982687249e-14 -1.055429056190338929e-14 5.397605309215812441e-14
3.702000000000000000e+03 5.093379592895507812e+01 -2.477003574371337891e+00 -2.659766666895241327e-13 -1.597409541882061079e-13 -1.277152889738245034e-13 9.512103764700539921e-15
3.703000000000000000e+03 5.417222976684570312e+01 -2.946471214294433594e+00 -2.620268097549421915e-13 -2.037990951128318406e-13 -1.397477646840686316e-13 5.066128790890030154e-14
3.704000000000000000e+03 6.255088424682617188e+01 -2.795070648193359375e+00 -4.003724435319711006e-13 1.715439314035893670e-13 -6.864855770427266690e-14 -1.814775407857002754e-13
3.705000000000000000e+03 6.069865417480468750e+01 -3.739215135574340820e+00 -1.918343820383680565e-13 -8.221473225518763361e-14 -8.221473225518763361e-14 -1.782676789388940031e-13
3.706000000000000000e+03 6.282088851928710938e+01 -2.187094688415527344e+00 -3.899653495086086163e-13 1.531286355311786695e-13 -7.105100741696540601e-14 -1.656444892274983038e-13
3.707000000000000000e+03 6.826773834228515625e+01 -1.821173787117004395e+00 3.921352243027760587e-14 1.712152419624732302e-13 6.312863372239657656e-14 -4.107920058803171681e-14
3.708000000000000000e+03 7.270375061035156250e+01 -2.375565767288208008e+00 -4.243487343198043549e-14 -8.681279978738076775e-14 -3.877430196580836097e-14 -4.349379675318808258e-14
3.709000000000000000e+03 7.177862548828125000e+01 -2.748968601226806641e+00 -7.059995220815712402e-14 1.527466711058120263e-13 2.464401702454918630e-14 9.667882271656436100e-14
3.710000000000000000e+03 7.427076721191406250e+01 -2.144326448440551758e+00 -5.061307479354258676e-14 -1.131932140250105356e-13 -4.914188698437911562e-14 -1.799487073022784656e-13
3.711000000000000000e+03 7.580769348144531250e+01 -2.044528245925903320e+00 -5.712292618087477791e-14 -2.448125456153658897e-14 -2.448125456153658897e-14 1.190965322238682345e-13
3.712000000000000000e+03 7.717771911621093750e+01 -2.926099777221679688e+00 3.198326613317384326e-14 -3.204383576516610377e-14 -1.817080886485036742e-17 -6.924224648513499503e-14
3.713000000000000000e+03 2.654233360290527344e+01 -4.686304092407226562e+00 -8.749994001924776832e-14 3.285076204118109189e-13 7.230230547302166078e-14 8.937110356236829811e-14
3.714000000000000000e+03 2.383652305603027344e+01 -2.549276351928710938e+00 -2.592007825822500999e-13 1.805762435197130755e-13 -2.358736036350839171e-14 1.609632837174662656e-13
3.715000000000000000e+03 2.997399330139160156e+01 -7.002912521362304688e+00 -4.165098509687804873e-14 -7.503910958318177338e-14 -3.500702806520476773e-14 1.226970863235296583e-13
3.716000000000000000e+03 2.965763092041015625e+01 -8.767246246337890625e+00 3.205149294300928264e-14 1.052382532788949387e-13 4.118692285013172971e-14 3.717218657992189812e-14
3.717000000000000000e+03 2.930287742614746094e+01 -8.294995307922363281e+00 1.560406670412031738e-13 -2.533820592579005826e-13 -2.920241969788829606e-14 -5.226256981436666615e-14
3.718000000000000000e+03 2.515266227722167969e+01 -6.468328475952148438e+00 -1.285843447777074156e-14 4.977496821829963114e-13 1.454673783773258178e-13 -9.261362022335711819e-14
3.719000000000000000e+03 5.451897621154785156e+00 -8.359049797058105469e+00 -1.838437747577002096e-14 -5.362996898243717336e-14 -2.160430376805556885e-14 -3.125311018011348030e-14
3.720000000000000000e+03 6.234712600708007812e+00 -1.115734767913818359e+01 7.444977116353654334e-14 1.234089463649293283e-13 5.935761593616611931e-14 2.128271754523510667e-14
3.721000000000000000e+03 4.879970550537109375e+00 -9.865694046020507812e+00 7.916976400628925048e-15 1.177703632315382776e-13 3.770620019558426628e-14 -9.035503058642604945e-14
3.722000000000000000e+03 7.354459285736083984e+00 -9.820080757141113281e+00 1.004198555364620160e-13 4.303707997616035286e-14 4.303707997616035286e-14 8.784828062474020482e-14
3.723000000000000000e+03 9.531733512878417969e+00 -9.867940902709960938e+00 9.631101729394402067e-15 3.243842640245769848e-13 1.002046075239057532e-13 -2.144870550971084838e-14
3.724000000000000000e+03 1.186193943023681641e+01 -7.905485630035400391e+00 -4.507192416600830365e-14 -2.480712846513605241e-13 -8.794296535571607953e-14 -6.113879747523393027e-14
3.725000000000000000e+03 1.312877273559570312e+01 -8.719497680664062500e+00 -2.377855941662621042e-14 -1.019081093654467668e-14 -1.019081093654467668e-14 -5.529200347901240542e-14
3.726000000000000000e+03 1.284314441680908203e+01 -1.018788337707519531e+01 1.447934925170174525e-13 6.205435877605289252e-14 6.205435877605289252e-14 -1.076537947328204403e-13
3.727000000000000000e+03 1.208188819885253906e+01 -1.005729961395263672e+01 5.866793460545735583e-14 1.166453001896772257e-13 5.259396976091401665e-14 -6.538504817871909625e-14
3.728000000000000000e+03 1.527744865417480469e+01 -8.547462463378906250e+00 -1.257361863281694636e-13 -3.101146523278898448e-14 -4.702429783997978674e-14 -4.331615022722633268e-14
3.729000000000000000e+03 1.609528923034667969e+01 -7.892266273498535156e+00 -1.817899671942291295e-13 -2.380382945876141632e-13 -1.259484866660692814e-13 1.112517602997950550e-13
3.730000000000000000e+03 1.878478622436523438e+01 -8.781124114990234375e+00 -4.895800290779378505e-14 -2.098200221423499046e-14 -2.098200221423499046e-14 1.042218950573527148e-13
3.731000000000000000e+03 1.820954895019531250e+01 -1.100584697723388672e+01 1.533948478221053291e-13 1.998970142246068310e-14 5.201536494277639311e-14 -9.480589903897943677e-15
3.732000000000000000e+03 1.658323097229003906e+01 -9.693674087524414062e+00 -2.329445975847964367e-14 1.043940324810255227e-13 2.432987283320330041e-14 -1.438622949879921759e-14
3.733000000000000000e+03 1.991741943359375000e+01 -8.772312164306640625e+00 -5.010830753148301508e-14 2.087094738570730024e-13 4.758035125292971179e-14 1.880938303331844419e-13
3.734000000000000000e+03 2.794227981567382812e+01 -1.020475387573242188e+01 1.378164618016930465e-13 2.420680030121996618e-13 1.139653421546732437e-13 -1.209941435237338325e-13
3.735000000000000000e+03 2.744521141052246094e+01 -9.429972648620605469e+00 1.556843439972158127e-13 -3.621777018374648660e-14 3.583997316048033455e-14 3.874948051232202095e-14
3.736000000000000000e+03 1.480962276458740234e+01 -7.061880588531494141e+00 1.236746961758667870e-14 5.300343819311095425e-15 5.300343819311095425e-15 -8.342594871217981489e-14
3.737000000000000000e+03 9.774236679077148438e+00 -5.694828510284423828e+00 2.336393340081344139e-14 -1.272397307959180490e-13 -3.116273854090502449e-14 -1.052644774189419319e-14
3.738000000000000000e+03 1.263705539703369141e+01 -5.820358276367187500e+00 -1.255699747469956468e-14 4.036937681383724608e-14 8.343714140554483322e-15 -1.049463115151624826e-13
3.739000000000000000e+03 9.856746673583984375e+00 -8.142651557922363281e+00 -1.570072341250069482e-15 -1.379257358281524293e-13 -4.184874357313940474e-14 -1.018811838821194471e-13
3.740000000000000000e+03 7.916020870208740234e+00 -7.457807540893554688e+00 7.056782594253366292e-14 4.168109203595525558e-14 3.367467573235985445e-14 2.852269269837566512e-14
3.741000000000000000e+03 3.574714660644531250e+00 -5.955664157867431641e+00 -5.147368737300726804e-14 -1.364375192686173577e-13 -5.637336300892692442e-14 -7.585559513422629463e-15
3.742000000000000000e+03 5.857652664184570312e+00 -6.931850910186767578e+00 -3.748462992910969738e-14 9.831253243138340925e-14 1.824837108949529246e-14 -1.277054498391091975e-13
3.743000000000000000e+03 2.164058685302734375e+01 -8.238224983215332031e+00 -3.555250169783030767e-13 -1.695244693320635543e-13 -1.575148431826045581e-13 1.372567424301474048e-13
3.744000000000000000e+03 1.516307926177978516e+01 -5.578449249267578125e+00 -7.129384837481142490e-14 -1.449318773718080711e-13 -6.486771433585405977e-14 8.968081268920236049e-14
3.745000000000000000e+03 1.199242305755615234e+01 -4.512647628784179688e+00 -1.542866108852382345e-14 -2.353670372750443773e-13 -7.523870442687277671e-14 -8.515477683884373206e-14
3.746000000000000000e+03 1.326749801635742188e+01 -5.232980251312255859e+00 -1.605968233831661651e-13 -2.518309996299428200e-13 -1.237283523249435579e-13 -7.138847211941509729e-14
3.747000000000000000e+03 1.015673732757568359e+01 -5.220829010009765625e+00 4.942657136981949695e-14 -5.888134625058397131e-14 -2.836431701899689781e-15 -5.814448857284493233e-14
3.748000000000000000e+03 7.810686111450195312e+00 -6.066861629486083984e+00 -3.847857904699936160e-14 -6.224176989783059000e-14 -3.021610468344898548e-14 5.224998290477046725e-14
3.749000000000000000e+03 3.418632745742797852e+00 -3.750089168548583984e+00 -8.775716020840637621e-14 1.453935848669610231e-13 1.729092739756639407e-14 -1.662830199325882746e-14
3.750000000000000000e+03 6.353089809417724609e+00 -4.653450012207031250e+00 -2.726923233661165957e-13 -2.083700372619221031e-13 -1.443187068331588940e-13 -2.513151633413285291e-13
3.751000000000000000e+03 1.765456962585449219e+01 -4.427869796752929688e+00 -7.432628731235402242e-14 -4.329186071043086836e-14 -3.528544440683546723e-14 1.770038515714819627e-13
3.752000000000000000e+03 9.363537788391113281e+00 -4.016279220581054688e+00 -5.661164692951671518e-14 -1.157640335588266955e-13 -5.171270313006348651e-14 -1.485118960046962616e-14
3.753000000000000000e+03 7.377694606781005859e+00 -4.225035190582275391e+00 -1.057160747288364566e-13 -4.530689110557664656e-14 -4.530689110557664656e-14 1.211667586739888919e-14
3.754000000000000000e+03 9.757577896118164062e+00 -2.494318485260009766e+00 2.662583864596491240e-14 -5.721534763981558913e-14 -9.176853206374971372e-15 -2.782214054682183996e-14
3.755000000000000000e+03 4.403168678283691406e+00 -1.177737236022949219e+01 3.823114039431564637e-14 8.501119458988876110e-14 3.697270015644814334e-14 -4.052294727530623974e-14
3.756000000000000000e+03 7.297320842742919922e+00 -1.235542297363281250e+01 1.540330261614892421e-14 -1.077759572126052445e-13 -2.771179587071712774e-14 3.050092798229271651e-14
3.757000000000000000e+03 9.356161117553710938e+00 -1.056425762176513672e+01 3.709095612028021072e-14 -7.560577462489490030e-14 -1.155444504316463852e-14 2.219983908074291135e-14
3.758000000000000000e+03 1.326614284515380859e+01 -1.221504688262939453e+01 9.405987815881700076e-14 -1.426924171269577934e-13 -1.458976135162905891e-14 -5.417444176093223762e-14
3.759000000000000000e+03 1.143869781494140625e+01 -1.165049839019775391e+01 -4.398544516896057965e-14 -4.172637780544725949e-14 -2.571354689232235174e-14 -2.293191441046175255e-14
3.760000000000000000e+03 1.765332031250000000e+01 -1.211303424835205078e+01 2.990073737652726438e-14 -3.293634760542438200e-14 -9.106834498339615516e-16 6.996860095432808069e-14
3.761000000000000000e+03 1.929544448852539062e+01 -9.337414741516113281e+00 -8.350009458825066733e-14 -1.730385989660507273e-13 -7.696161009916949181e-14 8.695283805048442671e-14
3.762000000000000000e+03 2.148547935485839844e+01 -1.030016803741455078e+01 -1.464582036377060081e-13 -1.885829139331926529e-13 -1.005123379817750295e-13 1.960310880907024239e-14
3.763000000000000000e+03 2.584809112548828125e+01 -9.772050857543945312e+00 4.481852578950770716e-14 2.708381479157861982e-13 9.469700278921452941e-14 4.549241503794786146e-14
3.764000000000000000e+03 2.898171043395996094e+01 -1.244595527648925781e+01 -1.873211601024354911e-13 1.122139846456782566e-14 -5.282992942309654161e-14 -7.037265599895911605e-14
3.765000000000000000e+03 2.744959068298339844e+01 -1.153624534606933594e+01 -2.061304279392731087e-13 4.891123652470998062e-14 -4.716575573030304391e-14 -1.604990723929212298e-14
3.766000000000000000e+03 3.062981986999511719e+01 -9.874131202697753906e+00 4.048241166658243795e-14 -3.029070321392685061e-13 -7.872738919112443057e-14 -6.137039661180399008e-14
3.767000000000000000e+03 3.197288322448730469e+01 -1.060599231719970703e+01 2.644615415873206865e-14 5.708501298615567543e-14 2.505935115990585993e-14 7.181818887421614894e-14
3.768000000000000000e+03 6.299503803253173828e+00 -1.324001216888427734e+01 1.129572780797505338e-13 4.841026397025410821e-14 4.841026397025410821e-14 -3.032509410683809081e-14
3.769000000000000000e+03 4.204901218414306641e+00 -1.332651996612548828e+01 1.317814130388783589e-13 1.937305974279365794e-13 9.765360178479176589e-14 -2.988802171792308282e-14
3.770000000000000000e+03 1.191687774658203125e+01 -1.317196559906005859e+01 2.753309902390078251e-14 -1.712038984972436007e-13 -4.310123763971718258e-14 -6.956777141116018970e-14
3.771000000000000000e+03 1.519207763671875000e+01 -1.206467628479003906e+01 1.446003656169116830e-14 -1.539311619792524399e-13 -4.184133711704861314e-14 8.690162305036164270e-14
3.772000000000000000e+03 1.601773262023925781e+01 -1.354560565948486328e+01 1.646810604007641066e-14 -6.156866330783369867e-14 -1.353016718032718640e-14 -6.511210705805944854e-14
3.773000000000000000e+03 2.151638793945312500e+01 -1.206803798675537109e+01 1.480213114623055159e-14 -2.795996669868044959e-13 -7.943925600878767868e-14 6.786555367156721363e-14
3.774000000000000000e+03 2.342214202880859375e+01 -1.173050308227539062e+01 1.499418400855920264e-13 -7.299205456636620459e-14 2.308493430051503092e-14 7.711959868449136390e-14
3.775000000000000000e+03 2.493605232238769531e+01 -1.234519577026367188e+01 -1.566316893623475454e-14 1.762910021955998996e-13 4.818835150246884858e-14 1.030794780044683168e-13
3.776000000000000000e+03 2.918039321899414062e+01 -1.366959571838378906e+01 -1.748124079303456369e-13 6.233324267987047640e-14 -3.374375296327433715e-14 -2.431798557282153356e-14
3.777000000000000000e+03 2.685041236877441406e+01 -1.349974727630615234e+01 -1.499055735229223862e-13 1.187585457491230345e-13 -9.344104944008016500e-15 3.712889303192183632e-14
3.778000000000000000e+03 3.093929862976074219e+01 -1.191741943359375000e+01 -1.476301313184727459e-13 2.823184021901337798e-14 -3.581948851568393655e-14 7.752403828208045272e-15
3.779000000000000000e+03 3.251472854614257812e+01 -1.209040164947509766e+01 -8.032602496566357275e-14 -3.442543830296102003e-14 -3.442543830296102003e-14 -2.205340233075569339e-14
3.780000000000000000e+03 5.982810974121093750e+00 -1.483084678649902344e+01 7.907117614749242795e-14 1.482650130056259452e-13 6.820085674593551195e-14 6.601975368301926661e-14
3.781000000000000000e+03 4.179434776306152344e+00 -1.546059036254882812e+01 2.218224790049433404e-14 1.925104769606028610e-13 6.440781610307644289e-14 4.671835292756332247e-14
3.782000000000000000e+03 7.924601078033447266e+00 -1.508095836639404297e+01 1.479803015151312517e-13 -2.808176800361654457e-14 3.596956242514666446e-14 -1.485925504819338161e-14
3.783000000000000000e+03 1.106202697753906250e+01 -1.455577564239501953e+01 4.412395877275918088e-14 -2.098444709013394527e-13 -4.971615499382679715e-14 1.434652737049551402e-14
3.784000000000000000e+03 1.502270793914794922e+01 -1.366474914550781250e+01 7.222017715845588381e-14 -1.978032402585525040e-13 -3.767492096290805947e-14 -2.586730624213858312e-15
3.785000000000000000e+03 1.860432624816894531e+01 -1.525575733184814453e+01 1.309844295744114206e-13 -2.183695119260115058e-13 -2.621552402785366775e-14 1.201425162697736249e-13
3.786000000000000000e+03 1.589075660705566406e+01 -1.549997425079345703e+01 8.775068210042577532e-14 -2.368982560032456552e-13 -4.474427488135139519e-14 -7.592481466667591605e-14
3.787000000000000000e+03 2.009165382385253906e+01 -1.365834712982177734e+01 3.361893080003515444e-14 -1.685956875410038469e-13 -4.049302668347742884e-14 1.289999601280025776e-13
3.788000000000000000e+03 2.120183753967285156e+01 -1.413155269622802734e+01 2.555501842937572344e-16 -1.371433213303782650e-13 -4.106633246349702948e-14 1.770588206216269778e-13
3.789000000000000000e+03 2.485954666137695312e+01 -1.462335300445556641e+01 -3.899426286968314670e-14 -1.671182621812167951e-14 -1.671182621812167951e-14 1.510986566985797475e-13
3.790000000000000000e+03 2.987094497680664062e+01 -1.539716911315917969e+01 1.138673675477302333e-14 9.638192750415636167e-14 3.233060046352494166e-14 -1.126137333748054511e-14
3.791000000000000000e+03 2.756898498535156250e+01 -1.438765048980712891e+01 -1.267929581856910848e-13 2.201658587429669578e-13 2.801186915074322520e-14 1.084439341710735638e-13
3.792000000000000000e+03 3.061753845214843750e+01 -1.347742557525634766e+01 -1.020746665360630634e-13 3.222613148556874307e-13 6.605599314063459460e-14 -7.654294543026421427e-14
3.793000000000000000e+03 3.259394454956054688e+01 -1.434794330596923828e+01 -3.132351217055746873e-14 -1.506772137616074758e-13 -5.460021473033087325e-14 4.475947827572166263e-15
3.794000000000000000e+03 3.474754333496093750e+01 -1.418185520172119141e+01 -1.674167057698523753e-14 -7.175001796855522834e-15 -7.175001796855522834e-15 2.409407241321485926e-14
3.795000000000000000e+03 4.858447074890136719e+00 -1.681383323669433594e+01 4.834787152335935645e-14 1.122224126235034369e-13 4.817108558287201692e-14 2.455182257043823923e-14
3.796000000000000000e+03 8.864297866821289062e+00 -1.612319755554199219e+01 1.182327348005218770e-13 7.354664430638327421e-14 5.753381169919247196e-14 -6.017552450256202778e-14
3.797000000000000000e+03 1.369643211364746094e+01 -1.723588371276855469e+01 -3.598344698921805696e-14 -3.242403903962881584e-13 -1.080671468110805389e-13 2.188651142915817860e-14
3.798000000000000000e+03 1.052652549743652344e+01 -1.659340286254882812e+01 1.245524815013041020e-13 5.337963347707384842e-14 5.337963347707384842e-14 3.286996732741395699e-14
3.799000000000000000e+03 1.496725654602050781e+01 -1.626135444641113281e+01 1.039986239487200592e-13 -1.384329527094954604e-13 -1.033029862823262035e-14 -1.729618916623473779e-13
3.800000000000000000e+03 1.817878913879394531e+01 -1.743793296813964844e+01 8.552928737427453743e-14 -1.234729142931059731e-13 -1.138308688980330455e-14 7.160975100655581072e-14
3.801000000000000000e+03 2.059139823913574219e+01 -1.542576885223388672e+01 6.015597498213939853e-14 4.865660825636997089e-14 3.264377564917916863e-14 9.609493918909944865e-14
3.802000000000000000e+03 2.236886024475097656e+01 -1.559520053863525391e+01 1.061614378762391897e-13 -2.290079204828737724e-13 -3.685394952537487945e-14 1.909834730683471204e-13
3.803000000000000000e+03 2.311856842041015625e+01 -1.552478885650634766e+01 -6.219966219595668422e-14 -4.953247081701701859e-14 -3.351963820982621634e-14 8.872001305273644056e-14
3.804000000000000000e+03 2.817465209960937500e+01 -1.759034347534179688e+01 -9.406156544844793133e-14 -1.318139933141615483e-13 -6.776266966166191730e-14 7.656047901227237829e-15
3.805000000000000000e+03 3.263478088378906250e+01 -1.516872501373291016e+01 -4.353576554165863866e-14 -1.787865103360097851e-13 -6.669668208567416934e-14 1.790243266944126915e-14
3.806000000000000000e+03 3.426214218139648438e+01 -1.588660907745361328e+01 8.406285650214284644e-14 -3.528561178054584468e-13 -8.063798381200554255e-14 1.298566289220648429e-13
3.807000000000000000e+03 4.180033493041992188e+01 -1.504969787597656250e+01 -3.132250928354791963e-14 -5.938890872136948218e-13 -1.875634792879860013e-13 8.462103766185627429e-14
3.808000000000000000e+03 4.238982772827148438e+01 -1.540778541564941406e+01 4.933670456224760470e-14 -4.706784007685316240e-13 -1.264025098783247425e-13 -2.657569598955335233e-14
3.809000000000000000e+03 4.120696640014648438e+01 -1.722339439392089844e+01 -1.583707835283321846e-14 -4.185458674522274380e-13 -1.303148805227929974e-13 2.194645764490125994e-14
3.810000000000000000e+03 3.566055536270141602e+00 -1.917053413391113281e+01 2.797952477413584611e-15 -4.455182560760342914e-14 -1.252616208728771913e-14 -1.769879313754800813e-16
3.811000000000000000e+03 7.051605224609375000e+00 -1.885016822814941406e+01 5.066904673069715093e-14 -2.070394365932121117e-13 -4.691111729756766713e-14 -3.765841737296375669e-14
3.812000000000000000e+03 9.750200271606445312e+00 -1.863101768493652344e+01 -7.352588183478017680e-15 4.259983818065589400e-14 1.057417550737313125e-14 1.754256055740491260e-14
3.813000000000000000e+03 1.136811733245849609e+01 -1.886616897583007812e+01 1.396771560175855131e-13 5.986164119736389622e-14 5.986164119736389622e-14 4.974081381698726434e-14
3.814000000000000000e+03 1.223438835144042969e+01 -1.908387565612792969e+01 -1.049119287537675360e-13 -1.822150964185878519e-13 -8.613810755170661637e-14 -1.265551079459702882e-14
3.815000000000000000e+03 1.530883693695068359e+01 -1.786969757080078125e+01 -2.810300989586778792e-14 -2.636743633762511640e-13 -8.753321147341591724e-14 8.315991260410618424e-14
3.816000000000000000e+03 1.645798873901367188e+01 -1.882846641540527344e+01 -3.791332685624225485e-14 -3.912404525786145060e-14 -2.311121095660475383e-14 -6.941197833523760075e-14
3.817000000000000000e+03 2.001161766052246094e+01 -1.679620552062988281e+01 5.977977715707766260e-14 -2.031348450993314403e-13 -4.300651902742341770e-14 1.226898492740283175e-13
3.818000000000000000e+03 2.169890213012695312e+01 -1.594191932678222656e+01 -8.980267870745562570e-15 -4.959963375347070658e-14 -1.757397023315499657e-14 1.162530222911448141e-13
3.819000000000000000e+03 2.463915252685546875e+01 -1.657343101501464844e+01 -8.576904513219255066e-14 -1.282600599079170012e-13 -6.420872947915379214e-14 1.489104080657204648e-14
3.820000000000000000e+03 2.705787277221679688e+01 -1.874414062500000000e+01 -6.836768835522671894e-14 -5.217591156759897320e-14 -3.616307896040817094e-14 -3.024920334289589452e-14
3.821000000000000000e+03 2.605945587158203125e+01 -1.827098274230957031e+01 -5.076485970955876836e-14 -2.175636820494434437e-14 -2.175636820494434437e-14 5.026134605626113305e-14
3.822000000000000000e+03 3.075933837890625000e+01 -1.701106262207031250e+01 -1.010579898301326718e-13 -4.331056658603803233e-14 -4.331056658603803233e-14 -3.964251073674401882e-14
3.823000000000000000e+03 3.437842559814453125e+01 -1.772677612304687500e+01 -5.222420938625141340e-14 -1.825101213822483137e-13 -7.042029990817627594e-14 2.644907811646599050e-14
3.824000000000000000e+03 3.509961700439453125e+01 -1.760170173645019531e+01 -1.423937664387666096e-15 -2.293650024683818733e-13 -6.923668317273742878e-14 -1.849497456769301496e-14
3.825000000000000000e+03 3.706439971923828125e+01 -1.720288085937500000e+01 3.472536250518840073e-14 -1.909969713853945650e-13 -4.688148469694092269e-14 3.751607518024356602e-14
3.826000000000000000e+03 3.938980484008789062e+01 -1.746589851379394531e+01 -2.689794798027035638e-14 -1.030295911520068275e-13 -3.897826072324361846e-14 3.609715269205747423e-14
3.827000000000000000e+03 4.082881546020507812e+01 -1.896749687194824219e+01 -2.163026532788891315e-14 -1.236474843954032954e-13 -4.358332474758107311e-14 -2.453333311174909874e-15
3.828000000000000000e+03 4.073157882690429688e+01 -1.996366119384765625e+01 5.878359864847082505e-14 7.094391534737815030e-14 3.891825352112833480e-14 -5.976066809378760558e-14
3.829000000000000000e+03 4.491983795166015625e+01 -1.624629974365234375e+01 -1.275990218433525891e-13 -1.919381401862749192e-13 -9.586115131939368372e-14 2.034776833787985129e-13
3.830000000000000000e+03 4.721706771850585938e+01 -1.723931312561035156e+01 -1.780464440974665469e-14 1.296222786224821011e-13 3.354529314373265458e-14 -7.474994608751631131e-14
3.831000000000000000e+03 5.027704620361328125e+01 -1.774302673339843750e+01 -1.233388984342572922e-14 -1.768520090572253678e-13 -5.675577127955792889e-14 2.533198565463860158e-14
3.832000000000000000e+03 4.863032817840576172e+00 -2.092956542968750000e+01 2.151570835693750530e-15 4.667305021741237347e-14 1.464738669709666347e-14 -7.713954800446509719e-14
3.833000000000000000e+03 2.073621034622192383e+00 -2.025838851928710938e+01 1.214641434714404042e-14 1.882094062847713967e-13 6.010674542724497860e-14 -5.691327536203397153e-14
3.834000000000000000e+03 5.457682132720947266e+00 -2.006263923645019531e+01 1.626100140227505070e-14 5.271995066522504325e-14 2.069428545084343873e-14 -7.615935470163884280e-14
3.835000000000000000e+03 1.191477966308593750e+01 -2.102730751037597656e+01 -1.278995609914996764e-14 -7.410783412712534934e-14 -2.606933630555294257e-14 -4.457089740144380696e-14
3.836000000000000000e+03 1.013212299346923828e+01 -2.060014343261718750e+01 8.500407951313182497e-14 -7.794705500626872285e-14 2.117108029685288439e-15 3.990757445099420153e-14
3.837000000000000000e+03 1.357748222351074219e+01 -1.923529815673828125e+01 6.733876694101081917e-14 -1.369877112135722830e-13 -2.089468497583433365e-14 -2.249118622734639500e-14
3.838000000000000000e+03 1.783717536926269531e+01 -2.095976829528808594e+01 4.177220228789371714e-14 -5.072404966216005617e-14 -2.685554381686491160e-15 9.338683933145588978e-14
3.839000000000000000e+03 2.049004364013671875e+01 -1.894948959350585938e+01 2.370467950890079584e-14 -1.270937023158114076e-13 -3.101670667266659409e-14 1.565302114271346912e-13
3.840000000000000000e+03 2.242163658142089844e+01 -1.865062904357910156e+01 -1.236049260720014503e-14 -6.248604064729157415e-14 -2.245395912931456850e-14 9.500810105008208883e-14
3.841000000000000000e+03 2.858264923095703125e+01 -1.837652587890625000e+01 -1.867798450627677909e-14 -1.223822204601127117e-13 -4.231806081229048944e-14 5.033167181373986859e-15
3.842000000000000000e+03 3.133008193969726562e+01 -1.897243690490722656e+01 1.338969777745337500e-14 -2.687672404511759483e-13 -7.661326271741347727e-14 3.631297329888608094e-14
3.843000000000000000e+03 3.271031188964843750e+01 -1.984361267089843750e+01 -5.976686159869792903e-14 -1.171162640608777727e-13 -5.306493702024635273e-14 4.067812371124322757e-14
3.844000000000000000e+03 3.352664947509765625e+01 -1.927878189086914062e+01 8.250860525403982959e-14 -1.133297557361079289e-13 -9.246344636400661426e-15 5.725932559043703240e-14
3.845000000000000000e+03 3.586113357543945312e+01 -1.960084724426269531e+01 4.714941561771756121e-15 -1.581076307204110076e-13 -4.601780585820718084e-14 1.545734568987600088e-13
3.846000000000000000e+03 3.801644134521484375e+01 -2.013542175292968750e+01 5.286903947537011442e-15 -1.807379793787936006e-13 -5.263532190939897160e-14 5.020395788001875970e-14
3.847000000000000000e+03 3.967565155029296875e+01 -2.071872138977050781e+01 1.125751035902129715e-13 -2.037994983005147337e-14 2.765854629745503890e-14 -3.735903527182261874e-14
3.848000000000000000e+03 4.261870193481445312e+01 -1.783306503295898438e+01 3.299429651747783770e-15 -2.273407021446613441e-13 -6.721238284901689952e-14 -5.476353623508865842e-14
3.849000000000000000e+03 4.405180358886718750e+01 -1.863879776000976562e+01 -3.371593301315471691e-14 -6.020063055911864525e-14 -2.817496873286882975e-14 2.254228603098835243e-14
3.850000000000000000e+03 4.692273330688476562e+01 -1.824974632263183594e+01 -1.192648139535651408e-13 -5.111349508251684937e-14 -5.111349508251684937e-14 3.388990680425717217e-14
3.851000000000000000e+03 4.990381240844726562e+01 -1.979190444946289062e+01 3.691618950633912544e-14 -1.671825655344405526e-13 -3.907991484130950155e-14 -6.825967471379285056e-14
3.852000000000000000e+03 5.829851531982421875e+01 -1.928717613220214844e+01 -3.622644718925815965e-14 1.903536464738231349e-13 4.623815978536949256e-14 -8.410129146915745757e-15
3.853000000000000000e+03 5.998048400878906250e+01 -1.768847084045410156e+01 4.590109149433911628e-14 1.569247390451750102e-13 6.084775017829377464e-14 1.327476946725789086e-13
3.854000000000000000e+03 6.094171905517578125e+01 -1.857744216918945312e+01 -4.551027049247598211e-14 3.768428575917290302e-14 -2.347795547045865815e-15 2.529675924842818974e-14
3.855000000000000000e+03 6.071620559692382812e+01 -2.017744255065917969e+01 -4.831025648423768748e-14 -1.350817651095057026e-13 -5.501760884981526933e-14 2.457958492231744618e-14
3.856000000000000000e+03 6.044765853881835938e+01 -2.074091339111328125e+01 4.452563873700611519e-14 1.105843118898858224e-13 4.653298484925440237e-14 6.781452925385756184e-15
3.857000000000000000e+03 6.446144866943359375e+01 -1.911244964599609375e+01 3.562157757349207476e-14 -8.767324296025599817e-14 -1.561549961602917702e-14 -3.187231836961068598e-14
3.858000000000000000e+03 6.450202178955078125e+01 -1.793820762634277344e+01 -7.709712859446660183e-14 1.270932195070314727e-14 -1.931634241664550999e-14 3.368025259728457677e-14
3.859000000000000000e+03 6.913973236083984375e+01 -1.985432243347167969e+01 3.976612672506631141e-14 3.991810137646267798e-14 2.390526876927187572e-14 -1.724394146354266133e-13
3.860000000000000000e+03 7.061757659912109375e+01 -1.974601745605468750e+01 1.185224200684828477e-13 9.654627222471443004e-14 6.452060701033282553e-14 -1.413099780418758389e-13
3.861000000000000000e+03 7.204273986816406250e+01 -1.855988121032714844e+01 -6.782479444614533670e-14 7.390016875351290704e-15 -1.813043361005139270e-14 -3.123903588066190284e-14
3.862000000000000000e+03 7.307765960693359375e+01 -1.981713104248046875e+01 3.786167478711868761e-14 1.534792800662876378e-13 5.740228442314282420e-14 -1.408030152704169841e-14
3.863000000000000000e+03 7.534877777099609375e+01 -1.967396163940429688e+01 -9.720437616714955320e-14 -4.165901835734980851e-14 -4.165901835734980851e-14 -4.203263781412010236e-14
3.864000000000000000e+03 7.743975067138671875e+01 -1.983727264404296875e+01 -8.900698442713440850e-15 4.193636404933517858e-14 9.910699681986521320e-15 -6.012670829974586795e-14
3.865000000000000000e+03 7.807439422607421875e+01 -1.742048263549804688e+01 -7.007432421867257344e-14 1.300964679951457925e-13 1.800664143887607122e-14 -1.529235654665166144e-14
3.866000000000000000e+03 7.567292785644531250e+01 -1.696787643432617188e+01 4.722984563122409329e-15 -1.123532351681409691e-13 -3.228907552031874684e-14 -1.066108464529980093e-13
3.867000000000000000e+03 7.215740203857421875e+01 -1.758999061584472656e+01 -4.895223291935708876e-14 1.333368348865144812e-14 -1.068556457510180802e-14 -5.220420246803726683e-14
3.868000000000000000e+03 7.113432312011718750e+01 -1.695204734802246094e+01 -6.598841346397085750e-14 -2.828074790138784128e-14 -2.828074790138784128e-14 -1.059725698577922148e-13
3.869000000000000000e+03 6.817130279541015625e+01 -1.623069000244140625e+01 -8.319039223768018299e-14 -1.957813522846657550e-13 -8.369152403433013920e-14 -6.085708109324072801e-14
3.870000000000000000e+03 6.712887573242187500e+01 -1.722009086608886719e+01 1.155233406765349136e-13 -1.334937883975748085e-13 -5.391133469279021234e-15 5.936759059615298595e-14
3.871000000000000000e+03 6.266230010986328125e+01 -1.779068946838378906e+01 -8.574839785707027984e-14 9.001635123872999550e-15 -2.302402924347565771e-14 -5.250520494320650225e-15
3.872000000000000000e+03 5.903216171264648438e+01 -1.655209541320800781e+01 3.260862716999990418e-14 3.914204572443014118e-13 1.272087226137849636e-13 3.755896892869252379e-14
3.873000000000000000e+03 6.230935668945312500e+01 -1.707136344909667969e+01 -7.894671651435467008e-14 -3.383430756159939989e-14 -3.383430756159939989e-14 1.874535005301145030e-13
3.874000000000000000e+03 5.769184875488281250e+01 -1.764304161071777344e+01 1.297196670826256115e-13 3.758507719463233254e-13 1.516711289981792499e-13 1.432042554200610440e-13
3.875000000000000000e+03 5.642065048217773438e+01 -1.754598999023437500e+01 2.502813494648092885e-13 3.588936602332698511e-13 1.827525083304346043e-13 2.078115105127661955e-13
3.876000000000000000e+03 7.963253021240234375e+01 -1.896492576599121094e+01 -5.895569541456216478e-14 -1.396441014038518613e-13 -5.957993836789785003e-14 -1.769102679833375186e-14
3.877000000000000000e+03 3.615789175033569336e+00 -2.242192268371582031e+01 1.899094793369419248e-14 -1.519893423358037454e-13 -3.989951747359991863e-14 -5.228034056560006138e-14
3.878000000000000000e+03 2.338816881179809570e+00 -2.192749214172363281e+01 3.598537144807421873e-14 -3.032864825708476986e-14 1.697016957296834661e-15 -4.144463770653153412e-14
3.879000000000000000e+03 8.726667404174804688e+00 -2.124465560913085938e+01 1.689086357218282097e-14 5.298988990111962172e-14 2.096422638080391171e-14 -1.434610554808778138e-14
3.880000000000000000e+03 1.163435554504394531e+01 -2.222619056701660156e+01 6.911130874401663626e-14 7.537008262512370771e-14 4.334441741074210319e-14 -2.007946489201301032e-14
3.881000000000000000e+03 9.857339859008789062e+00 -2.266830062866210938e+01 7.623133217336472423e-14 2.695170238516900879e-14 3.095491053696670936e-14 -1.326216172065118951e-14
3.882000000000000000e+03 2.119678688049316406e+01 -2.109139633178710938e+01 -1.483779597669446226e-13 -5.787168975372042334e-14 -6.187489621145222940e-14 9.295433753232426599e-14
3.883000000000000000e+03 2.190060997009277344e+01 -2.215650749206542969e+01 3.495638227122253860e-14 3.785678232481534677e-14 2.184394802355865001e-14 7.458230132659574019e-15
3.884000000000000000e+03 2.866503143310546875e+01 -2.258680343627929688e+01 1.508029676610886383e-14 -3.928796307381410280e-14 -7.262300400531340044e-15 1.610507618921269007e-14
3.885000000000000000e+03 2.878133010864257812e+01 -2.066401481628417969e+01 7.314326011184646426e-15 4.888565951783468977e-14 1.685999599751897976e-14 2.907984386602523175e-14
3.886000000000000000e+03 3.294909667968750000e+01 -2.179266929626464844e+01 3.885753904650209381e-15 -2.156516881301334676e-13 -6.352978174995263516e-14 5.368758416350941087e-14
3.887000000000000000e+03 3.405079650878906250e+01 -2.061612892150878906e+01 9.945492407327938961e-15 -2.016169214002702659e-13 -5.750142793555304555e-14 7.631797347947347210e-14
3.888000000000000000e+03 3.597520828247070312e+01 -2.105611610412597656e+01 1.727346022294129479e-13 -1.089746782395595304e-13 1.912797753576920418e-14 2.966746789098521908e-14
3.889000000000000000e+03 3.702373886108398438e+01 -2.089552688598632812e+01 -2.883603178490518580e-15 -1.384886807011612153e-13 -4.241168505801640176e-14 9.943928953913896973e-14
3.890000000000000000e+03 4.373457336425781250e+01 -2.115095138549804688e+01 2.342617338177768738e-14 -3.102168587114373377e-13 -8.603720221076610608e-14 5.052975724471886476e-14
3.891000000000000000e+03 4.466353988647460938e+01 -2.081450271606445312e+01 -1.849617566041222155e-14 -2.938703696619276995e-13 -9.370995868391088224e-14 7.416124971884510003e-15
3.892000000000000000e+03 4.906884765625000000e+01 -1.974717903137207031e+01 2.662287741878131136e-14 -1.258430480047950661e-13 -2.976604897351846357e-14 2.676551437896714652e-14
3.893000000000000000e+03 5.128248214721679688e+01 -2.116693305969238281e+01 -5.137603802671600328e-14 -2.050221022684498018e-13 -7.691944141092338372e-14 3.848860114083127448e-14
3.894000000000000000e+03 5.488392639160156250e+01 -2.092589187622070312e+01 1.741181763386442233e-14 -1.069151616740239563e-13 -2.685100372026762855e-14 1.832052576051373949e-13
3.895000000000000000e+03 5.665020751953125000e+01 -1.982870101928710938e+01 -1.264188677786021175e-13 3.404224330812860577e-13 6.420106552504703523e-14 9.727758691884663689e-14
3.896000000000000000e+03 5.803038406372070312e+01 -2.172347831726074219e+01 -9.172882993544601016e-14 8.793246892343370424e-14 -1.138907795383923421e-15 4.577881890027116901e-15
3.897000000000000000e+03 6.198555755615234375e+01 -2.252379226684570312e+01 -5.625200012824432827e-14 2.503976843579169831e-13 5.824370662415451205e-14 -1.465761377290181189e-13
3.898000000000000000e+03 6.038236236572265625e+01 -2.237743186950683594e+01 -1.310542674409125377e-14 8.588528515761015281e-14 2.183395811697873279e-14 -3.273752186764948557e-14
3.899000000000000000e+03 6.413239288330078125e+01 -2.101865768432617188e+01 6.620830999334165190e-14 -1.737595934107535878e-14 1.464970587330624574e-14 2.631219081592611753e-14
3.900000000000000000e+03 6.476078796386718750e+01 -1.995158195495605469e+01 -9.352338781881686103e-14 -2.230852492752372074e-13 -9.498258841771078931e-14 -5.713406635819706647e-14
3.901000000000000000e+03 6.746363067626953125e+01 -2.034041786193847656e+01 2.126254969076098178e-14 5.486346918220572078e-14 2.283780566189001077e-14 -5.813559133876697316e-14
3.902000000000000000e+03 6.767721557617187500e+01 -2.130851745605468750e+01 -7.107045529343436474e-14 -7.583292006222829701e-15 -2.359612376638068471e-14 -4.618245889875804977e-14
3.903000000000000000e+03 7.078915405273437500e+01 -2.054252243041992188e+01 1.056749241741929482e-14 -1.784748699740559830e-13 -5.037221250466135392e-14 5.745492243861699544e-15
3.904000000000000000e+03 7.094731140136718750e+01 -2.137032127380371094e+01 -4.023749039581796250e-14 -8.587106178035985860e-14 -3.783256395878745182e-14 -1.278620899479790407e-13
3.905000000000000000e+03 7.363183593750000000e+01 -2.051659584045410156e+01 1.016771065400715740e-14 -2.701481074431077989e-13 -7.799411615681817178e-14 -4.338307938258657848e-14
3.906000000000000000e+03 7.750980377197265625e+01 -2.131489753723144531e+01 6.012498712879704721e-14 1.172697464309202520e-13 5.321841939028883195e-14 -5.203535492033159460e-14
3.907000000000000000e+03 4.178185164928436279e-01 -2.038574981689453125e+01 9.486564027274928257e-15 4.981661987763473520e-14 1.779095466325313069e-14 -4.205887550669425157e-14
3.908000000000000000e+03 4.884586811065673828e+00 -2.328067016601562500e+01 -2.627067921348884196e-16 -2.288673265661567147e-13 -6.873901404677584814e-14 -8.562203409386709430e-14
3.909000000000000000e+03 3.057395696640014648e+00 -2.345055961608886719e+01 -1.590785473183989329e-14 -6.817652148936089590e-15 -6.817652148936089590e-15 -7.385430191941908667e-15
3.910000000000000000e+03 7.277546882629394531e+00 -2.311997795104980469e+01 1.771727804343505713e-14 -1.528235478161048266e-14 7.304771373660499511e-16 -6.835467792915689289e-14
3.911000000000000000e+03 8.536313056945800781e+00 -2.458274459838867188e+01 7.539113647606066060e-14 3.231048851322533555e-14 3.231048851322533555e-14 -6.226262723712377989e-14
3.912000000000000000e+03 1.281495380401611328e+01 -2.512577629089355469e+01 -2.250943046999730537e-15 -1.039043254647681325e-13 -3.184657873240952231e-14 -1.514400550220364877e-14
3.913000000000000000e+03 1.683627128601074219e+01 -2.491759681701660156e+01 4.803724760094225943e-14 -9.378997958050389050e-14 -1.372581908564872097e-14 -4.797331355408350484e-14
3.914000000000000000e+03 1.787694358825683594e+01 -2.347389793395996094e+01 9.611041617511167923e-14 -1.189381438389952583e-13 -6.848318129758484279e-15 6.562368785314673381e-14
3.915000000000000000e+03 1.991631507873535156e+01 -2.349337196350097656e+01 4.635850283838359454e-14 -1.158584794265114445e-14 1.043179604520326140e-14 6.386140531319806080e-15
3.916000000000000000e+03 2.602472114562988281e+01 -2.434723472595214844e+01 2.405876638590740552e-14 -1.256457418441275439e-14 3.448257575745100612e-15 -4.358789194923266830e-15
3.917000000000000000e+03 3.154188919067382812e+01 -2.257029533386230469e+01 1.807616251505491517e-14 -2.438832827095921418e-13 -6.774213758302047306e-14 5.575441909370926208e-15
3.918000000000000000e+03 3.261721801757812500e+01 -2.291233253479003906e+01 -4.114131859625155818e-14 -8.625842011153461719e-14 -3.821992228996221042e-14 5.593270258844734721e-14
3.919000000000000000e+03 3.552097702026367188e+01 -2.354586982727050781e+01 -4.765558980150252227e-15 -1.164197590327459286e-13 -3.635559260866012832e-14 -3.248755693920058439e-15
3.920000000000000000e+03 4.007156372070312500e+01 -2.339610481262207031e+01 -1.212908490007616469e-14 -1.882019794998898710e-13 -6.009931864236345289e-14 -3.577703268326870925e-15
3.921000000000000000e+03 4.285548782348632812e+01 -2.467057609558105469e+01 -2.284499188941451625e-14 -1.699190376076853415e-13 -5.782920935734972567e-14 1.062312130623022099e-14
3.922000000000000000e+03 4.468446350097656250e+01 -2.317690467834472656e+01 -1.960662060766955872e-14 -2.142821103933226223e-13 -7.016661692860540200e-14 2.046250504922266650e-14
3.923000000000000000e+03 4.583741378784179688e+01 -2.265113258361816406e+01 -7.353220070056669389e-16 -2.319061182508037194e-14 -7.177780064922516939e-15 5.959285900847526712e-15
3.924000000000000000e+03 4.638551330566406250e+01 -2.381891822814941406e+01 3.659131171348563305e-14 -7.581990455396078743e-14 -1.176857836036231467e-14 -4.860991302405373582e-14
3.925000000000000000e+03 4.832369995117187500e+01 -2.142720413208007812e+01 2.261062973137051291e-14 -3.105663783867923522e-13 -8.638672188612112057e-14 8.153527630621812405e-14
3.926000000000000000e+03 5.457329940795898438e+01 -2.271410369873046875e+01 4.221723678651291556e-14 -4.782373007669723716e-15 1.123045917600460492e-14 1.086865582884850856e-13
3.927000000000000000e+03 5.702688980102539062e+01 -2.306351661682128906e+01 -9.646699671711500557e-14 9.590984554946543894e-14 -1.671451041259196918e-16 3.807671951176760938e-14
3.928000000000000000e+03 6.158124160766601562e+01 -2.582476043701171875e+01 4.179117582591221347e-14 -1.422178211784794200e-13 -3.012799292814380414e-14 1.593779395839354379e-14
3.929000000000000000e+03 6.033975982666015625e+01 -2.414035987854003906e+01 -3.243746552828233320e-14 5.472465064654610800e-14 6.686156213105490242e-15 4.843127038734601486e-14
3.930000000000000000e+03 6.348176574707031250e+01 -2.132188796997070312e+01 -6.887687035300738003e-14 6.198324188980142146e-14 -2.068088750720024384e-15 8.241025456446823827e-14
3.931000000000000000e+03 6.492171478271484375e+01 -2.191778182983398438e+01 -7.494823988860033204e-14 -3.212067520600922488e-14 -3.212067520600922488e-14 -1.311053452216978665e-13
3.932000000000000000e+03 6.663249969482421875e+01 -2.356633186340332031e+01 -2.125377104129563821e-14 -7.773518157297432118e-14 -2.969668713953370343e-14 -3.315527174097172847e-14
3.933000000000000000e+03 6.837931823730468750e+01 -2.300999450683593750e+01 -1.987516393326706210e-14 -5.426887577015572506e-14 -2.224321224984001505e-14 -9.713187014686458509e-14
3.934000000000000000e+03 7.001034545898437500e+01 -2.329725646972656250e+01 -2.601265116665679028e-14 -1.484011210358543442e-13 -5.232413216897310870e-14 -9.321424112185977551e-14
3.935000000000000000e+03 7.138173675537109375e+01 -2.295784950256347656e+01 -9.244625159517735197e-15 -3.961982211221886513e-15 -3.961982211221886513e-15 -2.213238476495536788e-14
3.936000000000000000e+03 7.614780426025390625e+01 -2.268652343750000000e+01 -1.638911852367905264e-14 -9.852580855123846404e-14 -3.447447812247525500e-14 -3.234095798240396724e-14
3.937000000000000000e+03 7.747621917724609375e+01 -2.277345657348632812e+01 -4.008135850671647182e-14 -1.086796193945811784e-13 -4.462829574208154737e-14 -1.370170829280512731e-14
3.938000000000000000e+03 4.227714538574218750e-01 -2.280566596984863281e+01 7.501212650161404039e-14 1.007744777382912904e-13 5.273597991671888363e-14 8.367434451209392748e-15
3.939000000000000000e+03 7.963851165771484375e+01 -2.214051628112792969e+01 1.488070700461554402e-14 -1.308753994934408471e-13 -3.479840723842782257e-14 -4.066673365920149899e-15
3.940000000000000000e+03 4.407420158386230469e+00 -2.745399093627929688e+01 -1.545264059126059270e-14 8.487933527692378965e-14 2.082800993035826415e-14 -7.169281444549535642e-14
3.941000000000000000e+03 2.735558748245239258e+00 -2.539403152465820312e+01 -4.506814639906354947e-14 -1.931491940129412277e-14 -1.931491940129412277e-14 -3.521895570860779368e-14
3.942000000000000000e+03 6.917751312255859375e+00 -2.578667640686035156e+01 -3.205211635925846181e-14 -3.661209451387946456e-14 -2.059926360075455681e-14 -1.026639642981268252e-13
3.943000000000000000e+03 8.676001548767089844e+00 -2.626543807983398438e+01 6.659398442301726895e-15 4.860497651603713776e-14 1.657931299572142775e-14 -3.040187933757258765e-14
3.944000000000000000e+03 8.315356254577636719e+00 -2.720620536804199219e+01 2.721665259700425943e-14 1.166427980543510365e-14 1.166427980543510365e-14 -2.371985833931559290e-14
3.945000000000000000e+03 1.417477703094482422e+01 -2.503625297546386719e+01 7.635787889568451670e-14 -1.045280398695447310e-13 -8.451047614531706498e-15 -2.860181574004458382e-14
3.946000000000000000e+03 1.802160644531250000e+01 -2.475378608703613281e+01 -4.597349671770336113e-15 -7.059671315416682358e-14 -2.255822041479210033e-14 -2.901640448640767367e-14
3.947000000000000000e+03 3.246495437622070312e+01 -2.409468269348144531e+01 2.350356000590473476e-14 -2.186817892567416433e-13 -5.855346996109719870e-14 5.205662222357125557e-14
3.948000000000000000e+03 3.563242340087890625e+01 -2.501412200927734375e+01 -3.592419872862351315e-14 -6.114703063548124207e-14 -2.912136880923142657e-14 -3.736846783072324263e-15
3.949000000000000000e+03 3.715638732910156250e+01 -2.463031196594238281e+01 3.692913894603674918e-14 -1.786147591593609252e-13 -4.250568538637089500e-14 -7.579476122795449078e-15
3.950000000000000000e+03 4.495904922485351562e+01 -2.601229286193847656e+01 5.596851514145725903e-15 -8.392052108568623381e-14 -2.349710053264897347e-14 1.306690876784781172e-14
3.951000000000000000e+03 4.824288558959960938e+01 -2.675044059753417969e+01 -4.014704760584193732e-14 -1.544587212038567303e-13 -5.838173233697549480e-14 -3.125987289116435863e-14
3.952000000000000000e+03 5.032279205322265625e+01 -2.543445777893066406e+01 -2.332375100482864463e-15 -2.983807591196846465e-13 -9.021394200246779516e-14 -4.653464503383102080e-14
3.953000000000000000e+03 5.261065292358398438e+01 -2.586515617370605469e+01 -1.112713386193378909e-14 -3.707763534133851069e-13 -1.145710452508594268e-13 2.854336030228867005e-14
3.954000000000000000e+03 5.455306243896484375e+01 -2.492223167419433594e+01 2.529492457506443692e-14 -9.209894945207824923e-14 -2.004120780191732260e-14 4.874186720470879974e-14
3.955000000000000000e+03 5.673099517822265625e+01 -2.537807083129882812e+01 -3.963933944538949872e-14 -6.273923573588482960e-14 -3.071357390963501410e-14 3.399703275516231804e-14
3.956000000000000000e+03 5.785077285766601562e+01 -2.567391204833984375e+01 -4.436951701229999157e-15 -1.162789211705400616e-13 -3.621476152271783933e-14 9.083962152368202370e-14
3.957000000000000000e+03 6.311016845703125000e+01 -2.686019515991210938e+01 -4.092002615658368869e-14 -1.753715479313553566e-14 -1.753715479313553566e-14 4.759302625395242514e-14
3.958000000000000000e+03 6.632482147216796875e+01 -2.467225074768066406e+01 -3.753417458026049591e-14 -3.896155045726018562e-14 -2.294871785006938336e-14 -4.931670780842882518e-14
3.959000000000000000e+03 6.871829986572265625e+01 -2.377479171752929688e+01 -2.614446812797439901e-14 -1.027066683111955980e-13 -3.865534127056417801e-14 -1.846348594847224689e-13
3.960000000000000000e+03 7.260411071777343750e+01 -2.501848411560058594e+01 2.612103411445566153e-14 -8.030716662412590301e-14 -1.625583958349448299e-14 -1.005954708774162501e-14
3.961000000000000000e+03 7.348279571533203125e+01 -2.445418167114257812e+01 -7.217614499772581627e-14 -1.681854796490439563e-13 -7.210849078216272079e-14 -3.784727861514715352e-14
3.962000000000000000e+03 7.484171295166015625e+01 -2.488778877258300781e+01 -9.056939768471716778e-14 -2.675701999375890150e-13 -1.074418806419445704e-13 -6.172347382553747264e-14
3.963000000000000000e+03 7.808900451660156250e+01 -2.438337898254394531e+01 -1.562016846163444272e-14 -2.812000578136103490e-13 -8.904606652732072192e-14 5.068139647106811863e-14
3.964000000000000000e+03 7.961499786376953125e+01 -2.452371025085449219e+01 -4.577706893020214163e-14 -1.111206395995600893e-13 -4.706931255892866928e-14 -1.826360370650224017e-15
3.965000000000000000e+03 3.431821823120117188e+00 -2.725182533264160156e+01 -4.244491924273487149e-14 -1.096925759318072291e-13 -4.564124889117580908e-14 1.394637799478426823e-14
3.966000000000000000e+03 1.100755596160888672e+01 -2.729943656921386719e+01 4.922920252871387792e-14 2.109823038119133104e-14 2.109823038119133104e-14 -3.162852873486374228e-14
3.967000000000000000e+03 1.314070129394531250e+01 -2.643005752563476562e+01 1.010304510949515400e-13 -1.168295603488911372e-13 -4.739730404489626847e-15 2.952770406655647051e-14
3.968000000000000000e+03 1.578730392456054688e+01 -2.782644271850585938e+01 3.729663604866428894e-14 -2.976667577789943175e-14 2.258987318899804628e-15 -5.402610596307727553e-14
3.969000000000000000e+03 2.896639823913574219e+01 -2.611298561096191406e+01 5.060420127638715071e-14 -1.613162863923003898e-13 -3.321362214664218271e-14 1.112822738146869439e-14
3.970000000000000000e+03 3.947311782836914062e+01 -2.715345382690429688e+01 -1.797640575079088171e-14 -1.506758856139461811e-13 -5.059568690120135048e-14 1.151700195173126218e-14
3.971000000000000000e+03 5.020834732055664062e+01 -2.764257621765136719e+01 -3.057744893874767000e-15 -1.156878276986281207e-13 -3.562367482706947641e-14 -4.075174442688678234e-14
3.972000000000000000e+03 5.201028060913085938e+01 -2.661331176757812500e+01 -6.378583642177582114e-14 -1.989028516544144587e-13 -7.880660371235165274e-14 1.010079589820701493e-14
3.973000000000000000e+03 5.298445129394531250e+01 -2.693795013427734375e+01 -1.932470093776901543e-15 -3.439603202953778194e-13 -1.037678379637793635e-13 8.125297038929363280e-14
3.974000000000000000e+03 6.086573410034179688e+01 -2.862307739257812500e+01 2.414923797500363734e-14 1.018515716102834368e-13 3.780024118152022772e-14 1.631408665114537221e-14
3.975000000000000000e+03 6.870507049560546875e+01 -2.644437026977539062e+01 3.575482940862233228e-14 1.532349855999041305e-14 1.532349855999041305e-14 -1.302677448333441901e-13
3.976000000000000000e+03 7.315207672119140625e+01 -2.585169219970703125e+01 2.681458977386516618e-14 -1.138350701814514268e-14 4.629324742012712324e-15 -1.875128334940037722e-14
3.977000000000000000e+03 7.534581756591796875e+01 -2.632721328735351562e+01 9.305798726001388022e-14 -1.659972750618979309e-13 -2.188178498531249960e-14 1.811428746801083123e-14
3.978000000000000000e+03 7.800023651123046875e+01 -2.595672035217285156e+01 -1.736009441397328573e-14 -1.446928921079379537e-13 -4.861589307666135118e-14 4.406700088925401271e-14
3.979000000000000000e+03 1.502726554870605469e+00 -2.610037612915039062e+01 -2.761447686727529216e-14 7.966712142412624154e-14 1.561579438349482152e-14 -5.431531350445599482e-14
3.980000000000000000e+03 7.960047912597656250e+01 -2.611586189270019531e+01 -4.818313039138197307e-14 -2.036537036015015345e-13 -7.555104952023869447e-14 -5.623542792863129788e-15
3.981000000000000000e+03 4.175702095031738281e+00 -2.983665275573730469e+01 -9.857268674267130604e-14 -4.224543620739290573e-14 -4.224543620739290573e-14 -1.015072493290927746e-13
3.982000000000000000e+03 2.290689706802368164e+00 -2.941598510742187500e+01 6.870428230780663281e-15 9.444636912825377095e-14 3.039503869949056192e-14 -5.202053523188643336e-14
3.983000000000000000e+03 6.671730995178222656e+00 -2.956970405578613281e+01 -6.686334937057360900e-15 -2.574104666398790986e-14 -9.728214903830054855e-15 -6.146825941039796293e-14
3.984000000000000000e+03 1.054446506500244141e+01 -2.888522148132324219e+01 6.552163647662858845e-15 3.712128328792370369e-14 1.310203353010455304e-14 -4.882044475715968668e-14
3.985000000000000000e+03 1.419006824493408203e+01 -2.843442344665527344e+01 4.989622064588590533e-15 -1.351144402524789845e-13 -3.903744460933417093e-14 -2.108019366161249797e-14
3.986000000000000000e+03 1.746840095520019531e+01 -2.826742553710937500e+01 1.200055188549506088e-14 -1.206720135057612331e-13 -3.260143755434360968e-14 -2.656494205925501173e-14
3.987000000000000000e+03 2.490161132812500000e+01 -2.955091094970703125e+01 3.802992602362949282e-14 -8.092222774031335164e-14 -1.286769000678538930e-14 1.000557838350731726e-14
3.988000000000000000e+03 3.649757385253906250e+01 -2.832661247253417969e+01 -1.085444558060889679e-15 -8.052935353058607304e-14 -2.448443940541826513e-14 9.435842847360393498e-15
3.989000000000000000e+03 3.903625869750976562e+01 -2.933217430114746094e+01 1.672611227581007054e-14 -3.572318086958112260e-14 -5.699120154614841990e-15 7.424938349700690998e-15
3.990000000000000000e+03 5.177736663818359375e+01 -2.873980140686035156e+01 3.020307054045663631e-14 -2.158105644059840622e-13 -5.568224849847140667e-14 1.517938416258632957e-15
3.991000000000000000e+03 6.317733001708984375e+01 -2.901094245910644531e+01 3.805565719050118395e-15 9.313285142002400430e-14 2.908152776752437330e-14 -4.746485322837390441e-14
3.992000000000000000e+03 7.270272064208984375e+01 -2.847077178955078125e+01 -2.975961152311933089e-14 -8.138054032741370847e-14 -3.334204589397309071e-14 -9.213491108288687781e-14
3.993000000000000000e+03 7.465297698974609375e+01 -2.815338516235351562e+01 -4.859992142340792409e-15 6.654357241012848201e-14 1.850507289449018072e-14 7.423125021567208992e-14
3.994000000000000000e+03 7.540074157714843750e+01 -2.724546051025390625e+01 8.448749783552395032e-14 1.277108301923901568e-13 6.365949298736336970e-14 2.332014349150628857e-14
3.995000000000000000e+03 7.710364532470703125e+01 -2.742703056335449219e+01 5.471682745024526728e-14 -2.230087994695498232e-14 9.724785267426622193e-15 -3.817276965985445802e-14
3.996000000000000000e+03 4.540162682533264160e-01 -2.846778106689453125e+01 -6.316152570580435555e-14 1.868172330970595957e-14 -1.334394021060975044e-14 -5.404184044710547141e-14
3.997000000000000000e+03 7.958742523193359375e+01 -2.770972824096679688e+01 -4.187841683134761739e-14 -6.369884274996101547e-14 -3.167317753557941096e-14 6.735071307018242019e-16
3.998000000000000000e+03 2.420174598693847656e+00 -3.099365806579589844e+01 1.783444980509463901e-14 7.643335630754845289e-15 7.643335630754845289e-15 3.428832399759128291e-14
3.999000000000000000e+03 7.832841873168945312e+00 -3.127180480957031250e+01 -1.752735462193580340e-14 -7.511723651410472102e-15 -7.511723651410472102e-15 1.605415765062144506e-14
4.000000000000000000e+03 1.598529911041259766e+01 -3.119950675964355469e+01 1.013753256416238119e-14 2.200081047857714751e-15 3.701284104781852463e-15 -7.167209940773730525e-14
4.001000000000000000e+03 1.706194305419921875e+01 -2.998818778991699219e+01 4.531384355200770986e-14 -1.006760186285024505e-13 -1.660865252294842220e-14 -2.609756791368492840e-14
4.002000000000000000e+03 2.988424301147460938e+01 -3.023675155639648438e+01 -1.236651839958691212e-14 -5.299936396463466107e-15 -5.299936396463466107e-15 1.628582116169549621e-14
4.003000000000000000e+03 3.033682632446289062e+01 -2.841400909423828125e+01 3.072271508920178251e-14 -1.469614496285923111e-13 -3.487161799012490626e-14 1.925789036702138524e-14
4.004000000000000000e+03 5.375743865966796875e+01 -3.026962280273437500e+01 2.044598409510294500e-15 -9.062564067241485333e-14 -2.657431363178343331e-14 6.871892920153055417e-14
4.005000000000000000e+03 5.893265151977539062e+01 -3.278219604492187500e+01 -1.131083328533661822e-14 -8.491165805419101376e-14 -2.886674731715499487e-14 4.034035407693252473e-14
4.006000000000000000e+03 6.332548141479492188e+01 -3.169440269470214844e+01 1.808096688593174156e-14 5.349993587250648219e-14 2.147427065812487768e-14 -2.651257678838985637e-14
4.007000000000000000e+03 6.998711395263671875e+01 -3.078287506103515625e+01 6.209338327799879265e-14 2.661144925025695634e-14 2.661144925025695634e-14 -4.537402354884423339e-14
4.008000000000000000e+03 7.430707550048828125e+01 -2.944463539123535156e+01 -2.615972954410155336e-15 -3.980565690568172235e-15 -1.978961614669321953e-15 -3.713043463188583915e-14
4.009000000000000000e+03 7.538684844970703125e+01 -2.936372184753417969e+01 -1.896092061571402754e-14 8.337579080917520424e-14 1.932446038041199521e-14 -2.911409787841219565e-14
4.010000000000000000e+03 7.693056488037109375e+01 -2.976992416381835938e+01 2.389141469838658438e-14 7.886559786306202025e-14 3.082710342962140249e-14 -5.616611098739274222e-14
4.011000000000000000e+03 4.560311734676361084e-01 -2.927176284790039062e+01 2.021096506300834594e-14 -5.996457941737781683e-14 -1.192608498393719907e-14 -7.580015174563081715e-14
4.012000000000000000e+03 2.712260961532592773e+00 -3.270095825195312500e+01 4.068964674745767507e-14 -2.831252857756882263e-14 3.713135789779834633e-15 9.122325672153712602e-16
4.013000000000000000e+03 2.569081878662109375e+01 -3.273543167114257812e+01 2.123573093358501612e-14 -6.524426452662185349e-14 -1.320256024731764066e-14 1.443762068177503050e-14
4.014000000000000000e+03 3.622510528564453125e+01 -3.312088012695312500e+01 1.758423457840982418e-14 -5.537145516946485879e-14 -1.133616634672309983e-14 2.243193796675185120e-14
4.015000000000000000e+03 3.844427108764648438e+01 -3.210590744018554688e+01 -1.138097015446811605e-14 -3.919077112531435536e-14 -1.517152221452815197e-14 -1.013637043495874829e-14
4.016000000000000000e+03 5.221673202514648438e+01 -3.268879318237304688e+01 2.904952008651352779e-14 -5.617662774846585161e-14 -8.138131620959339341e-15 1.059995664918871039e-14
4.017000000000000000e+03 6.872259521484375000e+01 -3.102047729492187500e+01 -1.191680912613181723e-14 -9.660910174060996503e-14 -3.255777469997854501e-14 -1.171118188319705822e-13
4.018000000000000000e+03 7.421681976318359375e+01 -3.141996383666992188e+01 9.315922463786971419e-14 3.992538247167727594e-14 3.992538247167727594e-14 -5.477222001686390951e-14
4.019000000000000000e+03 7.574623870849609375e+01 -3.099914360046386719e+01 6.034797363435942530e-14 -1.571403733047552209e-13 -2.903771922349238088e-14 1.006254405971560018e-13
4.020000000000000000e+03 7.749713134765625000e+01 -3.155128097534179688e+01 1.041491891372921946e-14 -1.841193823380778138e-14 -2.399105838375215939e-15 7.265842522910168078e-14
4.021000000000000000e+03 4.858483374118804932e-01 -3.089001274108886719e+01 -8.126493049450886352e-14 -1.263297192549694969e-13 -6.227839560246986594e-14 -4.501867967494389833e-14
4.022000000000000000e+03 7.952559661865234375e+01 -3.091767501831054688e+01 -9.400524114558730937e-14 -4.028796000694716273e-14 -4.028796000694716273e-14 -6.548151676108188851e-15
4.023000000000000000e+03 2.830813407897949219e+00 -3.433245849609375000e+01 -4.940860918914002226e-15 2.266372311175712806e-13 6.650891182192683604e-14 -7.948095035858332436e-14
4.024000000000000000e+03 2.420064353942871094e+01 -3.458789443969726562e+01 3.732606959654842863e-15 -4.415126033871508149e-14 -1.212559597136642422e-14 -2.907343690881220022e-14
4.025000000000000000e+03 5.704326248168945312e+01 -3.396964645385742188e+01 4.728294104448978186e-14 -2.548683174772616022e-14 6.538833043138970666e-15 -1.085934185456050027e-14
4.026000000000000000e+03 6.339291763305664062e+01 -3.472941589355468750e+01 5.812359142300322148e-16 -3.406411098832128059e-14 -1.004486207753507720e-14 -1.429011497620837762e-14
4.027000000000000000e+03 6.748253631591796875e+01 -3.260465240478515625e+01 4.910442441118795243e-14 -5.901940584472284423e-14 -2.974495531203298973e-15 -6.226941027696539233e-14
4.028000000000000000e+03 7.338722229003906250e+01 -3.276322555541992188e+01 5.176261369944749891e-14 6.793492905807912985e-14 3.590926384369752533e-14 -1.042875964384559154e-15
4.029000000000000000e+03 7.520201110839843750e+01 -3.317541503906250000e+01 3.911430776709981516e-14 6.251422312751261923e-14 3.048856130126280373e-14 6.391753988067849779e-14
4.030000000000000000e+03 5.360493063926696777e-01 -3.332252883911132812e+01 -3.052670827707534840e-14 9.792600419249695987e-15 -6.220232187941106272e-15 -5.815116319246929621e-14
4.031000000000000000e+03 7.955711364746093750e+01 -3.334106445312500000e+01 -4.986422821146811041e-15 4.361390941324053139e-14 1.158824589292482138e-14 9.387436439084115292e-14
4.032000000000000000e+03 3.978751420974731445e+00 -3.788309478759765625e+01 -2.952551872155255441e-14 1.474745212016667639e-13 3.538470311572651517e-14 -5.154588846143122460e-14
4.033000000000000000e+03 6.734332275390625000e+01 -3.628017044067382812e+01 3.326470839775698407e-14 -6.580785992093413084e-14 -9.762944948733375677e-15 -2.137654677293425454e-14
4.034000000000000000e+03 6.951533508300781250e+01 -3.617174148559570312e+01 9.612163089133332616e-14 -4.555965336033385507e-15 2.746969860779879813e-14 4.122226868798770441e-15
4.035000000000000000e+03 7.316527557373046875e+01 -3.487339019775390625e+01 3.048366545082767387e-14 -6.951612103610251697e-15 7.059616004165226652e-15 3.409251369710861179e-14
4.036000000000000000e+03 7.556924438476562500e+01 -3.551363754272460938e+01 6.259230431865641514e-16 6.603524422155865325e-14 1.999834962885214951e-14 9.654425967443175383e-14
4.037000000000000000e+03 4.332462549209594727e-01 -3.494758224487304688e+01 -1.424434165455193413e-13 9.908114368024911744e-14 -1.300868372305355111e-14 -4.859694664369716699e-14
4.038000000000000000e+03 7.958127593994140625e+01 -3.491947937011718750e+01 -1.396693091043621493e-13 -1.410732950135563588e-14 -4.613299217463839863e-14 3.847355360052330184e-15
4.039000000000000000e+03 2.840944528579711914e+00 -3.827067947387695312e+01 1.053428855648033680e-13 -6.039989188358666720e-16 3.142166634848529705e-14 1.256320351569750748e-13
4.040000000000000000e+03 7.601288795471191406e+00 -3.827440261840820312e+01 -7.770986884037857367e-15 -2.620589834544106989e-14 -1.019306573825026763e-14 3.979537985493268593e-14
4.041000000000000000e+03 6.722077941894531250e+01 -3.853560638427734375e+01 2.618526462284595513e-14 -6.884190483294472251e-14 -1.279699155480986186e-14 1.695349488236869845e-14
4.042000000000000000e+03 7.238559722900390625e+01 -3.733013153076171875e+01 3.927203885440572195e-14 -5.179554972856853512e-14 -3.757053177545549225e-15 3.477245753705573983e-14
4.043000000000000000e+03 7.686965942382812500e+01 -3.604132080078125000e+01 5.763014306221780902e-14 4.757410692604255309e-14 3.156127431885175083e-14 -5.849299180866324166e-14
4.044000000000000000e+03 4.272733330726623535e-01 -3.639977264404296875e+01 2.960753861590108282e-14 8.131536622432017358e-14 3.327687179087955582e-14 3.383626590177345184e-14
4.045000000000000000e+03 7.944803619384765625e+01 -3.646681594848632812e+01 -8.806915801826391971e-15 8.772750727898889767e-14 2.367617685022568863e-14 2.185806806278937919e-14
4.046000000000000000e+03 3.173737764358520508e+00 -4.013710784912109375e+01 6.038732085585822931e-15 4.833897767741318630e-14 1.631331246303158178e-14 -4.514148251163682679e-14
4.047000000000000000e+03 2.822470664978027344e+01 -4.090270614624023438e+01 2.130545190953941209e-14 -8.237099289329710694e-14 -1.831966246453389791e-14 1.115099816818973175e-15
4.048000000000000000e+03 1.338436031341552734e+01 -3.839991378784179688e+01 2.669670311639810167e-14 -4.574724320606342320e-14 -5.715161264569943930e-15 6.550638564841327477e-15
4.049000000000000000e+03 7.514116668701171875e+01 -3.843643569946289062e+01 -4.184100508013328945e-15 -9.329508194634572593e-14 -2.924375490571430591e-14 4.216046186212435432e-14
4.050000000000000000e+03 7.674762725830078125e+01 -3.775751495361328125e+01 1.920363960081564181e-14 3.110560447454682742e-14 1.509277356142191967e-14 -5.420537540416596467e-14
4.051000000000000000e+03 5.259892344474792480e-01 -3.798153686523437500e+01 1.479665728051221540e-13 1.091651928900559676e-13 7.713952767567436308e-14 6.261497261439083473e-14
4.052000000000000000e+03 7.936199951171875000e+01 -3.806163024902343750e+01 -1.683043285359391017e-14 -7.213042893549660717e-15 -7.213042893549660717e-15 3.074416535155805041e-14
4.053000000000000000e+03 3.262775039672851562e+01 -4.123867034912109375e+01 2.132818796790961202e-14 -4.804803541255849020e-14 -8.015953894581484551e-15 -1.194193805257801055e-14
4.054000000000000000e+03 4.809213256835937500e+01 -4.078884124755859375e+01 4.206205018618056068e-14 -9.635077702048813753e-14 -1.628661906673180976e-14 6.941125835723243459e-15
4.055000000000000000e+03 5.246317672729492188e+01 -4.097839355468750000e+01 4.257788986292664057e-14 -5.037875498714594613e-14 -2.340259706672381118e-15 1.129239083697605034e-14
4.056000000000000000e+03 7.083579254150390625e+01 -4.032784271240234375e+01 3.721288820710336176e-14 -7.555351608018109899e-14 -1.150218903954967897e-14 2.783916929719344041e-14
4.057000000000000000e+03 5.890950560569763184e-01 -3.959718322753906250e+01 1.147995188358541183e-14 -1.323328653688587986e-13 -3.625587311384577405e-14 -1.907917319141430590e-14
4.058000000000000000e+03 7.943099975585937500e+01 -4.047463226318359375e+01 7.289116277795285037e-14 -6.026282988250142303e-14 3.788501393294733260e-15 -9.553076781238303838e-14
4.059000000000000000e+03 7.579800415039062500e+01 -1.506140708923339844e+01 -1.010588842969249723e-13 -4.331095283306198029e-14 -4.331095283306198029e-14 -1.782385850512217124e-14
4.060000000000000000e+03 7.362328338623046875e+01 -1.425294589996337891e+01 1.495207969481708588e-14 6.408034638940435235e-15 6.408034638940435235e-15 -7.113555485762854125e-14
4.061000000000000000e+03 7.359764099121093750e+01 -1.351493453979492188e+01 -6.885605367129565835e-14 -1.210116398362923174e-13 -5.696030263126553028e-14 -7.258141299353731979e-14
4.062000000000000000e+03 6.663077545166015625e+01 -1.561403560638427734e+01 2.548334197198347251e-14 1.024233324022072456e-13 3.837200197344403652e-14 7.477408313838126985e-14
4.063000000000000000e+03 6.372016143798828125e+01 -1.521591472625732422e+01 -1.156057671466981240e-13 -9.529627521126515788e-14 -6.327061677314713140e-14 -2.200380855169395411e-14
4.064000000000000000e+03 5.970638275146484375e+01 -1.483618640899658203e+01 -1.257316326790450245e-13 -9.963592993190995006e-14 -6.761026471752834555e-14 9.522311189341312043e-14
4.065000000000000000e+03 6.252042388916015625e+01 -1.508002185821533203e+01 -6.208346282812055028e-14 3.058148759184017851e-14 -9.450593079103879884e-15 7.242570800904124528e-14
4.066000000000000000e+03 5.849859237670898438e+01 -1.600608634948730469e+01 -1.849172263880191625e-13 -1.192823238186507817e-13 -9.125986506200098325e-14 1.179776897919718182e-13
4.067000000000000000e+03 7.527237701416015625e+01 -1.458985710144042969e+01 -2.290253591971918440e-14 1.274374757196522490e-13 3.136048007650743541e-14 -5.998478623536751542e-14
4.068000000000000000e+03 7.748846435546875000e+01 -1.221170616149902344e+01 -4.173880631988232184e-15 -9.329070448007431571e-14 -2.923937405131110667e-14 2.234240489016117714e-14
4.069000000000000000e+03 7.761612701416015625e+01 -1.090284538269042969e+01 4.247805517163145972e-14 -2.105498663872856779e-13 -5.042154370350944437e-14 -5.044842514112350684e-14
4.070000000000000000e+03 7.509562683105468750e+01 -1.079806709289550781e+01 -5.743743290232208865e-14 -2.461604122036727127e-14 -2.461604122036727127e-14 -1.807212284552286996e-13
4.071000000000000000e+03 7.804016876220703125e+01 -8.022016525268554688e+00 1.628815897262991808e-13 -2.169549872328875584e-14 4.235582831734266418e-14 -7.404120312736253706e-14
4.072000000000000000e+03 7.624710845947265625e+01 -9.366210937500000000e+00 5.442452993267496431e-14 -2.511808849022661994e-13 -5.902690716850372832e-14 -9.421492584574600593e-14
4.073000000000000000e+03 7.339537048339843750e+01 -9.501806259155273438e+00 6.445272917807165491e-14 -1.812834990900114712e-14 1.389731530538045740e-14 -1.047132148243416772e-13
4.074000000000000000e+03 7.639240264892578125e+01 -6.065497875213623047e+00 -3.006416814853524536e-15 -3.672960644397066376e-13 -1.110907427246538015e-13 -1.114331388529224073e-14
4.075000000000000000e+03 7.515283966064453125e+01 -6.998066902160644531e+00 -2.180580782400968337e-14 -5.509629482248340482e-14 -2.307063130216769481e-14 -7.517468906485108571e-14
4.076000000000000000e+03 7.386882019042968750e+01 -7.289491176605224609e+00 3.431220355044027615e-14 -7.679666906741655641e-14 -1.274533948568629463e-14 2.941065427764129325e-14
4.077000000000000000e+03 7.140573883056640625e+01 -7.483325004577636719e+00 1.085282918763565141e-13 2.363665090477501396e-14 3.964948351196581622e-14 -5.291917281441925469e-14
4.078000000000000000e+03 7.797987365722656250e+01 -6.103687286376953125e+00 -3.088955686288835656e-14 -2.419931388521895377e-13 -8.186480600401793706e-14 -1.199114592342898078e-13
4.079000000000000000e+03 7.402754974365234375e+01 -4.741117000579833984e+00 4.237226075651939761e-14 -2.105951995906227281e-13 -5.046688368311007256e-14 -3.255403081435168100e-14
4.080000000000000000e+03 7.395091247558593750e+01 -5.359393119812011719e+00 -3.352808821050802524e-14 3.138176770853783049e-14 -6.438963411734715571e-16 -2.938476895077320183e-14
4.081000000000000000e+03 7.010332489013671875e+01 -6.788876056671142578e+00 9.701656524582075170e-14 1.330804227667875539e-13 6.902909911428792289e-14 -9.983419662793965865e-14
4.082000000000000000e+03 7.051467895507812500e+01 -6.103156089782714844e+00 9.997396384050019624e-14 -2.904962808321430272e-15 2.912070134726899018e-14 -7.923844143765262915e-14
4.083000000000000000e+03 6.903521728515625000e+01 -5.703757762908935547e+00 1.475351552081630158e-13 1.089802957620657209e-13 7.695463732394769441e-14 -5.751079950808146712e-14
4.084000000000000000e+03 7.120982360839843750e+01 -4.909124374389648438e+00 1.485004204023268604e-13 -9.648528585251212042e-14 1.560453900969170637e-14 -1.685875594128419946e-14
4.085000000000000000e+03 7.799417877197265625e+01 -4.547222137451171875e+00 -7.434221830802598130e-14 -2.606156935223979954e-13 -1.004873742267535508e-13 -7.427497744454114592e-14
4.086000000000000000e+03 7.552356719970703125e+01 -3.676380157470703125e+00 4.939112812317458800e-14 -1.618361748865343452e-13 -3.373351064087613815e-14 2.698517882131039325e-14
4.087000000000000000e+03 7.033596801757812500e+01 -4.102843761444091797e+00 9.437048175244336368e-14 4.044449169559975743e-14 4.044449169559975743e-14 -2.886082443927131917e-15
4.088000000000000000e+03 3.618458175659179688e+01 -3.265022754669189453e+00 9.868914276149045803e-16 -6.400903570201454951e-13 -1.917310304662758758e-13 4.774685336640443686e-15
4.089000000000000000e+03 3.926865768432617188e+01 -3.033361673355102539e+00 -5.813357878848429694e-14 -4.366729417296100202e-13 -1.484419548001755795e-13 2.943039692157589649e-13
4.090000000000000000e+03 4.883453369140625000e+01 -3.060293197631835938e+00 -1.751877587224601185e-13 -2.580842711850245275e-13 -1.299816103274981094e-13 7.650587926849236609e-14
4.091000000000000000e+03 5.060934066772460938e+01 -4.840836048126220703e+00 -2.731923031979582861e-13 -1.170824234005690689e-13 -1.170824234005690689e-13 1.068432451886702772e-13
4.092000000000000000e+03 5.277392959594726562e+01 -3.718145370483398438e+00 -1.681175679354648955e-13 1.109534081907177783e-13 -1.714924589054506177e-14 -2.300960596644981149e-14
4.093000000000000000e+03 5.630033493041992188e+01 -5.051695346832275391e+00 -1.153812153242492200e-13 -4.944909566995288330e-14 -4.944909566995288330e-14 6.152570179674896056e-14
4.094000000000000000e+03 5.655886840820312500e+01 -4.299250602722167969e+00 -1.008847885330781124e-13 2.514610003919890910e-15 -2.951105478694523998e-14 1.647989877158126393e-13
4.095000000000000000e+03 6.107611083984375000e+01 -5.237686157226562500e+00 -1.105435458882003674e-13 2.125061669060006320e-14 -2.678787943690644907e-14 -1.882101381212378244e-13
4.096000000000000000e+03 4.663167572021484375e+01 -2.678207635879516602e+00 -1.834389031733080211e-13 3.576069765288091007e-14 -4.430346199494131221e-14 1.343273636853631325e-13
4.097000000000000000e+03 6.318861389160156250e+01 -3.017882823944091797e+00 -2.619213710936679762e-13 9.362724761067739432e-14 -5.048823907777624798e-14 -2.579906232223760920e-13
4.098000000000000000e+03 7.959860229492187500e+01 4.182048797607421875e+00 -5.151749252890747144e-14 2.367202300065235354e-14 -8.353640519663356467e-15 4.453632151653688642e-14
4.099000000000000000e+03 7.718611907958984375e+01 3.678841590881347656e+00 -1.103712322816745306e-13 -9.305290506233035441e-14 -6.102723984794874990e-14 6.855593295742451465e-14
4.100000000000000000e+03 7.742051696777343750e+01 5.280361652374267578e+00 8.344099879358662930e-14 -2.387452757192376485e-13 -4.659128104481623234e-14 5.924615317657103142e-14
4.101000000000000000e+03 7.960128784179687500e+01 5.797207355499267578e+00 -8.225954368622917512e-14 1.049685833994775871e-14 -2.152880602740089855e-14 5.782739331871081245e-14
4.102000000000000000e+03 3.873983764648437500e+01 -6.907541275024414062e+00 4.556725548103546242e-14 -2.950089445733633520e-13 -7.483250808295108247e-14 1.164469725072753148e-13
4.103000000000000000e+03 4.358036041259765625e+01 -6.231286525726318359e+00 7.250408904984836922e-14 7.682413326369832984e-14 4.479846804931672533e-14 -1.851779405880851943e-15
4.104000000000000000e+03 4.462173843383789062e+01 -8.508914947509765625e+00 -9.422742127578390137e-14 -8.613412988498631018e-14 -5.410846467060470566e-14 1.224258867026095654e-13
4.105000000000000000e+03 3.856272888183593750e+01 -8.022789955139160156e+00 -9.896882033517961919e-14 -4.084228072930018438e-13 -1.522174855779490077e-13 1.757028225170265134e-13
4.106000000000000000e+03 4.445547485351562500e+01 -1.024422073364257812e+01 -1.612530096430087045e-13 -1.491725850916864049e-13 -9.312768113091396405e-14 3.738626229887916097e-14
4.107000000000000000e+03 4.190456771850585938e+01 -9.927514076232910156e+00 -1.142123640671469098e-14 -5.064576348904302472e-14 -1.862009996872731471e-14 4.927439004238400033e-14
4.108000000000000000e+03 4.254304122924804688e+01 -1.190015697479248047e+01 -4.704071672662936410e-14 -1.116622053609801768e-13 -4.761087493221696776e-14 4.024219989900469641e-14
4.109000000000000000e+03 4.208615875244140625e+01 -1.296013259887695312e+01 -1.682017020240497707e-13 -5.753468990295218521e-13 -2.230645681187970464e-13 7.184191934926642542e-14
4.110000000000000000e+03 4.635650253295898438e+01 -1.197938346862792969e+01 -1.834267973784258626e-14 -2.366159026524761178e-13 -7.648756980430451713e-14 7.280864144009954741e-14
4.111000000000000000e+03 4.057016372680664062e+01 -1.191952228546142578e+01 1.038413333185467247e-13 -1.842513094136785656e-13 -2.412299520023180460e-14 -1.221670458217855048e-16
4.112000000000000000e+03 4.633635330200195312e+01 -1.417004680633544922e+01 -9.037410576839821630e-14 -2.674864995298731341e-13 -1.073581870104922675e-13 1.719227245376014901e-13
4.113000000000000000e+03 4.135144805908203125e+01 -1.341571998596191406e+01 -8.122884689095583033e-14 -2.178161622422292165e-13 -8.971350138470279845e-14 -8.359381031353488312e-14
4.114000000000000000e+03 5.367402648925781250e+01 -4.914063453674316406e+00 -1.325083163854212653e-13 -1.482911829355643141e-13 -8.423985250680110504e-14 1.433273665767467731e-13
4.115000000000000000e+03 5.497339248657226562e+01 -5.147877216339111328e+00 -1.265073928859855590e-13 -2.143457801659018336e-13 -1.022559519155662178e-13 7.309911953089914816e-14
4.116000000000000000e+03 6.205250167846679688e+01 -7.756084918975830078e+00 -8.574387131300015286e-14 3.750111657839505508e-13 8.678018563077968817e-14 -7.201816318866752220e-14
4.117000000000000000e+03 6.106224441528320312e+01 -6.014975547790527344e+00 -6.238718173795163024e-14 6.476453217035132992e-14 7.132052355990283095e-16 1.515781451093614618e-13
4.118000000000000000e+03 6.343048858642578125e+01 -4.687198638916015625e+00 -1.405314395668683103e-13 1.227760433467409151e-13 -5.326618781334923822e-15 -4.875614140393592921e-14
4.119000000000000000e+03 5.650375366210937500e+01 -7.505120754241943359e+00 -4.241029931211469373e-14 2.757510677588691228e-14 -4.450557591461744983e-15 1.558404284524722572e-13
4.120000000000000000e+03 5.502262115478515625e+01 -7.732010364532470703e+00 -6.148185259513549994e-14 -2.093531646868776463e-13 -8.125050382935122828e-14 2.342905058329292078e-13
4.121000000000000000e+03 6.209229660034179688e+01 -8.503680229187011719e+00 -5.696182729057058802e-14 2.500934843333718627e-13 5.793949304708223558e-14 1.288150342008921242e-14
4.122000000000000000e+03 6.082521057128906250e+01 -7.985541343688964844e+00 -1.528365514659110747e-13 7.175146300676324418e-14 -2.432552586011799134e-14 8.216406613241467038e-14
4.123000000000000000e+03 6.340725326538085938e+01 -6.261931896209716797e+00 8.738786061966707930e-14 3.577085730486345705e-13 1.335289301004904949e-13 -1.033783789908954143e-13
4.124000000000000000e+03 5.648136901855468750e+01 -1.093989562988281250e+01 -2.185954461062303289e-13 -1.394347148592905983e-13 -1.074090496449089938e-13 1.620302877329907187e-13
4.125000000000000000e+03 5.611206817626953125e+01 -1.017204284667968750e+01 -1.243922093151564323e-13 -7.559998600173336442e-15 -3.958566127345609920e-14 1.222733123518865428e-13
4.126000000000000000e+03 6.062662887573242188e+01 -1.044988250732421875e+01 -1.646335926743999756e-13 1.810729571925101533e-13 4.931809948356116399e-15 5.969072350113513448e-14
4.127000000000000000e+03 5.365523910522460938e+01 -8.723050117492675781e+00 -1.777005327824668357e-13 -2.134102221112640918e-13 -1.173332264681192783e-13 9.323618943958902894e-14
4.128000000000000000e+03 6.131761550903320312e+01 -1.246124553680419922e+01 4.818503113331561172e-14 1.121526238849132606e-13 4.810129684428184060e-14 1.634159794245901298e-13
4.129000000000000000e+03 6.068736648559570312e+01 -1.215354156494140625e+01 -1.358169354976138110e-13 1.705474818444394081e-13 1.041916254879496351e-14 6.766445449736188666e-14
4.130000000000000000e+03 6.099340057373046875e+01 -1.304190158843994141e+01 -8.669948033156529843e-14 1.915978226768588755e-13 3.146950338121443091e-14 4.084171965467592313e-14
4.131000000000000000e+03 6.343819046020507812e+01 -1.215916824340820312e+01 -3.380452588317393869e-14 3.515199470480873112e-13 9.531462533303447504e-14 1.305526325066919124e-13
4.132000000000000000e+03 5.578578186035156250e+01 -1.458621788024902344e+01 4.378877089487170915e-14 6.451756446798628808e-14 3.249189925360468356e-14 5.694320865935699125e-15
4.133000000000000000e+03 5.564749526977539062e+01 -1.380370807647705078e+01 -7.093846723146141064e-14 -3.040220121009254428e-14 -3.040220121009254428e-14 1.228894288711262703e-14
4.134000000000000000e+03 6.390060424804687500e+01 -1.394746494293212891e+01 -9.265112133654738145e-16 1.826067237958167722e-13 5.450406293829035409e-14 -2.860181912817637284e-14
4.135000000000000000e+03 6.564337921142578125e+01 -1.335378551483154297e+01 -8.393733977188691520e-14 5.838819011616536159e-14 -7.664745235529644984e-15 2.401344165289982791e-14
4.136000000000000000e+03 7.262741851806640625e+01 -1.552813625335693359e+01 -1.697821435308818905e-13 -4.387713608243470897e-13 -1.825660526618214097e-13 -6.493636466216312630e-14
4.137000000000000000e+03 5.606431579589843750e+01 7.890889167785644531e+00 -8.711594271480771479e-14 8.415545075580489753e-15 -2.361011844473522026e-14 -8.154483761412673060e-14
4.138000000000000000e+03 3.548725128173828125e+01 -3.498329401016235352e+00 -8.605481371980541749e-14 -1.400515954022487491e-14 -3.001799045334978266e-14 3.737659934701688391e-14
4.139000000000000000e+03 3.975539016723632812e+01 -1.007422637939453125e+01 -5.156123331030368351e-14 -2.966033722882205348e-13 -1.044493810019309077e-13 2.215189159491745552e-13
4.140000000000000000e+03 6.375600051879882812e+01 7.094346046447753906e+00 -1.315248111837712466e-14 1.888047552502103432e-13 5.269568147722031304e-14 7.402039322191439341e-14
4.141000000000000000e+03 6.199234771728515625e+01 4.467891216278076172e+00 1.486556103907910042e-13 1.609303104188955502e-13 9.287577353240053513e-14 9.483803038680058139e-14
4.142000000000000000e+03 6.012133407592773438e+01 2.869692325592041016e+00 1.288545144065636472e-13 2.553837675188519452e-13 1.152714805118665309e-13 2.801954665737713818e-14
4.143000000000000000e+03 5.418730545043945312e+01 3.438037633895874023e+00 -3.581377951361944256e-14 1.219040873020466043e-13 2.582708996483589620e-14 -5.753846699227058159e-14
4.144000000000000000e+03 5.555509567260742188e+01 7.682184219360351562e+00 -2.392388231828778897e-15 1.819784828469700466e-13 5.387582876570720658e-14 -9.983753054962005158e-14
4.145000000000000000e+03 5.691675567626953125e+01 9.017057418823242188e+00 6.058317774315299942e-14 1.746548055920477127e-13 7.057139703343928705e-14 4.543239428330542173e-14
4.146000000000000000e+03 5.579288101196289062e+01 9.232203483581542969e+00 7.416181384278797140e-14 -5.971826223631626629e-14 4.333064380798680101e-15 -3.873104568725797836e-14
4.147000000000000000e+03 5.519342422485351562e+01 9.300523757934570312e+00 -7.660330160995376669e-14 -1.700828334508935891e-13 -7.400583780774877551e-14 -5.537394544632978644e-14
4.148000000000000000e+03 5.382579421997070312e+01 9.386119842529296875e+00 -3.876530986404030932e-14 -1.081156038719270629e-13 -4.406427344316385386e-14 -1.109132859340722366e-13
4.149000000000000000e+03 5.035345840454101562e+01 9.651161193847656250e+00 7.147694979295349249e-14 1.678858197210961190e-13 7.180883085421488343e-14 7.450274121592603827e-14
4.150000000000000000e+03 4.818353652954101562e+01 7.434377670288085938e+00 -3.456139725539070229e-14 -1.063139241355356979e-13 -4.226259709490427785e-14 2.551466525037293653e-13
4.151000000000000000e+03 4.605256652832031250e+01 5.090708255767822266e+00 7.939689080889780759e-14 7.977819116043380343e-14 4.775252255792040990e-14 -2.437737274681942706e-14
4.152000000000000000e+03 4.501216888427734375e+01 3.894955873489379883e+00 9.868030397268585940e-15 4.229155884543679689e-15 4.229155884543679689e-15 -1.238758715830373669e-13
4.153000000000000000e+03 4.568272399902343750e+01 2.474850177764892578e+00 -2.485826757110676244e-13 -1.522863730734833054e-13 -1.202607078591017009e-13 6.341470724187045493e-14
4.154000000000000000e+03 4.300491333007812500e+01 1.541419744491577148e+00 3.854971033281093598e-15 -9.785606468204217229e-15 -1.779190799883526540e-15 -8.151355838145052379e-14
4.155000000000000000e+03 4.122999954223632812e+01 8.641651153564453125e+00 8.471837191189116045e-14 -4.375628548727861222e-14 1.228862524975740667e-14 -2.611751045739508365e-14
4.156000000000000000e+03 3.660251617431640625e+01 9.070516586303710938e+00 2.156533415384465080e-13 9.209614534950636387e-16 6.497229241165386471e-14 3.447252994669657011e-14
4.157000000000000000e+03 3.289710617065429688e+01 6.979840755462646484e+00 2.560736182561501595e-13 1.097458373635305795e-13 1.097458373635305795e-13 2.686136090033347523e-13
4.158000000000000000e+03 3.104763221740722656e+01 5.506414413452148438e+00 1.933116346034338684e-13 8.284783856128338786e-14 8.284783856128338786e-14 1.542164155708333761e-13
4.159000000000000000e+03 2.980598831176757812e+01 4.538594245910644531e+00 5.864617602310828737e-14 7.088502284062145331e-14 3.885936101437163781e-14 6.749289305609321166e-14
4.160000000000000000e+03 2.784793853759765625e+01 3.127117633819580078e+00 1.937758628686378493e-13 -5.420604964239197909e-14 4.187094261262104544e-14 1.456919166472475657e-13
4.161000000000000000e+03 2.705264282226562500e+01 2.779826164245605469e+00 1.084623588317422394e-13 1.379857735234538141e-13 7.393443631842702701e-14 8.780897829598760529e-14
4.162000000000000000e+03 2.622985076904296875e+01 2.609848022460937500e+00 1.084498295203864537e-13 -1.365252989870072153e-13 -8.422639823546691773e-15 2.189914916073121276e-14
4.163000000000000000e+03 2.490983009338378906e+01 2.327520132064819336e+00 1.233502991589141562e-12 6.087082877678784421e-13 5.526633838071060012e-13 2.864768155769886748e-13
4.164000000000000000e+03 2.467210769653320312e+01 1.916979670524597168e+00 7.657213079749480844e-13 9.229286172113271292e-13 5.065949829768934265e-13 4.086740169363667352e-13
4.165000000000000000e+03 2.618137931823730469e+01 2.261040925979614258e+00 5.506495324818228010e-13 8.307550068871460969e-13 4.144213726527123942e-13 8.140084201309349954e-14
4.166000000000000000e+03 2.331365776062011719e+01 2.124134063720703125e+00 3.893355635716660990e-13 7.535620483731589325e-14 1.394075284898155243e-13 -1.160114620471150437e-13
4.167000000000000000e+03 2.096562576293945312e+01 2.111864566802978516e+00 -2.329747993915637361e-13 -5.409538987003088828e-14 -8.612105169628070378e-14 -9.185417048284891250e-14
4.168000000000000000e+03 1.930391883850097656e+01 1.887355089187622070e+00 -9.047763623384885712e-13 -1.704442793501459441e-13 -3.225661925065903546e-13 4.189983592289142633e-13
4.169000000000000000e+03 1.876148223876953125e+01 2.670672893524169922e+00 -9.322312886916872543e-13 5.154912412728973603e-13 -1.250220223571532618e-13 -2.622022878765589704e-13
4.170000000000000000e+03 1.843411254882812500e+01 2.269115924835205078e+00 -1.733473607712365805e-12 -9.159130702138251756e-13 -7.948159816938138444e-13 1.207687270500523713e-12
4.171000000000000000e+03 2.036331367492675781e+01 1.951070070266723633e+00 -4.520534066434350740e-13 -3.309900097059337298e-13 -2.349130276153160723e-13 7.103708897157612334e-14
4.172000000000000000e+03 2.059042358398437500e+01 1.683655977249145508e-01 -4.942799641804995758e-13 -3.834003427238830142e-13 -2.633041083343473643e-13 5.518238318548418508e-13
4.173000000000000000e+03 2.337365341186523438e+01 -1.837458252906799316e+00 -2.749029302806516029e-13 6.518825193188582112e-14 -6.291440892564059695e-14 2.565091422688375866e-13
4.174000000000000000e+03 2.411240005493164062e+01 -4.261278629302978516e+00 -9.050465048622904907e-14 -1.074141318425925196e-13 -5.937563402102011278e-14 2.218992117196351074e-15
4.175000000000000000e+03 2.527243041992187500e+01 -7.267883300781250000e+00 1.142464757779987350e-13 4.835967780739136579e-13 1.793529788660791491e-13 8.950351514081487936e-15
4.176000000000000000e+03 2.044310569763183594e+01 -7.195285797119140625e+00 -1.801335366676329319e-13 -1.486859409465662862e-13 -9.864584328425976545e-14 1.337116046140271464e-13
4.177000000000000000e+03 1.762625122070312500e+01 -5.517021656036376953e+00 -2.053227244258257200e-13 4.925739178519850103e-14 -4.681960046981452350e-14 9.523643402760753607e-14
4.178000000000000000e+03 1.651929092407226562e+01 -3.391401290893554688e+00 -7.071747972365455270e-14 -9.893391580148916398e-14 -5.089541797991675720e-14 5.270672001058893108e-14
4.179000000000000000e+03 1.546319675445556641e+01 -2.467268228530883789e+00 -1.658463541194879487e-13 -7.107700794031432401e-14 -7.107700794031432401e-14 1.526991356168121150e-14
4.180000000000000000e+03 1.420308685302734375e+01 -1.815307259559631348e+00 -6.767400225274333714e-14 1.674780478958925317e-14 -1.527786042479235135e-14 6.286351240990598055e-14
4.181000000000000000e+03 1.342121505737304688e+01 -1.868858098983764648e+00 -2.016749668740797086e-13 -4.524397349825459713e-13 -1.962344132674931352e-13 7.067878492928337131e-16
4.182000000000000000e+03 1.189019966125488281e+01 -1.878459453582763672e+00 -1.376397029662600191e-14 -5.164979229900501512e-14 -1.962412877868930511e-14 1.921215228193554753e-14
4.183000000000000000e+03 8.893806457519531250e+00 -1.829635500907897949e+00 -1.536250612127736809e-14 8.491796675558216378e-14 2.086663802088484926e-14 1.070755219515981405e-13
4.184000000000000000e+03 6.874528408050537109e+00 -2.048878192901611328e+00 -1.406128360449676595e-13 -1.451169710114420808e-14 -4.653736231552581259e-14 5.192319759371975818e-14
4.185000000000000000e+03 5.388920783996582031e+00 -2.862678766250610352e+00 -5.397380676078200601e-14 -1.146335224010489040e-13 -5.058219874854927300e-14 -4.791527146840585116e-14
4.186000000000000000e+03 1.092460751533508301e+00 -1.888776779174804688e+00 -3.637714112683827772e-14 -6.134115025820119360e-14 -2.931548843195137810e-14 -3.868295793277645722e-14
4.187000000000000000e+03 3.632016479969024658e-01 -1.896713256835937500e+00 -4.850734749853660710e-14 1.622149273629650001e-13 3.411227666983394913e-14 -1.082864538055200443e-14
4.188000000000000000e+03 5.398764610290527344e-01 -4.123343658447265625e+01 -1.760995863020475838e-13 6.178159383824627371e-14 -3.429539841676675083e-14 6.065577185486448197e-14
4.189000000000000000e+03 4.808665812015533447e-01 -3.718477249145507812e+01 -2.127982984051132731e-13 3.026258667522074928e-16 -6.374870249736819261e-14 1.523907986833526046e-14
4.190000000000000000e+03 1.675825238227844238e+00 -3.428931427001953125e+01 -1.183297912237500638e-14 4.067967208747080843e-14 8.654007720122151165e-15 -2.080588712384187633e-14
4.191000000000000000e+03 1.587076425552368164e+00 -3.260070037841796875e+01 2.461789452845586368e-14 1.055052634748579118e-14 1.055052634748579118e-14 -5.311261481078140279e-14
4.192000000000000000e+03 1.457631826400756836e+00 -3.096543121337890625e+01 5.759531306742671219e-14 -4.394271743896928373e-14 4.095779959086649422e-15 1.442389874802951083e-14
4.193000000000000000e+03 1.368358969688415527e+00 -2.934036636352539062e+01 -2.388779786770180852e-14 -1.023762814160531637e-14 -1.023762814160531637e-14 4.433731959590896110e-14
4.194000000000000000e+03 1.395742058753967285e+00 -2.774661636352539062e+01 1.702199443681315372e-14 1.445479884875852661e-13 4.847099284444045253e-14 6.672558793203216959e-15
4.195000000000000000e+03 4.767423570156097412e-01 -2.441111373901367188e+01 4.135232127967618243e-14 -2.802852520661803376e-14 3.997139160730623503e-15 4.588304969256259969e-14
4.196000000000000000e+03 1.242024064064025879e+00 -2.355644989013671875e+01 3.950613504410428745e-14 1.084330989256122868e-13 4.438176849684907777e-14 9.407437936287399438e-14
4.197000000000000000e+03 1.366822123527526855e+00 -2.203717422485351562e+01 1.880117358999365551e-14 8.057645703278288468e-15 8.057645703278288468e-15 9.637174277999857597e-14
4.198000000000000000e+03 1.248786687850952148e+00 -2.035120201110839844e+01 9.195729335604533455e-15 3.941026616106815122e-15 3.941026616106815122e-15 9.596921917093617638e-14
4.199000000000000000e+03 1.166694045066833496e+00 -1.873956489562988281e+01 -7.107473789201568248e-14 1.525431934630908093e-13 2.444053768776207475e-14 -4.922919575245029988e-14
4.200000000000000000e+03 1.139047026634216309e+00 -1.714473152160644531e+01 -2.961866524069621531e-14 2.160610286603553698e-13 5.593270936471092525e-14 -3.584918887894646133e-14
4.201000000000000000e+03 1.146659970283508301e+00 -1.555815696716308594e+01 2.467377498605212438e-14 2.622047002263927507e-13 8.606354154729392580e-14 -2.361949848759311438e-14
4.202000000000000000e+03 1.168455123901367188e+00 -1.397393131256103516e+01 -1.371806992002747028e-13 1.699630155583067848e-13 9.834697956728234713e-15 -9.013104797011770031e-14
4.203000000000000000e+03 1.185458660125732422e+00 -1.238922977447509766e+01 -9.996151753837324155e-15 1.329687770480758591e-13 3.689178818119462355e-14 -6.331680378569501388e-14
4.204000000000000000e+03 1.297583699226379395e+00 -9.984436988830566406e+00 6.881473879226038259e-14 9.811845346624492592e-14 5.007995903280430816e-14 -6.221962506845757357e-14
4.205000000000000000e+03 1.216172099113464355e+00 -8.338682174682617188e+00 3.279597730540539935e-14 3.693089399830346009e-14 2.091806139111265783e-14 -8.186067248323533607e-14
4.206000000000000000e+03 1.161656856536865234e+00 -6.825941085815429688e+00 3.658627694964715349e-14 1.986836259751378897e-13 7.058097189387504966e-14 2.197592253300444803e-14
4.207000000000000000e+03 1.261936187744140625e+00 -4.912275791168212891e+00 -2.062696157812977243e-14 1.284127155738029602e-13 3.233572670692172468e-14 7.277988975373794744e-14
4.208000000000000000e+03 1.074317574501037598e+00 -3.425071716308593750e+00 4.888010636983249058e-14 2.094861725765190946e-14 2.094861725765190946e-14 -6.765602482547081187e-14
4.209000000000000000e+03 7.958603668212890625e+01 6.575330734252929688e+00 3.205300404978718432e-14 5.948795058982603301e-14 2.746228706951032300e-14 2.313685233798403601e-14
4.210000000000000000e+03 7.882635498046875000e+01 5.069475650787353516e+00 -6.894482950043148706e-14 -1.210496817800194025e-13 -5.699835135125619345e-14 8.945451936701390161e-14
4.211000000000000000e+03 7.961925506591796875e+01 3.361345052719116211e+00 1.405675434992120776e-13 -2.600134192155822976e-13 -3.583375932677927700e-14 1.908064364061073936e-14
4.212000000000000000e+03 7.899890899658203125e+01 2.476416110992431641e+00 2.312722767201097485e-13 -2.668908930664182222e-13 -1.068558490389254212e-14 -2.039739904757809086e-13
4.213000000000000000e+03 7.902426910400390625e+01 9.286509752273559570e-01 -4.318212996380632607e-13 -3.451946031535896298e-13 -2.331047681269904359e-13 4.208741374075314345e-14
4.214000000000000000e+03 7.892137145996093750e+01 -6.127038002014160156e-01 -2.514119554902771725e-13 -6.796348423279696682e-13 -2.793140339244631898e-13 -2.192204615536139101e-13
4.215000000000000000e+03 7.883095550537109375e+01 -2.182829141616821289e+00 -1.421514544529961510e-13 -3.583032308351885575e-13 -1.501364001654445501e-13 -1.254012762770886913e-13
4.216000000000000000e+03 7.880626678466796875e+01 -3.776225566864013672e+00 -4.115948914703605743e-14 -3.378964317547750174e-13 -1.137167752541037857e-13 -5.557953220108966669e-15
4.217000000000000000e+03 7.960224151611328125e+01 -5.391901016235351562e+00 -1.728817792861960662e-14 -3.734168193842563044e-13 -1.172114976692034682e-13 1.914694768565591149e-14
4.218000000000000000e+03 7.878678131103515625e+01 -6.161785602569580078e+00 1.260104759252811402e-13 -4.035050017638791564e-13 -8.324835639632668927e-14 -4.049052963034892316e-14
4.219000000000000000e+03 7.879045104980468750e+01 -7.814230918884277344e+00 9.489366351077624384e-14 -1.652105508604881368e-13 -2.109506925423217799e-14 6.049615611925093436e-15
4.220000000000000000e+03 7.952936553955078125e+01 -1.095765686035156250e+01 -4.734053928490307428e-14 -2.490435429495369002e-13 -8.891522365389245564e-14 -2.195402461373555623e-15
4.221000000000000000e+03 7.958963775634765625e+01 -1.261777305603027344e+01 -8.810591416597707282e-14 -8.351062490185093279e-14 -5.148496307560111729e-14 -1.077847934603110014e-13
4.222000000000000000e+03 7.880623626708984375e+01 -1.271426391601562500e+01 3.318734718461835431e-14 1.057250465018137742e-13 4.167371607305056513e-14 -6.377107771970286221e-14
4.223000000000000000e+03 7.960282897949218750e+01 -1.499380779266357422e+01 1.331395253377151700e-13 5.705979850938180942e-14 5.705979850938180942e-14 -3.042932998132720501e-14
4.224000000000000000e+03 7.961376953125000000e+01 -1.658192443847656250e+01 1.108863096287680816e-13 9.327365540091198115e-14 6.124799018653037663e-14 1.659634428719186997e-15
4.225000000000000000e+03 7.962615203857421875e+01 -1.817083740234375000e+01 1.029252976792773000e-13 1.127372663538989128e-13 6.469876853232650604e-14 1.956451121172975843e-14
4.226000000000000000e+03 7.963852691650390625e+01 -1.975897979736328125e+01 7.665066769236422717e-14 -1.959044498888243280e-13 -3.577613736944346146e-14 5.609568443299328341e-15
4.227000000000000000e+03 7.964187622070312500e+01 -2.134695243835449219e+01 2.183959258014386839e-14 -1.736439632490580087e-13 -4.554131255592695771e-14 -2.149274275263859946e-14
4.228000000000000000e+03 7.892829132080078125e+01 -2.132518005371093750e+01 8.355584566156423493e-16 -4.539285139719580198e-14 -1.336718787688009197e-14 1.177210794665352334e-14
4.229000000000000000e+03 7.962329101562500000e+01 -2.372864151000976562e+01 2.187727707596721222e-14 -3.637497272249330671e-14 -4.349309202177596700e-15 -1.865648342194367593e-14
4.230000000000000000e+03 7.960717773437500000e+01 -2.531954765319824219e+01 -2.763042819173798514e-14 -1.948454012067404872e-13 -6.674274712547764721e-14 -3.626014893616351376e-14
4.231000000000000000e+03 7.959407043457031250e+01 -2.691248512268066406e+01 8.421990996309094979e-14 -2.841623963044381806e-13 -5.998274658003052706e-14 -2.000632698514939051e-14
4.232000000000000000e+03 7.957805633544921875e+01 -2.850748062133789062e+01 1.415315483083504078e-14 -1.311872024857205221e-13 -3.511021700697107562e-14 -5.441529388541810341e-14
4.233000000000000000e+03 7.954792785644531250e+01 -3.011107063293457031e+01 1.686068141657989794e-13 1.180110154562485913e-13 8.598535024186698683e-14 -1.062182365175502741e-14
4.234000000000000000e+03 7.858306884765625000e+01 -3.086137771606445312e+01 2.710035836147803301e-14 -5.701198519357519867e-14 -8.973487372002791895e-15 3.407872400072731178e-14
4.235000000000000000e+03 7.952236175537109375e+01 -3.253509902954101562e+01 2.677106244477166219e-14 -1.140216207177547139e-14 4.610670535415330867e-15 -1.914746945795142014e-14
4.236000000000000000e+03 7.958206176757812500e+01 -3.413515472412109375e+01 8.380285804491724444e-14 1.045419312098797016e-13 5.650343677643908380e-14 9.228390079017712022e-15
4.237000000000000000e+03 7.952629089355468750e+01 -3.569459915161132812e+01 6.159346443252930459e-14 -1.935374908566215441e-14 1.267191443465355560e-14 4.571757672411878859e-14
4.238000000000000000e+03 7.939607238769531250e+01 -3.725437927246093750e+01 6.936545928577439457e-14 7.547900428587703270e-14 4.345333907149542818e-14 -1.133813061612778256e-14
4.239000000000000000e+03 7.805839538574218750e+01 -3.793883132934570312e+01 3.586816919322853570e-14 -1.218807769553381659e-13 -2.580378131219335236e-14 2.963407785220445456e-14
4.240000000000000000e+03 7.938854217529296875e+01 -3.967205810546875000e+01 6.397462312505985960e-14 -1.098351552937526510e-13 -1.375815965060783741e-14 -1.065277471210373237e-16
4.241000000000000000e+03 7.946682739257812500e+01 -4.126763534545898438e+01 -1.205295764453509499e-13 -2.878006196533298977e-14 -4.479289457252379203e-14 -4.744551377212219423e-14
4.242000000000000000e+03 7.726107025146484375e+01 6.666833400726318359e+00 -1.092247697994340461e-13 1.133177075394661837e-13 1.227880242042633536e-15 -2.262355206601382451e-14
4.243000000000000000e+03 7.571702575683593750e+01 6.918017387390136719e+00 -9.399156664568683595e-14 -6.807953723333981522e-13 -2.324360864371100011e-13 1.543685562406874046e-13
4.244000000000000000e+03 7.575075531005859375e+01 6.126913547515869141e+00 3.781260955661603501e-15 -4.101379880248195997e-13 -1.219070146479123151e-13 4.279856227447711992e-14
4.245000000000000000e+03 7.577683258056640625e+01 4.545187950134277344e+00 -9.351067554834446849e-14 -4.007600525848982465e-14 -4.007600525848982465e-14 5.417085034123587939e-14
4.246000000000000000e+03 7.592392730712890625e+01 3.114180326461791992e+00 -1.049233806392144142e-13 -1.936577525944727096e-13 -8.957433725960070592e-14 6.422117069908306330e-14
4.247000000000000000e+03 6.983229064941406250e+01 6.507261753082275391e+00 -1.562153184586634325e-13 -1.584513228090889125e-13 -9.439998560406212547e-14 -1.400486985495691394e-13
4.248000000000000000e+03 6.604823303222656250e+01 8.409373283386230469e+00 1.275961080500140343e-13 5.468404388705473684e-14 5.468404388705473684e-14 -1.313480438780087467e-13
4.249000000000000000e+03 3.473266220092773438e+01 -2.727494478225708008e+00 1.449947610978122303e-13 -2.936128580934352361e-14 3.469004461941968542e-14 1.136390498167978366e-14
4.250000000000000000e+03 3.637495803833007812e+01 -4.707004547119140625e+00 -1.394767683510558798e-13 -5.977575883277588820e-14 -5.977575883277588820e-14 8.368520855667541114e-14
4.251000000000000000e+03 3.915161514282226562e+01 -7.590590953826904297e+00 -5.333797978485967095e-14 -1.715497183326850084e-13 -6.746630977407658269e-14 1.468695228368926964e-13
4.252000000000000000e+03 3.896337509155273438e+01 -8.711791992187500000e+00 -3.057090349164776240e-15 -1.385630298651394088e-13 -4.248603422199459523e-14 1.954432438371761505e-13
4.253000000000000000e+03 4.084036254882812500e+01 -1.121025753021240234e+01 7.592741505782398675e-15 -1.962144199018061447e-14 -3.608610230022759463e-15 9.387788804790173081e-14
4.254000000000000000e+03 4.064566421508789062e+01 -1.263137626647949219e+01 -3.255986390674294774e-15 -2.301501545766415635e-13 -7.002184883352427502e-14 5.814673829235283975e-14
4.255000000000000000e+03 4.069435501098632812e+01 -1.338431262969970703e+01 -7.525414075530353908e-14 -3.067574677346335266e-13 -1.146034764483438995e-13 -3.422052070422947068e-14
4.256000000000000000e+03 3.696672821044921875e+01 -1.419425678253173828e+01 -4.562556522912444845e-14 -1.053368411376917613e-13 -4.528872394292393633e-14 6.256907698117680772e-14
4.257000000000000000e+03 3.533798980712890625e+01 -1.252312660217285156e+01 8.011684170900965074e-14 -7.360785429528365897e-14 1.952696393524386981e-15 1.265005895173532124e-13
4.258000000000000000e+03 3.480218887329101562e+01 -1.194933414459228516e+01 -1.596913383862877400e-13 -1.599410436991383078e-13 -9.588971327037509873e-14 1.071931511110492397e-13
4.259000000000000000e+03 3.371653747558593750e+01 -1.088667392730712891e+01 -1.648031347891223963e-13 -1.163808632798080112e-13 -8.435519806542640664e-14 8.813981581265797893e-14
4.260000000000000000e+03 3.293511962890625000e+01 -9.929725646972656250e+00 8.280637460444939535e-14 1.041148707504012394e-13 5.607637292882883262e-14 7.384506417809633128e-14
4.261000000000000000e+03 3.231676483154296875e+01 -8.588128089904785156e+00 9.419099208278838842e-14 6.324304415664810941e-14 4.723021154945730715e-14 7.636370648236162628e-14
4.262000000000000000e+03 3.198205375671386719e+01 -7.883637905120849609e+00 5.501590800765718270e-14 -1.365500730066485091e-13 -2.446024983851057683e-14 1.086190599269842849e-13
4.263000000000000000e+03 3.099616241455078125e+01 -7.400541782379150391e+00 -3.747044382130908236e-14 -9.612292515767673073e-14 -4.007801103250892283e-14 3.735538625388584721e-14
4.264000000000000000e+03 3.097985839843750000e+01 -5.720853328704833984e+00 -1.993269373341821638e-13 -1.311767805923375052e-13 -9.915111537795590069e-14 -1.888209234151075333e-14
4.265000000000000000e+03 3.045635223388671875e+01 -4.191264152526855469e+00 -9.502879575904940590e-14 1.422771676948958453e-13 1.417451276660005796e-14 -2.461082519147807929e-14
4.266000000000000000e+03 3.024752807617187500e+01 -3.399602890014648438e+00 7.583206117081978115e-14 1.240013544319754080e-13 5.995002400321219893e-14 7.734959862285700760e-14
4.267000000000000000e+03 4.783360290527343750e+01 -3.442343235015869141e+00 -1.891587879171083286e-13 -5.819257293919466445e-14 -7.420540554638546671e-14 -3.422683618188419874e-14
4.268000000000000000e+03 5.173196792602539062e+01 -5.895405292510986328e+00 -1.360041094501662773e-13 -1.955403205891950713e-13 -9.946332494605025776e-14 2.737144447998319380e-14
4.269000000000000000e+03 5.304577636718750000e+01 -7.375592708587646484e+00 -1.488512140152345453e-13 -3.611745505536362311e-13 -1.530077334364193797e-13 8.081727697001675481e-14
4.270000000000000000e+03 5.333811187744140625e+01 -8.038669586181640625e+00 6.440427211722513090e-14 -2.011529099755007821e-13 -4.102459406798812658e-14 1.666525939600024819e-13
4.271000000000000000e+03 5.436212158203125000e+01 -1.009013843536376953e+01 -2.766035827033580530e-13 -3.015482015564924234e-13 -1.734455406989660053e-13 5.968941568226457384e-14
4.272000000000000000e+03 5.548131561279296875e+01 -1.302761077880859375e+01 -2.181264168582813107e-14 8.215362391024091937e-14 1.810229517554360484e-14 2.965507410490099416e-14
4.273000000000000000e+03 5.593314361572265625e+01 -1.613277244567871094e+01 8.278130242921066806e-14 2.642324564445380775e-13 1.041041235963664768e-13 4.583868888304899747e-14
4.274000000000000000e+03 5.215275192260742188e+01 -1.727925872802734375e+01 -1.440119589335084327e-13 -1.074703612777630490e-13 -7.544469606338144452e-14 6.662622927325334565e-14
4.275000000000000000e+03 5.054487991333007812e+01 -1.556457996368408203e+01 -2.149923034738820959e-13 -4.123961914147267205e-13 -1.882165484665826449e-13 8.401526680303431083e-14
4.276000000000000000e+03 5.001638793945312500e+01 -1.498868846893310547e+01 -8.875859032128619042e-14 -1.295412887201974339e-13 -6.548996506769780290e-14 9.590799562950863555e-14
4.277000000000000000e+03 4.789068984985351562e+01 -1.377801609039306641e+01 -4.202822646653080196e-14 -3.302712649807387768e-13 -1.116898457401149791e-13 1.073143513614059630e-13
4.278000000000000000e+03 4.739202117919921875e+01 -1.206856727600097656e+01 2.039450693828298578e-14 3.021634608783895296e-15 7.024842760581595860e-15 1.260074130541438686e-13
4.279000000000000000e+03 4.561444473266601562e+01 -9.268066406250000000e+00 -1.381975182077402331e-13 -1.049784513333130997e-13 -7.295279289519507326e-14 1.666615521804526434e-13
4.280000000000000000e+03 4.542418670654296875e+01 -8.438426017761230469e+00 -1.370425989485543616e-13 -1.298159645643330584e-14 -4.500726167081491036e-14 9.502102338472540044e-14
4.281000000000000000e+03 6.794961547851562500e+01 -4.590417385101318359e+00 5.832071208345529501e-14 1.164964934415035902e-13 5.244515962460859215e-14 -8.551419663528625481e-14
4.282000000000000000e+03 6.956836700439453125e+01 -6.258001327514648438e+00 1.090911825392566759e-13 9.250431231557984524e-14 6.047864710119824072e-14 -1.374041532680239652e-13
4.283000000000000000e+03 7.139655303955078125e+01 -8.265357017517089844e+00 8.929981049326379816e-14 1.297732402224735515e-13 6.572191656997392051e-14 -4.259281119532547233e-14
4.284000000000000000e+03 7.207607269287109375e+01 -1.206344985961914062e+01 3.984399785203918826e-15 -8.979429477534370263e-14 -2.574296942877817712e-14 6.608496166743069167e-14
4.285000000000000000e+03 6.670626831054687500e+01 -1.448934841156005859e+01 -8.329772825275624792e-14 5.866230353042400925e-14 -7.390627586106261054e-15 2.559550438079299245e-14
4.286000000000000000e+03 6.462965393066406250e+01 -1.101098060607910156e+01 8.021839757125365233e-14 1.659132900511117725e-13 7.383950764196234307e-14 3.923810671453871468e-14
4.287000000000000000e+03 6.365298843383789062e+01 -8.637145996093750000e+00 -1.146976936171328898e-13 1.567231180986741745e-13 1.260762463395695421e-14 -1.839363893401529948e-14
4.288000000000000000e+03 6.346334457397460938e+01 -7.045856475830078125e+00 -9.387718331648961523e-14 3.944009290164640635e-13 9.015712303236597669e-14 -7.833681213475010563e-14
4.289000000000000000e+03 2.377692985534667969e+01 2.053584098815917969e+00 5.001614357055816917e-13 6.261134189236572389e-13 3.378824455467499543e-13 -4.060197002827420354e-13
4.290000000000000000e+03 5.054744720458984375e+01 9.140439987182617188e+00 1.395549884556030254e-14 -1.689454647143748267e-14 -8.817143936422724461e-16 8.499114362596135730e-14
4.291000000000000000e+03 2.362145996093750000e+01 1.505977153778076172e+00 3.520455140511996595e-13 2.881294920535626414e-13 1.920524964104178278e-13 -2.137180542130870387e-13
4.292000000000000000e+03 2.264209365844726562e+01 2.188147068023681641e+00 2.093892686192214136e-13 -4.751458761490488791e-14 4.856240464010813662e-14 -1.317763579462491452e-13
4.293000000000000000e+03 7.794239044189453125e+01 6.619626045227050781e+00 6.848931381612296393e-15 -1.343175923132836069e-13 -3.824059667013879338e-14 6.777278662318392266e-14
4.294000000000000000e+03 7.620354461669921875e+01 6.834669113159179688e+00 -4.384102943958551046e-14 -3.619211321696097494e-13 -1.217286498380112936e-13 6.891231021152049996e-14
4.295000000000000000e+03 6.262119293212890625e+00 -3.141876697540283203e+00 -1.104204753890961066e-13 7.134346417672979279e-14 -1.172310370252307304e-14 -4.321158485692073656e-15
4.296000000000000000e+03 3.350745391845703125e+01 7.467149734497070312e+00 3.160008062511043825e-13 2.269308059608260431e-13 1.628794890845899901e-13 1.344758045153035542e-13
4.297000000000000000e+03 3.455637359619140625e+01 7.473384380340576172e+00 2.796153879183055357e-13 -9.176297552761572551e-14 5.635572439483330087e-14 1.048487197671116311e-13
4.298000000000000000e+03 4.899917125701904297e+00 -2.408008575439453125e+00 -6.314560826265955273e-14 7.250807857502993697e-15 -1.676844020625026244e-14 -5.980615715118695053e-14
4.299000000000000000e+03 5.921154975891113281e+00 -4.344152450561523438e+00 -2.418586435726927109e-13 -1.036537053563345301e-13 -1.036537053563345301e-13 7.383838955847196739e-14
4.300000000000000000e+03 4.280951023101806641e+00 -2.282210826873779297e+00 -6.791006694701132163e-14 -2.578590552887449761e-13 -9.773073599310053150e-14 -6.238483037449005231e-14
4.301000000000000000e+03 4.051215171813964844e+00 -2.802866458892822266e+00 5.171194080041095764e-14 1.136641575674203486e-13 4.961283052678892858e-14 1.411205001597068409e-14
4.302000000000000000e+03 3.618554592132568359e+00 -2.443603992462158203e+00 -4.747424174156127108e-14 2.540484573469552199e-14 -6.620819056169608904e-15 2.162890329890972824e-14
4.303000000000000000e+03 6.852644348144531250e+01 -1.696406936645507812e+01 -4.609018990574774433e-14 -1.975293877304416107e-14 -1.975293877304416107e-14 1.209529438411793834e-13
4.304000000000000000e+03 5.507411575317382812e+01 8.759848594665527344e+00 5.657669882656903558e-17 -1.829795538178802250e-13 -5.487689296035380693e-14 -3.462372193964967371e-14
4.305000000000000000e+03 3.514600753784179688e+01 7.887427806854248047e+00 6.408635015893449083e-14 1.189674715077609912e-13 5.491614785526136022e-14 1.977958947888339147e-13
4.306000000000000000e+03 4.091688919067382812e+01 -6.304467320442199707e-01 -4.517261131126160123e-13 -1.059310499967837035e-14 -1.386957633161059467e-13 -3.747735815125751921e-15
4.307000000000000000e+03 5.095789337158203125e+01 9.569145202636718750e+00 2.591824595655350949e-14 5.685876709781226279e-14 2.483310357749655278e-14 -9.470928137881792774e-14
4.308000000000000000e+03 5.162149429321289062e+01 8.781327247619628906e+00 -5.372173060271207348e-15 -1.853061568123440250e-13 -5.720349595481760696e-14 6.934810358068515396e-15
4.309000000000000000e+03 6.857199859619140625e+01 3.919446229934692383e+00 -2.135199128779335237e-14 1.372462053402835613e-14 -2.288211226129498871e-15 -7.189116245668800143e-14
4.310000000000000000e+03 6.830338287353515625e+01 2.979608297348022461e+00 -7.290912326456643056e-15 1.455659052497504380e-13 4.148249669114201232e-14 -1.274789871103312877e-13
4.311000000000000000e+03 6.666253662109375000e+01 7.774848461151123047e+00 8.057539146533523877e-14 -5.696958611236743741e-14 7.081740504747508977e-15 -1.804909574663199345e-13
4.312000000000000000e+03 6.731208038330078125e+01 7.679076671600341797e+00 -4.238820191658672354e-14 2.563393291035720445e-13 6.418533781728241738e-14 -4.740758278971119941e-15
4.313000000000000000e+03 6.612902069091796875e+01 7.252514839172363281e+00 3.981445503690485277e-14 2.915690421306099678e-13 9.941504406805676264e-14 -7.617139442795111542e-15
4.314000000000000000e+03 6.903672790527343750e+01 2.551791667938232422e+00 -2.076835170581724926e-14 1.283521222248881766e-13 3.227513335800694105e-14 -5.700088567383437832e-14
4.315000000000000000e+03 7.008798980712890625e+01 1.443179845809936523e+00 8.536152741687313972e-14 8.233446205634792348e-14 5.030879684196631896e-14 -9.047093179866474988e-14
4.316000000000000000e+03 4.018085861206054688e+01 -8.415806889533996582e-01 -3.882913684593453096e-13 -2.579124793507941993e-13 -1.938611624745581463e-13 2.969521601271091216e-13
4.317000000000000000e+03 4.122182846069335938e+01 -1.548246288299560547e+01 -6.857933139555946744e-14 -4.611657193273610567e-13 -1.589235199602606619e-13 2.474556441646371535e-14
4.318000000000000000e+03 1.800308585166931152e+00 -2.650996923446655273e+00 2.774924489138113487e-14 -3.385841411927825728e-14 -1.832750810720784086e-15 -1.159894662955407441e-13
4.319000000000000000e+03 2.012227630615234375e+01 2.598539590835571289e+00 -3.108369952490447341e-13 5.072974375644467848e-13 5.893813133936789961e-14 -3.480101948803715484e-13
4.320000000000000000e+03 1.945833015441894531e+01 2.632261037826538086e+00 -4.707977714277222780e-13 2.557390063606668207e-13 -6.451762545435849039e-14 8.591985765438528433e-14
4.321000000000000000e+03 1.898923110961914062e+01 2.311016559600830078e+00 -1.425023185390450475e-12 -1.760902215057827402e-13 -4.803340342661444051e-13 3.874029731992106873e-13
4.322000000000000000e+03 2.018100738525390625e+01 2.330572128295898438e+00 -4.681603954330426642e-13 4.856240735061356784e-13 5.239106725356398528e-15 2.387084535029546095e-15
4.323000000000000000e+03 6.797465515136718750e+01 7.552564144134521484e+00 7.348779245720804543e-14 -1.286335540038111014e-13 -1.654372744754138008e-14 -1.649444334372515697e-13
4.324000000000000000e+03 5.374263000488281250e+01 8.792934417724609375e+00 -1.849404960771461326e-14 -7.926021865472653721e-15 -7.926021865472653721e-15 -4.808138140562599749e-14
4.325000000000000000e+03 5.444128799438476562e+01 8.725314140319824219e+00 -7.907979555476368771e-14 -7.964228641811274545e-14 -4.761662459186292995e-14 -1.136844931344180298e-13
4.326000000000000000e+03 5.234944152832031250e+01 8.845149040222167969e+00 9.029391546521575718e-14 8.444834458457006754e-14 5.242267598205667400e-14 -2.972888794405652291e-14
4.327000000000000000e+03 5.304891967773437500e+01 8.843141555786132812e+00 -4.811603182943227641e-14 -2.493759051255123316e-13 -8.924757905360430899e-14 -1.856642281323345189e-13
4.328000000000000000e+03 5.469991302490234375e+01 7.254270553588867188e+00 -5.765146796369788329e-14 -1.619606141908813690e-13 -6.588362532400013349e-14 1.135968760463540450e-14
4.329000000000000000e+03 4.421130371093750000e+01 -3.898356437683105469e+00 -1.061204347053285035e-13 -1.369820869148025144e-13 -7.293075648603930539e-14 1.248152938019804828e-14
4.330000000000000000e+03 4.501160049438476562e+01 -3.852521419525146484e+00 -1.105685096432218462e-13 6.699086679265095490e-14 -1.307329370220421463e-14 -9.866972961337233672e-14
4.331000000000000000e+03 2.512496185302734375e+01 -9.937314033508300781e+00 2.610674128050369247e-14 2.856942926589972620e-13 9.354030814897121293e-14 -5.134896346558996683e-14
4.332000000000000000e+03 2.558715248107910156e+01 -8.897964477539062500e+00 4.149494333208214591e-13 5.209676006562302675e-13 2.807751047721046556e-13 3.711751907350610558e-14
4.333000000000000000e+03 7.447739124298095703e+00 -1.871351003646850586e+00 -1.395683292245222806e-13 -1.406404950588273015e-14 -4.608971217916549290e-14 -1.230039155383430560e-13
4.334000000000000000e+03 7.194337368011474609e+00 -2.692560911178588867e+00 -1.090664288484061162e-13 1.362610382599910297e-13 8.158383331695242408e-15 -1.491472723590906574e-14
4.335000000000000000e+03 4.009285736083984375e+01 8.198733329772949219e+00 1.536919429342888804e-14 -1.077905736131430647e-13 -2.772641396532084246e-14 -2.600701500942576017e-14
4.336000000000000000e+03 3.756100845336914062e+01 9.485095977783203125e+00 1.401501798729137827e-13 -1.458149058311888902e-13 -1.699417131031998127e-15 6.180852270970538243e-14
4.337000000000000000e+03 3.879770660400390625e+01 8.640229225158691406e+00 3.588100343644533285e-14 -2.133771674975304400e-13 -5.324885159001778445e-14 -7.310132181656200934e-14
4.338000000000000000e+03 5.718871307373046875e+01 -1.707442092895507812e+01 1.692961702358559972e-14 5.300649852314938404e-14 2.098083500283367403e-14 1.069012771099525638e-13
4.339000000000000000e+03 1.113743495941162109e+01 -1.857699394226074219e+00 -2.554834497442166202e-14 -1.939530892662577610e-13 -6.585042840873134296e-14 -7.991250348081402333e-14
4.340000000000000000e+03 1.047377395629882812e+01 -2.487799406051635742e+00 -1.914966157921891426e-14 -9.970889673811822451e-14 -3.565756630935501548e-14 -5.686763722683590982e-14
4.341000000000000000e+03 3.037445640563964844e+01 4.542088508605957031e-01 -1.905072237115557066e-13 -8.164595301923815995e-14 -8.164595301923815995e-14 -1.879641495889598085e-14
4.342000000000000000e+03 3.125957489013671875e+01 -2.763419449329376221e-01 -1.888597785104639826e-13 2.393167315793004457e-13 1.513708863115637016e-14 -3.858391267618811737e-14
4.343000000000000000e+03 6.354652404785156250e+01 -2.323590040206909180e+00 -4.513363695366617856e-13 -2.391808268369793877e-13 -2.071551616225977832e-13 -1.797477436533446993e-14
4.344000000000000000e+03 6.291875839233398438e+01 -3.807621479034423828e+00 -2.302314968446322885e-13 -7.168737988210577283e-15 -7.122006841697378632e-14 -1.812381353934883199e-13
4.345000000000000000e+03 6.728699493408203125e+01 -2.959210872650146484e+00 -3.588564930628190429e-16 -1.088122986354390920e-13 -3.275134544534867576e-14 4.349474881822079642e-14
4.346000000000000000e+03 3.033020782470703125e+01 -9.271544814109802246e-01 -1.457753595569474814e-13 9.765316810392277169e-14 -1.443665845234694961e-14 -3.716137843951493325e-14
4.347000000000000000e+03 5.333926391601562500e+01 -1.836550521850585938e+01 -3.084785844733456406e-13 -2.322853010199715795e-13 -1.622291710690060285e-13 7.184765884451702056e-14
4.348000000000000000e+03 4.561553573608398438e+01 -2.240405797958374023e+00 -1.905681423211222358e-13 -8.167206196280432651e-14 -8.167206196280432651e-14 -5.868688781468511806e-14
4.349000000000000000e+03 6.354734420776367188e+01 -3.896250009536743164e+00 -4.496653632671092360e-14 2.647957638476482883e-14 -5.546088406100302057e-15 -1.802508880002773317e-13
4.350000000000000000e+03 7.284292602539062500e+01 -1.429677200317382812e+01 -9.034972477204444852e-14 -2.217251040973269860e-13 -9.362245001606414596e-14 1.974122261331773959e-14
4.351000000000000000e+03 7.214627075195312500e+01 -1.609209251403808594e+01 -6.585520567455385721e-14 -5.109913279186320545e-14 -3.508630018467240319e-14 2.767032344355366269e-14
4.352000000000000000e+03 7.236091613769531250e+01 -8.139273643493652344e+00 7.819072944453483998e-14 -2.409953746979054401e-13 -4.884139696414296905e-14 -1.398071925156479933e-13
4.353000000000000000e+03 7.200763702392578125e+01 -1.048383808135986328e+01 2.874417741452256134e-15 -9.027000203104887377e-14 -2.621867668448334826e-14 1.583329380962488625e-14
4.354000000000000000e+03 7.261925506591796875e+01 -9.598415374755859375e+00 -3.483197346006161599e-14 -1.979317859786278166e-13 -6.982912512110139858e-14 -3.516554054040451661e-15
4.355000000000000000e+03 7.284064483642578125e+01 -1.356945419311523438e+01 2.222864497721313559e-14 5.527751243935077885e-14 2.325184722496917433e-14 -7.265062574972336318e-14
4.356000000000000000e+03 6.338229751586914062e+01 -1.088149929046630859e+01 -1.176267962291763572e-14 3.609664379466276385e-13 1.047611297841019584e-13 1.185215527067448593e-13
4.357000000000000000e+03 6.784932708740234375e+01 -1.448984718322753906e+01 -2.001204784567514605e-14 8.580014309981804504e-15 -3.429609933653060376e-15 4.253836730560775492e-14
4.358000000000000000e+03 6.282964324951171875e+01 -9.488905906677246094e+00 -1.612733790913242760e-14 2.447184978531663502e-13 6.857735272659468140e-14 5.126612025521670724e-14
4.359000000000000000e+03 6.730381011962890625e+01 -1.393272495269775391e+01 -5.153085870881514430e-14 -4.928047851520886424e-15 -1.693767230691398812e-14 8.353995934688024372e-14
4.360000000000000000e+03 6.617355346679687500e+01 -1.392159843444824219e+01 -4.098613538405099233e-14 -6.331643786746180003e-14 -3.129076926494840649e-14 -1.581356302415154458e-14
4.361000000000000000e+03 4.947396850585937500e+01 -3.179087400436401367e+00 -2.041285706005230294e-13 4.976917248006133832e-14 -4.630781977495168622e-14 1.465500084566612182e-13
4.362000000000000000e+03 6.785667419433593750e+01 -3.503758668899536133e+00 1.370206303020343741e-13 9.875521217840924071e-14 7.073275342175944225e-14 -7.525764916577106639e-15
4.363000000000000000e+03 6.667646026611328125e+01 -2.417043209075927734e+00 -1.105963736390547236e-13 5.016129655741052851e-13 1.173049694489988748e-13 -1.042450224449445462e-13
4.364000000000000000e+03 6.266951751708984375e+01 -6.207579612731933594e+00 1.403892481460127309e-14 3.262733236798071035e-13 1.020936739553994499e-13 9.435133880783541649e-14
4.365000000000000000e+03 6.271123123168945312e+01 -7.002826213836669922e+00 -2.277095104542912335e-14 2.189957606533662893e-13 5.886744135772184472e-14 -2.129444895155457873e-14
4.366000000000000000e+03 7.281065368652343750e+01 -1.120456600189208984e+01 -4.736683457571763678e-14 -1.575529257839131114e-13 -6.147592336450471984e-14 -1.296836851230262488e-13
4.367000000000000000e+03 6.269559478759765625e+01 -5.411664009094238281e+00 -1.508441504029841423e-14 2.680409334158279089e-13 7.588695568206543784e-14 -2.044672482541531888e-13
4.368000000000000000e+03 6.511025238037109375e+01 -1.277744960784912109e+01 -1.120221266009274741e-13 -1.226655580631669587e-14 -3.728660717856879803e-14 -4.313714506041718688e-14
4.369000000000000000e+03 7.284442138671875000e+01 -1.279208374023437500e+01 -1.525841932458697064e-14 -1.895431240347272839e-13 -6.144046317720086581e-14 -1.102786075348263783e-13
4.370000000000000000e+03 6.893485260009765625e+01 -4.610842704772949219e+00 -1.386642570785998757e-14 9.699688020012656176e-14 2.493913685589974061e-14 -1.565937253456516076e-14
4.371000000000000000e+03 6.849773406982421875e+01 -5.144550800323486328e+00 9.475329321075726119e-14 4.060855181308754835e-14 4.060855181308754835e-14 -6.256257176814189469e-14
4.372000000000000000e+03 6.278948974609375000e+01 -7.798420429229736328e+00 -4.720047391674510318e-14 3.457788254942334438e-13 8.957350377918060769e-14 -3.941321552979049070e-14
4.373000000000000000e+03 5.273051452636718750e+01 -1.897734642028808594e+01 -1.127125668731569774e-13 -8.404831464050438461e-14 -5.902826242121933520e-14 5.748483964231401733e-14
4.374000000000000000e+03 5.481056594848632812e+01 1.541798591613769531e+00 -9.290733398001523036e-15 -4.973269246508899011e-14 -1.770702725070738559e-14 -8.825516814754685857e-14
4.375000000000000000e+03 4.775988006591796875e+01 -2.414438962936401367e+00 -1.859082413837795378e-13 -8.539382986534962972e-14 -8.139062340761782366e-14 1.658459001098282204e-14
4.376000000000000000e+03 4.855139160156250000e+01 -3.636415958404541016e+00 -2.370136693245067372e-13 -5.582634235532651923e-14 -8.785200756970812375e-14 1.960320604845258718e-13
4.377000000000000000e+03 4.420811462402343750e+01 -4.612892150878906250e+00 8.434718513374538096e-15 3.238715177121542776e-13 9.969187476401020209e-14 5.401224172779661714e-14
4.378000000000000000e+03 4.427413940429687500e+01 -6.183993816375732422e+00 -8.812483349388694487e-15 -3.776778457304733744e-15 -3.776778457304733744e-15 1.023089965068550711e-13
4.379000000000000000e+03 4.523054504394531250e+01 -7.664013862609863281e+00 6.372543958450480051e-14 7.306185008121995894e-14 4.103618825497014344e-14 1.292523488412300470e-14
4.380000000000000000e+03 4.594465255737304688e+01 -1.008241939544677734e+01 -1.456034864075542168e-13 -6.114128842972521571e-13 -2.271049152772000590e-13 1.188500795175351232e-13
4.381000000000000000e+03 4.421981811523437500e+01 -5.396395206451416016e+00 -9.048031353558853851e-15 -3.877727843958501258e-15 -3.877727843958501258e-15 -1.669303225108800109e-14
4.382000000000000000e+03 5.307288360595703125e+01 -6.591377258300781250e+00 -1.051094432845400828e-13 -2.509261787068950422e-13 -1.068106852421778219e-13 1.506306066207177552e-13
4.383000000000000000e+03 2.900127792358398438e+01 3.161426544189453125e+00 2.280806565748555448e-13 6.915450742432660558e-14 8.917054648924921390e-14 -3.731301766586418711e-14
4.384000000000000000e+03 5.668950653076171875e+01 -1.515062427520751953e+01 -5.968953087874540042e-14 2.031735104593077046e-13 4.304519455179504905e-14 1.072571732493345087e-13
4.385000000000000000e+03 4.521684646606445312e+01 -1.072742366790771484e+01 -1.335891981887535329e-13 -3.775091675893571530e-13 -1.533295110886859214e-13 1.477411671734624177e-13
4.386000000000000000e+03 4.687823104858398438e+01 -1.258032226562500000e+01 -6.138509602157064121e-15 -3.007268099906174053e-13 -9.205959968948060346e-14 9.050045597907424577e-14
4.387000000000000000e+03 5.539005279541015625e+01 -1.051731777191162109e+01 -1.823727665195215564e-13 -2.840390412022636424e-13 -1.399235409612828440e-13 -2.211615053148829196e-14
4.388000000000000000e+03 5.501660537719726562e+01 -9.846356391906738281e+00 8.415818497815863442e-14 -9.683156986200862348e-15 2.234250822818074217e-14 2.160993009970441081e-13
4.389000000000000000e+03 3.007539558410644531e+01 3.126869201660156250e+00 -2.231587039724231003e-13 3.017566394241527616e-14 -5.789491200900234724e-14 1.241889485128697124e-13
4.390000000000000000e+03 3.025547981262207031e+01 4.059470653533935547e+00 -1.004052323596606178e-13 1.399729805803481830e-13 1.187032565205239573e-14 1.499060207563185365e-13
4.391000000000000000e+03 5.469376754760742188e+01 -9.189229965209960938e+00 -1.468307219516448714e-13 -1.544293528775095292e-13 -9.037802244874632018e-14 3.097546294439888770e-14
4.392000000000000000e+03 3.153699874877929688e+01 4.979084491729736328e+00 1.290116695114654211e-13 -5.336778856833944429e-14 2.269316462175097193e-14 3.128763524304356558e-13
4.393000000000000000e+03 3.280583190917968750e+01 5.949437141418457031e+00 1.620613365727052724e-13 1.838322381689586060e-13 1.037680751330045947e-13 1.728538644683863534e-13
4.394000000000000000e+03 3.201197814941406250e+01 4.425062179565429688e+00 8.904681869257788374e-14 3.126686192941874332e-13 1.205146280078978061e-13 1.128077598239012047e-13
4.395000000000000000e+03 5.681459426879882812e+01 -1.652797317504882812e+01 9.867578759301109947e-14 4.997990953395370362e-13 1.795424703007753031e-13 2.022001001963230626e-13
4.396000000000000000e+03 5.672509002685546875e+01 -1.590826416015625000e+01 -1.213186045763772758e-13 3.826403170009706756e-13 7.839651779313616675e-14 9.262639348020171304e-14
4.397000000000000000e+03 5.651238250732421875e+01 -1.435870742797851562e+01 -1.158497397405616747e-13 1.104784327714790348e-13 -1.611389337867713371e-15 1.047438299831872366e-13
4.398000000000000000e+03 4.450986862182617188e+01 -7.723762512207031250e+00 -3.603305601487284682e-14 7.605916086837402612e-14 1.200783043961081709e-14 8.139033202828396818e-14
4.399000000000000000e+03 4.437961959838867188e+01 -6.958303928375244141e+00 1.220065664302031130e-14 -4.052209685422719643e-14 -8.496431639845591910e-15 1.155745150190762294e-13
4.400000000000000000e+03 5.522339248657226562e+01 -8.377987861633300781e+00 -1.233475127593308684e-13 -5.286322120605542463e-14 -5.286322120605542463e-14 1.090245786445481757e-13
4.401000000000000000e+03 5.443193817138671875e+01 -8.526353836059570312e+00 1.040331761167044566e-13 -1.612936265668954428e-13 -1.717813310217822242e-14 1.253838748322202989e-13
4.402000000000000000e+03 5.420755767822265625e+01 -7.865048885345458984e+00 -1.377013466360293981e-13 -4.478979307668412568e-13 -1.756797832208611965e-13 7.658809567448465749e-14
4.403000000000000000e+03 5.116976547241210938e+01 -5.384164810180664062e+00 -2.237765907905225893e-13 -1.416552015661223796e-13 -1.096295363517407750e-13 2.001576530387405572e-13
4.404000000000000000e+03 4.738426589965820312e+01 -1.318114852905273438e+01 1.657513034702788601e-15 -1.822934300255499296e-13 -5.419077594428708955e-14 9.955406589162371644e-14
4.405000000000000000e+03 5.406880950927734375e+01 1.979355812072753906e+00 4.868038955339708262e-14 3.411196563933571735e-13 1.169400134452130979e-13 1.231095168299431442e-13
4.406000000000000000e+03 5.662176132202148438e+01 -2.377296835184097290e-01 -9.566714011689098074e-14 9.768236024741694390e-14 6.045659544544942227e-16 2.084269917572954822e-14
4.407000000000000000e+03 2.562916183471679688e+01 -5.465604782104492188e+00 -5.268890182551048962e-14 2.290492556906997823e-13 5.290810717599632451e-14 -8.118685438556275114e-14
4.408000000000000000e+03 2.616962242126464844e+01 -7.924995899200439453e+00 3.607819338419249178e-13 4.291265151383505394e-13 2.369725238520609123e-13 2.760176120867111060e-14
4.409000000000000000e+03 2.599843025207519531e+01 -7.132789134979248047e+00 6.573586212041751531e-14 4.399310505730918974e-13 1.517000771961846128e-13 -1.530543431184079421e-15
4.410000000000000000e+03 2.165097808837890625e+01 -9.249231338500976562e+00 -2.412200755981530609e-13 -3.492913694825433568e-13 -1.771534308137034941e-13 6.190023943723407807e-14
4.411000000000000000e+03 2.526269721984863281e+01 -4.638302326202392578e+00 -7.094239746433667060e-14 1.068489643551301382e-13 1.077197040605121919e-14 3.655352387964272420e-14
4.412000000000000000e+03 1.991117477416992188e+01 -7.698847293853759766e+00 -1.164849737934209317e-13 -1.414240225578941579e-13 -7.737269890539452688e-14 2.261850781540633570e-13
4.413000000000000000e+03 1.615242576599121094e+01 -4.167355537414550781e+00 -2.000780183891714969e-13 -1.314986666648212954e-13 -9.947300822670326892e-14 6.721051260026936203e-14
4.414000000000000000e+03 1.558550262451171875e+01 -1.780187606811523438e+00 -1.515228914561461693e-13 -1.106893304228181996e-13 -7.866366520843659504e-14 1.096406697527994856e-13
4.415000000000000000e+03 2.319058418273925781e+01 -2.936195135116577148e+00 -1.143876524533835037e-13 -1.977138613419582303e-13 -9.363045278334980459e-14 2.079275879078579248e-13
4.416000000000000000e+03 2.221693420410156250e+01 -5.034680366516113281e-01 -2.860215319797076994e-13 -3.055844694042214593e-13 -1.774817949941678852e-13 3.892192557836127165e-13
4.417000000000000000e+03 1.596528434753417969e+01 -4.951021671295166016e+00 -8.151314502937226369e-14 -1.264361065931446371e-13 -6.238477616438142803e-14 -2.893785403901109887e-14
4.418000000000000000e+03 2.270860671997070312e+01 -2.284865140914916992e+00 -3.341738507006003500e-13 -2.690324634076202148e-13 -1.809618942324661695e-13 2.523559974269146133e-13
4.419000000000000000e+03 1.936020088195800781e+01 -8.232386589050292969e+00 -1.825426745524771910e-13 -1.272897396211239429e-13 -9.294972289682762456e-14 1.100595715909299943e-13
4.420000000000000000e+03 2.430180740356445312e+01 -3.223693847656250000e+00 -1.448969389567997257e-13 -1.634774265827157458e-14 -4.837340787265317910e-14 4.117528800556824464e-14
4.421000000000000000e+03 2.038394165039062500e+01 1.115357398986816406e+00 -4.563168419513541352e-13 -2.413153227590059124e-13 -2.092896439920971519e-13 4.655664959454797192e-13
4.422000000000000000e+03 1.947370910644531250e+01 1.245822787284851074e+00 -5.489370893604905710e-13 -7.613946365753188061e-13 -3.930995340437754004e-13 5.735443587076560767e-13
4.423000000000000000e+03 1.977274322509765625e+01 1.516914963722229004e+00 -7.025720608587471272e-13 -2.096004034397858096e-13 -2.736517338685490186e-13 4.560670417708134750e-13
4.424000000000000000e+03 1.930123329162597656e+01 -6.093320369720458984e+00 -2.118903739533467556e-13 -1.794526170457305669e-13 -1.174029000102286280e-13 1.849006923048887585e-13
4.425000000000000000e+03 1.933140373229980469e+01 -7.158852100372314453e+00 -1.487912305300417848e-13 -1.095186224694955079e-13 -7.749295725511390343e-14 1.797587550816590052e-13
4.426000000000000000e+03 1.873713111877441406e+01 -5.541456699371337891e+00 -1.864453822450831688e-13 -1.621138932730165072e-13 -1.045677826554299028e-13 1.561909781198911329e-13
4.427000000000000000e+03 5.740501022338867188e+01 1.148481369018554688e+00 5.355736809446211277e-15 4.804626341963283420e-14 1.602059989931712419e-14 8.552083737359272853e-14
4.428000000000000000e+03 6.137461853027343750e+01 3.894070863723754883e+00 1.245524137386683217e-13 -3.097370450400038777e-14 2.807361277040038017e-14 1.373415134875086152e-13
4.429000000000000000e+03 6.125785446166992188e+01 2.833371400833129883e+00 1.379275247617370304e-13 1.336084952933578804e-14 4.538651220261855079e-14 2.004472976491200598e-13
4.430000000000000000e+03 5.443307876586914062e+01 6.601514816284179688e+00 8.249771410440403380e-15 -8.796628247868809591e-14 -2.391495374399078139e-14 -7.328875326713044092e-14
4.431000000000000000e+03 5.527356719970703125e+01 8.351105690002441406e+00 -3.043797988178456593e-14 9.561365506846955520e-14 1.955270357244503349e-14 -1.189946036671274410e-13
4.432000000000000000e+03 5.493915557861328125e+01 7.870879173278808594e+00 8.658261688989851712e-14 -1.001460131727464897e-13 -4.069018800151097057e-15 -1.448507112866703750e-13
4.433000000000000000e+03 5.414542007446289062e+01 5.915170192718505859e+00 -1.300520834687096672e-13 -1.929894503753526447e-13 -9.691246150847140917e-14 7.660677783316929834e-14
4.434000000000000000e+03 5.948674774169921875e+01 2.371547698974609375e+00 2.371634518546356096e-13 1.016414803343100581e-13 1.016414803343100581e-13 9.430661546822038943e-14
4.435000000000000000e+03 6.425868988037109375e+01 7.750430107116699219e+00 1.110429497376379249e-13 7.046530785086158044e-14 5.445247863180256720e-14 1.832644042217782682e-14
4.436000000000000000e+03 6.342445373535156250e+01 5.513209819793701172e+00 1.701374907929140146e-13 1.987311682404013791e-13 1.106605990652473337e-13 -1.218429111944641097e-13
4.437000000000000000e+03 6.321396636962890625e+01 4.913257598876953125e+00 -7.340181522492994493e-14 1.429302707548103790e-14 -1.773263813890056662e-14 -3.308620467445261282e-14
4.438000000000000000e+03 3.780851745605468750e+01 2.305284738540649414e+00 -5.700801430311847051e-14 -7.793226784388873618e-13 -2.508992091778544653e-13 -8.498331704152872756e-14
4.439000000000000000e+03 7.964038848876953125e+01 -9.366748809814453125e+00 -1.248688923528168404e-13 -2.822699756224733569e-13 -1.221416631030924904e-13 -2.115215588674532882e-14
4.440000000000000000e+03 7.887766265869140625e+01 -1.002366924285888672e+01 -1.492331377830197203e-13 -3.384627647595728206e-13 -1.463087734732831935e-13 -1.146391060422372044e-13
4.441000000000000000e+03 7.960296630859375000e+01 -7.792612552642822266e+00 -1.638267429701634192e-13 -2.074643083195548687e-13 -1.113873126764100552e-13 -3.420530460436499443e-14
4.442000000000000000e+03 7.890598297119140625e+01 -8.591437339782714844e+00 1.033042822427355026e-14 -1.328255268360362118e-13 -3.674852780475960923e-14 -1.537496936406326786e-13
4.443000000000000000e+03 7.868346405029296875e+01 -1.196099567413330078e+01 -1.113106324777610179e-13 -1.849574096310369065e-13 -8.888041398789209291e-14 2.557144186882739229e-14
4.444000000000000000e+03 7.879632568359375000e+01 -1.502859115600585938e+01 -7.613302214137460111e-14 1.274998851072059458e-13 1.541005855093622451e-14 -6.434241160702125484e-14
4.445000000000000000e+03 7.960375976562500000e+01 -1.420176696777343750e+01 -1.472796900712711188e-13 -1.546217716580713941e-13 -9.057044122930818508e-14 -1.598591898232474412e-14
4.446000000000000000e+03 7.883607482910156250e+01 -1.660595512390136719e+01 -8.797908284058700290e-14 1.910494196654885513e-13 3.092110375797589572e-14 -1.077315388048512290e-13
4.447000000000000000e+03 7.886889648437500000e+01 -1.818336868286132812e+01 1.017090650931714788e-14 2.331137127949134413e-13 7.298537994674184071e-14 -5.100064657702005344e-14
4.448000000000000000e+03 7.958895111083984375e+01 -6.994029998779296875e+00 -4.999992288961824932e-15 -3.681504428566795273e-13 -1.119451279178902692e-13 -8.534519662165007681e-14
4.449000000000000000e+03 7.960454559326171875e+01 -4.594679832458496094e+00 -8.936972798086195713e-14 -5.415617498720493028e-13 -1.892794460663788092e-13 2.670216817297378642e-14
4.450000000000000000e+03 7.964256286621093750e+01 -6.212704181671142578e-01 3.417286527536422813e-13 -2.195524442588289715e-13 3.665286390369670855e-14 -4.690495343881049758e-15
4.451000000000000000e+03 7.886812591552734375e+01 -1.393385648727416992e+00 1.263916543040727314e-13 -3.733404779987861688e-14 2.671727924075280314e-14 5.349363733551069922e-14
4.452000000000000000e+03 7.967363739013671875e+01 9.578781127929687500e-01 -1.004670413702613008e-12 -8.423315755838600705e-13 -5.541006022069527859e-13 4.737491865816623182e-13
4.453000000000000000e+03 7.886408996582031250e+01 3.311781883239746094e+00 -1.581150032951839091e-13 -1.363900041084081804e-13 -8.835149951057219564e-14 1.391694376927377075e-13
4.454000000000000000e+03 7.967562866210937500e+01 1.748734831809997559e+00 5.062041823038210264e-13 -4.006931505345923128e-13 3.165330614263682507e-14 -8.096045264315704371e-14
4.455000000000000000e+03 7.890970611572265625e+01 -1.975816154479980469e+01 -3.296766368403379437e-15 -1.386657444684552543e-13 -4.258875221344222972e-14 -1.068859187085529489e-14
4.456000000000000000e+03 7.892453002929687500e+01 -2.054251670837402344e+01 -1.613889990886244880e-14 -2.814223734690785017e-13 -8.926838218278887460e-14 -1.539957905931279430e-14
4.457000000000000000e+03 7.887376403808593750e+01 -2.367353248596191406e+01 -2.252675991706518110e-14 -3.299109574937675315e-13 -1.057313213218870340e-13 -4.336239144988283944e-14
4.458000000000000000e+03 7.963155364990234375e+01 -2.293404006958007812e+01 -2.764168695367288930e-14 -2.406011858930440228e-13 -8.047285982113600022e-14 -3.459632211787189160e-14
4.459000000000000000e+03 7.882283020019531250e+01 -2.525387763977050781e+01 -7.196467136398251863e-14 -2.595967332156418061e-13 -9.946842747252451766e-14 -3.626528873208745285e-14
4.460000000000000000e+03 7.878215789794921875e+01 -2.684144783020019531e+01 -1.354499737198089360e-13 -2.410537860899480966e-13 -1.129511252324216786e-13 1.148732869352304953e-14
4.461000000000000000e+03 7.870323944091796875e+01 -2.923425292968750000e+01 8.225604713422290937e-14 -1.049835589419850432e-14 2.152730847315015295e-14 8.020350334390913272e-14
4.462000000000000000e+03 7.865303802490234375e+01 -3.004229164123535156e+01 -1.655435601696352704e-14 -1.214721004989469111e-13 -4.140793407486111077e-14 3.545209644514185632e-14
4.463000000000000000e+03 7.854922485351562500e+01 -3.257434844970703125e+01 1.407804672533610746e-14 1.890372488535727036e-13 6.093458799604628551e-14 3.625489055562695906e-14
4.464000000000000000e+03 7.950932312011718750e+01 -3.172611236572265625e+01 3.813993188655530331e-14 6.209663588451624916e-14 3.007097067013464464e-14 3.602793993587143084e-14
4.465000000000000000e+03 7.875177001953125000e+01 -3.417961502075195312e+01 -4.370203810920465781e-14 -1.872944514595426685e-14 -1.872944514595426685e-14 1.233778297625789944e-13
4.466000000000000000e+03 7.858341217041015625e+01 -3.555434036254882812e+01 -6.519725080991745081e-14 -1.194435717867536884e-13 -5.539224813425405736e-14 -1.447088027748191785e-14
4.467000000000000000e+03 7.814403533935546875e+01 -3.709414291381835938e+01 1.110214977812157625e-15 4.758064114995590958e-16 4.758064114995590958e-16 8.012040602365169684e-14
4.468000000000000000e+03 7.935272979736328125e+01 -3.886956787109375000e+01 -1.778640948445816411e-14 -1.220001205094745078e-13 -4.193595747352049652e-14 6.616091341774509027e-15
4.469000000000000000e+03 7.826261138916015625e+01 -4.122287368774414062e+01 -2.708340626758815907e-15 -2.299154519113527639e-13 -6.978713939197189742e-14 4.611091510790116255e-15
4.470000000000000000e+03 7.867591857910156250e+01 -1.073551273345947266e+01 6.388220166611904838e-14 -2.700030682974835505e-13 -6.183626473279385527e-14 -1.294373408369103862e-13
4.471000000000000000e+03 7.882221221923828125e+01 -1.346816062927246094e+01 -1.084275356132147206e-13 -7.179952069157513779e-16 -3.274365777431939573e-14 -6.528873036822091525e-14
4.472000000000000000e+03 7.891954040527343750e+01 -2.210546302795410156e+01 -5.484924919308721558e-14 -2.065106169835823069e-13 -7.840796290231946686e-14 3.855984338795893918e-14
4.473000000000000000e+03 7.873745727539062500e+01 -2.843178558349609375e+01 -5.179723701819946569e-14 -6.794976229905144716e-14 -3.592410047280163166e-14 1.021272571176921884e-13
4.474000000000000000e+03 3.351860809326171875e+01 -3.982595503330230713e-01 -1.527640996557347308e-13 2.547863179117038079e-13 3.060666141103257631e-14 2.124744539924554310e-14
4.475000000000000000e+03 4.140153503417968750e+01 -1.275963306427001953e+01 1.364212460716347081e-14 -2.686590641794162071e-13 -7.650507966939015803e-14 -1.178477346090722744e-13
4.476000000000000000e+03 2.951691627502441406e+01 -3.646948814392089844e+00 -7.478264833554390534e-14 2.653314579766780090e-13 5.716464085946115770e-14 4.033810435742461731e-14
4.477000000000000000e+03 3.681682968139648438e+01 -5.361303329467773438e+00 -5.849770131184997557e-14 -1.165723469359961073e-13 -5.252101311910110926e-14 6.613808079761890335e-14
4.478000000000000000e+03 3.197573852539062500e+01 -9.994889259338378906e+00 -1.650563231014520738e-13 -2.079912712329642921e-13 -1.119142755898194785e-13 -9.187985548642497828e-16
4.479000000000000000e+03 3.291727828979492188e+01 -1.063162803649902344e+01 -1.497736667761123686e-13 -1.843776426836956500e-14 -5.046342778868527501e-14 3.805150249389490161e-15
4.480000000000000000e+03 4.072107696533203125e+01 -1.413570880889892578e+01 8.483991055191031187e-16 -3.198930378402187191e-13 -9.571339489207464357e-14 -4.533587149083400519e-15
4.481000000000000000e+03 3.037311363220214844e+01 -7.655353546142578125e+00 7.232056072710088546e-14 -1.291337913336687571e-13 -1.704397155366261379e-14 -1.060012012654753047e-14
4.482000000000000000e+03 3.295463180541992188e+01 -3.552660718560218811e-02 -3.488791287115100559e-13 1.249860675026082113e-13 -6.716791700741783777e-14 -4.211977378747004674e-14
4.483000000000000000e+03 3.183269119262695312e+01 -9.394327163696289062e+00 3.746432824342990631e-14 -9.832123315381760542e-14 -1.825707181192948864e-14 3.222841102063639385e-14
4.484000000000000000e+03 3.480314254760742188e+01 -1.305122756958007812e+01 -8.798014671396875430e-14 -1.292076797117236442e-13 -6.515634250669685712e-14 4.178397265772876290e-14
4.485000000000000000e+03 3.770023345947265625e+01 -6.677272319793701172e+00 -4.836824097167492786e-15 -1.850767260801189362e-13 -5.697406522259251815e-14 1.413518282457337794e-13
4.486000000000000000e+03 4.014440917968750000e+01 -1.072249984741210938e+01 -1.683651319490248044e-13 -6.669188313580820537e-13 -2.505851971236483511e-13 6.273071119630366232e-14
4.487000000000000000e+03 3.031218910217285156e+01 -5.975693702697753906e+00 4.734854544032052193e-14 -2.545871533607500098e-14 6.566949454790129911e-15 8.296804270089414013e-14
4.488000000000000000e+03 3.830569076538085938e+01 -6.236213207244873047e+00 -3.151325432700601004e-14 -3.051679731396611528e-13 -1.010043692564396856e-13 9.983162164778000558e-14
4.489000000000000000e+03 3.814155578613281250e+01 -7.342719078063964844e+00 -1.342573919876563493e-13 -2.862936396199472489e-13 -1.261652999955120702e-13 8.743055108020869604e-14
4.490000000000000000e+03 4.138513565063476562e+01 -1.405429172515869141e+01 4.328149980342005376e-14 -1.644545773431954627e-13 -3.635192326193262269e-14 -8.232343707550646150e-14
4.491000000000000000e+03 3.131848907470703125e+01 -8.088477134704589844e+00 4.070524909434609928e-14 1.744510772275741084e-14 1.744510772275741084e-14 -7.390176964578321767e-15
4.492000000000000000e+03 3.380995941162109375e+01 -1.191847419738769531e+01 -1.385640327521489579e-13 -2.195128979845875627e-13 -1.074230832867791030e-13 5.624983850016293530e-14
4.493000000000000000e+03 3.608391189575195312e+01 -2.753144502639770508e+00 -8.639701503049615483e-14 -2.200310924129270096e-13 -9.192843155540059152e-14 1.322821179309228989e-14
4.494000000000000000e+03 3.586114883422851562e+01 -1.407269573211669922e+01 -1.249379695837313231e-13 -1.923163234565650193e-14 -4.325088125644270531e-14 3.457644733679751670e-14
4.495000000000000000e+03 3.995025253295898438e+01 -8.924656867980957031e+00 4.054027418127527371e-14 -1.827859966250372503e-13 -4.267371639431541408e-14 2.176244888506609354e-13
4.496000000000000000e+03 3.123081207275390625e+01 -1.001871490478515625e+01 2.674101225690192138e-15 4.689699217613925442e-14 1.487132865582354441e-14 1.134183757111814628e-13
4.497000000000000000e+03 3.705342483520507812e+01 2.608395814895629883e+00 -6.740171842965075877e-14 -5.321468634668369280e-13 -1.798645867662207465e-13 3.979371628222427848e-13
4.498000000000000000e+03 3.839603424072265625e+01 3.830300807952880859e+00 -2.363505340063649235e-14 -4.333255759422782738e-13 -1.370881896499073771e-13 -7.258260561592705384e-14
4.499000000000000000e+03 3.737611007690429688e+01 3.338326215744018555e+00 2.899663134928696928e-14 -6.280861789866032385e-13 -1.797268524327336192e-13 -4.200365573479684922e-14
4.500000000000000000e+03 4.204836273193359375e+01 7.669298648834228516e-01 -7.414149860458102426e-14 -1.461522959947392231e-13 -6.608813973504878980e-14 -4.145905081916201329e-14
4.501000000000000000e+03 3.941682052612304688e+01 8.412591934204101562e+00 8.872985218745174651e-14 -7.723868982280942402e-15 2.430179538506771486e-14 -1.423064411535529539e-13
4.502000000000000000e+03 4.715713882446289062e+01 6.232817649841308594e+00 1.334681063586140581e-13 5.720061604279694234e-14 5.720061604279694234e-14 7.062643384622008247e-14
4.503000000000000000e+03 4.767259216308593750e+01 5.715503215789794922e+00 -5.133157218511694153e-14 1.370567884444867657e-13 2.571756521662412615e-14 -5.465693544461081022e-14
4.504000000000000000e+03 4.279384613037109375e+01 8.246280550956726074e-01 -1.296635460676723306e-13 -9.819144737750751251e-15 -4.184480995213235577e-14 -7.295202040114717734e-14
4.505000000000000000e+03 4.658032226562500000e+01 4.616756439208984375e+00 -5.126529016292839802e-14 2.378011118098558030e-14 -8.245553186363076964e-15 -7.204962538046033593e-14
4.506000000000000000e+03 3.919884490966796875e+01 6.918336391448974609e+00 5.028304704036978823e-14 -4.707654622029822100e-14 9.619501189665280796e-16 -1.243350854131936023e-13
4.507000000000000000e+03 4.400843429565429688e+01 2.674448490142822266e+00 -2.085256744837823972e-13 -1.808700352034023351e-13 -1.168187183271662821e-13 -1.822676666714262428e-13
4.508000000000000000e+03 1.280262827873229980e+00 -3.619361114501953125e+01 -1.233276667773767002e-14 1.548428540335683445e-13 4.275302578323272873e-14 -1.004380633566961945e-13
4.509000000000000000e+03 3.823721408843994141e-01 -4.277500152587890625e+00 -9.844365990788195298e-14 -4.219013850846435598e-14 -4.219013850846435598e-14 -1.000801190916477887e-14
4.510000000000000000e+03 4.553196728229522705e-01 -5.930263042449951172e+00 1.839552273528999304e-14 1.451366425046091146e-13 4.905965024959609011e-14 1.091863267856064360e-15
4.511000000000000000e+03 3.982150554656982422e-01 -6.749284267425537109e+00 -6.586132464056482227e-14 2.005284637342577558e-13 4.040014105048152226e-14 -5.133093182820881728e-14
4.512000000000000000e+03 4.063723087310791016e-01 -8.341478347778320312e+00 -1.459980682357031601e-13 2.893129461586756157e-14 -3.512003242476385845e-14 3.641372617389608546e-14
4.513000000000000000e+03 4.006110131740570068e-01 -1.156326007843017578e+01 1.748530430654407410e-15 1.151267395218397160e-13 3.506258326214928278e-14 8.237732192347899107e-14
4.514000000000000000e+03 3.929249644279479980e-01 -1.316438293457031250e+01 -8.515839494007792880e-16 4.538598365405946411e-14 1.336032013374375410e-14 4.584964610125467910e-14
4.515000000000000000e+03 3.860301971435546875e-01 -1.476527976989746094e+01 -3.211406157275706330e-14 1.463651519862524397e-13 3.427532712404861293e-14 -7.768826272396001098e-14
4.516000000000000000e+03 3.825880885124206543e-01 -1.556621360778808594e+01 8.036229152833321288e-14 4.233240548465883046e-13 1.511058937480810882e-13 -8.012041279991527487e-14
4.517000000000000000e+03 3.798402547836303711e-01 -1.716854667663574219e+01 1.335739109381214873e-13 3.775026081662136157e-13 1.533229516655423841e-13 -4.088416616972873063e-14
4.518000000000000000e+03 4.019238054752349854e-01 -1.957820510864257812e+01 -1.090003602785202808e-13 1.820403094758560325e-13 2.191198340394800992e-14 -1.540815950306848037e-14
4.519000000000000000e+03 1.200174212455749512e+00 -1.954155540466308594e+01 4.260325002936743433e-15 2.077051231745910553e-13 6.358963648613741304e-14 7.524803534181973008e-15
4.520000000000000000e+03 5.061102509498596191e-01 -2.522326087951660156e+01 -8.095393387759497461e-14 -1.719473901370255353e-13 -7.587039449388072176e-14 3.409926624376412307e-14
4.521000000000000000e+03 1.585393428802490234e+00 -2.522644233703613281e+01 -1.970791897189759501e-14 -3.132172662510465666e-14 -1.530889232384795989e-14 -7.252842938862066879e-14
4.522000000000000000e+03 4.951811730861663818e-01 -2.603921890258789062e+01 1.868829967350844196e-14 -6.061715392873326391e-14 -1.257865526012790988e-14 -7.866770216746320904e-15
4.523000000000000000e+03 5.844515562057495117e-01 -4.041370773315429688e+01 2.405410397775253895e-13 8.021353899026820167e-14 9.622637159745900393e-14 6.502556739590437118e-14
4.524000000000000000e+03 4.353643357753753662e-01 -2.119717407226562500e+01 4.472435266643197405e-14 1.564204224046433778e-13 6.034343353776214225e-14 -4.172851232847434033e-14
4.525000000000000000e+03 4.416548907756805420e-01 -2.200646591186523438e+01 -6.290883883697945267e-14 2.932957154054560700e-13 6.911605890478483838e-14 3.009980282462623377e-15
4.526000000000000000e+03 1.368746042251586914e+00 -2.854550552368164062e+01 1.833793635333796218e-14 7.859115580001983792e-15 7.859115580001983792e-15 2.690983693471801774e-14
4.527000000000000000e+03 1.437598347663879395e+00 -2.693421554565429688e+01 2.343287171832457438e-14 -1.272101862867178190e-13 -3.113319403170479449e-14 -7.803444847763463255e-14
4.528000000000000000e+03 4.666518270969390869e-01 -3.007935523986816406e+01 2.376747006128075712e-14 -1.270667869968794550e-13 -3.098979474186643046e-14 -4.918858814592598147e-15
4.529000000000000000e+03 5.067923069000244141e-01 -3.169911575317382812e+01 9.835397605942666766e-14 2.251555062185439660e-13 9.705284536101754789e-14 -2.567962999904839505e-14
4.530000000000000000e+03 5.233789682388305664e-01 -3.250560379028320312e+01 -2.474992155394439147e-14 1.723966835173035284e-13 4.429402943604068832e-14 1.325872446095123156e-14
4.531000000000000000e+03 5.480655431747436523e-01 -3.416960906982421875e+01 1.153922199762999479e-13 1.867066614161250193e-13 9.062966577298020576e-14 -3.462940044852806654e-14
4.532000000000000000e+03 1.834574103355407715e+00 -3.514637374877929688e+01 -2.425788689114794644e-14 1.954830340569063685e-13 5.136754398032093716e-14 -1.605134753411563420e-13
4.533000000000000000e+03 3.545600473880767822e-01 -3.565118789672851562e+01 1.261929200458561384e-13 -3.741921865679093129e-14 2.663210838384048873e-14 -1.059901271567229020e-13
4.534000000000000000e+03 5.657418966293334961e-01 -3.878674697875976562e+01 -8.004116439737016253e-14 -3.430335713833915223e-14 -3.430335713833915223e-14 5.098586076989278237e-14
4.535000000000000000e+03 1.700188040733337402e+00 -3.856686019897460938e+01 1.248351872177796973e-13 7.749845788707337285e-15 3.977550846199010004e-14 -9.617212083125326050e-14
4.536000000000000000e+03 1.791852951049804688e+00 -3.940743255615234375e+01 2.805292483769664114e-14 -1.481056352862705761e-13 -3.601581381219853828e-14 3.660611446127184920e-14
4.537000000000000000e+03 1.716776132583618164e+00 -4.116099548339843750e+01 7.972873121257773033e-14 -5.733244147444402361e-14 6.718885989703870035e-15 -2.287044353541361347e-14
4.538000000000000000e+03 1.444162487983703613e+00 -3.696471405029296875e+01 3.404471732196094613e-14 1.060924893943326897e-13 4.204116235370126964e-14 -5.435639121426603937e-14
4.539000000000000000e+03 4.272970557212829590e-01 -2.360364913940429688e+01 -6.828112836428090748e-14 1.648760812665399367e-14 -1.553805539366171634e-14 1.497433972067092889e-14
4.540000000000000000e+03 1.305650591850280762e+00 -9.145825386047363281e+00 -4.864674201660035280e-14 7.065329495504341084e-14 6.601964949796675433e-15 -1.773483873049753329e-14
4.541000000000000000e+03 4.280003011226654053e-01 -9.950647354125976562e+00 -5.313977746333395369e-14 9.160318445618209626e-14 1.153902142022808497e-14 -2.772139360104246622e-15
4.542000000000000000e+03 4.712833786010742188e+01 5.161609172821044922e+00 8.562849864932053912e-14 8.244887249059945633e-14 5.042321066434964083e-14 3.029366918449495627e-14
4.543000000000000000e+03 3.804084777832031250e+01 4.799118041992187500e+00 -3.002938474055624751e-14 -3.788773223108166111e-13 -1.226720141482909310e-13 5.649278300778675602e-16
4.544000000000000000e+03 4.868354415893554688e+01 8.031278610229492188e+00 1.414225724374884585e-13 3.351153718671867621e-13 1.429613805808971350e-13 -2.350940283917489493e-14
4.545000000000000000e+03 5.024684524536132812e+01 8.230840682983398438e+00 -5.885291982487411699e-14 2.149698062788030217e-13 4.683506390329959801e-14 7.226961000125764478e-14
4.546000000000000000e+03 4.555838012695312500e+01 3.469362735748291016e+00 -6.072562157982686060e-14 -1.289648997402498276e-13 -5.690715639602300646e-14 4.217658259317649816e-14
4.547000000000000000e+03 4.918795013427734375e+01 7.388242244720458984e+00 -9.527022725407119363e-14 6.353925496643472726e-14 -9.519290839257992659e-15 1.850016857372557832e-13
4.548000000000000000e+03 7.165296936035156250e+01 1.131033301353454590e+00 -1.080030569101594895e-13 -2.292908159347295527e-13 -1.011881618534667127e-13 2.392538410770327084e-14
4.549000000000000000e+03 7.364943695068359375e+01 4.290890395641326904e-01 6.496733218671474352e-14 2.784314188171606308e-14 2.784314188171606308e-14 1.081982946163698167e-13
4.550000000000000000e+03 7.658522033691406250e+01 3.411775350570678711e+00 1.171380429720175753e-13 -4.129987977584577419e-14 2.275145065291743485e-14 5.348513990098384407e-14
4.551000000000000000e+03 7.641212463378906250e+01 3.983859300613403320e+00 -9.060392274764725307e-14 -1.760830928764986480e-13 -8.000610400961741253e-14 1.167042130252246568e-13
4.552000000000000000e+03 7.578370666503906250e+01 2.075485229492187500e+00 -2.408854298213518319e-14 -1.332793332078571757e-13 -4.721036387343724439e-14 1.932817038472096904e-14
4.553000000000000000e+03 6.912907409667968750e+01 6.583738327026367188e+00 -3.172158377444909971e-14 -5.934591332896685389e-14 -2.732024980865114389e-14 -6.628451585354022679e-14
4.554000000000000000e+03 6.809111022949218750e+01 5.854402065277099609e+00 1.797056799971840507e-14 4.201488400354565222e-14 1.799563509275944884e-14 -1.366108967485249459e-13
4.555000000000000000e+03 6.869139099121093750e+01 4.876377582550048828e+00 -2.157493713577426225e-14 -9.246402234641074719e-15 -9.246402234641074719e-15 -4.535932922127526579e-14
4.556000000000000000e+03 7.626599884033203125e+01 5.341327190399169922e+00 -9.351184106567989041e-14 -8.582744974797162918e-14 -5.380178792172181368e-14 -4.744232215197694003e-14
4.557000000000000000e+03 7.031475830078125000e+01 -1.712487602233886719e+01 -2.544859329235531209e-14 3.484440790372730912e-14 2.818744595169835922e-15 -1.293202605548091078e-13
4.558000000000000000e+03 2.780151176452636719e+01 1.317659378051757812e+00 -1.291704238145716110e-13 -2.383625523523502654e-13 -1.102598914948238473e-13 1.047940556488276276e-13
4.559000000000000000e+03 8.368695259094238281e+00 -2.524783611297607422e+00 -1.482518128441759342e-13 -2.465402827635937433e-13 -1.184376354585944813e-13 7.971339652810063847e-14
4.560000000000000000e+03 7.805101013183593750e+01 5.922199726104736328e+00 4.657570580298212026e-14 1.114629154491501850e-13 4.741158502038697597e-14 4.099367736541334462e-14
4.561000000000000000e+03 7.736507415771484375e+01 4.611105918884277344e+00 -1.937040344747106846e-14 -2.828073062191571729e-13 -9.065330815660396779e-14 8.076413073477423099e-14
4.562000000000000000e+03 1.413024997711181641e+01 -2.372901678085327148e+00 -1.247283661987355630e-13 -5.345501602124769214e-14 -5.345501602124769214e-14 1.603645601727654579e-13
4.563000000000000000e+03 3.064567947387695312e+01 -6.704182147979736328e+00 -3.943313096844633381e-14 -1.541527593507813210e-13 -5.807576370763650742e-14 -1.011813550967025771e-14
4.564000000000000000e+03 4.896593475341796875e+01 -1.491759300231933594e+01 -1.729155589601325677e-14 -7.889652473003216926e-14 -2.885642367959385945e-14 5.224663543056291826e-14
4.565000000000000000e+03 3.693360519409179688e+01 -1.574367046356201172e+01 1.714540510434903187e-13 -1.781499074779077652e-13 -2.008757904413123289e-15 -7.470746569114561364e-14
4.566000000000000000e+03 3.802659225463867188e+01 -1.615435409545898438e+01 1.139366921122653142e-13 4.883000945320008224e-14 4.883000945320008224e-14 9.386350712252324729e-15
4.567000000000000000e+03 3.735771942138671875e+01 8.815238952636718750e+00 1.400095181935609445e-13 1.057550246918829984e-13 7.372935947750139385e-14 5.934858317681659945e-14
4.568000000000000000e+03 2.192160034179687500e+01 1.500501275062561035e+00 -9.340070356673654817e-14 2.573522991933252513e-13 4.918547868797661093e-14 -2.171900685219037806e-15
4.569000000000000000e+03 2.175918197631835938e+01 2.196949005126953125e+00 9.060945895499050717e-14 -9.842022081216553198e-14 -2.343228133636033814e-15 -2.716210231994836688e-13
4.570000000000000000e+03 3.911066436767578125e+01 5.272124767303466797e+00 1.852664682365674775e-14 -2.551279771213083025e-13 -7.098039197421870949e-14 -1.416081607443636647e-13
4.571000000000000000e+03 1.341764831542968750e+01 -2.435326814651489258e+00 4.340366905946843601e-14 2.473563075287149582e-13 8.722799500933409167e-14 -9.840292778751438818e-14
4.572000000000000000e+03 6.523746490478515625e+01 -1.341030001640319824e+00 -2.022999145588275094e-13 -1.553263946499697234e-13 -1.072878900521337386e-13 -1.399753929301819633e-13
4.573000000000000000e+03 6.476302337646484375e+01 -1.986003994941711426e+00 -4.235841278427132650e-13 -4.102908063210314316e-13 -2.501624666965962529e-13 -2.120562975433185060e-13
4.574000000000000000e+03 3.666991806030273438e+01 -1.517284297943115234e+01 3.618840693959696903e-15 -8.995096876553143606e-14 -2.589963833676822702e-14 9.028618374847321992e-14
4.575000000000000000e+03 5.571398162841796875e+01 -1.124150753021240234e+01 -2.003744392631290339e-13 2.343818769710154237e-13 1.020223402287134817e-14 1.921491394815677545e-13
4.576000000000000000e+03 3.533277130126953125e+01 -1.357577037811279297e+01 1.403107197214727847e-14 6.013316438486984022e-15 6.013316438486984022e-15 7.089598683509071297e-14
4.577000000000000000e+03 2.261794853210449219e+01 -1.033798599243164062e+01 6.364534414901243387e-14 -1.099762709827652174e-13 -1.389927957478514012e-14 1.056768198339289033e-13
4.578000000000000000e+03 1.284535789489746094e+01 -3.179662704467773438e+01 3.897524189781960413e-14 -2.904727375513740939e-14 2.978390400453011060e-15 -1.012252991660061302e-14
4.579000000000000000e+03 3.301544666290283203e+00 -3.091961669921875000e+01 4.785483397355336233e-14 4.338468874518636165e-14 2.737185613799555939e-14 -6.969020494148811529e-14
4.580000000000000000e+03 3.767385959625244141e+00 -3.178275108337402344e+01 2.203660736147753513e-14 9.444259813757259481e-15 9.444259813757259481e-15 1.543917784959693285e-14
4.581000000000000000e+03 7.675690460205078125e+01 -3.691375732421875000e+01 4.299512474021695285e-14 -5.019994294384877431e-14 -2.161445122276367536e-15 -7.501626002239664137e-14
4.582000000000000000e+03 2.315110015869140625e+01 1.606079459190368652e+00 1.908086048104523647e-13 1.275260685896714707e-13 9.550039659902628819e-14 7.674156449199998065e-14
4.583000000000000000e+03 2.345055007934570312e+01 9.927083849906921387e-01 2.856472653897657032e-13 2.139221552720574349e-13 1.498708248432942258e-13 1.449361735229165449e-13
4.584000000000000000e+03 2.441059303283691406e+01 7.086409330368041992e-01 6.775223421575174432e-15 1.630319821201500763e-13 5.094216403420982753e-14 -4.006884274788784228e-14
4.585000000000000000e+03 2.601725387573242188e+01 2.497957050800323486e-01 -1.620862088481684476e-14 5.878157661141913959e-13 1.714821454322848493e-13 -2.663197116450303353e-14
4.586000000000000000e+03 6.200706863403320312e+01 -3.179453134536743164e+00 -2.795322838217845218e-13 1.318306629225635129e-13 -4.431048898027173388e-14 -2.389393479081125538e-13
4.587000000000000000e+03 3.374436187744140625e+01 1.931735873222351074e-01 -2.605557913523681712e-13 2.543408192390295142e-13 -1.864494852726796686e-15 7.761701708870055727e-14
4.588000000000000000e+03 7.946733951568603516e+00 -3.229770898818969727e+00 -1.271911720911178545e-13 -7.738598038200747431e-14 -6.137314777481667205e-14 1.596833423952656594e-13
4.589000000000000000e+03 7.682109069824218750e+01 5.339531421661376953e+00 -2.071839031445640161e-14 -3.748868891099293998e-13 -1.186815809474037198e-13 6.550276542959670989e-14
4.590000000000000000e+03 7.631291961669921875e+01 4.628620624542236328e+00 3.869304440111236143e-14 -1.664210625860682025e-13 -3.831840511667357341e-14 3.593318744225977579e-15
4.591000000000000000e+03 4.764592742919921875e+01 4.632919311523437500e+00 -1.060640019822506330e-13 4.604589685886992245e-14 -1.800543187582739207e-14 -8.597679859723150742e-14
4.592000000000000000e+03 2.373495864868164062e+01 -1.053150844573974609e+01 1.094637889446220536e-13 1.162104851435666504e-15 3.318776731296019245e-14 1.387071609914442005e-13
4.593000000000000000e+03 2.471670913696289062e+01 -1.091591167449951172e+01 -2.025508700923082245e-14 1.056966200761039198e-13 2.563246042828169757e-14 6.444423174354479977e-14
4.594000000000000000e+03 5.395962905883789062e+01 2.461939156055450439e-01 -1.871052276872578468e-13 1.131394104922009425e-14 -5.273738599141132577e-14 1.238363795189045824e-13
4.595000000000000000e+03 5.458258438110351562e+01 -2.064753770828247070e-01 -1.806782940491982736e-13 1.970721356285912162e-13 4.918152812631061688e-15 -1.182935975059138875e-14
4.596000000000000000e+03 4.656263732910156250e+01 3.640330791473388672e+00 8.594815787218599776e-16 3.683492442422571901e-16 3.683492442422571901e-16 -1.028644807136644412e-13
4.597000000000000000e+03 7.736643981933593750e+01 3.196896553039550781e+00 1.869326362539253106e-13 -3.316445425574632289e-13 -4.341357595681952231e-14 -6.300857188432096301e-14
4.598000000000000000e+03 2.923847961425781250e+01 -2.852370738983154297e+00 -5.214422914723987335e-14 1.606562647672726829e-13 3.255361407414163188e-14 -4.323223975533953267e-14
4.599000000000000000e+03 2.862603950500488281e+01 -5.717255592346191406e+00 -1.164685718474302994e-14 2.466387012158011149e-13 7.049755608922944616e-14 7.315499151816593632e-15
4.600000000000000000e+03 5.148653411865234375e+01 -1.785268020629882812e+01 -1.020628893899644396e-13 4.776066085047762921e-14 -1.629066788421968531e-14 -4.710478291062789036e-14
4.601000000000000000e+03 6.603334808349609375e+01 7.774820804595947266e+00 5.065152331308435396e-14 1.132096938980323153e-13 4.915836346926910627e-14 1.073144462290960555e-13
4.602000000000000000e+03 2.874539566040039062e+01 -2.187847375869750977e+00 -3.695931025961794736e-14 2.293567896369252956e-13 5.771924415200538339e-14 -7.366386689001969135e-14
4.603000000000000000e+03 7.233267211914062500e+01 -7.440561771392822266e+00 1.321145070513202180e-13 -1.263832923948174369e-13 1.719365498093665748e-15 -1.040695239945370332e-13
4.604000000000000000e+03 4.791177368164062500e+01 -1.488202762603759766e+01 -2.689738046819569600e-14 -1.030293472065180183e-13 -3.897801677775480922e-14 6.822416709264395029e-14
4.605000000000000000e+03 4.900008392333984375e+01 -1.593212127685546875e+01 2.420854722197038345e-14 -5.110274454035029779e-14 -8.068259026107384851e-15 5.700098054152447080e-15
4.606000000000000000e+03 6.939704132080078125e+01 -2.982939481735229492e+00 -3.019690075246883598e-14 7.856036784645303861e-14 1.450904080582161859e-14 1.464850308652114463e-15
4.607000000000000000e+03 5.178824615478515625e+01 8.141446113586425781e+00 8.253774318742537752e-14 1.726261684596372414e-13 7.654917281649242788e-14 -7.138766574404931120e-15
4.608000000000000000e+03 5.386300277709960938e+01 5.194790840148925781e+00 -2.216365891543389116e-14 3.565088762397250477e-13 1.003035680771993676e-13 4.808757829866810996e-14
4.609000000000000000e+03 3.710764312744140625e+01 -3.385457754135131836e+00 -6.495350860901555334e-14 -3.480938681830331172e-13 -1.239142116823618855e-13 7.782783342487678557e-14
4.610000000000000000e+03 3.693981170654296875e+01 -4.357480049133300781e+00 -1.413856960110967953e-13 -2.378788084480415455e-13 -1.137793472719833554e-13 7.035212984954830259e-15
4.611000000000000000e+03 4.638487243652343750e+01 -1.311084270477294922e+01 4.598664182201180062e-14 -2.748131854458241152e-13 -6.864796139307779987e-14 3.972710222312041128e-14
4.612000000000000000e+03 3.319383621215820312e+01 -1.278027057647705078e+01 -1.994467315098464449e-14 1.432775712038435872e-14 -1.685074533894377873e-15 -7.406649214303576145e-14
4.613000000000000000e+03 3.178193855285644531e+01 3.401773214340209961e+00 1.516849830690645412e-14 2.810064735157130622e-13 8.885249578195059117e-14 -4.422685972332342230e-15
4.614000000000000000e+03 9.051853179931640625e+00 -2.505837202072143555e+00 -1.274896665017302699e-13 -2.376422355340052084e-13 -1.095395679002152123e-13 5.040253289604126885e-14
4.615000000000000000e+03 1.126738929748535156e+01 -3.142442226409912109e+00 -1.227071016410979931e-13 -3.728453906292478193e-13 -1.486657476811037437e-13 -1.317473034456089018e-15
4.616000000000000000e+03 4.203828811645507812e+01 -1.400324153900146484e+01 -3.451909643000482253e-14 -2.435486437090544909e-13 -8.342032441341004634e-14 5.315490547177191549e-14
4.617000000000000000e+03 4.467142486572265625e+01 -9.364817619323730469e+00 -2.087116964715265977e-13 -1.123233450694982594e-13 -9.631051246230745710e-14 4.902262813353749915e-14
4.618000000000000000e+03 5.736629104614257812e+01 -1.605224227905273438e+01 1.149909567522630627e-13 -7.081440062161117877e-14 1.325296802504169133e-14 1.280068038329515434e-13
4.619000000000000000e+03 4.921339416503906250e+01 6.246764183044433594e+00 -8.673090864204022199e-14 2.373352978989745621e-13 4.518131677708030203e-14 1.885506047084525849e-13
4.620000000000000000e+03 5.538381576538085938e+01 -9.014044761657714844e+00 2.471278593547086844e-14 -1.266616477500759341e-13 -3.058465888319469861e-14 1.390129737667208931e-13
4.621000000000000000e+03 7.476254272460937500e+01 9.147971272468566895e-01 -1.127411762579834387e-13 -3.687990939114232924e-14 -4.488632569473773037e-14 4.154611225361259930e-14
4.622000000000000000e+03 5.256827163696289062e+01 2.399656295776367188e+00 -1.990401116494511236e-13 1.892027929727840840e-13 -2.951194290099043611e-15 -1.565550328806210312e-14
4.623000000000000000e+03 3.510102844238281250e+01 -1.579122352600097656e+01 7.344139538048924387e-14 -1.427606608774521779e-14 1.774959912663638673e-14 -1.155487245598982304e-13
4.624000000000000000e+03 3.631747817993164062e+01 -1.460553073883056641e+01 -7.575391729923788842e-15 -8.331075900761680808e-14 -2.726584488244900017e-14 9.601634130785782761e-14
4.625000000000000000e+03 3.332855224609375000e+01 5.406999588012695312e+00 6.787174717647753708e-14 3.379067858855222539e-13 1.217335694053689465e-13 1.250212498631053659e-13
4.626000000000000000e+03 6.377802658081054688e+01 3.515954017639160156e+00 -2.796237193343747290e-14 5.664255007956434107e-14 8.604053105024881548e-15 -8.679560163041971643e-14
4.627000000000000000e+03 6.841069030761718750e+01 6.683462619781494141e+00 3.697020564441847942e-15 1.584437384760791975e-15 1.584437384760791975e-15 -1.232136002385017526e-13
4.628000000000000000e+03 6.773917388916015625e+01 6.854861736297607422e+00 -1.594732782243465929e-13 -4.547021938659800977e-14 -6.148305199378881203e-14 -2.172862787592176603e-14
4.629000000000000000e+03 5.300977706909179688e+01 8.273473739624023438e+00 1.229557939025436447e-14 5.102048408864474915e-14 1.899481887426314464e-14 -2.210066507514658884e-14
4.630000000000000000e+03 7.881265258789062500e+01 5.862533092498779297e+00 1.316345019504406785e-14 -4.010946983616994754e-14 -8.083806315854237534e-15 -2.965596857169329470e-14
4.631000000000000000e+03 3.385542678833007812e+01 4.853209972381591797e+00 5.466973919464150622e-14 7.632942536492035024e-14 3.929974699617630463e-14 1.827433603746042579e-13
4.632000000000000000e+03 3.342595291137695312e+01 6.460330963134765625e+00 2.220977579365374099e-13 2.324376043201514808e-13 1.363606086770066672e-13 1.356712187256317592e-13
4.633000000000000000e+03 6.938271331787109375e+01 7.364995002746582031e+00 -2.125182896415417355e-13 -2.283321101637092454e-13 -1.322551280730915879e-13 -1.428279966086271058e-13
4.634000000000000000e+03 6.647540283203125000e+01 -1.323142290115356445e+00 -2.504358211693341607e-13 1.728949150731420858e-13 -2.326227420054987477e-14 -1.718212432142568469e-13
4.635000000000000000e+03 6.659901428222656250e+01 7.259130001068115234e+00 6.875625286131836766e-14 2.124707609288054022e-13 8.436810684754256218e-14 -2.857949472781853850e-14
4.636000000000000000e+03 6.683721923828125000e+01 6.534734249114990234e+00 -8.166882290881402606e-14 5.650097360462846829e-14 -7.550354283035898978e-15 -1.033483533669811438e-13
4.637000000000000000e+03 3.548645019531250000e+01 7.391714572906494141e+00 2.452709801752106511e-13 1.051161314566916027e-13 1.051161314566916027e-13 1.549923926182084077e-14
4.638000000000000000e+03 3.620626831054687500e+01 7.626454353332519531e+00 4.669654691136920777e-14 -2.316174053766661967e-13 -5.547626025009452788e-14 7.963689251230463007e-14
4.639000000000000000e+03 6.556781005859375000e+01 -1.449820995330810547e+01 -9.612153602364323368e-14 1.332305441100953280e-13 1.113270479762788062e-14 3.322168590030004365e-14
4.640000000000000000e+03 4.485281372070312500e+01 -2.369573354721069336e+00 -1.543905113346802360e-13 -1.119183074666484090e-13 -7.989264902853038253e-14 -1.791847166181400296e-15
4.641000000000000000e+03 2.276610183715820312e+01 -2.331221289932727814e-02 -1.681382219868507444e-13 -1.443493084394772974e-13 -9.374625912789841253e-14 2.023774485666873790e-13
4.642000000000000000e+03 2.240913200378417969e+01 5.035546422004699707e-01 -1.043838850263174162e-14 1.785302049424342119e-13 5.042754408490779383e-14 3.712567905010677460e-13
4.643000000000000000e+03 4.109506607055664062e+01 -1.355696439743041992e+00 -2.360618753423360250e-13 -9.667479253380132503e-15 -7.371880883511039428e-14 1.238303757493744439e-13
4.644000000000000000e+03 3.716693401336669922e+00 -3.266500949859619141e+00 -2.641679260864844558e-14 -1.132148218354949928e-14 -1.132148218354949928e-14 3.060278877639772965e-14
4.645000000000000000e+03 5.715022659301757812e+01 -1.925113677978515625e+01 2.399193582518222012e-13 2.400754291545514896e-13 1.439984335114066760e-13 5.292362820772181231e-14
4.646000000000000000e+03 6.116616058349609375e+01 8.238878250122070312e-01 -8.773901337454440008e-14 -1.291043281396314635e-13 -6.505300448713183248e-14 1.179378047045515077e-13
4.647000000000000000e+03 6.294633865356445312e+01 -1.596965312957763672e+00 -3.540040439606317868e-13 -2.889688813755009189e-13 -1.928918721798289493e-13 -1.758750480321258358e-13
4.648000000000000000e+03 3.105321121215820312e+01 5.185080766677856445e-01 -3.045533389280791203e-13 -1.991492772556932578e-13 -1.511107862103844290e-13 8.800957602668815771e-14
4.649000000000000000e+03 3.085536575317382812e+01 1.128235697746276855e+00 -4.448517427904988275e-14 -1.906507517504020532e-14 -1.906507517504020532e-14 9.631635360151172276e-14
4.650000000000000000e+03 3.864540863037109375e+01 -1.725998306274414062e+01 -1.854889668511522371e-14 -7.657595261015281984e-14 -2.853745478858041307e-14 -2.629608194333523524e-14
4.651000000000000000e+03 6.855641937255859375e+01 1.833077549934387207e+00 -9.647165201019311520e-14 9.590785332797349683e-14 -1.691404358169650056e-16 -1.370521263751450780e-13
4.652000000000000000e+03 3.627901077270507812e+01 -1.727794265747070312e+01 1.151145286948720980e-13 9.508575025442278505e-14 6.306008504004118054e-14 8.425094525027834735e-14
4.653000000000000000e+03 6.185389709472656250e+01 -6.145272254943847656e+00 -2.190828356403440313e-14 3.108673800149286404e-13 8.668773029052098678e-14 -2.309731453407209978e-13
4.654000000000000000e+03 3.843391418457031250e+01 -5.123357772827148438e+00 -7.728582043006054780e-14 -4.212906878822003653e-13 -1.495729538489309896e-13 9.657870342219890269e-14
4.655000000000000000e+03 6.113572692871093750e+01 1.811586260795593262e+00 2.880280310590087323e-14 -4.198519380467849449e-14 -3.954716786116812752e-15 1.655726879386254513e-13
4.656000000000000000e+03 6.259716987609863281e+00 -3.959328889846801758e+00 -2.072470342041887736e-13 2.681739133533820978e-15 -6.136959023643820399e-14 -5.837125623348385361e-14
4.657000000000000000e+03 2.496713066101074219e+01 4.467810988426208496e-01 1.739778704131292320e-13 8.294526090274478847e-13 3.010291397664149882e-13 -8.710325754938963438e-14
4.658000000000000000e+03 2.541255187988281250e+01 -1.581886410713195801e-02 -1.456367849667766778e-13 3.493427606655191697e-13 6.111179406487546317e-14 -2.040754989041798639e-13
4.659000000000000000e+03 3.737997055053710938e+01 -1.010481119155883789e+00 -2.444486670374890203e-13 -5.165222633288224507e-13 -2.282912899519151662e-13 1.346219414156274441e-13
4.660000000000000000e+03 4.244966888427734375e+01 -8.748480081558227539e-01 -1.907841289464085044e-13 -3.601367590103966843e-14 -6.803933772728948393e-14 -3.066992799592889452e-14
4.661000000000000000e+03 4.968107604980468750e+01 6.768678665161132812e+00 4.836763788421648280e-14 2.037327825974571960e-13 7.563012851619435595e-14 -7.057651311244070302e-14
4.662000000000000000e+03 6.426747894287109375e+01 6.626594066619873047e+00 7.787593812001725180e-14 7.912634848554478406e-14 4.710068665929496856e-14 4.349033408249970700e-14
4.663000000000000000e+03 7.736988830566406250e+01 5.980509281158447266e+00 -3.731817779057886031e-14 -4.277520449392363533e-13 -1.395210715623290687e-13 7.389011277836310398e-14
4.664000000000000000e+03 7.677742004394531250e+01 6.036026477813720703e+00 -9.620031686400146165e-14 -2.242324978040527439e-13 -9.612984372278990386e-14 -7.643360364116905115e-14
4.665000000000000000e+03 1.440922164916992188e+01 -3.350642204284667969e+00 -9.571928346512395547e-14 2.677963645107694912e-13 5.162312092556187171e-14 8.260810790841968676e-14
4.666000000000000000e+03 1.513373279571533203e+01 -3.035714864730834961e+00 -9.585991803942248146e-14 9.617002696580764787e-14 9.303242777613268569e-17 -6.580962174946441978e-14
4.667000000000000000e+03 1.820310020446777344e+01 -7.180456638336181641e+00 -1.108961961973284338e-13 4.397495551294178240e-14 -2.007637322175553213e-14 5.104519712191384062e-14
4.668000000000000000e+03 7.824682617187500000e+01 -9.832993507385253906e+00 9.379392336590630652e-14 -1.428063938803403321e-13 -1.470374318720928108e-14 -8.877041490122986045e-14
4.669000000000000000e+03 7.715628814697265625e+01 -4.535410404205322266e+00 1.255065252029827216e-13 -2.664681355343118119e-13 -4.228847903364058025e-14 -8.612571376562239145e-14
4.670000000000000000e+03 7.799082946777343750e+01 -3.756018161773681641e+00 9.780012493213960378e-14 -1.410894513199922873e-13 -1.298679893279534175e-14 3.434469234616516209e-14
4.671000000000000000e+03 7.803834533691406250e+01 -1.220722293853759766e+01 8.826245940715682359e-14 -7.924179568812375618e-15 2.410148395150333439e-14 -1.064778758328062402e-13
4.672000000000000000e+03 7.808178710937500000e+01 -1.280400085449218750e+01 -6.728510570973636473e-14 -1.660893238263419502e-13 -7.001232818319713669e-14 -9.482735438353338819e-15
4.673000000000000000e+03 7.812553405761718750e+01 -1.899945449829101562e+01 -2.942542060301077747e-15 4.448986006531409354e-14 1.246419485093248902e-14 -3.298482160692985110e-14
4.674000000000000000e+03 7.819026947021484375e+01 -5.667231678962707520e-01 -2.227459075477764006e-13 -2.327153769167422670e-13 -1.366383948261246095e-13 -6.607176828224425869e-14
4.675000000000000000e+03 7.808902740478515625e+01 -1.342059373855590820e+00 -9.968114793876617363e-14 -3.401016718685562212e-13 -1.319348411988122138e-13 -2.093530833717147099e-13
4.676000000000000000e+03 7.777648162841796875e+01 3.627161264419555664e+00 -2.233326506584712434e-13 -3.244687504788679178e-13 -1.643404108544327391e-13 7.250990986026190077e-14
4.677000000000000000e+03 7.820766448974609375e+01 -2.055002784729003906e+01 5.160308690229341300e-14 2.211560843040204921e-14 2.211560843040204921e-14 2.982761132812490612e-14
4.678000000000000000e+03 7.821828460693359375e+01 -2.131170272827148438e+01 -9.378635427948964209e-14 -3.146998449592847136e-13 -1.225458536729950865e-13 1.122493753762804358e-13
4.679000000000000000e+03 7.785486602783203125e+01 -2.913014030456542969e+01 4.294144318015176431e-14 -2.734747344757589710e-14 4.678190919772760165e-15 -1.416464601861067152e-13
4.680000000000000000e+03 6.610456848144531250e+01 -1.505881214141845703e+01 1.898577086832057420e-14 1.453896004239771389e-13 4.931261155709590338e-14 -4.631014064522716300e-14
4.681000000000000000e+03 2.421790599822998047e+00 -3.396590709686279297e+00 5.305730355932569697e-14 -6.876304945368713617e-14 -4.711724107121610661e-15 -1.599941018429543171e-13
4.682000000000000000e+03 3.443378067016601562e+01 -1.112880706787109375e+00 -1.563464798164798664e-13 1.388736402350293497e-13 -5.241853653204344224e-15 7.752696054574848006e-15
4.683000000000000000e+03 3.484415435791015625e+01 -1.711327552795410156e+00 -1.968943264723035935e-13 1.214959936043230604e-13 -2.261950155446005445e-14 5.413378417946403121e-14
4.684000000000000000e+03 3.652659225463867188e+01 -3.771193504333496094e+00 -3.528631854483703367e-14 -2.896284015570238513e-13 -9.747441704699780218e-14 -4.972362921255336909e-15
4.685000000000000000e+03 5.251268768310546875e+01 -4.462030887603759766e+00 -1.824648017314384196e-13 -3.244825333989856397e-14 -6.447391855428016849e-14 6.641594148563620403e-14
4.686000000000000000e+03 5.273563385009765625e+01 -5.501273155212402344e+00 -1.072286587321981399e-13 -2.289589416497317398e-13 -1.008562807922053217e-13 4.491274634642848651e-14
4.687000000000000000e+03 1.989602565765380859e+00 -1.089144706726074219e+01 -3.022690943572416133e-14 -1.044562860145169247e-13 -4.040495897388550472e-14 -1.759912338474348137e-13
4.688000000000000000e+03 3.156349182128906250e+00 -2.458352088928222656e+01 2.670333199624331383e-14 1.486971353339971991e-13 5.262013969085238552e-14 -4.001028566617825799e-14
4.689000000000000000e+03 2.314326524734497070e+00 -2.864723396301269531e+01 3.509932416326938531e-14 1.522954126090964033e-13 5.621842035408337879e-14 -9.261506356749923952e-14
4.690000000000000000e+03 2.355839014053344727e+00 -2.786496353149414062e+01 3.861235604255691678e-14 -7.495374221462569597e-14 -1.090241602102722321e-14 -7.949825693576162422e-14
4.691000000000000000e+03 1.894923329353332520e+00 -1.710568046569824219e+01 1.891724929101949032e-14 1.911111920842659129e-13 6.300853122673949480e-14 -2.783733462382968760e-14
4.692000000000000000e+03 1.897212505340576172e+00 -1.632613563537597656e+01 8.077743254017791252e-14 3.091245792327668163e-13 1.169706014990043452e-13 -1.408048753547691545e-13
4.693000000000000000e+03 2.665074110031127930e+00 -1.552363491058349609e+01 2.987075241019446215e-14 3.330583964004929509e-13 1.088787466760852973e-13 -1.100192731514314237e-13
4.694000000000000000e+03 2.012749910354614258e+00 -8.274271965026855469e+00 1.152175685588396892e-13 2.781336901243325332e-13 1.180053776049516667e-13 6.055248804540808161e-14
4.695000000000000000e+03 1.912379860877990723e+00 -7.565383911132812500e+00 -3.926692277540430598e-14 7.467321845502222777e-14 1.062188802625901873e-14 4.589663271290476965e-14
4.696000000000000000e+03 1.868655085563659668e+00 -6.902446746826171875e+00 1.402773635640099104e-14 5.176283731614557404e-14 1.973717210176396952e-14 -8.432505046876773158e-14
4.697000000000000000e+03 1.905485033988952637e+00 -6.319066524505615234e+00 -3.084588045599613582e-14 3.253128628565200853e-14 5.056212830286408236e-16 1.056208343442471831e-13
4.698000000000000000e+03 2.230359554290771484e+00 -5.106744289398193359e+00 -6.395041831155912071e-14 -6.029081585107870511e-14 -3.727237024879134775e-14 -2.644708081277636486e-14
4.699000000000000000e+03 2.171308040618896484e+00 -9.022755622863769531e+00 -1.930668624104681097e-14 -9.977619181171168417e-14 -3.572486477108026415e-14 -3.369698658019053272e-14
4.700000000000000000e+03 5.216397476196289062e+01 -5.176586151123046875e+00 -1.588521794573111157e-13 9.204881865412795072e-14 -2.004100790214177058e-14 1.719298802719398944e-13
4.701000000000000000e+03 1.674612617492675781e+01 -4.462012290954589844e+00 7.721473573106107241e-15 -2.254455438522109945e-13 -6.531721778030297187e-14 8.427552953453945617e-14
4.702000000000000000e+03 1.650054550170898438e+01 -5.757268905639648438e+00 -8.168253806629596769e-14 -1.265086939285925416e-13 -6.245737027609291059e-14 2.714892553660770008e-14
4.703000000000000000e+03 7.262104797363281250e+01 -1.690615653991699219e+01 7.695677862323835328e-14 2.159852700335529452e-13 8.788261595229010514e-14 5.592889432831649188e-14
4.704000000000000000e+03 5.722924804687500000e+01 -1.407719516754150391e+01 -6.865888472996559133e-14 1.993295123143418168e-13 3.920118624243379424e-14 8.496268331893361281e-14
4.705000000000000000e+03 2.189044189453125000e+01 6.032536625862121582e-01 -1.499644592534155052e-13 1.644842573776672534e-13 4.355938505539282482e-15 1.629224912532561964e-13
4.706000000000000000e+03 2.097725868225097656e+01 6.092468500137329102e-01 -4.848354248458697224e-13 -2.878507707800709303e-13 -2.318058668192984895e-13 2.390594504037696355e-13
4.707000000000000000e+03 4.830752182006835938e+01 -1.788715124130249023e+00 -1.140716617302126035e-13 -6.032559163576117767e-14 -5.231917533216577654e-14 8.887497942450250932e-14
4.708000000000000000e+03 4.727679443359375000e+01 -1.964029788970947266e+00 -2.458775099755533544e-13 3.187677715104503262e-14 -6.420021849209978093e-14 4.293163115049077050e-14
4.709000000000000000e+03 4.141672134399414062e+01 -1.052567768096923828e+01 -2.470980505712289110e-13 -4.871047277555176636e-14 -8.874255090539698299e-14 9.301135979033342549e-14
4.710000000000000000e+03 4.136602401733398438e+01 -9.507201194763183594e+00 -1.635724569031341002e-13 -7.010247959383930638e-14 -7.010247959383930638e-14 6.878381870155381161e-14
4.711000000000000000e+03 2.049507904052734375e+01 -8.237612724304199219e+00 -2.714922199813923909e-13 -1.163538124356044978e-13 -1.163538124356044978e-13 1.075854086807909171e-13
4.712000000000000000e+03 5.109585189819335938e+01 -4.267004489898681641e+00 -1.635270694896884258e-13 -7.008302494110676961e-14 -7.008302494110676961e-14 1.726321722291673799e-13
4.713000000000000000e+03 5.159914779663085938e+01 -3.793011426925659180e+00 -2.020092128513298335e-13 -4.082442663002477934e-14 -7.285009184440638386e-14 3.781077827138407121e-14
4.714000000000000000e+03 6.258085632324218750e+01 -1.034901523590087891e+01 -1.143317194797445133e-14 2.941328007977778158e-14 5.394032439540999077e-15 5.437251194531818321e-14
4.715000000000000000e+03 6.283322525024414062e+01 -1.159724903106689453e+01 -1.321026214850043456e-13 -1.481173040121519513e-13 -8.406597358338874226e-14 9.115542251147273900e-14
4.716000000000000000e+03 5.749995803833007812e+01 -1.481313419342041016e+01 -8.973298314248964735e-14 5.304490299697789402e-14 -1.100642404365352600e-14 -8.190086080845076361e-15
4.717000000000000000e+03 3.666447067260742188e+01 3.619062423706054688e+00 -1.884129076444151368e-14 -2.825805182297275175e-13 -9.042654727222862454e-14 1.886765890008954005e-13
4.718000000000000000e+03 4.041051864624023438e+01 -6.744478702545166016e+00 1.746075919755677580e-14 -2.212715552235219874e-13 -6.114324270414112084e-14 2.148304456420571662e-13
4.719000000000000000e+03 2.949310302734375000e+01 2.724598884582519531e+00 -7.674197106781466271e-14 3.573700444728031278e-14 -1.230148998616030498e-14 1.413142064303485324e-13
4.720000000000000000e+03 7.366416931152343750e+01 -1.496523857116699219e+01 2.962312656322940371e-15 -2.732361320707810126e-13 -8.108214756075496354e-14 -2.600665247932433533e-14
4.721000000000000000e+03 7.286641693115234375e+01 -1.495838642120361328e+01 -3.654285211154026727e-15 8.993577638258948292e-14 2.588444764789216840e-14 -5.707093868670409798e-14
4.722000000000000000e+03 6.538770294189453125e+01 7.637351989746093750e+00 -1.900867294514843597e-14 1.977326993547051659e-13 5.361720588998794557e-14 -4.795054869659309826e-14
4.723000000000000000e+03 4.828134536743164062e+01 -2.759554624557495117e+00 -1.995661665435410903e-13 2.884901383537127884e-14 -5.121514920058273246e-14 6.357133379821314212e-14
4.724000000000000000e+03 4.283526229858398438e+01 -4.151785850524902344e+00 -1.606903087154887277e-13 -2.976220073343249783e-13 -1.374936948149441118e-13 8.948192638857173538e-16
4.725000000000000000e+03 4.366685485839843750e+01 -6.995853900909423828e+00 1.905184409688761953e-15 -9.068538698838238266e-14 -2.663406164181685715e-14 1.095337674185924148e-13
4.726000000000000000e+03 5.793932342529296875e+01 -1.545461654663085938e+01 -3.295578404694855280e-15 3.245631302779827809e-13 9.638026054331616521e-14 1.030930711892058538e-13
4.727000000000000000e+03 4.037374877929687500e+01 -9.534636497497558594e+00 -1.227461464718346273e-13 -1.898583287113231322e-13 -9.378133984444189664e-14 1.598059792135009261e-14
4.728000000000000000e+03 3.592598342895507812e+01 9.132844924926757812e+00 3.095018544837374597e-13 7.045305094530163181e-13 3.042097010495098397e-13 5.469042035108166722e-14
4.729000000000000000e+03 2.477071952819824219e+01 -3.905565023422241211e+00 -1.037649919330765891e-13 2.586293267221873027e-13 4.645929975910685628e-14 6.713734250615374655e-14
4.730000000000000000e+03 4.176346206665039062e+01 -1.154825782775878906e+01 -6.033559340080235645e-14 -3.003637919982149462e-13 -1.082098210407160532e-13 1.256753625862930268e-13
4.731000000000000000e+03 3.457279205322265625e+01 6.528614044189453125e+00 1.821078688237290355e-13 2.085754596922902160e-14 6.088962748720602725e-14 6.808257706518092145e-14
4.732000000000000000e+03 4.529111099243164062e+01 -1.202944946289062500e+01 -1.459072527512303430e-14 -2.807588688445716851e-13 -8.860487755828205803e-14 1.729507379324979333e-13
4.733000000000000000e+03 4.585144805908203125e+01 -1.256717586517333984e+01 -1.898189315148804401e-14 -5.113955591461161188e-13 -1.591132282353913130e-13 1.364938029138965114e-13
4.734000000000000000e+03 5.295772171020507812e+01 7.748669624328613281e+00 -6.426478273147129272e-14 1.820889935415324207e-14 -1.381676501319541520e-14 -1.345685444586325330e-13
4.735000000000000000e+03 7.358837127685546875e+01 -1.112597656250000000e+01 -3.013766943253323727e-15 4.445933299789504856e-14 1.243367032461228580e-14 -2.370227901752827715e-14
4.736000000000000000e+03 6.236136627197265625e+01 2.752858161926269531e+00 2.533788269801738602e-14 -1.263937549457819220e-13 -3.031676269076889751e-14 2.887752835250764760e-14
4.737000000000000000e+03 5.199597930908203125e+01 -4.193000793457031250e+00 -1.862384351554099982e-13 1.031873222393127343e-13 -2.491533353601600026e-14 1.883951978795539439e-13
4.738000000000000000e+03 5.633694076538085938e+01 -1.357384395599365234e+01 -1.074219516507615713e-13 -2.316250557782457975e-14 -3.917533818501538201e-14 1.512369331331531175e-13
4.739000000000000000e+03 5.667594528198242188e+01 -1.177944183349609375e+01 -1.198748267533869538e-13 2.231307722139544425e-13 3.097678431579660441e-14 1.606978168155331899e-13
4.740000000000000000e+03 7.622539520263671875e+01 1.587737679481506348e+00 -3.484187358114912425e-14 3.081871780344358491e-14 -1.206946352146835537e-15 -5.708778447795909150e-14
4.741000000000000000e+03 6.220836639404296875e+01 -3.827404737472534180e+00 -1.092649801475061022e-13 2.276778483627228677e-13 3.552386046456502966e-14 -2.007277265410334355e-13
4.742000000000000000e+03 2.216720581054687500e+01 -9.753156661987304688e+00 4.300360184595307389e-14 1.843011386678996416e-14 1.843011386678996416e-14 2.271325624325984394e-13
4.743000000000000000e+03 2.866036415100097656e+01 1.758874058723449707e+00 -8.020761653590099960e-14 -1.030011172924519269e-13 -5.496261947087952016e-14 -4.434730780842298381e-14
4.744000000000000000e+03 5.763128662109375000e+01 -5.004830360412597656e-01 -3.944335973831737674e-14 -3.406090242751708130e-14 -2.205127966618987412e-14 -5.642540132507443962e-14
4.745000000000000000e+03 5.818969726562500000e+01 -1.566345244646072388e-01 9.161593060797237897e-15 -1.562019285618332365e-13 -4.411210031149762067e-14 1.103042353636785045e-13
4.746000000000000000e+03 6.786550140380859375e+01 4.949373245239257812e+00 -8.648118300039892015e-14 1.916913757718172184e-13 3.156305986430456290e-14 -1.703201788589778221e-13
4.747000000000000000e+03 2.653318977355957031e+01 -6.204337596893310547e+00 -3.781433580976253928e-14 3.498014594996434745e-13 9.359613100832706034e-14 3.135738671218406270e-14
4.748000000000000000e+03 2.589798545837402344e+01 -4.204643249511718750e+00 -2.204183152188302075e-13 2.715426082773586547e-13 1.533728486823992404e-14 4.252344258507713415e-14
4.749000000000000000e+03 5.964578247070312500e+01 -1.899889558553695679e-01 -1.115845714032325312e-14 4.096875426797333408e-14 8.943089053591729565e-15 -5.201850235281302304e-14
4.750000000000000000e+03 5.861221694946289062e+01 7.690044641494750977e-01 -8.493539530550486827e-14 -1.736537346211375343e-13 -7.757673897799272078e-14 1.071341027502302479e-13
4.751000000000000000e+03 7.150654602050781250e+01 -1.785716247558593750e+01 4.374359015746516477e-14 9.881141450852545804e-14 4.276650038335765014e-14 -8.225301814440352799e-14
4.752000000000000000e+03 6.385346603393554688e+01 5.111794471740722656e+00 1.641751615026870031e-14 5.278702889838400580e-14 2.076136368400240129e-14 8.238052031988782331e-14
4.753000000000000000e+03 1.193070602416992188e+01 -2.487681388854980469e+00 -5.891206982964677930e-14 -3.912556314090293030e-13 -1.350503096939764669e-13 -7.659019631619384816e-14
4.754000000000000000e+03 1.344626808166503906e+01 -3.820838928222656250e+00 -2.935837201600496882e-14 -8.120858586285750746e-14 -3.317008465315331167e-14 -9.936786772102648713e-14
4.755000000000000000e+03 6.776558685302734375e+01 -2.400228261947631836e+00 -1.442827621430092105e-14 2.054145970074167105e-13 5.729589708496768408e-14 4.087208070363730628e-14
4.756000000000000000e+03 8.555768013000488281e+00 -3.235437154769897461e+00 9.678526257078223088e-15 -1.331049121833585702e-13 -3.702791315208196765e-14 3.730137604503712401e-14
4.757000000000000000e+03 2.670346641540527344e+01 -6.980003833770751953e+00 7.088945451700148781e-14 3.963887865946619238e-13 1.401834648796090876e-13 1.358877610045314266e-13
4.758000000000000000e+03 6.379449081420898438e+01 -8.795250058174133301e-01 -2.506255836545734361e-13 -2.675393001756731781e-13 -1.554494651490739843e-13 -7.403656138681158350e-14
4.759000000000000000e+03 1.493663215637207031e+01 -3.491588592529296875e+00 -1.184265901489622852e-13 -5.075425146892735551e-14 -5.075425146892735551e-14 1.142732420191319709e-13
4.760000000000000000e+03 7.629714965820312500e+01 2.523342132568359375e+00 2.331386765499349201e-13 2.142939553020570265e-13 1.342297854898394371e-13 7.099849645643332291e-15
4.761000000000000000e+03 3.192433834075927734e+00 -2.914721488952636719e+00 -1.063131787465421141e-13 -1.828156360019275728e-13 -8.673864713504633728e-14 3.918586849861564747e-14
4.762000000000000000e+03 6.057709884643554688e+01 1.245884060859680176e+00 -3.428936076591872217e-14 -1.976992381651568320e-13 -6.959657730763041394e-14 4.721148195692762006e-15
4.763000000000000000e+03 3.630873107910156250e+01 -1.662553787231445312e+01 -1.461649947126844595e-13 -6.574044694035441339e-13 -2.410708351691104312e-13 1.578259007858906493e-13
4.764000000000000000e+03 3.533580017089843750e+01 -1.453378868103027344e+01 4.205408807647637026e-14 -7.633815319240885855e-14 -1.028521868774679923e-14 5.043702068952167494e-14
4.765000000000000000e+03 3.376599502563476562e+01 -1.304409599304199219e+01 -1.021344196282941708e-13 -2.267756837349976795e-13 -9.867303642999841751e-14 1.083458477557815158e-13
4.766000000000000000e+03 6.532328796386718750e+01 -2.423390895128250122e-01 -1.375031951364805161e-13 -1.046808920470744531e-13 -7.265522683269284854e-14 -1.391040060916282073e-13
4.767000000000000000e+03 7.001573944091796875e+01 5.980658531188964844e-01 -2.949780990215561394e-13 -4.635502661516806289e-14 -1.023999407403358708e-13 -1.166432385114836087e-14
4.768000000000000000e+03 7.043794250488281250e+01 4.528814256191253662e-01 -3.581604617378629507e-14 7.615216508598254830e-14 1.210083465721933926e-14 1.902059645854034531e-13
4.769000000000000000e+03 6.456738281250000000e+01 -1.217826652526855469e+01 -4.197739771343196591e-14 3.022663228654381973e-13 7.808667991729412172e-14 7.066058621465337586e-14
4.770000000000000000e+03 1.057249164581298828e+01 -3.161795854568481445e+00 7.645909763881551108e-15 -8.822508153726038582e-14 -2.417375110849717679e-14 -4.271358792920856851e-14
4.771000000000000000e+03 5.647861862182617188e+01 8.445211410522460938e+00 3.594709233512190238e-14 -1.318844613731754226e-14 6.827594198154486940e-15 -1.374327762053775825e-13
4.772000000000000000e+03 3.666034317016601562e+01 2.044198513031005859e+00 -3.019027085618408712e-13 -2.208887640939988239e-13 -1.568374472177627710e-13 2.508608826310571027e-13
4.773000000000000000e+03 3.694850540161132812e+01 1.523139953613281250e+00 -3.428304190013220509e-13 -5.129349093906110379e-13 -2.567295876755582018e-13 1.762783576877632874e-13
4.774000000000000000e+03 1.991818666458129883e+00 -1.946313285827636719e+01 4.438295810168393723e-17 -6.860739867929968594e-14 -2.056890593992496269e-14 4.335828842228633961e-14
4.775000000000000000e+03 5.327064514160156250e+01 6.806787848472595215e-01 -2.545196041772723738e-13 5.297544798936893590e-15 -7.476661569591827594e-14 3.821991890183042140e-14
4.776000000000000000e+03 5.366796112060546875e+01 1.316281795501708984e+00 -3.676643408126456514e-14 -3.863251881483335815e-14 -2.261968620764255589e-14 1.791195636908701760e-13
4.777000000000000000e+03 4.879759597778320312e+01 -2.184385299682617188e+00 -1.588946937349997035e-13 -1.910534041084724355e-13 -1.049844279977889261e-13 1.292231431452087187e-13
4.778000000000000000e+03 5.020412445068359375e+01 -2.922621250152587891e+00 -9.480362052035132270e-14 -8.638107048229703988e-14 -5.435540865604722438e-14 2.360827191291020588e-13
4.779000000000000000e+03 7.796623229980468750e+01 -2.674842643737792969e+01 5.221251355531572602e-14 2.053805801642549778e-13 7.727793285925571576e-14 7.455055453173264901e-15
4.780000000000000000e+03 7.793574523925781250e+01 -2.753986358642578125e+01 -8.641062176776084791e-14 -1.514105003484408907e-13 -7.134633731248687938e-14 -3.579488390263209363e-14
4.781000000000000000e+03 7.713573455810546875e+01 -3.434861755371093750e+01 -2.079692382119403132e-14 -1.919167678509497987e-13 -6.381410699342338066e-14 3.301385112009815048e-14
4.782000000000000000e+03 6.772543334960937500e+01 -1.562434673309326172e+01 3.240366891368688662e-14 1.053891809975684990e-13 4.133785395693707898e-14 1.017035847900027434e-13
4.783000000000000000e+03 7.750431823730468750e+01 -2.203830146789550781e+01 -5.543421353459282441e-14 -2.525122580650240867e-13 -9.238394554564322014e-14 -2.288539366693265187e-14
4.784000000000000000e+03 7.728649902343750000e+01 -1.342094993591308594e+01 -1.233201231019484534e-13 -7.572695454646088953e-14 -5.971412193927008727e-14 1.473513016247637863e-13
4.785000000000000000e+03 3.681396102905273438e+01 8.634971976280212402e-01 -4.252674872407685713e-13 -5.253896276369296459e-13 -2.851971317528040339e-13 2.135659135432330102e-13
4.786000000000000000e+03 7.095314025878906250e+01 4.448466598987579346e-01 -2.471717221088493011e-13 -1.974326328509426465e-13 -1.333813024221794374e-13 7.797130725361450798e-14
4.787000000000000000e+03 7.166033172607421875e+01 -1.203745245933532715e+00 -1.236909880075742763e-13 -9.876137180200167398e-14 -6.673570658762006946e-14 1.444975188764560659e-13
4.788000000000000000e+03 7.765747070312500000e+01 -7.503036022186279297e+00 -3.371929742802121099e-14 -4.147719223201312699e-13 -1.345473618586875975e-13 -8.238835368058403108e-14
4.789000000000000000e+03 7.821694183349609375e+01 -8.698554039001464844e+00 -2.046383150281806673e-14 -1.231475858787245414e-13 -4.308342623090231915e-14 2.632176906449366915e-14
4.790000000000000000e+03 6.939249420166015625e+01 -4.077347755432128906e+00 7.225517655983643150e-14 7.671745454618933424e-14 4.469178933180772972e-14 -3.148867681900847926e-14
4.791000000000000000e+03 7.787181854248046875e+01 -3.352367401123046875e+01 1.273444579495165707e-14 1.884614155272384961e-13 6.035876144597565607e-14 1.220934974215798219e-13
4.792000000000000000e+03 5.684846878051757812e+01 -1.256555747985839844e+01 -1.061415834239555489e-13 1.375145386017101456e-13 9.411887908579094630e-15 1.623357481425613535e-13
4.793000000000000000e+03 2.648294448852539062e+00 -2.275290679931640625e+01 3.728931429586822277e-14 3.885660985135895584e-14 2.284377724416815358e-14 -4.662316675308267322e-15
4.794000000000000000e+03 7.718953704833984375e+01 -3.228454589843750000e+01 8.285366614796049745e-14 2.413879914096167534e-13 9.727249116863595502e-14 -1.044103209246012229e-14
4.795000000000000000e+03 4.589642715454101562e+01 -1.322047114372253418e+00 -1.456787571433790229e-13 -2.454375407339587367e-13 -1.173348934289594747e-13 8.803367919623522608e-14
4.796000000000000000e+03 5.543240737915039062e+01 -2.003028869628906250e+01 -9.591990830087882003e-14 2.333971503478554643e-13 4.124317600222478231e-14 1.948478677666828918e-13
4.797000000000000000e+03 6.998237609863281250e+01 -5.662385463714599609e+00 1.225912275339136048e-13 1.554787386077310929e-13 8.342098848724069371e-14 -6.340840531674288294e-14
4.798000000000000000e+03 7.718340301513671875e+01 -1.523502254486083984e+01 -1.159864847395664089e-13 8.754435165073820579e-14 -8.532638910208924232e-15 6.273263565515982410e-14
4.799000000000000000e+03 7.717595672607421875e+01 -6.052840709686279297e+00 5.683926839936646880e-14 -2.501460139286287854e-13 -5.799202264233915827e-14 -5.192795453075153833e-14
4.800000000000000000e+03 4.678555679321289062e+01 -1.483216953277587891e+01 -3.319301214096959107e-14 -1.884723524166534436e-13 -6.649960801203419480e-14 1.687916028735719776e-13
4.801000000000000000e+03 4.842136001586914062e+01 -1.435929775238037109e+01 -8.609070758797826572e-14 -2.656507555164749901e-13 -1.055224429970941236e-13 1.365221276956526952e-13
4.802000000000000000e+03 3.186703681945800781e+01 -1.129172325134277344e+01 -1.480057260560760368e-13 5.094634837696926377e-14 -2.911781127085295851e-14 1.034844715616049099e-15
4.803000000000000000e+03 3.323344039916992188e+01 -1.213986778259277344e+01 -1.822008357718878785e-14 1.751951855073416442e-13 4.709253142607880416e-14 -4.797058949612513501e-14
4.804000000000000000e+03 6.504042816162109375e+01 -1.393205833435058594e+01 -1.416816933685807051e-14 1.311807785878485455e-13 3.510378294470373195e-14 -6.522394928841490636e-14
4.805000000000000000e+03 7.436259460449218750e+01 2.069971859455108643e-01 -1.012574220434978023e-13 1.396077535260192848e-13 1.150510029178939200e-14 -4.542060019654785286e-14
4.806000000000000000e+03 3.839908599853515625e+01 5.522647857666015625e+00 1.024823977036851824e-14 -1.214229996930604738e-13 -3.335243051790642843e-14 4.524344156156372143e-14
4.807000000000000000e+03 3.766222763061523438e+01 5.774070262908935547e+00 -1.675055256447014612e-14 -7.580523394331434295e-14 -2.776673612174193617e-14 -1.758738384690771567e-14
4.808000000000000000e+03 3.768579864501953125e+01 7.595933914184570312e+00 1.470825821163132541e-13 -1.485627484747176208e-13 -4.440505639718441387e-16 1.154076969623121784e-13
4.809000000000000000e+03 5.211917495727539062e+01 -1.961532783508300781e+01 -5.572348883860732405e-14 1.476845582675315183e-13 2.758832218392997387e-14 -1.055067966044924421e-13
4.810000000000000000e+03 3.647485494613647461e+00 -3.389130783081054688e+01 5.175385537877288944e-14 1.594330678762745368e-13 6.335607900939330128e-14 -1.974575085145376108e-14
4.811000000000000000e+03 5.202841758728027344e+00 -3.029287528991699219e+01 -2.878822736294452123e-15 1.131435914468285897e-13 3.307943179900636743e-14 1.633777816268007499e-14
4.812000000000000000e+03 5.440664291381835938e+00 -2.929768562316894531e+01 -5.690431714158381005e-14 4.423886048612012123e-14 -3.799637335452285547e-15 -2.434766730135921875e-14
4.813000000000000000e+03 7.635560607910156250e+01 -3.426683425903320312e+01 1.154985920678820374e-14 9.645183821549094261e-14 3.240050778672773357e-14 2.413547538367664946e-14
4.814000000000000000e+03 2.456063461303710938e+01 -5.214812979102134705e-02 -2.314328199568005395e-13 -1.406473001215255425e-13 -1.116240346682451090e-13 1.885995259433542043e-14
4.815000000000000000e+03 2.390298271179199219e+01 8.612648248672485352e-01 1.468842692569879201e-15 4.810144795495963077e-13 1.447449880223258822e-13 -6.182809425298464029e-15
4.816000000000000000e+03 5.323316955566406250e+01 7.030431747436523438e+00 -7.264175562069971614e-14 9.468292848976295195e-14 6.612350844279434037e-15 -4.335169850595670116e-14
4.817000000000000000e+03 4.879837036132812500e+01 -1.256535530090332031e+00 -2.240183136648782325e-13 -3.881916083069494872e-14 -7.885123896054016535e-14 6.725497166560484574e-14
4.818000000000000000e+03 4.736750030517578125e+01 -8.464747071266174316e-01 -1.599481994334767121e-13 -6.854922445648226059e-14 -6.854922445648226059e-14 7.127744981695258164e-14
4.819000000000000000e+03 3.563158416748046875e+01 3.230408191680908203e+00 1.427871730087012375e-14 -3.963149930842971291e-14 -7.605834094048108396e-15 2.136641964701688212e-13
4.820000000000000000e+03 2.689439010620117188e+01 -7.753166675567626953e+00 8.747625697804253808e-14 1.747426666256005068e-13 7.866567775871927126e-14 4.787300452433786158e-14
4.821000000000000000e+03 5.708267974853515625e+01 -8.639873862266540527e-01 5.744286068944809420e-14 1.161202617351239641e-13 5.206893808262433310e-14 7.660818051972995146e-14
4.822000000000000000e+03 7.105645751953125000e+01 -6.440124988555908203e+00 4.487191597023904022e-14 -1.180220201082993192e-13 -2.194503293548397821e-14 -3.630736932890704649e-14
4.823000000000000000e+03 7.136062622070312500e+01 -5.754551887512207031e+00 8.334421342090156393e-14 1.272208521255896452e-13 6.316951492056285811e-14 -2.001076035559531952e-14
4.824000000000000000e+03 3.558491516113281250e+01 -2.214845269918441772e-01 -3.125445323555464672e-13 -2.254495554002491908e-13 -1.613982249714859818e-13 -1.626649165808091626e-15
4.825000000000000000e+03 1.416261482238769531e+01 -3.928542137145996094e+00 -5.971061861100024348e-14 -2.085940605358119204e-13 -8.049140645454908038e-14 4.005481588228131107e-14
4.826000000000000000e+03 1.483079147338867188e+01 -4.061834812164306641e+00 -1.839333400215428793e-13 -7.882857913513521830e-14 -7.882857913513521830e-14 9.139013195302511661e-14
4.827000000000000000e+03 5.603023529052734375e+01 -9.151957511901855469e+00 -9.918248947832219997e-14 1.404970161478918955e-13 1.239435783146431921e-14 4.138089000692117547e-14
4.828000000000000000e+03 5.577347564697265625e+01 -7.598061084747314453e+00 -2.407100126861072553e-13 3.409141255427718120e-14 -6.198557970073584333e-14 6.478876408890638094e-14
4.829000000000000000e+03 5.785806274414062500e+01 -1.656560516357421875e+01 6.452097970482961742e-14 4.737235994103916603e-13 1.614733737345663833e-13 1.508887009478779295e-13
4.830000000000000000e+03 5.294279098510742188e+01 1.773574233055114746e+00 -2.132730027738088951e-13 5.719860349251426612e-13 1.076139164216637079e-13 8.131819192623221393e-14
4.831000000000000000e+03 7.749311828613281250e+01 -2.058561897277832031e+01 -6.389299625399885718e-14 -3.018883970931640626e-13 -1.097344193594015915e-13 -2.646987446938697808e-14
4.832000000000000000e+03 1.533527946472167969e+01 -4.840687274932861328e+00 -1.852634256942209401e-13 -1.709005116243278444e-13 -1.068491811955646353e-13 1.671660314513101486e-13
4.833000000000000000e+03 1.549717712402343750e+01 -4.061023235321044922e+00 -5.055557819708296485e-14 -1.360440487476952121e-13 -5.597988909987298978e-14 7.419308629920060016e-14
4.834000000000000000e+03 5.862208557128906250e+01 -1.490302753448486328e+01 -7.574142186919999298e-14 -3.817947816079671208e-14 -3.417626831493311701e-14 7.933444754002622057e-14
4.835000000000000000e+03 3.118501472473144531e+01 -1.056290531158447266e+01 -3.822543478038294140e-14 7.511957093690735388e-14 1.106824050814414484e-14 3.417113868340454497e-14
4.836000000000000000e+03 2.282716941833496094e+01 7.739885449409484863e-01 -1.786459401362152505e-14 -2.764430665717215740e-13 -8.829230207195448710e-14 4.409668769998938143e-14
4.837000000000000000e+03 2.334769058227539062e+01 -5.846503376960754395e-01 -1.221032010310235671e-13 2.221757527303205859e-13 3.002176144403095881e-14 2.315375809917169514e-13
4.838000000000000000e+03 1.907025456428527832e+00 -1.788905906677246094e+01 8.402982729939761225e-15 7.222769881102750200e-14 2.418920437758688424e-14 -1.124488008133819883e-13
4.839000000000000000e+03 7.799939727783203125e+01 -2.952723741531372070e+00 -1.322747148629638964e-14 -3.945519854841456064e-13 -1.223338379381655461e-13 -8.082462243973534410e-14
4.840000000000000000e+03 3.750159454345703125e+01 -3.980263233184814453e+00 -1.270163258560797273e-14 -2.227605578296321109e-13 -7.063865822571485653e-14 -1.485080843564336173e-14
4.841000000000000000e+03 3.666123199462890625e+01 -2.924727678298950195e+00 -9.571587500454420416e-14 -4.527796323636201770e-13 -1.645486454341857363e-13 9.658743802595098904e-14
4.842000000000000000e+03 3.581237792968750000e+01 -1.869894027709960938e+00 -7.230618827205187449e-14 -1.453657344236553017e-13 -6.530157816396486847e-14 -5.213748676497972911e-14
4.843000000000000000e+03 3.516700744628906250e+01 -7.514293789863586426e-01 -2.587590515121251933e-13 1.636089538587653935e-13 -2.854502726312886651e-14 6.946400648698974889e-14
4.844000000000000000e+03 4.990230560302734375e+00 -3.448413133621215820e+00 -6.637222103303072607e-14 -7.419618305165576189e-14 -4.217052122540594639e-14 -4.531131261756131401e-14
4.845000000000000000e+03 3.919530105590820312e+01 -1.844637680053710938e+01 -2.375257583393623750e-14 -7.880609549258330015e-14 -3.076760105914268240e-14 -3.354007880890935711e-14
4.846000000000000000e+03 4.016877365112304688e+01 -1.773263168334960938e+01 -1.448051443022398826e-14 -9.770783222220677522e-14 -3.365650518157535520e-14 5.099944379023495233e-14
4.847000000000000000e+03 5.459690570831298828e+00 -3.921055078506469727e+00 -1.786396958093280918e-13 -8.227874084094574658e-14 -7.827553438321394053e-14 -1.265830430925707351e-13
4.848000000000000000e+03 6.663026332855224609e+00 -3.691586017608642578e+00 -8.370744655967262554e-15 4.110305032532096670e-13 1.207979300355682684e-13 4.415222595627495139e-14
4.849000000000000000e+03 7.797115325927734375e+01 -1.036250972747802734e+01 -9.983199434227679747e-14 -3.630417906401450789e-13 -1.388621341394738473e-13 -6.464636768607756601e-14
4.850000000000000000e+03 2.509833717346191406e+01 -1.851276159286499023e+00 -2.339609083724936145e-13 3.172084448409273616e-13 2.497425823002469292e-14 3.715978601757409516e-14
4.851000000000000000e+03 2.393866729736328125e+01 -8.972844481468200684e-01 -3.543484678857761194e-13 1.226420630632760189e-13 -6.951192144675003015e-14 1.661276639256664689e-13
4.852000000000000000e+03 4.158965682983398438e+01 -2.743669986724853516e+00 -1.143050904579487326e-13 -3.006181187228257334e-13 -1.244769668199904866e-13 1.403557446048170343e-13
4.853000000000000000e+03 4.272520065307617188e+01 -3.570681333541870117e+00 -1.167818147957203068e-13 -1.415512536828353318e-13 -7.749991647780854476e-14 1.544536288417778375e-14
4.854000000000000000e+03 7.817382812500000000e+01 -1.977882003784179688e+01 4.469099989710088872e-15 -2.039639345006311055e-13 -5.984845458844104127e-14 2.619717729421613961e-14
4.855000000000000000e+03 7.729656982421875000e+01 -1.824426841735839844e+01 2.673576488779368099e-14 1.715864998913865791e-13 5.949667841731454132e-14 2.101992091466825009e-15
4.856000000000000000e+03 6.773342132568359375e+01 4.038885593414306641e+00 -2.395508785909758465e-14 5.835996020209927027e-14 1.032146068646096898e-14 -1.132466177582690248e-13
4.857000000000000000e+03 2.640278339385986328e+00 -7.500901222229003906e+00 -1.371474412986337099e-14 -1.431305974349678101e-13 -4.705360179182299651e-14 3.825750005963420020e-14
4.858000000000000000e+03 4.290962600708007812e+01 -7.054117202758789062e+00 7.798524878065160332e-16 -4.541672756191300619e-14 -1.339106234753140168e-14 -1.526699299207907867e-14
4.859000000000000000e+03 4.382819747924804688e+01 -9.222490310668945312e+00 -1.159951990145277612e-13 -1.412141210173009642e-13 -7.716279736480133322e-14 2.081828633093696368e-13
4.860000000000000000e+03 4.401225280761718750e+01 -2.534356832504272461e+00 -1.962960908185804043e-13 -2.442552182648632941e-13 -1.321653967907912564e-13 -7.606876283386410087e-14
4.861000000000000000e+03 2.990972709655761719e+01 2.257150888442993164e+00 -1.532049227065401809e-13 -7.709699306919504114e-14 -6.909057337746785099e-14 -7.757870409443035076e-14
4.862000000000000000e+03 7.808923339843750000e+01 5.169069766998291016e+00 1.880629813932454403e-14 -3.121968016137760538e-13 -8.801715188936840017e-14 1.082495146986902843e-14
4.863000000000000000e+03 3.885046768188476562e+01 -4.546822547912597656e+00 -4.794189201987215931e-14 -2.950522313450998357e-13 -1.028982332825466306e-13 1.753743905739263420e-13
4.864000000000000000e+03 3.425530242919921875e+01 1.573190689086914062e-01 -3.956049626340635283e-13 1.507116507331110467e-13 -7.346799899129660694e-14 1.133108499607252129e-13
4.865000000000000000e+03 6.159001541137695312e+01 -4.122082710266113281e+00 -1.247785512067944858e-13 -5.347652049371258431e-14 -5.347652049371258431e-14 -1.250353444913476775e-13
4.866000000000000000e+03 3.843976211547851562e+01 -1.824017524719238281e+01 4.524007714669722735e-14 -2.636234533079893916e-14 5.663319460066191732e-15 7.174009243647930245e-14
4.867000000000000000e+03 6.607027435302734375e+01 -1.619022560119628906e+01 -6.911782073331512732e-14 -1.211238141035630989e-13 -5.707249045106346785e-14 1.500817529878194917e-14
4.868000000000000000e+03 5.344868469238281250e+01 -2.080453109741210938e+01 3.774676968562595825e-14 -2.325935939077178327e-13 -5.845404862188027795e-14 8.563095165673578757e-14
4.869000000000000000e+03 2.738532638549804688e+01 3.670091927051544189e-02 -1.339592092851685234e-13 1.484681789402225727e-13 4.352693945834824885e-15 -1.984563805879167170e-14
4.870000000000000000e+03 2.761789321899414062e+01 6.468951106071472168e-01 1.230356962145240374e-13 4.187371749255625053e-13 1.625318667630368252e-13 -2.622002549974855601e-13
4.871000000000000000e+03 7.684623718261718750e+01 4.710449695587158203e+00 9.823295199192297322e-15 4.996093396305613388e-14 1.793526874867452936e-14 6.728255105836744576e-14
4.872000000000000000e+03 4.209624481201171875e+01 -1.454964542388916016e+01 -3.673997954825591883e-14 -3.360023576644971532e-13 -1.118226943875623436e-13 -1.027333193558480073e-13
4.873000000000000000e+03 4.265615844726562500e+01 -1.319893360137939453e+01 -1.913983599703076438e-14 -2.827084811911351192e-13 -9.055449668110907013e-14 -5.553345530282492726e-14
4.874000000000000000e+03 7.777782440185546875e+01 -2.992638015747070312e+01 3.782449342886601285e-14 -2.954045021834675322e-14 2.485212454936009535e-15 -6.680120595136535000e-14
4.875000000000000000e+03 3.846578598022460938e+01 7.203763484954833984e+00 1.312516989624562536e-13 3.337525636176903732e-14 4.938808558082805056e-14 -1.202626441764191242e-14
4.876000000000000000e+03 3.832870101928710938e+01 8.174521446228027344e+00 2.937128079812112436e-13 1.149954714378719281e-14 9.156370594457646783e-14 4.968903977511929249e-14
4.877000000000000000e+03 2.786333274841308594e+01 -3.614134788513183594e+00 -1.066371722369986730e-13 9.155120373827499436e-14 -4.525790210803924685e-15 -8.869869831565173335e-15
4.878000000000000000e+03 7.190504455566406250e+01 -5.923622608184814453e+00 3.773638844982440954e-14 1.617273718103936359e-14 1.617273718103936359e-14 -8.174345667586249697e-14
4.879000000000000000e+03 4.180983734130859375e+01 -1.100985407829284668e+00 -2.445582256670186805e-13 3.244217841960085613e-14 -6.363481383541216840e-14 5.851077950055558197e-14
4.880000000000000000e+03 2.834424972534179688e+01 -4.971612453460693359e+00 -1.034186774303939849e-13 1.386815060575377623e-13 1.057884689407723872e-14 4.039119299442672784e-14
4.881000000000000000e+03 6.639907836914062500e+01 6.124983787536621094e+00 -4.530712149853829973e-14 1.292732468381047051e-13 2.518983827949627941e-14 4.927598585245662743e-14
4.882000000000000000e+03 5.286822128295898438e+01 4.752329349517822266e+00 6.667724776173236667e-14 4.403345093065280658e-13 1.521035223770936251e-13 -1.627393898351141288e-14
4.883000000000000000e+03 3.267850112915039062e+01 4.897022724151611328e+00 -2.063002106113525497e-14 -7.174898967055726162e-14 -2.771370508298023894e-14 1.743790252169488686e-13
4.884000000000000000e+03 4.632112884521484375e+01 2.119111061096191406e+00 -3.675814806616134467e-13 1.169707641293302181e-13 -7.518321360443225299e-14 6.904881825305823981e-16
4.885000000000000000e+03 1.937344789505004883e+00 -1.867632293701171875e+01 5.164948059088042553e-14 2.508902374048771478e-13 9.076191810923270320e-14 6.014135942863452558e-15
4.886000000000000000e+03 4.593764114379882812e+01 -1.364088535308837891e+01 2.882453458319562956e-14 -2.621523332614617008e-13 -6.999833519890849565e-14 1.544186463810562349e-13
4.887000000000000000e+03 4.917730712890625000e+01 -1.745509147644042969e+01 7.920481422964663343e-15 -6.523193172690983088e-14 -1.719343559940331861e-14 1.553100299734287704e-14
4.888000000000000000e+03 5.000462722778320312e+01 -1.603832626342773438e+01 1.114659105576516762e-14 -3.801192487943444442e-15 2.203619739753106405e-15 -1.806964883169052960e-14
4.889000000000000000e+03 4.352373504638671875e+01 -5.647271275520324707e-01 -1.497648711859880799e-13 -2.471887440829573235e-13 -1.190860832254309054e-13 -3.364642718356892354e-15
4.890000000000000000e+03 4.357567977905273438e+01 6.141886711120605469e-01 -7.282680860275225765e-14 -7.696243680332601200e-14 -4.493677158894440749e-14 -1.623062578434697478e-13
4.891000000000000000e+03 4.945756530761718750e+01 -1.647683143615722656e+01 4.611939284891199402e-16 -4.229986315645167805e-13 -1.267612317196187277e-13 3.145567641538345172e-14
4.892000000000000000e+03 4.707487869262695312e+01 4.146823883056640625e+00 -2.042298926816735888e-14 1.742510893605955791e-13 4.614842850306916100e-14 -4.723088239955153256e-14
4.893000000000000000e+03 4.811795425415039062e+01 4.040374755859375000e+00 -7.645180468513965155e-14 2.417406281662176637e-13 4.958665043245519266e-14 8.672200463169868478e-14
4.894000000000000000e+03 5.879782485961914062e+01 -1.387691307067871094e+01 -1.181530188357898803e-13 -1.878898512469584503e-13 -9.181286238007721479e-14 5.140484392318622753e-14
4.895000000000000000e+03 6.778628540039062500e+01 -1.732334518432617188e+01 -7.949576327076490756e-14 1.168133566086101624e-14 -2.034432870648764102e-14 -3.889177188306537636e-14
4.896000000000000000e+03 5.807853698730468750e+01 -1.122376203536987305e+00 -6.182808578265516775e-14 -9.512417166891024012e-14 -4.708567723546962236e-14 5.462029957557616722e-14
4.897000000000000000e+03 5.884839630126953125e+01 1.321522146463394165e-02 -3.054691509506504699e-14 1.241613149099984881e-13 2.808431926685367452e-14 6.828785719401389565e-14
4.898000000000000000e+03 6.303706741333007812e+01 3.156652212142944336e+00 2.248487583188935046e-14 2.727043309051768727e-13 8.855675931061443573e-14 1.012309133003805317e-13
4.899000000000000000e+03 4.934492874145507812e+01 -1.642194271087646484e+00 -7.790616025557528523e-14 9.503161637876376272e-15 -2.052089950060637796e-14 1.927727590186542606e-13
4.900000000000000000e+03 6.191241073608398438e+01 -5.290193080902099609e+00 -2.859113973677739062e-14 1.478749712740742850e-13 3.578514980000224721e-14 -7.808113185148960605e-15
4.901000000000000000e+03 6.115613555908203125e+01 -7.139313697814941406e+00 -1.632700187071192688e-13 2.045328289330614058e-13 1.237884527006830396e-14 -4.927859810206595970e-15
4.902000000000000000e+03 5.380999374389648438e+01 6.792520999908447266e+00 -8.912810675045998443e-14 -6.107323712511644742e-14 -4.506040451792564516e-14 -2.111415290653381738e-14
4.903000000000000000e+03 5.287928009033203125e+01 6.482210159301757812e+00 -1.830264218449176999e-14 1.179711168163011248e-13 2.990054425301529040e-14 -9.426368106218996346e-14
4.904000000000000000e+03 6.560815429687500000e+01 6.254471302032470703e+00 -1.181774523481863778e-14 2.694409365761041286e-13 7.728695884234165758e-14 8.748470697872434698e-14
4.905000000000000000e+03 6.601418304443359375e+01 6.566309928894042969e+00 2.023389593895641436e-14 1.573622552793543794e-13 5.327884333261416472e-14 -1.183747517325903220e-13
4.906000000000000000e+03 6.149121093750000000e+01 -8.398571014404296875e+00 -6.291116987165029650e-15 5.005642710227686809e-13 1.482819401120438751e-13 -3.109230266914314589e-14
4.907000000000000000e+03 5.257374191284179688e+01 3.159320831298828125e+00 5.004496979581912752e-14 1.129497428746517595e-13 4.889841244588855051e-14 1.462939232916519311e-14
4.908000000000000000e+03 3.706486892700195312e+01 -1.676337361335754395e+00 -1.223929540616203182e-13 -9.820506766729936166e-14 -6.617940922918133517e-14 1.775027743062054797e-13
4.909000000000000000e+03 3.799671936035156250e+01 -1.345385909080505371e+00 -1.702666328241841942e-13 -2.674129364124699926e-13 -1.313038761920071185e-13 5.605366228144705032e-14
4.910000000000000000e+03 3.172320556640625000e+01 -1.205601024627685547e+01 -1.590668413230678785e-14 1.761866477364981698e-13 4.808398687897175172e-14 -2.512308361292316800e-14
4.911000000000000000e+03 4.277470779418945312e+01 -1.474779796600341797e+01 -1.159793290052280046e-13 -4.614639833450118189e-13 -1.732329828630502222e-13 4.566247892496579086e-14
4.912000000000000000e+03 1.705802154541015625e+01 -6.109771728515625000e+00 -2.061422050853717325e-13 -1.340976076924862981e-13 -1.020719424781046936e-13 5.210395781279561489e-14
4.913000000000000000e+03 1.758363914489746094e+01 -6.673917293548583984e+00 -1.813813991580551233e-13 -7.987946241960752758e-14 -7.837826253905694207e-14 4.834976887716120608e-14
4.914000000000000000e+03 6.194511795043945312e+01 -9.244333267211914062e+00 -1.044672296801954503e-13 2.754849842169504459e-13 5.130532094001563626e-14 6.578999091387885412e-14
4.915000000000000000e+03 2.060936927795410156e+00 -1.015910816192626953e+01 4.955142741437656984e-15 2.537538592879001742e-13 7.761270060880134936e-14 1.775099842506525083e-14
4.916000000000000000e+03 7.832319641113281250e+01 -9.304349899291992188e+00 3.354110880097321834e-14 -1.686290403103349322e-13 -4.052637945280851417e-14 -2.362135281212124349e-13
4.917000000000000000e+03 7.809255981445312500e+01 -1.821069908142089844e+01 5.946663924087311481e-14 2.548570180577452299e-14 2.548570180577452299e-14 -1.054418461180969824e-14
4.918000000000000000e+03 7.452069091796875000e+01 -1.488202381134033203e+01 -4.634498419254541590e-14 -1.113640362110195070e-13 -4.731270578225629797e-14 -1.247395334811121637e-13
4.919000000000000000e+03 7.425518035888671875e+01 -1.019381904602050781e+01 -9.221278390392564916e-15 4.179897191715874205e-14 9.773308396843032042e-15 1.427205115157523241e-14
4.920000000000000000e+03 2.983114719390869141e+00 -3.487932205200195312e+00 1.261545968871905649e-14 5.406625701884302387e-15 5.406625701884302387e-15 9.468981317355823490e-14
4.921000000000000000e+03 1.068484973907470703e+01 -3.848162174224853516e+00 -6.863411071032429756e-14 -2.810448271675647369e-13 -1.049036888172566462e-13 2.526476003774681678e-14
4.922000000000000000e+03 1.133248901367187500e+01 -3.810163497924804688e+00 7.445324061048849695e-14 -1.053443153564183332e-13 -9.267322254372361429e-15 -6.161661214891187011e-14
4.923000000000000000e+03 3.226409196853637695e+00 -2.955029296875000000e+01 5.875969876683109772e-14 -2.056822153730358121e-14 1.145744198301212879e-14 1.098523382041206517e-15
4.924000000000000000e+03 3.299303054809570312e+00 -2.880129241943359375e+01 1.755108509698607988e-14 -3.822905669326540079e-14 -6.203391055367322646e-15 -4.941645440829749159e-14
4.925000000000000000e+03 3.597499847412109375e+00 -2.648523521423339844e+01 3.097826492938840492e-14 5.902734762563630055e-14 2.700168410532059055e-14 1.198418720895410780e-14
4.926000000000000000e+03 3.853425502777099609e+00 -2.572870635986328125e+01 3.862227988056694816e-14 1.655240614711894764e-14 1.655240614711894764e-14 2.066567776008287199e-14
4.927000000000000000e+03 4.320600509643554688e+01 -1.233062362670898438e+01 -1.691470314507670381e-13 -4.384991718689446039e-13 -1.822938637064189238e-13 2.495976244697856172e-13
4.928000000000000000e+03 2.713207054138183594e+01 -5.446943283081054688e+00 -8.358731865302712616e-14 3.759353939258858190e-13 8.770442732524211249e-14 -1.056798556000118627e-13
4.929000000000000000e+03 2.725198364257812500e+01 -4.896889209747314453e+00 -1.482294782794227328e-13 1.881033035496665340e-13 1.196214402353476189e-14 -8.110958465198242484e-14
4.930000000000000000e+03 6.466486358642578125e+01 -6.884310841560363770e-01 -1.318798314910857306e-13 -6.795767019864701330e-14 -5.995125050691982316e-14 -1.962181095773243844e-13
4.931000000000000000e+03 1.271033668518066406e+01 -3.813943862915039062e+00 2.512609735614949880e-14 -2.179864226408909089e-13 -5.785809656898288633e-14 -5.003787165972113649e-14
4.932000000000000000e+03 7.817938232421875000e+01 -2.283269309997558594e+01 -6.322031656860738202e-14 -3.702265273866633954e-13 -1.300340586075920957e-13 1.378977939052884044e-14
4.933000000000000000e+03 4.874008941650390625e+01 5.691393852233886719e+00 -7.266805429964606766e-14 1.518603493823322825e-13 2.375768683073996995e-14 -1.219318970877708574e-13
4.934000000000000000e+03 7.678254699707031250e+01 -3.052443504333496094e+01 6.059870893927385427e-14 1.174727768402453187e-13 5.342144641148210971e-14 8.353738436672059064e-14
4.935000000000000000e+03 7.657976531982421875e+01 -3.127925491333007812e+01 6.278785881518901546e-15 1.856947077659085177e-13 5.759204690838209961e-14 -6.826262238844929553e-14
4.936000000000000000e+03 7.715740203857421875e+01 -1.412839317321777344e+01 4.778156562361586535e-14 1.119797139671925568e-13 4.792838353842934773e-14 5.237717337213017299e-14
4.937000000000000000e+03 5.153064727783203125e+01 7.314191341400146484e+00 8.880891763088025193e-14 1.066873911263754859e-13 5.864889330480307916e-14 4.948401375617049458e-14
4.938000000000000000e+03 2.684010744094848633e+00 -1.476163482666015625e+01 1.792498034768399973e-13 1.683232410875853957e-13 1.042719106588221867e-13 -3.852247229432607944e-14
4.939000000000000000e+03 4.051332855224609375e+01 -8.462875366210937500e+00 -1.086838816643717620e-13 -3.668354411467261711e-13 -1.426557981985820955e-13 5.753843988721626945e-14
4.940000000000000000e+03 3.049605846405029297e+00 -2.086858940124511719e+01 -1.515656530674553554e-14 1.078817008057404714e-13 2.781754115791824911e-14 -8.962822210757323549e-14
4.941000000000000000e+03 2.891318321228027344e+00 -2.009909057617187500e+01 3.628114180072826433e-14 6.130001156201894674e-14 2.927434634763734222e-14 4.475708540764566923e-14
4.942000000000000000e+03 7.717486572265625000e+01 -5.308983802795410156e+00 -3.801959560980477937e-14 -2.907998006892315024e-13 -9.864582295546903135e-14 -1.304660047531103206e-13
4.943000000000000000e+03 2.959726524353027344e+01 5.421817898750305176e-01 -2.957486347292780093e-14 1.703288524763577061e-13 4.222619839509486606e-14 -7.095840977517156589e-14
4.944000000000000000e+03 3.164558601379394531e+01 7.610377073287963867e-01 -7.499817417490686755e-14 -2.151458671590875116e-13 -8.704321307782467154e-14 8.418004859259316242e-15
4.945000000000000000e+03 5.061119079589843750e+01 6.654153823852539062e+00 6.700301663324637058e-14 2.871557904112441439e-14 2.871557904112441439e-14 1.586691525780684064e-13
4.946000000000000000e+03 7.018782043457031250e+01 -1.795921134948730469e+01 1.023434267020950639e-13 1.353633730712816563e-13 7.131204264251844727e-14 -1.291073096956057986e-13
4.947000000000000000e+03 6.708648681640625000e+00 -2.895116329193115234e+00 -1.320017500253817255e-13 1.149938840981287735e-13 -5.102358761736348891e-15 -4.513180261911560465e-14
4.948000000000000000e+03 7.699004364013671875e+01 4.150575101375579834e-01 -1.656661461658937018e-13 -2.768790513703323075e-13 -1.327635511293515092e-13 4.127756553988330690e-14
4.949000000000000000e+03 3.343986129760742188e+01 -1.412024784088134766e+01 8.359351215793744960e-14 -1.014270522496467375e-13 -5.350062535732554719e-15 1.340821899987803753e-14
4.950000000000000000e+03 7.801009368896484375e+01 4.343647003173828125e+00 1.117898430617360328e-13 -1.350938675162560720e-13 -6.991207082246127594e-15 5.262032603810078146e-14
4.951000000000000000e+03 8.666272163391113281e+00 -4.012897014617919922e+00 -2.552191415833553884e-14 3.481298636951596359e-14 2.787321578650832701e-15 2.520091408231457664e-14
4.952000000000000000e+03 9.886364936828613281e+00 -3.193484306335449219e+00 -1.737148192491617255e-14 -5.319587137323292247e-14 -2.117020615885131796e-14 -3.372623632192511822e-14
4.953000000000000000e+03 5.560370254516601562e+01 -6.420013427734375000e+00 -8.868552187112424545e-14 -1.752609288165757340e-13 -7.918393317343092042e-14 1.481883870170855322e-13
4.954000000000000000e+03 5.413148880004882812e+01 -5.815936565399169922e+00 -1.930724596041835661e-13 -8.274534079840203948e-14 -8.274534079840203948e-14 1.581930794041300214e-13
4.955000000000000000e+03 7.740512847900390625e+01 -8.325018882751464844e+00 6.184894312194835764e-14 -4.211973312988857854e-14 5.918762150584986476e-15 -4.214344327614812091e-14
4.956000000000000000e+03 7.756743621826171875e+01 -8.922154426574707031e+00 8.529186742729094606e-14 -2.837029927389017603e-13 -5.952333623823052866e-14 -1.319031824953756371e-13
4.957000000000000000e+03 5.621038436889648438e+01 -2.054860687255859375e+01 -2.314709635444812952e-14 1.959590801257904413e-13 5.184359682546858805e-14 1.391788431465840192e-13
4.958000000000000000e+03 3.936473464965820312e+01 -6.460458755493164062e+00 -2.075710353179418578e-15 -2.753952935922315826e-13 -8.324129552967837742e-14 1.538845141807812511e-13
4.959000000000000000e+03 4.009487152099609375e+01 -4.868540763854980469e+00 -3.443847244595336921e-14 -3.721886351632647250e-13 -1.219881265229413869e-13 8.211111640881590956e-14
4.960000000000000000e+03 3.250654983520507812e+01 -1.356741428375244141e+01 2.176907708728494789e-14 1.465824532066728469e-13 5.050545756352803339e-14 -5.911608957345423909e-14
4.961000000000000000e+03 2.671952724456787109e+00 -5.564672470092773438e+00 -4.853022077624426223e-14 -1.008628266628217029e-13 -4.481791592578568406e-14 -3.405395336921780702e-14
4.962000000000000000e+03 2.475918769836425781e+00 -4.633966445922851562e+00 6.372922751584492174e-14 7.306347638447868720e-14 4.103781117009708268e-14 -1.279889416021598447e-13
4.963000000000000000e+03 4.469284439086914062e+01 -1.150312042236328125e+01 -2.266928506890197870e-14 -3.757229987202959087e-13 -1.195176905577702287e-13 1.194960742769562989e-13
4.964000000000000000e+03 7.725091552734375000e+01 -1.668601989746093750e+01 -6.815305444155721551e-15 -2.920845099598922030e-15 -2.920845099598922030e-15 1.301751404152867719e-14
4.965000000000000000e+03 7.729878234863281250e+01 -1.744506835937500000e+01 5.605279153157727290e-14 -2.172832463812664899e-14 1.029734057625495552e-14 1.746167738127159946e-14
4.966000000000000000e+03 5.362352371215820312e+01 -3.710119426250457764e-01 -1.817625504317924023e-13 1.051055604855098691e-13 -2.299710037201654900e-14 1.067328598549840968e-13
4.967000000000000000e+03 5.216231536865234375e+01 4.352546930313110352e-01 -2.302604450426376514e-13 3.856980449541864975e-14 -5.750718775959437479e-14 -1.515337029846849232e-14
4.968000000000000000e+03 2.751004457473754883e+00 -1.244942092895507812e+01 -7.411224547471464974e-14 3.799961376376587152e-13 9.176517103701500866e-14 -4.598092265555193958e-14
4.969000000000000000e+03 2.762820720672607422e+00 -1.168648719787597656e+01 -2.361995080318694817e-14 3.562811327971308895e-14 3.602448912364431682e-15 -6.023424760272927392e-14
4.970000000000000000e+03 4.847319793701171875e+01 -1.542121410369873047e+01 -7.116920578255706009e-14 -2.649747012518216538e-13 -1.008431754984454032e-13 8.606491712880026679e-14
4.971000000000000000e+03 7.725462341308593750e+01 -2.504975128173828125e+01 -4.128803825524315907e-14 -4.294534020933549190e-13 -1.412224287164476344e-13 -5.142375986296431056e-14
4.972000000000000000e+03 7.718872070312500000e+01 -2.583805084228515625e+01 6.565036600285345525e-14 1.196377659483729983e-13 5.558643890774157825e-14 -1.513428156396916940e-14
4.973000000000000000e+03 7.039713382720947266e+00 -3.431228876113891602e+00 -1.925761931647826386e-13 -9.111095666987367725e-14 -8.510614359514417915e-14 -7.987341121623234286e-15
4.974000000000000000e+03 6.821217346191406250e+01 1.184713125228881836e+00 -1.017815253736772951e-13 -4.362065518363246464e-14 -4.362065518363246464e-14 -9.711346581498664365e-14
4.975000000000000000e+03 6.800833129882812500e+01 6.274963617324829102e-01 -1.906757053410281649e-14 1.748319777795590002e-13 4.672932369829616017e-14 -1.419224574016400564e-13
4.976000000000000000e+03 4.633390426635742188e+01 -7.920017242431640625e-01 -1.635052634734943111e-13 1.129301120390661939e-13 -1.517254543032843517e-14 6.507036527441875662e-14
4.977000000000000000e+03 7.037729644775390625e+01 -5.084608078002929688e+00 5.984974207852086781e-14 2.564989067227029657e-14 2.564989067227029657e-14 -1.098680811584783201e-13
4.978000000000000000e+03 4.286512374877929688e+01 -4.789824962615966797e+00 2.973633844586057173e-14 2.414988781868077083e-13 8.137056566742684183e-14 2.274078142591381968e-14
4.979000000000000000e+03 6.712294006347656250e+01 -1.615766525268554688e+01 -6.490523450728563626e-14 -1.193184277509945490e-13 -5.526709732223133997e-14 3.131938881417023479e-14
4.980000000000000000e+03 7.435433197021484375e+01 -1.273022079467773438e+01 -1.088310892143409814e-13 -4.664189295748057129e-14 -4.664189295748057129e-14 -9.967360595740382134e-14
4.981000000000000000e+03 4.541914367675781250e+01 -1.578772306442260742e+00 -1.174418499732751697e-13 -4.581270445332607730e-15 -3.660693438916479137e-14 1.633103239228814174e-14
4.982000000000000000e+03 5.409108352661132812e+01 -2.168212699890136719e+01 -1.452570024982821617e-13 -1.995058442451694281e-13 -1.034288553782881925e-13 2.132359501645642030e-13
4.983000000000000000e+03 7.276976776123046875e+01 -4.945788905024528503e-02 -7.131370960335864373e-14 6.093887737089118128e-14 -3.112450093256712361e-15 7.694991426823380443e-14
4.984000000000000000e+03 7.039357757568359375e+01 9.560886621475219727e-01 -3.172827940049055551e-13 -4.447643967529779641e-14 -1.085277701040610054e-13 1.431966660048536455e-13
4.985000000000000000e+03 7.132270812988281250e+01 -3.400781154632568359e-01 -1.411577018467502498e-13 9.963216232936056294e-14 -1.245766083877736935e-14 2.128393219048146934e-14
4.986000000000000000e+03 7.709869384765625000e+01 -3.361412429809570312e+01 5.392212758660412664e-14 -2.264146681284825297e-14 9.384198401533351552e-15 -1.324365015440212567e-13
4.987000000000000000e+03 4.194436264038085938e+01 -1.757841110229492188e+01 8.230387400255667618e-14 -5.622880836614850553e-14 7.822520368548809000e-15 -4.852650738380349937e-14
4.988000000000000000e+03 6.888240051269531250e+01 -3.515360593795776367e+00 -1.991355824270020503e-14 1.287184605864438725e-13 3.264147171956263693e-14 2.288536825594423424e-14
4.989000000000000000e+03 6.886873626708984375e+01 -2.388329505920410156e+00 -6.987458114421580060e-15 1.201740530004657970e-14 1.508984113335852528e-15 2.870312765679977618e-14
4.990000000000000000e+03 4.002664184570312500e+01 -6.015821456909179688e+00 -3.231997570575105734e-15 -3.445172478463293109e-13 -1.043247790672580111e-13 7.637359305092197848e-14
4.991000000000000000e+03 2.557448196411132812e+01 -2.460934877395629883e+00 -1.358730023024584677e-13 3.992782124893901052e-13 7.902156034557406006e-14 -1.827472567261616276e-14
4.992000000000000000e+03 7.741606140136718750e+01 -2.352160644531250000e+01 -8.050235012022760595e-14 -3.547576457856721488e-13 -1.305780028375280732e-13 7.296687397091022875e-15
4.993000000000000000e+03 7.733355712890625000e+01 -2.427783012390136719e+01 -9.017432796559060604e-14 -2.674008746633010913e-13 -1.072725621439202248e-13 -4.209244172832804498e-14
4.994000000000000000e+03 2.705674648284912109e+00 -1.399773883819580078e+01 -3.059459627373188606e-14 3.071446634354824123e-13 8.296502048733833679e-14 -1.896962946966451735e-13
4.995000000000000000e+03 2.728751182556152344e+00 -1.322488880157470703e+01 2.750307678811830109e-14 3.466250588423855361e-14 1.864967497111364586e-14 -1.060114181768850861e-13
4.996000000000000000e+03 7.722066497802734375e+01 -1.595022678375244141e+01 -2.610156252106417968e-14 -1.484392307422172097e-13 -5.236223848720418517e-14 -5.463781367582654439e-15
4.997000000000000000e+03 3.266240692138671875e+01 -1.137355613708496094e+01 -4.327144044013846169e-14 1.187079406127222736e-13 2.263095005177514357e-14 -6.668965510034374766e-14
4.998000000000000000e+03 6.077785491943359375e+01 1.912542730569839478e-01 2.716041977370194094e-14 1.374552869529838128e-13 4.938471100156618943e-14 7.842970115587780122e-14
4.999000000000000000e+03 3.277967691421508789e+00 -2.164483642578125000e+01 7.423518722481092791e-14 1.233169789156482454e-13 5.926564848688503639e-14 -1.092759492241730454e-14
5.000000000000000000e+03 7.701588439941406250e+01 -3.292770767211914062e+01 -7.520066248314569157e-14 1.050239946008210690e-13 8.946999804709202669e-15 4.905469002465696893e-14
5.001000000000000000e+03 4.060182571411132812e+01 -2.387633323669433594e+00 -2.043807966834246259e-13 -2.705955576796925666e-13 -1.424929103746933046e-13 1.419902606950018686e-13
5.002000000000000000e+03 4.132390594482421875e+01 -2.077465772628784180e+00 -1.139918915553719825e-13 -3.102718531725707704e-15 -3.512838416962378585e-14 8.875995912652895337e-14
5.003000000000000000e+03 6.551873016357421875e+01 -1.565185642242431641e+01 -5.136958024752613650e-14 1.609882610250149004e-13 3.288560355562027138e-14 2.726435241039593810e-14
5.004000000000000000e+03 7.444353485107421875e+01 -1.191227531433105469e+01 3.606108264103159711e-14 1.298321259529666705e-13 4.976795952888087016e-14 4.842418326267633813e-15
5.005000000000000000e+03 7.703778076171875000e+01 1.563195824623107910e+00 6.352265312066854297e-14 -1.443420578374488006e-13 -2.424582344791315069e-14 6.846799060870878417e-14
5.006000000000000000e+03 7.840261840820312500e+01 2.351654052734375000e+00 -2.493864760966940652e-13 -3.356346504976986944e-13 -1.755063379783178279e-13 2.368539934495539345e-13
5.007000000000000000e+03 7.713970184326171875e+01 -6.751750469207763672e+00 5.833728682416716715e-14 -3.410058964804091319e-13 -8.480058154161987383e-14 -8.826713502902566733e-15
5.008000000000000000e+03 3.720898056030273438e+01 6.796157836914062500e+00 7.412947073673001319e-14 -1.398117495529042215e-14 1.804448856502528786e-14 2.376715157689258950e-14
5.009000000000000000e+03 7.765522003173828125e+01 2.725907802581787109e+00 -1.909554735472426823e-13 -1.275890065257842543e-13 -9.556334808766622779e-14 2.019884774847810482e-13
5.010000000000000000e+03 6.463021850585937500e+01 3.813996076583862305e+00 -4.102088660477799451e-15 2.041212251308044401e-13 6.000574521861437582e-14 -2.158980764619625875e-14
5.011000000000000000e+03 3.050434875488281250e+01 1.554677486419677734e+00 -1.887210683950216183e-13 -1.225403665935627731e-14 -6.029253024576394782e-14 5.987453557991994843e-15
5.012000000000000000e+03 6.340275192260742188e+01 -1.334914493560791016e+01 -1.126403471500081813e-14 3.611801341948245314e-13 1.049748328085624294e-13 1.493323558343293000e-13
5.013000000000000000e+03 6.399175262451171875e+01 -1.275355434417724609e+01 2.590390568875649419e-14 -1.719021246963242655e-13 -4.379946383879784744e-14 1.435475036634745877e-14
5.014000000000000000e+03 4.360018920898437500e+01 -1.173978996276855469e+01 -4.176403011401860765e-14 -1.551517161274551526e-13 -5.907472726057391710e-14 4.195196639622360280e-14
5.015000000000000000e+03 6.168177795410156250e+01 -9.998800277709960938e+00 -1.275393365137572621e-13 2.427214516615566753e-13 3.455463454433982395e-14 4.348376449496080265e-14
5.016000000000000000e+03 6.214263534545898438e+01 -1.112233734130859375e+01 -4.348615651600384879e-14 1.300536555618597712e-13 2.597025039138313451e-14 9.808491773779723366e-14
5.017000000000000000e+03 4.290365982055664062e+01 -9.688040733337402344e+00 -8.068890743279447109e-14 -1.032073867557672942e-13 -5.516888893419488737e-14 4.859198980688983482e-14
5.018000000000000000e+03 7.328764343261718750e+01 -8.751338958740234375e+00 3.070618439420316759e-14 -3.528477965537846206e-13 -9.664248161499536249e-14 1.720215156843056536e-14
5.019000000000000000e+03 5.557988739013671875e+01 -1.223015710711479187e-01 -8.925878021729879985e-14 7.497186024936746546e-15 -2.452847834241191072e-14 2.147448580449348027e-14
5.020000000000000000e+03 5.216170501708984375e+01 -3.568936824798583984e+00 -2.159118830990028326e-13 -1.382846202997722873e-13 -1.062589483091271048e-13 1.872882274614462439e-13
5.021000000000000000e+03 2.981482124328613281e+01 -7.952953338623046875e+00 -9.425238841893716912e-15 -8.410354796492894303e-14 -2.805863553382702963e-14 6.525788481641370264e-14
5.022000000000000000e+03 3.017361831665039062e+01 -9.010790824890136719e+00 1.222893585440393283e-13 6.658777567151389493e-15 3.868444193450004676e-14 3.699208365841311075e-14
5.023000000000000000e+03 7.417761230468750000e+01 -9.391250610351562500e+00 5.008969313543415458e-14 -2.301632192128200138e-13 -5.402205375745761096e-14 -5.165908255637050028e-14
5.024000000000000000e+03 7.774982452392578125e+01 9.901022315025329590e-01 -2.724012692929128621e-13 -1.624943398153416707e-13 -1.304686746009600662e-13 -5.380023276923065478e-14
5.025000000000000000e+03 5.388447952270507812e+01 -4.137341499328613281e+00 -1.021181294906525761e-13 4.773698458553597701e-14 -1.631434245509544301e-14 1.188178787130123037e-13
5.026000000000000000e+03 4.223307037353515625e+01 -1.695845413208007812e+01 6.807718993563638410e-14 -2.224542842684321120e-13 -4.631312558933328716e-14 -1.070774413282566187e-14
5.027000000000000000e+03 4.306009292602539062e+01 -1.579978370666503906e+01 -5.817654707583261309e-14 -2.994385067591615046e-13 -1.072845154728718775e-13 3.595729061180684416e-14
5.028000000000000000e+03 5.430114746093750000e+01 8.072755813598632812e+00 6.918066634283666014e-15 -4.278606345630743546e-14 -1.076039908895877820e-14 -8.837374598389888258e-14
5.029000000000000000e+03 3.444875335693359375e+01 5.424236297607421875e+00 1.646469757949665935e-14 1.443091523015138655e-13 4.823215327023726295e-14 1.118255200894743839e-13
5.030000000000000000e+03 6.104269027709960938e+01 -8.471530914306640625e+00 2.419216899290227429e-14 5.136285277304586394e-13 1.613461968197338336e-13 9.335822994662942853e-14
5.031000000000000000e+03 3.627407455444335938e+01 -2.193613767623901367e+00 -4.994083895341547286e-14 -9.002964118567241547e-14 -4.199114336410000869e-14 3.741882224537161628e-14
5.032000000000000000e+03 5.632541656494140625e+01 -8.627653121948242188e+00 -6.414320301035419947e-14 6.401195356111125112e-14 -3.937386002325067135e-17 8.882589217114322810e-14
5.033000000000000000e+03 6.440752410888671875e+01 -1.454673004150390625e+01 -1.495745259420810935e-13 2.104023200241375569e-13 1.824833890224329680e-14 4.255788633284428302e-14
5.034000000000000000e+03 6.233708953857421875e+01 -1.226110553741455078e+01 1.232520690868342539e-14 2.797879115890022916e-13 8.763394063150339863e-14 1.312015546119787990e-13
5.035000000000000000e+03 6.761595153808593750e+01 -1.288348674774169922e+00 -2.221213393337889697e-13 1.335598840725149561e-13 -2.656843691719538297e-14 -3.620456663416468657e-14
5.036000000000000000e+03 2.810720443725585938e+01 -6.644582271575927734e+00 2.339028290173662816e-14 3.302810499053454585e-13 1.061014001809378049e-13 1.181239486650401127e-13
5.037000000000000000e+03 2.960388374328613281e+01 -6.265487670898437500e+00 -9.589464639025990778e-14 5.040418969248609826e-14 -1.364713734814532176e-14 3.434175144777229516e-14
5.038000000000000000e+03 2.932865142822265625e+01 -5.471695899963378906e+00 -3.476474614910393668e-14 -1.489917740506337129e-14 -1.489917740506337129e-14 1.410672658330378026e-13
5.039000000000000000e+03 2.664428710937500000e+01 -3.069663941860198975e-01 -1.712657793362382108e-13 5.671136845721014286e-13 1.187543715707589653e-13 -7.158970681889198495e-14
5.040000000000000000e+03 1.798083662986755371e+00 -4.065580368041992188e+00 4.209564690100045525e-14 -1.192118506774392239e-13 -2.313486350462388291e-14 1.868544686654208947e-14
5.041000000000000000e+03 7.362565612792968750e+01 -1.194611549377441406e+01 3.397191653421033353e-14 -3.119155798990240480e-14 8.341074891769957329e-16 -1.704479148155555596e-14
5.042000000000000000e+03 6.961938476562500000e+01 9.661105275154113770e-01 2.069949300940315817e-14 -7.977125226652989620e-14 -1.772152845476437921e-14 -6.522371889545325319e-14
5.043000000000000000e+03 7.081100463867187500e+01 -1.599829941987991333e-01 -1.255806981841078862e-13 1.291835020032772174e-13 1.080840404596970523e-15 1.675867154467616804e-13
5.044000000000000000e+03 4.285580444335937500e+01 -1.276999187469482422e+01 -1.864810660490850980e-13 -4.916790173788154750e-13 -2.034480168968538782e-13 1.752264240824363828e-13
5.045000000000000000e+03 3.086426734924316406e+01 -8.940718650817871094e+00 -1.300198877463845312e-14 -1.885760699069788382e-13 -6.047342260197957620e-14 -6.701177156578919103e-14
5.046000000000000000e+03 3.311859130859375000e+01 9.232715964317321777e-01 -3.558693866933387850e-13 1.219902407171777337e-13 -7.016375056911189345e-14 -1.022267758656980434e-15
5.047000000000000000e+03 2.828055191040039062e+01 2.922071218490600586e-01 3.374758155219592659e-14 6.021419663880187012e-14 2.818853311848616011e-14 -2.006028976015306747e-14
5.048000000000000000e+03 3.653271102905273438e+01 2.190661728382110596e-01 -3.651923327543243891e-13 -4.081412128837530462e-13 -2.320000745334449554e-13 1.543732183100290922e-13
5.049000000000000000e+03 3.615502929687500000e+01 1.025912165641784668e+00 -3.673239013304852030e-13 -4.548056809633438391e-13 -2.466388909511812999e-13 1.127841377690681768e-13
5.050000000000000000e+03 6.220687103271484375e+01 -2.089458465576171875e+00 -3.559133510914330722e-13 -6.103239658453163408e-14 -1.250837270132948431e-13 -1.063386100637504772e-13
5.051000000000000000e+03 3.906229019165039062e+01 -1.262909650802612305e+00 -1.989822017009132415e-13 -3.540648948075625357e-13 -1.659141303077954488e-13 1.479374484242637622e-13
5.052000000000000000e+03 7.880710601806640625e+01 -4.569724559783935547e+00 6.539225113514431000e-16 -2.742254394481197233e-13 -8.207145493809367420e-14 3.478936431468293566e-14
5.053000000000000000e+03 7.879662322998046875e+01 4.202401638031005859e+00 1.440250913323226634e-13 -2.356561397843376371e-13 -2.748931080865952420e-14 -1.907273574101517322e-14
5.054000000000000000e+03 2.168656110763549805e+00 -5.895768642425537109e+00 6.336496269094410438e-14 3.016620969947120257e-13 1.095081192609495546e-13 4.680332727283187388e-14
5.055000000000000000e+03 2.447866821289062500e+01 -2.200165271759033203e+00 -1.164123322478644029e-13 4.190562285198706771e-13 9.079316346059101983e-14 2.648202600404828827e-14
5.056000000000000000e+03 7.319435119628906250e+01 -8.053124427795410156e+00 -3.907840373453159988e-14 -1.540007406536716972e-13 -5.792374501052688363e-14 -9.322004160348257296e-14
5.057000000000000000e+03 7.282492828369140625e+01 -1.638938522338867188e+01 -9.174564184538311351e-14 -2.223233533035773313e-13 -9.422069922231449124e-14 -1.392612425116929176e-13
5.058000000000000000e+03 7.317391967773437500e+01 -1.587738895416259766e+01 3.514417964002418404e-14 -3.068915903196335615e-14 1.336506500055603588e-15 1.957335525213863003e-13
5.059000000000000000e+03 3.631259918212890625e+01 8.597866058349609375e+00 1.324426272862957998e-13 9.107433774149797934e-14 6.705509221884356497e-14 2.659522856931703649e-14
5.060000000000000000e+03 2.417881774902343750e+01 -4.462048113346099854e-01 -3.513572625121058612e-14 -4.651194793897639457e-14 -2.449430225705609421e-14 8.536558639875638232e-14
5.061000000000000000e+03 5.767778778076171875e+01 -1.872529220581054688e+01 -1.447011625376349447e-14 3.140551512424705205e-13 8.987551507059002298e-14 -8.408328693683062016e-14
5.062000000000000000e+03 5.767574310302734375e+01 -1.308583259582519531e+01 -1.364145070775063529e-13 1.245404333046623568e-13 -3.562224164732272214e-15 3.274298692422517032e-14
5.063000000000000000e+03 4.378750610351562500e+01 -7.742199420928955078e+00 7.155749923810558744e-14 5.354297192249057868e-14 3.753014270343156544e-14 1.148244639561507574e-13
5.064000000000000000e+03 3.533922195434570312e+01 -1.645639610290527344e+01 9.039053651350905522e-15 -6.252016591067055540e-13 -1.848487861258810150e-13 -4.992546022322512378e-15
5.065000000000000000e+03 1.642025947570800781e+01 -6.423096656799316406e+00 -1.296221295446833843e-13 8.170050194104133690e-14 -1.437648692583989862e-14 8.991367221079793470e-14
5.066000000000000000e+03 2.425132274627685547e+00 -2.706589508056640625e+01 -4.134447097832102958e-14 5.090736453260483185e-14 2.868867346307135517e-15 -6.630991328943069973e-14
5.067000000000000000e+03 1.879193305969238281e+01 -7.700152397155761719e+00 -9.704746585476953583e-16 -3.758856425986958905e-14 -1.156771127318453538e-14 1.585833921862248030e-13
5.068000000000000000e+03 4.460883331298828125e+01 2.289448738098144531e+00 -4.101829214286055458e-14 -2.806472231258599903e-13 -9.649965153129755335e-14 1.596926123238404105e-13
5.069000000000000000e+03 4.524990081787109375e+01 1.888468265533447266e+00 -2.626146641728638320e-13 -7.823592712260032944e-14 -1.022551726452547438e-13 5.592292782823603259e-14
5.070000000000000000e+03 4.978203582763671875e+01 5.668625831604003906e+00 -2.724714578310541424e-14 1.255754940136799558e-13 2.949850514679872027e-14 -2.881707730512800270e-14
5.071000000000000000e+03 3.628018569946289062e+01 4.562148571014404297e+00 -1.396447570073530361e-14 -3.033659478138273080e-13 -9.519912392034687865e-14 1.825639791251665311e-13
5.072000000000000000e+03 5.487235546112060547e+00 -2.831696510314941406e+01 -3.447329905261267702e-14 1.224785789281923609e-13 2.640158328504754737e-14 -5.517556355381925126e-14
5.073000000000000000e+03 4.633503913879394531e+00 -2.678780555725097656e+01 -3.688755640459014107e-14 -6.155990159902730019e-14 -2.953423638464569567e-14 -8.368337218924576382e-14
5.074000000000000000e+03 2.415432167053222656e+01 2.213280200958251953e-01 1.118913447138714101e-13 7.799685918831456011e-13 2.675579755580942409e-13 -6.924101320516379277e-14
5.075000000000000000e+03 2.572266769409179688e+01 -5.785211324691772461e-01 -3.650421300958536786e-14 4.876157528969915500e-13 1.353334626438482124e-13 1.174529359404888340e-13
5.076000000000000000e+03 6.639216613769531250e+01 6.868972778320312500e+00 -1.363992875895100876e-13 3.876392750627039030e-14 -2.929060938022462479e-14 6.998054750701615534e-14
5.077000000000000000e+03 5.818759536743164062e+01 -2.565427780151367188e+00 -2.470323208145219773e-13 -8.299552044970306963e-14 -9.900835305689387189e-14 -1.009047852868968920e-13
5.078000000000000000e+03 5.902783203125000000e+01 -1.895190238952636719e+00 -1.385563891268329351e-13 1.693734399694363235e-13 9.245113897528300928e-15 -5.735655142025467002e-14
5.079000000000000000e+03 4.569875335693359375e+01 -1.427296257019042969e+01 -4.459484810506036956e-14 -1.106139715955668790e-13 -4.656264794306724797e-14 1.685917844131828991e-13
5.080000000000000000e+03 4.855771255493164062e+01 3.482102632522583008e+00 -3.661804475092733657e-13 6.038252580234382272e-14 -9.173938057783700972e-14 -2.081697478512143512e-14
5.081000000000000000e+03 3.499053955078125000e+01 7.062098979949951172e+00 5.453355323738195981e-14 2.521262549865649349e-13 9.199794924344764646e-14 1.481710262297986080e-13
5.082000000000000000e+03 3.633027267456054688e+01 6.907962799072265625e+00 2.674313949544565583e-13 2.360787761907325900e-16 8.030024128274915185e-14 1.581155318437429957e-13
5.083000000000000000e+03 3.840061187744140625e+00 -4.047927379608154297e+00 -9.317863185675720472e-14 -4.288167585776714308e-13 -1.565986245842185265e-13 6.697572861981762604e-14
5.084000000000000000e+03 4.177401542663574219e+00 -3.587984800338745117e+00 -2.446112228244624875e-14 1.725204587478199048e-13 4.441780127842527570e-14 -1.727223846261817519e-14
5.085000000000000000e+03 6.607009887695312500e+01 5.359619617462158203e+00 1.537313807883130407e-14 1.438413326166135264e-13 4.776434036160050189e-14 -4.994196042503763755e-14
5.086000000000000000e+03 6.903769683837890625e+01 -1.885244178771972656e+01 -2.882836994838079703e-14 7.914688056418622830e-14 1.509555352355480828e-14 -1.925799709317273928e-14
5.087000000000000000e+03 6.883695983886718750e+01 -1.785214424133300781e+01 -2.608483870255359077e-14 -5.693016858713401129e-14 -2.490450167868651227e-14 -1.134061174503687985e-13
5.088000000000000000e+03 4.255475997924804688e+01 -1.030134868621826172e+01 -2.198336591973173992e-13 -1.170899043955592189e-13 -1.010770717883684167e-13 1.590601429865209915e-13
5.089000000000000000e+03 4.181100463867187500e+01 -9.022743225097656250e+00 -2.551802119490995807e-14 -1.093629479781855346e-14 -1.093629479781855346e-14 -9.724319399305632328e-15
5.090000000000000000e+03 3.804833221435546875e+01 -2.208332538604736328e+00 -1.320571663089228909e-13 -4.340412577963359553e-13 -1.698295231658195070e-13 4.271583764871647593e-15
5.091000000000000000e+03 2.916174697875976562e+01 1.459498643875122070e+00 2.617212714183404093e-14 4.058185536746916622e-13 1.295972064472433738e-13 1.332838326468729906e-13
5.092000000000000000e+03 2.370006942749023438e+01 3.261066675186157227e-01 1.050799597617120551e-13 2.215879355818486246e-14 3.817162447130977021e-14 1.614759622672531925e-13
5.093000000000000000e+03 2.220364952087402344e+01 9.748082756996154785e-01 -2.947358204935870973e-14 -1.041334309363414756e-13 -4.008210389571005561e-14 1.059018866524097380e-13
5.094000000000000000e+03 7.462654590606689453e+00 -3.746426105499267578e+00 9.509661938120195224e-14 -5.074620126779665064e-14 1.330512577283476938e-14 2.094000157732561762e-13
5.095000000000000000e+03 3.256232452392578125e+01 2.172110080718994141e+00 -2.656104774057671536e-13 1.606726226675500580e-13 -3.148135845434420210e-14 1.266641549675998069e-13
5.096000000000000000e+03 1.825971984863281250e+01 -8.260102272033691406e+00 -8.206078909922184805e-14 -3.686504226885212177e-13 -1.352133601481911307e-13 5.833906220522461217e-14
5.097000000000000000e+03 4.801610946655273438e+01 -1.597457408905029297e+01 1.087613682383865854e-13 4.661201302323322859e-14 4.661201302323322859e-14 1.757556604322762367e-14
5.098000000000000000e+03 1.707430648803710938e+01 -7.363310813903808594e+00 -1.035911333384549604e-13 -2.502754676680235546e-13 -1.061599809795699123e-13 2.966214174781288404e-14
5.099000000000000000e+03 2.408327102661132812e+01 -1.125051593780517578e+01 1.221501554554216620e-14 2.797406945843905479e-13 8.758671685062807688e-14 2.200192610567197615e-13
5.100000000000000000e+03 4.097234344482421875e+01 -1.804591178894042969e+01 1.293992582356018328e-13 -8.179602015243730984e-14 1.428097379664160921e-14 -5.842743823480933685e-14
5.101000000000000000e+03 8.016347885131835938e+00 -3.873350143432617188e+00 1.896913005903881622e-14 -3.762132071800580735e-14 -5.595657197690097340e-15 -4.375977187488951092e-14
5.102000000000000000e+03 7.430264472961425781e+00 -3.256741762161254883e+00 -8.271544392349575170e-14 -3.544947741926894602e-14 -3.544947741926894602e-14 1.519015355123595756e-14
5.103000000000000000e+03 6.659160614013671875e+01 -1.671910476684570312e+01 1.325037627362968262e-13 1.025382781612814431e-13 7.051261294689983861e-14 6.491037091507778634e-14
5.104000000000000000e+03 2.263736724853515625e+01 1.148734092712402344e+00 -4.284618585490354570e-14 1.646411414320259059e-13 3.653848735076306586e-14 2.243787431245938824e-13
5.105000000000000000e+03 5.700821685791015625e+01 -8.899272918701171875e+00 -7.164586171516315605e-14 2.895512605724515076e-13 6.537162440057101009e-14 1.094775854172669316e-13
5.106000000000000000e+03 2.691674613952636719e+01 -1.012499094009399414e+00 -2.088152919891075876e-13 2.765153286465177329e-13 2.031001031959668579e-14 -7.594299538185578236e-14
5.107000000000000000e+03 2.664410018920898438e+01 -9.676072120666503906e+00 2.477729393185468254e-13 2.205657667142882361e-13 1.405016104545978028e-13 -8.405651391943380624e-14
5.108000000000000000e+03 2.712882804870605469e+01 -8.559427261352539062e+00 1.983494477605235451e-13 3.925595878093504632e-14 7.128162399531665083e-14 -8.075476593850938745e-14
5.109000000000000000e+03 6.095834732055664062e+01 -2.833216428756713867e+00 -1.606470761538608683e-13 1.070064582732108138e-13 -1.609218434775547962e-14 -1.318376966841575126e-13
5.110000000000000000e+03 6.131451416015625000e+01 -3.440103530883789062e+00 -1.065847442856954208e-13 2.745774527884714544e-13 5.039781661659095691e-14 -7.681489044017789092e-14
5.111000000000000000e+03 6.933082580566406250e+01 -5.938693881034851074e-01 -1.407012357914749073e-15 1.655360046357457621e-14 4.543976431697948140e-15 1.367920804840744298e-13
5.112000000000000000e+03 1.389297389984130859e+01 -5.340484619140625000e+00 6.971726171492225940e-15 -2.715178071526630488e-13 -7.936382264263699970e-14 -3.723985095988036065e-14
5.113000000000000000e+03 5.746868133544921875e+01 -1.426718354225158691e+00 -1.582348753978793376e-13 1.151888507537959794e-13 -1.291380671559864968e-14 -3.539969221076112726e-14
5.114000000000000000e+03 5.568262100219726562e+01 -7.010271549224853516e+00 -8.582885921079586033e-14 -3.678379486855148928e-14 -3.678379486855148928e-14 1.811950654621863332e-13
5.115000000000000000e+03 2.608949470520019531e+01 -1.066066026687622070e+00 -2.051113185547182027e-13 3.238536825864168911e-13 3.562271259764139553e-14 -1.146546101333037471e-13
5.116000000000000000e+03 4.479288482666015625e+01 -1.622545003890991211e+00 -2.106792930216261350e-13 1.384636220784496441e-13 -2.166470229939248399e-14 -3.590492025874400528e-14
5.117000000000000000e+03 4.323805236816406250e+01 -2.776683807373046875e+00 -4.605101293787133843e-14 1.861431202319213662e-13 4.202763354346772395e-14 -2.262192915088688527e-14
5.118000000000000000e+03 4.340302658081054688e+01 -3.392131567001342773e+00 -2.285049048849491227e-13 -3.266854018205145316e-13 -1.665570893011336651e-13 1.975484290310958874e-14
5.119000000000000000e+03 7.738484954833984375e+01 -1.277345275878906250e+01 7.748366022148484022e-14 2.619620286751361826e-13 1.018337093794917381e-13 -1.834851240671737937e-14
5.120000000000000000e+03 2.500770378112792969e+01 -1.162569618225097656e+01 -1.162045584540347121e-13 2.247037327257964123e-13 3.254975160390215227e-14 1.196921522398503024e-13
5.121000000000000000e+03 7.679935455322265625e+01 -2.202399826049804688e+01 2.629621069234321790e-14 1.027717001127539942e-13 3.872037307212257418e-14 -7.050085612959194892e-14
5.122000000000000000e+03 3.957648468017578125e+01 -5.348798274993896484e+00 1.249856914199796304e-14 -3.149001242055970984e-13 -9.072046092866228872e-14 1.749613773088451452e-13
5.123000000000000000e+03 7.676132965087890625e+01 -2.504274249076843262e-01 -1.311161330333140973e-13 -1.044167922563182457e-14 -4.246734189891458733e-14 -8.348310988359232410e-15
5.124000000000000000e+03 7.762889862060546875e+01 2.709703743457794189e-01 -2.802615724131068964e-13 -7.436115796472658745e-14 -1.063868164028446139e-13 -4.315638626084701557e-14
5.125000000000000000e+03 4.220021820068359375e+01 -8.634232521057128906e+00 -1.019265374142472314e-13 -1.466224331617832499e-13 -7.456468981755642877e-14 1.315100778926867053e-13
5.126000000000000000e+03 4.106022262573242188e+01 -8.048607826232910156e+00 -8.767824384277658756e-14 -3.757639070235165024e-14 -3.757639070235165024e-14 1.397798028582655783e-13
5.127000000000000000e+03 2.802542114257812500e+01 -2.570270001888275146e-01 -1.691204617212775652e-14 4.960124108319141634e-13 1.437301070262436697e-13 -2.208703462095937264e-13
5.128000000000000000e+03 7.659028625488281250e+01 -1.817563629150390625e+01 8.830242580974007049e-14 -7.907051715585946411e-15 2.411861265176271085e-14 3.254756625889823618e-14
5.129000000000000000e+03 2.808408927917480469e+01 -1.715583562850952148e+00 -2.151818084611054060e-13 1.022207560025419071e-13 -3.388831438231633408e-14 1.372455531249141755e-14
5.130000000000000000e+03 2.812030792236328125e+01 -2.693401336669921875e+00 -1.948159515652303497e-13 1.052301149863377194e-13 -2.687574894078871568e-14 3.685421718778621181e-14
5.131000000000000000e+03 5.348519897460937500e+01 7.600471496582031250e+00 -6.177821925898441258e-14 -1.866047057543299137e-13 -7.451487750399429788e-14 -4.604737408432993395e-14
5.132000000000000000e+03 4.592026519775390625e+01 1.453816771507263184e+00 -1.306948120690862303e-13 -1.475139590556909241e-13 -8.346262862692771511e-14 1.471367109097745929e-13
5.133000000000000000e+03 4.668455123901367188e+01 2.735404014587402344e+00 -1.240554290153281225e-13 -1.332307745030569812e-13 -7.718585698975738429e-14 -6.495104204907314882e-14
5.134000000000000000e+03 7.314046478271484375e+01 -6.686875820159912109e+00 5.805246691345522514e-14 -1.581241648035414116e-13 -3.002150733414678252e-14 -6.223845630494093117e-14
5.135000000000000000e+03 3.418555259704589844e+00 -1.549368953704833984e+01 1.017985270189945834e-13 2.266317423440730727e-13 9.852908148654665466e-14 1.567906583883058643e-15
5.136000000000000000e+03 5.143929290771484375e+01 6.519917964935302734e+00 -2.182158127155345295e-14 1.736516881895369679e-13 4.554903072014233889e-14 5.374847227988983900e-14
5.137000000000000000e+03 2.809816551208496094e+01 -4.252109527587890625e+00 -1.163921254298747043e-13 4.076271384236690443e-13 8.737050660864373319e-14 -2.567940468828442541e-14
5.138000000000000000e+03 6.484156036376953125e+01 4.990738391876220703e+00 -1.375204339510230356e-13 3.070702600613955946e-13 5.086494512260633649e-14 -1.084792452805787011e-13
5.139000000000000000e+03 6.538636016845703125e+01 5.273859500885009766e+00 -1.086098848660996263e-13 6.783027644337996653e-14 -1.223388151037636123e-14 -7.947404534599730730e-14
5.140000000000000000e+03 6.209082031250000000e+01 -4.521504878997802734e+00 -1.258052500065567902e-13 1.470988756420866378e-14 -3.332860856329784849e-14 -1.898594535710770859e-13
5.141000000000000000e+03 4.985638046264648438e+01 -2.171953201293945312e+00 -2.558070400469902861e-13 -1.812968652699191441e-14 -8.218101356762333443e-14 1.812235257692140777e-13
5.142000000000000000e+03 4.833870697021484375e+01 -8.302909731864929199e-01 -2.253528716715177960e-13 1.321749377699091288e-13 -2.795337983166942125e-14 8.559137827744006666e-14
5.143000000000000000e+03 7.369666290283203125e+01 -1.616115188598632812e+01 9.337837747231281932e-15 -8.749996712430208046e-14 -2.344863838960476593e-14 -3.153501290935507850e-14
5.144000000000000000e+03 7.375065612792968750e+01 -1.561024856567382812e+01 -9.910418297641443441e-14 -2.712279728069033613e-13 -1.110996467349953387e-13 -5.251853978289512670e-14
5.145000000000000000e+03 5.275740814208984375e+01 7.324862480163574219e+00 -1.323704329741354213e-13 1.262736117925433721e-13 -1.829044618060072895e-15 -1.199128009344782586e-13
5.146000000000000000e+03 5.249191665649414062e+01 7.732807636260986328e+00 -3.700006270877624626e-14 2.128975706665314771e-13 5.276925475901882157e-14 -8.000208568531563813e-14
5.147000000000000000e+03 3.034379196166992188e+01 1.044489741325378418e+00 -8.773395828191518642e-14 1.911544788560023966e-13 3.102615278409437405e-14 3.156370699747626518e-14
5.148000000000000000e+03 5.162905120849609375e+01 -2.092057228088378906e+00 -2.192099718975951128e-13 -4.819618147503326733e-14 -8.022184668941487184e-14 3.211506445976661239e-14
5.149000000000000000e+03 3.834825515747070312e+01 -2.721114158630371094e+00 -3.166808517350051810e-14 -1.508248820975000015e-13 -5.474788984248697699e-14 1.190767726392746861e-13
5.150000000000000000e+03 7.666828155517578125e+01 2.020606756210327148e+00 -1.928188647160392066e-13 3.174071316652989083e-14 -4.832344648129233144e-14 1.162204555683887808e-13
5.151000000000000000e+03 2.492755699157714844e+01 -4.386947751045227051e-01 -5.516535172460715342e-14 7.083728677421963216e-13 1.959622649696721175e-13 -3.201012046573359360e-15
5.152000000000000000e+03 2.616819572448730469e+01 -3.195012509822845459e-01 -1.196534055647111017e-13 4.291049395151180779e-13 9.283546154037480846e-14 -1.859240300779163579e-13
5.153000000000000000e+03 5.844239425659179688e+01 -1.342471694946289062e+01 -8.627759693746045455e-14 3.290314797965016025e-13 7.282616485771234438e-14 9.592822277628906824e-14
5.154000000000000000e+03 2.724638366699218750e+01 -6.101720809936523438e+00 -5.369104344606599744e-14 3.887480886245048284e-13 1.005171152475975438e-13 1.328741533034721867e-13
5.155000000000000000e+03 3.495734786987304688e+01 -2.103688865900039673e-01 -3.719591366684038558e-13 2.359273732865756201e-14 -1.045099201407370670e-13 -4.036153921797630204e-15
5.156000000000000000e+03 3.478584289550781250e+01 3.699750304222106934e-01 -2.711213144181850998e-13 6.680893766810788725e-14 -6.129371641315495278e-14 8.324881040598641757e-14
5.157000000000000000e+03 4.289458084106445312e+01 -1.130745792388916016e+01 -3.829774428902414651e-14 6.462155809105248755e-15 -9.550675951052606250e-15 2.178004684157824888e-13
5.158000000000000000e+03 4.214228057861328125e+01 -1.092418003082275391e+01 1.997251004176320982e-14 1.000615470472462909e-13 3.601021661848308186e-14 1.787437521128323881e-13
5.159000000000000000e+03 2.900733566284179688e+01 -7.771733760833740234e+00 -7.508561677418371799e-15 8.828394016269919264e-14 2.423261481613366713e-14 1.529409601351214287e-13
5.160000000000000000e+03 2.924496459960937500e+01 -9.258029937744140625e+00 1.330037561206656727e-13 1.027525639444096250e-13 7.072689873002802052e-14 -3.817106204143279335e-14
5.161000000000000000e+03 7.717041778564453125e+01 -7.841919422149658203e+00 1.644819941056321899e-13 -2.100961210018369163e-14 4.304171494044772839e-14 -9.370360932493826400e-14
5.162000000000000000e+03 4.175618743896484375e+01 -6.768137931823730469e+00 -4.502172560542222479e-14 -2.480497632382366868e-13 -8.792145071885582031e-14 1.060668103199872547e-15
5.163000000000000000e+03 4.349250030517578125e+01 -4.026836395263671875e+00 -7.990621510821360740e-14 5.725637791578058744e-14 -6.794951665949674341e-15 -2.622068627015070909e-15
5.164000000000000000e+03 1.981318855285644531e+01 -9.919219970703125000e+00 6.792683819936695677e-14 -1.081413468972600156e-13 -1.206435294818109655e-14 1.866112516249462949e-13
5.165000000000000000e+03 2.046581840515136719e+01 -9.296331405639648438e+00 -3.110918369696874519e-13 -3.620798322626073151e-13 -2.019515061906992925e-13 2.995816282221931692e-14
5.166000000000000000e+03 7.435775756835937500e+01 -1.417649173736572266e+01 -4.338861897806162160e-15 -9.336140801424752667e-14 -2.931008097361610665e-14 -1.144571091550583564e-13
5.167000000000000000e+03 7.494364929199218750e+01 -1.346541500091552734e+01 -6.245533062075592223e-14 -7.251751960426003341e-14 -4.049185438987842889e-14 -1.084345490460179862e-13
5.168000000000000000e+03 2.779579162597656250e+00 -1.933811569213867188e+01 6.003177962328118400e-14 1.858562267845545457e-13 7.376640531048250793e-14 -9.021726914788461005e-14
5.169000000000000000e+03 3.512608718872070312e+01 5.617947578430175781e+00 8.796911495686371429e-14 -8.049897892909753383e-15 2.397576562740595663e-14 6.194985523915244596e-14
5.170000000000000000e+03 3.659640121459960938e+01 5.264999389648437500e+00 5.548189132512787447e-14 -1.363503629664766792e-13 -2.426054149240464142e-14 5.084265121543460331e-14
5.171000000000000000e+03 6.275738906860351562e+01 2.159963846206665039e+00 7.138090980926201090e-14 2.593465535643407760e-13 9.921824104495990948e-14 -5.060812473299883263e-14
5.172000000000000000e+03 7.795725250244140625e+01 -1.507377052307128906e+01 4.789073800612157761e-14 8.915102407388089678e-14 4.111252964044027902e-14 -3.837643364982407101e-14
5.173000000000000000e+03 3.247245025634765625e+01 -1.281186294555664062e+01 -7.203261695887946958e-14 -1.223730182941737410e-13 -5.832169464167410999e-14 -3.806352951471296542e-14
5.174000000000000000e+03 5.290084838867187500e+01 -2.762956172227859497e-02 -2.272611352577280641e-13 -1.431485816385039134e-13 -1.111229096478587308e-13 2.713657749030262689e-14
5.175000000000000000e+03 5.610660552978515625e+01 -7.130082845687866211e-01 -1.437506526574122701e-13 7.564542931935355763e-14 -2.043156632379125592e-14 -5.642266032645712470e-14
5.176000000000000000e+03 4.402047348022460938e+01 -1.103997135162353516e+01 -5.590661058554012575e-14 -1.726505630085181653e-13 -6.856715444990973962e-14 1.235944940142230664e-13
5.177000000000000000e+03 4.694263076782226562e+01 -1.606474876403808594e+01 -7.875275274569701334e-14 -3.375117974815586286e-14 -3.375117974815586286e-14 5.425347332304285286e-14
5.178000000000000000e+03 5.260915374755859375e+01 -2.492702007293701172e+00 -1.800771446021365296e-13 -1.400834743342516120e-13 -9.604818974667458931e-14 4.183557390487549488e-14
5.179000000000000000e+03 5.197554016113281250e+01 -2.847778081893920898e+00 -1.881525669858788441e-13 -8.063681151840654260e-14 -8.063681151840654260e-14 1.131754060043274612e-13
5.180000000000000000e+03 7.484348297119140625e+01 -8.478058815002441406e+00 8.903890401671873955e-14 -1.448442602837440862e-13 -1.674160789654714071e-14 -8.172646519494057571e-15
5.181000000000000000e+03 7.407185363769531250e+01 -8.641546249389648438e+00 -2.651546008854231001e-15 -2.401185092502488433e-14 -7.999019164867029325e-15 -5.778887026026968687e-14
5.182000000000000000e+03 3.175833892822265625e+01 -1.368194007873535156e+01 -2.580228206387671225e-14 -1.025600164148397775e-13 -3.850868937420835747e-14 3.439149599869864571e-14
5.183000000000000000e+03 5.591200637817382812e+01 -2.151361465454101562e+01 -6.629573734602545176e-14 1.317158594650244541e-13 1.962603629688652179e-14 7.401313584362231857e-14
5.184000000000000000e+03 5.433238220214843750e+01 -5.031724929809570312e+00 -4.853510307415223601e-14 1.164520818100131527e-13 2.037509633126370623e-14 6.659090461122105231e-14
5.185000000000000000e+03 7.342504119873046875e+01 -2.896925508975982666e-01 -8.506858276613113445e-14 1.236703610612427395e-13 1.158053111684122921e-14 -3.892230233861621036e-14
5.186000000000000000e+03 5.161568450927734375e+01 -2.034079933166503906e+01 4.551978436653954241e-14 -2.092462623526705756e-13 -4.911794305702613106e-14 -1.496943844922493660e-13
5.187000000000000000e+03 7.638194274902343750e+01 6.713644862174987793e-01 -2.390305835209272090e-13 -1.481926289580853817e-13 -1.161669637437037772e-13 -7.411810694270964950e-14
5.188000000000000000e+03 7.844125366210937500e+01 1.643291473388671875e+00 -1.778205810680152932e-13 -1.219597746361308910e-13 -8.993410942174928646e-14 -6.688747456297730598e-14
5.189000000000000000e+03 3.558033752441406250e+01 4.795938491821289062e+00 2.343871455159473455e-14 -1.729586255033027653e-13 -4.485597481017171428e-14 9.266970058072893091e-14
5.190000000000000000e+03 6.806875610351562500e+01 -7.025403976440429688e-01 -1.344928942520473569e-13 -1.948926588689336992e-13 -9.881566322578888562e-14 2.491380210044736448e-14
5.191000000000000000e+03 2.776605367660522461e+00 -8.157038688659667969e+00 8.607708729818641658e-14 3.571468207980155185e-13 1.329671778498714430e-13 -6.436332993268664704e-14
5.192000000000000000e+03 2.758311653137207031e+01 -7.552370071411132812e+00 6.813690999358254854e-15 -1.995532035513163105e-14 -3.942489018490249672e-15 -7.874619671068526505e-15
5.193000000000000000e+03 3.640500259399414062e+01 -1.612541198730468750e+00 -8.197971110551066642e-14 -3.096398463152405522e-13 -1.174858685814780812e-13 7.797801575455676204e-14
5.194000000000000000e+03 3.624038314819335938e+01 -1.020153999328613281e+00 -2.289052465371393952e-13 1.627511974743988538e-14 -6.378904159444823141e-14 7.507856776599666770e-14
5.195000000000000000e+03 7.507434082031250000e+01 -1.764652729034423828e-01 -2.062577912013540543e-14 8.266227735946249378e-14 1.861095031883107376e-14 5.286424442185570782e-14
5.196000000000000000e+03 4.388611602783203125e+01 -1.431239700317382812e+01 -1.019964481255818123e-13 -5.012222733212501335e-13 -1.809656076249069323e-13 1.551348974412544712e-13
5.197000000000000000e+03 4.986316299438476562e+01 -1.708545684814453125e+01 2.364346570835214843e-15 1.382661346527314095e-13 4.218914578585017394e-14 -2.018288295619155050e-15
5.198000000000000000e+03 4.951475143432617188e+01 -1.814029502868652344e+01 -7.385294497263758529e-14 -7.740220953327686670e-14 -4.537654770702705120e-14 -4.928238942153786994e-14
5.199000000000000000e+03 6.175756072998046875e+01 -1.855893373489379883e+00 -2.001869536024519780e-13 2.630565849783689236e-13 1.886088941277508368e-14 -7.931771016898847559e-14
5.200000000000000000e+03 2.742759704589843750e+01 -4.364818572998046875e+00 3.016014968695336640e-14 3.789333755631341116e-13 1.227280538480812755e-13 1.137749901345026793e-14
5.201000000000000000e+03 6.261780929565429688e+01 -4.711751043796539307e-01 -1.661961855029675528e-13 -2.542307456134679233e-13 -1.261280712034143492e-13 -5.657757926437814722e-14
5.202000000000000000e+03 2.771686363220214844e+01 -5.277689933776855469e+00 -3.903262668593018847e-14 1.662755219969391796e-13 3.817287130380812854e-14 4.379373450794261935e-14
5.203000000000000000e+03 5.932773590087890625e+01 -1.043531417846679688e+00 -1.154273481266884782e-13 7.634625082738460966e-14 -1.172432766513185551e-14 1.897466457231617581e-15
5.204000000000000000e+03 6.069247817993164062e+01 -6.575863361358642578e+00 -6.195927424552591378e-14 3.394536171250073231e-13 8.324830218621806499e-14 8.803702667044277508e-14
5.205000000000000000e+03 4.564544296264648438e+01 -1.585999870300292969e+01 -7.466623212727327430e-14 -2.264413428900574621e-13 -9.033227589333100993e-14 1.379497102486915150e-13
5.206000000000000000e+03 5.805119323730468750e+01 -1.086965179443359375e+01 -3.100226781023451839e-13 -2.243687549120798597e-13 -1.603174244833166506e-13 1.204906806924130325e-13
5.207000000000000000e+03 5.667960739135742188e+01 -9.608348846435546875e+00 -9.418943354216544050e-14 -4.036690008949947450e-14 -4.036690008949947450e-14 1.332706460379501356e-13
5.208000000000000000e+03 4.235565662384033203e+00 -2.495526313781738281e+01 5.272030641906289006e-14 -2.810574168300180144e-16 1.573177521683056385e-14 -2.663316209282687308e-14
5.209000000000000000e+03 5.082770919799804688e+01 3.457242965698242188e+00 -3.390330008921915717e-14 2.828511893020885237e-13 7.468436540860809436e-14 6.414091263326482384e-14
5.210000000000000000e+03 5.174478530883789062e+01 3.295699596405029297e+00 -1.408043197011557557e-13 3.742893039775097019e-13 7.004549799341161509e-14 3.581099446928887042e-14
5.211000000000000000e+03 5.692925643920898438e+01 -2.085018348693847656e+01 -4.438932403073858612e-14 2.783571712971361078e-13 7.019035417991925652e-14 9.396671131088260576e-14
5.212000000000000000e+03 3.991484451293945312e+01 -2.721101522445678711e+00 -2.197140716976922481e-13 -2.314160148231270142e-13 -1.353390191799822007e-13 1.636889815316219798e-13
5.213000000000000000e+03 6.754125976562500000e+01 1.388129472732543945e+00 -7.871235943850835026e-14 5.776803324976723109e-14 -6.283298026028925204e-15 -1.811724733994171666e-13
5.214000000000000000e+03 5.827162551879882812e+01 -1.222628307342529297e+01 -9.219879769590058616e-14 -8.526472171539734024e-14 -5.323905650101573572e-14 1.187777496801031840e-13
5.215000000000000000e+03 1.581867122650146484e+01 -5.673727512359619141e+00 -1.666536917147021235e-13 4.295436212666328690e-14 -3.710979752115893537e-14 6.962421091050163824e-14
5.216000000000000000e+03 5.281476593017578125e+01 -2.013876914978027344e+01 1.536051830435675170e-13 2.293927682083928693e-14 5.296333711228909391e-14 9.420817668722228366e-14
5.217000000000000000e+03 2.793776512145996094e+01 -5.937508583068847656e+00 -9.876515295707821718e-14 1.406758688487705355e-13 1.257321730860653727e-14 3.724920220361804812e-14
5.218000000000000000e+03 4.425625610351562500e+01 4.101632833480834961e-01 -1.639058626237005489e-13 -2.449442084166870981e-14 -5.652008605605031433e-14 1.952866647146785095e-14
5.219000000000000000e+03 4.281620788574218750e+01 -6.266513347625732422e+00 -4.213698549695825413e-14 -1.095606081986250091e-13 -4.550927776986180007e-14 6.462153268006406992e-14
5.220000000000000000e+03 4.247484588623046875e+01 -7.915825843811035156e+00 -2.632416447366850432e-14 -1.942855734149775970e-13 -6.618292610997833503e-14 4.980687222247773271e-14
5.221000000000000000e+03 6.278264999389648438e+01 -1.392750167846679688e+01 -1.789574788542153821e-14 8.383229413390022589e-14 1.978096370513701685e-14 5.777106223958661246e-14
5.222000000000000000e+03 4.890925216674804688e+01 -1.684082603454589844e+01 -3.312246107272688589e-14 5.443108257955492357e-14 6.392586452048411305e-15 1.428732078392197513e-13
5.223000000000000000e+03 6.171682357788085938e+01 -1.182190799713134766e+01 -1.544950284241078386e-13 -2.046120908881336742e-14 -5.248687430319497194e-14 1.601627223858301252e-13
5.224000000000000000e+03 6.555173492431640625e+01 -1.678235626220703125e+01 7.484033466738371221e-14 1.693272800619427532e-13 7.325028441879793961e-14 6.667705802635218171e-14
5.225000000000000000e+03 6.608760833740234375e+01 -1.729961776733398438e+01 1.399859418785070683e-14 -6.191216566113141861e-14 -1.437407118787432936e-14 4.865023200410127733e-16
5.226000000000000000e+03 3.551813125610351562e+01 -1.289055228233337402e+00 -1.895147314903353197e-13 -1.269715533885537595e-13 -9.494588139790857695e-14 1.169251988389656202e-14
5.227000000000000000e+03 4.397997665405273438e+01 -6.334207057952880859e-01 -1.058145270623617185e-13 1.376547123900853653e-13 9.552054073657788996e-15 -4.367819582580534377e-14
5.228000000000000000e+03 4.483982467651367188e+01 4.909531772136688232e-01 -6.763142021241896895e-14 -7.473584468301042172e-14 -4.271017946862881720e-14 8.593157381411170581e-14
5.229000000000000000e+03 6.747131347656250000e+01 6.918514370918273926e-01 -1.664247624259818092e-13 2.031807881663905135e-13 1.102680873856214799e-14 -1.734537941880040512e-13
5.230000000000000000e+03 6.885286712646484375e+01 -4.978042840957641602e-02 -1.453604082804829667e-13 7.495552437194671902e-14 -2.112146449493451650e-14 1.636052269137974746e-14
5.231000000000000000e+03 2.824959754943847656e+01 -7.345060825347900391e+00 3.101743850913302181e-14 -2.612124926082426413e-13 -6.905852165074374827e-14 1.400466114603871048e-13
5.232000000000000000e+03 2.891174125671386719e+01 -7.194062232971191406e+00 -6.756087253230805278e-16 -2.895465927856374260e-16 -2.895465927856374260e-16 1.487390363598319748e-14
5.233000000000000000e+03 7.787828063964843750e+01 1.638881802558898926e+00 -2.136443555704123365e-13 -2.516901888727912651e-13 -1.396003673987192273e-13 2.129125055514574649e-13
5.234000000000000000e+03 3.678114318847656250e+01 -1.888390159606933594e+01 7.815108152633976069e-14 -1.266350034816871029e-13 -1.454517353728559254e-14 9.274057352149159272e-14
5.235000000000000000e+03 3.770103454589843750e+01 -1.810494041442871094e+01 5.534787377221329907e-14 -1.592832853461456644e-13 -3.118062110048745728e-14 -7.954837926338245019e-15
5.236000000000000000e+03 2.190411567687988281e+01 -1.088829517364501953e+01 -5.347027277869363660e-14 2.973408195008908628e-13 7.316116300021963115e-14 3.163527653813474894e-13
5.237000000000000000e+03 7.561286926269531250e+01 -1.134077167510986328e+01 -8.038676739237707314e-14 -4.017034101189143058e-14 -3.616713116602783551e-14 -7.288700892837951528e-14
5.238000000000000000e+03 5.827664947509765625e+01 -1.290581226348876953e+01 -1.135479243182663245e-13 1.343404012164872707e-13 6.237743747092641677e-15 8.835454882918231112e-14
5.239000000000000000e+03 6.617567443847656250e+01 4.782267570495605469e+00 -1.342744139617643717e-13 -5.754617838022238474e-14 -5.754617838022238474e-14 -2.205378214032924222e-13
5.240000000000000000e+03 6.749548339843750000e+01 3.195660114288330078e+00 1.571924421140888373e-14 3.041179775457175660e-13 9.595116720476429273e-14 -8.279354713749617622e-14
5.241000000000000000e+03 2.706014060974121094e+01 2.209219694137573242e+00 5.116557998547646355e-15 -3.180638261449098003e-13 -9.388418319676572477e-14 -6.032740089813651285e-14
5.242000000000000000e+03 4.880099868774414062e+01 4.513127326965332031e+00 -1.090698169801951334e-13 1.248218515310581256e-13 4.725609094709476779e-15 -1.022935805072150428e-13
5.243000000000000000e+03 5.040185165405273438e+01 5.184662342071533203e+00 1.200049598132054210e-14 2.796487542401637771e-13 8.749477650640130610e-14 1.928721397002897131e-13
5.244000000000000000e+03 5.187425994873046875e+01 6.735676765441894531e+00 -2.096066782598590694e-13 7.029688381962953536e-14 -4.179294104257429143e-14 -1.927133277989431098e-14
5.245000000000000000e+03 2.424557209014892578e+00 -4.034029006958007812e+00 -1.059557105140100652e-13 -9.116053859047415497e-14 -5.913487337609255046e-14 -1.340643091332638370e-13
5.246000000000000000e+03 1.200685119628906250e+01 -3.809857368469238281e+00 -1.388444209864808654e-13 -5.950475572349955833e-14 -5.950475572349955833e-14 -9.667723029462352291e-14
5.247000000000000000e+03 6.133935546875000000e+01 -8.907955169677734375e+00 -1.396464053334683930e-13 3.519100700948019078e-13 6.367910349415820126e-14 -1.397421403852988631e-13
5.248000000000000000e+03 2.664627265930175781e+01 -2.860306024551391602e+00 -1.211927422566788648e-13 1.539395238885077344e-13 9.824034658955250326e-15 -5.893321177201024663e-14
5.249000000000000000e+03 2.687495613098144531e+01 -4.169057369232177734e+00 -1.538517848276993449e-13 2.085692187535348463e-13 1.641522916131111370e-14 -4.385024515805163725e-14
5.250000000000000000e+03 6.638040161132812500e+01 -2.149763405323028564e-01 -7.821811232565367700e-14 5.797984569668943045e-14 -6.071479649876095064e-15 -1.663236334683432238e-13
5.251000000000000000e+03 6.778355407714843750e+01 1.948897838592529297e-01 -6.550852440660509188e-15 8.869439200014789249e-14 2.464306157138468345e-14 -5.650625909021933513e-14
5.252000000000000000e+03 3.042064476013183594e+01 -1.106158256530761719e+01 -8.987624690705645070e-14 5.298350666082911331e-14 -1.106782207386820122e-14 -3.356621485752983580e-14
5.253000000000000000e+03 4.703119277954101562e+01 3.279062747955322266e+00 -1.555565843237155521e-13 4.251555975765680673e-13 8.087969991009760773e-14 5.437905442780277543e-14
5.254000000000000000e+03 7.384069824218750000e+01 -1.240029692649841309e+00 -3.807109182486605181e-14 -6.206713203289748737e-14 -3.004146681851588285e-14 -5.502700413926621403e-14
5.255000000000000000e+03 4.229634857177734375e+01 -9.391930580139160156e+00 -9.278959978847867163e-14 -2.456462496521621963e-13 -1.015307561874449760e-13 1.591492779576264560e-13
5.256000000000000000e+03 4.312958145141601562e+01 -9.071069717407226562e+00 -1.374024998597109248e-13 -2.190151001096179995e-13 -1.069252786355459617e-13 7.869253209127902160e-14
5.257000000000000000e+03 5.824988937377929688e+01 -1.820080947875976562e+01 -5.393259013756861175e-14 2.263698262042548870e-14 -9.388682593956115818e-15 -1.945205911765227752e-14
5.258000000000000000e+03 5.886571121215820312e+01 -1.766011810302734375e+01 -1.820485392479715553e-14 4.325508050698201323e-13 1.243037790754630834e-13 4.337917964289741968e-14
5.259000000000000000e+03 7.095355987548828125e+01 -1.837145996093750000e+01 1.847541996507270218e-14 7.918036885878887432e-15 7.918036885878887432e-15 -8.883785905262203686e-14
5.260000000000000000e+03 3.354401779174804688e+01 3.662935495376586914e+00 -1.918652784121521043e-14 -8.222797646235090185e-15 -8.222797646235090185e-15 4.357797488748621495e-14
5.261000000000000000e+03 3.806145095825195312e+01 -3.616622686386108398e+00 -1.163716340088147283e-13 -2.671905665468932156e-13 -1.150686533904488051e-13 1.772100803772158617e-13
5.262000000000000000e+03 3.690868759155273438e+01 -2.352158308029174805e+00 -4.042478632111483339e-14 -2.460796594706132767e-13 -8.595133339870525413e-14 1.315047788545686824e-13
5.263000000000000000e+03 6.585599517822265625e+01 2.916690707206726074e-01 -9.082909798634533627e-14 -4.893477726438007214e-14 -4.192916426928351703e-14 -1.102459527206438306e-13
5.264000000000000000e+03 3.436494064331054688e+01 -1.498861122131347656e+01 6.884934517035340429e-14 -1.534969390091719954e-13 -2.539427645757968283e-14 -1.398918958103734234e-14
5.265000000000000000e+03 2.711972475051879883e+00 -1.027318763732910156e+01 6.036850571300086954e-14 4.376307530338380269e-13 1.493997796569307424e-13 -8.466315891625733614e-14
5.266000000000000000e+03 3.677278280258178711e+00 -8.673399925231933594e+00 3.434134826008940211e-14 2.663479517234917937e-13 9.020678626812939083e-14 -1.108994962376909366e-13
5.267000000000000000e+03 4.425609970092773438e+01 -1.559374332427978516e+01 6.450546206123591864e-14 -1.382019905417017358e-13 -2.210895752770020845e-14 1.452446696985701391e-13
5.268000000000000000e+03 7.118933868408203125e+01 -4.102801322937011719e+00 1.420578471479291838e-13 -4.205769982496346260e-14 3.000004690739514757e-14 9.330615944322991767e-15
5.269000000000000000e+03 6.161882400512695312e+01 1.365706682205200195e+00 1.753751054697338246e-14 -1.454636649848850549e-13 -3.837784311264830217e-14 -1.286977387724222432e-13
5.270000000000000000e+03 6.593745422363281250e+01 3.596151828765869141e+00 -5.434187645768188968e-14 6.821251869555330916e-14 4.161193348987783647e-15 -1.955838377538932082e-14
5.271000000000000000e+03 4.257525634765625000e+01 -8.913174629211425781e+00 -7.778081970817238289e-14 -2.849648685424033268e-13 -1.088237030870409239e-13 1.327991671707176580e-13
5.272000000000000000e+03 4.653731155395507812e+01 4.291704297065734863e-01 -1.731030005750963663e-13 2.003186977189361229e-13 8.164706432646495760e-15 -3.940817822485316937e-15
5.273000000000000000e+03 1.335642719268798828e+01 -4.553162097930908203e+00 -7.777297957121259708e-14 -3.535879271668318502e-13 -1.294082706661606186e-13 -1.292590708946994571e-13
5.274000000000000000e+03 4.202556991577148438e+01 -6.142559528350830078e+00 -8.884869429808331387e-14 7.672936044129594069e-15 -2.435272917025201045e-14 -4.345727269250247715e-14
5.275000000000000000e+03 7.790257263183593750e+01 -2.833338737487792969e+01 4.222788568472579662e-14 -7.340423435102730321e-14 -9.352903922264094172e-15 -7.225983185291454114e-14
5.276000000000000000e+03 7.623352813720703125e+01 -2.887141418457031250e+01 -1.553739301389696348e-14 -5.240983157444450979e-14 -2.038416636006290528e-14 -3.843940546725474472e-15
5.277000000000000000e+03 7.578263854980468750e+01 -1.305368232727050781e+01 -7.126590475788150553e-15 -3.054253000549711147e-15 -3.054253000549711147e-15 -1.009420615128396592e-13
5.278000000000000000e+03 3.633824157714843750e+01 2.960090637207031250e+00 -1.456334917026777531e-13 6.212072296043731970e-15 -4.182642256091335942e-14 4.825361708512068692e-14
5.279000000000000000e+03 4.374249267578125000e+01 -1.290770816802978516e+01 1.457289963615465700e-13 -3.493032414963320731e-13 -6.107227489568836654e-14 6.816434962590885160e-15
5.280000000000000000e+03 4.328168869018554688e+01 -1.299881219863891602e+00 -1.630641151620371154e-13 -1.156355691539143193e-13 -8.360991071579629286e-14 -1.220682490634880657e-13
5.281000000000000000e+03 7.606429290771484375e+01 -2.071019172668457031e+01 -9.442260816001739332e-15 -2.785523818982921229e-13 -8.639839061200249581e-14 6.413287598466127504e-14
5.282000000000000000e+03 2.994099807739257812e+01 -9.631611824035644531e+00 1.965679545133311446e-14 7.705076539906569044e-14 2.901226757749328367e-14 6.895644825136897429e-15
5.283000000000000000e+03 3.984287643432617188e+01 -1.969097709655761719e+01 7.687356780056598532e-15 -1.339582606082675986e-13 -3.788127174138636311e-14 7.532219477041773859e-14
5.284000000000000000e+03 3.999240493774414062e+01 -1.869829559326171875e+01 -3.606897105886937641e-15 -1.159231808852204115e-13 -3.585902462552997827e-14 -5.587230066897864306e-15
5.285000000000000000e+03 7.733771514892578125e+01 -1.905800056457519531e+01 -2.242532433349968962e-14 -1.697391684672699963e-13 -5.764934699319795852e-14 -1.084580287993158754e-14
5.286000000000000000e+03 7.672244262695312500e+01 -1.995002365112304688e+01 2.092852224801124844e-14 -1.282834786748426881e-13 -3.220648641982966354e-14 -3.964921923768627288e-14
5.287000000000000000e+03 4.203738784790039062e+01 -1.798021316528320312e+00 -1.641938944833484793e-13 2.113308409290495099e-14 -4.291824464179236354e-14 9.387218921023260387e-14
5.288000000000000000e+03 7.230044555664062500e+01 -1.445004105567932129e+00 -4.556537506789255787e-14 2.622293048394445936e-14 -5.802733036371250652e-15 7.341832897926961476e-14
5.289000000000000000e+03 7.318488311767578125e+01 -9.964976310729980469e-01 -4.698491758419603981e-14 1.628674002303667767e-13 3.476474614910393668e-14 1.616317079093307352e-13
5.290000000000000000e+03 2.085865783691406250e+01 -1.077311229705810547e+01 1.621585352974685978e-13 -1.592582267234340931e-13 8.700895546554768181e-16 1.696557933202058610e-13
5.291000000000000000e+03 3.110239982604980469e+01 -1.119951534271240234e+01 7.606122085250174858e-15 9.476166189627613368e-14 3.071033485564471366e-14 5.970285788337926277e-16
5.292000000000000000e+03 7.157041931152343750e+01 -1.897047996520996094e+01 -6.645538611592394229e-14 -2.114846790529298359e-13 -8.338201819540341786e-14 -7.374288489960315052e-14
5.293000000000000000e+03 7.271354675292968750e+01 -1.740975952148437500e+01 -1.039054977583671324e-13 -4.453092761072877104e-14 -4.453092761072877104e-14 4.231698677451337098e-14
5.294000000000000000e+03 5.080771255493164062e+01 -1.997588920593261719e+01 -3.527370791831831165e-14 -1.066192015859897257e-13 -4.256787115722651671e-14 -1.002301116859475802e-14
5.295000000000000000e+03 5.944770431518554688e+01 -1.931043815612792969e+01 -3.337871225619383486e-14 -9.436932301137151979e-14 -3.832440888620371189e-14 1.291101557263085731e-13
5.296000000000000000e+03 4.513361454010009766e+00 -2.198060035705566406e+01 3.815503278993895298e-14 1.879182166862961023e-13 6.782197552049687439e-14 -8.384394930725444506e-14
5.297000000000000000e+03 5.314807891845703125e+00 -2.533058547973632812e+01 1.419974757216465808e-14 -5.352131413706223348e-15 2.654284889889177781e-15 -1.086737375977954445e-13
5.298000000000000000e+03 6.726541042327880859e+00 -2.831433105468750000e+01 7.596026299551850852e-15 7.188186542305893822e-14 2.384336760148653145e-14 -4.613603132885314706e-14
5.299000000000000000e+03 7.545623016357421875e+01 -1.581072044372558594e+01 -8.193321916110177239e-14 -1.266161383638858551e-13 -6.256480793512264604e-14 -6.990532420503639544e-14
5.300000000000000000e+03 4.589644908905029297e+00 -4.908621311187744141e+00 -9.735812958773515380e-14 -7.603812734622780733e-14 -5.201887504730981493e-14 -1.452719509357353056e-13
5.301000000000000000e+03 5.084332466125488281e+00 -4.469608306884765625e+00 -1.693432042813511340e-13 -2.682471181758485507e-14 -5.885037872603235409e-14 -7.778701321308270633e-14
5.302000000000000000e+03 2.886096000671386719e+01 1.464773342013359070e-02 -5.279070586840803672e-15 4.552470054576540637e-13 1.349903939714194867e-13 4.034608340778775282e-14
5.303000000000000000e+03 2.777820777893066406e+01 -8.100391030311584473e-01 -1.951196365937435395e-13 3.281358474868656394e-13 3.990486394556298777e-14 -3.349675137959140514e-14
5.304000000000000000e+03 2.378973007202148438e+01 -1.365852206945419312e-01 -3.498352866074250223e-13 -1.499294124181899113e-13 -1.499294124181899113e-13 1.382232137992281396e-13
5.305000000000000000e+03 7.240911102294921875e+01 -6.705012798309326172e+00 7.472173142004327057e-15 -4.254858929921521982e-14 -1.052292493186656255e-14 -7.025246541187551985e-14
5.306000000000000000e+03 7.205437469482421875e+01 -5.298112392425537109e+00 1.511941105354717291e-14 5.223069765862738134e-14 2.020503244424577682e-14 1.988320397000239992e-13
5.307000000000000000e+03 3.751220464706420898e+00 -4.555231571197509766e+00 5.722480052750694712e-14 2.452491572183575913e-14 2.452491572183575913e-14 1.091919743777822541e-14
5.308000000000000000e+03 3.120652437210083008e+00 -4.636303424835205078e+00 -4.212431388406732979e-14 -1.805327737888599848e-14 -1.805327737888599848e-14 6.059776026237292945e-14
5.309000000000000000e+03 7.465186309814453125e+01 -7.800699234008789062e+00 -1.057280483865788434e-13 -2.283158200260676507e-13 -1.002131591685412326e-13 -1.526135310790308064e-13
5.310000000000000000e+03 4.222275161743164062e+01 -4.800425052642822266e+00 4.260457478889694005e-14 1.825910299693700445e-14 1.825910299693700445e-14 6.280838242350098716e-15
5.311000000000000000e+03 4.224676895141601562e+01 -4.242541313171386719e+00 4.606034724095008082e-14 -2.090145954534647355e-13 -4.888627276968850188e-14 4.249424705345117292e-14
5.312000000000000000e+03 3.154330825805664062e+01 2.393843412399291992e+00 -9.263760819642335997e-14 2.233661254005467334e-13 3.921855380598429641e-14 1.159125624801936316e-14
5.313000000000000000e+03 7.437406158447265625e+01 -1.635941314697265625e+01 4.124872576209519248e-14 -1.195748144597330587e-13 -2.349782728691771766e-14 -2.173673567529288420e-14
5.314000000000000000e+03 7.456880187988281250e+01 -1.562420082092285156e+01 -7.086584601469561595e-14 -1.904994039033866549e-13 -7.840957565305103905e-14 -7.243520833057764952e-14
5.315000000000000000e+03 5.830565261840820312e+01 -1.827122807502746582e+00 -1.700868856565132536e-13 2.016113106540276534e-13 9.457328685100446081e-15 6.177259496021464402e-14
5.316000000000000000e+03 2.729185485839843750e+01 -3.856236219406127930e+00 -4.562503668056536177e-14 6.667106645409648369e-13 1.863256863252407691e-13 -1.299699551541438902e-13
5.317000000000000000e+03 2.642364883422851562e+01 -3.726599454879760742e+00 -1.767511918077113720e-13 3.360080226208483900e-13 4.777705263207289443e-14 2.213626417585379258e-14
5.318000000000000000e+03 4.729179382324218750e+01 2.504391193389892578e+00 -1.799316040130075067e-13 2.888940443205451070e-13 3.268873276988763787e-14 8.280138049819238399e-14
5.319000000000000000e+03 3.529993438720703125e+01 6.263292789459228516e+00 2.273153724714066515e-13 1.431718242225765714e-13 1.111461590081949669e-13 1.092617478697793798e-13
5.320000000000000000e+03 4.719112777709960938e+01 7.639526724815368652e-01 -1.782122355502985256e-13 -3.062572304047758709e-14 -6.265138825485919161e-14 -7.510819359035983411e-14
5.321000000000000000e+03 4.540086746215820312e+01 8.905718326568603516e-01 -2.234167982995832746e-13 3.932132126415605056e-13 5.093892498021952708e-14 -2.494734291109274027e-14
5.322000000000000000e+03 3.094461059570312500e+01 1.996237874031066895e+00 -1.148152888952660988e-13 2.996444238567708140e-13 5.544874523183591919e-14 7.597296679566142852e-14
5.323000000000000000e+03 3.286645126342773438e+01 3.227737188339233398e+00 -1.131481518722166069e-13 2.374513617415391353e-13 3.729096431604947415e-14 1.017657231270133189e-13
5.324000000000000000e+03 6.679247283935546875e+01 5.606195926666259766e+00 -2.128210124406268444e-13 1.832966829533322350e-13 -8.857299862627919518e-15 -8.387438828324697560e-14
5.325000000000000000e+03 3.528117895126342773e+00 -1.249369335174560547e+01 8.826198506870636118e-14 8.357751339962971038e-14 5.155185157337989488e-14 -7.333333430521032925e-14
5.326000000000000000e+03 3.441344451904296875e+01 1.280457615852355957e+00 -2.809877981332919994e-13 1.682949942328603593e-14 -7.924749452579288311e-14 1.765283340511569765e-13
5.327000000000000000e+03 3.373402786254882812e+01 1.207140088081359863e+00 -2.418599988254083177e-13 3.359856135171958302e-14 -6.247843090329344151e-14 1.279059323733289233e-13
5.328000000000000000e+03 6.519447326660156250e+01 6.666833400726318359e+00 2.371306513507861341e-14 1.474155948135921768e-13 5.133859578231557419e-14 -9.011791557130346964e-14
5.329000000000000000e+03 6.147304534912109375e+01 -6.429445743560791016e-02 -6.134739119695656329e-14 2.253384788876780509e-13 4.919732698484280409e-14 6.171791051313990639e-14
5.330000000000000000e+03 3.457253932952880859e+00 -1.401925182342529297e+01 9.709987940651268468e-14 2.703689865306974083e-13 1.102406604587893857e-13 6.908576223032744656e-14
5.331000000000000000e+03 7.640690612792968750e+01 -1.674267387390136719e+01 7.062038941910847578e-14 -1.548506670654738182e-14 1.654059681376832819e-14 5.435771258566375608e-14
5.332000000000000000e+03 7.655574798583984375e+01 -1.747883605957031250e+01 2.577162455338379010e-14 -8.045691527293688528e-14 -1.640558823230546526e-14 -7.604884570114236325e-15
5.333000000000000000e+03 7.657243347167968750e+01 -8.075204849243164062e+00 7.250576278695214372e-14 -6.042800130721601160e-14 3.623327850997776559e-15 2.152547252923697925e-15
5.334000000000000000e+03 7.707569885253906250e+01 -7.357084274291992188e+00 -2.915468430911283271e-14 -3.327515129755709289e-13 -1.085718564748996973e-13 2.673265415929488957e-15
5.335000000000000000e+03 7.671054840087890625e+01 -2.341353416442871094e+01 8.697476603942294604e-14 3.727489779510595458e-14 3.727489779510595458e-14 4.273282912963839719e-14
5.336000000000000000e+03 7.635376739501953125e+01 -2.568524169921875000e+01 -3.942536537038590638e-14 -4.286551311388081542e-13 -1.404241442093737136e-13 -1.730573861568208277e-14
5.337000000000000000e+03 6.307168579101562500e+01 1.519468426704406738e+00 -1.079057091075974473e-13 -1.148717216183439693e-13 -6.683323057303514059e-14 -1.153557094681414985e-13
5.338000000000000000e+03 5.975854110717773438e+01 -2.191409826278686523e+00 -1.430259583727958028e-13 2.132088586627792215e-13 2.105486907055548890e-14 3.446100013421854458e-14
5.339000000000000000e+03 6.186841583251953125e+01 -1.285545158386230469e+01 -6.804523307660237386e-14 6.233965302521529694e-14 -1.711672321350228565e-15 1.070820813747416778e-13
5.340000000000000000e+03 4.792018508911132812e+01 -3.523344099521636963e-01 -2.708772605091586128e-13 -7.033931000589160876e-14 -1.023649752202732133e-13 -1.146150265896126591e-14
5.341000000000000000e+03 3.434154510498046875e+01 6.688295602798461914e-01 -3.166710329290806092e-13 2.302914261197164247e-13 -2.591387526654567730e-14 6.680855819734751733e-14
5.342000000000000000e+03 5.065233230590820312e+01 7.605359077453613281e+00 1.672862965772931032e-13 3.461998211978095652e-13 1.540458299115199381e-13 2.676822319033246578e-14
5.343000000000000000e+03 2.655572700500488281e+01 -1.475131630897521973e+00 -5.221875788220288472e-14 5.838205895287995606e-13 1.594805559314294019e-13 2.373362177767552803e-15
5.344000000000000000e+03 2.762748718261718750e+01 -2.212182998657226562e+00 -3.575381635721741613e-14 1.676807293276433297e-13 3.957807524638048968e-14 -1.770294387427526206e-13
5.345000000000000000e+03 3.571526718139648438e+01 -1.702804374694824219e+01 1.782539502288849054e-13 -1.981111401230112312e-13 -5.957160271666392046e-15 1.286149057264443507e-13
5.346000000000000000e+03 6.944746971130371094e+00 -4.190433979034423828e+00 -1.549825399309659457e-13 -8.929656466300991968e-14 -7.328373205581911742e-14 1.125892592048274854e-13
5.347000000000000000e+03 6.794186401367187500e+01 -1.816938400268554688e+01 3.108614092796834448e-15 -9.016963201493102820e-14 -2.611830666836550269e-14 9.431741683236377627e-14
5.348000000000000000e+03 7.062250518798828125e+01 -1.904489898681640625e+01 -4.590518774567203808e-14 -1.569265008737052991e-13 -6.084950523056048555e-14 -1.670474468386945466e-13
5.349000000000000000e+03 3.533715438842773438e+01 2.582122564315795898e+00 -3.012878575098243417e-13 -2.206252623085033782e-13 -1.565739454322673252e-13 7.118628874303728482e-14
5.350000000000000000e+03 3.513256454467773438e+01 1.938153386116027832e+00 -3.168545612518280929e-13 -2.730476706281487198e-13 -1.769706614324767502e-13 1.176991175962788239e-13
5.351000000000000000e+03 4.966359710693359375e+01 -1.044778227806091309e+00 -2.375710034512729107e-13 -5.606519887018865389e-14 -8.809086408457025841e-14 1.424959867983577322e-13
5.352000000000000000e+03 2.595481300354003906e+01 -1.063895320892333984e+01 4.735056137873498716e-14 2.719233258702269396e-13 9.578216041486453669e-14 -6.646521847437567021e-14
5.353000000000000000e+03 7.628324127197265625e+01 -1.170687007904052734e+01 -9.270507945286984852e-14 7.464662162047844274e-14 -5.417538027343779539e-15 -1.013125859112206859e-14
5.354000000000000000e+03 3.172491550445556641e+00 -6.759509563446044922e+00 3.800105236452348823e-14 -9.809120611039764959e-14 -1.802704646257542731e-14 -8.604195914779788623e-14
5.355000000000000000e+03 2.973707199096679688e+00 -6.148247241973876953e+00 5.583956962183084238e-14 -2.181970424654233742e-14 1.020595927377337259e-14 6.046368511121794076e-14
5.356000000000000000e+03 5.392639541625976562e+01 -1.281702399253845215e+00 -2.057222258213323163e-13 1.863390220119623408e-13 -5.814957839382498342e-15 8.181733827765380607e-14
5.357000000000000000e+03 5.422556686401367188e+01 -7.722321748733520508e-01 -1.694997766275851969e-13 1.885913436050837277e-14 -4.519219606825483626e-14 4.435543085438715255e-15
5.358000000000000000e+03 7.554282379150390625e+01 -1.028906154632568359e+01 -6.249358940491750447e-14 -2.678296833987826864e-14 -2.678296833987826864e-14 -7.714730682626194658e-14
5.359000000000000000e+03 7.701771545410156250e+01 -1.053441238403320312e+01 -1.062581080524434285e-13 -9.129013463140406293e-14 -5.926446941702245841e-14 -3.215633529308863092e-14
5.360000000000000000e+03 7.636238861083984375e+01 -2.880666494369506836e+00 -3.230881477612156105e-14 -5.959758375825505161e-14 -2.757192023793934160e-14 4.920337734118504155e-15
5.361000000000000000e+03 7.627133178710937500e+01 -3.710540533065795898e+00 7.486790728388273419e-14 -1.966685007123020190e-13 -3.654017464039399643e-14 4.316171918028292864e-14
5.362000000000000000e+03 7.103659820556640625e+01 -9.594562649726867676e-01 -2.096664991147259571e-13 -4.410612364702179433e-14 -7.613178886140339885e-14 1.241511098570499683e-13
5.363000000000000000e+03 7.626884460449218750e+01 -1.867185783386230469e+01 1.447893725487620076e-13 -1.801157286469498575e-14 3.803334126047282215e-14 1.801590797931903326e-14
5.364000000000000000e+03 4.285142135620117188e+01 -5.494984149932861328e+00 -4.947270078412696614e-14 2.454836159381575816e-14 -7.477301926499951845e-15 -8.269118489988638854e-15
5.365000000000000000e+03 4.022142028808593750e+01 -3.533204078674316406e+00 -8.528609574478835526e-15 -2.324098487445358518e-13 -7.228154300141856337e-14 1.179777033444989742e-13
5.366000000000000000e+03 3.852260208129882812e+01 -1.784524559974670410e+00 -2.202921682960615191e-13 -2.316637821245942641e-13 -1.355867864814494506e-13 1.812635599344331050e-13
5.367000000000000000e+03 3.893966674804687500e+01 -2.356838703155517578e+00 -2.553489409121926373e-14 -2.396982623237980947e-13 -7.956994980441722820e-14 3.102679991726607633e-14
5.368000000000000000e+03 7.679192352294921875e+01 -2.133816337585449219e+01 -5.111214321793303150e-14 -2.964108992975500456e-13 -1.042569147875239965e-13 -6.260947367649725981e-15
5.369000000000000000e+03 5.332490921020507812e+01 -4.027548789978027344e+00 -6.133566148470298574e-14 -1.177886049330903462e-13 -5.373728128059071518e-14 1.512342226277219037e-13
5.370000000000000000e+03 5.358312225341796875e+01 -2.464562892913818359e+00 -2.098540525380387933e-13 1.388173023796415717e-13 -2.131102538633234539e-14 -9.477841281984103472e-15
5.371000000000000000e+03 5.279658508300781250e+01 -1.558268070220947266e+00 -3.194004034780956180e-13 -2.250851313331542897e-14 -1.025726744752035458e-13 1.591107176297356512e-14
5.372000000000000000e+03 7.643848419189453125e+01 -1.393131542205810547e+01 -1.366072782237742755e-13 1.244578170991189614e-13 -3.644836135110931380e-15 1.705912497308899323e-14
5.373000000000000000e+03 7.683123779296875000e+01 -1.474131774902343750e+01 -1.460566151530173773e-13 -1.083466405786201459e-13 -7.632097536423854134e-14 1.486676179298512812e-13
5.374000000000000000e+03 6.214422988891601562e+01 -1.171677231788635254e+00 -1.512753816526948847e-13 1.639224373644124211e-13 3.794119339317397407e-15 -9.661385190137816714e-14
5.375000000000000000e+03 7.635147857666015625e+01 -5.333815097808837891e+00 2.458324410464958476e-14 -1.724681188879431670e-13 -4.436546141854853798e-14 -2.858574583096927524e-14
5.376000000000000000e+03 4.480877685546875000e+01 1.352209925651550293e+00 -1.498003788071369802e-13 -6.420016428199115666e-14 -6.420016428199115666e-14 1.390333974251450888e-13
5.377000000000000000e+03 6.138674545288085938e+01 -1.075031852722167969e+01 -1.341407724914783772e-13 -3.461342879527463945e-14 -5.062626140246544171e-14 5.055084836510549684e-14
5.378000000000000000e+03 2.388222122192382812e+01 -1.239341068267822266e+01 -2.316311205341481383e-14 1.502012761129406515e-13 3.811144786260503570e-14 1.308695719067637375e-13
5.379000000000000000e+03 5.161605453491210938e+01 5.708403110504150391e+00 -5.389846826232141952e-14 2.056553983099257410e-13 4.552707901428129644e-14 -1.031097759494751295e-15
5.380000000000000000e+03 3.540596723556518555e+00 -1.094553661346435547e+01 -5.501745977201655258e-14 9.079846249870904273e-14 1.073430030978797869e-14 -6.777049624609454703e-14
5.381000000000000000e+03 3.194390058517456055e+00 -9.490727424621582031e+00 -4.290033158902382959e-14 1.188669930714258971e-13 2.278999742828108355e-14 -6.845120580382599296e-14
5.382000000000000000e+03 3.489880323410034180e+00 -8.022961616516113281e+00 8.980405090083017766e-15 9.535064117395172789e-14 3.129931413332030787e-14 2.078749295635930194e-14
5.383000000000000000e+03 3.602505111694335938e+01 2.360204458236694336e+00 -2.123756086356426431e-13 -2.282709611611810629e-13 -1.321939790705634055e-13 2.000450721956550937e-13
5.384000000000000000e+03 3.492996597290039062e+01 3.480382680892944336e+00 -9.394157814927167616e-14 9.699217069693982785e-14 9.151787595641585303e-16 5.539322052807750529e-14
5.385000000000000000e+03 1.498589134216308594e+01 -6.315602302551269531e+00 -1.551389360943469797e-13 -1.122390619031146675e-13 -8.021339668873306294e-14 -4.356997212020055632e-14
5.386000000000000000e+03 3.390165805816650391e+00 -1.698020744323730469e+01 6.817370425777832810e-14 1.207192034053186647e-13 5.666787297655545563e-14 1.144257350546920571e-13
5.387000000000000000e+03 3.396908998489379883e+00 -1.623656082153320312e+01 -1.552432668365261864e-14 3.909766526375216267e-14 7.072001319919979032e-15 -5.707884658629966412e-14
5.388000000000000000e+03 6.323824310302734375e+01 -1.454165267944335938e+01 1.668954755754299690e-14 9.865455755922111769e-14 3.460323390672148669e-14 1.583777461391586150e-13
5.389000000000000000e+03 6.432330322265625000e+01 -1.579356575012207031e+01 -5.539105551186432330e-14 2.107345873324228958e-13 4.660305819091485613e-14 1.716718604836790785e-14
5.390000000000000000e+03 5.236627197265625000e+01 6.964211463928222656e+00 -3.562352574927075965e-14 1.591582632831309296e-13 3.706042227659758770e-14 -8.223722267400312980e-14
5.391000000000000000e+03 5.109204101562500000e+01 6.149588584899902344e+00 -1.364729726796576337e-13 2.160172811026955797e-13 2.386329320453774161e-14 -1.507052200589754920e-14
5.392000000000000000e+03 4.904782104492187500e+01 -1.909946632385253906e+01 7.579754288415327390e-14 -1.047681838744866922e-13 -8.691194160572509458e-15 -5.438526148524025494e-14
5.393000000000000000e+03 4.470893478393554688e+01 -4.439286291599273682e-01 -9.322090896522056136e-14 -1.028593714109266033e-13 -5.882408682334958061e-14 6.515123320395901918e-14
5.394000000000000000e+03 7.627683258056640625e+01 -2.649208259582519531e+01 1.142660185221577862e-13 1.862240017139887849e-13 9.014700607084397133e-14 1.072687606600529475e-14
5.395000000000000000e+03 7.707520294189453125e+01 -2.822001075744628906e+01 -6.365011463857137008e-14 -3.475352601187142731e-13 -1.233556171705701976e-13 -6.169366504205769930e-14
5.396000000000000000e+03 4.626951599121093750e+01 -1.543759441375732422e+01 -7.130343678777434357e-14 -3.107831646111808288e-13 -1.146259871959501297e-13 2.371540192957349857e-13
5.397000000000000000e+03 3.369195175170898438e+01 -1.739930152893066406e+01 3.665829507895450312e-14 -2.359195195970886783e-13 -5.977836769425343144e-14 5.029717639696293721e-15
5.398000000000000000e+03 6.641371917724609375e+01 2.669500112533569336e+00 -9.638343183467068531e-14 7.307018488542094126e-14 -6.993974338884807393e-15 -1.429028472161100738e-13
5.399000000000000000e+03 1.861313629150390625e+01 -9.888315200805664062e+00 7.374144833172460722e-14 1.231053697566333871e-13 5.905404610413375610e-14 -3.000374928840759611e-15
5.400000000000000000e+03 4.920640563964843750e+01 3.840623617172241211e+00 2.868196877377736376e-14 -1.058320233749202033e-14 5.429629846182308303e-15 6.199926775316347283e-14
5.401000000000000000e+03 4.994440841674804688e+01 3.778852939605712891e+00 -1.235679175084700154e-13 4.503027725005770421e-13 9.802045514237939239e-14 1.458161662162144045e-13
5.402000000000000000e+03 1.568812561035156250e+01 -6.386139392852783203e+00 -6.848115011257732698e-14 1.640188331019417495e-14 -1.562378021012153506e-14 7.603948937520699225e-14
5.403000000000000000e+03 4.830163955688476562e+01 -1.695991134643554688e+01 3.047982330937892836e-14 5.881373269260234404e-14 2.678806578415484502e-14 -4.184790331645572847e-14
5.404000000000000000e+03 4.655886173248291016e+00 -2.414181137084960938e+01 5.224059777971488960e-14 -9.198854378960133471e-14 -1.192438414177911243e-14 -8.300387558269478605e-14
5.405000000000000000e+03 6.498341369628906250e+01 -1.626672172546386719e+01 -9.404209046692466045e-14 1.116606519025549124e-14 -2.486280732889086659e-14 1.986927874834953922e-14
5.406000000000000000e+03 3.179596519470214844e+01 -1.450422000885009766e+01 -4.082532448494886890e-14 -6.324751649060961212e-14 -3.122185127622800760e-14 -5.146309946116658929e-14
5.407000000000000000e+03 3.888640594482421875e+01 -3.921636343002319336e+00 5.831001236326557868e-14 -3.181421055417632537e-13 -7.794962998642837593e-14 1.632794648185470487e-13
5.408000000000000000e+03 4.262023925781250000e+01 -1.639736366271972656e+01 -1.359864725301385482e-14 -3.603978552223219278e-13 -1.121989464227327038e-13 -8.520058438063124462e-14
5.409000000000000000e+03 4.168275451660156250e+01 -1.919351577758789062e+01 1.869317858328462673e-14 3.088683619306177575e-14 1.487400527993686800e-14 -8.748954523091906355e-14
5.410000000000000000e+03 3.245846176147460938e+01 3.842514514923095703e+00 -1.047959801076837894e-13 2.371385965198313794e-14 -2.432463647552337432e-14 1.584888768618383792e-13
5.411000000000000000e+03 3.392600631713867188e+01 3.098745346069335938e+00 -2.003201884969232904e-13 1.886541866735064188e-13 -3.499802495200840177e-15 1.224146652101243404e-13
5.412000000000000000e+03 7.549893951416015625e+01 -3.176046180725097656e+01 -2.678180451660874123e-14 2.172768258715263023e-13 5.714850657588185778e-14 -2.227667428642129618e-15
5.413000000000000000e+03 7.545590209960937500e+01 -1.163250327110290527e+00 -1.225475612914167511e-13 1.304834197505058691e-13 2.380756563638846031e-15 -6.366858673308509187e-14
5.414000000000000000e+03 7.477420043945312500e+01 -8.356611132621765137e-01 -8.293849141543033210e-14 -1.270469596496501263e-13 -6.299563599715049533e-14 -2.055297833238479283e-14
5.415000000000000000e+03 7.197444915771484375e+01 -4.753140926361083984e+00 2.062376995798451823e-14 -8.266313794493690414e-14 -1.861181090430548413e-14 5.597412588769987152e-14
5.416000000000000000e+03 5.914435195922851562e+01 -1.542971038818359375e+01 -4.327601102992184590e-14 2.416616711430064068e-13 5.951569261291450585e-14 1.592558651955771482e-14
5.417000000000000000e+03 5.456566619873046875e+01 -2.378767585754394531e+01 -5.209364772776163555e-14 -2.510805962013112902e-13 -9.095227012940326761e-14 1.128510398193741104e-13
5.418000000000000000e+03 2.476435899734497070e+00 -9.680925369262695312e+00 -4.335280303691992076e-14 1.987372397725672979e-13 4.661533000425467643e-14 -5.168583524497658011e-14
5.419000000000000000e+03 6.033340454101562500e+01 -8.287625312805175781e+00 -2.106027652889076035e-14 1.739779652808193244e-13 4.587530442329290636e-14 9.243837927096557050e-14
5.420000000000000000e+03 6.064629745483398438e+01 -8.695445060729980469e+00 -1.771156463679923743e-13 1.070970907985670240e-13 -2.100556667082760509e-14 -9.780364181293660364e-14
5.421000000000000000e+03 1.261872577667236328e+01 -5.208172321319580078e+00 -1.153091023272517779e-13 -4.611767239794117845e-13 -1.729457506025044999e-13 -1.206528908899440200e-13
5.422000000000000000e+03 3.875191926956176758e+00 -2.059659194946289062e+01 -3.399950651488477422e-15 -4.720807010821607974e-14 -1.518240658790036973e-14 -4.154339497191780750e-14
5.423000000000000000e+03 6.015609359741210938e+01 -1.424914836883544922e+01 1.006943823027989238e-13 2.719094751874734373e-13 1.117811558918289927e-13 5.435461244507680534e-15
5.424000000000000000e+03 7.507717895507812500e+01 -1.281883525848388672e+01 -2.797202810903617193e-14 1.710157894203173656e-13 4.291312517465915854e-14 -6.516898701453346932e-14
5.425000000000000000e+03 4.431689834594726562e+01 -1.349301433563232422e+01 -3.986973918330624644e-14 -1.543398790932251630e-13 -5.826288345008034941e-14 1.086861381601432475e-13
5.426000000000000000e+03 4.480646896362304688e+01 -1.274291324615478516e+01 7.158336423618294475e-14 -2.895780674711662117e-13 -6.539841097049498009e-14 9.383754895082169201e-14
5.427000000000000000e+03 7.645426940917968750e+01 -1.018313598632812500e+01 2.312896510599238287e-13 9.912413907265174573e-14 9.912413907265174573e-14 -8.861651240284554309e-14
5.428000000000000000e+03 4.367822647094726562e+01 -1.877326250076293945e+00 -5.416873953513132167e-14 4.541124895281016538e-14 -2.627246962938110074e-15 -1.245227065991422188e-13
5.429000000000000000e+03 5.823314666748046875e+01 -1.017436504364013672e+01 -6.281648514067442179e-14 3.848371816529694289e-13 9.660620827606214434e-14 1.109451953592612006e-13
5.430000000000000000e+03 7.256362152099609375e+01 -1.918208312988281250e+01 6.758751680069688406e-14 -2.912905648026070660e-13 -6.711091507819941238e-14 -3.171927306856898998e-14
5.431000000000000000e+03 2.447172164916992188e+01 -7.800589203834533691e-01 -3.610469128528803751e-13 -6.323250029052068788e-14 -1.272838307192838969e-13 -2.678711541318802569e-14
5.432000000000000000e+03 2.995728492736816406e+01 -1.227010917663574219e+01 -1.510706978350567775e-13 1.525724262641664497e-13 4.505171840680978913e-16 -4.975181508090620319e-14
5.433000000000000000e+03 6.462051391601562500e+01 2.487167358398437500e+00 5.162470995937092078e-14 -2.362607315732970226e-14 8.399591210018955006e-15 -1.639252698425880395e-13
5.434000000000000000e+03 6.047922134399414062e+01 -5.647982954978942871e-01 -1.556872713430815236e-13 2.477878166052323999e-14 -3.927254707417407453e-14 -3.772447239032243604e-14
5.435000000000000000e+03 2.038841247558593750e+01 -1.035907745361328125e+01 -1.184255872619527361e-13 -7.362930116950813786e-14 -5.761646856231733560e-14 -2.617796150477472855e-14
5.436000000000000000e+03 7.115315246582031250e+01 -1.946972274780273438e+01 1.347009390964201692e-14 -1.314799506248187644e-13 -3.540295498167395083e-14 -9.597099455199362139e-14
5.437000000000000000e+03 6.492111206054687500e+01 2.329907119274139404e-01 -1.450344022397437316e-13 -1.250651600510910288e-13 -8.102986868725042813e-14 -1.808184271799920251e-13
5.438000000000000000e+03 3.729665374755859375e+01 -1.992245864868164062e+01 6.033681990450998067e-14 2.983163431110789042e-15 1.899599625005982811e-14 6.285012928933936260e-14
5.439000000000000000e+03 3.823641586303710938e+01 -1.918518066406250000e+01 4.520228931285431850e-14 -7.212949042299104940e-14 -8.078159994227840368e-15 3.341250548265749243e-14
5.440000000000000000e+03 4.763919830322265625e+01 -1.663423538208007812e+01 -4.272293917294625598e-14 -2.013136293950446021e-13 -7.321096853751818401e-14 7.807625124764752678e-14
5.441000000000000000e+03 4.689848327636718750e+01 -2.594888806343078613e-01 -2.287965010592390991e-13 -3.514809293224049891e-14 -7.918338429608109963e-14 1.241666190303141945e-14
5.442000000000000000e+03 4.160244750976562500e+01 -4.717377185821533203e+00 4.463213110726671484e-14 -2.662289266537436194e-14 5.402771701974295321e-15 1.642125156556609178e-13
5.443000000000000000e+03 4.059509658813476562e+01 -5.462363719940185547e+00 1.414178341351815180e-14 -1.769430278296055259e-13 -4.884037374834268586e-14 2.020887255281544892e-13
5.444000000000000000e+03 5.813146972656250000e+01 -1.152284049987792969e+01 -4.378281794731840593e-14 2.786171087679895075e-13 7.045028487450907817e-14 1.319935100888708357e-13
5.445000000000000000e+03 5.740395355224609375e+01 -1.162322711944580078e+01 -2.171314614652503083e-13 -2.303091799302908749e-13 -1.342321978396732174e-13 9.601171989609760815e-14
5.446000000000000000e+03 3.351638412475585938e+01 -1.499683094024658203e+01 2.452894929273058411e-14 -1.496159153600157277e-13 -3.752609049781190087e-14 2.323288723947783407e-14
5.447000000000000000e+03 7.649557495117187500e+01 -9.559237360954284668e-01 -1.104384731451593660e-13 -4.133383631026166238e-13 -1.571330549400909438e-13 -7.636151774922592117e-14
5.448000000000000000e+03 7.719110107421875000e+01 -2.079529762268066406e+00 -1.023810671522051505e-14 -3.475198644478649790e-13 -1.073273956687936792e-13 -1.785217210604345128e-13
5.449000000000000000e+03 3.554319000244140625e+01 6.877364635467529297e+00 8.226434128084242348e-14 -1.934986052680789936e-13 -3.337027919617097105e-14 1.030649632478841671e-13
5.450000000000000000e+03 2.229476165771484375e+01 -1.156820201873779297e+01 1.349793215567329785e-13 -1.937819344008037681e-13 -1.764078419203441578e-14 1.816456598850713089e-13
5.451000000000000000e+03 2.270988273620605469e+01 -1.232324314117431641e+01 -8.043096218343301351e-14 1.027824337142616007e-13 6.705440612215628898e-15 1.308743559488498298e-13
5.452000000000000000e+03 7.453776550292968750e+01 -7.169868469238281250e+00 8.362822695624771985e-14 -9.910280400677630441e-15 2.211538481370397408e-14 1.121008057973320315e-13
5.453000000000000000e+03 6.142637634277343750e+01 -1.334390735626220703e+01 3.429637758685377680e-14 3.807060461151479114e-13 1.245007244000950752e-13 1.263366445963462481e-13
5.454000000000000000e+03 1.904866981506347656e+01 -1.051873111724853516e+01 -1.148288278698950116e-13 -1.864651960397853414e-13 -9.038820717290410589e-14 1.021133047909850156e-13
5.455000000000000000e+03 5.777822113037109375e+01 -1.977506637573242188e+01 -1.747295138979955420e-14 4.042701232370021769e-13 1.160391498600948923e-13 -1.830126829705132352e-14
5.456000000000000000e+03 2.977959442138671875e+01 -1.032057762145996094e+01 -8.481724437375826042e-14 -1.736030888271553052e-13 -7.752609996027406969e-14 1.078776672348456464e-14
5.457000000000000000e+03 4.186960220336914062e+01 -3.314357042312622070e+00 -1.536274498456849380e-13 -2.008938873002304171e-14 -5.211505055627285721e-14 -3.283832556463632535e-14
5.458000000000000000e+03 4.818533706665039062e+01 2.948969364166259766e+00 -2.514031734526800399e-13 3.955162206862455898e-13 4.323391349244330717e-14 1.711761700266822839e-13
5.459000000000000000e+03 3.792625045776367188e+01 -4.569190025329589844e+00 -5.046090024237066818e-14 -5.706375042630051908e-13 -1.863295216904259366e-13 7.881541285500309746e-14
5.460000000000000000e+03 5.253119659423828125e+01 5.865701675415039062e+00 -1.082749409337009638e-13 1.366002444621802758e-13 8.497592922016277556e-15 -1.028199945432746454e-13
5.461000000000000000e+03 5.225626754760742188e+01 -1.769218683242797852e+00 -2.516222636066850482e-13 2.941473020018348095e-14 -6.666226544296133261e-14 6.306430665225029597e-14
5.462000000000000000e+03 5.130516433715820312e+01 -1.331753015518188477e+00 -2.253488465709524435e-13 2.122408287530755389e-13 -3.932403820703766345e-15 -1.157298066514940438e-14
5.463000000000000000e+03 4.324641799926757812e+01 -1.782507514953613281e+01 -1.912818759994012324e-14 -3.742053867293593239e-13 -1.180000785668336438e-13 -1.035538435599850371e-13
5.464000000000000000e+03 2.645170211791992188e+01 -7.092451453208923340e-01 -3.902185920310469180e-14 5.208500189306242145e-13 1.445484357209814164e-13 -8.324052303563048150e-14
5.465000000000000000e+03 5.560168075561523438e+01 -5.097445011138916016e+00 -2.280355537644801478e-13 -1.434804694760288823e-13 -1.114548042616472778e-13 1.292546392183194226e-13
5.466000000000000000e+03 5.530115127563476562e+01 -4.514026165008544922e+00 -7.347985067629458911e-14 6.001052926070046811e-14 -4.040796085865057397e-15 1.395476887256635878e-13
5.467000000000000000e+03 4.378643798828125000e+01 1.189294815063476562e+00 -8.902581227548597709e-14 -1.296558211271933714e-13 -6.560449069843016234e-14 -8.209397246196348252e-14
5.468000000000000000e+03 3.009620285034179688e+01 -8.476084709167480469e+00 3.489828597543626065e-14 -3.968021386729220223e-13 -1.085711517434875817e-13 -5.317828358111613418e-14
5.469000000000000000e+03 3.103787994384765625e+01 -1.304913425445556641e+01 -1.033080074936375270e-13 -4.427485938637842899e-14 -4.427485938637842899e-14 -1.163766619963896298e-13
5.470000000000000000e+03 4.176985549926757812e+01 -1.832450103759765625e+01 -5.574583017962410347e-14 -3.441477246408919388e-13 -1.199680681402207072e-13 -3.508268843618531085e-14
5.471000000000000000e+03 4.499872589111328125e+01 -1.394829273223876953e+01 6.922606307364475436e-15 -4.545426535162988557e-13 -1.342860149250099666e-13 1.984452505749897955e-13
5.472000000000000000e+03 4.538728713989257812e+01 -1.321899223327636719e+01 -5.483158516800517440e-15 -2.311046590642434895e-13 -7.097634654486262296e-14 2.139009320145310311e-13
5.473000000000000000e+03 1.081728458404541016e+01 -4.541488647460937500e+00 8.285647829734538172e-14 3.550992169038501289e-14 3.550992169038501289e-14 -2.145808216443695349e-14
5.474000000000000000e+03 1.121389675140380859e+01 -5.081367969512939453e+00 -8.820511188849591844e-14 -8.355313917953952063e-14 -5.152747396515791611e-14 -8.665180254103024837e-14
5.475000000000000000e+03 6.699736022949218750e+01 4.913425922393798828e+00 6.742929104614978075e-14 9.752469014648323942e-14 4.948619232491083264e-14 -1.815542701122602534e-15
5.476000000000000000e+03 1.671153068542480469e+01 -8.057147026062011719e+00 -3.333679767783190306e-14 8.588275422316375696e-15 -7.424557184874426563e-15 3.717473784315902807e-14
5.477000000000000000e+03 1.773181152343750000e+01 -8.808844566345214844e+00 1.055004065879383557e-13 1.376068211472476072e-14 3.577832610257916657e-14 4.971861138937383462e-14
5.478000000000000000e+03 2.753448677062988281e+01 -3.083039760589599609e+00 -1.307931627586578216e-13 2.985156338699418432e-13 5.031674201101156430e-14 -1.400585783418659136e-13
5.479000000000000000e+03 5.126563644409179688e+01 5.309481620788574219e+00 -2.392720692260576210e-14 1.384360697907413562e-13 3.435265784400114153e-14 -7.138481971334653675e-14
5.480000000000000000e+03 7.612298583984375000e+01 -2.958755111694335938e+01 4.658079816506101312e-14 1.343405773993402996e-13 5.427641097525449931e-14 1.080452662559870658e-13
5.481000000000000000e+03 5.718321228027343750e+01 -8.195843696594238281e+00 -6.974031541064767969e-14 -7.563965594278507232e-14 -4.361399072840346780e-14 9.731132593520167018e-14
5.482000000000000000e+03 6.129766845703125000e+01 -7.255557775497436523e-01 -2.554204677623905795e-13 4.911457864215963698e-15 -7.515270008954036407e-14 8.111600854985440145e-14
5.483000000000000000e+03 6.210791015625000000e+01 -2.120207399129867554e-01 -1.642000608832044906e-13 1.126323426886566281e-13 -1.547031308667210642e-14 -1.097454104589251633e-13
5.484000000000000000e+03 6.605141448974609375e+01 -1.834459495544433594e+01 -1.200290680649501729e-13 -1.829750137212829419e-13 -9.090122453586993445e-14 8.808436225966713440e-15
5.485000000000000000e+03 7.134780120849609375e+01 -3.261257171630859375e+00 8.159208850005636449e-14 9.215672387534457055e-14 5.212464235736756490e-14 2.718655751638831414e-14
5.486000000000000000e+03 7.087624359130859375e+01 -2.788610458374023438e+00 -1.154194470033564901e-13 2.078836099572364815e-13 2.773924990260353413e-14 -7.352672886772743110e-15
5.487000000000000000e+03 3.381449508666992188e+01 6.678645610809326172e-01 -3.693833433571214186e-13 2.469664995782567402e-14 -1.034060058175030605e-13 1.636571737503866864e-13
5.488000000000000000e+03 3.423090362548828125e+01 3.742789983749389648e+00 1.444628413475954748e-14 5.194221517745151173e-14 1.991654996306990721e-14 2.718442604267984342e-13
5.489000000000000000e+03 4.700765609741210938e+01 1.842903614044189453e+00 -2.055106844249532383e-13 -1.338269501726524480e-13 -1.018012917345344215e-13 2.814520230103641912e-15
5.490000000000000000e+03 6.925543975830078125e+01 4.337650835514068604e-01 2.635947558317364159e-14 1.129691822807912457e-14 1.129691822807912457e-14 7.637305772609931376e-14
5.491000000000000000e+03 5.875535964965820312e+00 -2.443329429626464844e+01 4.477911165240607005e-14 -3.684426455065597378e-15 1.232840530509225763e-14 -2.830208635539507162e-14
5.492000000000000000e+03 6.987636566162109375e+01 -3.570913076400756836e+00 1.871177603867454214e-14 1.881636936106739766e-13 6.206263937014525056e-14 -2.335427171950058521e-15
5.493000000000000000e+03 2.844776153564453125e+01 -8.023365974426269531e+00 4.593812716292486331e-14 -1.175650831027053034e-13 -2.148808407142870081e-14 -1.039586507698732343e-13
5.494000000000000000e+03 2.877245712280273438e+01 -8.666590690612792969e+00 4.267142262909424943e-14 1.097896526838261499e-13 4.573832225506294091e-14 8.468614400231402883e-14
5.495000000000000000e+03 7.607917022705078125e+01 6.781373172998428345e-02 -9.900844114832038634e-14 2.619423470175737817e-14 -2.184426142574913410e-14 -5.197009611394333428e-14
5.496000000000000000e+03 7.584542846679687500e+01 -1.410298919677734375e+01 -2.657450336716361827e-14 -5.714002269388215871e-14 -2.511435747950055419e-14 -8.430285820554966891e-14
5.497000000000000000e+03 6.945094299316406250e+01 -1.814504384994506836e+00 -3.000575252132785253e-14 8.436116117737507691e-14 1.630662259681416731e-14 6.236520631516806468e-14
5.498000000000000000e+03 4.489287948608398438e+01 -9.672619104385375977e-01 -1.218433177702787917e-13 8.503428131989912431e-14 -1.104270924104800572e-14 1.861221578605427168e-14
5.499000000000000000e+03 4.441463470458984375e+01 -8.769583702087402344e-01 -1.381401097027071256e-13 -1.049538534965248349e-13 -7.292818828214323035e-14 4.663767812153503389e-14
5.500000000000000000e+03 3.329838991165161133e+00 -7.384897232055664062e+00 -1.665504959966722376e-14 8.436402076060500743e-14 2.031269033184179840e-14 -8.032669581575779816e-14
5.501000000000000000e+03 7.310388183593750000e+01 -1.711720848083496094e+01 5.943447231766818550e-14 -4.315450584770411102e-14 4.883989432769453992e-15 -5.168730569417301357e-14
5.502000000000000000e+03 7.030592346191406250e+01 -1.176955476403236389e-01 -1.678239524346286649e-13 -2.617359928509636890e-14 -5.819926111134618441e-14 -5.017881201291362128e-15
5.503000000000000000e+03 5.230202865600585938e+01 -2.071872329711914062e+01 -4.432553906167854829e-14 6.106749762986585228e-14 5.022588163379254275e-15 -4.170569326087530948e-14
5.504000000000000000e+03 5.740874862670898438e+01 -2.222914123535156250e+01 -3.808340768391912934e-14 -8.494788395927918567e-14 -3.690938952583856791e-14 1.240387729594533139e-13
5.505000000000000000e+03 5.938982391357421875e+01 -1.821090888977050781e+01 -1.487598699822026416e-13 -1.552561247966655067e-13 -9.120480114416587569e-14 6.804825529015817720e-14
5.506000000000000000e+03 7.617686462402343750e+01 -3.291901397705078125e+01 9.504642082061587338e-14 -5.016768199998669978e-15 2.700889574383351366e-14 -1.002646248904164039e-13
5.507000000000000000e+03 5.946250915527343750e+00 -2.605247688293457031e+01 4.210442216233400980e-14 -5.058167019999018632e-14 -2.543175131274858121e-15 1.856349106279641531e-14
5.508000000000000000e+03 7.342356681823730469e+00 -2.666980552673339844e+01 -2.894693762033745399e-14 1.189936109445132589e-14 -5.114272703655954252e-15 -5.879479981216531592e-14
5.509000000000000000e+03 5.328456115722656250e+01 -1.608669042587280273e+00 -1.676211388657380952e-13 1.111661625382773244e-13 -1.693649154298551562e-14 -2.811546466832421515e-14
5.510000000000000000e+03 6.142009353637695312e+01 -1.372042059898376465e+00 -1.811648433266282998e-13 3.341164693006215547e-13 4.588548575931890305e-14 2.156715967925257327e-14
5.511000000000000000e+03 5.586525440216064453e+00 -5.540879726409912109e+00 -1.576227619563483340e-13 -1.590545051352240669e-13 -9.500318148272443586e-14 -5.890469725487387787e-14
5.512000000000000000e+03 6.589482116699218750e+01 5.860920429229736328e+00 -1.748321268573577170e-13 1.080757391132974865e-13 -2.002691496796535353e-14 -1.462346004921580289e-13
5.513000000000000000e+03 4.126233291625976562e+01 -3.755442619323730469e+00 -8.205951516166917759e-14 -3.096740528937824699e-13 -1.175200751600199989e-13 1.871946608139607449e-13
5.514000000000000000e+03 6.782694816589355469e+00 -4.793395519256591797e+00 -1.852885249745139795e-13 -2.624131651991074010e-13 -1.343105043415809829e-13 1.511166273495886947e-13
5.515000000000000000e+03 1.937028694152832031e+01 -1.127003765106201172e+01 4.176014392685660492e-14 -7.360469655645629494e-14 -9.553364433627191399e-15 1.156145898418767248e-13
5.516000000000000000e+03 2.018937301635742188e+01 -1.102353954315185547e+01 4.104423167983727028e-14 -5.103603900168812713e-14 -2.997541603632193977e-15 1.887330623815547392e-13
5.517000000000000000e+03 6.015046310424804688e+01 -7.007676124572753906e+00 -7.685308823796727085e-14 1.043158072942806935e-13 8.238815039267669005e-15 -1.195220917409641620e-14
5.518000000000000000e+03 5.965050888061523438e+01 -7.392258167266845703e+00 -6.989540375515815307e-14 4.275543135680293094e-13 1.072976749767404203e-13 -1.142591473908896593e-13
5.519000000000000000e+03 5.929184722900390625e+01 -1.154372787475585938e+01 -1.009822583083845593e-13 2.472836880060150580e-15 -2.955282706377203306e-14 -2.108748322715656848e-14
5.520000000000000000e+03 5.865278625488281250e+01 -1.114849567413330078e+01 -1.766813962928576176e-13 1.072831941014741608e-13 -2.081946167385457375e-14 9.711717920742740651e-14
5.521000000000000000e+03 6.848695373535156250e+01 3.635385334491729736e-01 -8.512767856079517248e-14 7.789408495387922793e-14 -2.170078082074783365e-15 -6.797435335957613400e-14
5.522000000000000000e+03 6.831748962402343750e+01 -1.278559714555740356e-01 -1.097550395294695502e-13 1.359659184286404754e-13 7.863264347377635355e-15 -5.323709138457810575e-14
5.523000000000000000e+03 6.015729904174804688e+01 -4.594738483428955078e+00 -1.874439866560509427e-13 1.026706592465419232e-13 -2.543199991691860035e-14 -1.211208461001159198e-13
5.524000000000000000e+03 5.941911315917968750e+01 -4.524057865142822266e+00 -2.332838512208307291e-13 1.287759504066399163e-13 -3.135236550087273921e-14 4.038336979812588712e-14
5.525000000000000000e+03 2.971188545227050781e+01 -1.143606853485107422e+01 -2.103422687763090160e-13 1.355211316871583489e-15 -6.269611837073779670e-14 -1.209564149821972315e-14
5.526000000000000000e+03 3.191594123840332031e+01 1.776741743087768555e+00 -1.106475818629139296e-13 -9.317134059714723970e-14 -6.114567538276563519e-14 -1.803789356649796588e-14
5.527000000000000000e+03 5.726155090332031250e+01 -6.804730892181396484e+00 -1.316459555299534512e-13 8.083315375558008942e-14 -1.524384188756472414e-14 1.889285304807267196e-13
5.528000000000000000e+03 5.677169036865234375e+01 -5.885778427124023438e+00 -5.870854475308051601e-14 -2.285331737625307877e-15 -1.829816307426668925e-14 1.094690541014221863e-13
5.529000000000000000e+03 5.089750671386718750e+01 8.562470436096191406e+00 6.234077788496925066e-14 2.783476845281268597e-13 1.022065394015551909e-13 3.874809391938736566e-15
5.530000000000000000e+03 5.645251750946044922e+00 -4.874829769134521484e+00 -1.315813506330004712e-13 -1.478939041545113131e-13 -8.384258050201168211e-14 -1.149324775975846258e-13
5.531000000000000000e+03 3.864921569824218750e+01 -3.310122966766357422e+00 -1.451525802765446516e-13 -4.968422591747345685e-13 -1.925984464143729036e-13 7.325925619177525716e-14
5.532000000000000000e+03 3.951833343505859375e+01 -3.808349370956420898e+00 -7.875076730046864926e-14 -3.082560248723886787e-13 -1.161020335860990516e-13 2.330688810350811657e-13
5.533000000000000000e+03 7.624047088623046875e+01 -1.448178577423095703e+01 9.711113478031579982e-14 -3.844510091679208263e-14 1.759980982024393625e-14 -1.007310283362289338e-13
5.534000000000000000e+03 4.213684082031250000e+01 -3.780047416687011719e+00 -2.439260002751880707e-13 -2.875435078843885384e-13 -1.594408470268621203e-13 4.273853474357110216e-14
5.535000000000000000e+03 5.205158996582031250e+01 -2.139754867553710938e+01 -1.664930332815305059e-14 -4.188939505597039092e-13 -1.306629771827966247e-13 -2.755211694644571496e-13
5.536000000000000000e+03 7.576071929931640625e+01 -6.847406387329101562e+00 3.713549650077863085e-14 -2.128395251927220344e-13 -5.271120928520937887e-14 -2.002030472284498097e-14
5.537000000000000000e+03 7.641957855224609375e+01 -6.767486572265625000e+00 9.183431603056527170e-14 -5.214433417932533288e-14 1.190699370833903439e-14 -9.448502771196645722e-14
5.538000000000000000e+03 7.649901580810546875e+01 -1.529738712310791016e+01 -4.229035267051990676e-14 -8.675085796201395527e-14 -3.871236352857333751e-14 1.034479962053137716e-15
5.539000000000000000e+03 5.557944107055664062e+01 -5.790140151977539062e+00 9.418925735931241161e-14 8.611777198470893513e-14 5.409211015845911963e-14 1.699380518032853060e-13
5.540000000000000000e+03 5.646295928955078125e+01 -6.866916656494140625e+00 -8.352868364428639447e-14 -1.272999040164909945e-13 -6.324857358772778548e-14 -3.748787914749536487e-14
5.541000000000000000e+03 4.572990798950195312e+01 -4.093567132949829102e-01 -2.012727549731418986e-13 3.955536121086691836e-14 -4.851521812868249406e-14 9.027554501465570591e-14
5.542000000000000000e+03 6.997027587890625000e+01 -2.487218379974365234e+00 -1.215306338637339723e-13 1.766701883528995487e-13 1.654186397505742062e-14 4.541881803922682981e-14
5.543000000000000000e+03 7.625920867919921875e+01 -2.811502838134765625e+01 2.013473209775545891e-14 -8.287272777740550822e-14 -1.882139734864229919e-14 6.877696112281284080e-14
5.544000000000000000e+03 4.229023742675781250e+01 -2.435210466384887695e+00 -2.169319140554043512e-13 9.003297510735280840e-14 -3.806968236204182066e-14 8.792612634072466404e-14
5.545000000000000000e+03 3.567376375198364258e+00 -1.171887683868408203e+01 -9.660992844476648522e-14 2.102259609882556335e-13 3.408481247355217569e-14 -3.064445940927085221e-14
5.546000000000000000e+03 4.762401962280273438e+01 -1.804206657409667969e+01 2.256907598904411144e-14 -1.962068067696762230e-13 -5.209132008122258073e-14 3.439597172079193743e-14
5.547000000000000000e+03 4.840619277954101562e+01 -1.771033859252929688e+01 -1.018633894139635288e-13 -8.940668572241655676e-14 -5.738102728429853028e-14 1.259538331380323506e-14
5.548000000000000000e+03 5.057414627075195312e+01 -1.718566298484802246e+00 -2.426163653659885178e-13 -1.954803371040023108e-13 -1.314290066752391017e-13 1.634261031623757132e-13
5.549000000000000000e+03 6.315150070190429688e+01 8.003445863723754883e-01 -3.451254378312486326e-14 -6.054203904697075256e-14 -2.851637383258914804e-14 -6.594284986767215417e-14
5.550000000000000000e+03 6.372114562988281250e+01 -8.253385871648788452e-02 -6.642022408421752178e-14 6.303609029071136072e-14 -1.015240032172729911e-15 -1.036278132532028606e-13
5.551000000000000000e+03 6.532445526123046875e+01 7.259522080421447754e-01 -5.159682902287909823e-14 9.226444613744458345e-14 1.220028479555646667e-14 -1.311583356028780956e-13
5.552000000000000000e+03 6.474565887451171875e+01 1.062800288200378418e+00 -6.788012772045767113e-15 2.029701276842765800e-13 5.885463421955935970e-14 -1.926640270932811205e-13
5.553000000000000000e+03 3.439766311645507812e+01 2.020399808883666992e+00 -2.531902367885335847e-13 -2.457629369109759487e-13 -1.496859548203582913e-13 1.429497796176515401e-13
5.554000000000000000e+03 4.152717590332031250e+00 -1.007381725311279297e+01 -3.478479372489955146e-14 -8.353419274657533644e-14 -3.549569492500292966e-14 -9.280492769669218545e-14
5.555000000000000000e+03 1.468802642822265625e+01 -4.747919082641601562e+00 -1.020873923590626120e-13 -2.267555311271166052e-13 -9.865287704585376516e-14 4.404773936003344992e-14
5.556000000000000000e+03 5.487554550170898438e+01 -5.834070205688476562e+00 -9.879205472348301376e-14 3.411496769350737604e-15 -2.861416886854734054e-14 1.343671945626748188e-13
5.557000000000000000e+03 7.723081970214843750e+01 -1.143424510955810547e+01 -4.222090952137221020e-14 -2.926003623421324917e-13 -1.004463846083700207e-13 2.989912123766390317e-14
5.558000000000000000e+03 7.737744903564453125e+01 -9.961487770080566406e+00 9.686720284403371739e-14 -2.329911708443682672e-13 -4.083718972247400714e-14 -2.967763906261584872e-14
5.559000000000000000e+03 7.611788177490234375e+01 -1.536009073257446289e+00 1.335530129412468292e-13 -1.486422611515422765e-13 -4.526772769022739673e-15 1.733950812522321722e-14
5.560000000000000000e+03 7.652046203613281250e+01 -1.328169155120849609e+01 -2.500430248866380295e-14 1.722876669888601109e-13 4.418500951946548183e-14 -7.727995218580197001e-14
5.561000000000000000e+03 7.629317474365234375e+01 -4.553396701812744141e+00 7.830602079305151730e-14 -1.494440693156767752e-13 -2.134141523441393518e-14 -7.083220864229425318e-14
5.562000000000000000e+03 3.459179306030273438e+01 2.773932218551635742e+00 -4.782240955233246771e-14 -1.119972170560146196e-13 -4.794588662725141059e-14 2.004786175393777348e-13
5.563000000000000000e+03 6.634392547607421875e+01 -1.889294052124023438e+01 -2.339492633635347624e-14 -1.015282964037661495e-13 -3.747696597500294047e-14 4.525718382409997520e-14
5.564000000000000000e+03 1.555914306640625000e+01 -7.105645656585693359e+00 -9.407321384553857246e-14 5.433857811138528143e-15 -2.659180655621012912e-14 9.608339243596247803e-14
5.565000000000000000e+03 7.636180114746093750e+01 -1.598406410217285156e+01 -5.280244828615582309e-14 -6.838057003228856234e-14 -3.635490481790695783e-14 6.110668476213762523e-15
5.566000000000000000e+03 6.671100616455078125e+01 3.377750635147094727e+00 5.331053930550042064e-14 1.601002181305863359e-13 6.402322926370510037e-14 -2.336061845267106696e-13
5.567000000000000000e+03 3.979131698608398438e+00 -7.245992660522460938e+00 4.666528546638489330e-15 1.999940714948679650e-15 1.999940714948679650e-15 -2.451426004735930003e-14
5.568000000000000000e+03 7.252568054199218750e+01 -5.984248638153076172e+00 9.059594030915232854e-14 1.989551508567097282e-13 8.686532938263769044e-14 3.955634376908573335e-14
5.569000000000000000e+03 7.261248016357421875e+01 -5.275366783142089844e+00 3.893678660201425890e-14 1.081890924504308460e-13 4.413776202166763696e-14 -2.063612139242138044e-13
5.570000000000000000e+03 4.353919029235839844e+00 -1.897155189514160156e+01 -8.514173253145601583e-14 -8.224026521634966724e-14 -5.021460000196806273e-14 -1.032230467008961317e-13
5.571000000000000000e+03 3.471894264221191406e+00 -1.844676208496093750e+01 -9.138166670575025713e-15 4.183459134665667989e-14 9.808927826340969880e-15 -2.319756257744554073e-14
5.572000000000000000e+03 7.728076934814453125e+01 -1.236532807350158691e+00 -3.079352365546045300e-14 -1.046991201960993656e-13 -4.064779315546794558e-14 -5.437799394255281304e-14
5.573000000000000000e+03 2.669130897521972656e+01 -2.320518255233764648e+00 -9.037250657019380018e-14 1.900236695426271716e-13 2.989535024698272703e-14 2.526146338551610304e-14
5.574000000000000000e+03 7.525670623779296875e+01 -7.593970775604248047e+00 5.928241973924067154e-14 -2.490989456805509095e-13 -5.694495439426128236e-14 6.163207558239694461e-14
5.575000000000000000e+03 7.599431610107421875e+01 -8.529376029968261719e+00 1.311189655114897157e-13 -1.639825970324582105e-13 -9.859090811543264055e-15 -9.246450854332247116e-14
5.576000000000000000e+03 7.592251586914062500e+01 -9.798949241638183594e+00 -1.501916131610783744e-13 -1.558697290161836779e-13 -9.181839858742046889e-14 -5.911660202838732794e-15
5.577000000000000000e+03 6.033274459838867188e+01 -1.114395046234130859e+01 -1.622315698663126526e-13 -2.067806646396941339e-13 -1.107036689965493204e-13 4.539122509393707372e-14
5.578000000000000000e+03 6.001142120361328125e+01 -1.185974788665771484e+01 4.771258664852326414e-14 1.920143053888920259e-13 7.191807099935637604e-14 8.733499221123125489e-14
5.579000000000000000e+03 6.535728454589843750e+01 2.264771223068237305e+00 -1.436169840820719634e-13 5.282723585832427293e-14 -2.723692548356384385e-14 -1.657248421610066358e-13
5.580000000000000000e+03 7.450397491455078125e+01 -1.493585586547851562e+00 -8.558595726657763914e-14 1.005731481711243103e-13 4.496156763144232987e-15 -4.194732465567264923e-14
5.581000000000000000e+03 6.608917999267578125e+01 1.968250393867492676e+00 4.533169223027225248e-14 1.109297658070940162e-13 4.687843876646259622e-14 -2.061697167154985522e-13
5.582000000000000000e+03 4.879574203491210938e+01 8.992466330528259277e-01 -6.458302317415010041e-14 6.382345823716106814e-14 -2.278695710939603264e-16 6.774928654109529935e-14
5.583000000000000000e+03 4.931845855712890625e+01 1.682831764221191406e+00 -1.524183069253476353e-13 -1.957118413728822781e-14 -5.159684935166983233e-14 6.875546681474331567e-14
5.584000000000000000e+03 2.662051677703857422e+00 -1.781577491760253906e+01 2.122129071590022481e-14 1.005967363446394480e-13 3.654540930400802801e-14 -1.629477429994797416e-14
5.585000000000000000e+03 3.856344223022460938e+01 -2.138527679443359375e+01 8.358517057747288925e-14 -7.855515689976153015e-14 1.509003383335402564e-15 6.158267662091307382e-14
5.586000000000000000e+03 4.124631500244140625e+01 -5.885145187377929688e+00 -5.419351101367377369e-15 -3.225792300377144928e-13 -9.839957353704326115e-14 5.062154512301512976e-14
5.587000000000000000e+03 7.679869842529296875e+01 -9.626069068908691406e+00 -4.920249388582105532e-14 -6.683773001205095543e-14 -3.481206818580113993e-14 -1.224394256772384781e-13
5.588000000000000000e+03 7.409401702880859375e+01 -1.896458435058593750e+01 -3.632250072547679731e-14 2.246256972744317681e-13 5.649095828706013345e-14 -5.669805784266380988e-14
5.589000000000000000e+03 7.305966186523437500e+01 -1.881191635131835938e+01 8.325288632852860526e-15 2.108201647651498922e-14 8.822191193997176023e-15 -4.664405458556196427e-14
5.590000000000000000e+03 5.699319076538085938e+01 -5.223768711090087891e+00 -6.571020041024749903e-14 -2.816151446153464244e-14 -2.816151446153464244e-14 1.402597656074977550e-13
5.591000000000000000e+03 5.588718795776367188e+01 -3.885025262832641602e+00 -1.732881145435211101e-13 1.008697909677140278e-14 -4.896033733059641790e-14 5.315742624182294429e-14
5.592000000000000000e+03 4.468046951293945312e+01 -1.478151798248291016e+01 -7.763065770728314052e-14 -1.247721815190311334e-13 -6.072085109026792438e-14 1.536644889024024740e-13
5.593000000000000000e+03 7.476608276367187500e+01 -2.864686012268066406e+00 6.037034885669409490e-14 -2.486326845362735183e-13 -5.647870002624746921e-14 -1.324274755609353149e-13
5.594000000000000000e+03 2.971190643310546875e+01 1.169303059577941895e+00 -1.985153035878595151e-13 -6.220250822665945867e-14 -7.821534083385026093e-14 -5.304625486156171188e-14
5.595000000000000000e+03 7.294693756103515625e+01 -1.692671895027160645e+00 -2.021447347347587326e-14 8.283855508018148073e-14 1.878722295735237718e-14 -7.120825738955727235e-14
5.596000000000000000e+03 7.488441467285156250e+01 -3.072653198242187500e+01 4.695692483935517969e-14 1.116262911640165945e-13 4.757496412338517444e-14 -5.863885765844401021e-14
5.597000000000000000e+03 7.484188842773437500e+01 -3.148100090026855469e+01 6.506570998134064698e-14 -1.551184853308684719e-13 -2.701583294367152638e-14 -4.896972923191557359e-14
5.598000000000000000e+03 6.990910339355468750e+01 -1.976584434509277344e+01 5.335332463373212986e-14 4.574118522642466045e-14 2.972835261923385819e-14 -5.646507973645562006e-14
5.599000000000000000e+03 5.546441650390625000e+01 -3.290068864822387695e+00 -8.526153009525208604e-14 9.210294067132571150e-15 -2.281536945318313886e-14 1.368721488145124843e-13
5.600000000000000000e+03 1.817715263366699219e+01 -9.317447662353515625e+00 -7.864157458917220289e-14 -2.281450581839011837e-13 -9.203599118717473160e-14 8.375127035029766853e-14
5.601000000000000000e+03 7.669486999511718750e+01 -1.261177825927734375e+01 -2.985351020752015361e-14 1.015830079558951993e-13 2.151885000213887150e-14 3.070527976301549999e-14
5.602000000000000000e+03 7.691386413574218750e+01 -1.199671459197998047e+01 3.525456158557857544e-14 -9.926827697522011551e-14 -1.920411393926610422e-14 6.209116066354519736e-14
5.603000000000000000e+03 6.373033523559570312e+01 1.812670469284057617e+00 6.484487409243134756e-15 3.230357062573852023e-13 9.885605653297754869e-14 -5.490452995135682024e-14
5.604000000000000000e+03 3.057773208618164062e+01 -1.258620548248291016e+01 2.284488855139495123e-14 -1.880367572531984471e-14 1.212363974877474042e-15 -1.122247707632285929e-13
5.605000000000000000e+03 3.012702178955078125e+01 -1.319531440734863281e+01 -1.071953669492392569e-13 1.124781403406089828e-14 -2.878426663688316012e-14 -2.646771284130558510e-14
5.606000000000000000e+03 3.559534072875976562e+01 1.237432122230529785e+00 -4.790513688859854291e-13 -3.425605881856447210e-13 -2.464835789899727514e-13 1.120444679419442535e-13
5.607000000000000000e+03 5.369825363159179688e+01 -3.509906053543090820e+00 -1.833788925830609484e-13 4.043299915257141108e-14 -4.288377040083911351e-14 1.411471715331499843e-13
5.608000000000000000e+03 5.306715774536132812e+01 -2.080371379852294922e+00 -2.742530594984637915e-13 -1.175370293714922409e-13 -1.175370293714922409e-13 -1.588354996845137840e-14
5.609000000000000000e+03 1.644026374816894531e+01 -8.650074005126953125e+00 -1.611988130869115854e-13 -2.520889855368857457e-13 -1.239863382318864837e-13 5.532143702689654510e-15
5.610000000000000000e+03 2.609860420227050781e+01 -1.199176216125488281e+01 -2.303038707277774849e-14 3.103864821413226949e-13 8.620682564065146325e-14 2.412494845820817302e-14
5.611000000000000000e+03 2.747534942626953125e+01 -1.081441783905029297e+01 2.590762348576858276e-13 4.312893087370789358e-13 2.071096657889348602e-13 -7.016236143507839640e-14
5.612000000000000000e+03 5.086644363403320312e+01 1.098439693450927734e+00 -1.756110176980713034e-13 2.449947796717699688e-13 2.081512825329642075e-14 1.332397327235071427e-13
5.613000000000000000e+03 5.172096633911132812e+01 1.618690371513366699e+00 -2.230839482326302248e-13 2.246492380141018597e-13 4.695873897216996159e-16 7.931533170047258552e-14
5.614000000000000000e+03 7.599840545654296875e+01 -1.236173534393310547e+01 -3.725806216824632811e-14 -6.171868978345138035e-14 -2.969302456906977583e-14 4.576035781718576154e-15
5.615000000000000000e+03 5.097193527221679688e+01 -5.977210402488708496e-01 -3.076057475143861852e-13 -1.745365767332699575e-14 -9.751781901521511253e-14 9.371260820296989369e-14
5.616000000000000000e+03 5.162670898437500000e+01 -1.713701933622360229e-01 -2.382757348633884886e-13 3.513467593035599079e-14 -6.094231971278882276e-14 -1.420625130289191341e-15
5.617000000000000000e+03 5.746930694580078125e+01 -2.120705032348632812e+01 1.634281292651855455e-14 9.850596087521840127e-14 3.445463044645519224e-14 1.179153481670539017e-13
5.618000000000000000e+03 5.009182739257812500e+01 5.504455566406250000e-01 -3.305584362549122968e-14 1.688370038395448081e-13 4.073434975828196802e-14 1.337755725422037911e-13
5.619000000000000000e+03 6.030206680297851562e+01 -1.361169624328613281e+01 -2.077967653632203926e-13 4.819709288248451295e-14 -4.787989937252851158e-14 9.537764458431019499e-14
5.620000000000000000e+03 6.069578552246093750e+01 -1.458686733245849609e+01 -7.765801348334766541e-14 -7.903295802091231392e-14 -4.700728941839892039e-14 9.975105865010075457e-14
5.621000000000000000e+03 7.242523956298828125e+01 -3.039238214492797852e+00 6.174378228748084174e-14 2.094654202693113643e-13 8.136275941178494620e-14 8.569916830217585990e-14
5.622000000000000000e+03 7.120230865478515625e+01 -2.382953882217407227e+00 -2.926939967522537711e-14 7.895787024420411471e-14 1.490654150950680018e-14 1.081766105729201066e-13
5.623000000000000000e+03 4.961385345458984375e+01 -2.075911521911621094e+01 -1.426879515692598688e-14 -1.776812610888509059e-13 -5.758501314678809990e-14 -1.363856346889497691e-15
5.624000000000000000e+03 7.445941162109375000e+01 -6.592519760131835938e+00 9.609778521980222310e-14 -2.790718773692385524e-13 -5.489222764483089878e-14 4.800870936688336754e-14
5.625000000000000000e+03 2.980367469787597656e+01 -1.387781620025634766e+01 -1.654388499566956938e-14 1.530380910972489739e-13 4.094825945878156903e-14 -6.909638741161780451e-14
5.626000000000000000e+03 3.035650444030761719e+01 -1.400899314880371094e+01 -1.102123356770332019e-13 -1.482910639274352248e-15 -3.350857595953507517e-14 -5.350720341519392409e-14
5.627000000000000000e+03 4.253235244750976562e+01 -1.932710456848144531e+01 1.271111173132069561e-14 -2.004316444802548003e-13 -5.631616117993294701e-14 -1.633226906039113302e-14
5.628000000000000000e+03 4.334109115600585938e+01 -1.935391426086425781e+01 -3.822315795582072184e-14 -1.536341990042086603e-13 -5.755721013732742475e-14 -6.883444416674530664e-14
5.629000000000000000e+03 5.920919418334960938e+01 -1.435901737213134766e+01 -3.525138690609226633e-14 3.223055231992705272e-13 8.611624054914029935e-14 -4.562498077639084298e-15
5.630000000000000000e+03 5.975256729125976562e+01 -1.596160507202148438e+01 -7.672203530036808550e-14 -5.575634694069721287e-14 -3.974351433350641061e-14 1.730475571865008888e-13
5.631000000000000000e+03 3.219074249267578125e+01 2.800144672393798828e+00 -1.407105362132357596e-13 6.551059879029291766e-14 -2.255998054925649476e-14 1.351183298277727762e-13
5.632000000000000000e+03 3.492029953002929688e+01 5.032023429870605469e+00 5.080838703865227235e-14 -2.069797241585624725e-13 -4.685140147478623895e-14 7.548521134331451221e-14
5.633000000000000000e+03 4.105972290039062500e+01 -4.889966011047363281e+00 -1.903337242589037137e-15 -3.668232980823943334e-13 -1.106179899198686534e-13 -1.507173834520980638e-14
5.634000000000000000e+03 4.171664428710937500e+01 -4.159492492675781250e+00 -9.460774584536466025e-14 8.526892977507929960e-14 -2.801643846997718852e-15 -1.140559763740953483e-14
5.635000000000000000e+03 2.068929672241210938e+01 -1.248420429229736328e+01 -1.568151228174049366e-14 -1.897244432955483284e-13 -6.162178921428548839e-14 8.775951834813153218e-14
5.636000000000000000e+03 4.598651885986328125e+01 -1.657931327819824219e+01 -1.608322307798670803e-13 -2.061809382079837771e-13 -1.101039493411025416e-13 5.867578829494429771e-14
5.637000000000000000e+03 7.457391357421875000e+01 -1.799730491638183594e+01 -3.459174813995671838e-14 -1.978288274298231619e-13 -6.972617334856032190e-14 -4.637742555442525560e-14
5.638000000000000000e+03 6.035023880004882812e+01 -9.031700134277343750e+00 -1.852452924128861200e-13 3.781186518406198793e-13 5.786200647306741218e-14 7.701864590970580737e-14
5.639000000000000000e+03 6.087298965454101562e+01 -9.154245376586914062e+00 -2.931396377264632036e-14 4.906973265217384750e-13 1.384150091635408253e-13 6.534296080563592457e-14
5.640000000000000000e+03 3.466086196899414062e+01 -1.911170768737792969e+01 4.117471202316411172e-15 -4.398631930696214609e-14 -1.196065409258054157e-14 8.042621879892838943e-14
5.641000000000000000e+03 3.617850494384765625e+01 -1.801701736450195312e+01 -9.113338610231697112e-14 -3.593138156801622962e-13 -1.351341591794910646e-13 6.360292473901393850e-14
5.642000000000000000e+03 8.546204566955566406e+00 -4.777368068695068359e+00 7.667744748602461913e-14 -8.151561158931466822e-14 -1.451449506272722585e-15 3.388730853069146960e-15
5.643000000000000000e+03 1.023207759857177734e+01 -4.627216815948486328e+00 -4.581280694431269507e-14 -2.026378603759912411e-13 -7.453519951846482305e-14 5.478011415217408277e-16
5.644000000000000000e+03 4.540617752075195312e+01 -1.694515991210937500e+01 -1.027976803073121781e-14 -1.473773360294305945e-13 -4.729713054042218590e-14 2.419385221677505804e-13
5.645000000000000000e+03 4.434396743774414062e+01 -1.684697914123535156e+01 2.905673003096055640e-14 -2.620528035020275315e-13 -6.989882576826506044e-14 9.638384518674894541e-14
5.646000000000000000e+03 4.325908660888671875e+01 -1.685281562805175781e+01 5.717083436437148114e-14 -2.214095606075522360e-13 -4.927161855058058426e-14 -5.214191166509618558e-14
5.647000000000000000e+03 5.562310409545898438e+01 -1.234482407569885254e+00 -1.452180660877627760e-13 2.926558463883094374e-14 -3.478574240180047628e-14 8.561674352607854394e-15
5.648000000000000000e+03 5.166576385498046875e+01 4.818219184875488281e+00 -6.670502366613872969e-14 3.374197351645874532e-13 8.121441344953461705e-14 1.480123498537235655e-14
5.649000000000000000e+03 5.191610336303710938e+01 6.187683105468750000e+00 3.542632292662280247e-14 1.753110325094717203e-13 6.322120425913610453e-14 -6.474719171185513988e-14
5.650000000000000000e+03 5.007124710083007812e+01 -2.809418439865112305e-01 -2.884229042664915310e-13 1.966468302213794650e-13 -2.753282119709408310e-14 9.048067606568996335e-14
5.651000000000000000e+03 7.387318420410156250e+01 -5.997413158416748047e+00 3.875032415713748624e-14 -2.578984118276061999e-13 -6.574442731758015079e-14 2.018775805431947262e-14
5.652000000000000000e+03 4.664719390869140625e+01 1.144475817680358887e+00 -2.463999870024741190e-13 2.832830812374981244e-13 1.106492522118859151e-14 8.143354426112109357e-15
5.653000000000000000e+03 4.858646774291992188e+01 1.438462376594543457e+00 -3.515294338170965593e-13 3.297294891551477702e-13 -6.539984160914289260e-15 4.753897030532455020e-15
5.654000000000000000e+03 1.452061939239501953e+01 -5.467259407043457031e+00 -1.128344650786622383e-13 -1.627350055925791406e-13 -8.267083578036155123e-14 -1.360295441555064294e-14
5.655000000000000000e+03 1.370350074768066406e+01 -6.030628204345703125e+00 -1.360371776164270852e-13 -1.498035500984915003e-13 -8.575221966972829124e-14 -7.952418292021118384e-14
5.656000000000000000e+03 6.208932495117187500e+01 -1.446379375457763672e+01 -8.371000968137101705e-14 -1.273776142072038930e-13 -6.332629055470426205e-14 7.229554276197078244e-14
5.657000000000000000e+03 6.291227722167968750e+01 -1.575583934783935547e+01 5.613321900398496322e-14 -6.744480191347990150e-14 -3.393475508123191924e-15 1.484646281781076826e-13
5.658000000000000000e+03 6.637031555175781250e+01 9.010574221611022949e-01 -5.802070656606497789e-14 -1.335245255291647726e-13 -5.746356895094256734e-14 -1.899335994471479383e-13
5.659000000000000000e+03 2.653244018554687500e+01 -1.257794284820556641e+01 -9.575259557687357259e-14 -4.103682861187826769e-14 -4.103682861187826769e-14 5.367189541926036672e-15
5.660000000000000000e+03 2.563595008850097656e+01 -1.133276271820068359e+01 -3.061575176862250947e-14 1.241318110583797263e-13 2.805481710930080724e-14 3.916766406651325805e-14
5.661000000000000000e+03 6.504789733886718750e+01 -1.855058097839355469e+01 -1.025664809702932223e-13 -1.354589590453134096e-13 -7.140763539281377859e-14 -3.471498126938685203e-14
5.662000000000000000e+03 2.708440589904785156e+01 -1.826340794563293457e+00 -2.277727702629239737e-13 1.082623709647637100e-13 -3.585311572368993227e-14 -7.415061098502758602e-15
5.663000000000000000e+03 3.113054466247558594e+01 2.980135202407836914e+00 -1.598988411295743095e-13 5.728703373220761508e-14 -3.078353883107821931e-14 1.830111989687896457e-13
5.664000000000000000e+03 3.069963455200195312e+01 3.538903713226318359e+00 1.564905973902575020e-13 1.356938243409280820e-13 8.765532651935567521e-14 4.767004526578036416e-14
5.665000000000000000e+03 8.219376564025878906e+00 -5.452754497528076172e+00 5.124484956384525725e-15 2.196207989706394463e-15 2.196207989706394463e-15 6.788150838416169564e-15
5.666000000000000000e+03 7.913189888000488281e+00 -4.484054565429687500e+00 1.255476300178470783e-13 -2.206995708149001034e-13 -2.854558291674226533e-14 2.251242947485035395e-13
5.667000000000000000e+03 6.708448028564453125e+01 -1.853115272521972656e+01 -2.414299195405058412e-14 -1.018488949861701132e-13 -3.779756455740690413e-14 -1.327709237041244106e-13
5.668000000000000000e+03 3.301197052001953125e+00 -5.310196399688720703e+00 3.515603471315395523e-14 -1.221859798668928354e-13 -2.610898083561623284e-14 2.997996545028164261e-14
5.669000000000000000e+03 6.093741989135742188e+01 -4.451775550842285156e+00 -4.636385269847845270e-14 3.003864247185655811e-13 7.620676821789434952e-14 -5.077660975060308002e-14
5.670000000000000000e+03 5.648780059814453125e+01 -2.268407583236694336e+00 8.673660747970934892e-14 1.772851071675518586e-13 7.920651845993650908e-14 -8.468724175701367041e-14
5.671000000000000000e+03 2.815989685058593750e+01 -9.045352935791015625e+00 1.073764625933622263e-13 -9.123436598215683979e-14 4.842629237471500134e-15 -1.440779326357041756e-13
5.672000000000000000e+03 2.298162460327148438e+01 -1.369394016265869141e+01 -4.366667278959089626e-14 -1.330916578117999349e-13 -5.302750155210950167e-14 1.465912894543786038e-13
5.673000000000000000e+03 5.686722183227539062e+01 -2.417211532592773438e+01 -4.333501195689579144e-14 -1.787004653410959043e-13 -6.661064386702386653e-14 1.328367212234671246e-13
5.674000000000000000e+03 2.890332794189453125e+01 -1.142619514465332031e+01 4.868549546800313155e-14 2.086521161740167302e-14 2.086521161740167302e-14 -5.236571132228792780e-14
5.675000000000000000e+03 1.077800941467285156e+01 -5.678109169006347656e+00 -4.113704277393381847e-14 -1.663207467800589812e-13 -6.223733822145055550e-14 -9.376678443027627874e-14
5.676000000000000000e+03 6.438842010498046875e+01 1.895220518112182617e+00 -6.652657754107477173e-14 2.459943056545843554e-13 5.384031775642651729e-14 -1.582906033895450926e-13
5.677000000000000000e+03 6.410196685791015625e+01 2.878859519958496094e+00 -1.557503041468843996e-13 -1.125010796868865237e-13 -8.047541447250491919e-14 4.941047266162398172e-15
5.678000000000000000e+03 1.787800407409667969e+01 -1.038229465484619141e+01 6.181105195008588377e-15 -1.117283281409746365e-13 -3.166416510502062520e-14 1.716460090381288772e-14
5.679000000000000000e+03 7.498293304443359375e+01 -9.271128654479980469e+00 -5.661328339717081048e-14 -1.157647382902388111e-13 -5.171340447334381307e-14 -1.011722833738374835e-14
5.680000000000000000e+03 4.956744766235351562e+01 3.220308303833007812e+00 -2.920271988636480298e-13 3.094794928139299461e-13 5.235687676864806545e-15 8.993756531617408401e-14
5.681000000000000000e+03 2.443107986450195312e+01 -1.307245731353759766e+01 1.024842611761691419e-14 9.589407718411935289e-14 3.184275014348793287e-14 8.998388107772994915e-14
5.682000000000000000e+03 5.901454544067382812e+01 -1.230280494689941406e+01 -9.587216952397156766e-14 2.334176146638611282e-13 4.126363354196686817e-14 5.123208985952781847e-14
5.683000000000000000e+03 6.081763076782226562e+01 -1.822698473930358887e+00 -1.375593297039609531e-13 3.254789829581355987e-14 -3.150342874481786015e-14 -4.068147457358256558e-14
5.684000000000000000e+03 5.405336761474609375e+01 -7.228320598602294922e+00 9.218007149150268809e-15 -3.620570098068764953e-13 -1.058517016443508152e-13 1.152123643884117588e-13
5.685000000000000000e+03 5.852296829223632812e+01 -9.418693542480468750e+00 -1.230408055172618753e-13 -5.273177185703692427e-14 -5.273177185703692427e-14 6.184326461306996481e-14
5.686000000000000000e+03 6.014240646362304688e+01 -9.543780326843261719e+00 -1.048224210881652796e-13 3.668346551001511191e-13 7.860366817071667844e-14 5.561044720959855414e-14
5.687000000000000000e+03 5.990048980712890625e+01 -1.015576839447021484e+01 -6.815408697471991850e-14 6.229300522674410812e-14 -1.758324884381745699e-15 3.671503951015696321e-14
5.688000000000000000e+03 7.656649017333984375e+01 -2.412983703613281250e+01 -1.427524785391817014e-14 -6.008802938724244758e-13 -1.845466596379907731e-13 -3.076138584901308556e-16
5.689000000000000000e+03 7.209710693359375000e+01 -1.955003738403320312e+01 3.563636338061934583e-14 -3.047822072304272323e-14 1.547443009031223594e-15 -6.883865222642726600e-14
5.690000000000000000e+03 3.483794927597045898e+00 -1.326389312744140625e+01 -5.769276251394242494e-14 2.955311776547953073e-13 7.135152115412407570e-14 -2.571584616325767354e-15
5.691000000000000000e+03 7.604682922363281250e+01 -2.007699966430664062e+01 -2.797521549401668986e-15 1.818048614215736491e-13 5.370220056404723108e-14 -4.821966800459473457e-14
5.692000000000000000e+03 4.381669235229492188e+01 -1.743318939208984375e+01 -2.599556481804477653e-14 -1.483938026711900671e-13 -5.231681041617704253e-14 1.260965751303036453e-13
5.693000000000000000e+03 7.679125213623046875e+01 -2.271561813354492188e+01 -1.114646501726261618e-13 -2.307743568723957805e-13 -1.026717027911329405e-13 8.289683094695257659e-14
5.694000000000000000e+03 7.604019165039062500e+01 -2.137427711486816406e+01 -7.412084455319517540e-14 -3.176607672110247360e-14 -3.176607672110247360e-14 -9.068328634667319199e-14
5.695000000000000000e+03 3.439499139785766602e+00 -1.475702857971191406e+01 -3.167571185815759582e-14 2.609303832029619130e-13 6.877640546919944198e-14 -6.026907759752037075e-14
5.696000000000000000e+03 5.851529312133789062e+01 -2.111008071899414062e+01 2.392276846996214956e-14 1.017545151870552500e-13 3.770318475829204097e-14 1.171149223606893219e-13
5.697000000000000000e+03 3.707953262329101562e+01 -1.640507316589355469e+01 -2.201503682044275712e-14 -2.381897576311103881e-13 -7.806143833546594357e-14 4.629532773304557980e-14
5.698000000000000000e+03 5.304813766479492188e+01 -2.222452926635742188e+01 7.368430410097104311e-14 -1.971757582512265183e-13 -3.704743556745028477e-14 3.085583139906047934e-14
5.699000000000000000e+03 5.564778900146484375e+01 -2.512913703918457031e+01 -2.374576907717210195e-14 -2.389315145474163460e-13 -7.880318169924474536e-14 1.792639116576094649e-13
5.700000000000000000e+03 6.074653625488281250e+00 -2.341700172424316406e+01 4.284072842162438624e-15 -6.679039103469480709e-14 -1.875189660125418933e-14 1.310670745790750227e-14
5.701000000000000000e+03 9.386950492858886719e+00 -2.692042732238769531e+01 2.216000650936533062e-14 9.497145162852028977e-15 9.497145162852028977e-15 -1.649595478931623754e-14
5.702000000000000000e+03 4.216805458068847656e+00 -5.781354427337646484e+00 -8.947593235992049032e-14 9.890601792433839634e-14 2.829024398775950924e-15 -2.735439540082085924e-14
5.703000000000000000e+03 5.990974426269531250e+01 -8.693295478820800781e+00 -1.771620502209747539e-13 1.528281488990743120e-13 -7.300168702504238050e-15 -9.947589660905340608e-15
5.704000000000000000e+03 7.325781250000000000e+01 -5.292772769927978516e+00 -5.986222395603160717e-14 -1.171571384827804763e-13 -5.310580805401726723e-14 -5.267507485967951042e-14
5.705000000000000000e+03 7.259321594238281250e+01 -4.517493247985839844e+00 1.847757481689051712e-14 1.680472845296335227e-13 5.595745627929790689e-14 4.338852411037152912e-14
5.706000000000000000e+03 5.878361892700195312e+01 -2.710116624832153320e+00 -2.191047771818097067e-13 1.348527002955138276e-13 -2.527562238826240593e-14 -4.334349922702727953e-14
5.707000000000000000e+03 5.921489715576171875e+01 -9.812655448913574219e+00 -7.183585459336408463e-14 3.809717569625697964e-13 9.274077003313535572e-14 -6.997934810836284325e-14
5.708000000000000000e+03 5.651364517211914062e+01 -8.101333618164062500e+00 -1.714777544134862830e-13 1.095133302076410631e-13 -1.858932556768767147e-14 6.873044207334963462e-14
5.709000000000000000e+03 7.170442962646484375e+01 -3.838138341903686523e+00 5.466949186102090796e-14 2.979354772874448498e-13 1.057814927774188007e-13 1.203164087457131437e-13
5.710000000000000000e+03 4.929094314575195312e+01 -5.784114822745323181e-02 -3.144541918520538104e-13 -2.262679789626770299e-13 -1.622166485339138209e-13 1.293589530198396842e-13
5.711000000000000000e+03 4.901985931396484375e+01 4.008638858795166016e-01 -1.860961065152169636e-13 1.947502218085234160e-13 2.596234122123814748e-15 6.599960785140177033e-14
5.712000000000000000e+03 5.272930908203125000e+01 -8.273444175720214844e-01 -8.439389730672056111e-14 5.533308457695423899e-14 -8.718245004776022794e-15 8.769860651482858094e-15
5.713000000000000000e+03 2.187065505981445312e+01 -1.286302661895751953e+01 9.723624493475704900e-14 -1.870820664183481252e-13 -2.695374542863778616e-14 1.383678734740920180e-13
5.714000000000000000e+03 7.205634307861328125e+01 -2.100394010543823242e+00 1.027069732430566096e-13 1.812701193575766423e-13 8.519313049069540678e-14 6.767228785805809443e-14
5.715000000000000000e+03 6.383977508544921875e+01 6.922597289085388184e-01 -2.241382128726279732e-13 -9.605923505630678538e-14 -9.605923505630678538e-14 -1.686905958886777968e-13
5.716000000000000000e+03 1.191183948516845703e+01 -5.248415946960449219e+00 -1.613358426889865971e-13 -4.351515350310697361e-13 -1.789462133160169000e-13 -3.390306291999392596e-14
5.717000000000000000e+03 4.992694091796875000e+01 2.547321319580078125e+00 -5.840205435144601998e-14 2.072149553724103588e-14 -1.130416883010762139e-14 1.207825072596646621e-13
5.718000000000000000e+03 2.563961601257324219e+01 -1.462375402450561523e+00 -5.132327465036563841e-14 3.440119012137338173e-13 8.780658627494455915e-14 3.109543330291619778e-14
5.719000000000000000e+03 2.697337722778320312e+01 -1.228009510040283203e+01 -1.870388203041931097e-13 1.485952474348378738e-13 -1.153307270783951802e-14 1.291496799776933532e-14
5.720000000000000000e+03 3.329185485839843750e+01 2.588065385818481445e+00 -1.674748122300340203e-13 -7.177491565500682125e-14 -7.177491565500682125e-14 2.808883564652843445e-14
5.721000000000000000e+03 5.428708267211914062e+01 -1.731174230575561523e+00 -2.502918120157737736e-13 7.573587210932958280e-14 -5.236678197193325723e-14 5.082274255304233823e-14
5.722000000000000000e+03 7.606755065917968750e+01 -1.073539924621582031e+01 -1.289356262815927190e-13 -6.669586215778122718e-14 -5.868944924231761506e-14 -4.179583111899032311e-14
5.723000000000000000e+03 2.996468162536621094e+01 1.736937761306762695e+00 1.954497626027382196e-13 1.752660787768950401e-13 1.112147551243954091e-13 1.258601919516474932e-13
5.724000000000000000e+03 6.024013137817382812e+01 -5.329795360565185547e+00 -1.239675815343024845e-13 3.586295756891066944e-13 7.039859553593583175e-14 1.071444026708688602e-13
5.725000000000000000e+03 6.202485275268554688e+01 -6.870362758636474609e-01 -2.038920790016496287e-13 9.562147487663860690e-14 -3.248117920462423314e-14 -8.362620762970146560e-14
5.726000000000000000e+03 5.961065292358398438e+01 -6.188076496124267578e+00 -1.237014776635930735e-13 -7.263967361371536507e-15 -3.928963003465429926e-14 -1.397762080504374310e-14
5.727000000000000000e+03 5.811795043945312500e+01 -2.343459701538085938e+01 4.367671521221354325e-14 6.446954108800875827e-14 3.244387587362715375e-14 9.949248998449011783e-14
5.728000000000000000e+03 5.967226791381835938e+01 -2.347869873046875000e+01 -5.984383317668082181e-14 -1.857756841156660288e-13 -7.368585586533041298e-14 8.638910035463701065e-14
5.729000000000000000e+03 5.791839218139648438e+01 -8.285553932189941406e+00 -1.571892979277886293e-13 2.413505356126891682e-14 -3.991627517342839770e-14 -1.143180602264370904e-13
5.730000000000000000e+03 5.465244293212890625e+01 -2.299909353256225586e+00 -1.680963311254113357e-13 2.339181908068976856e-13 1.974655383868775815e-14 3.925825254615621096e-14
5.731000000000000000e+03 3.943455123901367188e+01 -2.177599143981933594e+01 -8.671577724547047117e-15 -7.234281397669115043e-14 -2.430431784918463817e-14 8.996884963104797434e-15
5.732000000000000000e+03 4.044599914550781250e+01 -2.220257759094238281e+01 2.563191493906366580e-14 -1.033922635549668068e-13 -2.332810560121047899e-14 -3.594574724680166256e-14
5.733000000000000000e+03 7.070913696289062500e+01 -1.582621335983276367e+00 -9.013015350332539977e-14 7.123740209920639832e-15 -2.490192331039507018e-14 1.566620910688903967e-13
5.734000000000000000e+03 7.499715423583984375e+01 -6.398064613342285156e+00 7.020884660322371240e-14 -1.071633423275694663e-13 -1.108634922552349453e-14 -5.096924875973123104e-14
5.735000000000000000e+03 3.601421356201171875e+01 -1.877752304077148438e+01 -1.249027076021371266e-14 4.039797603426834027e-14 8.372311666919683010e-15 4.919043891291573212e-14
5.736000000000000000e+03 6.506282043457031250e+01 1.638111829757690430e+00 1.137550069332110558e-13 9.450310000692907497e-14 6.247743479254747045e-14 -2.070746731638178906e-13
5.737000000000000000e+03 5.690699768066406250e+01 -2.694371938705444336e+00 -6.858543003277969841e-14 -2.481404838550194114e-13 -9.501777077820794393e-14 7.761792510802001388e-14
5.738000000000000000e+03 5.630974197387695312e+01 -6.287005901336669922e+00 2.002316769420670051e-14 3.145683176832350658e-14 1.544399916113270432e-14 1.107560291852167922e-13
5.739000000000000000e+03 7.504353332519531250e+01 -1.719621849060058594e+01 -6.407488472096045662e-14 -3.019663512293657703e-13 -1.098123734956032993e-13 -1.039480459173736104e-13
5.740000000000000000e+03 7.517201232910156250e+01 -1.765462279319763184e+00 4.626814813983408381e-14 1.570820567804026568e-13 6.100506113725784330e-14 -1.498296116082126206e-13
5.741000000000000000e+03 7.587165832519531250e+01 -1.760251808166503906e+01 1.019393377761461383e-13 -1.393155068304258171e-13 -1.121285190213002977e-14 1.961432860748957285e-14
5.742000000000000000e+03 7.505657958984375000e+01 -1.918970298767089844e+01 1.751424255191230683e-14 7.506103587805439820e-15 7.506103587805439820e-15 -1.164076430734684031e-13
5.743000000000000000e+03 5.187729358673095703e+00 -1.070243072509765625e+01 4.100294729398809568e-14 -1.674052030624286619e-14 7.278727757510389945e-15 -4.182633785761863399e-14
5.744000000000000000e+03 7.472455596923828125e+01 -4.814403057098388672e+00 2.679820985073116252e-14 5.723589327098418944e-14 2.521023144473437394e-14 -7.779759604272570156e-15
5.745000000000000000e+03 2.513367271423339844e+01 -1.364226627349853516e+01 -5.428375644497308861e-14 2.054902743190561987e-13 4.536195502341175412e-14 1.417344296398767578e-13
5.746000000000000000e+03 2.556554412841796875e+01 -1.275573253631591797e+01 -1.162880521857114630e-14 -4.983773725604273216e-15 -4.983773725604273216e-15 5.709248042861866934e-14
5.747000000000000000e+03 7.499659729003906250e+01 -1.402070236206054688e+01 -8.922765683868488784e-14 -1.297423269080305586e-13 -6.569099647926734953e-14 -3.802336660048595551e-14
5.748000000000000000e+03 5.088505935668945312e+01 1.803518295288085938e+00 -1.472247210211261037e-13 -3.376019895497822665e-13 -1.454480118160197955e-13 1.897584703031054282e-14
5.749000000000000000e+03 2.906303024291992188e+01 -1.044543647766113281e+01 9.310060995791971661e-14 8.565121268483411043e-14 5.362554747045250592e-14 -6.434095471035197744e-14
5.750000000000000000e+03 5.198090362548828125e+01 -2.234488296508789062e+01 8.342042944549550587e-15 -2.709305219408819632e-13 -7.877654420711949212e-14 -2.796489863271913248e-15
5.751000000000000000e+03 4.544023513793945312e+01 -1.802363586425781250e+01 -2.707583675765502101e-14 -2.403586769721133276e-13 -8.023035090020530502e-14 2.774146743485944588e-13
5.752000000000000000e+03 4.141562461853027344e+00 -1.618183326721191406e+01 3.684849463319456175e-14 -2.995873541649166083e-14 2.066927256791101924e-15 4.791999113598795212e-14
5.753000000000000000e+03 6.061338806152343750e+01 -1.726338768005371094e+01 -7.364267073754759974e-14 8.281622729169185737e-14 2.752066585078451026e-15 1.470379129868068513e-13
5.754000000000000000e+03 9.190209388732910156e+00 -5.221659660339355469e+00 9.951503800154602730e-15 4.264930321070965064e-15 4.264930321070965064e-15 4.065921454772872257e-14
5.755000000000000000e+03 7.333210754394531250e+01 -4.559243679046630859e+00 4.993983606640592376e-14 3.874103728790379009e-13 1.312050647165122208e-13 -1.648375175505173429e-13
5.756000000000000000e+03 4.586571884155273438e+01 -1.752607917785644531e+01 -6.719411404241051877e-14 -2.118012660872956032e-13 -8.369861200603276319e-14 7.954626676321199796e-14
5.757000000000000000e+03 4.753374862670898438e+01 1.833172142505645752e-01 -1.529229488265310133e-13 1.517786005385268755e-13 -3.433019505963554952e-16 4.771908847342638815e-14
5.758000000000000000e+03 6.264634132385253906e+00 -5.571773529052734375e+00 -6.763380545719843706e-14 -1.891142407603463305e-13 -7.702441251001071465e-14 -2.852383449878856392e-14
5.759000000000000000e+03 6.708376884460449219e+00 -5.294674396514892578e+00 -1.299236597213787592e-13 -7.855704070103622372e-14 -6.254420809384542146e-14 -5.231361879603178833e-14
5.760000000000000000e+03 1.959450149536132812e+01 -1.207977581024169922e+01 -2.557780943900837649e-15 -1.840999818954539013e-13 -5.599733120232285033e-14 8.029955010386419234e-14
5.761000000000000000e+03 3.174204635620117188e+01 -1.612921333312988281e+01 1.274305249672870802e-14 2.833678251898050227e-14 1.232395075882264726e-14 2.411721843553153027e-14
5.762000000000000000e+03 3.258633422851562500e+01 -1.604394149780273438e+01 3.463011873246733818e-14 -8.033994849325053894e-15 7.978836910832801110e-15 4.956547799690562417e-14
5.763000000000000000e+03 4.815497589111328125e+01 5.843843221664428711e-01 -3.324934186484107546e-13 4.050660970381959880e-14 -8.759604776557503025e-14 -4.366090957741777800e-14
5.764000000000000000e+03 4.258381652832031250e+01 -2.026564407348632812e+01 -2.089436310331437702e-14 -8.954727286287003651e-15 -8.954727286287003651e-15 2.734592676541421075e-14
5.765000000000000000e+03 4.165803146362304688e+01 -2.017696380615234375e+01 -8.678686025040405205e-14 -3.719436867874459374e-14 -3.719436867874459374e-14 -4.525159001851630780e-14
5.766000000000000000e+03 6.118310928344726562e+01 -1.551917457580566406e+01 -7.303778079299078074e-14 -7.705285248824772504e-14 -4.502719066199790954e-14 6.781201441303716382e-14
5.767000000000000000e+03 6.207019424438476562e+01 -1.574296569824218750e+01 -5.186797104555877780e-14 2.980274989468345570e-13 7.384786277495405948e-14 6.047091538445570347e-14
5.768000000000000000e+03 3.106052970886230469e+01 -1.535216426849365234e+01 -2.126457409950491956e-14 1.376208564831836109e-14 -2.250746323597730726e-15 -4.461879542054514314e-14
5.769000000000000000e+03 3.110877418518066406e+01 -1.367847347259521484e+01 -8.422640162359870675e-14 9.653919102927538409e-15 -2.237174441738817160e-14 -1.309925881957593741e-13
5.770000000000000000e+03 4.629619979858398438e+01 -1.713151741027832031e+01 3.782537773126294633e-14 -7.529102395795878033e-14 -1.123969268216262404e-14 9.812178738792531885e-14
5.771000000000000000e+03 4.146454334259033203e+00 -7.882656574249267578e+00 -2.584227387744837678e-14 2.405549717754418282e-13 6.441380632007942530e-14 -5.419233787304182648e-14
5.772000000000000000e+03 6.176510238647460938e+01 -1.383904457092285156e+01 5.024664495242858742e-14 -2.300959444680172883e-13 -5.395478917705025246e-14 7.643285147591188933e-14
5.773000000000000000e+03 7.575345611572265625e+01 -2.390201187133789062e+01 6.884794926005632920e-14 7.525721040270438866e-14 4.323154857645457316e-14 1.478403852247719974e-14
5.774000000000000000e+03 7.551816558837890625e+01 -8.113250732421875000e+00 -2.356296852513289908e-13 -3.297388946089940820e-13 -1.696105685370860594e-13 -8.486848647893535658e-14
5.775000000000000000e+03 6.566062927246093750e+01 -1.894737052917480469e+01 6.627645209988236585e-14 -1.088486532895352465e-13 -1.277165849342338025e-14 -1.083429271861793830e-13
5.776000000000000000e+03 5.187501430511474609e+00 -1.204809284210205078e+01 -6.220364663894056845e-14 1.909224290979043975e-14 -1.293342230459116476e-14 1.760223720491253026e-15
5.777000000000000000e+03 1.338379192352294922e+01 -6.717070102691650391e+00 1.635846101318613049e-14 7.010768884646492033e-15 7.010768884646492033e-15 -1.540178574954698121e-13
5.778000000000000000e+03 1.684984397888183594e+01 -8.881744384765625000e+00 -1.157255037241219919e-13 -1.528343051345349562e-14 -3.930267773017380450e-14 4.233851157576899726e-14
5.779000000000000000e+03 6.041667938232421875e+01 -1.822507286071777344e+01 1.127031343142563535e-13 -2.719553098343152620e-13 -4.777564994551224131e-14 8.123224688120610909e-15
5.780000000000000000e+03 3.081050872802734375e+01 -1.423194789886474609e+01 -6.203537168550724012e-14 7.635304741975337817e-14 4.295301534427715257e-15 -7.483112572518116345e-14
5.781000000000000000e+03 5.559215927124023438e+01 -2.275207281112670898e+00 -5.016797930855118604e-14 2.987560828067448160e-13 7.457642630607358436e-14 1.921139672854659669e-14
5.782000000000000000e+03 4.440411376953125000e+01 -1.801897048950195312e+01 -9.122309366769477956e-15 -2.441020476029454045e-13 -7.596730861557376979e-14 8.944077032821406981e-14
5.783000000000000000e+03 4.489720535278320312e+01 -1.745217132568359375e+01 9.397526676716634782e-16 -1.482878354613567651e-13 -4.420442351461655039e-14 1.377636611558930024e-13
5.784000000000000000e+03 3.905242681503295898e+00 -9.344438552856445312e+00 4.538360179741178502e-14 3.168312780101739667e-13 1.086644676692206934e-13 4.771430443134029586e-14
5.785000000000000000e+03 4.901779651641845703e+00 -8.360503196716308594e+00 1.443607061148155513e-14 2.120661502305609680e-13 6.795067031837090377e-14 -1.455146224869918736e-13
5.786000000000000000e+03 7.048492431640625000e+01 -6.300947070121765137e-01 -7.862244519709141177e-14 2.408103555971707888e-13 4.865637447527652870e-14 1.165861434086409854e-13
5.787000000000000000e+03 6.042394256591796875e+01 -2.467284440994262695e+00 -2.250923107844152171e-13 2.237885034618927738e-13 -3.911423979270579800e-16 -9.386598892905870239e-14
5.788000000000000000e+03 5.939613723754882812e+01 -2.957528114318847656e+00 -2.558532541645924807e-13 2.449184518388269893e-13 -3.280434726147369272e-15 -5.656630356178429797e-14
5.789000000000000000e+03 4.499492168426513672e+00 -1.964190864562988281e+01 4.214731929891475659e-14 1.095650330987414656e-13 4.551370605811004555e-14 1.136489177506333492e-14
5.790000000000000000e+03 5.302916526794433594e+00 -1.939839935302734375e+01 -4.932574395591013405e-15 -1.393668031457115375e-13 -4.328981427883030197e-14 -1.401624178049357128e-13
5.791000000000000000e+03 5.723841857910156250e+01 -7.495388507843017578e+00 -5.172653009589446571e-14 6.933338723025955774e-14 5.282057225012822335e-15 -2.820556525698954958e-14
5.792000000000000000e+03 7.544764709472656250e+01 -2.013936614990234375e+01 -1.203026071908705821e-14 -2.339105742866359749e-13 -7.378224821472795236e-14 -1.353937358143089340e-14
5.793000000000000000e+03 7.467543029785156250e+01 -2.046684646606445312e+01 3.289230866843073642e-14 -7.740519108925120184e-14 -1.335386489565272908e-14 1.102058304639982889e-14
5.794000000000000000e+03 7.561926269531250000e+01 -2.658925294876098633e+00 1.388878432834889098e-13 -1.692313823797864103e-13 -9.103060543043123981e-15 -2.406222058626630855e-14
5.795000000000000000e+03 7.272949218750000000e+00 -5.603784084320068359e+00 -3.757994146446654027e-14 -1.876717504274358350e-13 -6.757550926163660709e-14 4.715466637495759061e-14
5.796000000000000000e+03 1.712661933898925781e+01 -1.080858325958251953e+01 2.722245307862705688e-14 -5.695965888622561701e-14 -8.921161911686157492e-15 6.278637820159721494e-14
5.797000000000000000e+03 6.645807647705078125e+01 -1.967427062988281250e+01 2.500714851936657740e-14 1.479701913298728244e-13 5.189320246299158890e-14 -6.421538376998742192e-14
5.798000000000000000e+03 6.729888153076171875e+01 -1.940325927734375000e+01 -5.095367351789711896e-14 -4.471276186758174620e-14 -2.869993264852273296e-14 -2.260947607249635255e-14
5.799000000000000000e+03 7.304284667968750000e+01 -3.373014211654663086e+00 -2.999401942094248597e-14 2.431806688798446997e-14 -1.702785463425873259e-15 -7.602475100192476742e-14
5.800000000000000000e+03 4.996512413024902344e+00 -1.811394309997558594e+01 -4.101718083563375694e-14 7.392310640572455349e-14 9.871776823994291711e-15 1.297838874266205381e-14
5.801000000000000000e+03 4.161042213439941406e+00 -1.760008430480957031e+01 -1.318298785700543554e-14 1.316029940188687131e-13 3.552600176385568853e-14 3.095070247728474999e-14
5.802000000000000000e+03 7.485179901123046875e+01 -2.891020393371582031e+01 1.053747272273565516e-13 -4.634130129329075420e-14 1.771002744140656032e-14 1.767646121977276691e-14
5.803000000000000000e+03 2.939196014404296875e+01 -1.190837192535400391e+01 5.884150690294281255e-15 4.827272614841074394e-14 1.624706432216092844e-14 -3.418067627439062839e-14
5.804000000000000000e+03 2.933424186706542969e+01 -1.105623817443847656e+01 -3.016812873731650191e-14 3.282175082392445320e-14 7.960864036362367332e-16 3.017809662103979051e-14
5.805000000000000000e+03 7.664335632324218750e+01 -1.110221481323242188e+01 5.135759303725659364e-14 -1.381179242157526410e-13 -2.602809935354881421e-14 -5.854937709789606592e-14
5.806000000000000000e+03 5.940480804443359375e+01 -2.134854698181152344e+01 -4.827362315630188624e-15 1.351839782693167735e-13 3.910698601430374899e-14 9.328169882577910799e-14
5.807000000000000000e+03 6.929885864257812500e+01 -2.077594947814941406e+01 -5.504686197968164385e-14 6.791038543139948924e-14 3.859057120218648343e-15 -6.061972890889291699e-14
5.808000000000000000e+03 6.011454772949218750e+01 -3.922832012176513672e+00 -2.582760665493372132e-13 2.553178480267648265e-13 -8.874649532607410945e-16 -1.191519214023550877e-14
5.809000000000000000e+03 5.756267547607421875e+00 -2.189485740661621094e+01 7.538150740551627371e-14 -1.344458805353429542e-14 1.858107716084730909e-14 -1.025167364193668718e-14
5.810000000000000000e+03 6.013402938842773438e+00 -2.256681442260742188e+01 4.876906373857924082e-14 2.090102755854337385e-14 2.090102755854337385e-14 -8.624923996845227508e-15
5.811000000000000000e+03 6.037317657470703125e+01 -2.148876571655273438e+01 -1.900565920192210517e-14 -8.145282273100060144e-15 -8.145282273100060144e-15 1.054077005259272670e-13
5.812000000000000000e+03 5.771210098266601562e+01 -1.948819041252136230e+00 4.150270012099992190e-14 -3.482207198372139212e-13 -9.201540489842466308e-14 -5.713329386414917055e-14
5.813000000000000000e+03 6.545240020751953125e+01 4.074282646179199219e+00 -2.268364735955562261e-14 1.275312863126265572e-13 3.145429066948174368e-14 -1.600444630338662688e-13
5.814000000000000000e+03 6.542044067382812500e+01 4.708572387695312500e+00 -1.754910812208718834e-14 -7.521046096027952932e-15 -7.521046096027952932e-15 4.743881204744351821e-14
5.815000000000000000e+03 7.338362884521484375e+01 -2.662236928939819336e+00 3.907028915889690368e-14 6.249535800971137145e-14 3.046969279532976693e-14 -3.635675473786376122e-14
5.816000000000000000e+03 7.409954071044921875e+01 -2.817326068878173828e+00 3.245414530107966489e-14 2.655391369028176074e-13 8.939798499998236059e-14 4.167234811484074944e-15
5.817000000000000000e+03 4.927996063232421875e+01 -2.181422424316406250e+01 -3.900187938994485737e-14 -1.196547201598452403e-13 -4.759698020375020822e-14 -5.855637020190859743e-14
5.818000000000000000e+03 4.975696182250976562e+01 1.968593150377273560e-01 -2.629283238613638884e-13 -1.126835644650429902e-13 -1.126835644650429902e-13 2.524215103431870499e-13
5.819000000000000000e+03 5.030356216430664062e+01 -9.517685174942016602e-01 -9.139501086280130138e-14 9.808355570881804875e-14 2.006562183255603329e-15 7.997814514609444259e-14
5.820000000000000000e+03 6.337582397460937500e+01 -1.750736999511718750e+01 -1.023658087006933115e-13 -8.962200827387217794e-14 -5.759634305949057342e-14 -2.525095509477246619e-14
5.821000000000000000e+03 6.395018386840820312e+01 -1.654986381530761719e+01 -5.576070069004609997e-14 -2.389744387890514049e-14 -2.389744387890514049e-14 4.909089221282261772e-14
5.822000000000000000e+03 4.333763122558593750e+01 -1.854150390625000000e+01 3.251798109211653798e-14 -3.291958448458504050e-13 -8.900335573798837108e-14 -2.052859310086628877e-15
5.823000000000000000e+03 5.970529174804687500e+01 -1.262124061584472656e+01 -1.092357473464304618e-13 -9.256626769347381378e-14 -6.054060247909220926e-14 8.872420755989124386e-14
5.824000000000000000e+03 6.133855438232421875e+01 -1.475107860565185547e+01 3.012321227418950087e-14 5.866090084386335612e-14 2.663523393541585710e-14 1.279455328576789563e-13
5.825000000000000000e+03 3.322636032104492188e+01 -1.817125129699707031e+01 -5.100703659357413988e-14 -2.048639578290656349e-13 -7.676129697153921683e-14 2.650586151118402428e-14
5.826000000000000000e+03 5.053627395629882812e+01 -2.277917861938476562e+01 -9.104489275866905172e-16 -2.341489361342569131e-13 -7.051781711732776903e-14 -5.914348600710023218e-14
5.827000000000000000e+03 8.889334678649902344e+00 -2.537706756591796875e+01 6.836966024792792695e-14 2.930128538349181799e-14 2.930128538349181799e-14 7.819413112885101325e-14
5.828000000000000000e+03 5.349534225463867188e+01 -2.528324890136718750e+01 -3.907566273591428496e-14 -2.455014544520267572e-13 -8.537313515638231265e-14 1.826010452869383793e-13
5.829000000000000000e+03 5.180631637573242188e+01 -2.501853561401367188e+01 2.574526658213113078e-14 -1.184178911205939835e-14 4.171043071614930278e-15 -2.501481586160512333e-14
5.830000000000000000e+03 7.365528106689453125e+01 -3.137139701843261719e+01 3.782826441954718899e-14 6.196306217686603501e-14 2.993740035061621951e-14 5.706353223061330637e-14
5.831000000000000000e+03 6.091889190673828125e+01 -1.361246204376220703e+01 1.260284736813443995e-13 -8.324064500837488612e-14 1.283634809367108567e-14 5.503128589081458452e-15
5.832000000000000000e+03 7.643785858154296875e+01 -2.113060712814331055e+00 -1.649519754186139220e-14 -1.900731633718011349e-13 -6.197050929053829482e-14 -3.161005664035002050e-14
5.833000000000000000e+03 5.886078262329101562e+01 -6.229229927062988281e+00 -1.571227279143980193e-13 6.991453314723894419e-14 -2.616246080183997486e-14 -1.471715951146743140e-13
5.834000000000000000e+03 5.950298690795898438e+01 -8.272785186767578125e+00 -8.516292868392810744e-14 5.125129921151883039e-13 1.282050230951362058e-13 -2.023677042996621656e-13
5.835000000000000000e+03 5.233822345733642578e+00 -7.007799148559570312e+00 3.996209287961127732e-14 -7.437528647428678918e-14 -1.032395773958947466e-14 -1.603075717960741886e-13
5.836000000000000000e+03 7.408354949951171875e+01 -1.999903297424316406e+01 -4.503092099509761748e-14 2.838010588254030742e-13 7.163104202671799481e-14 -4.391942403291979047e-14
5.837000000000000000e+03 7.453013610839843750e+01 -1.953809165954589844e+01 -1.102534506562929256e-14 -8.478930583902602458e-14 -2.874439510199000569e-14 -1.241511234095771243e-13
5.838000000000000000e+03 1.718586921691894531e+01 -9.305310249328613281e+00 -1.399955184330087254e-13 -7.143581787303482367e-14 -6.342940495757121155e-14 4.929423771840406310e-14
5.839000000000000000e+03 1.540851211547851562e+01 -7.827927589416503906e+00 -7.247577104435576345e-14 -2.369403230475380928e-13 -9.282482280655729445e-14 -7.533672985579262238e-14
5.840000000000000000e+03 1.020796203613281250e+01 -6.208850860595703125e+00 -1.904157509295158202e-14 -2.369154135026252384e-13 -7.678710098324437183e-14 -3.957648960070322963e-14
5.841000000000000000e+03 2.612583923339843750e+01 -1.979787707328796387e+00 -3.380387875000223641e-13 3.126357408633068102e-13 -7.620914668641023959e-15 -7.881955992831285451e-14
5.842000000000000000e+03 2.602033233642578125e+01 -3.114252567291259766e+00 -2.271782344491143912e-13 2.228945381130970071e-13 -1.285110764277699186e-15 -1.993171524095754821e-14
5.843000000000000000e+03 5.893965530395507812e+01 -1.048303890228271484e+01 -1.009004959120519962e-13 -4.324307161266902066e-14 -4.324307161266902066e-14 3.637291951462916229e-14
5.844000000000000000e+03 1.237953186035156250e+01 -6.640722274780273438e+00 -1.247769994424351159e-14 8.043544129365809425e-14 2.038732240482437480e-14 -7.252294739138603896e-14
5.845000000000000000e+03 1.200588703155517578e+01 -5.988707065582275391e+00 -3.855696347593827455e-14 7.497748624220312852e-14 1.092615581343991948e-14 -6.995784024776616206e-14
5.846000000000000000e+03 7.354298400878906250e+01 -2.898401451110839844e+01 7.432903169910312635e-14 -5.964659647271497445e-14 4.404730144399971944e-15 3.880730999272991380e-15
5.847000000000000000e+03 6.116038131713867188e+01 -1.963810157775878906e+01 -3.378406834343185283e-14 1.799626393001949043e-13 4.385357230346845214e-14 1.068130992860774967e-15
5.848000000000000000e+03 6.096813964843750000e+01 -1.791518783569335938e+01 8.712342370979786477e-14 1.288405146460114281e-13 6.478917744098464104e-14 1.572662762820351001e-13
5.849000000000000000e+03 5.897768020629882812e+01 -8.767576217651367188e+00 -7.940660797086870892e-14 3.319761728969722325e-13 7.577087151071013049e-14 -9.772109337002898855e-14
5.850000000000000000e+03 7.141291809082031250e+01 -1.821783661842346191e+00 -1.763945706081265774e-13 4.276627608903321720e-13 7.538045708466167838e-14 9.330626278124948270e-14
5.851000000000000000e+03 5.952417755126953125e+01 -5.537307739257812500e+00 -1.074254210977135249e-13 4.546243007161505922e-14 -1.858889866308225530e-14 -1.247901250649857685e-13
5.852000000000000000e+03 5.153462600708007812e+01 -2.337607574462890625e+01 2.138116479656268498e-14 -1.223706194968671168e-13 -3.029683708771768735e-14 -3.979603376436796625e-14
5.853000000000000000e+03 5.247738361358642578e+00 -2.141316413879394531e+01 8.808297312563363735e-15 5.524480341505960679e-14 1.921593004888030171e-14 -9.914958563645315942e-15
5.854000000000000000e+03 5.728878021240234375e+01 -2.224812269210815430e+00 -2.062372625108443991e-13 1.232107406552718221e-13 -2.490795757311130981e-14 -4.261669413630625458e-14
5.855000000000000000e+03 5.791067504882812500e+01 -3.235182285308837891e+00 -6.160801307043134445e-14 -7.215438641537674780e-14 -4.012872120099514328e-14 7.420827190587897526e-14
5.856000000000000000e+03 5.601192474365234375e+01 -2.785829305648803711e+00 -1.724510291511993643e-13 -1.654094748540849147e-13 -1.013581512015852837e-13 6.138268197767096646e-14
5.857000000000000000e+03 5.698493957519531250e+01 -3.617666721343994141e+00 -1.546656953985842131e-13 -1.978192728981781334e-13 -1.057454904890287040e-13 -1.283763134858617594e-14
5.858000000000000000e+03 7.547001647949218750e+01 -4.691697120666503906e+00 9.533377505390600026e-14 -1.421464671230027177e-13 -1.404380626547629962e-14 -4.003169865908484670e-14
5.859000000000000000e+03 7.494366455078125000e+01 -2.353537082672119141e+00 -6.555274714974829164e-14 4.053238999860223069e-14 -7.506106128904281583e-15 -6.834227059054551190e-14
5.860000000000000000e+03 3.673854064941406250e+01 -2.201849365234375000e+01 1.826386840429825714e-14 -7.223678578048564614e-14 -1.619187673751552176e-14 -4.648386032644544197e-14
5.861000000000000000e+03 7.565581512451171875e+01 -1.893836212158203125e+01 6.939295736337405818e-14 2.973983838599862650e-14 2.973983838599862650e-14 -4.759704796638598856e-14
5.862000000000000000e+03 7.522406768798828125e+01 -1.779987144470214844e+01 5.473592973727174626e-14 2.345825560168789126e-14 2.345825560168789126e-14 -1.289439881908480134e-13
5.863000000000000000e+03 4.575645923614501953e+00 -9.160835266113281250e+00 2.410408434265140509e-14 -8.117157391119428356e-14 -1.712024687056286354e-14 -1.449443050392101862e-13
5.864000000000000000e+03 4.946616744995117188e+01 1.105500578880310059e+00 -2.852085429806694439e-13 3.810282167907019790e-13 2.874590282063611835e-14 1.223187539754408415e-13
5.865000000000000000e+03 4.768042087554931641e+00 -7.755550384521484375e+00 5.068579426613026295e-14 2.047262777056871319e-13 7.662362362442429187e-14 -6.029944881087712094e-14
5.866000000000000000e+03 7.535163879394531250e+01 -2.069222068786621094e+01 -2.072901718981265407e-14 1.741199280027791452e-13 4.601727392151630514e-14 -8.918555591307456010e-14
5.867000000000000000e+03 2.850770568847656250e+01 -1.284133911132812500e+01 -6.184829260064486633e-14 1.564973872063626925e-13 2.839472804290216895e-14 1.993748353532834999e-14
5.868000000000000000e+03 2.858306312561035156e+01 -1.349989318847656250e+01 -5.465261896471160230e-14 6.807934478745419904e-14 4.028018593855726276e-15 -1.409199092052698665e-13
5.869000000000000000e+03 4.130159378051757812e+00 -1.689749908447265625e+01 1.474355881792791673e-14 5.206961570898213654e-14 2.004395218866642653e-14 -8.960844897045253110e-14
5.870000000000000000e+03 5.607204914093017578e+00 -1.732862091064453125e+01 5.118071561721095064e-14 1.134364886637255487e-13 4.938516162309412871e-14 1.682019053119571117e-14
5.871000000000000000e+03 7.521778869628906250e+01 -2.139003562927246094e+01 -8.434041389942547088e-17 -2.287908903129964866e-13 -6.866257101735204205e-14 3.889180576438326653e-14
5.872000000000000000e+03 7.398606109619140625e+01 -2.186476898193359375e+01 -2.341550246070817770e-14 -3.760428112561248204e-13 -1.198374895410719843e-13 3.120457180410401987e-14
5.873000000000000000e+03 5.564958095550537109e+00 -1.613254165649414062e+01 1.179448791237269756e-13 -4.095409043359046763e-14 2.309723830110684689e-14 -6.638788097815956357e-14
5.874000000000000000e+03 4.955901336669921875e+01 6.112427711486816406e-01 -3.434521818421881756e-13 -1.929447405882647737e-13 -1.609190753738831692e-13 1.051440157813152143e-13
5.875000000000000000e+03 7.435596466064453125e+01 -2.396364974975585938e+01 -1.645057415213414115e-14 -9.855214111150270573e-14 -3.450081407087128571e-14 1.937330030015067817e-14
5.876000000000000000e+03 7.561592102050781250e+01 -2.469719886779785156e+01 -3.746006936177111168e-14 -4.278128415760584780e-13 -1.395818817516783494e-13 -9.267722900956412713e-14
5.877000000000000000e+03 7.419612884521484375e+01 -3.441197395324707031e+00 -1.421674735400946243e-13 -6.092891626343147071e-14 -6.092891626343147071e-14 1.195861985825441565e-13
5.878000000000000000e+03 6.436836719512939453e+00 -6.205744266510009766e+00 -9.282667950277767588e-14 -8.553381391834466441e-14 -5.350814531583127087e-14 -3.257120864252199821e-14
5.879000000000000000e+03 7.196975708007812500e+00 -6.270719528198242188e+00 -7.874255446901207156e-14 -3.374680905814803067e-14 -3.374680905814803067e-14 3.352232838646669599e-14
5.880000000000000000e+03 2.885743713378906250e+01 -1.455953788757324219e+01 -3.164986380073918359e-14 1.236886163153219642e-13 2.761162744844072869e-14 -1.009853889421576112e-13
5.881000000000000000e+03 7.361991119384765625e+01 -3.857248783111572266e+00 4.824391686380873068e-14 6.642691225636904173e-14 3.440125043011922623e-14 -1.221824968674137257e-13
5.882000000000000000e+03 1.984223175048828125e+01 -1.285660552978515625e+01 7.336981770831446648e-14 -1.973105381337936226e-13 -3.718221545001738904e-14 1.872550915325496557e-13
5.883000000000000000e+03 1.637885665893554688e+01 -1.117277908325195312e+01 1.300601201173132160e-13 1.243664730660870577e-13 7.632798202077822891e-14 -2.817328144323789918e-14
5.884000000000000000e+03 4.600809478759765625e+01 -1.855465698242187500e+01 -1.547802549106344627e-13 -2.722136752120185577e-13 -1.280981749710377593e-13 -1.668643047629710108e-14
5.885000000000000000e+03 4.635184860229492188e+01 -1.800704193115234375e+01 -3.320852173775029094e-15 -9.292511828377578165e-14 -2.887379124314436163e-14 1.572778772452806950e-13
5.886000000000000000e+03 2.753515625000000000e+01 -1.223635768890380859e+01 5.566212977190822253e-14 1.153570918259114175e-13 5.130576817341178653e-14 -1.431587324813438089e-13
5.887000000000000000e+03 1.389882946014404297e+01 -7.818173885345458984e+00 -5.832193858716291923e-14 -7.074606877969027985e-14 -3.872040017717688631e-14 -1.343696814514079574e-14
5.888000000000000000e+03 1.388373184204101562e+01 -8.646560668945312500e+00 -3.418120821108150409e-14 -1.464908923332064461e-14 -1.464908923332064461e-14 2.616351112269457019e-14
5.889000000000000000e+03 7.386425781250000000e+01 -2.742659568786621094e+01 -5.271389607371806951e-14 -6.834261617998799165e-14 -3.631695435373817615e-14 -8.109832250191573166e-14
5.890000000000000000e+03 6.876568603515625000e+01 -2.187639617919921875e+01 -7.013056720637025898e-14 1.569499365812899311e-14 -1.633067155625261141e-14 -4.024859669182236088e-14
5.891000000000000000e+03 6.137191772460937500e+01 -2.328771591186523438e+00 -2.578308118221517287e-13 2.097577211750134563e-13 -1.442192516126240831e-14 -7.524368498060263200e-14
5.892000000000000000e+03 6.042468261718750000e+01 -3.096526145935058594e+00 -1.920661031476825209e-13 1.006897473385115482e-13 -2.741290674275129180e-14 -1.223888747509463415e-13
5.893000000000000000e+03 7.232926940917968750e+01 -2.112119102478027344e+01 2.147464335262166957e-14 -2.424267926161294273e-13 -6.628564748955775854e-14 -1.047345871596667977e-13
5.894000000000000000e+03 4.428692817687988281e+00 -6.449760437011718750e+00 -1.747090665226488232e-14 -1.904913265972016378e-13 -6.238867251593879781e-14 -1.532776455672596461e-13
5.895000000000000000e+03 6.178079986572265625e+01 -1.647756004333496094e+01 7.052892891904632457e-16 -3.199543765781270865e-13 -9.577472685371943295e-14 1.047044124579538105e-13
5.896000000000000000e+03 7.240909576416015625e+01 -3.741202592849731445e+00 -7.586015555961431178e-14 -3.251149620787235905e-14 -3.251149620787235905e-14 2.006802825315918276e-14
5.897000000000000000e+03 5.861530303955078125e+01 -8.187343597412109375e+00 -1.230636686305741634e-13 1.760131753889004891e-13 1.588485439919015002e-14 6.415511568172438395e-14
5.898000000000000000e+03 7.403179168701171875e+01 -2.539000511169433594e+01 5.861033636504406341e-14 -5.494544503084099196e-14 1.099468670810342316e-15 1.256982917681752007e-15
5.899000000000000000e+03 7.441429901123046875e+01 -2.635957527160644531e+01 1.571715712222684913e-14 1.211132973424899895e-13 4.104913769466776718e-14 4.988809251772405307e-14
5.900000000000000000e+03 2.846921730041503906e+01 -1.084037494659423828e+01 1.985678162424574927e-14 1.000119447978550791e-13 3.596061775722365905e-14 4.255818787657350555e-15
5.901000000000000000e+03 2.799203300476074219e+01 -1.130453586578369141e+01 -2.107044431238960097e-14 8.247170849885743227e-14 1.842037807009422323e-14 -1.640162479573867294e-13
5.902000000000000000e+03 1.849731826782226562e+01 -1.170054149627685547e+01 3.994797114631465362e-14 -3.031360698482060689e-13 -7.895643367632557141e-14 5.770633875802101687e-15
5.903000000000000000e+03 2.211069488525390625e+01 -1.379007911682128906e+01 6.088401250579867849e-15 -8.889258415727824270e-14 -2.484125372851503366e-14 1.159531319702353236e-13
5.904000000000000000e+03 1.405485820770263672e+01 -6.986430168151855469e+00 -1.322535424274143279e-13 -1.024310370138954707e-13 -7.040537179951386615e-14 -1.840921586991530606e-14
5.905000000000000000e+03 4.870101928710937500e+00 -1.341179847717285156e+01 -7.430827600376360698e-14 5.965549370679293362e-14 -4.395834180871433655e-15 -8.660180049208793251e-14
5.906000000000000000e+03 5.017374801635742188e+01 1.125190496444702148e+00 -2.026930598190979094e-13 -8.686845324014716430e-14 -8.686845324014716430e-14 1.397891947595847340e-13
5.907000000000000000e+03 6.561322021484375000e+01 2.956578016281127930e+00 1.985694256050572759e-14 1.686384457641812440e-13 5.654861412571383916e-14 -1.817115251670498033e-13
5.908000000000000000e+03 3.163204765319824219e+01 -1.702549552917480469e+01 3.161453575057510124e-14 -2.838320941125904717e-13 -7.566526344284646433e-14 1.851228792113489285e-14
5.909000000000000000e+03 4.611083984375000000e+00 -7.112957954406738281e+00 -6.872030478303689516e-14 3.917486384656491960e-14 -8.863632280941592667e-15 -9.607385145684460559e-14
5.910000000000000000e+03 6.385221481323242188e+00 -2.064214897155761719e+01 3.021106314334692788e-14 1.294759824799641273e-14 1.294759824799641273e-14 3.771446723714946825e-14
5.911000000000000000e+03 7.562646484375000000e+01 -6.158322811126708984e+00 6.578746336756424729e-14 -4.043179636578630998e-14 7.606701455786096799e-15 -4.625244414899198908e-14
5.912000000000000000e+03 5.938097000122070312e+01 -2.244063568115234375e+01 -1.615373145576887159e-14 3.882792253950134720e-14 6.802256901603269054e-15 2.186800816383199786e-13
5.913000000000000000e+03 7.524107360839843750e+01 -4.143620014190673828e+00 2.445168633541383585e-13 1.962948439860820460e-13 1.322435135573188369e-13 -1.141556806223166520e-14
5.914000000000000000e+03 4.800552368164062500e+01 -2.011280822753906250e+01 -2.688682813173880193e-14 -1.945267270831926854e-13 -6.642406622566626728e-14 6.172005520056235428e-15
5.915000000000000000e+03 7.205779266357421875e+01 -2.045211791992187500e+01 6.820307258412552920e-14 -6.227201236217935754e-14 1.779318066583851499e-15 1.625026674197626014e-15
5.916000000000000000e+03 7.257739257812500000e+01 -2.016710281372070312e+01 -2.061740027022116589e-14 -3.748436294432472282e-13 -1.186383077281943921e-13 -1.232202951869168506e-13
5.917000000000000000e+03 5.512090682983398438e+01 -2.772519111633300781e+00 -2.483352065651978080e-13 -2.436822174167047050e-13 -1.476052217735598915e-13 5.723568320681327037e-14
5.918000000000000000e+03 6.253797912597656250e+01 8.232200741767883301e-01 -9.501463336817131400e-14 -2.694753057849719191e-13 -1.093469797130638965e-13 -8.549007991321203037e-14
5.919000000000000000e+03 6.235546875000000000e+01 2.921245992183685303e-01 4.806798473253222348e-14 -2.274909844242290965e-15 1.373792233943203767e-14 -4.923718835534059146e-14
5.920000000000000000e+03 5.149023532867431641e+00 -2.249116134643554688e+01 -4.658771418907534448e-15 -1.996616322388943335e-15 -1.996616322388943335e-15 -2.578716591390001200e-14
5.921000000000000000e+03 7.471024322509765625e+01 -5.444225311279296875e+00 5.133245648751387502e-14 -2.982570245467497383e-13 -7.407736804607850667e-14 7.124385310213268707e-14
5.922000000000000000e+03 7.450299072265625000e+01 -3.908193588256835938e+00 5.810236054218029245e-14 2.025538685889415047e-15 1.803837129308021731e-14 -1.209454797868481785e-14
5.923000000000000000e+03 1.589820384979248047e+01 -8.586237907409667969e+00 3.223747427317201486e-14 -1.005613100386534842e-13 -2.049715039083126189e-14 5.590404576977583972e-14
5.924000000000000000e+03 1.639673805236816406e+01 -9.175575256347656250e+00 -7.348397064455003402e-14 -1.687459715146374939e-13 -7.266898264775625838e-14 1.776459669200047137e-14
5.925000000000000000e+03 5.803250885009765625e+01 -6.841032505035400391e+00 -1.596801033412753590e-13 1.145694731577093228e-13 -1.353318939388298975e-14 -1.603941588920743122e-13
5.926000000000000000e+03 5.739810943603515625e+01 -6.101600646972656250e+00 -2.001303853541025468e-13 9.723362929701592772e-14 -3.086902478424691232e-14 1.395406143064881199e-14
5.927000000000000000e+03 7.473095703125000000e+01 -1.861515235900878906e+01 9.460624151485033662e-14 2.235493284626424715e-13 9.544666760511605341e-14 -1.264465555915819661e-13
5.928000000000000000e+03 6.349652099609375000e+01 -1.822025108337402344e+01 -2.849629576360743211e-14 3.353825260587507684e-14 1.512586967976998695e-15 4.989203969125825811e-14
5.929000000000000000e+03 4.799225997924804688e+01 -1.886549377441406250e+01 2.797411858634999554e-14 -3.376204209867145201e-14 -1.736376672531610675e-15 -9.817096612084290352e-15
5.930000000000000000e+03 6.162490463256835938e+01 -1.760141754150390625e+01 5.177301865217157073e-14 -2.356251349903363407e-14 8.463151715347970450e-15 3.286091423927370303e-14
5.931000000000000000e+03 6.024741744995117188e+01 -1.658947181701660156e+01 6.336081561763434733e-14 3.474112816002905557e-13 1.232316250996193241e-13 1.470315026414620307e-13
5.932000000000000000e+03 3.109695816040039062e+01 -1.470776844024658203e+01 -8.718230944029098373e-14 -8.311479624120363119e-14 -5.108913102682202667e-14 -7.872769412298544212e-14
5.933000000000000000e+03 2.307133865356445312e+01 -1.461184978485107422e+01 -5.806327208924687462e-16 -2.518790568912382399e-13 -7.573790498840299312e-14 2.196409964712667251e-13
5.934000000000000000e+03 3.824557876586914062e+01 -2.230116462707519531e+01 -6.717520826702780279e-14 -2.878937255148920904e-14 -2.878937255148920904e-14 6.040164164189745777e-14
5.935000000000000000e+03 7.900811672210693359e+00 -2.177005958557128906e+01 1.607478290288708728e-14 -3.886175642354647297e-14 -6.836092479714289336e-15 -4.444175875830541633e-14
5.936000000000000000e+03 9.210821151733398438e+00 -2.194403839111328125e+01 -1.128738317819188292e-14 -1.055631835877911609e-14 -6.553110630497889152e-15 -5.195566606065391002e-14
5.937000000000000000e+03 5.968899917602539062e+01 -2.509604644775390625e+01 2.585841493729125473e-14 -3.466877053991644642e-14 -2.643107019600736407e-15 1.126368082463545528e-13
5.938000000000000000e+03 3.767279815673828125e+01 -2.294768714904785156e+01 -4.959225440243422711e-15 -9.362728149199528449e-14 -2.957595106323207546e-14 8.389208110744922342e-14
5.939000000000000000e+03 5.645434951782226562e+01 -3.253634452819824219e+00 -4.610038818243268610e-14 1.414432942515100877e-13 2.860287283716275719e-14 5.042232636195270734e-14
5.940000000000000000e+03 6.495324611663818359e+00 -6.877479553222656250e+00 -4.817181741933844463e-14 7.085683358413683020e-14 6.805504425923042042e-15 -7.286249410082008132e-15
5.941000000000000000e+03 2.698627090454101562e+01 -1.285008239746093750e+01 -6.135361858318477690e-14 1.109584361782926798e-13 1.488144392327965526e-14 7.174623173128100162e-14
5.942000000000000000e+03 2.620152282714843750e+01 -1.321092700958251953e+01 -1.363623298479554879e-13 2.160646878426875084e-13 2.391070841485914283e-14 3.125476358842652069e-14
5.943000000000000000e+03 7.632567882537841797e+00 -5.045764923095703125e+00 -2.195847534835690396e-13 6.602056683464863074e-14 -4.606925802755519606e-14 2.131375452648839874e-14
5.944000000000000000e+03 5.879086303710937500e+01 -6.877375602722167969e+00 -1.097225066880314071e-13 -9.277488174398718090e-14 -6.074921652960557639e-14 -1.596763154099352378e-14
5.945000000000000000e+03 5.863943862915039062e+01 -7.535058975219726562e+00 -1.487825162550804325e-13 2.107417566192884562e-13 1.858777041519651257e-14 -3.276097451589306264e-14
5.946000000000000000e+03 2.810260200500488281e+01 -1.239060020446777344e+01 -1.102689242541733672e-13 -4.725811281473986381e-14 -4.725811281473986381e-14 -5.161753050810999333e-14
5.947000000000000000e+03 5.847870635986328125e+01 -3.432519912719726562e+00 -2.748902451152335225e-13 8.005000064507591939e-15 -8.006557927504182048e-14 -1.871725024320605724e-13
5.948000000000000000e+03 5.914432525634765625e+01 -5.114344596862792969e+00 -5.898849930654342932e-14 2.721003760849938224e-13 6.393356574404054915e-14 -1.505943129529938029e-13
5.949000000000000000e+03 6.490007781982421875e+01 -2.091666793823242188e+01 5.503992986204131466e-15 9.386075087731288180e-14 2.980942383668146178e-14 -4.016066789563378647e-14
5.950000000000000000e+03 6.572922515869140625e+01 -2.080648422241210938e+01 -7.585634899354935096e-15 4.249996283177924494e-14 1.047429846443058768e-14 -5.457527808036370665e-14
5.951000000000000000e+03 6.115256881713867188e+01 -1.415937042236328125e+01 -6.104218150913831575e-14 1.568428546760980424e-13 2.874020398296699141e-14 7.240172003597500350e-14
5.952000000000000000e+03 1.067826938629150391e+01 -6.869331359863281250e+00 -3.853869128120010479e-14 -1.523397158203695922e-13 -5.726352009759183570e-14 -1.054696016937126113e-13
5.953000000000000000e+03 6.356416320800781250e+01 -1.880887794494628906e+01 -6.121150000716266137e-14 1.110193480115956310e-13 1.494235406251671200e-14 -7.596509955364733058e-14
5.954000000000000000e+03 6.394792175292968750e+01 -2.021561622619628906e+01 -1.019173589652307838e-14 -5.011883445695149153e-14 -1.809317093663578152e-14 1.651968187623472500e-14
5.955000000000000000e+03 5.828989410400390625e+01 -5.546251773834228516e+00 -2.052876911431272822e-13 -4.222948827106200176e-14 -7.425515009731181726e-14 -6.018028143959380794e-14
5.956000000000000000e+03 5.724850845336914062e+01 -4.544398784637451172e+00 -1.399420266083237219e-13 -1.057261035989319475e-13 -7.370043838455034302e-14 -1.608930782386660402e-14
5.957000000000000000e+03 3.289464569091796875e+01 -1.905267143249511719e+01 1.034993759533447966e-13 -9.289597357412665568e-14 3.181021433743447431e-15 3.928235910383506835e-14
5.958000000000000000e+03 6.125352478027343750e+01 -1.694196701049804688e+01 1.309584087222717685e-13 5.612503327758269767e-14 5.612503327758269767e-14 1.071357341356866597e-14
5.959000000000000000e+03 6.279169559478759766e+00 -1.984515571594238281e+01 1.024251823221640489e-13 -4.760539293498233793e-14 1.644593579971497660e-14 1.399716185513689981e-14
5.960000000000000000e+03 1.284733581542968750e+01 -7.229829311370849609e+00 -9.301047209980470298e-14 -1.027691861189665434e-13 -5.873389475512594271e-14 -5.042118117340801953e-14
5.961000000000000000e+03 4.734678649902343750e+01 -1.952894592285156250e+01 -7.025806260559097627e-14 1.564035156270161819e-14 -1.638531195761409182e-14 -6.166675141719164116e-15
5.962000000000000000e+03 4.679747390747070312e+01 -2.188437080383300781e+01 -1.557638194045907892e-14 -2.811812740109720377e-13 -8.902730305347314466e-14 -4.985794830919716702e-14
5.963000000000000000e+03 2.749840545654296875e+01 -1.290892219543457031e+01 -2.349560975466180590e-13 3.655737957361862578e-14 -5.951961606952618777e-14 -2.684342277538970256e-14
5.964000000000000000e+03 3.851460933685302734e+00 -2.318637847900390625e+01 6.416245437517939521e-14 -1.825275363796438621e-14 1.377291072938427105e-14 -8.664972900437536985e-14
5.965000000000000000e+03 7.023314666748046875e+01 -2.148794364929199219e+01 1.533177915408277109e-14 -6.205565981865987513e-14 -1.401716453818631011e-14 4.550529925610854662e-15
5.966000000000000000e+03 7.045025634765625000e+01 -2.231207656860351562e+01 -4.721750605524849265e-14 -8.886249754699176995e-14 -4.082399972541936317e-14 -1.107966325565763743e-13
5.967000000000000000e+03 5.763869857788085938e+01 -5.407382488250732422e+00 -1.886093549136741432e-13 1.066931594207462877e-14 -5.338201194558973850e-14 -4.732061368185186412e-14
5.968000000000000000e+03 5.376629352569580078e+00 -7.676802635192871094e+00 7.450430653281256421e-14 7.768136448763757196e-14 4.565570266138775646e-14 -1.390809939005172025e-13
5.969000000000000000e+03 2.851309013366699219e+01 -1.553816127777099609e+01 -1.067471780999244835e-13 -3.431105158563201030e-14 -4.231746788922741143e-14 5.702769257254908242e-14
5.970000000000000000e+03 6.251966094970703125e+01 -1.876191520690917969e+01 -1.131300660247268330e-13 -2.733365156394260143e-15 -3.475903037077586466e-14 -3.003174288028140348e-14
5.971000000000000000e+03 6.204824829101562500e+01 -1.827557182312011719e+01 4.048975374816923822e-14 2.003565499272830230e-13 7.225388906975660497e-14 7.394051462685652387e-14
5.972000000000000000e+03 4.674842071533203125e+01 -2.033100128173828125e+01 1.550113322749090139e-14 -1.763604588972747522e-13 -4.825779465161654513e-14 -2.042644177446036741e-14
5.973000000000000000e+03 6.950889587402343750e+01 -2.164705657958984375e+01 5.088951924247207825e-14 -6.969210229528996492e-14 -5.640775254658544902e-15 -1.456122955502056615e-13
5.974000000000000000e+03 6.851279449462890625e+01 -2.099579620361328125e+01 2.257416835112300429e-14 9.674643458048009376e-15 9.674643458048009376e-15 -1.448879129737137839e-13
5.975000000000000000e+03 1.661706161499023438e+01 -1.179089164733886719e+01 7.702164101820729858e-14 -1.499945187586476658e-13 -2.189186298331893127e-14 -5.976097810784630066e-15
5.976000000000000000e+03 1.788472557067871094e+01 -1.284094905853271484e+01 -2.838442134599997863e-14 -2.866704540849945859e-13 -9.451646279870495881e-14 1.154572585541219221e-13
5.977000000000000000e+03 4.554902648925781250e+01 -1.912703895568847656e+01 1.592878999816423058e-14 -8.467527487553486165e-14 -2.062394444677165262e-14 2.266314577410027953e-13
5.978000000000000000e+03 4.500783157348632812e+01 -1.855369567871093750e+01 9.067896817270808957e-15 -1.333666114827422589e-13 -3.728961245146565628e-14 1.320387619770449494e-13
5.979000000000000000e+03 7.303087615966796875e+01 -2.090312576293945312e+01 2.771283941530814504e-14 1.148165628328187693e-13 4.275882287672373716e-14 -1.212519193665058392e-14
5.980000000000000000e+03 5.954951477050781250e+01 -6.842958927154541016e+00 -2.063226163268733204e-13 2.318326737180131936e-13 7.653016370309014688e-15 -1.783479370047122425e-13
5.981000000000000000e+03 5.797372817993164062e+00 -1.244774532318115234e+01 1.011816295353774875e-13 -2.387393702055293915e-15 2.963826897122746884e-14 -5.297193619076961957e-14
5.982000000000000000e+03 6.678366851806640625e+01 -2.171334838867187500e+01 -2.236634204125058367e-14 -9.585574555512430678e-15 -9.585574555512430678e-15 -5.456853908623535143e-14
5.983000000000000000e+03 5.515603256225585938e+01 -1.762165904045104980e+00 -1.858146205261854145e-13 1.186705864597483590e-14 -5.218427008872247863e-14 5.931048702298089004e-14
5.984000000000000000e+03 3.586662673950195312e+01 -2.038584709167480469e+01 -5.782121336632764508e-14 -1.620333641566551464e-13 -6.595637528977391084e-14 1.765267755105340286e-13
5.985000000000000000e+03 1.457209587097167969e+01 -9.179586410522460938e+00 -6.628026036001322119e-14 -7.415677230268591380e-14 -4.213111047643609830e-14 -1.417070535350214988e-13
5.986000000000000000e+03 7.455921173095703125e+01 -2.257179832458496094e+01 -5.668551836691265722e-14 6.720810025043558178e-14 3.156775327386529897e-15 4.709190800982962499e-14
5.987000000000000000e+03 7.386748504638671875e+01 -2.310893821716308594e+01 3.633264818018490383e-15 -2.271976281154747257e-13 -6.706930881983028114e-14 -4.074635052107866695e-14
5.988000000000000000e+03 8.430631637573242188e+00 -6.652359485626220703e+00 7.709540064725420305e-14 3.304088841177450775e-14 3.304088841177450775e-14 8.344572184930051928e-14
5.989000000000000000e+03 9.535462379455566406e+00 -6.288022994995117188e+00 1.457573448602252769e-14 -1.310061000653339747e-13 -3.492911119845273915e-14 1.355828613307718741e-14
5.990000000000000000e+03 5.904283523559570312e+01 -3.648922920227050781e+00 -3.122393023389374855e-13 3.436001220756567699e-15 -9.264098955194879914e-14 1.214769675502618343e-14
5.991000000000000000e+03 5.043470859527587891e+00 -1.471775817871093750e+01 2.387846356462306613e-14 1.246110013135640071e-13 4.454683827760999582e-14 -1.085634200267450444e-13
5.992000000000000000e+03 5.571138858795166016e+00 -1.673031806945800781e+01 7.362099347036146768e-14 3.155185531247828301e-14 3.155185531247828301e-14 6.957802220388786124e-15
5.993000000000000000e+03 1.580415058135986328e+01 -9.293839454650878906e+00 -1.282185006598764426e-15 4.520144227990706420e-14 1.317577706552545969e-14 8.136560544248772064e-14
5.994000000000000000e+03 1.613068389892578125e+01 -1.058944797515869141e+01 9.953620747248028040e-16 -2.244889048415819877e-14 -6.436058724000343761e-15 -8.685993547682957505e-14
5.995000000000000000e+03 5.726764678955078125e+00 -1.791765975952148438e+01 7.503326166771392969e-14 1.236590040434859539e-13 5.960768039098632287e-14 -3.679879751611325744e-14
5.996000000000000000e+03 5.953954315185546875e+01 -9.205514907836914062e+00 -3.240268635546807163e-14 -1.053887608692266609e-13 -4.133743382859524085e-14 -2.439806745578674413e-14
5.997000000000000000e+03 7.528662872314453125e+01 -2.217886161804199219e+01 -1.450046290316477429e-15 -3.208780897240304242e-13 -9.669843999962277059e-14 -9.958735767458259946e-14
5.998000000000000000e+03 5.180356025695800781e+00 -8.881321907043457031e+00 6.029409556265047376e-14 2.660328012570045697e-13 9.789806904589651304e-14 -9.124754581481611670e-14
5.999000000000000000e+03 6.235924720764160156e+00 -9.152521133422851562e+00 5.689968895356001255e-14 7.013653031831892926e-14 3.811086849206911376e-14 -7.414542883745628421e-14
6.000000000000000000e+03 4.545965957641601562e+01 -2.032771110534667969e+01 6.338008053498669914e-14 1.000628565601827460e-14 2.201590926437842904e-14 1.309784258048812822e-13
6.001000000000000000e+03 4.666915512084960938e+01 -1.900508689880371094e+01 -1.606158274143707626e-14 -1.441363846853283004e-13 -4.805938904218348684e-14 1.838917337631737481e-14
6.002000000000000000e+03 2.991170310974121094e+01 -1.693107604980468750e+01 -1.442219011316830946e-13 -2.676886490249330564e-13 -1.235731623364794141e-13 -1.014357733008716678e-13
6.003000000000000000e+03 3.088694190979003906e+01 -1.612100219726562500e+01 1.866117598447146475e-14 7.997646124459530104e-15 7.997646124459530104e-15 -6.354164698747777340e-14
6.004000000000000000e+03 4.457107162475585938e+01 -1.903664016723632812e+01 6.089128089551906764e-14 -2.484094202039044408e-13 -5.625544247014196975e-14 1.554414285004704355e-13
6.005000000000000000e+03 7.186128234863281250e+01 -2.202511024475097656e+01 -1.232822488707449246e-14 -1.654118465463372267e-13 -5.332202168413339993e-14 -9.933594474331036706e-14
6.006000000000000000e+03 5.451029300689697266e+00 -1.367707252502441406e+01 1.143229933463218995e-13 3.921276823214137064e-13 1.519351999898152505e-13 -1.595572733995281184e-14
6.007000000000000000e+03 2.825245285034179688e+01 -1.412676143646240234e+01 -5.960690789693842695e-14 6.595607713417647733e-14 1.904750517061530937e-15 -1.948282843649423723e-14
6.008000000000000000e+03 2.593896484375000000e+01 -1.401526069641113281e+01 -4.906568790044411876e-14 -1.125300482136826208e-13 -4.847872117305120077e-14 5.340141916447722903e-14
6.009000000000000000e+03 1.874664115905761719e+01 -1.245221233367919922e+01 2.281516785934169234e-14 -8.172396814181207003e-14 -1.767263940711475551e-14 1.087479173551841871e-13
6.010000000000000000e+03 2.223543357849121094e+01 -1.474575138092041016e+01 -2.317079464224641033e-14 -1.471831825253927528e-13 -5.110619365851151730e-14 1.567143496136041980e-13
6.011000000000000000e+03 6.292807388305664062e+01 -1.837592887878417969e+01 -2.612066819622244768e-14 1.031828024715061853e-13 2.311863943555217404e-14 -1.078390103451988546e-13
6.012000000000000000e+03 1.898646545410156250e+01 -1.322799873352050781e+01 1.608312448335164763e-14 -2.218619710690761249e-13 -6.173365854969525834e-14 4.044099175546170266e-14
6.013000000000000000e+03 2.394584083557128906e+01 -1.452900886535644531e+01 -5.387641830063849557e-14 -2.308989283138825760e-14 -2.308989283138825760e-14 2.450871875781836240e-14
6.014000000000000000e+03 1.000200843811035156e+01 -2.786855125427246094e+01 -1.049252746048844748e-14 5.269188676961661377e-14 1.265980779273844989e-14 -1.220709663451828575e-14
6.015000000000000000e+03 3.946827697753906250e+01 -2.462389373779296875e+01 8.935488626956016728e-15 -4.192145288133171388e-14 -9.895789361016003871e-15 -1.218410731329685678e-14
6.016000000000000000e+03 4.768507766723632812e+01 -2.356904983520507812e+01 -4.411045367944815832e-14 -1.332818539779082045e-13 -5.321769094195419325e-14 3.174407080513280688e-14
6.017000000000000000e+03 7.119944000244140625e+01 -2.857799148559570312e+01 -3.457038978067522757e-15 3.283162383995764932e-14 8.812375776204393191e-15 -7.663984599943010623e-15
6.018000000000000000e+03 4.354157638549804688e+01 -2.369970703125000000e+01 1.022147522330117686e-14 -4.137031564760765279e-14 -9.344652127291942778e-15 -1.373079286311499822e-14
6.019000000000000000e+03 6.664555549621582031e+00 -7.495783329010009766e+00 1.103769988819794379e-13 2.760591776874987691e-13 1.159308516155907465e-13 -9.564191208758995866e-15
6.020000000000000000e+03 5.877170944213867188e+01 -4.304397583007812500e+00 -1.490819864476480849e-13 -1.553941843908043796e-13 -9.134285396204117058e-14 -2.365462155578396120e-13
6.021000000000000000e+03 5.788732147216796875e+01 -4.746061325073242188e+00 -1.881687893608846585e-13 -2.178966100434276409e-13 -1.218196144002828274e-13 -1.913136397349232687e-14
6.022000000000000000e+03 5.723471641540527344e+00 -6.247629165649414062e+00 3.372832002297536380e-14 -5.417142971177180133e-14 -6.132932737232341808e-15 -9.333781984073238891e-14
6.023000000000000000e+03 7.209310913085937500e+01 -2.280908775329589844e+01 -9.552166729039773818e-15 1.878168844407501759e-14 2.768856472158925768e-15 -2.825278903786487134e-14
6.024000000000000000e+03 7.326795959472656250e+01 -2.167453575134277344e+01 -5.723616432152731082e-14 -1.160316824176318984e-13 -5.198035198886868935e-14 -1.342854728239237239e-13
6.025000000000000000e+03 1.244008827209472656e+01 -8.051178932189941406e+00 -2.615048417948227268e-15 -1.841245255221335420e-13 -5.602187482900249094e-14 -1.640067205307960130e-13
6.026000000000000000e+03 1.312450695037841797e+01 -7.924185276031494141e+00 -5.094041914633848367e-14 1.611721823710499102e-13 3.306952828978707015e-14 -5.810339053424415368e-14
6.027000000000000000e+03 5.795593261718750000e+01 -7.518576145172119141e+00 -8.798044486956618782e-14 2.367997833409296593e-13 4.464580221903539925e-14 -1.730993651096867508e-14
6.028000000000000000e+03 7.153779506683349609e+00 -7.031511783599853516e+00 3.956113119930361466e-14 1.695477051398726343e-14 1.695477051398726343e-14 2.304251319645064106e-14
6.029000000000000000e+03 1.489980506896972656e+01 -9.885818481445312500e+00 1.186915589955223754e-14 3.939999165141795656e-14 1.538074443469764768e-14 -5.877962098175051886e-14
6.030000000000000000e+03 6.374945068359375000e+01 -1.944985008239746094e+01 -4.961810923611621738e-14 -2.126490274828845423e-14 -2.126490274828845423e-14 -1.752891316255875132e-13
6.031000000000000000e+03 3.238524627685546875e+01 -1.798240470886230469e+01 3.698526673725360814e-14 -3.272812793345125648e-13 -8.708880377917768700e-14 1.821327724394112592e-15
6.032000000000000000e+03 2.562302780151367188e+01 -1.588652324676513672e+01 -1.077892115841638798e-13 -2.331990293414926835e-14 -3.933273384727417610e-14 1.869236238233665248e-13
6.033000000000000000e+03 2.475617599487304688e+01 -1.564383792877197266e+01 -6.256187381299335715e-14 1.104406144444500248e-13 1.436362218943700031e-14 7.582286578114438846e-14
6.034000000000000000e+03 2.385806655883789062e+01 -1.643800544738769531e+01 -5.753838567710764518e-14 2.498463946582624162e-13 5.769239659570921108e-14 1.703175903262910129e-13
6.035000000000000000e+03 2.308356666564941406e+01 -1.643078613281250000e+01 -5.800046586675738913e-14 -9.348376700567609388e-14 -4.544526918410368710e-14 2.138918111637549968e-14
6.036000000000000000e+03 1.947455024719238281e+01 -1.488978672027587891e+01 -5.171949633430046600e-14 -2.051692962658918651e-13 -7.706663540836544701e-14 9.163562242993014695e-14
6.037000000000000000e+03 2.033554077148437500e+01 -1.450926876068115234e+01 7.262808789706282075e-14 -3.348812655130928295e-13 -7.867595057430357142e-14 1.858814073800105215e-13
6.038000000000000000e+03 5.891943359375000000e+01 -5.642173767089843750e+00 -1.701741639313983367e-13 1.100720128108592655e-13 -1.803064296446946907e-14 -1.343196522974113294e-13
6.039000000000000000e+03 6.083914279937744141e+00 -8.366037368774414062e+00 6.782131822292980505e-14 -1.539375181144886362e-13 -2.583486064509400715e-14 -2.134265393539599986e-13
6.040000000000000000e+03 6.832589149475097656e+00 -8.995847702026367188e+00 6.213076792415880845e-14 2.662747172548721869e-14 2.662747172548721869e-14 -1.203137795554448664e-13
6.041000000000000000e+03 5.620481491088867188e+00 -1.147885894775390625e+01 9.082350756889345789e-14 1.761772016250703898e-13 8.010021275818915432e-14 -9.410508261314606826e-14
6.042000000000000000e+03 5.913101673126220703e+00 -1.038050079345703125e+01 -8.090658812397524824e-15 1.109099452361282656e-13 3.084578558830604333e-14 6.309949917714281764e-15
6.043000000000000000e+03 6.305570125579833984e+00 -1.260178565979003906e+01 7.153455480963036295e-14 1.679105124255744763e-13 7.183351678242966276e-14 5.154642039812210030e-14
6.044000000000000000e+03 5.648875236511230469e+00 -1.303443813323974609e+01 1.272429410507881428e-14 2.342080251526573731e-13 7.407969230448577247e-14 5.644422917342600821e-14
6.045000000000000000e+03 7.285931396484375000e+01 -2.712224769592285156e+01 -4.616988892982079595e-14 -1.112889958681563540e-13 -4.723766543939314499e-14 -5.674008422937477925e-14
6.046000000000000000e+03 6.204506874084472656e+00 -1.599516105651855469e+01 -4.323130801909755294e-14 -1.557805533874967452e-13 -5.970355774435193164e-14 1.265893619583572521e-14
6.047000000000000000e+03 5.928110599517822266e+00 -1.851836967468261719e+01 -2.256876597498541637e-14 -9.672328517003163373e-15 -9.672328517003163373e-15 -6.938949469268568260e-14
6.048000000000000000e+03 6.785314083099365234e+00 -1.729678535461425781e+01 8.433483539337441326e-14 8.189445215717183757e-14 4.986878694279023305e-14 1.382441253486299537e-13
6.049000000000000000e+03 6.161334991455078125e+00 -1.399441528320312500e+01 4.472165910165970537e-14 2.707966500776343155e-13 9.465549139853549065e-14 9.983415597035819045e-14
6.050000000000000000e+03 1.537955284118652344e+01 -1.093797206878662109e+01 9.041215448838887947e-14 -1.442557282394646423e-13 -1.615307246413590775e-14 4.997771199167534706e-14
6.051000000000000000e+03 1.594549942016601562e+01 -1.274696254730224609e+01 -9.811586493355811678e-14 -3.623062949913852249e-13 -1.381266520432411493e-13 -1.396414366381997993e-14
6.052000000000000000e+03 2.908925247192382812e+01 -1.675685882568359375e+01 -1.075354947232751157e-13 -9.183758896587346232e-14 -5.981192375149185780e-14 -5.903216554904028301e-14
6.053000000000000000e+03 7.232409954071044922e+00 -2.032932853698730469e+01 7.430774745520452029e-14 -5.965571732349100875e-14 4.395608446590990384e-15 2.198467746554726848e-14
6.054000000000000000e+03 2.973073768615722656e+01 -1.784527015686035156e+01 -4.521455096179877176e-14 3.497810061950661249e-15 -1.251502190996543057e-14 -7.569326296395090248e-14
6.055000000000000000e+03 6.721144866943359375e+01 -2.270890045166015625e+01 -4.375522839016043886e-14 -1.875224049663077458e-14 -1.875224049663077458e-14 -4.975692099551225211e-14
6.056000000000000000e+03 9.429556846618652344e+00 -2.076879119873046875e+01 -3.091197613093628338e-14 -1.324799001241067781e-14 -1.324799001241067781e-14 -1.222731497215606700e-13
6.057000000000000000e+03 1.680987358093261719e+01 -1.247721862792968750e+01 6.781564649031499026e-14 -2.454418504375943666e-13 -5.328785915130473949e-14 2.423021601882704296e-14
6.058000000000000000e+03 6.905931854248046875e+01 -2.270440864562988281e+01 3.234966209296995243e-14 -1.691396588759941366e-13 -4.103699801846771855e-14 -1.581436262325375264e-13
6.059000000000000000e+03 6.301657485961914062e+01 -1.892261695861816406e+01 -6.603497317101553188e-14 1.745024582461545543e-14 -1.457541769570025458e-14 -1.585540475768001251e-14
6.060000000000000000e+03 2.674336433410644531e+01 -1.428173065185546875e+01 -1.184246927951604356e-13 3.381296165370223372e-13 6.591147576730585489e-14 -8.027017500125341321e-14
6.061000000000000000e+03 3.148376464843750000e+01 -1.798028564453125000e+01 -7.856666977158061060e-14 -1.709242827569595891e-13 -7.484728711381477551e-14 1.129059089196313495e-14
6.062000000000000000e+03 3.393831253051757812e+01 -1.975971412658691406e+01 -1.975323523457570007e-14 -1.914694666921637478e-13 -6.336681261090090778e-14 -8.228161905890051669e-15
6.063000000000000000e+03 3.545489120483398438e+01 -2.248832893371582031e+01 -4.241844776906728010e-14 -4.105480942728258198e-14 -2.504197682009177972e-14 -1.134782660227500253e-14
6.064000000000000000e+03 4.517105865478515625e+01 -2.168865203857421875e+01 -8.428772342084812907e-15 -1.866161305347224797e-13 -5.851346967719606162e-14 6.281257523658989594e-14
6.065000000000000000e+03 4.921396255493164062e+01 -2.579785537719726562e+01 -2.542665513902142571e-14 -1.367122425465980284e-13 -4.864166998331219405e-14 -1.493358896557852450e-14
6.066000000000000000e+03 4.719720840454101562e+01 -2.581546592712402344e+01 -3.660948819350076308e-15 -4.731992589109869363e-14 -1.529426237078298362e-14 -2.716739763112142186e-14
6.067000000000000000e+03 6.995481872558593750e+01 -2.940998458862304688e+01 5.468486381494767901e-14 -4.519005476896417739e-14 2.848443264366466200e-15 -2.093391615381936383e-14
6.068000000000000000e+03 6.275399780273437500e+01 -2.515985298156738281e+01 -8.835855360095692945e-14 5.363394664915747956e-14 -1.041738123850688771e-14 4.724814493101657520e-14
6.069000000000000000e+03 1.402811336517333984e+01 -2.373972702026367188e+01 2.992606366165016796e-14 -5.580096863635856941e-14 -7.762471661819109886e-15 -6.919316854913813361e-15
6.070000000000000000e+03 6.115419387817382812e+01 -2.069890403747558594e+01 -2.856662999141564019e-14 1.936364344692562134e-13 4.952094100453899306e-14 6.181046072108870026e-14
6.071000000000000000e+03 1.236890220642089844e+01 -8.657527923583984375e+00 -1.832049763901989065e-14 6.077478337208550019e-14 1.273628470348014616e-14 -1.852036726019898327e-13
6.072000000000000000e+03 2.664753532409667969e+01 -1.517282962799072266e+01 -6.486162925116098488e-14 -4.922365107477757323e-15 -2.093519686763561233e-14 1.588496112534150406e-14
6.073000000000000000e+03 2.741543388366699219e+01 -1.638963890075683594e+01 -9.777666550763244868e-14 -1.791571312961467988e-13 -8.308013565300198522e-14 -2.634230961346458594e-14
6.074000000000000000e+03 5.757397079467773438e+01 -3.884672641754150391e+00 -8.482196065320857237e-14 8.946284061868772786e-14 1.392264455511867637e-15 7.124074279715036928e-14
6.075000000000000000e+03 6.691933631896972656e+00 -1.819826889038085938e+01 6.642722396449363131e-14 7.421975767264374357e-14 4.219409584639392807e-14 5.014295117902571597e-14
6.076000000000000000e+03 6.480607604980468750e+01 -2.295882225036621094e+01 2.607129803385878353e-14 1.255507877566744424e-13 4.548662472072043106e-14 -5.130914952893722569e-14
6.077000000000000000e+03 6.575342559814453125e+01 -2.314884948730468750e+01 1.428180219486402391e-14 6.330945831597642459e-14 2.327737849206531345e-14 -5.271139224432598580e-14
6.078000000000000000e+03 6.822788715362548828e+00 -8.228486061096191406e+00 4.804159457402756850e-14 4.346472997057010401e-14 2.745189736337930175e-14 3.210759362917182946e-14
6.079000000000000000e+03 6.707523345947265625e+00 -9.618748664855957031e+00 6.730451292862385526e-14 -6.265710742131905264e-14 1.394222372169445952e-15 -6.061951884472199792e-14
6.080000000000000000e+03 1.747555732727050781e+01 -1.476038074493408203e+01 9.235415031469060287e-14 -2.806762797440826018e-13 -5.649664357220210431e-14 5.081291358272239933e-14
6.081000000000000000e+03 1.835575103759765625e+01 -1.440052604675292969e+01 -6.076022118165630426e-14 -2.547948288987578191e-13 -9.466651637937695263e-14 7.522293606152669065e-14
6.082000000000000000e+03 7.256074523925781250e+01 -2.186018943786621094e+01 4.575007229610725257e-14 -7.189472677133004752e-14 -7.843396342566838486e-15 -5.691815427181015630e-14
6.083000000000000000e+03 7.280120086669921875e+01 -2.263901138305664062e+01 5.867057565418689474e-15 -1.804893447155883623e-13 -5.238668385806194427e-14 -1.401879236610434343e-13
6.084000000000000000e+03 1.442545223236083984e+01 -1.192032337188720703e+01 1.069590650857460412e-13 -1.600396654392530205e-13 -1.592418044486527268e-14 -1.277237321982427343e-13
6.085000000000000000e+03 6.982634544372558594e+00 -1.588418579101562500e+01 9.103620431821259074e-15 3.901551916149449337e-15 3.901551916149449337e-15 4.077040964491247810e-14
6.086000000000000000e+03 6.242759227752685547e+00 -1.720922279357910156e+01 1.482159664098481322e-13 6.352112846136348523e-14 6.352112846136348523e-14 -8.485236574788321273e-14
6.087000000000000000e+03 7.160587310791015625e+01 -2.372093391418457031e+01 -7.770442411259362303e-14 1.268264193752394187e-13 1.473660128929916990e-14 9.702790193478680325e-14
6.088000000000000000e+03 7.023892211914062500e+01 -2.412055397033691406e+01 -6.126149379753374150e-16 -9.176444597681215898e-14 -2.771311893618073896e-14 3.774692553968825304e-14
6.089000000000000000e+03 3.059312820434570312e+01 -1.795933723449707031e+01 -3.493311258209556847e-14 -1.979751269604729247e-13 -6.987247287921008465e-14 -3.745936801849078512e-14
6.090000000000000000e+03 6.314253616333007812e+01 -2.047142982482910156e+01 -3.430524771587742383e-14 3.104870080115028352e-14 -9.769647308686762142e-16 -1.153734090686073244e-13
6.091000000000000000e+03 6.207936477661132812e+01 -2.160342979431152344e+01 -1.663490334453325385e-15 -6.933935034220822802e-14 -2.130085082656992673e-14 3.521642477416139783e-14
6.092000000000000000e+03 1.721191596984863281e+01 -1.397019004821777344e+01 -2.702114384025081084e-14 -2.174597578830789191e-13 -7.334427119462527678e-14 6.269300128949190087e-14
6.093000000000000000e+03 1.225022602081298828e+01 -7.531745910644531250e+00 9.229235756712250716e-14 -5.194802921160146525e-14 1.210329867606290202e-14 -1.162819569366230210e-13
6.094000000000000000e+03 9.183508872985839844e+00 -7.846784114837646484e+00 1.805974532247123232e-13 7.739890949291436395e-14 7.739890949291436395e-14 4.771297967181079014e-14
6.095000000000000000e+03 1.016942310333251953e+01 -7.488229274749755859e+00 -1.497630551473491667e-13 -1.843321908957459843e-14 -5.045888430395620294e-14 -2.995416821484006564e-14
6.096000000000000000e+03 7.573427200317382812e+00 -8.304288864135742188e+00 -2.158512355399794247e-14 1.051266075601832439e-13 2.506244452422923263e-14 6.338731080822446184e-14
6.097000000000000000e+03 8.550712585449218750e+00 -8.037395477294921875e+00 -4.194399412212404532e-14 -6.372694391501912414e-14 -3.170128208876930864e-14 2.074450637309932510e-13
6.098000000000000000e+03 6.811599254608154297e+00 -1.251647853851318359e+01 8.120544167655729950e-14 -1.094861658610226177e-14 2.107704778124639550e-14 5.262146445038189124e-14
6.099000000000000000e+03 6.580036640167236328e+00 -1.183324623107910156e+01 3.280254011668072567e-14 4.837144275621554912e-14 2.435219553949524024e-14 -3.651563270778025033e-15
6.100000000000000000e+03 7.175499725341796875e+01 -2.697214126586914062e+01 -1.737074161812027229e-14 -1.904484057436983679e-13 -6.234574488617194987e-14 -2.173796344954992930e-15
6.101000000000000000e+03 1.458330154418945312e+01 -1.110189914703369141e+01 -1.075950546919942491e-14 -4.611216448149836264e-15 -4.611216448149836264e-15 -1.079284502481653307e-13
6.102000000000000000e+03 4.498123931884765625e+01 -1.963858222961425781e+01 -1.526169056582926675e-14 -3.725483192339867911e-13 -1.163429975189339549e-13 5.267122933009897590e-14
6.103000000000000000e+03 2.652047729492187500e+01 -1.616076469421386719e+01 -1.548854225213655567e-13 4.799790122647640267e-14 -3.206625842134581961e-14 -1.748042222039433713e-14
6.104000000000000000e+03 7.144521331787109375e+01 -2.771340751647949219e+01 3.896638870945490218e-14 3.957535457655390887e-14 2.356252196936310661e-14 1.486886887214471792e-14
6.105000000000000000e+03 7.059577941894531250e+01 -2.733298683166503906e+01 -2.438864506128148729e-14 -2.189001475742802238e-14 -1.388359760679967400e-14 -2.956173446224535928e-14
6.106000000000000000e+03 1.214058208465576172e+01 -1.995262908935546875e+01 8.218991757796487163e-14 3.522425135859402756e-14 3.522425135859402756e-14 -3.335095668057820595e-14
6.107000000000000000e+03 1.398021984100341797e+01 -2.245337486267089844e+01 2.244808749692420169e-14 9.620608685243815794e-15 9.620608685243815794e-15 -6.951772192837282760e-14
6.108000000000000000e+03 1.389555358886718750e+01 -2.133467864990234375e+01 7.790307705564727958e-15 -1.339141471323745947e-13 -3.783715148922978111e-14 -3.830043785379641519e-14
6.109000000000000000e+03 6.160203552246093750e+01 -2.676793098449707031e+01 1.787769253111786555e-14 5.341281683981548289e-14 2.138715331949977289e-14 -5.305014782498729264e-15
6.110000000000000000e+03 4.415532684326171875e+01 -2.481472015380859375e+01 -4.816697239088015003e-14 -2.493977246942336023e-13 -8.926941217485273583e-14 -1.618336066826382702e-14
6.111000000000000000e+03 1.530910682678222656e+01 -2.369420051574707031e+01 2.118859524413620882e-14 -1.379464813590965816e-14 2.218184047764670472e-15 -3.074318279333923543e-14
6.112000000000000000e+03 3.538121795654296875e+01 -2.179839706420898438e+01 6.561564442827960697e-14 -2.921356461859508924e-13 -6.795600323780681684e-14 -4.084225497949858785e-14
6.113000000000000000e+03 6.380800247192382812e+01 -2.393146514892578125e+01 -5.674417709257591202e-14 -4.719440577271097337e-14 -3.118157655365196013e-14 -4.556059462569649141e-16
6.114000000000000000e+03 6.285344696044921875e+01 -2.272403907775878906e+01 6.233574650926256011e-15 -1.117058377221591403e-13 -3.164167807433691804e-14 8.410415782865096612e-14
6.115000000000000000e+03 6.384574508666992188e+01 -2.279457664489746094e+01 -2.663834085226638587e-14 8.008546760864335146e-14 1.603413717988014242e-14 -4.387832260618722280e-14
6.116000000000000000e+03 7.536756992340087891e+00 -2.101984214782714844e+01 2.042626897973912753e-14 5.450506243716811416e-14 2.247940061091829866e-14 3.864301185898394442e-14
6.117000000000000000e+03 1.089899253845214844e+01 -8.046950340270996094e+00 -5.008004034796724457e-14 -2.044666654954854779e-13 -7.636401141422263783e-14 -1.022408137427328889e-13
6.118000000000000000e+03 2.092970848083496094e+01 -1.642946815490722656e+01 9.194083889401197252e-14 -1.664760587412675297e-13 -2.236056358248441484e-14 8.425217175398597158e-14
6.119000000000000000e+03 2.228656196594238281e+01 -1.641262435913085938e+01 7.724177471680332419e-14 1.022814391369490997e-14 2.624097567385276497e-14 2.378810039574408286e-13
6.120000000000000000e+03 2.221185493469238281e+01 -1.742993164062500000e+01 3.027260516916263633e-14 -9.901500904179339618e-15 6.111331703011462640e-15 1.430059819477677574e-13
6.121000000000000000e+03 7.998373031616210938e+00 -1.005030822753906250e+01 7.120620418169312793e-14 3.051694706939118984e-14 3.051694706939118984e-14 1.360301303023059294e-13
6.122000000000000000e+03 7.335478305816650391e+00 -1.767160797119140625e+01 9.426122805477471500e-14 1.776505104047337857e-13 8.157352153785255022e-14 5.281799981106741204e-14
6.123000000000000000e+03 7.160937786102294922e+00 -1.961035537719726562e+01 1.084278828967230948e-14 4.646909145997711599e-15 4.646909145997711599e-15 3.912558685782545342e-14
6.124000000000000000e+03 1.625766754150390625e+01 -1.434982013702392578e+01 9.372502231784485272e-14 -7.420950518585017752e-14 5.854654461972044754e-15 -1.244534667379018633e-14
6.125000000000000000e+03 1.055106544494628906e+01 -8.724617004394531250e+00 -6.025001596807535997e-14 -2.582143686694592100e-14 -2.582143686694592100e-14 -9.318226393403503116e-15
6.126000000000000000e+03 7.201351928710937500e+01 -2.434584808349609375e+01 -1.499765616601658746e-13 -6.713510633917299519e-14 -6.513349972217530315e-14 -2.169783484015728320e-14
6.127000000000000000e+03 7.175044250488281250e+01 -2.565692329406738281e+01 -2.111986021453241685e-14 1.053260058922304843e-13 2.526184285627647297e-14 -3.244896484757425759e-14
6.128000000000000000e+03 2.634783744812011719e+01 -1.720817565917968750e+01 -6.180356926102983928e-14 -7.223819524330987729e-14 -4.021253002892827277e-14 4.815640480783020538e-14
6.129000000000000000e+03 7.068722534179687500e+01 -2.313040542602539062e+01 -3.467423220836034214e-14 -3.773585990126532286e-14 -2.172302729407452060e-14 -2.636564198302965289e-14
6.130000000000000000e+03 1.348995971679687500e+01 -9.822472572326660156e+00 5.761753243569908700e-14 -6.680867339382834391e-14 -2.757342329790424436e-15 2.264380462378267483e-14
6.131000000000000000e+03 1.162179374694824219e+01 -8.458538055419921875e+00 -1.665298961553950130e-14 -9.863889083782870215e-14 -3.458756379719728213e-14 1.453203944440546735e-14
6.132000000000000000e+03 6.974752902984619141e+00 -1.500607395172119141e+01 3.606609114684871178e-15 1.387985321295304164e-13 4.272154326264918089e-14 6.346848366962573595e-14
6.133000000000000000e+03 7.992122650146484375e+00 -1.827151679992675781e+01 2.946317709663463791e-14 3.550255250374390048e-14 1.948971820248720371e-14 3.321769468105258138e-14
6.134000000000000000e+03 1.295386695861816406e+01 -9.465412139892578125e+00 -4.716065320382878401e-14 -2.032155097409643618e-13 -7.511284888343794375e-14 -1.373081607181775299e-13
6.135000000000000000e+03 7.853191852569580078e+00 -1.081127357482910156e+01 3.914401490662591798e-14 1.677600590453513785e-14 1.677600590453513785e-14 2.600492792024372557e-14
6.136000000000000000e+03 6.590889930725097656e+00 -1.027065658569335938e+01 1.067201408082481262e-13 -9.151564190701746981e-14 4.561350347995554722e-15 -1.003212541251380374e-13
6.137000000000000000e+03 1.412391281127929688e+01 -1.360427284240722656e+01 1.685440930701206930e-13 -6.501966527032790322e-14 3.105732698468512132e-14 -1.855759198653855746e-13
6.138000000000000000e+03 7.328475189208984375e+01 -2.779825401306152344e+01 3.706243482688026392e-15 9.309028970849037021e-14 2.903895927972716118e-14 -5.405232332686069063e-14
6.139000000000000000e+03 6.471673583984375000e+01 -2.648795318603515625e+01 -2.944636857482932357e-14 1.025560133371310537e-14 -5.757230426444749638e-15 -3.240726372151503387e-14
6.140000000000000000e+03 7.104594421386718750e+01 -2.641496849060058594e+01 5.607015231886419704e-14 6.978101364969735432e-14 3.775535182344753882e-14 -1.615618043977762059e-15
6.141000000000000000e+03 7.036504364013671875e+01 -2.501239395141601562e+01 -8.505120842631705425e-14 1.236778013986514213e-13 1.158797823051348902e-14 5.127030290391024897e-15
6.142000000000000000e+03 1.399460697174072266e+01 -2.045660209655761719e+01 1.345398808636974475e-13 3.478447185237959483e-14 5.079730445957039708e-14 -1.268991409654094630e-16
6.143000000000000000e+03 3.197836303710937500e+01 -2.142844581604003906e+01 5.733279722828187042e-15 -4.329382921500028736e-14 -1.126816484765163009e-14 8.749922173530849667e-14
6.144000000000000000e+03 6.932336425781250000e+01 -2.789956665039062500e+01 4.675946451869125720e-14 6.579072275034528183e-14 3.376505414783188830e-14 -1.406486960318226176e-13
6.145000000000000000e+03 6.547578430175781250e+01 -2.429656982421875000e+01 -1.577836202892955036e-14 -9.826405504174615113e-14 -3.421272461298294210e-14 -1.242820950320133733e-14
6.146000000000000000e+03 1.138435649871826172e+01 -9.144345283508300781e+00 -8.322579821487541274e-14 -1.500455711284445770e-13 -6.998140809249056571e-14 -3.050490226088123369e-14
6.147000000000000000e+03 7.094091033935546875e+01 -2.396381759643554688e+01 -9.235225973715233128e-14 -2.225833314320121992e-13 -9.448067735074935913e-14 -1.257914806389662243e-13
6.148000000000000000e+03 7.124076080322265625e+01 -2.483792877197265625e+01 6.955641439340340404e-14 -1.594105672930636736e-14 1.608460679100934265e-14 -6.470990870964879460e-14
6.149000000000000000e+03 8.840094566345214844e+00 -8.752971649169921875e+00 3.233207091272137512e-14 2.883622973650495913e-13 9.620831285502354224e-14 1.348117581109753438e-13
6.150000000000000000e+03 8.224864006042480469e+00 -8.605340003967285156e+00 2.227162275133046099e-13 -8.755398072128259268e-14 4.054867335998024735e-14 1.272286312761772287e-13
6.151000000000000000e+03 2.902587509155273438e+01 -1.973171043395996094e+01 -4.467616665612857141e-14 -2.021507283398935040e-13 -7.404806748236708591e-14 1.191514809452225154e-14
6.152000000000000000e+03 2.946271324157714844e+01 -1.883392333984375000e+01 -2.698883630957663732e-14 -3.444211807575835171e-14 -1.842928716263344396e-14 -1.548410447711930094e-14
6.153000000000000000e+03 1.885253906250000000e+01 -1.616633987426757812e+01 -1.370488805448911995e-14 -1.202508958294407071e-13 -4.018673618161848482e-14 1.134203611564098269e-13
6.154000000000000000e+03 6.990107059478759766e+00 -1.325042533874511719e+01 9.131843908436951263e-14 2.221402722142259978e-13 9.403761135669957971e-14 6.597614842689461523e-14
6.155000000000000000e+03 7.786708354949951172e+00 -1.160700893402099609e+01 6.534250001971261823e-14 -6.349796719245376364e-14 5.533599540567747839e-16 1.007793837531217873e-13
6.156000000000000000e+03 2.446998214721679688e+01 -1.739628982543945312e+01 -1.133164132731227791e-13 2.259415121360144885e-13 3.378753101412022841e-14 7.696580460632429510e-14
6.157000000000000000e+03 6.850780487060546875e+01 -2.495234107971191406e+01 -9.130561161741629350e-15 4.183785072943771444e-14 9.812187209122004428e-15 -1.965359434441885100e-13
6.158000000000000000e+03 1.460523700714111328e+01 -8.543501853942871094e+00 2.794175006930361971e-14 -1.710287591888057235e-13 -4.292610171941109443e-14 -5.781298698234391131e-14
6.159000000000000000e+03 1.400588035583496094e+01 -9.321294784545898438e+00 3.803180982490418638e-14 -1.667044459289016012e-13 -3.860179184763876115e-14 7.517172783766748467e-14
6.160000000000000000e+03 2.026793098449707031e+01 -1.785446929931640625e+01 7.706188524759724490e-14 -1.042263199574691712e-13 -8.149331090587935700e-15 8.148557918913681974e-14
6.161000000000000000e+03 2.123657226562500000e+01 -1.755900001525878906e+01 8.259017791499220773e-14 -1.132947902160452713e-13 -9.211384198535687434e-15 1.194613933599639188e-13
6.162000000000000000e+03 2.518898200988769531e+01 -1.779736137390136719e+01 -4.380435291296939926e-14 -1.560261387320918680e-13 -5.994914986521063249e-14 7.866722952307864114e-14
6.163000000000000000e+03 1.378536510467529297e+01 -1.098866748809814453e+01 1.050234999335798725e-13 -1.837446752910032455e-13 -2.361635260722701191e-14 -4.265447519388558539e-14
6.164000000000000000e+03 1.400646591186523438e+01 -1.026093387603759766e+01 3.991776933954735429e-14 -7.439428034109601962e-14 -1.034295414749754685e-14 2.441441349760285762e-14
6.165000000000000000e+03 7.211159229278564453e+00 -1.050190734863281250e+01 6.430674135554648174e-14 -6.394186666692364129e-14 1.094634905243268240e-16 1.501065710531740427e-14
6.166000000000000000e+03 8.113953590393066406e+00 -9.318241119384765625e+00 5.011077747955720862e-14 1.587288921177723577e-13 6.265190325089112222e-14 5.902270588508534699e-14
6.167000000000000000e+03 1.475849819183349609e+01 -1.450697994232177734e+01 5.830449648471305868e-14 -3.220104508017650191e-14 7.831035590767556481e-15 -1.225767263298566112e-13
6.168000000000000000e+03 1.508661651611328125e+01 -1.283291721343994141e+01 1.455319697217516417e-13 -1.206329551224974428e-13 7.469703193930133517e-15 -8.089092817884641073e-14
6.169000000000000000e+03 7.908917427062988281e+00 -1.417156696319580078e+01 6.707795533215585304e-14 9.737411479351573695e-14 4.933562036007511920e-14 3.760607412495522994e-14
6.170000000000000000e+03 6.972808837890625000e+00 -1.667201423645019531e+01 5.112254817065710333e-14 6.766061235591314116e-14 3.563494714153153664e-14 1.108590283916029151e-13
6.171000000000000000e+03 6.127412033081054688e+01 -2.148354721069335938e+01 -5.066586527494726377e-14 4.691247932654685204e-14 -1.126015848047594563e-15 -1.046718863927792453e-13
6.172000000000000000e+03 6.241500854492187500e+01 -2.087773132324218750e+01 -2.941736616671533633e-14 2.161473040482309038e-13 5.601898136445467025e-14 1.410391595857820105e-15
6.173000000000000000e+03 6.626295089721679688e+00 -2.145112228393554688e+01 8.604620108879773577e-14 -5.462495486865427685e-14 9.426373019010090420e-15 5.178841178192202313e-15
6.174000000000000000e+03 1.545461177825927734e+01 -1.487345886230468750e+01 5.583041827786870692e-14 -3.620963121356290948e-13 -9.187976443038314844e-14 -6.314163059593924654e-14
6.175000000000000000e+03 8.652049064636230469e+00 -1.910563659667968750e+01 4.878356155450444542e-14 -1.163455996041479201e-13 -2.026861412539847362e-14 -3.908009441229431946e-14
6.176000000000000000e+03 1.522748851776123047e+01 -2.014120864868164062e+01 8.099734262207586299e-14 -5.678875135439222233e-14 7.262576533272144946e-15 3.193837465751878622e-15
6.177000000000000000e+03 1.467796897888183594e+01 -2.094846153259277344e+01 2.215997771024512397e-14 9.497133304390767417e-15 9.497133304390767417e-15 -5.658649682724684049e-14
6.178000000000000000e+03 6.610090637207031250e+01 -2.581599998474121094e+01 -2.733681311441822810e-15 -1.171577750280403379e-15 -1.171577750280403379e-15 -2.633461220155641248e-15
6.179000000000000000e+03 3.043100547790527344e+01 -2.204063034057617188e+01 -2.601546289252520093e-15 -1.154923189418746721e-13 -3.542815929405244979e-14 8.293678379700866743e-14
6.180000000000000000e+03 1.698649024963378906e+01 -2.156188583374023438e+01 5.117859125857923686e-14 -1.153191583024015809e-13 -1.924217112958623993e-14 -7.570646312540091349e-14
6.181000000000000000e+03 1.367397689819335938e+01 -1.174047279357910156e+01 2.212558986665249389e-14 -1.735213941934585224e-13 -4.541874350032747143e-14 -1.047726900897660851e-13
6.182000000000000000e+03 2.663385963439941406e+01 -1.993810844421386719e+01 -1.436826054185616486e-14 5.279911267040953565e-15 -2.726504824796210751e-15 5.535029967457423539e-15
6.183000000000000000e+03 6.009200286865234375e+01 -1.978639793395996094e+01 5.064062369311908562e-14 1.932691880883810609e-13 7.317294014631825494e-14 -1.600051166594004121e-14
6.184000000000000000e+03 9.125835418701171875e+00 -2.000187873840332031e+01 2.515378178099755835e-14 1.480330343982955155e-13 5.195604553141427995e-14 -1.339618075587342260e-15
6.185000000000000000e+03 6.776603698730468750e+01 -2.341922950744628906e+01 -3.943387635743991759e-14 -1.690023345064534804e-14 -1.690023345064534804e-14 -1.529669809872610808e-13
6.186000000000000000e+03 1.614820098876953125e+01 -1.620335960388183594e+01 -4.752772678998269662e-14 -4.321275596467361035e-13 -1.438965862698288189e-13 -6.550865993187665257e-15
6.187000000000000000e+03 1.690534210205078125e+01 -1.592906475067138672e+01 8.440039574349189611e-14 -2.383340920453225209e-13 -4.618010753529647183e-14 9.985499975712422427e-14
6.188000000000000000e+03 9.568570137023925781e+00 -1.749121093750000000e+01 1.111956867186868203e-13 -1.124730259556734613e-13 -3.832007758322792702e-16 -7.700836631785792918e-14
6.189000000000000000e+03 7.905717372894287109e+00 -1.599647140502929688e+01 4.642248770721918438e-14 1.989535211653192109e-14 1.989535211653192109e-14 5.371235479501891563e-14
6.190000000000000000e+03 7.783720493316650391e+00 -1.235348701477050781e+01 9.528384754386304278e-14 -4.915014979077958132e-15 2.711064981178717276e-14 -1.722227410664201215e-15
6.191000000000000000e+03 7.549190998077392578e+00 -1.294796943664550781e+01 -1.679017337761091327e-14 -1.291465713667769299e-14 -8.911449831912939684e-15 4.193692647921215544e-14
6.192000000000000000e+03 1.532913970947265625e+01 -1.585843849182128906e+01 -1.382723518745642560e-14 -2.118052234252251753e-13 -6.768973673677153302e-14 8.220113229418651857e-14
6.193000000000000000e+03 2.309324264526367188e+01 -1.738238334655761719e+01 -6.551647381081507349e-14 2.464272004770035052e-13 5.427321935510924511e-14 8.420692664207543587e-14
6.194000000000000000e+03 2.407227706909179688e+01 -1.800890731811523438e+01 -5.399456245612152538e-14 -5.983921007085470783e-15 -1.799354461544562522e-14 1.421812882239478684e-15
6.195000000000000000e+03 8.665829658508300781e+00 -1.028770923614501953e+01 8.643592603002712288e-15 9.520629320721243904e-14 3.115496616658101903e-14 -1.564920305700042563e-14
6.196000000000000000e+03 8.822287559509277344e+00 -9.523800849914550781e+00 3.030928169577874753e-14 1.502425435581308810e-13 5.416554791498606747e-14 8.535874237254256758e-14
6.197000000000000000e+03 6.905795288085937500e+01 -2.445662879943847656e+01 4.416625451594737711e-15 1.848966400992690939e-13 5.679397924174267587e-14 9.274192538607541059e-15
6.198000000000000000e+03 1.909372711181640625e+01 -1.713330841064453125e+01 9.466253024232717389e-15 -2.018223099493204886e-13 -5.770681648460326829e-14 8.524683237955132942e-14
6.199000000000000000e+03 6.464172363281250000e+01 -2.397476387023925781e+01 1.314994256063420353e-14 -6.299073675858357646e-14 -1.495223724294527518e-14 -5.055980658555565832e-14
6.200000000000000000e+03 6.144115447998046875e+01 -2.315608596801757812e+01 -1.760433975244585225e-14 -8.760887523252824938e-14 -3.156396449549223049e-14 -1.195874183099882027e-13
6.201000000000000000e+03 1.931960296630859375e+01 -1.815908241271972656e+01 7.318307066036741637e-14 -1.287641461554869804e-13 -1.667432298734904811e-14 1.603086966558281423e-13
6.202000000000000000e+03 1.169184780120849609e+01 -1.060294342041015625e+01 -5.800554128817733690e-14 1.123933303197321987e-13 1.631633637065327963e-14 -1.032739093353128579e-13
6.203000000000000000e+03 3.481316757202148438e+01 -2.116980171203613281e+01 6.406466611548478074e-14 -2.012984641171569611e-13 -4.117013804524893850e-14 5.411209420678369034e-15
6.204000000000000000e+03 1.652961158752441406e+01 -1.977019691467285156e+01 2.642102607931882258e-14 -1.259295537856322533e-13 -2.985255814248743977e-14 -3.133954819831488714e-14
6.205000000000000000e+03 3.130718421936035156e+01 -1.999547386169433594e+01 2.651471300548283172e-14 -5.726297799650559295e-14 -9.224478480867291663e-15 5.630252140838331101e-15
6.206000000000000000e+03 7.015264129638671875e+01 -2.595703887939453125e+01 -3.175577680046386131e-14 8.933001907629467553e-14 1.727227234393606536e-14 -6.592313771692365210e-14
6.207000000000000000e+03 9.710680007934570312e+00 -1.467176532745361328e+01 2.598578666970167289e-14 5.688771529581762576e-14 2.486205008143602124e-14 -8.611891039699004491e-14
6.208000000000000000e+03 9.792768478393554688e+00 -1.633944702148437500e+01 5.606618481653925790e-14 -1.017867430966323816e-13 -1.371616714521475822e-14 -6.281185695265062430e-14
6.209000000000000000e+03 1.083838844299316406e+01 -1.209780693054199219e+01 -1.193942541404327540e-13 -5.418018295024872727e-15 -3.744368096830763548e-14 -2.314130773128659363e-14
6.210000000000000000e+03 1.391302108764648438e+01 -1.439529705047607422e+01 -1.800476780199674470e-14 -2.364710803472863665e-13 -7.634275427537834391e-14 -5.397333581046333262e-14
6.211000000000000000e+03 1.061628246307373047e+01 -1.014162826538085938e+01 -3.404062445875981335e-14 -1.458883977978244623e-14 -1.458883977978244623e-14 -8.367874908341964985e-15
6.212000000000000000e+03 1.101955223083496094e+01 -1.096291160583496094e+01 -1.232082063326936372e-13 1.073248071361068701e-13 -4.765018149613430357e-15 -1.243222359233837546e-14
6.213000000000000000e+03 9.142040252685546875e+00 -1.200336456298828125e+01 -8.262135550371474402e-14 5.609274438163336374e-14 -7.958582658998056281e-15 4.086040858962414202e-14
6.214000000000000000e+03 9.761941909790039062e+00 -1.182605457305908203e+01 3.990640215739520158e-14 6.285369360398140870e-14 3.082802838959980418e-14 -1.478017469698500452e-13
6.215000000000000000e+03 1.211856937408447266e+01 -1.123872661590576172e+01 7.307540260837602775e-14 1.456953996467266754e-13 6.563124338703624217e-14 -6.109135685392411141e-14
6.216000000000000000e+03 1.267452335357666016e+01 -1.240721702575683594e+01 -3.697797886577543214e-14 -3.818553004179825461e-13 -1.256499787029297099e-13 6.419519728078845744e-14
6.217000000000000000e+03 1.003991508483886719e+01 -9.326740264892578125e+00 1.579533656919252654e-14 1.097090625810925868e-13 3.765131923686576565e-14 -2.202947195592986490e-14
6.218000000000000000e+03 2.502796363830566406e+01 -2.030695724487304688e+01 2.641535604076990229e-14 -9.733763816667517776e-14 -2.127668497658476154e-14 9.893916740576214064e-14
6.219000000000000000e+03 8.090225219726562500e+00 -1.332499122619628906e+01 1.076552516294897177e-13 1.262021222117951091e-13 7.015721147475909025e-14 -8.123595519144918842e-14
6.220000000000000000e+03 9.251330375671386719e+00 -1.393867015838623047e+01 9.193287000804420406e-14 -9.785304755068405247e-14 -1.776053389846896612e-15 6.360757325582847010e-14
6.221000000000000000e+03 1.625716972351074219e+01 -1.699453353881835938e+01 4.456837324326098915e-14 -1.181521108164704237e-13 -2.207512194958918816e-14 1.386698390257222815e-14
6.222000000000000000e+03 1.047277927398681641e+01 -1.741551589965820312e+01 -1.927019267354730669e-14 -3.742662375762900728e-13 -1.180609294137643928e-13 1.142974908783459670e-14
6.223000000000000000e+03 1.628694915771484375e+01 -1.790226173400878906e+01 4.214688561804576239e-14 -2.335672616687184400e-13 -5.742611654214677119e-14 -8.402709138297798086e-14
6.224000000000000000e+03 1.331545829772949219e+01 -1.355550765991210938e+01 -8.189261578974219025e-14 -8.084778370864506569e-14 -4.882212188239525019e-14 -7.692736963930968397e-14
6.225000000000000000e+03 1.887475204467773438e+01 -2.071326637268066406e+01 -6.098799850556835267e-14 -1.062018718410093210e-13 -5.015696110397330210e-14 3.547746677597801712e-14
6.226000000000000000e+03 1.858258247375488281e+01 -1.952845382690429688e+01 6.220965718473428496e-14 -1.105915692681778972e-13 -1.451457362503308368e-14 1.030507940807424971e-13
6.227000000000000000e+03 2.933988761901855469e+01 -2.146858596801757812e+01 -4.742968103227211685e-14 -1.461421180468450154e-13 -5.807153531916381395e-14 2.123563606589492364e-14
6.228000000000000000e+03 1.138877582550048828e+01 -1.783108711242675781e+01 -8.447782133113451719e-14 -1.734576295531892187e-13 -7.738063391004440517e-14 1.888173048903568629e-13
6.229000000000000000e+03 2.337003707885742188e+01 -2.037755775451660156e+01 5.865968789268288797e-14 -2.061108309850054332e-14 1.141458042181516669e-14 3.613536743050579925e-14
6.230000000000000000e+03 2.403941726684570312e+01 -1.946363449096679688e+01 3.866211160491158164e-15 -1.470336303882255335e-13 -4.295022860588068592e-14 3.975988578631094172e-14
6.231000000000000000e+03 1.257289505004882812e+01 -1.344867324829101562e+01 8.088480921283544567e-14 1.032913446614991404e-13 5.525284683992673362e-14 -1.633410881595256936e-13
6.232000000000000000e+03 2.243050575256347656e+01 -1.976011657714843750e+01 -1.367204147204731379e-13 -2.873492188550791360e-13 -1.272208792306439573e-13 7.675498149388448876e-14
6.233000000000000000e+03 1.494433784484863281e+01 -1.877944374084472656e+01 6.970974768564716650e-14 -2.103168713404185430e-13 -4.218213912931048637e-14 -2.756874047625534896e-14
6.234000000000000000e+03 1.241102409362792969e+01 -1.188562011718750000e+01 3.329089357428840351e-15 -2.273279898741889515e-13 -6.719967057854450698e-14 -7.782878887804128842e-14
6.235000000000000000e+03 1.984342956542968750e+01 -2.038466072082519531e+01 3.457857423652807224e-16 -9.135370276002960366e-14 -2.730237571939818364e-14 1.466797874567077331e-13
6.236000000000000000e+03 2.075237846374511719e+01 -2.003298377990722656e+01 -1.397443426709617242e-14 -7.461546436054664055e-14 -2.657696992710602280e-14 3.762074812373346344e-14
6.237000000000000000e+03 1.304236888885498047e+01 -1.166905879974365234e+01 6.517094535470752126e-14 -1.550733960730202310e-13 -2.697073182736202390e-14 1.008048015178029944e-13
6.238000000000000000e+03 1.283374977111816406e+01 -1.508075618743896484e+01 -6.576963501809043877e-14 -3.484436318038769409e-13 -1.242639753032057093e-13 8.006789845125140276e-15
6.239000000000000000e+03 1.336729240417480469e+01 -1.609325599670410156e+01 3.774097598026673883e-14 2.761244060007009282e-14 1.960602429647469169e-14 -4.354681762755441277e-14
6.240000000000000000e+03 9.035017967224121094e+00 -1.280996227264404297e+01 7.183172107258148364e-14 3.052907048255865119e-13 1.131367338680876189e-13 3.895813522041685628e-14
6.241000000000000000e+03 1.036033248901367188e+01 -1.134991931915283203e+01 -8.797322137259200314e-14 1.453009804489036050e-13 1.719832806170665945e-14 9.921153254401765542e-14
6.242000000000000000e+03 1.035945701599121094e+01 -1.395398044586181641e+01 2.728848437906321311e-14 -7.980683442657815485e-14 -1.575550399781494582e-14 -1.486055270266857520e-14
6.243000000000000000e+03 1.545144271850585938e+01 -1.703280067443847656e+01 6.790440199066008486e-14 -1.539019156256496434e-13 -2.579925307405733087e-14 -6.009118712606981161e-14
6.244000000000000000e+03 1.471453762054443359e+01 -1.684305572509765625e+01 -3.510000178962718875e-14 -1.980466571988026558e-13 -6.994399634127623777e-14 4.040431861697738047e-14
6.245000000000000000e+03 1.837416076660156250e+01 -1.844171714782714844e+01 2.993572407241360325e-15 -6.734346289167039701e-14 -1.930496676416388474e-14 7.869404997432050131e-14
6.246000000000000000e+03 1.096708774566650391e+01 -1.596136474609375000e+01 3.670764660659332768e-15 5.876187394743964676e-14 1.872979073539674660e-14 4.456883402918429549e-14
6.247000000000000000e+03 2.777824783325195312e+01 -2.050399780273437500e+01 5.512207935243077297e-15 -6.626405153753456290e-14 -1.822555202189626161e-14 -2.698017285659212033e-14
6.248000000000000000e+03 2.158558082580566406e+01 -1.973003005981445312e+01 -7.674245895879228119e-14 -1.015160449192170633e-13 -5.347755048577644554e-14 1.165146402753655663e-13
6.249000000000000000e+03 2.476528739929199219e+01 -2.333324813842773438e+01 3.285332270648393636e-15 -2.146747406575610917e-14 -5.454642729114727792e-15 2.452145643927917257e-14
6.250000000000000000e+03 2.282504463195800781e+01 -2.326861953735351562e+01 -7.565883276871090968e-14 -5.530068726078765651e-14 -3.928785465359685425e-14 6.935662473213453222e-15
6.251000000000000000e+03 1.176719284057617188e+01 -1.574462318420410156e+01 1.267581281908999880e-13 -1.973053068583113800e-13 -2.116415156734434422e-14 -4.510850582493432237e-14
6.252000000000000000e+03 1.228077697753906250e+01 -1.412396717071533203e+01 -6.007934221733540747e-14 -2.872815578632524625e-15 -1.888564818582332688e-14 3.403762935025832215e-14
6.253000000000000000e+03 1.025248336791992188e+01 -1.261633491516113281e+01 -5.409540681068983337e-14 1.598200467366889255e-13 3.171739265542608543e-14 -3.494843540811139876e-15
6.254000000000000000e+03 1.200670242309570312e+01 -1.761932945251464844e+01 1.210068422416790690e-13 -1.311437259786038534e-13 -3.041065968110382572e-15 -2.414145374221837032e-14
6.255000000000000000e+03 1.188662147521972656e+01 -1.703791999816894531e+01 -7.782195840435462975e-14 -2.621070136106518067e-13 -1.019786943150073621e-13 7.356765749973875890e-14
6.256000000000000000e+03 1.134844017028808594e+01 -1.270751762390136719e+01 -2.116067331124973916e-13 4.656424375313987507e-14 -4.951274850187314946e-14 7.775792948980578267e-15
6.257000000000000000e+03 1.405360221862792969e+01 -1.645298194885253906e+01 -8.602194714738605613e-15 4.206429312942489007e-14 1.003862960910918006e-14 -4.197411461372840824e-14
6.258000000000000000e+03 1.725845909118652344e+01 -1.769565963745117188e+01 -1.843090668962859419e-14 -9.940085457212435860e-14 -3.534953091962472760e-14 1.001109392324665837e-13
6.259000000000000000e+03 1.309118270874023438e+01 -1.429742908477783203e+01 8.405997659012218182e-14 -3.260071927040433803e-14 1.543777685710217423e-14 -7.383864028022435466e-14
6.260000000000000000e+03 1.366477203369140625e+01 -1.523105144500732422e+01 5.559282638319682293e-15 -6.624387182459917645e-14 -1.820537739115855869e-14 -1.787199945327277995e-13
6.261000000000000000e+03 2.438390541076660156e+01 -2.130031776428222656e+01 -4.997911806636778920e-14 -6.717057330274042726e-14 -3.514490808835882274e-14 -8.501188576877372061e-15
6.262000000000000000e+03 2.196157264709472656e+01 -2.053948020935058594e+01 6.676714845062214909e-14 -1.014897665690614459e-13 -1.041678662137791520e-14 1.558299726777713501e-14
6.263000000000000000e+03 1.192743682861328125e+01 -1.491374874114990234e+01 -2.100623243872414697e-14 -9.002671045167491559e-15 -9.002671045167491559e-15 -4.165651791608951382e-14
6.264000000000000000e+03 1.260477638244628906e+01 -1.587134552001953125e+01 5.584796964756876328e-15 9.389538436046021563e-14 2.984405393169700660e-14 2.193241892083346717e-14
6.265000000000000000e+03 1.335360908508300781e+01 -1.801946449279785156e+01 3.417088118538857966e-14 1.464466263913829364e-14 1.464466263913829364e-14 3.274967509637669028e-14
6.266000000000000000e+03 1.153106594085693359e+01 -1.379170894622802734e+01 -1.429119545143589520e-13 3.025391623421441745e-14 -3.379741419454879159e-14 -9.663397401607314030e-15
6.267000000000000000e+03 1.179327011108398438e+01 -1.822128868103027344e+01 -7.556779366754001748e-14 -1.925145156136953695e-13 -8.042469413962333169e-14 1.028479195254797252e-13
6.268000000000000000e+03 1.071846675872802734e+01 -1.826782035827636719e+01 8.982581117724514064e-15 -8.765222299063693545e-14 -2.360089086780783191e-14 -1.156867028388741669e-13
6.269000000000000000e+03 1.086980056762695312e+01 -1.327769565582275391e+01 3.232687690668881175e-14 -3.189657400508826013e-14 1.290912225282341897e-16 -1.488918851492299078e-13
6.270000000000000000e+03 1.177061653137207031e+01 -1.646450042724609375e+01 1.052163862763286217e-13 9.084368728182884434e-14 5.881802206744723982e-14 -3.080937672410126449e-14
6.271000000000000000e+03 1.442380714416503906e+01 -1.964236450195312500e+01 3.997675671399414377e-14 -1.429954245291131798e-13 -3.090559966690935301e-14 -1.705542513317538644e-14
6.272000000000000000e+03 1.225076198577880859e+01 -1.269023609161376953e+01 1.075492640908656816e-13 -3.199150471443201749e-13 -6.370973220553091676e-14 -3.724463839009824195e-14
6.273000000000000000e+03 1.110045909881591797e+01 -1.974871444702148438e+01 -3.137184387052779910e-14 -3.108262345424828155e-13 -1.026594242015295422e-13 5.335963248809033263e-15
6.274000000000000000e+03 1.291903018951416016e+01 -1.876755523681640625e+01 3.834645207162305780e-14 -3.038224511385523297e-13 -7.964280141414467606e-14 -1.330471106550379368e-13
6.275000000000000000e+03 1.289473915100097656e+01 -4.108843612670898438e+01 1.057861226595084927e-14 -1.262291442568784158e-14 -6.132906055694503297e-16 2.706509765043325737e-15
6.276000000000000000e+03 2.549539947509765625e+01 2.471369028091430664e+00 6.499288412141479565e-13 4.035247596544068102e-15 1.961892291419548018e-13 1.286731409356339784e-13
6.277000000000000000e+03 5.572432327270507812e+01 8.140620231628417969e+00 3.330425128386660383e-14 -3.147769927201206352e-14 5.479661541277778061e-16 -3.391499380257247641e-15
6.278000000000000000e+03 1.959611701965332031e+01 2.312636137008666992e+00 -5.308985672955457424e-13 2.299815340337657554e-13 -9.027511811005028974e-14 -2.829132226070136397e-14
6.279000000000000000e+03 1.497960853576660156e+01 -1.784633159637451172e+00 -2.108017163875586936e-14 -5.478530836996488296e-14 -2.275964315558327844e-14 1.312437978391242654e-13
6.280000000000000000e+03 2.407221984863281250e+01 1.400264501571655273e+00 5.681738716664663791e-13 4.265068929542453757e-13 2.984042320967189577e-13 2.427096338578765833e-13
6.281000000000000000e+03 1.481424522399902344e+01 -2.371762752532958984e+00 -1.801406517443898680e-13 -2.144559893167349851e-13 -1.183789936735901716e-13 6.108368612355377647e-14
6.282000000000000000e+03 4.148296737670898438e+01 -1.461576938629150391e+01 -2.140579820873473454e-14 -5.581852796816832996e-13 -1.738773242141583575e-13 1.341210129068848289e-13
6.283000000000000000e+03 3.426902008056640625e+01 -1.248467826843261719e+01 -2.416694096360125221e-14 -8.112826003440348765e-14 -3.158855894414870635e-14 5.082925115420904028e-14
6.284000000000000000e+03 1.664974975585937500e+01 -3.839048004150390625e+01 1.442065799997331588e-14 -3.957066540215790906e-14 -7.545002728875146308e-15 -2.182053603289654115e-14
6.285000000000000000e+03 7.827132415771484375e+01 -4.044068908691406250e+01 4.830883685701808927e-14 -7.079811048396958406e-14 -6.746781749272269535e-15 1.270559043175731317e-13
6.286000000000000000e+03 7.714573669433593750e+01 -4.013076400756835938e+01 5.562181608581660136e-15 -5.480489515983719140e-14 -1.477281364186018575e-14 -1.305086765789270978e-14
6.287000000000000000e+03 3.134900569915771484e+00 -4.110425186157226562e+01 4.633740494173338442e-14 -2.088958617630504166e-13 -4.876753569114239406e-14 -9.265891954537627817e-14
6.288000000000000000e+03 2.228321552276611328e+00 -3.591370391845703125e+01 1.006266806533907820e-13 3.290691558219954738e-13 1.289087516202422345e-13 -3.133332758835025156e-14
6.289000000000000000e+03 4.617456912994384766e+00 -3.967655420303344727e+00 -4.728095221112962876e-14 -1.575161171201572285e-13 -6.143912147701241500e-14 -7.539337264304141195e-14
6.290000000000000000e+03 3.569638442993164062e+01 -1.496133995056152344e+01 -4.789636908115492420e-14 1.396013025230929960e-13 2.751148104902095826e-14 -8.177373810372683821e-15
6.291000000000000000e+03 5.563276672363281250e+01 -9.578439712524414062e+00 -1.422180244663867610e-13 -2.553921158755800835e-13 -1.192830421025900534e-13 1.064793852455182474e-14
6.292000000000000000e+03 4.607677459716796875e+00 -4.129765319824218750e+01 -5.284004638461854697e-14 1.603580549597305449e-13 3.225540426659949389e-14 7.924262578041206539e-15
6.293000000000000000e+03 4.350817871093750000e+01 -4.915407625958323479e-04 -1.370685113804767652e-13 1.242601534905476979e-13 -3.842509061044614704e-15 -5.135872806140591440e-14
6.294000000000000000e+03 2.861796569824218750e+01 1.198819518089294434e+00 1.358272354182524233e-13 5.821167522622114343e-14 5.821167522622114343e-14 -8.224490018063704277e-14
6.295000000000000000e+03 1.340566635131835938e+01 -3.597164916992187500e+01 1.694210567735991713e-14 -4.992778448163238958e-14 -9.895703810688331187e-15 1.131912362030786968e-15
6.296000000000000000e+03 1.105147647857666016e+01 -3.562660598754882812e+01 1.447368903873501311e-14 -2.811020120558997692e-14 -4.090953988869668045e-15 -2.012808204208656540e-15
6.297000000000000000e+03 7.700723266601562500e+01 4.187626361846923828e+00 3.782645176904006479e-14 -4.184226749803787726e-13 -1.141788622200171077e-13 6.752162441366407752e-14
6.298000000000000000e+03 2.067086410522460938e+01 2.512255907058715820e+00 1.760729826912402207e-13 -1.933269760641745383e-13 -5.176200129462663405e-15 -2.288299486962602769e-13
6.299000000000000000e+03 7.086582946777343750e+01 -5.470774650573730469e+00 1.149397146470859665e-13 1.407617783184128557e-13 7.671044788964964667e-14 -4.658663252800170074e-14
6.300000000000000000e+03 7.161681365966796875e+01 -5.183828353881835938e+00 8.476546016749492152e-14 8.207900369571960453e-14 5.005333848133800001e-14 -9.323522043389737002e-14
6.301000000000000000e+03 7.077636718750000000e+01 -4.555855751037597656e+00 3.846217710100872933e-14 1.537366425569813844e-13 5.765964691383657081e-14 -5.772031480165071282e-14
6.302000000000000000e+03 7.319084930419921875e+01 -5.992416858673095703e+00 -1.682873031736992903e-14 8.428958350520029952e-14 2.023825646456887950e-14 -5.354881306169484434e-14
6.303000000000000000e+03 7.820742034912109375e+01 3.080172061920166016e+00 2.257457865388265428e-13 -4.050464797551375784e-14 5.557234427949926669e-14 -8.201639102025856665e-14
6.304000000000000000e+03 6.975366210937500000e+01 2.630548924207687378e-02 -1.045024323694833390e-13 4.671514097862733417e-14 -1.733618606200408585e-14 4.145969202310308480e-15
6.305000000000000000e+03 1.003720283508300781e+01 -3.913035154342651367e+00 1.428685728749323758e-14 -3.962800953268702520e-14 -7.602346012371315187e-15 -2.525093984817941561e-14
6.306000000000000000e+03 7.666719818115234375e+01 1.202707886695861816e+00 -2.215457770579978836e-13 -4.919724228154807866e-14 -8.122291088406147219e-14 6.003945712991509698e-14
6.307000000000000000e+03 4.415256500244140625e+01 -1.295324116945266724e-01 -7.562529704026321742e-14 3.621558145061078149e-14 -1.182291467689573078e-14 -1.033578130309360799e-13
6.308000000000000000e+03 3.694775772094726562e+01 -1.804247474670410156e+01 5.259242392578527756e-16 -9.127650078908505771e-14 -2.722517374845363769e-14 7.093150800876676931e-14
6.309000000000000000e+03 3.764530563354492188e+01 -1.877472758293151855e+00 -1.478271308532133621e-13 -2.234828126593604858e-13 -1.113929844090248700e-13 2.402782427234420592e-14
6.310000000000000000e+03 4.924715423583984375e+01 -2.607930898666381836e+00 -1.108174695670788301e-13 -1.046818881578204241e-13 -6.464981002797520748e-14 1.532574523017971035e-13
6.311000000000000000e+03 2.532419204711914062e+01 -1.067708110809326172e+01 2.565498472841508393e-14 3.312516276901544821e-13 1.070719847420104065e-13 1.318352030191607960e-13
6.312000000000000000e+03 1.411568832397460938e+01 -2.953765869140625000e+00 -4.152452646598477071e-14 1.194566228704049826e-13 2.337962892132606357e-14 6.240238767342073944e-14
6.313000000000000000e+03 3.108867263793945312e+01 -9.518484115600585938e+00 -1.047342551227514740e-13 -3.422672843929330799e-13 -1.341004672757162286e-13 6.745636899540760623e-14
6.314000000000000000e+03 3.507905578613281250e+01 -1.509648132324218750e+01 -1.351680354151835531e-14 -2.802985979172972764e-13 -8.814462695979838336e-14 6.896394533998512211e-14
6.315000000000000000e+03 7.225046539306640625e+01 -3.341196441650390625e+01 3.103741324009517272e-15 -4.388693693126079903e-15 -3.854857266168365505e-16 -8.747978741136669401e-14
6.316000000000000000e+03 7.745202636718750000e+01 1.898544669151306152e+00 -2.999948379989181291e-13 -8.281827372329242376e-14 -1.148439389376740283e-13 1.560066095404599729e-13
6.317000000000000000e+03 2.999231338500976562e+00 -4.019293308258056641e+00 6.046791349969063423e-14 -4.271160587211199344e-14 5.326891949460413334e-15 -2.782239126857422723e-14
6.318000000000000000e+03 2.881043624877929688e+01 5.893540978431701660e-01 -1.117763854022700565e-13 3.638543730633686524e-13 7.562339968646136779e-14 8.524862808939950853e-14
6.319000000000000000e+03 4.197050857543945312e+01 -1.348966884613037109e+01 -4.802887891542338694e-14 -4.780933136362686131e-13 -1.578366479399254119e-13 3.126805522943483517e-14
6.320000000000000000e+03 4.249030685424804688e+01 -1.371927738189697266e+01 1.009288884564439603e-14 -5.904368248661751029e-13 -1.741031770792142441e-13 -6.040717530814187011e-15
6.321000000000000000e+03 3.565279388427734375e+01 -3.632222747802734375e+01 1.085955022466552483e-14 -7.541006935649768872e-14 -1.936515523132988081e-14 2.097256287907078853e-14
6.322000000000000000e+03 4.886896610260009766e+00 -5.596908092498779297e+00 -1.204360064097336619e-14 -9.666344059824222290e-14 -3.261211355761080288e-14 -1.108539936277644355e-13
6.323000000000000000e+03 7.711199951171875000e+01 -3.516682052612304688e+01 -1.582273977910209767e-14 6.184525005829832889e-14 1.380675308375886937e-14 -1.290056589656717045e-14
6.324000000000000000e+03 7.081788635253906250e+01 -3.653762817382812500e+00 1.270366715874727756e-14 2.341991617998973041e-13 7.407084928051643757e-14 -2.322011567669913373e-14
6.325000000000000000e+03 7.308177947998046875e+01 -1.789762115478515625e+01 -1.111363876361154412e-13 -6.192705311221236020e-14 -5.191903357975105604e-14 -3.969193341515041273e-14
6.326000000000000000e+03 7.358945465087890625e+01 -1.839652252197265625e+01 7.804676094855592106e-14 -8.521791128660027859e-14 -2.151345313171544073e-15 6.562196668219791307e-14
6.327000000000000000e+03 4.141786956787109375e+01 -8.570831298828125000e+00 -3.250948365758968284e-14 -2.884383270423951373e-13 -9.628434253236908824e-14 2.688868482795918335e-14
6.328000000000000000e+03 4.192199325561523438e+01 -8.191066741943359375e+00 -5.549804932562969750e-14 -6.953582810465333552e-14 -3.751016289027173101e-14 -1.256714323534177669e-14
6.329000000000000000e+03 7.455641174316406250e+01 -6.052006244659423828e+00 -1.240441550068001678e-14 -2.340709277879465811e-13 -7.394260171603855847e-14 8.821781230050704942e-15
6.330000000000000000e+03 7.164305114746093750e+01 -1.995676994323730469e+01 -1.236683688397507974e-13 -2.360045210474115418e-13 -1.079018669661487018e-13 -9.444040601630510068e-14
6.331000000000000000e+03 3.321563339233398438e+01 -1.341668987274169922e+01 -2.369177242085053481e-14 -1.931574068443978054e-13 -6.505475276313496535e-14 -1.093356769054157351e-13
6.332000000000000000e+03 3.752605819702148438e+01 -2.428515911102294922e+00 -7.750476150626683935e-14 -1.704691753425316425e-13 -7.439217969938682895e-14 1.267393308357345205e-13
6.333000000000000000e+03 3.146767377853393555e+00 -3.023972702026367188e+01 8.094399309892599814e-14 1.719431346434985297e-13 7.586613900035371616e-14 -7.958905886770728522e-14
6.334000000000000000e+03 3.967196464538574219e+00 -3.285535049438476562e+01 1.823792209105796341e-14 9.931815027515444871e-14 3.526681984639123968e-14 -4.938866495136397250e-14
6.335000000000000000e+03 4.166550827026367188e+01 -2.128681755065917969e+01 7.299294564502671612e-15 -6.549815079410006846e-14 -1.745965805472534521e-14 -5.003137661108159051e-14
6.336000000000000000e+03 4.271855545043945312e+01 -2.132585144042968750e+01 -1.044043866117727593e-13 -9.049568548951530955e-14 -5.847002027513370503e-14 -2.800680389371864448e-14
6.337000000000000000e+03 5.836695480346679688e+01 -2.036753463745117188e+01 3.032910226674449816e-14 1.299818729077117582e-14 1.299818729077117582e-14 -1.083611875224562912e-14
6.338000000000000000e+03 5.787153625488281250e+01 -2.073382949829101562e+01 -6.373820606508581732e-14 -3.875411208847760747e-14 -3.074769578488220634e-14 -5.574080896831277998e-14
6.339000000000000000e+03 3.505233764648437500e+01 1.304700136184692383e+00 -3.719307305714847356e-13 -1.136479419686781123e-13 -1.456736071830597168e-13 7.216389351317673007e-14
6.340000000000000000e+03 4.580439758300781250e+01 2.589077353477478027e-01 -1.559157940559871558e-13 2.468084262896401426e-14 -3.937048441166740576e-14 2.193412315112334282e-14
6.341000000000000000e+03 7.625717926025390625e+01 -2.731368064880371094e+01 3.778447281617414166e-14 -1.896859270133707809e-13 -4.557043354865356055e-14 -2.356628618378070472e-14
6.342000000000000000e+03 2.982545089721679688e+01 -1.094435691833496094e+01 1.511110979185090186e-13 1.105128494141918716e-13 7.848718419981026706e-14 -5.201875646269719933e-14
6.343000000000000000e+03 4.517960357666015625e+01 -4.537576064467430115e-02 -2.082109983557456356e-13 1.852724110197254137e-13 -6.881578572498318891e-15 -3.092919122855627978e-14
6.344000000000000000e+03 7.572278594970703125e+01 -3.393013381958007812e+01 9.146293612890751823e-14 -8.232755704376190642e-14 2.740614699631572886e-15 -3.540302613244152019e-14
6.345000000000000000e+03 6.211343765258789062e+00 -5.069939613342285156e+00 -1.889437770737772970e-13 -8.097590252411496214e-14 -8.097590252411496214e-14 -4.065254670436793671e-14
6.346000000000000000e+03 4.847039031982421875e+01 7.018966972827911377e-02 -2.352112916329668346e-13 -9.302935754639668486e-15 -7.335426618340287752e-14 6.211483692848684957e-14
6.347000000000000000e+03 5.202618789672851562e+01 7.543761253356933594e+00 -1.078013343197049834e-13 -9.195151828541095473e-14 -5.992585984729292825e-14 -5.905109842947731114e-14
6.348000000000000000e+03 5.239332580566406250e+01 8.262457847595214844e+00 -2.114840691892078128e-14 -2.835692835059799854e-13 -9.141531254848109245e-14 -1.824401090269600623e-13
6.349000000000000000e+03 7.282277679443359375e+01 -3.156421470642089844e+01 2.613393781437413355e-14 -1.167521584781710392e-14 4.337616759373698339e-15 -1.428148642098128751e-13
6.350000000000000000e+03 3.542415237426757812e+01 -1.834907150268554688e+01 4.218857657970961905e-14 -2.106739262208723318e-13 -5.054560692522788723e-14 3.453519005600265424e-14
6.351000000000000000e+03 7.715895843505859375e+01 1.039269208908081055e+00 -1.885930512235053924e-13 1.067630311685652950e-14 -5.337502561784078503e-14 1.111558693939022902e-13
6.352000000000000000e+03 4.215874862670898438e+01 -5.440028190612792969e+00 -4.118132226828448428e-14 -1.091510372754414537e-13 -4.509970684667824470e-14 5.285332447309970538e-14
6.353000000000000000e+03 3.965616703033447266e+00 -5.143098831176757812e+00 -7.384391221328806543e-14 -1.231492934971462061e-13 -5.909796306838299706e-14 6.295684866442982641e-14
6.354000000000000000e+03 5.103661727905273438e+01 4.852684497833251953e+00 -1.056930083276168275e-13 2.292086876201637757e-13 3.705470311013772666e-14 -4.076508350174014306e-14
6.355000000000000000e+03 7.642267608642578125e+01 -7.467654705047607422e+00 5.268284045773993785e-14 -3.434292238611857950e-13 -8.722391569866011496e-14 -1.573276285724706236e-14
6.356000000000000000e+03 4.836916351318359375e+01 1.987804532051086426e+00 -9.822019228760553444e-14 9.515847989140582830e-14 -9.185131047610250836e-16 2.119317498187542337e-13
6.357000000000000000e+03 6.617203521728515625e+01 4.174303054809570312e+00 1.361981680865140265e-13 2.413744388824606846e-13 1.132717780249342665e-13 -5.636750492906371368e-14
6.358000000000000000e+03 4.221249008178710938e+01 -7.295882701873779297e+00 -8.581410728498647944e-14 8.973472972442688572e-15 -2.305219139490596869e-14 -2.319951414135601464e-14
6.359000000000000000e+03 4.161854934692382812e+01 -7.676474571228027344e+00 -3.608356967171530427e-14 -3.357210343057914770e-13 -1.115413778051202454e-13 -4.155428442748770879e-14
6.360000000000000000e+03 3.839667892456054688e+01 -4.165157794952392578e+00 -5.258591955978331178e-14 -2.512915548390226572e-13 -9.116324909590536874e-14 6.375156208059812313e-14
6.361000000000000000e+03 2.800848579406738281e+01 -1.293764877319335938e+01 5.950194357411467405e-14 2.542555738432178414e-13 9.412725454757339683e-14 -1.788005236490891603e-13
6.362000000000000000e+03 7.356449890136718750e+01 -1.940799522399902344e+01 5.212739690851203589e-14 -1.682365184663137114e-13 -3.483273578971414486e-14 -7.603963845300570901e-15
6.363000000000000000e+03 6.441944885253906250e+01 -4.407607764005661011e-02 -1.938591160429575799e-13 -1.288334266743088041e-13 -9.680776145992719961e-14 -1.416695943499621246e-13
6.364000000000000000e+03 8.838312149047851562e+00 -5.903905868530273438e+00 1.012653841234234907e-18 -3.202562184629470510e-13 -9.607655518601224132e-14 -5.010686079920910474e-14
6.365000000000000000e+03 6.748539733886718750e+01 -3.108332252502441406e+01 5.119317716593095591e-14 9.056635514237063034e-14 4.252786070893001258e-14 -7.794160011408840516e-14
6.366000000000000000e+03 6.053472137451171875e+01 -1.919315910339355469e+01 -5.552857978118053150e-14 -8.098664967814972471e-14 -4.095456816017271906e-14 1.640764144016960968e-14
6.367000000000000000e+03 1.084780979156494141e+01 -3.024398231506347656e+01 -1.360859819607819834e-14 -7.445868195014165858e-14 -2.642018243450335729e-14 -4.011454525758989531e-14
6.368000000000000000e+03 7.479895782470703125e+01 -3.309190034866333008e+00 1.045299575521373148e-13 -9.245429671411037331e-14 3.622698505517966613e-15 -1.909862919939955828e-13
6.369000000000000000e+03 7.353385162353515625e+01 -1.748725891113281250e+01 1.452701992716003837e-14 5.197681477928095539e-14 1.995115125896524538e-14 1.679413444248545328e-13
6.370000000000000000e+03 7.398876190185546875e+01 -1.698157119750976562e+01 -4.281817616940374049e-14 -6.410159675198506823e-14 -3.207593153760346372e-14 -2.756238264695325818e-14
6.371000000000000000e+03 6.289871978759765625e+01 -9.865449070930480957e-01 -1.017030155838621885e-13 3.681715305889343703e-13 7.994055721202708575e-14 -5.449290582030912045e-14
6.372000000000000000e+03 3.337015151977539062e+01 -1.678993606567382812e+01 1.712010795715951383e-14 -1.985420833815199071e-13 -5.442659330493447578e-14 8.527795575816524143e-14
6.373000000000000000e+03 5.150854492187500000e+01 9.289138317108154297e-01 -1.762367107718126880e-13 -2.977907295211544569e-14 -6.180473477836526119e-14 -8.118383217200694779e-14
6.374000000000000000e+03 5.737607955932617188e+01 -3.010693550109863281e+00 -1.891766365953728712e-13 2.506186718657238410e-13 1.843260922585257533e-14 7.399754366112926141e-14
6.375000000000000000e+03 6.534714508056640625e+01 5.821572303771972656e+00 -3.835658258567221923e-15 -2.761495459385754359e-13 -8.399556142854938678e-14 -4.793834803402084732e-14
6.376000000000000000e+03 5.511072540283203125e+01 -2.603969192504882812e+01 -6.403405773290279934e-14 -2.905111318608072368e-13 -1.063635534899812218e-13 9.967364661498528955e-14
6.377000000000000000e+03 7.430636596679687500e+01 -1.347107124328613281e+01 2.256732940710687307e-14 1.011736132155646728e-13 3.712228278680146376e-14 -7.123037511387597664e-14
6.378000000000000000e+03 3.887488603591918945e+00 -3.053784370422363281e+01 1.063909770286815271e-13 1.828489752187315021e-13 8.677198635185026654e-14 1.473907123737336344e-14
6.379000000000000000e+03 2.945196914672851562e+01 -7.412680625915527344e+00 1.077767703642346087e-13 -3.198175502639594159e-13 -6.361223532517015777e-14 -8.537012649535366537e-14
6.380000000000000000e+03 5.481074523925781250e+01 -3.390422582626342773e+00 -8.043281887965339494e-14 1.485325805492682116e-13 2.042992985613716062e-14 8.670710362809058713e-14
6.381000000000000000e+03 5.908705520629882812e+01 -2.648875427246093750e+01 -5.615926357304713845e-14 2.168269327919216533e-14 -1.034297108815649194e-14 7.259705260987542319e-14
6.382000000000000000e+03 7.442601013183593750e+01 -1.742314147949218750e+01 6.602222024296167113e-14 -8.608213561455205221e-14 -6.017975119696882674e-15 8.203774980305653108e-15
6.383000000000000000e+03 2.804603767395019531e+01 -1.353336143493652344e+01 -1.373071307261136687e-13 -1.309496165202792689e-14 -4.512062517234363690e-14 7.500488945211269964e-14
6.384000000000000000e+03 6.000476074218750000e+01 -7.849609375000000000e+00 -1.971452921701796757e-13 -8.449083853346792128e-14 -8.449083853346792128e-14 8.842489491545178076e-15
6.385000000000000000e+03 7.613887786865234375e+01 -3.491408157348632812e+01 8.438287232587909914e-14 -1.010887540667769480e-13 -5.011764776379238825e-15 -8.394955398698632221e-15
6.386000000000000000e+03 4.128497314453125000e+01 -7.153370380401611328e+00 -8.525071517858154313e-14 -2.767285098986826952e-13 -1.085937641350474825e-13 -1.373598602211461434e-14
6.387000000000000000e+03 4.263188171386718750e+01 -8.446464538574218750e+00 -7.983347191870340809e-14 -1.714671969948317054e-13 -7.539020135168689185e-14 -2.696348969566299963e-14
6.388000000000000000e+03 4.885919570922851562e+01 2.932075023651123047e+00 -1.543407329024359953e-13 -1.118969757889047567e-13 -7.987131057452315219e-14 4.203416924968873813e-14
6.389000000000000000e+03 5.011128234863281250e+01 4.535166740417480469e+00 -5.668330252872263997e-14 1.129600021377089036e-13 1.688300988269587910e-14 -1.830224238494066596e-14
6.390000000000000000e+03 4.661724090576171875e+01 -1.667789459228515625e+01 -1.534933340369484811e-13 -4.089149808692016386e-13 -1.687224985376031827e-13 1.923430354875896309e-13
6.391000000000000000e+03 3.510569381713867188e+01 -1.981154632568359375e+01 -3.701248359991478332e-14 -1.988662869361473851e-13 -7.076363285488454502e-14 -1.046397482686945227e-14
6.392000000000000000e+03 3.531332015991210938e+01 -2.046215248107910156e+01 1.019804290384833390e-13 -2.765507549525036968e-13 -5.237109506370067613e-14 6.270503593360648997e-14
6.393000000000000000e+03 7.634748840332031250e+01 -3.365224075317382812e+01 -7.699864068555755531e-16 1.826737952527121567e-13 5.457114455958110566e-14 2.710017032016374255e-14
6.394000000000000000e+03 5.766976547241210938e+01 -2.462908267974853516e+00 -1.729933470778766136e-13 -1.427664274777570852e-13 -9.472793643244825645e-14 1.843658689257288152e-13
6.395000000000000000e+03 7.164507293701171875e+01 -2.126784896850585938e+01 2.981388600624759744e-14 -1.244754624894761630e-13 -2.839847362259492747e-14 1.362923361273920761e-14
6.396000000000000000e+03 7.468187713623046875e+01 -4.313432693481445312e+00 8.203896275423699924e-14 -5.634234127426668293e-14 7.708985766364737091e-15 -1.487170711014437763e-13
6.397000000000000000e+03 7.550388336181640625e+01 -2.877276802062988281e+01 -7.354646812353024532e-14 1.423103442813739017e-14 -1.779462909217831984e-14 5.117575539227182946e-14
6.398000000000000000e+03 7.487260437011718750e+01 -3.226401901245117188e+01 1.917112539410233824e-14 -1.465927734561021933e-14 1.353554308668517264e-15 -6.161923456291656942e-14
6.399000000000000000e+03 6.247183990478515625e+01 1.323193669319152832e+00 3.894814700790283357e-14 1.669206324539634217e-14 1.669206324539634217e-14 -4.205994615633958100e-14
6.400000000000000000e+03 7.647386169433593750e+01 -8.873884201049804688e+00 -2.751172499450976749e-14 -1.490435921382149420e-13 -5.296659310693833944e-14 -1.352850123592652665e-13
6.401000000000000000e+03 7.685395812988281250e+01 -8.542790412902832031e+00 6.802606302694011453e-14 -2.453516719218978848e-13 -5.319768063560825766e-14 -4.363573575822538020e-14
6.402000000000000000e+03 4.886834716796875000e+01 -2.862023925781250000e+01 -5.753604108990964527e-14 -2.465830308223757733e-14 -2.465830308223757733e-14 6.838625108226579694e-15
6.403000000000000000e+03 4.776786422729492188e+01 -2.242510032653808594e+01 -7.818917937424136461e-15 -1.062906002363001035e-13 -3.423285689207328231e-14 -3.439649349308744608e-14
6.404000000000000000e+03 4.872953796386718750e+01 -2.287946319580078125e+01 5.207639536069195996e-14 -1.835608217076040161e-13 -3.944532485475500672e-14 7.514101272893414923e-15
6.405000000000000000e+03 3.053424835205078125e+01 -1.506941890716552734e+01 -3.717080761028376812e-14 1.213224941516710675e-13 2.524550867292162104e-14 -7.237977849450932810e-14
6.406000000000000000e+03 7.401389312744140625e+01 -3.077031898498535156e+01 7.271670278993867115e-15 1.861202300135547660e-13 5.801756915602834797e-14 -4.660911553527890844e-16
6.407000000000000000e+03 5.379069519042968750e+01 -1.836732029914855957e+00 -2.163520556285047913e-13 -2.299751643460024031e-13 -1.338981551503304335e-13 -2.954967948934003608e-14
6.408000000000000000e+03 7.498334503173828125e+01 -3.739434242248535156e+00 -3.546108854690990797e-14 -3.354542392561971065e-13 -1.112746030843166090e-13 -2.644078905204415991e-14
6.409000000000000000e+03 7.697025299072265625e+01 -9.044039726257324219e+00 2.965378661482116762e-14 -7.879313250035852034e-14 -1.474180376566120582e-14 3.126377940711709547e-14
6.410000000000000000e+03 3.030559730529785156e+01 -1.453350639343261719e+01 -1.216110681124052406e-13 -9.786997465710198241e-14 -6.584430944272037789e-14 -1.268689065478736944e-13
6.411000000000000000e+03 3.698998928070068359e+00 -1.988587951660156250e+01 -5.434358407610355435e-15 8.917288430018363576e-14 2.512155895361811025e-14 -1.235270159815129998e-13
6.412000000000000000e+03 4.237436771392822266e+00 -1.829079818725585938e+01 7.128511377105933855e-14 3.055076401277737053e-14 3.055076401277737053e-14 -7.892138006483639945e-14
6.413000000000000000e+03 3.414300203323364258e+00 -1.771796226501464844e+01 9.083964185247275780e-14 -6.819674440097659232e-15 2.520598950373452440e-14 -5.195499182242789560e-14
6.414000000000000000e+03 5.306513309478759766e+00 -2.739937400817871094e+01 2.389884995359758263e-14 1.017442627002616840e-13 3.769293227149847492e-14 -1.964028339105933912e-14
6.415000000000000000e+03 4.921498870849609375e+01 -2.745656394958496094e+01 -5.593724268504463026e-14 -1.841014184633324446e-13 -7.201160376552398490e-14 2.490211855148941229e-15
6.416000000000000000e+03 4.981639862060546875e+01 -2.672987556457519531e+01 -4.219360795541630960e-14 -1.553358272088703473e-13 -5.925883156572553379e-14 -1.022164462989062772e-14
6.417000000000000000e+03 6.110809326171875000e+01 -2.461297225952148438e+01 -3.009213452947562218e-16 -9.163086549289836680e-14 -2.757953506413515776e-14 -9.567490571495140816e-14
6.418000000000000000e+03 6.504404449462890625e+01 -1.737891006469726562e+01 -1.430737716886024136e-13 -2.443211377569504128e-13 -1.162184768994239947e-13 -3.421271444858757504e-14
6.419000000000000000e+03 6.405886077880859375e+01 -1.728900909423828125e+01 -1.444811067660700665e-13 -1.616952523210337528e-14 -4.819518875241908529e-14 -6.834889777632482954e-14
6.420000000000000000e+03 7.600360107421875000e+01 -1.818413925170898438e+01 1.587628140932439980e-13 1.595431008442546594e-13 9.549177041549145040e-14 -4.242281083577858700e-15
6.421000000000000000e+03 7.569966125488281250e+01 -9.217143058776855469e+00 -4.260838643715958440e-14 -1.326381089379949363e-13 -5.257394929017271401e-14 -8.701757169644538936e-14
6.422000000000000000e+03 6.182624053955078125e+01 -2.402685546875000000e+01 -6.180590029570068311e-14 1.336400743756974152e-13 2.155025290162537743e-14 5.253628004094242077e-14
6.423000000000000000e+03 7.644937896728515625e+01 -2.489194679260253906e+01 5.172815301102140495e-14 -2.358173945287041218e-14 8.443924067445297832e-15 4.722980158551083607e-14
6.424000000000000000e+03 6.157362747192382812e+01 -1.894786834716796875e+01 4.247571397256524883e-14 -1.647999228401864080e-13 -3.669726198265998995e-14 -4.689166603296691938e-14
6.425000000000000000e+03 5.957722091674804688e+01 -3.880946874618530273e+00 -1.429998968630746825e-13 -6.128567298828782595e-14 -6.128567298828782595e-14 -1.092298587733811499e-13
6.426000000000000000e+03 7.388323974609375000e+01 -2.817234802246093750e+01 5.789060230536671736e-14 -1.124425869796809307e-13 -1.636559641873380072e-14 -7.470996613240590833e-14
6.427000000000000000e+03 5.931645202636718750e+01 -1.332172393798828125e+01 -5.766069723469116615e-14 2.955449199173315611e-13 7.136526341666032947e-14 -1.164102620993413134e-14
6.428000000000000000e+03 5.880782699584960938e+01 -1.297587108612060547e+01 -9.723282292165014162e-14 -4.167120885552669241e-14 -4.167120885552669241e-14 1.005355128032119072e-13
6.429000000000000000e+03 3.537860870361328125e+01 -2.112993812561035156e+01 3.147699454059994795e-14 -3.226080833680297633e-14 -2.351442341521150798e-16 1.263133884597464340e-13
6.430000000000000000e+03 3.640591430664062500e+01 -2.058502960205078125e+01 -1.383717257799361305e-14 -5.168116639937131440e-14 -1.965550118498970988e-14 -9.665631874522170874e-14
6.431000000000000000e+03 7.835958480834960938e+00 -2.391807746887207031e+01 3.021448176832204624e-14 -3.852075451150904772e-14 -2.491880933571505828e-15 -3.694366725514805494e-14
6.432000000000000000e+03 8.850904464721679688e+00 -2.328026580810546875e+01 1.243018901919907063e-14 -2.898598922733766625e-14 -4.966739469518515609e-15 -3.143275909196253937e-14
6.433000000000000000e+03 5.008837890625000000e+01 1.812304973602294922e+00 -2.277352568677559752e-13 3.599086632020964682e-13 3.965202122267579010e-14 1.778357463459029342e-13
6.434000000000000000e+03 3.040868186950683594e+01 -1.900803947448730469e+01 -4.020389029286627891e-14 -1.544830886476833420e-13 -5.840609300453852848e-14 -8.886526522714692337e-16
6.435000000000000000e+03 6.810022735595703125e+01 -2.413887786865234375e+01 1.364696116529229286e-14 -8.565319813006247451e-14 -2.160187108943105450e-14 -3.406878661019012433e-14
6.436000000000000000e+03 3.207244110107421875e+01 -1.990156555175781250e+01 -1.915575005204377818e-14 -1.454624588099681648e-13 -4.938545977869156223e-14 9.712035049878192661e-14
6.437000000000000000e+03 3.383767700195312500e+01 -2.213082695007324219e+01 -5.720146307574419664e-14 -1.274545519038688957e-13 -5.539680517151028549e-14 3.852904526999677282e-14
6.438000000000000000e+03 6.180035400390625000e+01 -2.021411132812500000e+01 -1.784415002640659526e-14 -4.196070438810747816e-14 -1.794145717138716928e-14 -1.175755049960883203e-13
6.439000000000000000e+03 1.132767677307128906e+01 -6.343853473663330078e+00 -4.642690244294027380e-14 -1.113991440326173032e-13 -4.734781360385409421e-14 -1.426919156834530189e-14
6.440000000000000000e+03 3.444218826293945312e+01 -2.341713523864746094e+01 -2.619531043360039113e-14 -1.027284607748625567e-13 -3.867713034609934764e-14 7.063528364645299540e-14
6.441000000000000000e+03 9.398184776306152344e+00 -2.410796928405761719e+01 7.338723270571001489e-14 6.576488485732223666e-14 4.174563255840424425e-14 8.715153334518544598e-15
6.442000000000000000e+03 7.590861511230468750e+01 -1.948660278320312500e+01 -4.325747117277234377e-14 -3.616710338334716557e-13 -1.214785515018731998e-13 -6.262921632043186304e-14
6.443000000000000000e+03 6.298357009887695312e+01 -1.963249015808105469e+01 -2.726869260721766913e-14 -1.168658218293630938e-14 -1.168658218293630938e-14 -8.420180886900812539e-15
6.444000000000000000e+03 6.717180633544921875e+01 -2.502590370178222656e+01 -2.961437247771953052e-14 7.881002572545856011e-14 1.475869529669535107e-14 -6.848415877360597426e-14
6.445000000000000000e+03 3.358579635620117188e+01 -2.309672164916992188e+01 2.387735056333037398e-14 -2.642725448198657290e-13 -7.211856030983967991e-14 3.163130192073305286e-15
6.446000000000000000e+03 3.463427734375000000e+01 -2.246665382385253906e+01 1.165587130936771021e-13 -1.559255383230123693e-13 -1.181004570532809619e-14 2.148977474919142039e-14
6.447000000000000000e+03 3.426894760131835938e+01 -2.141429138183593750e+01 1.011443228162486191e-14 -9.288601246666694511e-14 -2.483147388610603551e-14 -5.720976399862728878e-14
6.448000000000000000e+03 4.993476390838623047e+00 -1.276274776458740234e+01 6.877018485923480640e-14 2.582276840273900476e-13 9.809935795548202497e-14 -4.132453182274266335e-14
6.449000000000000000e+03 1.154838562011718750e+01 -2.553885650634765625e+01 2.156812360274654866e-14 -3.650746900423461339e-14 -4.481803366336535241e-15 -2.186036013394464933e-14
6.450000000000000000e+03 7.790288925170898438e+00 -2.594577217102050781e+01 -1.343527492627923439e-14 -9.725987376585365496e-14 -3.320854333709044592e-14 3.552873598620942541e-14
6.451000000000000000e+03 7.558621978759765625e+01 -2.286907958984375000e+01 5.872534311049046329e-14 -2.058294466399275546e-14 1.144271970335590180e-14 -2.881918811123256041e-14
6.452000000000000000e+03 4.898142337799072266e+00 -1.746898841857910156e+01 3.485343388681325094e-14 1.064390817238219933e-13 4.238775468319057327e-14 -4.661807100287199135e-14
6.453000000000000000e+03 4.956360816955566406e+00 -1.544548320770263672e+01 8.422808213696605928e-14 3.609774900325234126e-14 3.609774900325234126e-14 -1.315059985820127286e-14
6.454000000000000000e+03 5.741960048675537109e+00 -1.555031585693359375e+01 2.070558910552454737e-15 -2.198809270239059782e-14 -5.975260095199795563e-15 -1.806622681858362223e-14
6.455000000000000000e+03 3.478965759277343750e+01 -2.176122283935546875e+01 -1.166854698801678136e-13 -3.245137448690260662e-13 -1.323597671352635952e-13 3.355781229069307314e-14
6.456000000000000000e+03 1.091769886016845703e+01 -2.449829101562500000e+01 1.320736461819446705e-14 -4.009064876408195699e-14 -8.064985243766246981e-15 2.643695029872720342e-14
6.457000000000000000e+03 6.924321746826171875e+01 -2.557223892211914062e+01 -7.923130942023674794e-15 -1.063352625895429282e-13 -3.427751924531610705e-14 -3.465905930717617586e-15
6.458000000000000000e+03 2.931820678710937500e+01 -1.590616607666015625e+01 -4.161671414383213974e-14 1.651680636878538611e-13 3.706540283032744298e-14 -1.923904828851630278e-13
6.459000000000000000e+03 1.037486839294433594e+01 -2.357468223571777344e+01 8.953879406306802097e-15 -4.191357208679045987e-14 -9.887907719441802606e-15 -7.730109412816543735e-14
6.460000000000000000e+03 6.958322143554687500e+01 -2.486565017700195312e+01 1.139308645255882046e-13 3.076561942556258096e-15 3.510222779221257305e-14 2.272634290229492288e-14
6.461000000000000000e+03 3.102449607849121094e+01 -2.096993255615234375e+01 -8.124109837550491653e-14 -2.178214070702386151e-13 -8.971875298897577511e-14 -1.868648194080363423e-14
6.462000000000000000e+03 7.606842803955078125e+01 -2.205284309387207031e+01 -8.751321471959713771e-14 -8.325660988536473517e-14 -5.123094805911491967e-14 1.090390934011323254e-14
6.463000000000000000e+03 1.516355323791503906e+01 -9.272298812866210938e+00 3.003052654096914631e-14 -3.288072464584408661e-14 -8.550594844020412925e-16 -9.918107323923439078e-14
6.464000000000000000e+03 1.288523197174072266e+01 -6.300212860107421875e+00 -2.330437682022609702e-14 -2.285504447643253029e-14 -1.384782655840417764e-14 -5.471506223358318932e-14
6.465000000000000000e+03 2.808881759643554688e+01 -1.925987815856933594e+01 -5.342396040526956047e-14 -2.050892916482133119e-17 -1.603334096890972338e-14 -1.909470946973284428e-14
6.466000000000000000e+03 8.541726112365722656e+00 -1.103837013244628906e+01 -5.304982595246733601e-14 -2.057394375308205237e-13 -7.763677667329410559e-14 8.005779334819065896e-14
6.467000000000000000e+03 8.453923225402832031e+00 -1.179408359527587891e+01 -3.871956330862499907e-14 2.121606520024202358e-13 5.203232593051221322e-14 3.659624144523865308e-14
6.468000000000000000e+03 8.349219322204589844e+00 -1.255863380432128906e+01 -5.201280012701210709e-14 -6.804214987667436820e-14 -3.601648466229276369e-14 1.578428278923085792e-14
6.469000000000000000e+03 4.945282459259033203e+00 -1.402679634094238281e+01 1.010900347805931965e-13 1.805771515390325321e-13 8.450015589588771858e-14 -5.120916237171153906e-14
6.470000000000000000e+03 1.524495124816894531e+01 -1.028626537322998047e+01 2.773650720992032470e-14 5.763802385675906303e-14 2.561235864237745852e-14 -1.379531559787209455e-14
6.471000000000000000e+03 1.438006401062011719e+01 -9.691986083984375000e+00 1.108503683267501871e-13 1.161337193945899404e-13 6.809522834928111168e-14 -8.500611239220523530e-14
6.472000000000000000e+03 1.006672096252441406e+01 -1.968419647216796875e+01 -1.755146795587823882e-14 -7.522057453366974566e-15 -7.522057453366974566e-15 -3.457410952586309483e-14
6.473000000000000000e+03 8.737924575805664062e+00 -1.353670787811279297e+01 4.149873939493856079e-14 -2.796577361775364617e-14 4.059889902562063835e-15 -1.313876037047773115e-13
6.474000000000000000e+03 7.737629890441894531e+00 -1.690075874328613281e+01 3.696481597377510031e-14 1.530949168436143704e-13 5.701791442420597877e-14 2.340671872904515061e-14
6.475000000000000000e+03 1.464433002471923828e+01 -1.042973136901855469e+01 5.964471944770385892e-14 -6.593987508796139707e-14 -1.888545506231135290e-15 -1.054002534122550072e-13
6.476000000000000000e+03 1.267892265319824219e+01 -1.771584701538085938e+01 1.778751909761906724e-14 -2.668824633945271474e-13 -7.472848566076467636e-14 -7.404997161243251358e-14
6.477000000000000000e+03 8.663496017456054688e+00 -1.422718906402587891e+01 1.438015152918289963e-13 -5.274815347423682244e-14 2.731600617358539984e-14 -8.254489892176378185e-14
6.478000000000000000e+03 8.855193138122558594e+00 -1.507063007354736328e+01 3.313029443342309366e-14 -5.442772494095200753e-14 -6.389228813445495259e-15 -8.386387660437154973e-15
6.479000000000000000e+03 1.114205455780029297e+01 -1.658800315856933594e+01 6.967401644780019110e-14 -1.531435026534688770e-13 -2.504084687814014248e-14 1.245629288056755365e-14
6.480000000000000000e+03 1.550037097930908203e+01 -1.636516761779785156e+01 -5.903890793130042725e-14 -1.625552313198538879e-13 -6.647824245297265233e-14 -4.568880809709824353e-14
6.481000000000000000e+03 1.440785503387451172e+01 -1.528978633880615234e+01 -7.045882296661740152e-14 -3.047023354116329408e-13 -1.125483441253433137e-13 -3.583687640802517282e-14
6.482000000000000000e+03 1.238695335388183594e+01 -1.841754722595214844e+01 1.760503364183624297e-13 2.969919435705757615e-14 6.172485618330739165e-14 -5.221091096897952089e-14
6.483000000000000000e+03 1.236248397827148438e+01 -1.660744094848632812e+01 9.564784809448431679e-14 -3.250156491597239183e-13 -6.881034099719823827e-14 -2.935243262097882166e-14
