# el_label, x, y, sXX, sYY, sZZ, sXY
1.000000000000000000e+00 5.482860565185546875e+01 1.109000110626220703e+01 -4.278278350830078125e+00 -2.149697780609130859e+00 -1.928392887115478516e+00 -2.147994756698608398e+00
2.000000000000000000e+00 5.462973785400390625e+01 1.108171272277832031e+01 -1.748941183090209961e+00 7.615111470222473145e-01 -2.962290346622467041e-01 1.213187575340270996e+00
3.000000000000000000e+00 5.443087005615234375e+01 1.107342529296875000e+01 -4.208751201629638672e+00 -3.239734470844268799e-01 -1.359817504882812500e+00 4.580008089542388916e-01
4.000000000000000000e+00 5.423200225830078125e+01 1.106513690948486328e+01 -5.236198902130126953e+00 1.009266451001167297e-01 -1.540581703186035156e+00 6.609121561050415039e-01
5.000000000000000000e+00 5.483673477172851562e+01 1.103216457366943359e+01 1.091863632202148438e+01 -2.855160474777221680e+00 2.419042825698852539e+00 2.445635795593261719e+00
6.000000000000000000e+00 5.464328384399414062e+01 1.098531913757324219e+01 2.138330221176147461e+00 7.458969354629516602e-01 8.652681112289428711e-01 2.204119920730590820e+00
7.000000000000000000e+00 5.444983673095703125e+01 1.093847370147705078e+01 1.048400759696960449e+00 3.697858154773712158e-01 4.254559576511383057e-01 2.972393751144409180e+00
8.000000000000000000e+00 5.425638580322265625e+01 1.089162921905517578e+01 -7.295886874198913574e-01 5.231512188911437988e-01 -6.193124875426292419e-02 2.093250513076782227e+00
9.000000000000000000e+00 5.485596847534179688e+01 1.097701740264892578e+01 1.642243576049804688e+01 2.451830148696899414e+00 5.662279605865478516e+00 9.963873863220214844e+00
1.000000000000000000e+01 5.467533874511718750e+01 1.089340782165527344e+01 7.940421581268310547e+00 1.180486917495727539e+00 2.736272573471069336e+00 6.372648715972900391e+00
1.100000000000000000e+01 5.449471282958984375e+01 1.080979728698730469e+01 4.057188510894775391e+00 2.301761150360107422e+00 1.907684922218322754e+00 5.173289299011230469e+00
1.200000000000000000e+01 5.431408309936523438e+01 1.072618675231933594e+01 2.391483306884765625e+00 1.545147061347961426e+00 1.180989027023315430e+00 5.083863735198974609e+00
1.300000000000000000e+01 5.488556671142578125e+01 1.092667007446289062e+01 1.764852142333984375e+01 8.784831047058105469e+00 7.930005550384521484e+00 1.605937385559082031e+01
1.400000000000000000e+01 5.472467422485351562e+01 1.080949401855468750e+01 9.915233612060546875e+00 5.874273777008056641e+00 4.736852169036865234e+00 1.075796699523925781e+01
1.500000000000000000e+01 5.456377792358398438e+01 1.069231891632080078e+01 6.212173938751220703e+00 4.588477134704589844e+00 3.240195274353027344e+00 8.897765159606933594e+00
1.600000000000000000e+01 5.440288162231445312e+01 1.057514286041259766e+01 3.983393430709838867e+00 4.502793788909912109e+00 2.545856237411499023e+00 7.486615657806396484e+00
1.700000000000000000e+01 5.492440414428710938e+01 1.088304805755615234e+01 1.588810348510742188e+01 1.782786369323730469e+01 1.011478996276855469e+01 1.975283813476562500e+01
1.800000000000000000e+01 5.478939819335937500e+01 1.073679161071777344e+01 9.539720535278320312e+00 1.131672954559326172e+01 6.256935119628906250e+00 1.436911678314208984e+01
1.900000000000000000e+01 5.465439605712890625e+01 1.059053421020507812e+01 6.279861927032470703e+00 9.414714813232421875e+00 4.708373069763183594e+00 1.159805870056152344e+01
2.000000000000000000e+01 5.451939010620117188e+01 1.044427680969238281e+01 4.188766479492187500e+00 8.039787292480468750e+00 3.668566226959228516e+00 1.031139087677001953e+01
2.100000000000000000e+01 5.497098922729492188e+01 1.084782123565673828e+01 1.243299770355224609e+01 2.653850364685058594e+01 1.169145011901855469e+01 2.097908973693847656e+01
2.200000000000000000e+01 5.486703872680664062e+01 1.067807960510253906e+01 7.788997173309326172e+00 1.829767608642578125e+01 7.826001644134521484e+00 1.581344699859619141e+01
2.300000000000000000e+01 5.476309204101562500e+01 1.050833797454833984e+01 4.895761489868164062e+00 1.457294940948486328e+01 5.840613365173339844e+00 1.345948886871337891e+01
2.400000000000000000e+01 5.465914535522460938e+01 1.033859634399414062e+01 3.210840225219726562e+00 1.286266708374023438e+01 4.822052478790283203e+00 1.156711483001708984e+01
2.500000000000000000e+01 5.502354049682617188e+01 1.082233810424804688e+01 9.150487899780273438e+00 3.495240402221679688e+01 1.323086738586425781e+01 1.926135253906250000e+01
2.600000000000000000e+01 5.495462799072265625e+01 1.063560771942138672e+01 5.321410655975341797e+00 2.468374443054199219e+01 9.001545906066894531e+00 1.560236358642578125e+01
2.700000000000000000e+01 5.488571166992187500e+01 1.044887733459472656e+01 3.085540056228637695e+00 2.024401855468750000e+01 6.998867511749267578e+00 1.327293872833251953e+01
2.800000000000000000e+01 5.481679916381835938e+01 1.026214694976806641e+01 1.419429183006286621e+00 1.753042984008789062e+01 5.684957504272460938e+00 1.191425323486328125e+01
2.900000000000000000e+01 5.508004760742187500e+01 1.080757331848144531e+01 6.690198898315429688e+00 4.139213180541992188e+01 1.442469882965087891e+01 1.558827304840087891e+01
3.000000000000000000e+01 5.504880523681640625e+01 1.061099910736083984e+01 3.453874111175537109e+00 3.023460006713867188e+01 1.010654258728027344e+01 1.337108802795410156e+01
3.100000000000000000e+01 5.501756286621093750e+01 1.041442584991455078e+01 1.274608969688415527e+00 2.503393554687500000e+01 7.892563819885253906e+00 1.188915729522705078e+01
3.200000000000000000e+01 5.498632049560546875e+01 1.021785163879394531e+01 -8.052781224250793457e-02 2.193538665771484375e+01 6.556457996368408203e+00 1.057089900970458984e+01
3.300000000000000000e+01 5.513834762573242188e+01 1.080409145355224609e+01 5.890155792236328125e+00 4.536255645751953125e+01 1.537581348419189453e+01 1.066521835327148438e+01
3.400000000000000000e+01 5.514597320556640625e+01 1.060519599914550781e+01 2.702040195465087891e+00 3.426587295532226562e+01 1.109037303924560547e+01 1.002001476287841797e+01
3.500000000000000000e+01 5.515359878540039062e+01 1.040630149841308594e+01 2.910079360008239746e-01 2.843125724792480469e+01 8.616679191589355469e+00 9.130849838256835938e+00
3.600000000000000000e+01 5.516122436523437500e+01 1.020740699768066406e+01 -9.080082774162292480e-01 2.500861740112304688e+01 7.230182647705078125e+00 8.502653121948242188e+00
3.700000000000000000e+01 5.519621276855468750e+01 1.081202602386474609e+01 7.729695796966552734e+00 4.708905792236328125e+01 1.644562530517578125e+01 5.539735317230224609e+00
3.800000000000000000e+01 5.524240875244140625e+01 1.061842155456542969e+01 2.747129440307617188e+00 3.606934738159179688e+01 1.164494228363037109e+01 6.091838836669921875e+00
3.900000000000000000e+01 5.528861236572265625e+01 1.042481708526611328e+01 1.033455371856689453e+00 3.042710685729980469e+01 9.438168525695800781e+00 5.929961204528808594e+00
4.000000000000000000e+01 5.533481216430664062e+01 1.023121166229248047e+01 -1.048151493072509766e+00 2.638727378845214844e+01 7.601736545562744141e+00 5.562732219696044922e+00
4.100000000000000000e+01 5.525142288208007812e+01 1.083107471466064453e+01 9.893947601318359375e+00 4.601972579956054688e+01 1.677410125732421875e+01 1.045124411582946777e+00
4.200000000000000000e+01 5.533443069458007812e+01 1.065016841888427734e+01 5.531558513641357422e+00 3.648068618774414062e+01 1.260367298126220703e+01 2.578474283218383789e+00
4.300000000000000000e+01 5.541743850708007812e+01 1.046926307678222656e+01 1.843416333198547363e+00 3.026715660095214844e+01 9.633172035217285156e+00 2.553828954696655273e+00
4.400000000000000000e+01 5.550044631958007812e+01 1.028835678100585938e+01 1.003079056739807129e+00 2.667979240417480469e+01 8.304862022399902344e+00 2.944588422775268555e+00
4.500000000000000000e+01 5.530186843872070312e+01 1.086050701141357422e+01 1.495388412475585938e+01 4.433126831054687500e+01 1.778554534912109375e+01 -1.603862881660461426e+00
4.600000000000000000e+01 5.541850662231445312e+01 1.069922256469726562e+01 7.743998050689697266e+00 3.446824264526367188e+01 1.266367149353027344e+01 -5.970106124877929688e-01
4.700000000000000000e+01 5.553514480590820312e+01 1.053793811798095703e+01 5.378037929534912109e+00 2.943190956115722656e+01 1.044298458099365234e+01 4.635345637798309326e-01
4.800000000000000000e+01 5.565178298950195312e+01 1.037665367126464844e+01 2.415615797042846680e+00 2.482489967346191406e+01 8.172154426574707031e+00 2.946661412715911865e-01
4.900000000000000000e+01 5.534561920166015625e+01 1.089919662475585938e+01 1.858801841735839844e+01 4.043468093872070312e+01 1.770680999755859375e+01 -3.257262229919433594e+00
5.000000000000000000e+01 5.549142837524414062e+01 1.076370620727539062e+01 1.226738452911376953e+01 3.273979568481445312e+01 1.350215435028076172e+01 -1.658008694648742676e+00
5.100000000000000000e+01 5.563723373413085938e+01 1.062821483612060547e+01 7.928819656372070312e+00 2.645468711853027344e+01 1.031505203247070312e+01 -1.394468069076538086e+00
5.200000000000000000e+01 5.578303909301757812e+01 1.049272346496582031e+01 6.057503223419189453e+00 2.334019088745117188e+01 8.819308280944824219e+00 -4.943520426750183105e-01
5.300000000000000000e+01 5.538100051879882812e+01 1.094566440582275391e+01 2.319389724731445312e+01 3.827235794067382812e+01 1.843987655639648438e+01 -2.597615957260131836e+00
5.400000000000000000e+01 5.555039596557617188e+01 1.084115123748779297e+01 1.552102947235107422e+01 2.903207206726074219e+01 1.336593055725097656e+01 -2.037706851959228516e+00
5.500000000000000000e+01 5.571979141235351562e+01 1.073663902282714844e+01 1.172476673126220703e+01 2.469376754760742188e+01 1.092555999755859375e+01 -1.046916246414184570e+00
5.600000000000000000e+01 5.588918304443359375e+01 1.063212585449218750e+01 8.584371566772460938e+00 2.011034393310546875e+01 8.608414649963378906e+00 -9.662220478057861328e-01
5.700000000000000000e+01 5.540665817260742188e+01 1.099813079833984375e+01 2.607202529907226562e+01 3.496569061279296875e+01 1.831131553649902344e+01 -9.993405938148498535e-01
5.800000000000000000e+01 5.559315872192382812e+01 1.092859554290771484e+01 1.881324958801269531e+01 2.729597091674804688e+01 1.383276557922363281e+01 -5.869523882865905762e-01
5.900000000000000000e+01 5.577965927124023438e+01 1.085906028747558594e+01 1.435853290557861328e+01 2.163575172424316406e+01 1.079828548431396484e+01 -3.752449154853820801e-02
6.000000000000000000e+01 5.596615982055664062e+01 1.078952503204345703e+01 1.136203193664550781e+01 1.872239875793457031e+01 9.025329589843750000e+00 3.758181631565093994e-01
6.100000000000000000e+01 5.542161178588867188e+01 1.105458927154541016e+01 2.800263023376464844e+01 3.383911132812500000e+01 1.855252265930175781e+01 1.491450190544128418e+00
6.200000000000000000e+01 5.561808013916015625e+01 1.102269172668457031e+01 2.056795883178710938e+01 2.529836273193359375e+01 1.375989627838134766e+01 1.786957979202270508e+00
6.300000000000000000e+01 5.581455230712890625e+01 1.099079513549804688e+01 1.620378112792968750e+01 2.046770095825195312e+01 1.100144386291503906e+01 1.953512787818908691e+00
6.400000000000000000e+01 5.601101684570312500e+01 1.095889854431152344e+01 1.309024238586425781e+01 1.692384529113769531e+01 9.004225730895996094e+00 2.406944274902343750e+00
6.500000000000000000e+01 5.542528915405273438e+01 1.111287784576416016e+01 2.825200843811035156e+01 3.338845443725585938e+01 1.849213981628417969e+01 4.524874687194824219e+00
6.600000000000000000e+01 5.562420654296875000e+01 1.111983966827392578e+01 2.099759292602539062e+01 2.493865394592285156e+01 1.378087425231933594e+01 4.464982032775878906e+00
6.700000000000000000e+01 5.582312774658203125e+01 1.112680244445800781e+01 1.650251388549804688e+01 2.012120819091796875e+01 1.098711681365966797e+01 4.434846401214599609e+00
6.800000000000000000e+01 5.602204513549804688e+01 1.113376426696777344e+01 1.360676097869873047e+01 1.619426536560058594e+01 8.940307617187500000e+00 4.616753578186035156e+00
6.900000000000000000e+01 5.541754531860351562e+01 1.117076683044433594e+01 2.694385337829589844e+01 3.409495925903320312e+01 1.831164360046386719e+01 7.293065547943115234e+00
7.000000000000000000e+01 5.561130523681640625e+01 1.121632194519042969e+01 1.975967407226562500e+01 2.596643829345703125e+01 1.371783351898193359e+01 6.999485492706298828e+00
7.100000000000000000e+01 5.580506134033203125e+01 1.126187705993652344e+01 1.549890708923339844e+01 2.074878120422363281e+01 1.087430667877197266e+01 6.744601249694824219e+00
7.200000000000000000e+01 5.599882125854492188e+01 1.130743217468261719e+01 1.280809020996093750e+01 1.701573753356933594e+01 8.947148323059082031e+00 6.457754611968994141e+00
7.300000000000000000e+01 5.539868164062500000e+01 1.122604084014892578e+01 2.425361061096191406e+01 3.631448364257812500e+01 1.817042922973632812e+01 9.405396461486816406e+00
7.400000000000000000e+01 5.557986450195312500e+01 1.130844497680664062e+01 1.704623603820800781e+01 2.768298339843750000e+01 1.341876602172851562e+01 8.758892059326171875e+00
7.500000000000000000e+01 5.576104736328125000e+01 1.139085006713867188e+01 1.338325214385986328e+01 2.265375518798828125e+01 1.081110286712646484e+01 8.144423484802246094e+00
7.600000000000000000e+01 5.594222640991210938e+01 1.147325420379638672e+01 1.087919712066650391e+01 1.861147117614746094e+01 8.847200393676757812e+00 7.858748912811279297e+00
7.700000000000000000e+01 5.536941909790039062e+01 1.127658462524414062e+01 2.007533073425292969e+01 3.881114196777343750e+01 1.766594123840332031e+01 1.044464302062988281e+01
7.800000000000000000e+01 5.553109359741210938e+01 1.139268493652343750e+01 1.362624740600585938e+01 3.051617431640625000e+01 1.324272632598876953e+01 9.090552330017089844e+00
7.900000000000000000e+01 5.569276428222656250e+01 1.150878620147705078e+01 1.021854305267333984e+01 2.463496971130371094e+01 1.045605373382568359e+01 8.504982948303222656e+00
8.000000000000000000e+01 5.585443496704101562e+01 1.162488651275634766e+01 8.533684730529785156e+00 2.096319198608398438e+01 8.849062919616699219e+00 7.963883876800537109e+00
8.100000000000000000e+01 5.533087539672851562e+01 1.132046413421630859e+01 1.555563354492187500e+01 4.222126388549804688e+01 1.733306884765625000e+01 9.676573753356933594e+00
8.200000000000000000e+01 5.546685028076171875e+01 1.146581840515136719e+01 9.502372741699218750e+00 3.273852157592773438e+01 1.267226791381835938e+01 8.108353614807128906e+00
8.300000000000000000e+01 5.560282897949218750e+01 1.161117267608642578e+01 7.153045177459716797e+00 2.711075973510742188e+01 1.027914142608642578e+01 7.282422542572021484e+00
8.400000000000000000e+01 5.573880386352539062e+01 1.175652599334716797e+01 5.363673210144042969e+00 2.272412300109863281e+01 8.426339149475097656e+00 6.952686786651611328e+00
8.500000000000000000e+01 5.528452682495117188e+01 1.135600090026855469e+01 1.048070621490478516e+01 4.470081710815429688e+01 1.655445671081542969e+01 7.299911499023437500e+00
8.600000000000000000e+01 5.538960266113281250e+01 1.152504634857177734e+01 6.200953006744384766e+00 3.471294021606445312e+01 1.227416706085205078e+01 5.403799533843994141e+00
8.700000000000000000e+01 5.549467849731445312e+01 1.169409084320068359e+01 3.942984104156494141e+00 2.841338729858398438e+01 9.706911087036132812e+00 5.042293071746826172e+00
8.800000000000000000e+01 5.559975814819335938e+01 1.186313533782958984e+01 2.919723987579345703e+00 2.444855880737304688e+01 8.210484504699707031e+00 4.719662189483642578e+00
8.900000000000000000e+01 5.523214340209960938e+01 1.138183403015136719e+01 6.687199592590332031e+00 4.626212310791015625e+01 1.588479709625244141e+01 3.040715932846069336e+00
9.000000000000000000e+01 5.530230331420898438e+01 1.156810188293457031e+01 3.374474048614501953e+00 3.498265838623046875e+01 1.150714015960693359e+01 1.762225866317749023e+00
9.100000000000000000e+01 5.537245941162109375e+01 1.175436878204345703e+01 1.993283033370971680e+00 2.882614707946777344e+01 9.245828628540039062e+00 1.710005998611450195e+00
9.200000000000000000e+01 5.544261550903320312e+01 1.194063472747802734e+01 9.984845519065856934e-01 2.458868026733398438e+01 7.676149368286132812e+00 1.921811580657958984e+00
9.300000000000000000e+01 5.517573547363281250e+01 1.139697551727294922e+01 4.063583374023437500e+00 4.552471923828125000e+01 1.487649059295654297e+01 -2.299257755279541016e+00
9.400000000000000000e+01 5.520829010009765625e+01 1.159333705902099609e+01 2.215786695480346680e+00 3.370319747924804688e+01 1.077569484710693359e+01 -2.506402730941772461e+00
9.500000000000000000e+01 5.524083709716796875e+01 1.178969860076904297e+01 9.532098174095153809e-01 2.743242645263671875e+01 8.515690803527832031e+00 -1.857244610786437988e+00
9.600000000000000000e+01 5.527339172363281250e+01 1.198605918884277344e+01 3.350709974765777588e-01 2.345753479003906250e+01 7.137782096862792969e+00 -1.390242457389831543e+00
9.700000000000000000e+01 5.511746215820312500e+01 1.140084552764892578e+01 3.677355527877807617e+00 4.236312484741210938e+01 1.381214427947998047e+01 -7.983973979949951172e+00
9.800000000000000000e+01 5.511116027832031250e+01 1.159978675842285156e+01 2.298182964324951172e+00 3.034325599670410156e+01 9.792431831359863281e+00 -6.462624073028564453e+00
9.900000000000000000e+01 5.510486221313476562e+01 1.179872798919677734e+01 1.309028863906860352e+00 2.454736518859863281e+01 7.756918430328369141e+00 -5.257532119750976562e+00
1.000000000000000000e+02 5.509856414794921875e+01 1.199767017364501953e+01 6.011955142021179199e-01 2.082821083068847656e+01 6.428822040557861328e+00 -4.261953830718994141e+00
1.010000000000000000e+02 5.505954742431640625e+01 1.139329624176025391e+01 5.075851917266845703e+00 3.650493240356445312e+01 1.247423553466796875e+01 -1.269766426086425781e+01
1.020000000000000000e+02 5.501463699340820312e+01 1.158720493316650391e+01 3.746982336044311523e+00 2.539312934875488281e+01 8.742033004760742188e+00 -9.584209442138671875e+00
1.030000000000000000e+02 5.496972656250000000e+01 1.178111362457275391e+01 2.532392978668212891e+00 2.015909004211425781e+01 6.807445049285888672e+00 -7.618085384368896484e+00
1.040000000000000000e+02 5.492481994628906250e+01 1.197502231597900391e+01 1.796866416931152344e+00 1.705650901794433594e+01 5.656012535095214844e+00 -6.381408691406250000e+00
1.050000000000000000e+02 5.500421142578125000e+01 1.137461662292480469e+01 8.153023719787597656e+00 2.861814308166503906e+01 1.103135013580322266e+01 -1.563849258422851562e+01
1.060000000000000000e+02 5.492240905761718750e+01 1.155607223510742188e+01 5.578056812286376953e+00 1.917449569702148438e+01 7.425765514373779297e+00 -1.098670291900634766e+01
1.070000000000000000e+02 5.484061050415039062e+01 1.173752784729003906e+01 4.408874988555908203e+00 1.500964736938476562e+01 5.825556755065917969e+00 -8.746356010437011719e+00
1.080000000000000000e+02 5.475880813598632812e+01 1.191898345947265625e+01 3.250388860702514648e+00 1.258317756652832031e+01 4.750070095062255859e+00 -7.119462013244628906e+00
1.090000000000000000e+02 5.495356750488281250e+01 1.134552192687988281e+01 1.105368423461914062e+01 1.963292121887207031e+01 9.205981254577636719e+00 -1.587294769287109375e+01
1.100000000000000000e+02 5.483800888061523438e+01 1.150757980346679688e+01 7.696246147155761719e+00 1.254570770263671875e+01 6.072586059570312500e+00 -1.060003852844238281e+01
1.110000000000000000e+02 5.472244644165039062e+01 1.166963863372802734e+01 5.569001197814941406e+00 9.691104888916015625e+00 4.578031539916992188e+00 -8.085012435913085938e+00
1.120000000000000000e+02 5.460688400268554688e+01 1.183169746398925781e+01 4.692193031311035156e+00 8.316532135009765625e+00 3.902617692947387695e+00 -6.669647693634033203e+00
1.130000000000000000e+02 5.490956115722656250e+01 1.130712413787841797e+01 1.341639614105224609e+01 1.070640754699707031e+01 7.236841201782226562e+00 -1.334484386444091797e+01
1.140000000000000000e+02 5.476465988159179688e+01 1.144358444213867188e+01 8.094717979431152344e+00 6.448011875152587891e+00 4.362819194793701172e+00 -8.239068031311035156e+00
1.150000000000000000e+02 5.461976242065429688e+01 1.158004379272460938e+01 6.178712368011474609e+00 5.192798137664794922e+00 3.411453247070312500e+00 -6.129644870758056641e+00
1.160000000000000000e+02 5.447486114501953125e+01 1.171650409698486328e+01 4.616060256958007812e+00 4.442900657653808594e+00 2.717688322067260742e+00 -4.885683059692382812e+00
1.170000000000000000e+02 5.487387084960937500e+01 1.126089382171630859e+01 1.236933612823486328e+01 3.253192663192749023e+00 4.686758995056152344e+00 -8.477104187011718750e+00
1.180000000000000000e+02 5.470517730712890625e+01 1.136653327941894531e+01 7.098217964172363281e+00 1.755645871162414551e+00 2.656159162521362305e+00 -4.561017513275146484e+00
1.190000000000000000e+02 5.453648376464843750e+01 1.147217369079589844e+01 4.360931396484375000e+00 2.241453886032104492e+00 1.980715513229370117e+00 -3.211801528930664062e+00
1.200000000000000000e+02 5.436779022216796875e+01 1.157781314849853516e+01 3.707344055175781250e+00 1.921917796134948730e+00 1.688778638839721680e+00 -3.041994333267211914e+00
1.210000000000000000e+02 5.484786224365234375e+01 1.120859909057617188e+01 7.944903373718261719e+00 -2.517472505569458008e+00 1.628229260444641113e+00 -1.739238023757934570e+00
1.220000000000000000e+02 5.466183090209960938e+01 1.127937698364257812e+01 1.809709072113037109e+00 3.016059994697570801e-01 6.333945393562316895e-01 -7.386480569839477539e-01
1.230000000000000000e+02 5.447579956054687500e+01 1.135015392303466797e+01 2.074587821960449219e+00 8.758499622344970703e-01 8.851313591003417969e-01 -1.493040561676025391e+00
1.240000000000000000e+02 5.428976440429687500e+01 1.142092990875244141e+01 1.175753474235534668e+00 1.951325237751007080e-01 4.112658202648162842e-01 -7.856577038764953613e-01
1.250000000000000000e+02 5.483253097534179688e+01 1.115224266052246094e+01 -7.109581470489501953e+00 -2.956587076187133789e+00 -3.019850492477416992e+00 3.421037197113037109e+00
1.260000000000000000e+02 5.463628005981445312e+01 1.118544864654541016e+01 -1.877765297889709473e+00 9.374339580535888672e-01 -2.820993959903717041e-01 -3.243066966533660889e-01
1.270000000000000000e+02 5.444002914428710938e+01 1.121865367889404297e+01 -2.266216516494750977e+00 -3.961830139160156250e-01 -7.987198829650878906e-01 3.611437678337097168e-01
1.280000000000000000e+02 5.424377822875976562e+01 1.125185966491699219e+01 -2.037606477737426758e+00 1.388359367847442627e-01 -5.696311593055725098e-01 1.862368881702423096e-01
1.290000000000000000e+02 5.195491027832031250e+01 1.051500892639160156e+01 -3.068818569183349609e+00 6.748133897781372070e-01 -7.182015776634216309e-01 -1.128012418746948242e+00
1.300000000000000000e+02 5.067720413208007812e+01 1.100353813171386719e+01 -1.411385655403137207e+00 -3.208958804607391357e-01 -5.196844935417175293e-01 -8.866490721702575684e-01
1.310000000000000000e+02 5.191691207885742188e+01 1.014710998535156250e+01 -2.163344383239746094e+00 8.546807169914245605e-01 -3.925990760326385498e-01 -1.268571615219116211e+00
1.320000000000000000e+02 5.108413696289062500e+01 1.014365482330322266e+01 -2.120376586914062500e+00 4.282998740673065186e-01 -5.076230168342590332e-01 -1.849771261215209961e+00
1.330000000000000000e+02 5.190845489501953125e+01 1.069702816009521484e+01 -3.780935287475585938e+00 6.234355568885803223e-01 -9.472498893737792969e-01 -9.989152550697326660e-01
1.340000000000000000e+02 5.137120056152343750e+01 1.048408603668212891e+01 -2.417428731918334961e+00 4.204775393009185791e-01 -5.990853309631347656e-01 -1.486035346984863281e+00
1.350000000000000000e+02 5.133300399780273438e+01 1.091183280944824219e+01 -3.210441827774047852e+00 5.622183084487915039e-01 -7.944670915603637695e-01 -8.893881440162658691e-01
1.360000000000000000e+02 5.178633880615234375e+01 9.939743041992187500e+00 -1.972430825233459473e+00 1.223011493682861328e+00 -2.248257994651794434e-01 -1.218428492546081543e+00
1.370000000000000000e+02 5.174627685546875000e+01 1.028945732116699219e+01 -2.289129495620727539e+00 7.399868369102478027e-01 -4.647427797317504883e-01 -1.278126239776611328e+00
1.380000000000000000e+02 5.171625137329101562e+01 1.052296257019042969e+01 -3.028631687164306641e+00 6.518698334693908691e-01 -7.130285501480102539e-01 -1.148479819297790527e+00
1.390000000000000000e+02 5.149139785766601562e+01 1.015128135681152344e+01 -2.392772436141967773e+00 9.596167206764221191e-01 -4.299467504024505615e-01 -1.738177776336669922e+00
1.400000000000000000e+02 5.174803543090820312e+01 1.117228412628173828e+01 -4.316842079162597656e+00 3.463298380374908447e-01 -1.191153764724731445e+00 -2.598457634449005127e-01
1.410000000000000000e+02 5.005720138549804688e+01 1.050325489044189453e+01 -1.169561386108398438e+00 -1.766168832778930664e+00 -8.807190656661987305e-01 -1.444923281669616699e+00
1.420000000000000000e+02 5.052934265136718750e+01 1.027238655090332031e+01 -2.375981807708740234e+00 -3.902243077754974365e-01 -8.298618197441101074e-01 -1.998470187187194824e+00
1.430000000000000000e+02 5.195481491088867188e+01 1.032699966430664062e+01 -2.599528074264526367e+00 7.153984904289245605e-01 -5.652388930320739746e-01 -1.060997128486633301e+00
1.440000000000000000e+02 5.185707092285156250e+01 1.091072368621826172e+01 -4.209075450897216797e+00 4.412260651588439941e-01 -1.130354762077331543e+00 -9.641677141189575195e-01
1.450000000000000000e+02 5.547771072387695312e+01 1.216764259338378906e+01 3.732556104660034180e-01 2.132120513916015625e+01 6.508338451385498047e+00 1.516704797744750977e+00
1.460000000000000000e+02 5.608505249023437500e+01 1.207099151611328125e+01 3.758517503738403320e+00 1.631082344055175781e+01 6.020802021026611328e+00 6.494595050811767578e+00
1.470000000000000000e+02 5.644084548950195312e+01 1.138116073608398438e+01 9.250788688659667969e+00 1.098724365234375000e+01 6.071409702301025391e+00 5.895932197570800781e+00
1.480000000000000000e+02 5.634270858764648438e+01 1.041540241241455078e+01 4.487307548522949219e+00 1.410888957977294922e+01 5.578859329223632812e+00 2.230919152498245239e-01
1.490000000000000000e+02 5.493332672119140625e+01 1.001671791076660156e+01 -1.018873214721679688e+00 1.936368751525878906e+01 5.503444194793701172e+00 9.871104240417480469e+00
1.500000000000000000e+02 5.436462783813476562e+01 9.769672393798828125e+00 1.309864968061447144e-01 1.101288509368896484e+01 3.343161344528198242e+00 8.438214302062988281e+00
1.510000000000000000e+02 5.402733612060546875e+01 1.105505275726318359e+01 -5.983757019042968750e+00 3.263962268829345703e-02 -1.785335302352905273e+00 4.899505376815795898e-01
1.520000000000000000e+02 5.320239639282226562e+01 1.087902927398681641e+01 -5.241847515106201172e+00 3.911496698856353760e-02 -1.560819745063781738e+00 3.998672962188720703e-01
1.530000000000000000e+02 5.644982147216796875e+01 1.162152767181396484e+01 7.885415077209472656e+00 1.155958080291748047e+01 5.833498954772949219e+00 6.953941345214843750e+00
1.540000000000000000e+02 5.223158264160156250e+01 1.140175819396972656e+01 -1.452242970466613770e+00 -2.199541926383972168e-01 -5.016591548919677734e-01 4.513999819755554199e-02
1.550000000000000000e+02 5.226486206054687500e+01 1.158070087432861328e+01 -8.716272711753845215e-01 -2.037730067968368530e-01 -3.226200938224792480e-01 2.460025995969772339e-01
1.560000000000000000e+02 5.281432342529296875e+01 1.140266418457031250e+01 -1.689933538436889648e+00 -1.046017743647098541e-02 -5.101181268692016602e-01 2.142698913812637329e-01
1.570000000000000000e+02 5.338730239868164062e+01 1.163380432128906250e+01 -2.748042941093444824e-01 8.172970265150070190e-02 -5.792237445712089539e-02 -5.401315912604331970e-02
1.580000000000000000e+02 5.375899505615234375e+01 1.176036357879638672e+01 1.417834520339965820e+00 6.417132616043090820e-01 6.178643107414245605e-01 -9.777311086654663086e-01
1.590000000000000000e+02 5.404837417602539062e+01 1.128942298889160156e+01 -1.922398805618286133e+00 -8.928110450506210327e-02 -6.035039424896240234e-01 2.271115332841873169e-01
1.600000000000000000e+02 5.610897827148437500e+01 1.155802154541015625e+01 9.454123497009277344e+00 1.613654899597167969e+01 7.677201271057128906e+00 7.576731681823730469e+00
1.610000000000000000e+02 5.509870147705078125e+01 1.221820068359375000e+01 2.106048762798309326e-01 1.826085472106933594e+01 5.541438102722167969e+00 -3.459223270416259766e+00
1.620000000000000000e+02 5.407181930541992188e+01 1.176733589172363281e+01 2.713595867156982422e+00 1.606899619102478027e+00 1.296148657798767090e+00 -2.201449871063232422e+00
1.630000000000000000e+02 5.421110916137695312e+01 1.167069530487060547e+01 2.924362182617187500e+00 1.429091930389404297e+00 1.306036233901977539e+00 -2.432365655899047852e+00
1.640000000000000000e+02 5.382114791870117188e+01 1.105546665191650391e+01 -6.452309608459472656e+00 -1.532652080059051514e-01 -1.981672525405883789e+00 5.470123887062072754e-01
1.650000000000000000e+02 5.380409240722656250e+01 1.080109119415283203e+01 -2.755858421325683594e+00 5.467703938484191895e-01 -6.627264022827148438e-01 1.540722727775573730e+00
1.660000000000000000e+02 5.337258529663085938e+01 1.006940746307373047e+01 -1.172712147235870361e-01 2.723892927169799805e+00 7.819865345954895020e-01 2.739535808563232422e+00
1.670000000000000000e+02 5.339922332763671875e+01 1.086979389190673828e+01 -4.810424327850341797e+00 2.799927294254302979e-01 -1.359129428863525391e+00 6.260794401168823242e-01
1.680000000000000000e+02 5.262625503540039062e+01 1.113138866424560547e+01 -6.915189743041992188e+00 -2.798326611518859863e-01 -2.158506631851196289e+00 1.622449308633804321e-01
1.690000000000000000e+02 5.241264343261718750e+01 1.092797756195068359e+01 -5.259210109710693359e+00 -2.916596829891204834e-01 -1.665260910987854004e+00 -9.624295681715011597e-02
1.700000000000000000e+02 5.222480773925781250e+01 1.115890312194824219e+01 -6.567619800567626953e+00 -8.325710296630859375e-01 -2.220057249069213867e+00 4.268389046192169189e-01
1.710000000000000000e+02 5.213909530639648438e+01 9.895267486572265625e+00 -1.532811760902404785e+00 1.834838509559631348e+00 9.060800820589065552e-02 -5.179020166397094727e-01
1.720000000000000000e+02 5.234169387817382812e+01 9.886118888854980469e+00 -1.278769254684448242e+00 1.653214693069458008e+00 1.123336255550384521e-01 -1.415150314569473267e-01
1.730000000000000000e+02 5.314287948608398438e+01 9.845146179199218750e+00 -3.047544062137603760e-01 3.011886358261108398e+00 8.121395707130432129e-01 2.197906255722045898e+00
1.740000000000000000e+02 5.236259841918945312e+01 1.031032848358154297e+01 -2.345267534255981445e+00 9.457637667655944824e-01 -4.198510944843292236e-01 -5.908398628234863281e-01
1.750000000000000000e+02 5.242578125000000000e+01 1.114496517181396484e+01 -6.628325939178466797e+00 3.795662522315979004e-01 -1.874627947807312012e+00 9.010339528322219849e-02
1.760000000000000000e+02 5.514057540893554688e+01 9.984896659851074219e+00 -1.954767823219299316e+00 2.204271507263183594e+01 6.026383876800537109e+00 7.939760684967041016e+00
1.770000000000000000e+02 5.438611602783203125e+01 1.028218555450439453e+01 2.946907043457031250e+00 7.816300868988037109e+00 3.228962421417236328e+00 8.889184951782226562e+00
1.780000000000000000e+02 5.394366836547851562e+01 9.820341110229492188e+00 6.718819141387939453e-01 6.824454784393310547e+00 2.248900890350341797e+00 6.379619121551513672e+00
1.790000000000000000e+02 5.254408264160156250e+01 9.877108573913574219e+00 -1.123084068298339844e+00 2.016506910324096680e+00 2.680268883705139160e-01 2.379522621631622314e-01
1.800000000000000000e+02 5.530822753906250000e+01 1.245565509796142578e+01 -3.925429880619049072e-01 1.761372184753417969e+01 5.166353702545166016e+00 -9.393096566200256348e-01
1.810000000000000000e+02 5.581465148925781250e+01 1.231768035888671875e+01 1.195229887962341309e+00 1.798784637451171875e+01 5.754922866821289062e+00 4.417594432830810547e+00
1.820000000000000000e+02 5.589710617065429688e+01 1.190387630462646484e+01 4.525983333587646484e+00 1.969279289245605469e+01 7.265633106231689453e+00 6.718966484069824219e+00
1.830000000000000000e+02 5.652276611328125000e+01 1.146802330017089844e+01 8.164252281188964844e+00 1.038137435913085938e+01 5.563687801361083984e+00 6.300848960876464844e+00
1.840000000000000000e+02 5.619256210327148438e+01 1.075719261169433594e+01 9.275718688964843750e+00 1.483735752105712891e+01 7.233922958374023438e+00 1.008204698562622070e+00
1.850000000000000000e+02 5.622782516479492188e+01 1.028171730041503906e+01 2.882249355316162109e+00 1.488927936553955078e+01 5.331458568572998047e+00 -6.579920649528503418e-01
1.860000000000000000e+02 5.233135986328125000e+01 1.267148303985595703e+01 6.388791203498840332e-01 8.130130767822265625e-01 4.355676472187042236e-01 -3.169141709804534912e-01
1.870000000000000000e+02 5.351743698120117188e+01 1.258248138427734375e+01 1.866666078567504883e+00 2.392696857452392578e+00 1.277808904647827148e+00 -2.122332572937011719e+00
1.880000000000000000e+02 5.622791290283203125e+01 1.095250415802001953e+01 1.068125724792480469e+01 1.362548542022705078e+01 7.292022705078125000e+00 2.771843671798706055e+00
1.890000000000000000e+02 5.471473312377929688e+01 1.217477512359619141e+01 2.326456785202026367e+00 1.167256546020507812e+01 4.199706554412841797e+00 -5.879886150360107422e+00
1.900000000000000000e+02 5.490254592895507812e+01 1.220694065093994141e+01 1.163454294204711914e+00 1.522324371337890625e+01 4.916009426116943359e+00 -5.083633899688720703e+00
1.910000000000000000e+02 5.384523391723632812e+01 1.134006690979003906e+01 -1.854369997978210449e+00 -3.459059074521064758e-02 -5.666881799697875977e-01 1.641876101493835449e-01
1.920000000000000000e+02 5.432551193237304688e+01 1.182792377471923828e+01 4.065154552459716797e+00 3.691199064254760742e+00 2.326906204223632812e+00 -4.316250324249267578e+00
1.930000000000000000e+02 5.621166992187500000e+01 1.116010475158691406e+01 1.179724788665771484e+01 1.379006767272949219e+01 7.676194667816162109e+00 4.621119976043701172e+00
1.940000000000000000e+02 5.602560806274414062e+01 1.174846363067626953e+01 6.869627475738525391e+00 1.766548156738281250e+01 7.360532760620117188e+00 7.642942905426025391e+00
1.950000000000000000e+02 5.566697692871093750e+01 1.239020919799804688e+01 1.400474011898040771e-01 1.832147979736328125e+01 5.538458347320556641e+00 2.459803342819213867e+00
1.960000000000000000e+02 5.529375457763671875e+01 1.220432758331298828e+01 -1.736171394586563110e-01 2.035483360290527344e+01 6.054364681243896484e+00 -1.046295642852783203e+00
1.970000000000000000e+02 5.471756744384765625e+01 1.248534488677978516e+01 8.822604417800903320e-01 1.130132865905761719e+01 3.655076742172241211e+00 -4.475717067718505859e+00
1.980000000000000000e+02 5.491270065307617188e+01 1.248009967803955078e+01 3.635913133621215820e-01 1.375518608093261719e+01 4.235633373260498047e+00 -3.881458520889282227e+00
1.990000000000000000e+02 5.428982543945312500e+01 1.227446079254150391e+01 2.710629701614379883e+00 5.709137916564941406e+00 2.525930404663085938e+00 -4.404175758361816406e+00
2.000000000000000000e+02 5.511187744140625000e+01 1.247249889373779297e+01 -1.868373751640319824e-01 1.612600708007812500e+01 4.781751155853271484e+00 -2.514027118682861328e+00
2.010000000000000000e+02 5.424040222167968750e+01 1.042772674560546875e+01 2.752768516540527344e+00 4.483476161956787109e+00 2.170873403549194336e+00 7.127473354339599609e+00
2.020000000000000000e+02 5.551935195922851562e+01 9.955788612365722656e+00 -1.724474072456359863e+00 2.265359878540039062e+01 6.278737545013427734e+00 4.257738590240478516e+00
2.030000000000000000e+02 5.593370056152343750e+01 1.033406925201416016e+01 3.416172742843627930e+00 1.974207878112792969e+01 6.947475433349609375e+00 -7.149468660354614258e-01
2.040000000000000000e+02 5.578983688354492188e+01 1.020695590972900391e+01 1.852201461791992188e+00 2.205181503295898438e+01 7.171205043792724609e+00 7.269499897956848145e-01
2.050000000000000000e+02 5.473697280883789062e+01 1.008682632446289062e+01 6.052969098091125488e-01 1.584208202362060547e+01 4.934213638305664062e+00 1.068447494506835938e+01
2.060000000000000000e+02 5.455339050292968750e+01 1.017113113403320312e+01 1.905807256698608398e+00 1.162778377532958984e+01 4.060077190399169922e+00 1.050445652008056641e+01
2.070000000000000000e+02 5.391999435424804688e+01 1.041506195068359375e+01 6.779475212097167969e-01 2.312357425689697266e+00 8.970915079116821289e-01 4.325553417205810547e+00
2.080000000000000000e+02 5.362023544311523438e+01 1.107087993621826172e+01 -6.895266056060791016e+00 2.044700682163238525e-01 -2.007238626480102539e+00 4.950246810913085938e-01
2.090000000000000000e+02 5.641481018066406250e+01 1.056369972229003906e+01 6.109435558319091797e+00 1.182068157196044922e+01 5.379034996032714844e+00 1.250377297401428223e+00
2.100000000000000000e+02 5.580332183837890625e+01 9.907584190368652344e+00 -9.236899614334106445e-01 1.941341018676757812e+01 5.546916007995605469e+00 2.066477298736572266e+00
2.110000000000000000e+02 5.563504409790039062e+01 1.010252094268798828e+01 -7.885856032371520996e-01 2.295881652832031250e+01 6.651069641113281250e+00 2.332587242126464844e+00
2.120000000000000000e+02 5.407825469970703125e+01 1.022692680358886719e+01 1.791611671447753906e+00 5.096312046051025391e+00 2.066377162933349609e+00 6.387814521789550781e+00
2.130000000000000000e+02 5.654730606079101562e+01 1.131144905090332031e+01 9.056595802307128906e+00 1.003585720062255859e+01 5.727735996246337891e+00 5.358315467834472656e+00
2.140000000000000000e+02 5.532207107543945312e+01 9.742251396179199219e+00 -3.100545167922973633e+00 2.080942726135253906e+01 5.312664508819580078e+00 6.101346492767333984e+00
2.150000000000000000e+02 5.609968566894531250e+01 1.014491176605224609e+01 2.319791793823242188e+00 1.754400825500488281e+01 5.959139823913574219e+00 -1.085768863558769226e-01
2.160000000000000000e+02 5.575687026977539062e+01 1.202961444854736328e+01 2.292472362518310547e+00 2.078478050231933594e+01 6.923175811767578125e+00 5.052989482879638672e+00
2.170000000000000000e+02 5.549423217773437500e+01 1.242534446716308594e+01 -2.977730929851531982e-01 1.785606384277343750e+01 5.267487049102783203e+00 9.583535194396972656e-01
2.180000000000000000e+02 5.644968414306640625e+01 1.073911857604980469e+01 7.580504894256591797e+00 1.052553558349609375e+01 5.431812286376953125e+00 1.605656027793884277e+00
2.190000000000000000e+02 5.635486221313476562e+01 1.125131988525390625e+01 1.012266635894775391e+01 1.191199874877929688e+01 6.610399246215820312e+00 5.345427989959716797e+00
2.200000000000000000e+02 5.634118652343750000e+01 1.176482009887695312e+01 7.143159389495849609e+00 1.323822116851806641e+01 6.114414215087890625e+00 7.465621948242187500e+00
2.210000000000000000e+02 5.621403884887695312e+01 1.191527080535888672e+01 5.718778133392333984e+00 1.490497779846191406e+01 6.187126636505126953e+00 7.193177223205566406e+00
2.220000000000000000e+02 5.565599441528320312e+01 9.810008049011230469e+00 -2.224606990814208984e+00 1.993552589416503906e+01 5.313275814056396484e+00 3.011105775833129883e+00
2.230000000000000000e+02 5.651589965820312500e+01 1.113652420043945312e+01 9.023715972900390625e+00 1.012540149688720703e+01 5.744735240936279297e+00 4.430233955383300781e+00
2.240000000000000000e+02 5.279063796997070312e+01 1.167406558990478516e+01 -6.668947339057922363e-01 5.369512736797332764e-02 -1.839598715305328369e-01 1.566998660564422607e-01
2.250000000000000000e+02 5.325089263916015625e+01 1.182881164550781250e+01 4.604609608650207520e-01 1.474856883287429810e-01 1.823839992284774780e-01 -2.252031117677688599e-01
2.260000000000000000e+02 5.452058410644531250e+01 1.249979209899902344e+01 1.561213016510009766e+00 9.253977775573730469e+00 3.244557380676269531e+00 -4.651428699493408203e+00
2.270000000000000000e+02 5.232414627075195312e+01 1.245271110534667969e+01 4.738883078098297119e-01 3.716982007026672363e-01 2.536759376525878906e-01 -4.314700514078140259e-02
2.280000000000000000e+02 5.231602478027343750e+01 1.223550415039062500e+01 2.894629240036010742e-01 2.425657659769058228e-01 1.596086174249649048e-01 1.301007717847824097e-01
2.290000000000000000e+02 5.348287582397460938e+01 1.231999874114990234e+01 1.865074753761291504e+00 1.552699446678161621e+00 1.025332331657409668e+00 -1.652972579002380371e+00
2.300000000000000000e+02 5.313510513305664062e+01 1.240862369537353516e+01 1.298706769943237305e+00 9.818918108940124512e-01 6.841796040534973145e-01 -1.006885766983032227e+00
2.310000000000000000e+02 5.391381835937500000e+01 1.255920600891113281e+01 2.150812149047851562e+00 3.896354913711547852e+00 1.814150094985961914e+00 -3.114784002304077148e+00
2.320000000000000000e+02 5.408929061889648438e+01 1.231330585479736328e+01 2.671341419219970703e+00 4.324584484100341797e+00 2.098777770996093750e+00 -3.638960838317871094e+00
2.330000000000000000e+02 5.389410018920898438e+01 1.232528591156005859e+01 2.495260715484619141e+00 3.026087284088134766e+00 1.656404376029968262e+00 -2.941811323165893555e+00
2.340000000000000000e+02 5.302064895629882812e+01 1.138325405120849609e+01 -1.777764320373535156e+00 3.747930750250816345e-02 -5.220855474472045898e-01 1.702570468187332153e-01
2.350000000000000000e+02 5.411097335815429688e+01 1.149534225463867188e+01 9.154788255691528320e-01 4.432732462882995605e-01 4.076256155967712402e-01 -8.808533549308776855e-01
2.360000000000000000e+02 5.322298049926757812e+01 1.136642932891845703e+01 -1.846032142639160156e+00 -8.604762703180313110e-02 -5.796239376068115234e-01 1.932190954685211182e-01
2.370000000000000000e+02 5.322029876708984375e+01 1.109870624542236328e+01 -7.274222850799560547e+00 1.785317957401275635e-01 -2.128707170486450195e+00 3.196154236793518066e-01
2.380000000000000000e+02 5.277056884765625000e+01 1.008966350555419922e+01 -1.421657323837280273e+00 1.544118523597717285e+00 3.673839196562767029e-02 5.559266209602355957e-01
2.390000000000000000e+02 5.287713241577148438e+01 1.028075981140136719e+01 -1.906546950340270996e+00 1.220851302146911621e+00 -2.057086974382400513e-01 6.112949252128601074e-01
2.400000000000000000e+02 5.221085739135742188e+01 1.094615459442138672e+01 -4.468040943145751953e+00 1.843606121838092804e-02 -1.334881424903869629e+00 -5.459883809089660645e-01
2.410000000000000000e+02 5.483022689819335938e+01 9.848182678222656250e+00 -1.106758356094360352e+00 1.739042091369628906e+01 4.885098934173583984e+00 9.270296096801757812e+00
2.420000000000000000e+02 5.415699005126953125e+01 9.811224937438964844e+00 8.229274749755859375e-01 8.353083610534667969e+00 2.752803564071655273e+00 7.369851112365722656e+00
2.430000000000000000e+02 5.356557464599609375e+01 1.005018711090087891e+01 3.035713732242584229e-01 3.405575990676879883e+00 1.112744212150573730e+00 3.673153877258300781e+00
2.440000000000000000e+02 5.334365463256835938e+01 9.831995964050292969e+00 -6.409794092178344727e-02 3.637506961822509766e+00 1.072022676467895508e+00 2.977123498916625977e+00
2.450000000000000000e+02 5.456336212158203125e+01 9.735507965087890625e+00 -5.733323097229003906e-01 1.374339294433593750e+01 3.951018333435058594e+00 8.900499343872070312e+00
2.460000000000000000e+02 5.215358352661132812e+01 1.010757446289062500e+01 -2.094641685485839844e+00 1.291609406471252441e+00 -2.409096807241439819e-01 -7.771348953247070312e-01
2.470000000000000000e+02 5.281277084350585938e+01 1.088938617706298828e+01 -5.344804763793945312e+00 -4.961388930678367615e-02 -1.618325591087341309e+00 3.827241063117980957e-02
2.480000000000000000e+02 5.492654418945312500e+01 9.710087776184082031e+00 -2.015073776245117188e+00 1.782522201538085938e+01 4.743044376373291016e+00 8.296716690063476562e+00
2.490000000000000000e+02 5.512336349487304688e+01 9.733742713928222656e+00 -2.673883914947509766e+00 1.985664176940917969e+01 5.154827117919921875e+00 7.424136638641357422e+00
2.500000000000000000e+02 5.230329895019531250e+01 1.178288459777832031e+01 -4.577341973781585693e-01 3.284104634076356888e-03 -1.363350301980972290e-01 2.964993119239807129e-01
2.510000000000000000e+02 5.255023193359375000e+01 1.196082019805908203e+01 7.662428542971611023e-03 1.412406861782073975e-01 4.467093199491500854e-02 1.386162042617797852e-01
2.520000000000000000e+02 5.240371322631835938e+01 1.141205596923828125e+01 -1.471429824829101562e+00 5.273787304759025574e-02 -4.256075620651245117e-01 1.757990866899490356e-01
2.530000000000000000e+02 5.230907058715820312e+01 1.201533794403076172e+01 -1.053476892411708832e-02 4.283399321138858795e-03 -1.875410904176533222e-03 2.351929992437362671e-01
2.540000000000000000e+02 5.239398574829101562e+01 1.071658802032470703e+01 -3.866473913192749023e+00 2.811312377452850342e-01 -1.075602769851684570e+00 -5.941296815872192383e-01
2.550000000000000000e+02 5.295531082153320312e+01 1.239411544799804688e+01 1.092008113861083984e+00 8.691779375076293945e-01 5.883558392524719238e-01 -7.397313714027404785e-01
2.560000000000000000e+02 5.273881530761718750e+01 1.263775920867919922e+01 9.703078866004943848e-01 9.431753158569335938e-01 5.740449428558349609e-01 -6.695643663406372070e-01
2.570000000000000000e+02 5.293683624267578125e+01 1.262822818756103516e+01 1.172531366348266602e+00 1.071767807006835938e+00 6.732897162437438965e-01 -9.719875454902648926e-01
2.580000000000000000e+02 5.338078308105468750e+01 1.205329704284667969e+01 1.309225320816040039e+00 7.930269837379455566e-01 6.306756734848022461e-01 -9.086557626724243164e-01
2.590000000000000000e+02 5.405963897705078125e+01 1.210966777801513672e+01 2.841202974319458008e+00 3.129313707351684570e+00 1.791154980659484863e+00 -3.309356689453125000e+00
2.600000000000000000e+02 5.424039459228515625e+01 1.206926822662353516e+01 3.312708616256713867e+00 4.530170440673828125e+00 2.352863788604736328e+00 -4.147048473358154297e+00
2.610000000000000000e+02 5.259771347045898438e+01 1.142490577697753906e+01 -1.572075724601745605e+00 -5.841305106878280640e-02 -4.891466498374938965e-01 1.961935013532638550e-01
2.620000000000000000e+02 5.300709533691406250e+01 1.088041782379150391e+01 -5.329566955566406250e+00 3.541160225868225098e-01 -1.492635250091552734e+00 1.360557526350021362e-01
2.630000000000000000e+02 5.294216156005859375e+01 9.852994918823242188e+00 -4.470206201076507568e-01 2.501283884048461914e+00 6.162789463996887207e-01 1.486366868019104004e+00
2.640000000000000000e+02 5.319465255737304688e+01 1.066672039031982422e+01 -3.378962755203247070e+00 5.947843790054321289e-01 -8.352534770965576172e-01 5.891117453575134277e-01
2.650000000000000000e+02 5.411109542846679688e+01 1.060763740539550781e+01 1.231920242309570312e+00 1.990389108657836914e+00 9.666928052902221680e-01 4.143098831176757812e+00
2.660000000000000000e+02 5.254201889038085938e+01 1.242112255096435547e+01 6.694686412811279297e-01 5.451291203498840332e-01 3.643793165683746338e-01 -2.698515653610229492e-01
2.670000000000000000e+02 5.219503784179687500e+01 1.073540592193603516e+01 -4.097714424133300781e+00 2.462388128042221069e-01 -1.155442595481872559e+00 -8.430733084678649902e-01
2.680000000000000000e+02 5.389329528808593750e+01 1.212463855743408203e+01 2.610719442367553711e+00 2.531843662261962891e+00 1.542768955230712891e+00 -2.709114789962768555e+00
2.690000000000000000e+02 5.237285995483398438e+01 1.051144313812255859e+01 -3.267175674438476562e+00 5.391479134559631348e-01 -8.184083700180053711e-01 -6.370085477828979492e-01
2.700000000000000000e+02 5.255770111083984375e+01 1.049462413787841797e+01 -3.059218406677246094e+00 5.879848599433898926e-01 -7.413700222969055176e-01 -3.740196526050567627e-01
2.710000000000000000e+02 5.402447128295898438e+01 1.191970825195312500e+01 2.778101205825805664e+00 2.057461977005004883e+00 1.450668931007385254e+00 -2.525322914123535156e+00
2.720000000000000000e+02 5.371405792236328125e+01 1.256756591796875000e+01 2.089938879013061523e+00 2.974540710449218750e+00 1.519343972206115723e+00 -2.583832025527954102e+00
2.730000000000000000e+02 5.300757598876953125e+01 1.164670276641845703e+01 -7.294599413871765137e-01 4.959982819855213165e-03 -2.173499912023544312e-01 1.749569773674011230e-01
2.740000000000000000e+02 5.358122253417968750e+01 1.166499614715576172e+01 4.415092468261718750e-01 1.913608014583587646e-01 1.898610144853591919e-01 -2.566585838794708252e-01
2.750000000000000000e+02 5.337541198730468750e+01 1.067354488372802734e+01 -3.315868377685546875e+00 2.908707261085510254e-01 -9.074992537498474121e-01 9.220436811447143555e-01
2.760000000000000000e+02 5.341074752807617188e+01 1.030377483367919922e+01 -7.045990228652954102e-01 1.689634680747985840e+00 2.955106794834136963e-01 2.320541381835937500e+00
2.770000000000000000e+02 5.304922485351562500e+01 1.041661548614501953e+01 -2.052318811416625977e+00 9.588518738746643066e-01 -3.280400633811950684e-01 7.329686880111694336e-01
2.780000000000000000e+02 5.379072570800781250e+01 1.021366024017333984e+01 8.454009890556335449e-01 3.231518030166625977e+00 1.223075747489929199e+00 4.398293495178222656e+00
2.790000000000000000e+02 5.300130462646484375e+01 1.215213489532470703e+01 8.933517932891845703e-01 4.456097781658172607e-01 4.016884565353393555e-01 -4.902834594249725342e-01
2.800000000000000000e+02 5.272129058837890625e+01 1.042445755004882812e+01 -2.539088964462280273e+00 6.529445648193359375e-01 -5.658433437347412109e-01 8.833740651607513428e-02
2.810000000000000000e+02 5.361592483520507812e+01 1.028607845306396484e+01 -1.070687994360923767e-01 2.379388809204101562e+00 6.816959977149963379e-01 3.239949226379394531e+00
2.820000000000000000e+02 5.359266662597656250e+01 1.191795063018798828e+01 1.365058064460754395e+00 7.984808087348937988e-01 6.490616798400878906e-01 -1.187705039978027344e+00
2.830000000000000000e+02 5.339751434326171875e+01 1.050154304504394531e+01 -1.633586049079895020e+00 9.895421862602233887e-01 -1.932131797075271606e-01 1.390923261642456055e+00
2.840000000000000000e+02 5.259392166137695312e+01 1.069046020507812500e+01 -4.004736423492431641e+00 1.374787539243698120e-01 -1.160177350044250488e+00 -1.960543394088745117e-01
2.850000000000000000e+02 5.216559982299804688e+01 1.031711292266845703e+01 -2.566704988479614258e+00 8.561366796493530273e-01 -5.131704807281494141e-01 -9.857175350189208984e-01
2.860000000000000000e+02 5.274360275268554688e+01 9.863637924194335938e+00 -7.742901444435119629e-01 2.187977790832519531e+00 4.241062998771667480e-01 8.035236597061157227e-01
2.870000000000000000e+02 5.257070541381835938e+01 1.011062335968017578e+01 -1.597133398056030273e+00 1.456001043319702148e+00 -4.233970865607261658e-02 8.077704906463623047e-02
2.880000000000000000e+02 5.295555114746093750e+01 1.008295726776123047e+01 -1.064900159835815430e+00 1.826117992401123047e+00 2.283653467893600464e-01 1.164671540260314941e+00
2.890000000000000000e+02 5.217897033691406250e+01 1.052593326568603516e+01 -3.093186616897583008e+00 5.595170259475708008e-01 -7.601008415222167969e-01 -9.048597812652587891e-01
2.900000000000000000e+02 5.354104995727539062e+01 9.817634582519531250e+00 1.491755545139312744e-01 4.581587314605712891e+00 1.419228911399841309e+00 3.961365461349487305e+00
2.910000000000000000e+02 5.373781204223632812e+01 9.808352470397949219e+00 5.077003836631774902e-01 5.350306510925292969e+00 1.757402062416076660e+00 4.793185710906982422e+00
2.920000000000000000e+02 5.391225814819335938e+01 1.006722259521484375e+01 1.061178684234619141e+00 4.767055034637451172e+00 1.748470067977905273e+00 5.764538764953613281e+00
2.930000000000000000e+02 5.253674316406250000e+01 1.265239048004150391e+01 8.733423352241516113e-01 6.028344631195068359e-01 4.428530335426330566e-01 -5.001902580261230469e-01
2.940000000000000000e+02 5.254565429687500000e+01 1.219327163696289062e+01 4.178619086742401123e-01 2.065696418285369873e-01 1.873294562101364136e-01 -3.681489825248718262e-02
2.950000000000000000e+02 5.313105773925781250e+01 1.262149238586425781e+01 1.385426163673400879e+00 1.411414861679077148e+00 8.390523195266723633e-01 -1.240293025970458984e+00
2.960000000000000000e+02 5.332378005981445312e+01 1.260586738586425781e+01 1.664906740188598633e+00 1.739098072052001953e+00 1.021201491355895996e+00 -1.690455198287963867e+00
2.970000000000000000e+02 5.329829025268554688e+01 1.238773441314697266e+01 1.546369433403015137e+00 1.256199359893798828e+00 8.407706618309020996e-01 -1.304127454757690430e+00
2.980000000000000000e+02 5.255782318115234375e+01 1.170746421813964844e+01 -5.653864145278930664e-01 -6.918834149837493896e-02 -1.903724223375320435e-01 2.308780252933502197e-01
2.990000000000000000e+02 5.369111633300781250e+01 1.230562591552734375e+01 2.139420509338378906e+00 2.112894773483276367e+00 1.275694608688354492e+00 -2.170496225357055664e+00
3.000000000000000000e+02 5.411483001708984375e+01 1.254564666748046875e+01 2.121898174285888672e+00 5.161230087280273438e+00 2.184938430786132812e+00 -3.677137136459350586e+00
3.010000000000000000e+02 5.431727600097656250e+01 1.252418708801269531e+01 2.058476686477661133e+00 6.974349975585937500e+00 2.709847927093505859e+00 -4.360557556152343750e+00
3.020000000000000000e+02 5.566135406494140625e+01 1.218962478637695312e+01 1.029816985130310059e+00 2.015123748779296875e+01 6.354316711425781250e+00 3.360268831253051758e+00
3.030000000000000000e+02 5.594830322265625000e+01 1.220186710357666016e+01 2.208249807357788086e+00 1.729105377197265625e+01 5.849791049957275391e+00 5.394921779632568359e+00
3.040000000000000000e+02 5.625004577636718750e+01 1.158203792572021484e+01 8.609885215759277344e+00 1.416258716583251953e+01 6.831741333007812500e+00 7.274708271026611328e+00
3.050000000000000000e+02 5.615760803222656250e+01 1.135771179199218750e+01 1.107214450836181641e+01 1.456914138793945312e+01 7.692386150360107422e+00 6.568944931030273438e+00
3.060000000000000000e+02 5.647896957397460938e+01 1.093639373779296875e+01 8.666179656982421875e+00 1.052542686462402344e+01 5.757482051849365234e+00 2.799753665924072266e+00
3.070000000000000000e+02 5.605644226074218750e+01 1.047456073760986328e+01 6.225676536560058594e+00 1.829668045043945312e+01 7.356707096099853516e+00 -3.240982294082641602e-01
3.080000000000000000e+02 5.621504592895507812e+01 1.057044410705566406e+01 6.640876770019531250e+00 1.500952148437500000e+01 6.495119571685791016e+00 9.898927807807922363e-02
3.090000000000000000e+02 5.595529937744140625e+01 1.001755332946777344e+01 1.413758397102355957e-01 1.840291976928710938e+01 5.563288688659667969e+00 4.108023643493652344e-01
3.100000000000000000e+02 5.550000381469726562e+01 9.756246566772460938e+00 -2.847237586975097656e+00 2.105006599426269531e+01 5.460848331451416016e+00 4.859569549560546875e+00
3.110000000000000000e+02 5.474841690063476562e+01 9.703414916992187500e+00 -1.303842782974243164e+00 1.545622444152832031e+01 4.245714664459228516e+00 9.097932815551757812e+00
3.120000000000000000e+02 5.464305114746093750e+01 9.919465065002441406e+00 2.043098397552967072e-02 1.435623931884765625e+01 4.313001155853271484e+00 9.928251266479492188e+00
3.130000000000000000e+02 5.444837570190429688e+01 9.989151954650878906e+00 1.120031714439392090e+00 1.116562747955322266e+01 3.685697793960571289e+00 9.263263702392578125e+00
3.140000000000000000e+02 5.282487869262695312e+01 1.111902046203613281e+01 -7.132239818572998047e+00 2.659805119037628174e-01 -2.059877872467041016e+00 1.835198104381561279e-01
3.150000000000000000e+02 5.261443710327148438e+01 1.090833663940429688e+01 -5.297922134399414062e+00 3.655107915401458740e-01 -1.479723453521728516e+00 -1.928904056549072266e-01
3.160000000000000000e+02 5.302212524414062500e+01 1.110845661163330078e+01 -7.263465404510498047e+00 -1.681573837995529175e-01 -2.229486703872680664e+00 2.597385346889495850e-01
3.170000000000000000e+02 5.342006683349609375e+01 1.108682441711425781e+01 -7.174816608428955078e+00 -1.230877190828323364e-01 -2.189371347427368164e+00 3.671815991401672363e-01
3.180000000000000000e+02 5.403751754760742188e+01 1.082514476776123047e+01 -1.682675838470458984e+00 3.256203830242156982e-01 -4.071166217327117920e-01 2.117462635040283203e+00
3.190000000000000000e+02 5.425115966796875000e+01 1.007673931121826172e+01 1.575654864311218262e+00 7.762149810791015625e+00 2.801341533660888672e+00 8.171120643615722656e+00
3.200000000000000000e+02 5.342270660400390625e+01 1.136104869842529297e+01 -1.886691570281982422e+00 1.135970503091812134e-01 -5.319283604621887207e-01 1.439026445150375366e-01
3.210000000000000000e+02 5.363062286376953125e+01 1.136635684967041016e+01 -1.862724423408508301e+00 -7.126212120056152344e-02 -5.801959633827209473e-01 1.109553053975105286e-01
3.220000000000000000e+02 5.393028640747070312e+01 1.159916687011718750e+01 1.130228281021118164e+00 3.274457156658172607e-01 4.373022019863128662e-01 -9.294225573539733887e-01
3.230000000000000000e+02 5.444239807128906250e+01 1.197562980651855469e+01 3.776195287704467773e+00 6.522194862365722656e+00 3.089517116546630859e+00 -5.474283695220947266e+00
3.240000000000000000e+02 5.450894927978515625e+01 1.220108127593994141e+01 2.743369102478027344e+00 8.437148094177246094e+00 3.354155063629150391e+00 -5.364003658294677734e+00
3.250000000000000000e+02 5.533805465698242188e+01 9.999987602233886719e+00 -1.894571185111999512e+00 2.335606002807617188e+01 6.438446998596191406e+00 5.689782142639160156e+00
3.260000000000000000e+02 5.627032470703125000e+01 1.141209220886230469e+01 1.054310607910156250e+01 1.389325237274169922e+01 7.330907344818115234e+00 6.525227546691894531e+00
3.270000000000000000e+02 5.635621643066406250e+01 1.150169181823730469e+01 8.897299766540527344e+00 1.229946994781494141e+01 6.359030723571777344e+00 6.893209457397460938e+00
3.280000000000000000e+02 5.277097320556640625e+01 1.216485500335693359e+01 5.924169421195983887e-01 3.705136775970458984e-01 2.888791859149932861e-01 -2.264287471771240234e-01
3.290000000000000000e+02 5.275348281860351562e+01 1.240045642852783203e+01 9.182252883911132812e-01 5.225712656974792480e-01 4.322389662265777588e-01 -4.928365945816040039e-01
3.300000000000000000e+02 5.255952072143554688e+01 1.031777763366699219e+01 -2.283022165298461914e+00 1.020809054374694824e+00 -3.786639869213104248e-01 -1.335542649030685425e-01
3.310000000000000000e+02 5.235752105712890625e+01 1.010348987579345703e+01 -1.847810745239257812e+00 1.366736292839050293e+00 -1.443223208189010620e-01 -3.496386706829071045e-01
3.320000000000000000e+02 5.299787139892578125e+01 1.063987159729003906e+01 -3.514448881149291992e+00 3.878072798252105713e-01 -9.379925131797790527e-01 3.615754842758178711e-01
3.330000000000000000e+02 5.353585052490234375e+01 1.062246131896972656e+01 -2.383250951766967773e+00 7.485973834991455078e-01 -4.903960824012756348e-01 1.591499209403991699e+00
3.340000000000000000e+02 5.359523773193359375e+01 1.084091854095458984e+01 -3.986593961715698242e+00 1.832233071327209473e-01 -1.141011118888854980e+00 9.110599160194396973e-01
3.350000000000000000e+02 5.372297668457031250e+01 1.053692531585693359e+01 -6.725862026214599609e-01 1.149978280067443848e+00 1.432176381349563599e-01 2.597702026367187500e+00
3.360000000000000000e+02 5.417689132690429688e+01 1.190280055999755859e+01 3.482025384902954102e+00 3.007602930068969727e+00 1.946888446807861328e+00 -3.408082723617553711e+00
3.370000000000000000e+02 5.373299407958984375e+01 1.208087444305419922e+01 2.068930864334106445e+00 1.381841540336608887e+00 1.035231709480285645e+00 -1.773395776748657227e+00
3.380000000000000000e+02 5.319887542724609375e+01 1.221650505065917969e+01 1.184526681900024414e+00 7.782215476036071777e-01 5.888244509696960449e-01 -8.667798638343811035e-01
3.390000000000000000e+02 5.374185943603515625e+01 1.002867984771728516e+01 3.870959877967834473e-01 4.507920265197753906e+00 1.468504905700683594e+00 4.692097187042236328e+00
3.400000000000000000e+02 5.279528427124023438e+01 1.064723491668701172e+01 -3.694445133209228516e+00 6.094156503677368164e-01 -9.255088567733764648e-01 -1.556758582592010498e-02
3.410000000000000000e+02 5.316122436523437500e+01 1.009060096740722656e+01 -6.261376142501831055e-01 2.062469720840454102e+00 4.308996498584747314e-01 1.790013194084167480e+00
3.420000000000000000e+02 5.321596527099609375e+01 1.047969818115234375e+01 -2.144285917282104492e+00 7.617812156677246094e-01 -4.147513806819915771e-01 1.158526778221130371e+00
3.430000000000000000e+02 5.278257369995117188e+01 1.192660045623779297e+01 1.399132609367370605e-01 7.312773913145065308e-02 6.391230225563049316e-02 2.259281277656555176e-02
3.440000000000000000e+02 5.320725631713867188e+01 1.161522483825683594e+01 -7.315428256988525391e-01 9.675185382366180420e-02 -1.904373019933700562e-01 5.176420509815216064e-02
3.450000000000000000e+02 5.301991653442382812e+01 1.190205764770507812e+01 3.904028534889221191e-01 2.624314129352569580e-01 1.958502829074859619e-01 -1.754032075405120850e-01
3.460000000000000000e+02 5.386377716064453125e+01 1.194846534729003906e+01 2.222848653793334961e+00 1.396412611007690430e+00 1.085778355598449707e+00 -1.966585278511047363e+00
3.470000000000000000e+02 5.320240402221679688e+01 1.030609130859375000e+01 -1.366133928298950195e+00 1.462999582290649414e+00 2.905969321727752686e-02 1.445094466209411621e+00
3.480000000000000000e+02 7.448883056640625000e+01 1.019565868377685547e+01 3.411109149456024170e-01 5.311143398284912109e+00 1.695676326751708984e+00 -3.336457014083862305e+00
3.490000000000000000e+02 7.306157684326171875e+01 1.149437141418457031e+01 1.934615373611450195e+00 2.867537736892700195e+00 1.440645933151245117e+00 -2.771874427795410156e+00
3.500000000000000000e+02 7.384358978271484375e+01 1.424807548522949219e+01 1.252908229827880859e+00 4.965632438659667969e+00 1.865562200546264648e+00 -7.685856223106384277e-01
3.510000000000000000e+02 7.373342895507812500e+01 1.739804649353027344e+01 1.062446236610412598e+00 5.774776458740234375e+00 2.051166772842407227e+00 3.411685228347778320e-01
3.520000000000000000e+02 7.455633544921875000e+01 2.221973991394042969e+01 8.586163818836212158e-02 6.118983268737792969e+00 1.861453413963317871e+00 4.928471446037292480e-01
3.530000000000000000e+02 7.299319458007812500e+01 2.382171249389648438e+01 -5.845266580581665039e-02 6.314420223236083984e+00 1.876790285110473633e+00 4.878051280975341797e-01
3.540000000000000000e+02 7.434304809570312500e+01 2.640492057800292969e+01 -1.550669074058532715e-01 6.289749622344970703e+00 1.840404868125915527e+00 4.232514500617980957e-01
3.550000000000000000e+02 7.290668487548828125e+01 3.021409416198730469e+01 -1.585593223571777344e-01 6.228116989135742188e+00 1.820867300033569336e+00 2.853730916976928711e-01
3.560000000000000000e+02 7.302924346923828125e+01 3.530313491821289062e+01 -1.226015985012054443e-01 6.184461593627929688e+00 1.818558096885681152e+00 1.323128640651702881e-01
3.570000000000000000e+02 7.635548400878906250e+01 3.874729156494140625e+01 -7.140031456947326660e-02 6.565573215484619141e+00 1.948251843452453613e+00 5.960145965218544006e-02
3.580000000000000000e+02 7.222154998779296875e+01 4.072560119628906250e+01 -9.477866441011428833e-02 6.104272365570068359e+00 1.802848100662231445e+00 2.333509735763072968e-02
3.590000000000000000e+02 6.655414581298828125e+01 3.733129501342773438e+01 -1.966141611337661743e-01 5.478689670562744141e+00 1.584622621536254883e+00 -1.314031891524791718e-02
3.600000000000000000e+02 7.118548583984375000e+01 3.406095504760742188e+01 -1.896795034408569336e-01 6.129132270812988281e+00 1.781835794448852539e+00 1.470248848199844360e-01
3.610000000000000000e+02 7.162762451171875000e+01 3.119496345520019531e+01 -2.083044797182083130e-01 6.210328578948974609e+00 1.800607204437255859e+00 2.229590117931365967e-01
3.620000000000000000e+02 7.370091247558593750e+01 2.770686531066894531e+01 -1.263937503099441528e-01 6.288079738616943359e+00 1.848505735397338867e+00 3.715092837810516357e-01
3.630000000000000000e+02 7.152197265625000000e+01 2.424870109558105469e+01 -1.330844610929489136e-01 6.429005622863769531e+00 1.888776302337646484e+00 5.186299681663513184e-01
3.640000000000000000e+02 7.228453826904296875e+01 1.955838394165039062e+01 4.479292631149291992e-01 6.388012409210205078e+00 2.050782442092895508e+00 6.197740435600280762e-01
3.650000000000000000e+02 7.181412506103515625e+01 1.543375110626220703e+01 1.815517306327819824e+00 5.468580245971679688e+00 2.185229301452636719e+00 5.179855823516845703e-01
3.660000000000000000e+02 7.290361785888671875e+01 1.289632987976074219e+01 1.922397017478942871e+00 3.920965671539306641e+00 1.753008723258972168e+00 -9.050284624099731445e-01
3.670000000000000000e+02 7.201598358154296875e+01 1.005681419372558594e+01 -1.526915073394775391e+00 -5.828111171722412109e-01 -6.329178810119628906e-01 -1.496287703514099121e+00
3.680000000000000000e+02 7.085350036621093750e+01 1.013124465942382812e+01 4.692704975605010986e-01 2.481137514114379883e+00 8.851224184036254883e-01 4.738884270191192627e-01
3.690000000000000000e+02 7.576536560058593750e+01 1.093291378021240234e+01 -6.149374246597290039e-01 8.149232864379882812e+00 2.260288476943969727e+00 -2.634550571441650391e+00
3.700000000000000000e+02 7.935588836669921875e+01 8.406626701354980469e+00 2.097739577293395996e-01 4.481163024902343750e+00 1.407281160354614258e+00 2.655501663684844971e-01
3.710000000000000000e+02 7.838796234130859375e+01 1.102304077148437500e+01 -3.153811693191528320e-01 6.346206188201904297e+00 1.809247493743896484e+00 2.056645154953002930e-01
3.720000000000000000e+02 7.944997406005859375e+01 1.111729431152343750e+01 2.019729092717170715e-02 5.609729766845703125e+00 1.688978075981140137e+00 4.329390823841094971e-02
3.730000000000000000e+02 7.813884735107421875e+01 1.228915691375732422e+01 -1.653169095516204834e-01 6.196614265441894531e+00 1.809389233589172363e+00 -2.511456310749053955e-01
3.740000000000000000e+02 7.932035064697265625e+01 1.530318641662597656e+01 3.831011429429054260e-02 5.367688655853271484e+00 1.621799588203430176e+00 -7.488720118999481201e-02
3.750000000000000000e+02 7.790860748291015625e+01 1.665363693237304688e+01 2.010325044393539429e-01 5.482477188110351562e+00 1.705052852630615234e+00 -1.113499775528907776e-01
3.760000000000000000e+02 7.618743896484375000e+01 2.079144668579101562e+01 1.858348399400711060e-01 5.830035686492919922e+00 1.804761171340942383e+00 3.681345582008361816e-01
3.770000000000000000e+02 7.778726196289062500e+01 2.368291091918945312e+01 -6.483943760395050049e-02 5.909148216247558594e+00 1.753292560577392578e+00 3.004061281681060791e-01
3.780000000000000000e+02 7.794053649902343750e+01 2.640654945373535156e+01 -7.502919435501098633e-02 6.155075073242187500e+00 1.824013710021972656e+00 2.569005489349365234e-01
3.790000000000000000e+02 7.925516510009765625e+01 3.057897377014160156e+01 -4.324749112129211426e-02 6.582026481628417969e+00 1.961633682250976562e+00 6.281297653913497925e-02
3.800000000000000000e+02 7.742839813232421875e+01 3.310320663452148438e+01 -9.801373817026615143e-03 6.562617301940917969e+00 1.965844750404357910e+00 1.359191387891769409e-01
3.810000000000000000e+02 7.704441833496093750e+01 3.596588897705078125e+01 -1.758297905325889587e-02 6.635798454284667969e+00 1.985464572906494141e+00 8.181709796190261841e-02
3.820000000000000000e+02 7.868345642089843750e+01 4.034675979614257812e+01 -1.015137787908315659e-02 6.873519897460937500e+00 2.059010505676269531e+00 -4.773592576384544373e-02
3.830000000000000000e+02 7.510447692871093750e+01 8.913272857666015625e+00 2.339689016342163086e+00 8.557971000671386719e+00 3.269297838211059570e+00 -4.688767433166503906e+00
3.840000000000000000e+02 7.582056427001953125e+01 7.875380039215087891e+00 3.737280368804931641e+00 1.630825233459472656e+01 6.013659954071044922e+00 -4.704107761383056641e+00
3.850000000000000000e+02 7.723368835449218750e+01 5.307864665985107422e+00 1.036475062370300293e+00 1.152383804321289062e+01 3.768094062805175781e+00 -3.240370273590087891e+00
3.860000000000000000e+02 7.612359619140625000e+01 5.893659114837646484e+00 8.197535276412963867e-01 1.703586196899414062e+01 5.356684684753417969e+00 -1.576237082481384277e+00
3.870000000000000000e+02 7.598703765869140625e+01 4.705957889556884766e+00 1.378445029258728027e-01 1.433194732666015625e+01 4.340937614440917969e+00 -8.274297416210174561e-02
3.880000000000000000e+02 7.598165130615234375e+01 2.203913927078247070e+00 -2.422267436981201172e+00 7.168874263763427734e+00 1.423982024192810059e+00 -6.641315221786499023e-01
3.890000000000000000e+02 7.491205596923828125e+01 1.706025838851928711e+00 -3.803530216217041016e+00 1.942535638809204102e+00 -5.582983493804931641e-01 -1.267621994018554688e+00
3.900000000000000000e+02 7.551667785644531250e+01 3.865365684032440186e-01 -3.712852716445922852e+00 5.910056114196777344e+00 6.591610908508300781e-01 7.064281702041625977e-01
3.910000000000000000e+02 7.378339385986328125e+01 9.387340545654296875e-01 -6.422718524932861328e+00 -1.304426789283752441e+00 -2.318143606185913086e+00 -2.320499658584594727e+00
3.920000000000000000e+02 7.244495391845703125e+01 6.420677900314331055e-01 -4.009860038757324219e+00 7.887096405029296875e-01 -9.663451313972473145e-01 -2.992533922195434570e+00
3.930000000000000000e+02 7.050563049316406250e+01 1.703187346458435059e+00 2.239435195922851562e+00 8.060087203979492188e+00 3.089856863021850586e+00 -4.725960731506347656e+00
3.940000000000000000e+02 7.097819519042968750e+01 5.257485508918762207e-01 -1.615214705467224121e+00 6.535033226013183594e+00 1.475945472717285156e+00 -3.972075462341308594e+00
3.950000000000000000e+02 6.978916168212890625e+01 2.736944437026977539e+00 4.455936908721923828e+00 1.464069938659667969e+01 5.728991031646728516e+00 -6.499694347381591797e+00
3.960000000000000000e+02 6.854090118408203125e+01 4.824567317962646484e+00 1.775297760963439941e+00 1.465017890930175781e+01 4.927643299102783203e+00 -2.165829420089721680e+00
3.970000000000000000e+02 6.931055450439453125e+01 5.815311431884765625e+00 5.279306173324584961e-01 1.431970882415771484e+01 4.454291820526123047e+00 -4.316680878400802612e-02
3.980000000000000000e+02 7.049800109863281250e+01 8.210322380065917969e+00 -2.505923271179199219e+00 1.832163572311401367e+00 -2.021279335021972656e-01 -1.091025233268737793e+00
3.990000000000000000e+02 6.650391387939453125e+01 1.264856147766113281e+01 4.812025547027587891e+00 1.775033378601074219e+01 6.768707752227783203e+00 -1.292381286621093750e+00
4.000000000000000000e+02 6.760986328125000000e+01 1.207238006591796875e+01 3.791763067245483398e+00 1.122132015228271484e+01 4.503924846649169922e+00 1.065679073333740234e+00
4.010000000000000000e+02 6.768995666503906250e+01 1.565158939361572266e+01 1.465021491050720215e+00 9.027247428894042969e+00 3.147680521011352539e+00 4.399961531162261963e-01
4.020000000000000000e+02 6.371460342407226562e+01 1.973183250427246094e+01 4.877031445503234863e-01 6.112098217010498047e+00 1.979940533638000488e+00 -7.532757520675659180e-01
4.030000000000000000e+02 6.094139099121093750e+01 2.292463493347167969e+01 8.000411838293075562e-02 5.160426616668701172e+00 1.572129249572753906e+00 -4.469253122806549072e-01
4.040000000000000000e+02 5.743844223022460938e+01 2.636251258850097656e+01 -1.150388792157173157e-01 4.137023925781250000e+00 1.206595420837402344e+00 -5.774650573730468750e-01
4.050000000000000000e+02 5.350426483154296875e+01 2.986546707153320312e+01 1.013413965702056885e-01 3.014267921447753906e+00 9.346827864646911621e-01 -5.643810629844665527e-01
4.060000000000000000e+02 5.207120895385742188e+01 3.331441116333007812e+01 1.985170096158981323e-01 2.688678264617919922e+00 8.661585450172424316e-01 -4.147521555423736572e-01
4.070000000000000000e+02 4.844971466064453125e+01 3.647319030761718750e+01 3.719684481620788574e-01 1.991391897201538086e+00 7.090080976486206055e-01 -2.047173231840133667e-01
4.080000000000000000e+02 4.257545089721679688e+01 4.033243942260742188e+01 5.182525515556335449e-01 1.149205446243286133e+00 5.002374053001403809e-01 -4.087323695421218872e-02
4.090000000000000000e+02 3.749147033691406250e+01 4.031077957153320312e+01 5.493832826614379883e-01 5.363636612892150879e-01 3.257240951061248779e-01 1.493344269692897797e-02
4.100000000000000000e+02 3.804895782470703125e+01 3.625092697143554688e+01 5.138727426528930664e-01 5.625272989273071289e-01 3.229200243949890137e-01 1.288789510726928711e-02
4.110000000000000000e+02 3.658015441894531250e+01 3.176492881774902344e+01 4.019143581390380859e-01 3.793008029460906982e-01 2.343645542860031128e-01 8.049024641513824463e-02
4.120000000000000000e+02 3.460568237304687500e+01 3.020428085327148438e+01 3.213142454624176025e-01 1.994323730468750000e-01 1.562239825725555420e-01 1.569445878267288208e-01
4.130000000000000000e+02 3.714876556396484375e+01 2.618606376647949219e+01 1.198903918266296387e-01 2.426746189594268799e-01 1.087695062160491943e-01 1.365968734025955200e-01
4.140000000000000000e+02 3.733242034912109375e+01 2.334619712829589844e+01 -7.662554830312728882e-02 1.823469847440719604e-01 3.171643242239952087e-02 1.712689995765686035e-01
4.150000000000000000e+02 3.850042343139648438e+01 2.046068191528320312e+01 -4.034278392791748047e-01 1.548618674278259277e-01 -7.456979900598526001e-02 1.107870936393737793e-01
4.160000000000000000e+02 3.735668182373046875e+01 1.647222328186035156e+01 -9.790332913398742676e-01 6.284642964601516724e-02 -2.748560607433319092e-01 3.408407792448997498e-02
4.170000000000000000e+02 3.563000488281250000e+01 1.381209087371826172e+01 -1.565693259239196777e+00 -4.450702667236328125e-01 -6.032290458679199219e-01 6.187099814414978027e-01
4.180000000000000000e+02 3.660228347778320312e+01 1.398599338531494141e+01 -1.349748373031616211e+00 -1.080686226487159729e-01 -4.373451173305511475e-01 2.839264571666717529e-01
4.190000000000000000e+02 3.845853805541992188e+01 1.308124637603759766e+01 -7.098140120506286621e-01 9.744498878717422485e-02 -1.837107092142105103e-01 2.438336163759231567e-01
4.200000000000000000e+02 3.866312789916992188e+01 1.382383441925048828e+01 -8.559166789054870605e-01 1.376277506351470947e-01 -2.154866755008697510e-01 1.810492426156997681e-01
4.210000000000000000e+02 4.418691635131835938e+01 1.307923698425292969e+01 -7.265158295631408691e-01 -3.234920278191566467e-02 -2.276595085859298706e-01 -2.903428077697753906e-01
4.220000000000000000e+02 4.421479034423828125e+01 1.612225914001464844e+01 -1.223581552505493164e+00 2.929633855819702148e-01 -2.791854441165924072e-01 4.599399492144584656e-02
4.230000000000000000e+02 4.345893096923828125e+01 1.942467117309570312e+01 -4.907811880111694336e-01 3.390573561191558838e-01 -4.551714658737182617e-02 1.389261484146118164e-01
4.240000000000000000e+02 4.166822433471679688e+01 2.540491867065429688e+01 1.401861310005187988e-01 5.022157430648803711e-01 1.927205622196197510e-01 -3.045890480279922485e-02
4.250000000000000000e+02 4.051955413818359375e+01 2.735540962219238281e+01 2.629581093788146973e-01 5.133098959922790527e-01 2.328804135322570801e-01 6.324979476630687714e-03
4.260000000000000000e+02 4.405463790893554688e+01 3.229728698730468750e+01 4.361170530319213867e-01 1.098465800285339355e+00 4.603748619556427002e-01 -1.586535125970840454e-01
4.270000000000000000e+02 4.546261596679687500e+01 3.480937576293945312e+01 4.359920620918273926e-01 1.461892485618591309e+00 5.693653821945190430e-01 -1.599099040031433105e-01
4.280000000000000000e+02 4.220802307128906250e+01 3.634351730346679688e+01 5.043174028396606445e-01 1.037756681442260742e+00 4.626222252845764160e-01 -7.561013102531433105e-02
4.290000000000000000e+02 4.165402984619140625e+01 3.301672363281250000e+01 4.508751630783081055e-01 8.431430459022521973e-01 3.882054686546325684e-01 -9.480452537536621094e-02
4.300000000000000000e+02 3.972353744506835938e+01 2.990151596069335938e+01 3.612215220928192139e-01 5.496982932090759277e-01 2.732759416103363037e-01 -1.678896695375442505e-02
4.310000000000000000e+02 3.952684783935546875e+01 2.132158088684082031e+01 -3.050466775894165039e-01 2.437210083007812500e-01 -1.839770376682281494e-02 1.156203597784042358e-01
4.320000000000000000e+02 3.906908798217773438e+01 1.946518707275390625e+01 -5.119388103485107422e-01 1.995018571615219116e-01 -9.373109042644500732e-02 1.287785917520523071e-01
4.330000000000000000e+02 4.031801223754882812e+01 1.584337139129638672e+01 -9.482888579368591309e-01 3.089196383953094482e-01 -1.918107569217681885e-01 8.272155374288558960e-02
4.340000000000000000e+02 3.948576354980468750e+01 1.625085639953613281e+01 -9.039305448532104492e-01 2.714956998825073242e-01 -1.897304505109786987e-01 6.193807721138000488e-02
4.350000000000000000e+02 4.346377944946289062e+01 1.733910751342773438e+01 -8.878453969955444336e-01 3.127121031284332275e-01 -1.725399792194366455e-01 1.503615230321884155e-01
4.360000000000000000e+02 6.612937927246093750e+01 -2.575513124465942383e+00 -7.549301624298095703e+00 -1.691608667373657227e+00 -2.772273063659667969e+00 3.303472042083740234e+00
4.370000000000000000e+02 6.810934448242187500e+01 -4.410421848297119141e+00 -1.791004896163940430e+00 7.292013764381408691e-01 -3.185410499572753906e-01 2.519969940185546875e-01
4.380000000000000000e+02 6.713063812255859375e+01 -3.449658155441284180e+00 -4.022082805633544922e+00 -4.509006440639495850e-01 -1.341895103454589844e+00 2.024899005889892578e+00
4.390000000000000000e+02 7.080041503906250000e+01 -5.776403903961181641e+00 -4.106402024626731873e-02 4.913067340850830078e+00 1.461601018905639648e+00 -1.712468266487121582e+00
4.400000000000000000e+02 7.161657714843750000e+01 -8.672948837280273438e+00 1.885691642761230469e+00 1.041178989410400391e+01 3.689244508743286133e+00 -3.448010206222534180e+00
4.410000000000000000e+02 7.234977722167968750e+01 -1.134700584411621094e+01 3.715465068817138672e-01 1.368660926818847656e+01 4.217446804046630859e+00 -6.564673781394958496e-01
4.420000000000000000e+02 7.249888610839843750e+01 -1.267051410675048828e+01 6.113505363464355469e-01 1.395142936706542969e+01 4.368834018707275391e+00 3.732118308544158936e-01
4.430000000000000000e+02 7.305830383300781250e+01 -1.387332725524902344e+01 1.515611886978149414e+00 1.253294944763183594e+01 4.214568138122558594e+00 9.936885833740234375e-01
4.440000000000000000e+02 7.213451385498046875e+01 -1.478051948547363281e+01 1.991829276084899902e+00 1.295946502685546875e+01 4.485388278961181641e+00 2.262161254882812500e+00
4.450000000000000000e+02 7.147802734375000000e+01 -1.579336071014404297e+01 -5.196602940559387207e-01 6.616310596466064453e+00 1.828995108604431152e+00 2.661451101303100586e+00
4.460000000000000000e+02 7.228927612304687500e+01 -1.766014671325683594e+01 -1.294637680053710938e+00 8.262273788452148438e+00 2.090291023254394531e+00 1.984988451004028320e+00
4.470000000000000000e+02 6.938218688964843750e+01 -1.615655326843261719e+01 -3.114524126052856445e+00 -5.952277183532714844e-01 -1.112925529479980469e+00 1.445165991783142090e+00
4.480000000000000000e+02 7.081153106689453125e+01 -1.694199752807617188e+01 -1.751223921775817871e+00 3.292185306549072266e+00 4.622884094715118408e-01 2.398274421691894531e+00
4.490000000000000000e+02 6.635643768310546875e+01 -2.221513938903808594e+01 2.590902745723724365e-01 4.027965068817138672e+00 1.286116480827331543e+00 -5.205129384994506836e-01
4.500000000000000000e+02 6.808647918701171875e+01 -2.775485229492187500e+01 2.267517745494842529e-01 5.063127994537353516e+00 1.586963891983032227e+00 5.511591956019401550e-02
4.510000000000000000e+02 6.759819793701171875e+01 -3.190378952026367188e+01 1.862104982137680054e-01 5.233603000640869141e+00 1.625944018363952637e+00 9.637662023305892944e-02
4.520000000000000000e+02 6.752158355712890625e+01 -3.439879608154296875e+01 2.244598269462585449e-01 5.310159683227539062e+00 1.660385847091674805e+00 1.219040825963020325e-01
4.530000000000000000e+02 6.755488586425781250e+01 -3.734694671630859375e+01 2.054599821567535400e-01 5.312416553497314453e+00 1.655362963676452637e+00 7.744350284337997437e-02
4.540000000000000000e+02 6.754608154296875000e+01 -4.072439575195312500e+01 2.148834764957427979e-01 5.315979003906250000e+00 1.659258723258972168e+00 3.767447546124458313e-02
4.550000000000000000e+02 7.184037780761718750e+01 -4.088193511962890625e+01 1.312793046236038208e-01 6.297075271606445312e+00 1.928506374359130859e+00 1.841854862868785858e-02
4.560000000000000000e+02 7.088245391845703125e+01 -3.766827392578125000e+01 1.524846553802490234e-01 6.053438663482666016e+00 1.861776947975158691e+00 1.048504635691642761e-01
4.570000000000000000e+02 7.024913024902343750e+01 -3.469173049926757812e+01 1.742739677429199219e-01 5.856887340545654297e+00 1.809348344802856445e+00 1.511397063732147217e-01
4.580000000000000000e+02 7.278044891357421875e+01 -2.988556861877441406e+01 1.690037399530410767e-01 6.361282825469970703e+00 1.959085941314697266e+00 2.893701195716857910e-01
4.590000000000000000e+02 7.083295440673828125e+01 -2.157237815856933594e+01 3.221577033400535583e-02 5.098114967346191406e+00 1.539099335670471191e+00 7.578800916671752930e-01
4.600000000000000000e+02 7.270562744140625000e+01 -2.067926597595214844e+01 -5.900934934616088867e-01 6.442975997924804688e+00 1.755864739418029785e+00 1.127841591835021973e+00
4.610000000000000000e+02 6.941798400878906250e+01 -1.855399131774902344e+01 1.475403457880020142e-01 2.558228254318237305e+00 8.117306232452392578e-01 9.674332141876220703e-01
4.620000000000000000e+02 6.905575561523437500e+01 -5.405298709869384766e+00 -3.996146097779273987e-02 2.006109952926635742e+00 5.898445248603820801e-01 -8.703948855400085449e-01
4.630000000000000000e+02 6.756079864501953125e+01 -1.626283645629882812e+01 -1.932950019836425781e+00 1.407356858253479004e+00 -1.576779335737228394e-01 -5.057406425476074219e-01
4.640000000000000000e+02 6.644262695312500000e+01 -1.419498538970947266e+01 -7.123893499374389648e-01 1.375921964645385742e+00 1.990597844123840332e-01 -1.824288517236709595e-01
4.650000000000000000e+02 6.105250167846679688e+01 -9.653882980346679688e+00 4.548453986644744873e-01 7.418328285217285156e+00 2.361952066421508789e+00 7.099424004554748535e-01
4.660000000000000000e+02 5.802929306030273438e+01 -7.338180541992187500e+00 3.726135790348052979e-01 5.506554126739501953e+00 1.763750314712524414e+00 1.249328777194023132e-01
4.670000000000000000e+02 5.343030929565429688e+01 -7.870317935943603516e+00 2.928636074066162109e-01 2.141073465347290039e+00 7.301810979843139648e-01 -8.882231116294860840e-01
4.680000000000000000e+02 5.496104431152343750e+01 -1.031345462799072266e+01 5.084407925605773926e-01 4.743822097778320312e+00 1.575678825378417969e+00 -1.315353870391845703e+00
4.690000000000000000e+02 5.625328063964843750e+01 -1.723164558410644531e+01 1.091230392456054688e+00 1.096107959747314453e+01 3.615692853927612305e+00 1.027236104011535645e+00
4.700000000000000000e+02 5.712749862670898438e+01 -1.427027893066406250e+01 2.446343600749969482e-01 8.174860954284667969e+00 2.525848627090454102e+00 -8.503400534391403198e-02
4.710000000000000000e+02 6.123156356811523438e+01 -1.711900711059570312e+01 -1.163205355405807495e-01 5.677481174468994141e+00 1.668348193168640137e+00 -7.827454209327697754e-01
4.720000000000000000e+02 6.500942230224609375e+01 -2.332022857666015625e+01 7.745945453643798828e-02 4.350543498992919922e+00 1.328400850296020508e+00 -6.140038371086120605e-01
4.730000000000000000e+02 6.226380157470703125e+01 -2.153324127197265625e+01 -3.030076920986175537e-01 4.820288181304931641e+00 1.355184078216552734e+00 -9.177847504615783691e-01
4.740000000000000000e+02 6.149537658691406250e+01 -2.039120101928710938e+01 -6.037378907203674316e-01 5.129492759704589844e+00 1.357726573944091797e+00 -1.117606997489929199e+00
4.750000000000000000e+02 6.489958190917968750e+01 -1.668257904052734375e+01 -7.637822628021240234e-01 3.647700786590576172e+00 8.651756048202514648e-01 -1.240532636642456055e+00
4.760000000000000000e+02 6.220798873901367188e+01 -1.435609912872314453e+01 -3.863005042076110840e-01 5.878110885620117188e+00 1.647543191909790039e+00 -2.072451114654541016e-01
4.770000000000000000e+02 5.550481796264648438e+01 -1.171686744689941406e+01 6.380277872085571289e-01 6.557857036590576172e+00 2.158765316009521484e+00 -1.147922396659851074e+00
4.780000000000000000e+02 5.577479553222656250e+01 -1.318089580535888672e+01 8.219064027070999146e-02 8.290567398071289062e+00 2.511827468872070312e+00 -1.241039872169494629e+00
4.790000000000000000e+02 6.745822143554687500e+01 -1.431898117065429688e+01 -8.364800810813903809e-01 1.341850757598876953e-01 -2.106885015964508057e-01 3.693792819976806641e-01
4.800000000000000000e+02 6.679981994628906250e+01 -1.526697540283203125e+01 -1.533037662506103516e+00 1.796409249305725098e+00 7.901144772768020630e-02 -8.993274718523025513e-02
4.810000000000000000e+02 6.413562011718750000e+01 -1.270325469970703125e+01 -4.423785209655761719e-01 4.770462989807128906e+00 1.298425316810607910e+00 -7.481355071067810059e-01
4.820000000000000000e+02 6.342921829223632812e+01 -8.387220382690429688e+00 6.127921938896179199e-01 1.037461376190185547e+01 3.296221733093261719e+00 -1.378419756889343262e+00
4.830000000000000000e+02 6.293134307861328125e+01 -5.792112827301025391e+00 6.630715727806091309e-01 1.300263214111328125e+01 4.099710941314697266e+00 4.156936109066009521e-01
4.840000000000000000e+02 6.127248001098632812e+01 -3.815628528594970703e+00 2.193281888961791992e+00 6.855209350585937500e+00 2.714547395706176758e+00 4.037071764469146729e-01
4.850000000000000000e+02 6.403784942626953125e+01 -2.546966314315795898e+00 -2.214866876602172852e+00 7.491426467895507812e+00 1.582967877388000488e+00 4.128180027008056641e+00
4.860000000000000000e+02 6.514282226562500000e+01 -1.654713511466979980e+00 -5.297275066375732422e+00 8.662843108177185059e-01 -1.329297184944152832e+00 4.255235671997070312e+00
4.870000000000000000e+02 6.560512542724609375e+01 5.928396433591842651e-02 -1.873969316482543945e+00 2.819813251495361328e+00 2.837531566619873047e-01 3.120123386383056641e+00
4.880000000000000000e+02 6.899981689453125000e+01 -1.810058951377868652e+00 -3.640277624130249023e+00 5.475462436676025391e+00 5.505554676055908203e-01 -2.152929782867431641e+00
4.890000000000000000e+02 6.799332427978515625e+01 -1.017459034919738770e+00 -3.857827186584472656e+00 5.273246765136718750e+00 4.246258735656738281e-01 -7.226514220237731934e-01
4.900000000000000000e+02 4.668779373168945312e+01 -2.946860313415527344e+00 -7.199083268642425537e-02 5.292446613311767578e-01 1.371761411428451538e-01 2.349540710449218750e+00
4.910000000000000000e+02 4.947431182861328125e+01 -3.672184944152832031e+00 -4.930418491363525391e+00 -8.768478035926818848e-01 -1.742179870605468750e+00 2.205836057662963867e+00
4.920000000000000000e+02 4.804409027099609375e+01 -3.228123903274536133e+00 -3.999654054641723633e+00 -8.448486328125000000e-01 -1.453350782394409180e+00 1.661544919013977051e+00
4.930000000000000000e+02 5.269240951538085938e+01 9.045516848564147949e-01 4.561973214149475098e-01 8.184271812438964844e+00 2.592140674591064453e+00 1.664872407913208008e+00
4.940000000000000000e+02 5.339310836791992188e+01 2.125923156738281250e+00 3.501786231994628906e+00 1.463099575042724609e+01 5.439834594726562500e+00 -4.798681139945983887e-01
4.950000000000000000e+02 5.379728698730468750e+01 3.382639646530151367e+00 2.892574310302734375e+00 2.163879585266113281e+01 7.359410762786865234e+00 8.404246717691421509e-02
4.960000000000000000e+02 4.864707183837890625e+01 7.957644462585449219e+00 -2.399194240570068359e+00 -4.530293941497802734e+00 -2.078846454620361328e+00 -3.259064674377441406e+00
4.970000000000000000e+02 4.861956405639648438e+01 6.298939228057861328e+00 9.420408308506011963e-02 -2.367234706878662109e+00 -6.819092035293579102e-01 -1.071096301078796387e+00
4.980000000000000000e+02 4.786358261108398438e+01 6.910604476928710938e+00 -1.942011713981628418e+00 -4.046325206756591797e+00 -1.796501159667968750e+00 -2.922168254852294922e+00
4.990000000000000000e+02 4.530968475341796875e+01 3.733278274536132812e+00 -9.092921018600463867e-02 -1.308799028396606445e+00 -4.199184775352478027e-01 -4.786413609981536865e-01
5.000000000000000000e+02 4.784260177612304688e+01 -3.406250178813934326e-01 7.141590714454650879e-01 9.747962653636932373e-02 2.434916049242019653e-01 2.981906414031982422e+00
5.010000000000000000e+02 4.910722732543945312e+01 -7.620396018028259277e-01 2.935579121112823486e-01 7.170862555503845215e-01 3.031932413578033447e-01 2.713536739349365234e+00
5.020000000000000000e+02 5.089942550659179688e+01 1.016334593296051025e-01 2.794621288776397705e-01 3.942454338073730469e+00 1.266574859619140625e+00 2.364475488662719727e+00
5.030000000000000000e+02 5.170630264282226562e+01 -5.624835968017578125e+00 -1.376699924468994141e+00 2.469631880521774292e-01 -3.389210104942321777e-01 6.291726231575012207e-01
5.040000000000000000e+02 5.071374130249023438e+01 -4.534111022949218750e+00 -3.639359712600708008e+00 -6.827356815338134766e-01 -1.296628594398498535e+00 1.511264920234680176e+00
5.050000000000000000e+02 5.262119674682617188e+01 -6.712612628936767578e+00 -4.387992024421691895e-01 1.325371623039245605e+00 2.659717500209808350e-01 -3.272508680820465088e-01
5.060000000000000000e+02 5.382994461059570312e+01 -4.231108188629150391e+00 -2.089699506759643555e+00 3.781099796295166016e+00 5.074201226234436035e-01 -1.465418338775634766e+00
5.070000000000000000e+02 5.268512344360351562e+01 -2.364507913589477539e+00 -2.463736534118652344e+00 4.296604633331298828e+00 5.498605370521545410e-01 -9.091080427169799805e-01
5.080000000000000000e+02 5.676947021484375000e+01 -3.431308031082153320e+00 -7.178673148155212402e-01 3.687018871307373047e+00 8.907454609870910645e-01 -2.477114200592041016e+00
5.090000000000000000e+02 5.724534225463867188e+01 -6.521625041961669922e+00 3.828617036342620850e-01 4.656760692596435547e+00 1.511886715888977051e+00 -6.142530441284179688e-01
5.100000000000000000e+02 6.147515869140625000e+01 -6.532677650451660156e+00 1.302890062332153320e+00 8.246080398559570312e+00 2.864691019058227539e+00 1.103077054023742676e+00
5.110000000000000000e+02 6.095923614501953125e+01 -5.534626007080078125e+00 1.622752308845520020e+00 7.297964572906494141e+00 2.676214933395385742e+00 3.240490853786468506e-01
5.120000000000000000e+02 6.213942718505859375e+01 -2.851573228836059570e+00 -5.898583531379699707e-01 7.511162757873535156e+00 2.076391220092773438e+00 -4.258165955543518066e-01
5.130000000000000000e+02 6.025531768798828125e+01 -4.646646976470947266e+00 1.282727360725402832e+00 6.375060558319091797e+00 2.297336339950561523e+00 2.616657316684722900e-01
5.140000000000000000e+02 6.327761840820312500e+01 -3.639638423919677734e+00 3.324067592620849609e+00 1.391799926757812500e+01 5.172619819641113281e+00 2.697593688964843750e+00
5.150000000000000000e+02 5.764162063598632812e+01 -1.667035102844238281e+01 9.520979523658752441e-01 7.218650817871093750e+00 2.451224565505981445e+00 1.910891681909561157e-01
5.160000000000000000e+02 5.673064422607421875e+01 -2.272873878479003906e+01 -1.038871765136718750e+00 4.200311660766601562e+00 9.484320282936096191e-01 5.062409043312072754e-01
5.170000000000000000e+02 5.670637130737304688e+01 -1.846352958679199219e+01 9.833768606185913086e-01 8.475255966186523438e+00 2.837589740753173828e+00 4.263945221900939941e-01
5.180000000000000000e+02 5.642263793945312500e+01 -2.049018478393554688e+01 -1.713017106056213379e+00 5.997663021087646484e+00 1.285393714904785156e+00 1.072740554809570312e+00
5.190000000000000000e+02 5.308102798461914062e+01 -1.860907173156738281e+01 -2.872395277023315430e+00 -1.176251649856567383e+00 -1.214594125747680664e+00 1.231037259101867676e+00
5.200000000000000000e+02 5.201572799682617188e+01 -1.761793708801269531e+01 -1.674868583679199219e+00 -7.478734254837036133e-01 -7.268226146697998047e-01 1.315876126289367676e+00
5.210000000000000000e+02 5.003041839599609375e+01 -1.774647521972656250e+01 -1.199400424957275391e+00 1.949140876531600952e-01 -3.013458847999572754e-01 4.796730577945709229e-01
5.220000000000000000e+02 4.904524993896484375e+01 -1.667536735534667969e+01 -1.123054385185241699e+00 1.593008935451507568e-01 -2.891260385513305664e-01 2.501239776611328125e-01
5.230000000000000000e+02 5.003280639648437500e+01 -1.556183815002441406e+01 -7.944679260253906250e-01 -4.000342488288879395e-01 -3.583506643772125244e-01 7.171692848205566406e-01
5.240000000000000000e+02 4.906906890869140625e+01 -1.451016712188720703e+01 -6.870484352111816406e-01 -3.581961989402770996e-01 -3.135733902454376221e-01 3.910199701786041260e-01
5.250000000000000000e+02 4.219882202148437500e+01 -1.771763229370117188e+01 -7.420868873596191406e-01 2.034297466278076172e+00 3.876631557941436768e-01 -6.632360070943832397e-02
5.260000000000000000e+02 4.374754714965820312e+01 -2.277555847167968750e+01 -4.087956845760345459e-01 1.318246483802795410e+00 2.728352546691894531e-01 -1.585833132266998291e-01
5.270000000000000000e+02 4.329098510742187500e+01 -2.537668800354003906e+01 -1.682136356830596924e-01 1.101152062416076660e+00 2.798815369606018066e-01 -1.159061789512634277e-01
5.280000000000000000e+02 4.574922180175781250e+01 -2.909731483459472656e+01 1.481125950813293457e-01 1.239106535911560059e+00 4.161657392978668213e-01 -6.348757445812225342e-02
5.290000000000000000e+02 4.407404708862304688e+01 -3.254589843750000000e+01 3.257993757724761963e-01 1.222797155380249023e+00 4.645789563655853271e-01 -2.859299257397651672e-02
5.300000000000000000e+02 4.030700302124023438e+01 -3.681375885009765625e+01 4.185416698455810547e-01 9.388530254364013672e-01 4.072183966636657715e-01 -4.322627186775207520e-02
5.310000000000000000e+02 4.178269195556640625e+01 -4.060977554321289062e+01 4.719135463237762451e-01 1.061322689056396484e+00 4.599708616733551025e-01 -1.021458581089973450e-02
5.320000000000000000e+02 4.600636291503906250e+01 -4.024004364013671875e+01 4.790481030941009521e-01 1.545038104057312012e+00 6.072258353233337402e-01 5.202967076911590993e-05
5.330000000000000000e+02 4.576595687866210938e+01 -3.498826980590820312e+01 3.941346108913421631e-01 1.364442706108093262e+00 5.275732278823852539e-01 -2.413655072450637817e-02
5.340000000000000000e+02 4.724795150756835938e+01 -3.293722534179687500e+01 3.511390388011932373e-01 1.544898390769958496e+00 5.688112378120422363e-01 -6.973342970013618469e-03
5.350000000000000000e+02 4.818992233276367188e+01 -3.051575851440429688e+01 2.604389190673828125e-01 1.603113412857055664e+00 5.590656995773315430e-01 3.638785332441329956e-02
5.360000000000000000e+02 4.761481475830078125e+01 -2.625663566589355469e+01 1.328974589705467224e-02 1.294159770011901855e+00 3.922348618507385254e-01 -5.696682259440422058e-02
5.370000000000000000e+02 4.734111404418945312e+01 -2.189973640441894531e+01 -5.566165447235107422e-01 1.046382784843444824e+00 1.469298601150512695e-01 -2.710214555263519287e-01
5.380000000000000000e+02 4.810257720947265625e+01 -1.553888416290283203e+01 -6.835208535194396973e-01 3.622402846813201904e-01 -9.638418257236480713e-02 2.623646557331085205e-01
5.390000000000000000e+02 4.710706329345703125e+01 -1.661867523193359375e+01 -8.939730525016784668e-01 8.088573813438415527e-01 -2.553471736609935760e-02 -5.658636614680290222e-02
5.400000000000000000e+02 4.629857635498046875e+01 -1.300256538391113281e+01 -3.545609116554260254e-01 1.102035045623779297e+00 2.242422252893447876e-01 1.549399942159652710e-01
5.410000000000000000e+02 4.382231521606445312e+01 -1.121773052215576172e+01 -5.632687807083129883e-01 2.410702228546142578e+00 5.542300343513488770e-01 5.805059671401977539e-01
5.420000000000000000e+02 4.126202011108398438e+01 -7.502754211425781250e+00 1.903019845485687256e-01 1.218379259109497070e+00 4.226043820381164551e-01 6.371972560882568359e-01
5.430000000000000000e+02 4.300287628173828125e+01 -1.010697269439697266e+01 -5.134280920028686523e-01 2.671943187713623047e+00 6.475545167922973633e-01 7.185042500495910645e-01
5.440000000000000000e+02 4.089494323730468750e+01 -1.226548480987548828e+01 -4.382296651601791382e-02 2.439869403839111328e+00 7.188139557838439941e-01 1.736542880535125732e-01
5.450000000000000000e+02 4.178805160522460938e+01 -1.328889369964599609e+01 -8.704111911356449127e-03 2.661561250686645508e+00 7.958571314811706543e-01 4.465767145156860352e-01
5.460000000000000000e+02 4.216288375854492188e+01 -1.636280632019042969e+01 -2.487189620733261108e-01 2.087308883666992188e+00 5.515769720077514648e-01 -8.086894452571868896e-02
5.470000000000000000e+02 4.250791931152343750e+01 -1.523071670532226562e+01 8.203096687793731689e-02 2.063311815261840820e+00 6.436028480529785156e-01 2.835023105144500732e-01
5.480000000000000000e+02 4.300134277343750000e+01 -1.414226818084716797e+01 -2.919194288551807404e-02 2.240156173706054688e+00 6.632892489433288574e-01 5.138961076736450195e-01
5.490000000000000000e+02 4.522045135498046875e+01 -8.475839614868164062e+00 2.418345659971237183e-01 3.652225017547607422e+00 1.168217897415161133e+00 -6.168713569641113281e-01
5.500000000000000000e+02 4.577452850341796875e+01 -9.783435821533203125e+00 5.111831054091453552e-02 2.410211801528930664e+00 7.383990287780761719e-01 -5.581068992614746094e-01
5.510000000000000000e+02 4.812820053100585938e+01 -1.341955661773681641e+01 -3.558967113494873047e-01 -2.286078035831451416e-02 -1.136272475123405457e-01 3.322814404964447021e-01
5.520000000000000000e+02 4.260328674316406250e+01 -5.272581100463867188e+00 1.534072756767272949e+00 2.215339183807373047e+00 1.124823570251464844e+00 5.509920716285705566e-01
5.530000000000000000e+02 3.852599334716796875e+01 -7.542043209075927734e+00 -2.645505964756011963e-01 -1.032842040061950684e+00 -3.892177939414978027e-01 6.176933646202087402e-01
5.540000000000000000e+02 3.703646469116210938e+01 -5.181535243988037109e+00 2.254661470651626587e-01 -5.366009473800659180e-01 -9.334044903516769409e-02 -3.170244861394166946e-03
5.550000000000000000e+02 3.804150772094726562e+01 8.971886038780212402e-01 -4.847999513149261475e-01 -4.960253536701202393e-01 -2.942475974559783936e-01 4.466280639171600342e-01
5.560000000000000000e+02 3.726215744018554688e+01 -2.720797359943389893e-01 -5.724040269851684570e-01 -8.040497452020645142e-02 -1.958426982164382935e-01 -6.483165174722671509e-02
5.570000000000000000e+02 3.774311828613281250e+01 2.194726943969726562e+00 -4.926661401987075806e-02 -1.616939753293991089e-01 -6.328817456960678101e-02 6.205692142248153687e-02
5.580000000000000000e+02 3.592202377319335938e+01 2.713626384735107422e+00 -1.542866230010986328e-01 -3.846460953354835510e-02 -5.782536789774894714e-02 7.827705889940261841e-02
5.590000000000000000e+02 3.025904273986816406e+01 4.553626537322998047e+00 -8.483646810054779053e-02 -1.877449452877044678e-02 -3.108328767120838165e-02 -4.126828908920288086e-02
5.600000000000000000e+02 2.908691215515136719e+01 3.758241653442382812e+00 -9.347313642501831055e-02 -3.330883756279945374e-02 -3.803459182381629944e-02 -7.176884263753890991e-02
5.610000000000000000e+02 2.790557289123535156e+01 3.124496936798095703e+00 -1.336239427328109741e-01 -5.304689705371856689e-02 -5.600124970078468323e-02 -5.436240136623382568e-02
5.620000000000000000e+02 2.709080314636230469e+01 2.550765275955200195e+00 -1.151778772473335266e-01 2.075359923765063286e-03 -3.393075615167617798e-02 -5.979868397116661072e-02
5.630000000000000000e+02 4.445322418212890625e+01 -5.794709682464599609e+00 8.200435042381286621e-01 6.845796108245849609e+00 2.299751996994018555e+00 4.205273389816284180e-01
5.640000000000000000e+02 4.379213714599609375e+01 -4.535935401916503906e+00 1.946760654449462891e+00 5.134587287902832031e+00 2.124404430389404297e+00 1.161364912986755371e+00
5.650000000000000000e+02 4.211023330688476562e+01 6.087594628334045410e-01 -1.797222971916198730e+00 -2.565320134162902832e-01 -6.161264777183532715e-01 -8.678826093673706055e-01
5.660000000000000000e+02 4.337609481811523438e+01 1.439541697502136230e+00 -1.182695984840393066e+00 -2.493117600679397583e-01 -4.296023249626159668e-01 -4.445621669292449951e-01
5.670000000000000000e+02 4.646223449707031250e+01 3.039943695068359375e+00 8.543441891670227051e-01 -1.287756681442260742e+00 -1.300237327814102173e-01 3.742754459381103516e-01
5.680000000000000000e+02 4.478113937377929688e+01 -3.621056079864501953e+00 2.395117759704589844e+00 6.541378498077392578e+00 2.680948972702026367e+00 2.427972793579101562e+00
5.690000000000000000e+02 3.021362876892089844e+01 -1.089190959930419922e+00 -2.062139362096786499e-01 -6.208123266696929932e-02 -8.048854768276214600e-02 -1.438064128160476685e-01
5.700000000000000000e+02 2.618865013122558594e+01 1.484038352966308594e+00 -5.967227742075920105e-02 -2.987248636782169342e-02 -2.686342969536781311e-02 -6.688033044338226318e-02
5.710000000000000000e+02 2.544026565551757812e+01 1.588884949684143066e+00 -5.649893358349800110e-02 -3.826533257961273193e-02 -2.842928096652030945e-02 -5.779362469911575317e-02
5.720000000000000000e+02 2.467601966857910156e+01 6.869640350341796875e-01 -1.988874003291130066e-02 -5.347948521375656128e-02 -2.201046794652938843e-02 -5.836199223995208740e-02
5.730000000000000000e+02 2.415107727050781250e+01 1.802713871002197266e+00 -1.751453988254070282e-02 -4.351723194122314453e-02 -1.830953173339366913e-02 -2.552880160510540009e-02
5.740000000000000000e+02 2.353733634948730469e+01 1.871124982833862305e+00 -1.084304414689540863e-02 7.420125417411327362e-03 -1.026875572279095650e-03 -6.333642639219760895e-03
5.750000000000000000e+02 2.161132049560546875e+01 8.889400362968444824e-01 -6.146211177110671997e-03 8.083512657321989536e-04 -1.601357944309711456e-03 -3.450997872278094292e-03
5.760000000000000000e+02 1.982452774047851562e+01 1.556837081909179688e+00 1.343860570341348648e-02 -3.025918558705598116e-04 3.940804395824670792e-03 -1.260148244909942150e-03
5.770000000000000000e+02 2.307510948181152344e+01 -4.069283306598663330e-01 1.336905919015407562e-02 -4.959857836365699768e-02 -1.086885575205087662e-02 -6.397292017936706543e-03
5.780000000000000000e+02 2.373249816894531250e+01 -3.412941455841064453e+00 -9.706751443445682526e-03 -9.972567111253738403e-02 -3.282972797751426697e-02 4.088252037763595581e-02
5.790000000000000000e+02 2.539568328857421875e+01 -3.199327468872070312e+00 8.559910207986831665e-02 -2.264166027307510376e-01 -4.224525019526481628e-02 -1.071114242076873779e-01
5.800000000000000000e+02 2.883006095886230469e+01 -2.276722908020019531e+00 -1.564670354127883911e-02 1.878971420228481293e-02 9.429031051695346832e-04 -2.459384053945541382e-01
5.810000000000000000e+02 2.907685470581054688e+01 -6.842715740203857422e-01 -1.065275222063064575e-01 5.105661973357200623e-02 -1.664127036929130554e-02 -1.243940517306327820e-01
5.820000000000000000e+02 3.178088188171386719e+01 -3.030424416065216064e-01 -2.276116013526916504e-01 -5.987900495529174805e-02 -8.624718338251113892e-02 -1.235039979219436646e-01
5.830000000000000000e+02 3.062983703613281250e+01 1.395794451236724854e-01 -1.636623293161392212e-01 -5.049115791916847229e-02 -6.424604356288909912e-02 -5.874950066208839417e-02
5.840000000000000000e+02 3.302352523803710938e+01 3.362786293029785156e+00 -1.026060953736305237e-01 6.166092306375503540e-02 -1.228355057537555695e-02 -4.409739747643470764e-03
5.850000000000000000e+02 3.419435501098632812e+01 -8.407246470451354980e-01 4.701915383338928223e-02 3.052830994129180908e-01 1.056906729936599731e-01 -1.571738123893737793e-01
5.860000000000000000e+02 3.292518997192382812e+01 -7.703260779380798340e-01 6.348738074302673340e-02 2.749785482883453369e-01 1.015397831797599792e-01 -1.208454072475433350e-01
5.870000000000000000e+02 3.458459854125976562e+01 -2.047580957412719727e+00 1.109775006771087646e-01 3.708515167236328125e-01 1.445486992597579956e-01 -3.216870725154876709e-01
5.880000000000000000e+02 3.534925842285156250e+01 -3.061197996139526367e+00 3.535728156566619873e-01 3.625382781028747559e-01 2.148333191871643066e-01 -3.677160143852233887e-01
5.890000000000000000e+02 3.641712951660156250e+01 -2.574778795242309570e+00 4.711120203137397766e-02 -5.231066048145294189e-02 -1.559837255626916885e-03 -2.993309199810028076e-01
5.900000000000000000e+02 4.115032958984375000e+01 -1.449483871459960938e+01 2.299700975418090820e-01 3.472271442413330078e+00 1.110672473907470703e+00 2.941581904888153076e-01
5.910000000000000000e+02 4.093610000610351562e+01 -1.576757812500000000e+01 6.242875009775161743e-02 3.510234355926513672e+00 1.071798920631408691e+00 5.571808815002441406e-01
5.920000000000000000e+02 3.808898162841796875e+01 -1.591527462005615234e+01 -1.035758256912231445e+00 -3.981702923774719238e-01 -4.301785528659820557e-01 3.865232765674591064e-01
5.930000000000000000e+02 4.074850845336914062e+01 -1.725242233276367188e+01 -6.106359362602233887e-01 2.205404758453369141e+00 4.784306287765502930e-01 6.912915110588073730e-01
5.940000000000000000e+02 3.576507186889648438e+01 -1.397402381896972656e+01 -4.885583817958831787e-01 -1.287375092506408691e-01 -1.851887702941894531e-01 2.020247429609298706e-01
5.950000000000000000e+02 3.316880798339843750e+01 -1.049063587188720703e+01 -2.379743196070194244e-02 2.307982146739959717e-01 6.210023537278175354e-02 -4.946463555097579956e-02
5.960000000000000000e+02 2.886994171142578125e+01 -1.011742782592773438e+01 -3.183915019035339355e-01 9.027217328548431396e-02 -6.843580305576324463e-02 1.154889687895774841e-01
5.970000000000000000e+02 2.351135253906250000e+01 -1.037790012359619141e+01 -6.318403482437133789e-01 -2.102335095405578613e-01 -2.526221573352813721e-01 -1.743593811988830566e-01
5.980000000000000000e+02 2.568128585815429688e+01 -7.712497711181640625e+00 -2.450367212295532227e-01 -9.524462819099426270e-01 -3.592449128627777100e-01 -1.606531292200088501e-01
5.990000000000000000e+02 2.474664878845214844e+01 -9.563941955566406250e+00 -8.122485876083374023e-01 -5.939428210258483887e-01 -4.218574166297912598e-01 -3.018359839916229248e-01
6.000000000000000000e+02 2.665624046325683594e+01 -1.656671905517578125e+01 -2.152833938598632812e-01 4.393373802304267883e-02 -5.140489712357521057e-02 -3.259991854429244995e-02
6.010000000000000000e+02 2.146449661254882812e+01 -1.574422168731689453e+01 -1.587113589048385620e-01 -6.512647122144699097e-02 -6.715135276317596436e-02 -1.744261384010314941e-01
6.020000000000000000e+02 2.308088302612304688e+01 -2.111254882812500000e+01 -4.559237882494926453e-02 9.316941723227500916e-03 -1.088263094425201416e-02 -1.673923134803771973e-01
6.030000000000000000e+02 2.457903099060058594e+01 -2.573095512390136719e+01 6.342646479606628418e-02 8.135489374399185181e-02 4.343440756201744080e-02 -1.726528704166412354e-01
6.040000000000000000e+02 2.414895439147949219e+01 -2.861620521545410156e+01 1.234809309244155884e-01 7.829441130161285400e-02 6.053260341286659241e-02 -1.577428281307220459e-01
6.050000000000000000e+02 2.356107902526855469e+01 -3.144513702392578125e+01 1.724455505609512329e-01 6.775297969579696655e-02 7.205955684185028076e-02 -1.446162760257720947e-01
6.060000000000000000e+02 2.284672355651855469e+01 -3.433249282836914062e+01 2.012018710374832153e-01 5.329753085970878601e-02 7.634981721639633179e-02 -1.057859957218170166e-01
6.070000000000000000e+02 2.200618743896484375e+01 -3.743961715698242188e+01 2.188244163990020752e-01 3.947976231575012207e-02 7.749125361442565918e-02 -7.822622358798980713e-02
6.080000000000000000e+02 2.202720642089843750e+01 -4.078737258911132812e+01 2.343265265226364136e-01 3.627016767859458923e-02 8.117900788784027100e-02 -1.943787932395935059e-02
6.090000000000000000e+02 2.652304840087890625e+01 -4.097525405883789062e+01 3.136644065380096436e-01 1.850926429033279419e-01 1.496271193027496338e-01 -2.802016586065292358e-02
6.100000000000000000e+02 2.573129081726074219e+01 -3.809681320190429688e+01 2.701372802257537842e-01 1.386366188526153564e-01 1.226321682333946228e-01 -5.654068663716316223e-02
6.110000000000000000e+02 2.614143943786621094e+01 -3.526161575317382812e+01 2.465452104806900024e-01 1.416724920272827148e-01 1.164653077721595764e-01 -1.009681001305580139e-01
6.120000000000000000e+02 2.658824348449707031e+01 -3.228284454345703125e+01 2.166703492403030396e-01 1.546899974346160889e-01 1.114081069827079773e-01 -1.247317045927047729e-01
6.130000000000000000e+02 2.743387222290039062e+01 -2.614648246765136719e+01 7.257208228111267090e-02 1.486238837242126465e-01 6.635878980159759521e-02 -1.478489935398101807e-01
6.140000000000000000e+02 2.472787857055664062e+01 -1.987749862670898438e+01 -9.609286487102508545e-02 2.209986373782157898e-02 -2.219790033996105194e-02 -1.344095319509506226e-01
6.150000000000000000e+02 2.952176284790039062e+01 -1.714103889465332031e+01 -2.738411724567413330e-01 1.648732870817184448e-01 -3.269036859273910522e-02 -4.760045092552900314e-03
6.160000000000000000e+02 3.099740982055664062e+01 -1.195375633239746094e+01 -3.179195225238800049e-01 2.153697460889816284e-01 -3.076493553817272186e-02 1.289843469858169556e-01
6.170000000000000000e+02 3.001192474365234375e+01 -8.148873329162597656e+00 -1.102531403303146362e-01 2.296648472547531128e-01 3.582351282238960266e-02 -4.626134037971496582e-02
6.180000000000000000e+02 3.176660919189453125e+01 -8.176863670349121094e+00 7.069826871156692505e-02 4.914059937000274658e-01 1.686312854290008545e-01 -2.006110697984695435e-01
6.190000000000000000e+02 3.110541725158691406e+01 -7.095636844635009766e+00 9.181040525436401367e-02 5.370457172393798828e-01 1.886568367481231689e-01 -2.264658659696578979e-01
6.200000000000000000e+02 2.913323020935058594e+01 -7.362288951873779297e+00 -7.274305075407028198e-02 1.265308111906051636e-01 1.613632775843143463e-02 -8.606016635894775391e-02
6.210000000000000000e+02 2.557527923583984375e+01 -6.369590282440185547e+00 5.005194805562496185e-03 -6.459877490997314453e-01 -1.922947764396667480e-01 5.664697661995887756e-02
6.220000000000000000e+02 2.721910858154296875e+01 -6.456623554229736328e+00 -8.813031762838363647e-02 -3.197340667247772217e-01 -1.223593130707740784e-01 -2.223902642726898193e-01
6.230000000000000000e+02 2.596097373962402344e+01 -9.195267677307128906e+00 -5.574542880058288574e-01 -6.337754130363464355e-01 -3.573689162731170654e-01 -1.188631057739257812e-01
6.240000000000000000e+02 3.031132507324218750e+01 -5.180297374725341797e+00 1.152648180723190308e-01 5.138897895812988281e-01 1.887463778257369995e-01 -2.193878293037414551e-01
6.250000000000000000e+02 6.259784698486328125e+01 1.415126132965087891e+01 2.468690395355224609e+00 1.192725300788879395e+00 1.098424673080444336e+00 -4.955413639545440674e-01
6.260000000000000000e+02 6.117173385620117188e+01 1.712340927124023438e+01 1.891495466232299805e+00 3.748292684555053711e+00 1.691936492919921875e+00 -2.533193230628967285e-01
6.270000000000000000e+02 5.645758056640625000e+01 1.905195426940917969e+01 -2.942657470703125000e-01 4.680376529693603516e+00 1.315833330154418945e+00 -9.160166233777999878e-02
6.280000000000000000e+02 5.269507980346679688e+01 2.449419021606445312e+01 -4.560925532132387161e-03 2.741994380950927734e+00 8.212300539016723633e-01 -8.355582952499389648e-01
6.290000000000000000e+02 5.029317474365234375e+01 2.705725288391113281e+01 1.786449402570724487e-01 2.132155418395996094e+00 6.932401061058044434e-01 -6.279954910278320312e-01
6.300000000000000000e+02 4.587837219238281250e+01 3.090396118164062500e+01 3.839805722236633301e-01 1.403856158256530762e+00 5.363510251045227051e-01 -2.402250617742538452e-01
6.310000000000000000e+02 4.346583175659179688e+01 3.022290992736816406e+01 4.003722369670867920e-01 9.484049081802368164e-01 4.046331346035003662e-01 -1.556155830621719360e-01
6.320000000000000000e+02 4.485733032226562500e+01 2.949662780761718750e+01 3.817145228385925293e-01 1.118619203567504883e+00 4.501000940799713135e-01 -2.213000804185867310e-01
6.330000000000000000e+02 5.128612518310546875e+01 2.001833534240722656e+01 -2.437480986118316650e-01 2.049028635025024414e+00 5.415841341018676758e-01 -1.134730458259582520e+00
6.340000000000000000e+02 5.178886032104492188e+01 1.722629165649414062e+01 -6.800439953804016113e-01 2.244547843933105469e+00 4.693511426448822021e-01 -1.318536996841430664e+00
6.350000000000000000e+02 5.670840454101562500e+01 1.070058822631835938e+01 6.474193096160888672e+00 8.307292938232421875e+00 4.434445858001708984e+00 2.029989480972290039e+00
6.360000000000000000e+02 5.673016357421875000e+01 1.090490341186523438e+01 6.645825386047363281e+00 6.901514530181884766e+00 4.064201831817626953e+00 3.086002111434936523e+00
6.370000000000000000e+02 5.634146499633789062e+01 9.904217720031738281e+00 3.998556733131408691e-01 1.347529888153076172e+01 4.162546634674072266e+00 -4.424163401126861572e-01
6.380000000000000000e+02 5.664410018920898438e+01 9.584425926208496094e+00 -6.762383580207824707e-01 9.757688522338867188e+00 2.724435091018676758e+00 4.825310111045837402e-01
6.390000000000000000e+02 5.437453842163085938e+01 9.522176742553710938e+00 -6.394098401069641113e-01 1.177873039245605469e+01 3.341796159744262695e+00 7.787207126617431641e+00
6.400000000000000000e+02 5.171749877929687500e+01 9.506832122802734375e+00 -1.302441954612731934e+00 1.843040227890014648e+00 1.621794700622558594e-01 -1.018853306770324707e+00
6.410000000000000000e+02 4.938203811645507812e+01 8.923935890197753906e+00 -2.369202136993408203e+00 -3.825957298278808594e+00 -1.858547806739807129e+00 -3.196993827819824219e+00
6.420000000000000000e+02 6.607548522949218750e+01 9.308506011962890625e+00 1.513970136642456055e+00 1.676585388183593750e+01 5.483947277069091797e+00 1.759372472763061523e+00
6.430000000000000000e+02 6.440629577636718750e+01 7.495677471160888672e+00 6.151977181434631348e-01 6.347407817840576172e+00 2.088781595230102539e+00 2.708402633666992188e+00
6.440000000000000000e+02 6.204756927490234375e+01 4.194735527038574219e+00 -2.674441337585449219e-01 1.690336585044860840e+00 4.268677234649658203e-01 3.664079606533050537e-01
6.450000000000000000e+02 6.076926040649414062e+01 -6.724027395248413086e-01 -2.763902425765991211e+00 4.768543720245361328e+00 6.013923287391662598e-01 6.654252409934997559e-01
6.460000000000000000e+02 5.664937210083007812e+01 1.762139648199081421e-01 -3.515345096588134766e+00 4.072570502758026123e-01 -9.324264526367187500e-01 -3.224576950073242188e+00
6.470000000000000000e+02 5.484539413452148438e+01 -1.697913855314254761e-01 -2.793895244598388672e+00 8.671998977661132812e+00 1.763431310653686523e+00 -5.055909156799316406e+00
6.480000000000000000e+02 5.765583801269531250e+01 1.013652682304382324e+00 -6.578812122344970703e+00 -1.157086849212646484e+00 -2.320769786834716797e+00 -2.727491378784179688e+00
6.490000000000000000e+02 5.472407150268554688e+01 6.234342575073242188e+00 4.173249244689941406e+00 1.975140762329101562e+01 7.177397251129150391e+00 7.322425365447998047e+00
6.500000000000000000e+02 5.453788757324218750e+01 9.381696701049804688e+00 -1.359312653541564941e+00 1.361560535430908203e+01 3.676887750625610352e+00 7.681622028350830078e+00
6.510000000000000000e+02 5.369534683227539062e+01 5.624992370605468750e+00 3.716710805892944336e+00 1.693930625915527344e+01 6.196805000305175781e+00 4.633162975311279297e+00
6.520000000000000000e+02 5.121138381958007812e+01 7.949631214141845703e+00 -3.770577609539031982e-01 2.855011463165283203e+00 7.433861494064331055e-01 -3.381946682929992676e-01
6.530000000000000000e+02 5.602423095703125000e+01 8.901602745056152344e+00 -3.955726623535156250e+00 1.303589916229248047e+01 2.724051713943481445e+00 2.366180419921875000e+00
6.540000000000000000e+02 5.654641342163085938e+01 1.194270992279052734e+01 5.945369243621826172e+00 1.136704921722412109e+01 5.193725585937500000e+00 6.969347000122070312e+00
6.550000000000000000e+02 5.617181015014648438e+01 1.238138103485107422e+01 2.247596740722656250e+00 1.480911731719970703e+01 5.117014408111572266e+00 5.680387973785400391e+00
6.560000000000000000e+02 6.134043121337890625e+01 1.425673389434814453e+01 1.897251963615417480e+00 1.027247071266174316e+00 8.773497343063354492e-01 6.387914419174194336e-01
6.570000000000000000e+02 6.084424209594726562e+01 1.305623054504394531e+01 1.082058429718017578e+00 4.416797161102294922e-01 4.571214616298675537e-01 8.402783870697021484e-01
6.580000000000000000e+02 5.083602905273437500e+01 1.323536777496337891e+01 7.006145268678665161e-02 -3.546094596385955811e-01 -8.536440134048461914e-02 1.713879704475402832e-01
6.590000000000000000e+02 5.272930145263671875e+01 1.297354888916015625e+01 1.048424482345581055e+00 1.296942949295043945e+00 7.036102414131164551e-01 -1.013645291328430176e+00
6.600000000000000000e+02 5.294298934936523438e+01 1.293431186676025391e+01 1.221854567527770996e+00 1.596140503883361816e+00 8.453985452651977539e-01 -1.236715435981750488e+00
6.610000000000000000e+02 5.291295623779296875e+01 1.628038978576660156e+01 -8.557800650596618652e-01 3.619246244430541992e+00 8.290398716926574707e-01 -1.444244503974914551e+00
6.620000000000000000e+02 5.121133804321289062e+01 1.782956504821777344e+01 -5.578802824020385742e-01 1.798094630241394043e+00 3.720643222332000732e-01 -1.325612545013427734e+00
6.630000000000000000e+02 5.095850372314453125e+01 1.389986896514892578e+01 -3.077972829341888428e-01 1.825046688318252563e-01 -3.758778423070907593e-02 3.458414971828460693e-02
6.640000000000000000e+02 4.825209426879882812e+01 1.595594596862792969e+01 -2.257471799850463867e+00 -6.715702414512634277e-01 -8.787125945091247559e-01 -2.513001263141632080e-01
6.650000000000000000e+02 4.642928695678710938e+01 1.435731792449951172e+01 -1.574430584907531738e+00 -4.498848617076873779e-01 -6.072946190834045410e-01 -8.439726829528808594e-01
6.660000000000000000e+02 4.480261611938476562e+01 1.486229991912841797e+01 -1.314959645271301270e+00 1.667083501815795898e-01 -3.444753885269165039e-01 -2.545401453971862793e-01
6.670000000000000000e+02 4.402049636840820312e+01 1.193463611602783203e+01 -3.947581648826599121e-01 -1.364641934633255005e-01 -1.593666970729827881e-01 -2.466800659894943237e-01
6.680000000000000000e+02 4.085220336914062500e+01 -3.432390466332435608e-02 -2.918983936309814453e+00 -6.942808628082275391e-01 -1.083979487419128418e+00 -1.197489738464355469e+00
6.690000000000000000e+02 3.913549041748046875e+01 -3.948756933212280273e+00 8.970226049423217773e-01 -6.081357002258300781e-01 8.666606992483139038e-02 -3.484095335006713867e-01
6.700000000000000000e+02 3.984189224243164062e+01 -1.352014183998107910e+00 -6.726989150047302246e-01 -7.688630223274230957e-01 -4.324685633182525635e-01 -6.327708363533020020e-01
6.710000000000000000e+02 3.838779830932617188e+01 -2.326266616582870483e-01 -1.360875964164733887e+00 -2.708120644092559814e-01 -4.895063936710357666e-01 9.163188934326171875e-02
6.720000000000000000e+02 3.859529876708984375e+01 4.928752422332763672e+00 -2.915203012526035309e-02 5.659346468746662140e-03 -7.047804538160562515e-03 1.163056213408708572e-02
6.730000000000000000e+02 3.800667953491210938e+01 3.608501434326171875e+00 2.490960992872714996e-02 -3.678030893206596375e-02 -3.561209421604871750e-03 1.760480180382728577e-02
6.740000000000000000e+02 3.588359069824218750e+01 8.410715103149414062e+00 1.464740652590990067e-02 1.350200176239013672e-02 8.444822393357753754e-03 4.339980427175760269e-03
6.750000000000000000e+02 3.752146911621093750e+01 9.367241859436035156e+00 8.150862413458526134e-04 -9.123736061155796051e-03 -2.492594998329877853e-03 -5.593213252723217010e-03
6.760000000000000000e+02 3.666416168212890625e+01 9.517658233642578125e+00 7.305635139346122742e-03 2.133225789293646812e-03 2.831658348441123962e-03 1.213628891855478287e-02
6.770000000000000000e+02 3.363373565673828125e+01 7.139475822448730469e+00 -9.959176182746887207e-03 2.049275441095232964e-03 -2.372970106080174446e-03 6.223218049854040146e-03
6.780000000000000000e+02 3.475952529907226562e+01 7.914268970489501953e+00 3.571433946490287781e-03 -3.242540406063199043e-03 9.866805339697748423e-05 1.916530076414346695e-03
6.790000000000000000e+02 3.722472763061523438e+01 5.310710430145263672e+00 -5.998064763844013214e-03 -9.319189935922622681e-03 -4.595176316797733307e-03 2.698065713047981262e-03
6.800000000000000000e+02 3.692016983032226562e+01 8.740684509277343750e+00 -5.584399332292377949e-04 -1.426762249320745468e-02 -4.447818733751773834e-03 5.441099638119339943e-04
6.810000000000000000e+02 3.917604446411132812e+01 6.120226860046386719e+00 2.654092386364936829e-02 8.941759355366230011e-03 1.064480468630790710e-02 -5.381229799240827560e-03
6.820000000000000000e+02 4.040293502807617188e+01 7.494835853576660156e+00 -5.080216564238071442e-03 5.982042755931615829e-03 2.705478691495954990e-04 4.064855165779590607e-03
6.830000000000000000e+02 4.043355178833007812e+01 8.716931343078613281e+00 -1.511276117525994778e-03 -6.598611944355070591e-04 -6.513412226922810078e-04 -4.428964457474648952e-04
6.840000000000000000e+02 2.266176033020019531e+01 1.930898070335388184e+00 2.502243034541606903e-03 -8.281288668513298035e-03 -1.733713666908442974e-03 -4.839742905460298061e-04
6.850000000000000000e+02 2.082999801635742188e+01 2.201292276382446289e+00 -3.820255733444355428e-05 -1.130143296904861927e-03 -3.505037457216531038e-04 -9.757801308296620846e-04
6.860000000000000000e+02 1.794918632507324219e+01 2.543376684188842773e+00 -1.950043812394142151e-02 -7.778921630233526230e-03 -8.183808065950870514e-03 -3.264740575104951859e-03
6.870000000000000000e+02 2.000918006896972656e+01 2.336314201354980469e+00 1.316427136771380901e-03 5.518246442079544067e-03 2.050402108579874039e-03 7.290631998330354691e-03
6.880000000000000000e+02 2.582141876220703125e+01 -4.974643230438232422e+00 3.948081575799733400e-05 -3.948556780815124512e-01 -1.184448599815368652e-01 -4.068713262677192688e-02
6.890000000000000000e+02 2.153714561462402344e+01 -8.465455055236816406e+00 -2.082674950361251831e-01 -3.334461152553558350e-02 -7.248362898826599121e-02 8.912256360054016113e-02
6.900000000000000000e+02 2.220957756042480469e+01 -1.142186737060546875e+01 -3.315839767456054688e-01 -9.412296116352081299e-02 -1.277120858430862427e-01 -1.552077084779739380e-01
6.910000000000000000e+02 2.262504196166992188e+01 -9.269136428833007812e+00 -5.521445274353027344e-01 -5.580073967576026917e-02 -1.823835819959640503e-01 5.118446424603462219e-02
6.920000000000000000e+02 1.952779388427734375e+01 -6.550864696502685547e+00 -3.538700565695762634e-02 -8.161354809999465942e-03 -1.306450832635164261e-02 2.387572638690471649e-02
6.930000000000000000e+02 1.854987907409667969e+01 -5.573792457580566406e+00 -1.996438205242156982e-02 -7.742474554106593132e-05 -6.012542173266410828e-03 5.288647022098302841e-03
6.940000000000000000e+02 1.570704841613769531e+01 -3.275280952453613281e+00 1.061705057509243488e-03 3.218180267140269279e-03 1.283965655602514744e-03 -3.571711946278810501e-03
6.950000000000000000e+02 1.180933570861816406e+01 -1.938754081726074219e+00 2.761004492640495300e-03 -2.072078641504049301e-03 2.066777233267202973e-04 -1.559449709020555019e-03
6.960000000000000000e+02 1.019126415252685547e+01 -2.505048513412475586e+00 -1.929563120938837528e-03 -9.710157755762338638e-04 -8.701736223883926868e-04 -5.318889161571860313e-04
6.970000000000000000e+02 9.167464256286621094e+00 -6.164005756378173828e+00 -2.322297543287277222e-02 -3.634848631918430328e-03 -8.057347498834133148e-03 -7.945341989398002625e-03
6.980000000000000000e+02 8.921965599060058594e+00 -1.093905735015869141e+01 -5.886266380548477173e-02 -8.980885148048400879e-03 -2.035306580364704132e-02 -4.760583117604255676e-02
6.990000000000000000e+02 9.627038955688476562e+00 -1.417902755737304688e+01 -6.364485621452331543e-02 -2.627369761466979980e-02 -2.697556652128696442e-02 -8.955319970846176147e-02
7.000000000000000000e+02 6.243834495544433594e+00 -1.624768638610839844e+01 -2.964895963668823242e-02 -5.986991897225379944e-02 -2.685566246509552002e-02 -7.737178355455398560e-02
7.010000000000000000e+02 6.727435111999511719e+00 -2.198700332641601562e+01 -1.378374360501766205e-02 -1.205841302871704102e-01 -4.031036421656608582e-02 -1.139468699693679810e-01
7.020000000000000000e+02 5.305698871612548828e+00 -2.398001861572265625e+01 -1.010712468996644020e-03 -1.634303033351898193e-01 -4.933230578899383545e-02 -9.369969367980957031e-02
7.030000000000000000e+02 5.963204860687255859e+00 -2.814907264709472656e+01 8.178533054888248444e-03 -2.073120772838592529e-01 -5.974006280303001404e-02 -9.594739228487014771e-02
7.040000000000000000e+02 5.705255985260009766e+00 -2.957651519775390625e+01 8.146566338837146759e-03 -2.243840843439102173e-01 -6.487125903367996216e-02 -9.001113474369049072e-02
7.050000000000000000e+02 3.985336542129516602e+00 -3.409933471679687500e+01 1.797636784613132477e-02 -3.118867278099060059e-01 -8.817310631275177002e-02 -4.965847358107566833e-02
7.060000000000000000e+02 6.349192619323730469e+00 -3.781726837158203125e+01 3.466100245714187622e-02 -2.678709328174591064e-01 -6.996297836303710938e-02 -4.494386538863182068e-02
7.070000000000000000e+02 8.108806610107421875e+00 -4.107070159912109375e+01 4.349685460329055786e-02 -2.459455579519271851e-01 -6.073461100459098816e-02 -1.607885584235191345e-02
7.080000000000000000e+02 9.049125671386718750e+00 -3.544074249267578125e+01 6.010120362043380737e-02 -2.051306217908859253e-01 -4.350882396101951599e-02 -7.747161388397216797e-02
7.090000000000000000e+02 6.511106967926025391e+00 -3.174605178833007812e+01 2.672046236693859100e-02 -2.270927727222442627e-01 -6.011169031262397766e-02 -8.547173440456390381e-02
7.100000000000000000e+02 9.219209671020507812e+00 -2.350860023498535156e+01 2.385165076702833176e-03 -1.147266402840614319e-01 -3.370244055986404419e-02 -1.406887322664260864e-01
7.110000000000000000e+02 7.593223094940185547e+00 -2.097302627563476562e+01 -1.582091115415096283e-02 -9.981019794940948486e-02 -3.468933328986167908e-02 -1.189737245440483093e-01
7.120000000000000000e+02 1.270388793945312500e+01 -1.726935768127441406e+01 -7.264106720685958862e-02 -3.647270053625106812e-02 -3.273412957787513733e-02 -1.428219825029373169e-01
7.130000000000000000e+02 1.351850891113281250e+01 -1.394021129608154297e+01 -1.134650781750679016e-01 -3.295402275398373604e-03 -3.502814471721649170e-02 -1.055607199668884277e-01
7.140000000000000000e+02 1.177610206604003906e+01 -8.288509368896484375e+00 -6.544998288154602051e-02 4.803341347724199295e-03 -1.819399185478687286e-02 -2.119649015367031097e-02
7.150000000000000000e+02 1.295648765563964844e+01 -5.649075984954833984e+00 -3.790070861577987671e-02 1.339789945632219315e-03 -1.096827536821365356e-02 -2.213362138718366623e-03
7.160000000000000000e+02 1.571590232849121094e+01 -2.036559104919433594e+00 5.227967165410518646e-03 1.067756954580545425e-02 4.771661013364791870e-03 -8.227998390793800354e-03
7.170000000000000000e+02 1.146413707733154297e+01 -3.407700061798095703e+00 -7.785863243043422699e-03 -2.817161148414015770e-03 -3.180907340720295906e-03 -1.549605280160903931e-03
7.180000000000000000e+02 1.501302814483642578e+01 -2.037241220474243164e+00 4.785766825079917908e-03 6.935894489288330078e-04 1.643806928768754005e-03 -4.367724992334842682e-03
7.190000000000000000e+02 8.797766685485839844e+00 -2.403258800506591797e+00 -1.519014185760170221e-04 -1.158218132331967354e-03 -3.930358798243105412e-04 2.881660475395619869e-04
7.200000000000000000e+02 8.084221839904785156e+00 -1.792939901351928711e+00 3.893533954396843910e-03 -6.999191828072071075e-04 9.580844198353588581e-04 1.267719781026244164e-03
7.210000000000000000e+02 6.112564563751220703e+00 -2.734852075576782227e+00 2.233014674857258797e-03 -5.068713799118995667e-04 5.178430001251399517e-04 1.568560488522052765e-03
7.220000000000000000e+02 5.959196567535400391e+00 -4.088822841644287109e+00 -2.726890845224261284e-03 -1.886908547021448612e-03 -1.384139759466052055e-03 5.682160262949764729e-04
7.230000000000000000e+02 5.013629436492919922e+00 -2.400178909301757812e+00 3.683011513203382492e-03 1.416123006492853165e-03 1.529740286059677601e-03 3.518530633300542831e-03
7.240000000000000000e+02 1.898068308830261230e+00 -1.955404162406921387e+00 9.100065217353403568e-04 6.706923013553023338e-04 4.742096352856606245e-04 2.403534948825836182e-03
7.250000000000000000e+02 2.620972871780395508e+00 -1.878470420837402344e+00 2.805475611239671707e-03 -3.203505184501409531e-04 7.455375161953270435e-04 2.687663305550813675e-03
7.260000000000000000e+02 5.923743247985839844e-01 -5.030510425567626953e+00 -1.894475193694233894e-03 7.176907267421483994e-03 1.584729645401239395e-03 9.644617093726992607e-04
7.270000000000000000e+02 1.674773097038269043e+00 -7.930000782012939453e+00 6.333325873129069805e-04 1.025199308060109615e-03 4.975595511496067047e-04 -2.139997202903032303e-03
7.280000000000000000e+02 4.178649425506591797e+00 -1.053649044036865234e+01 -1.034519355744123459e-02 -1.826155744493007660e-02 -8.582025766372680664e-03 -2.158115245401859283e-02
7.290000000000000000e+02 4.863639831542968750e+00 -7.869785785675048828e+00 -1.645165868103504181e-02 -7.397106382995843887e-03 -7.154629565775394440e-03 -1.130872219800949097e-02
7.300000000000000000e+02 3.860074281692504883e+00 -5.689844131469726562e+00 -2.190775936469435692e-03 -2.245474373921751976e-03 -1.330875093117356300e-03 1.798324083210900426e-04
7.310000000000000000e+02 3.359927654266357422e+00 -1.835402607917785645e+00 1.593264867551624775e-03 2.651234681252390146e-04 5.575165268965065479e-04 2.023079665377736092e-03
7.320000000000000000e+02 2.734728336334228516e+00 -2.612689733505249023e+00 -7.254313677549362183e-04 8.775665774010121822e-04 4.564055416267365217e-05 3.274758812040090561e-03
7.330000000000000000e+02 5.763118863105773926e-01 -9.284572601318359375e+00 2.221237402409315109e-03 6.177094765007495880e-03 2.519499743357300758e-03 -1.850053318776190281e-03
7.340000000000000000e+02 1.803914308547973633e+00 -1.067399692535400391e+01 -2.615691337268799543e-04 -9.995237924158573151e-03 -3.077042056247591972e-03 -9.868822060525417328e-03
7.350000000000000000e+02 4.377945899963378906e+00 -1.192601680755615234e+01 -1.942728832364082336e-02 -2.595856413245201111e-02 -1.361575536429882050e-02 -3.164818137884140015e-02
7.360000000000000000e+02 4.005730628967285156e+00 -9.200964927673339844e+00 -1.397389173507690430e-02 -1.122710760682821274e-02 -7.560299709439277649e-03 -1.396645046770572662e-02
7.370000000000000000e+02 6.298802495002746582e-01 -1.210163688659667969e+01 1.997787505388259888e-03 -9.511602111160755157e-03 -2.254144521430134773e-03 -5.178462248295545578e-03
7.380000000000000000e+02 1.963867545127868652e+00 -1.350122833251953125e+01 -8.892343612387776375e-04 -3.248215466737747192e-02 -1.001141685992479324e-02 -2.024932950735092163e-02
7.390000000000000000e+02 6.132917881011962891e+00 -1.472180461883544922e+01 -2.329297736287117004e-02 -4.621847718954086304e-02 -2.085343562066555023e-02 -6.621009856462478638e-02
7.400000000000000000e+02 6.971647143363952637e-01 -1.635651397705078125e+01 -3.598032984882593155e-03 -5.957610160112380981e-02 -1.895223930478096008e-02 -1.057481300085783005e-02
7.410000000000000000e+02 2.137829065322875977e+00 -1.779916572570800781e+01 -6.420696619898080826e-03 -8.625560253858566284e-02 -2.780288830399513245e-02 -3.502438217401504517e-02
7.420000000000000000e+02 2.227763414382934570e+00 -2.068724060058593750e+01 -5.030418746173381805e-03 -1.339710205793380737e-01 -4.170043021440505981e-02 -4.232861474156379700e-02
7.430000000000000000e+02 8.198437690734863281e-01 -2.766802978515625000e+01 -3.005278063938021660e-03 -2.860473394393920898e-01 -8.671578764915466309e-02 -1.654161512851715088e-02
7.440000000000000000e+02 2.508129835128784180e+00 -2.769912528991699219e+01 4.474701825529336929e-03 -2.556354701519012451e-01 -7.534822821617126465e-02 -4.902637749910354614e-02
7.450000000000000000e+02 8.691841363906860352e-01 -3.474696350097656250e+01 5.090655758976936340e-03 -4.078602492809295654e-01 -1.208308786153793335e-01 -9.055821225047111511e-03
7.460000000000000000e+02 8.451802134513854980e-01 -3.616561508178710938e+01 -3.392788115888834000e-03 -4.207275509834289551e-01 -1.272360980510711670e-01 -7.139259949326515198e-03
7.470000000000000000e+02 1.260940790176391602e+00 -3.999222564697265625e+01 9.086776524782180786e-03 -4.248223304748535156e-01 -1.247206628322601318e-01 5.888126790523529053e-03
7.480000000000000000e+02 2.018125295639038086e+00 -4.159593200683593750e+01 -7.994544692337512970e-03 -4.217081069946289062e-01 -1.289107948541641235e-01 2.368945861235260963e-03
7.490000000000000000e+02 1.250164508819580078e+01 -4.112259674072265625e+01 9.796890616416931152e-02 -1.592627763748168945e-01 -1.838816143572330475e-02 -1.244677975773811340e-02
7.500000000000000000e+02 1.228709220886230469e+01 -3.824128723144531250e+01 9.703752398490905762e-02 -1.569734513759613037e-01 -1.798077672719955444e-02 -5.685335025191307068e-02
7.510000000000000000e+02 1.178030204772949219e+01 -3.516159439086914062e+01 7.816517353057861328e-02 -1.580169349908828735e-01 -2.395553141832351685e-02 -8.746277540922164917e-02
7.520000000000000000e+02 1.175573635101318359e+01 -3.208820343017578125e+01 6.179760396480560303e-02 -1.452301740646362305e-01 -2.502977102994918823e-02 -1.226396635174751282e-01
7.530000000000000000e+02 1.231082439422607422e+01 -2.920611190795898438e+01 4.360580444335937500e-02 -1.225683763623237610e-01 -2.368877269327640533e-02 -1.412155926227569580e-01
7.540000000000000000e+02 1.156685161590576172e+01 -2.499040412902832031e+01 1.586900092661380768e-02 -1.041566357016563416e-01 -2.648629061877727509e-02 -1.565295904874801636e-01
7.550000000000000000e+02 1.282274436950683594e+01 -2.084282112121582031e+01 -3.539873659610748291e-02 -6.006287038326263428e-02 -2.863848209381103516e-02 -1.687946915626525879e-01
7.560000000000000000e+02 1.691046714782714844e+01 -1.708775138854980469e+01 -1.080204918980598450e-01 -1.841599307954311371e-02 -3.793094679713249207e-02 -1.794015020132064819e-01
7.570000000000000000e+02 1.562528324127197266e+01 -1.336685752868652344e+01 -1.496858298778533936e-01 6.474412512034177780e-03 -4.296342283487319946e-02 -1.087691336870193481e-01
7.580000000000000000e+02 1.707061195373535156e+01 -8.756737709045410156e+00 -1.527476757764816284e-01 2.531350217759609222e-02 -3.823025152087211609e-02 3.414051840081810951e-03
7.590000000000000000e+02 1.557723617553710938e+01 -5.984276771545410156e+00 -5.076238140463829041e-02 5.625358317047357559e-03 -1.354110706597566605e-02 6.262066308408975601e-03
7.600000000000000000e+02 1.661621475219726562e+01 -3.756918430328369141e+00 1.574970083311200142e-03 9.515645913779735565e-03 3.327184822410345078e-03 -4.766017198562622070e-03
7.610000000000000000e+02 1.593729019165039062e+01 -3.766928863525390625e+01 1.335996985435485840e-01 -8.339310437440872192e-02 1.506198011338710785e-02 -6.325493752956390381e-02
7.620000000000000000e+02 1.446309375762939453e+01 -3.493622207641601562e+01 1.104449778795242310e-01 -1.109300553798675537e-01 -1.455216115573421121e-04 -1.057594940066337585e-01
7.630000000000000000e+02 1.726773262023925781e+01 -3.163998603820800781e+01 1.131782904267311096e-01 -5.773219093680381775e-02 1.663383096456527710e-02 -1.409248709678649902e-01
7.640000000000000000e+02 1.567606639862060547e+01 -2.819266319274902344e+01 6.035217642784118652e-02 -7.560855150222778320e-02 -4.576913546770811081e-03 -1.641941219568252563e-01
7.650000000000000000e+02 1.649273872375488281e+01 -2.157627868652343750e+01 -2.628475800156593323e-02 -4.492926225066184998e-02 -2.136420458555221558e-02 -1.894505023956298828e-01
7.660000000000000000e+02 1.621881484985351562e+01 -1.914945983886718750e+01 -6.190182641148567200e-02 -3.359386324882507324e-02 -2.864870801568031311e-02 -1.862328797578811646e-01
7.670000000000000000e+02 1.890264892578125000e+01 -1.752124786376953125e+01 -1.095304116606712341e-01 -2.907198294997215271e-02 -4.158071801066398621e-02 -1.869255751371383667e-01
7.680000000000000000e+02 1.975169372558593750e+01 -1.334502601623535156e+01 -2.193512469530105591e-01 -2.367812953889369965e-02 -7.290881127119064331e-02 -1.544218808412551880e-01
7.690000000000000000e+02 1.963038063049316406e+01 -8.369996070861816406e+00 -1.656659543514251709e-01 5.414029583334922791e-03 -4.807557910680770874e-02 3.239104524254798889e-02
7.700000000000000000e+02 2.050372886657714844e+01 -9.375449180603027344e+00 -3.395169675350189209e-01 2.508459985256195068e-02 -9.432971477508544922e-02 2.371332049369812012e-02
7.710000000000000000e+02 1.718432235717773438e+01 -4.084734344482421875e+01 1.721836477518081665e-01 -6.245625391602516174e-02 3.291821852326393127e-02 -2.865369804203510284e-02
7.720000000000000000e+02 1.856963729858398438e+01 -3.580981826782226562e+01 1.713633686304092407e-01 -3.604087606072425842e-02 4.059674590826034546e-02 -9.372749179601669312e-02
7.730000000000000000e+02 1.985260581970214844e+01 -3.308292007446289062e+01 1.551153659820556641e-01 -2.885797061026096344e-03 4.566887021064758301e-02 -1.317851096391677856e-01
7.740000000000000000e+02 2.073575401306152344e+01 -3.048033142089843750e+01 1.303505599498748779e-01 7.446036674082279205e-03 4.133897647261619568e-02 -1.486071348190307617e-01
7.750000000000000000e+02 2.142052650451660156e+01 -2.798502349853515625e+01 9.603571891784667969e-02 1.733543723821640015e-02 3.401134535670280457e-02 -1.740082800388336182e-01
7.760000000000000000e+02 2.007610130310058594e+01 -2.322696304321289062e+01 8.345708250999450684e-03 -1.996175386011600494e-02 -3.484813496470451355e-03 -1.894266009330749512e-01
7.770000000000000000e+02 1.965529632568359375e+01 -1.884927940368652344e+01 -1.003241911530494690e-01 -2.470980212092399597e-02 -3.751019760966300964e-02 -1.866133511066436768e-01
7.780000000000000000e+02 2.097462272644042969e+01 -1.239363765716552734e+01 -3.089255392551422119e-01 -3.697509318590164185e-02 -1.037701889872550964e-01 -1.598692238330841064e-01
7.790000000000000000e+02 2.060647392272949219e+01 -1.450784683227539062e+01 -2.168645411729812622e-01 -4.382299259305000305e-02 -7.820625603199005127e-02 -1.747813373804092407e-01
7.800000000000000000e+02 2.896130371093750000e+01 -3.938927459716796875e+01 3.196348547935485840e-01 2.576279938220977783e-01 1.731788516044616699e-01 -3.943868726491928101e-02
7.810000000000000000e+02 2.948497390747070312e+01 -3.618135070800781250e+01 3.173436820507049561e-01 2.781741619110107422e-01 1.786553561687469482e-01 -7.735961675643920898e-02
7.820000000000000000e+02 2.971809387207031250e+01 -3.300530624389648438e+01 2.463577687740325928e-01 2.807847261428833008e-01 1.581427454948425293e-01 -1.194484978914260864e-01
7.830000000000000000e+02 2.991995429992675781e+01 -2.989873313903808594e+01 1.839107573032379150e-01 2.675773799419403076e-01 1.354464441537857056e-01 -1.212902516126632690e-01
7.840000000000000000e+02 3.020446777343750000e+01 -2.694138336181640625e+01 8.921794593334197998e-02 2.626863121986389160e-01 1.055712774395942688e-01 -1.343288868665695190e-01
7.850000000000000000e+02 2.846302986145019531e+01 -2.318596076965332031e+01 -3.485623747110366821e-02 1.652617305517196655e-01 3.912164643406867981e-02 -1.366378217935562134e-01
7.860000000000000000e+02 3.304646682739257812e+01 -1.753951644897460938e+01 -3.723670840263366699e-01 1.997487694025039673e-01 -5.178549885749816895e-02 -1.303027849644422531e-02
7.870000000000000000e+02 3.486203384399414062e+01 -1.273511409759521484e+01 -2.465425431728363037e-01 -2.248009666800498962e-02 -8.070679008960723877e-02 1.518487483263015747e-01
7.880000000000000000e+02 3.272605133056640625e+01 -4.059719467163085938e+01 3.848462700843811035e-01 4.184230268001556396e-01 2.409807890653610229e-01 -1.747137680649757385e-02
7.890000000000000000e+02 3.288743209838867188e+01 -3.355064773559570312e+01 2.994449436664581299e-01 4.251614809036254883e-01 2.173819243907928467e-01 -8.633515238761901855e-02
7.900000000000000000e+02 3.285034179687500000e+01 -3.037234687805175781e+01 1.898381859064102173e-01 4.177465438842773438e-01 1.822754144668579102e-01 -1.215252205729484558e-01
7.910000000000000000e+02 3.293360519409179688e+01 -2.740806007385253906e+01 1.013021618127822876e-01 3.978900015354156494e-01 1.497576534748077393e-01 -9.124355018138885498e-02
7.920000000000000000e+02 3.155857276916503906e+01 -2.234725379943847656e+01 -9.509806334972381592e-02 2.555566430091857910e-01 4.813757538795471191e-02 -1.005143299698829651e-01
7.930000000000000000e+02 3.191973495483398438e+01 -1.987987327575683594e+01 -2.346524149179458618e-01 2.125692069530487061e-01 -6.624963600188493729e-03 -7.626430690288543701e-02
7.940000000000000000e+02 3.616622161865234375e+01 -1.707178878784179688e+01 -6.193184256553649902e-01 8.907211571931838989e-02 -1.590739041566848755e-01 3.364492952823638916e-02
7.950000000000000000e+02 3.663398361206054688e+01 -3.718144226074218750e+01 3.961453735828399658e-01 6.435902118682861328e-01 3.119206726551055908e-01 -4.765152186155319214e-02
7.960000000000000000e+02 3.601358413696289062e+01 -3.378385925292968750e+01 3.167346715927124023e-01 6.186494231224060059e-01 2.806152105331420898e-01 -9.552930295467376709e-02
7.970000000000000000e+02 3.571269989013671875e+01 -3.059772872924804688e+01 2.130605578422546387e-01 5.737889409065246582e-01 2.360548526048660278e-01 -8.170367777347564697e-02
7.980000000000000000e+02 3.548591613769531250e+01 -2.772114181518554688e+01 7.421404868364334106e-02 5.535613298416137695e-01 1.883326172828674316e-01 -1.000125035643577576e-01
7.990000000000000000e+02 3.589879226684570312e+01 -2.305521202087402344e+01 -5.692746862769126892e-02 5.060138106346130371e-01 1.347259134054183960e-01 3.584136813879013062e-02
8.000000000000000000e+02 3.657425308227539062e+01 -2.137024879455566406e+01 -2.175699621438980103e-01 4.784623682498931885e-01 7.826772332191467285e-02 5.744659528136253357e-02
8.010000000000000000e+02 3.758121109008789062e+01 -1.768718338012695312e+01 -3.250451683998107910e-01 7.751828432083129883e-02 -7.425806671380996704e-02 1.840917617082595825e-01
8.020000000000000000e+02 3.723463439941406250e+01 -4.073852157592773438e+01 4.339538514614105225e-01 6.980545520782470703e-01 3.396025300025939941e-01 -1.747594028711318970e-02
8.030000000000000000e+02 3.882524108886718750e+01 -3.356183624267578125e+01 3.325838744640350342e-01 7.771396636962890625e-01 3.329170644283294678e-01 -6.753226369619369507e-02
8.040000000000000000e+02 4.036732864379882812e+01 -3.212406158447265625e+01 2.778540253639221191e-01 9.105083942413330078e-01 3.565087318420410156e-01 -8.677747100591659546e-02
8.050000000000000000e+02 4.128267288208007812e+01 -2.413863945007324219e+01 -2.056048512458801270e-01 1.060764312744140625e+00 2.565478384494781494e-01 -4.024587199091911316e-02
8.060000000000000000e+02 4.228261947631835938e+01 -1.961704444885253906e+01 -7.243342995643615723e-01 1.720030665397644043e+00 2.987088859081268311e-01 6.582834571599960327e-02
8.070000000000000000e+02 4.191495895385742188e+01 -2.187025833129882812e+01 -5.546826124191284180e-01 1.201820373535156250e+00 1.941413283348083496e-01 2.099253609776496887e-02
8.080000000000000000e+02 4.875466537475585938e+01 -3.831958389282226562e+01 4.739124774932861328e-01 1.862486839294433594e+00 7.009198069572448730e-01 2.944551035761833191e-02
8.090000000000000000e+02 5.003882217407226562e+01 -3.513316726684570312e+01 3.962122201919555664e-01 2.020903825759887695e+00 7.251347899436950684e-01 8.536826074123382568e-02
8.100000000000000000e+02 5.090567016601562500e+01 -3.234383392333984375e+01 3.099398910999298096e-01 2.060304403305053711e+00 7.110732793807983398e-01 1.518257707357406616e-01
8.110000000000000000e+02 5.155721664428710938e+01 -2.999013137817382812e+01 2.333661168813705444e-01 2.117855072021484375e+00 7.053663730621337891e-01 2.398966997861862183e-01
8.120000000000000000e+02 5.199349212646484375e+01 -2.790184974670410156e+01 1.229093819856643677e-01 1.991099238395690918e+00 6.342025995254516602e-01 3.322307467460632324e-01
8.130000000000000000e+02 5.137791061401367188e+01 -2.354690361022949219e+01 -1.034987717866897583e-02 1.260844349861145020e+00 3.751483261585235596e-01 2.880704104900360107e-01
8.140000000000000000e+02 5.011610794067382812e+01 -2.000597763061523438e+01 -7.144847512245178223e-01 5.372867584228515625e-01 -5.315938219428062439e-02 -1.368094235658645630e-01
8.150000000000000000e+02 5.121591949462890625e+01 -2.113045501708984375e+01 -4.740757942199707031e-01 6.079007983207702637e-01 4.014749825000762939e-02 2.342968881130218506e-01
8.160000000000000000e+02 5.283044052124023438e+01 -4.047178649902343750e+01 4.306604564189910889e-01 2.464004993438720703e+00 8.683996200561523438e-01 1.887039840221405029e-02
8.170000000000000000e+02 5.344419097900390625e+01 -3.674752426147460938e+01 3.723598718643188477e-01 2.558117866516113281e+00 8.791432976722717285e-01 1.105420887470245361e-01
8.180000000000000000e+02 5.391042327880859375e+01 -3.360076904296875000e+01 2.871239781379699707e-01 2.645965099334716797e+00 8.799267411231994629e-01 1.785302609205245972e-01
8.190000000000000000e+02 5.410676193237304688e+01 -3.083563613891601562e+01 1.478591561317443848e-01 2.650813102722167969e+00 8.396016955375671387e-01 2.698969542980194092e-01
8.200000000000000000e+02 5.402890777587890625e+01 -2.826363945007324219e+01 3.400892391800880432e-02 2.634583950042724609e+00 8.005778789520263672e-01 4.352655708789825439e-01
8.210000000000000000e+02 5.357898712158203125e+01 -2.364002227783203125e+01 -8.149278908967971802e-02 2.048290967941284180e+00 5.900394320487976074e-01 8.360195159912109375e-01
8.220000000000000000e+02 5.425324249267578125e+01 -1.988556480407714844e+01 -1.393715858459472656e+00 4.726830124855041504e-01 -2.763098478317260742e-01 1.988999009132385254e+00
8.230000000000000000e+02 5.729012680053710938e+01 -4.086300659179687500e+01 3.619772791862487793e-01 3.291512489318847656e+00 1.096046924591064453e+00 2.942155674099922180e-02
8.240000000000000000e+02 5.713061141967773438e+01 -3.755149459838867188e+01 3.190094232559204102e-01 3.275288820266723633e+00 1.078289508819580078e+00 6.557045876979827881e-02
8.250000000000000000e+02 5.724744796752929688e+01 -3.421583938598632812e+01 2.027539461851119995e-01 3.308330059051513672e+00 1.053325176239013672e+00 1.641079485416412354e-01
8.260000000000000000e+02 5.682808685302734375e+01 -3.109492111206054688e+01 1.116983518004417419e-01 3.308673620223999023e+00 1.026111602783203125e+00 2.252085804939270020e-01
8.270000000000000000e+02 5.944923019409179688e+01 -2.781558036804199219e+01 -1.862632334232330322e-01 4.100689411163330078e+00 1.174327850341796875e+00 5.408000200986862183e-02
8.280000000000000000e+02 5.817562103271484375e+01 -2.318458747863769531e+01 -9.752604961395263672e-01 5.007857322692871094e+00 1.209779024124145508e+00 2.647754251956939697e-01
8.290000000000000000e+02 5.532193374633789062e+01 -1.904976081848144531e+01 -1.177466988563537598e+00 4.616216659545898438e+00 1.031624913215637207e+00 2.322803258895874023e+00
8.300000000000000000e+02 6.153805923461914062e+01 -4.098620223999023438e+01 3.038012087345123291e-01 4.162503719329833984e+00 1.339891433715820312e+00 9.650105610489845276e-03
8.310000000000000000e+02 6.081299209594726562e+01 -3.501677703857421875e+01 1.957985162734985352e-01 3.923248767852783203e+00 1.235714197158813477e+00 6.695332378149032593e-02
8.320000000000000000e+02 6.286392974853515625e+01 -2.968509864807128906e+01 -1.204699836671352386e-02 4.417549133300781250e+00 1.321650743484497070e+00 -2.673434466123580933e-02
8.330000000000000000e+02 6.176609420776367188e+01 -2.333291435241699219e+01 -4.086593985557556152e-01 4.767940521240234375e+00 1.307784318923950195e+00 -5.497156977653503418e-01
8.340000000000000000e+02 6.044088745117187500e+01 -2.128736686706542969e+01 -5.646936893463134766e-01 5.335484981536865234e+00 1.431237459182739258e+00 -6.815004944801330566e-01
8.350000000000000000e+02 6.382323455810546875e+01 -3.943372344970703125e+01 2.380030155181884766e-01 4.553011894226074219e+00 1.437304377555847168e+00 2.950546517968177795e-02
8.360000000000000000e+02 6.423506927490234375e+01 -3.633750915527343750e+01 2.369915843009948730e-01 4.713870048522949219e+00 1.485258460044860840e+00 4.921443015336990356e-02
8.370000000000000000e+02 6.461106872558593750e+01 -3.348695373535156250e+01 1.778289824724197388e-01 4.697875976562500000e+00 1.462711453437805176e+00 2.743052132427692413e-02
8.380000000000000000e+02 6.412912750244140625e+01 -2.802213668823242188e+01 8.980226516723632812e-02 4.584462642669677734e+00 1.402279496192932129e+00 -1.651980429887771606e-01
8.390000000000000000e+02 6.355542755126953125e+01 -2.408492088317871094e+01 -1.044905260205268860e-01 4.564784049987792969e+00 1.338088154792785645e+00 -5.692431926727294922e-01
8.400000000000000000e+02 7.492222595214843750e+01 -4.018349075317382812e+01 7.405284792184829712e-02 6.984728336334228516e+00 2.117634296417236328e+00 1.616668072529137135e-03
8.410000000000000000e+02 7.352642822265625000e+01 -3.767998504638671875e+01 8.432985097169876099e-02 6.573694705963134766e+00 1.997407317161560059e+00 8.215260505676269531e-02
8.420000000000000000e+02 7.381420898437500000e+01 -3.583743286132812500e+01 1.134095937013626099e-01 6.667487144470214844e+00 2.034268856048583984e+00 1.284477561712265015e-01
8.430000000000000000e+02 7.434110260009765625e+01 -3.113578414916992188e+01 1.174713224172592163e-01 6.843955039978027344e+00 2.088428020477294922e+00 2.730941474437713623e-01
8.440000000000000000e+02 7.309247589111328125e+01 -2.696400642395019531e+01 9.675301611423492432e-02 6.425179481506347656e+00 1.956579685211181641e+00 4.047615230083465576e-01
8.450000000000000000e+02 7.343695831298828125e+01 -2.357468605041503906e+01 1.299323979765176773e-02 6.595994472503662109e+00 1.982696294784545898e+00 6.437854766845703125e-01
8.460000000000000000e+02 7.809730529785156250e+01 -1.640980148315429688e+01 -1.402412652969360352e-01 8.498023033142089844e+00 2.507334470748901367e+00 -6.104085445404052734e-01
8.470000000000000000e+02 7.945375823974609375e+01 -1.386028385162353516e+01 1.807570606470108032e-01 7.301777362823486328e+00 2.244760274887084961e+00 -1.941121369600296021e-01
8.480000000000000000e+02 7.816778564453125000e+01 -1.497266006469726562e+01 1.974923461675643921e-01 8.188082695007324219e+00 2.515672445297241211e+00 -6.016122102737426758e-01
8.490000000000000000e+02 7.947688293457031250e+01 -1.249724102020263672e+01 -6.390548497438430786e-02 7.045520782470703125e+00 2.094484567642211914e+00 -6.917009130120277405e-03
8.500000000000000000e+02 7.838905334472656250e+01 -1.111671257019042969e+01 1.574717760086059570e-01 7.897579669952392578e+00 2.416515350341796875e+00 3.076332211494445801e-01
8.510000000000000000e+02 7.253954315185546875e+01 -7.989069461822509766e+00 9.541288614273071289e-01 9.223287582397460938e+00 3.053224802017211914e+00 -7.294320464134216309e-01
8.520000000000000000e+02 7.163217926025390625e+01 -6.872042655944824219e+00 3.452882766723632812e-01 7.016787052154541016e+00 2.208622694015502930e+00 -1.805301904678344727e+00
8.530000000000000000e+02 7.795391845703125000e+01 -4.162701034545898438e+01 9.436465054750442505e-02 7.547592639923095703e+00 2.292587280273437500e+00 2.637167833745479584e-02
8.540000000000000000e+02 7.919708251953125000e+01 -3.740255737304687500e+01 -3.947982937097549438e-02 7.770873069763183594e+00 2.319417953491210938e+00 6.082494184374809265e-02
8.550000000000000000e+02 7.733769226074218750e+01 -3.795998382568359375e+01 -2.390924096107482910e-02 7.467306613922119141e+00 2.233019113540649414e+00 1.197177767753601074e-01
8.560000000000000000e+02 7.928993225097656250e+01 -3.468688964843750000e+01 -3.124839812517166138e-02 7.953503608703613281e+00 2.376676559448242188e+00 4.932617396116256714e-02
8.570000000000000000e+02 7.785287475585937500e+01 -3.439563369750976562e+01 2.348674274981021881e-02 7.677485466003417969e+00 2.310291528701782227e+00 9.880982339382171631e-02
8.580000000000000000e+02 7.789731597900390625e+01 -3.304413223266601562e+01 -7.710978388786315918e-03 7.733365535736083984e+00 2.317696332931518555e+00 1.244051381945610046e-01
8.590000000000000000e+02 7.798761749267578125e+01 -3.168918037414550781e+01 4.327790439128875732e-02 7.828257560729980469e+00 2.361460685729980469e+00 1.284910142421722412e-01
8.600000000000000000e+02 7.811760711669921875e+01 -2.629652595520019531e+01 3.332462534308433533e-02 8.288203239440917969e+00 2.496458530426025391e+00 2.038827687501907349e-01
8.610000000000000000e+02 7.808412933349609375e+01 -2.491600227355957031e+01 -5.334827676415443420e-02 8.403901100158691406e+00 2.505165815353393555e+00 2.132535427808761597e-01
8.620000000000000000e+02 7.670112609863281250e+01 -2.195899581909179688e+01 -1.482667028903961182e-01 8.202647209167480469e+00 2.416314125061035156e+00 2.275995165109634399e-01
8.630000000000000000e+02 7.811749267578125000e+01 -2.070789909362792969e+01 -7.164105772972106934e-02 8.722970008850097656e+00 2.595398664474487305e+00 -2.072778530418872833e-02
8.640000000000000000e+02 7.943810272216796875e+01 -9.756622314453125000e+00 -3.796555101871490479e-02 7.629073143005371094e+00 2.277332305908203125e+00 2.476017773151397705e-01
8.650000000000000000e+02 7.818169403076171875e+01 -5.632974147796630859e+00 9.073076769709587097e-03 9.600358009338378906e+00 2.882829427719116211e+00 1.169603586196899414e+00
8.660000000000000000e+02 7.520119476318359375e+01 -3.698159694671630859e+00 -1.793142557144165039e-01 6.742827415466308594e+00 1.969053864479064941e+00 8.482192754745483398e-01
8.670000000000000000e+02 7.168702697753906250e+01 -5.144364833831787109e+00 -7.528226375579833984e-01 6.031399250030517578e+00 1.583572864532470703e+00 -1.318707704544067383e+00
8.680000000000000000e+02 6.904677581787109375e+01 -3.639872074127197266e+00 -2.894087076187133789e+00 3.643220663070678711e+00 2.247400879859924316e-01 -8.002845644950866699e-01
8.690000000000000000e+02 7.939226531982421875e+01 -5.591713428497314453e+00 6.941317766904830933e-02 1.025249004364013672e+01 3.096570968627929688e+00 4.513568282127380371e-01
8.700000000000000000e+02 7.816876220703125000e+01 -4.275903224945068359e+00 -8.155165240168571472e-03 1.008226108551025391e+01 3.022231578826904297e+00 1.148201584815979004e+00
8.710000000000000000e+02 7.423927307128906250e+01 -4.022884845733642578e+00 -4.535730779170989990e-01 6.507808208465576172e+00 1.816270470619201660e+00 7.204867899417877197e-02
8.720000000000000000e+02 7.933710479736328125e+01 -2.807805061340332031e+00 3.196780383586883545e-02 1.236294174194335938e+01 3.718472719192504883e+00 4.441690444946289062e-01
8.730000000000000000e+02 7.811472320556640625e+01 4.779102504253387451e-01 -1.128978848457336426e+00 1.102412605285644531e+01 2.968544244766235352e+00 -2.671138346195220947e-01
8.740000000000000000e+02 7.684977722167968750e+01 3.490232706069946289e+00 -9.215557575225830078e-01 1.051050090789794922e+01 2.876683473587036133e+00 -2.350888967514038086e+00
8.750000000000000000e+02 7.849865722656250000e+01 5.773629188537597656e+00 2.926029860973358154e-01 8.470522880554199219e+00 2.628937721252441406e+00 -2.255469799041748047e+00
8.760000000000000000e+02 6.734836578369140625e+01 4.073949432373046875e+01 -1.533185690641403198e-01 5.510918617248535156e+00 1.607280015945434570e+00 2.124484628438949585e-02
8.770000000000000000e+02 7.227832031250000000e+01 3.758790206909179688e+01 -1.305002272129058838e-01 6.134363174438476562e+00 1.801158785820007324e+00 9.166681021451950073e-02
8.780000000000000000e+02 6.794239807128906250e+01 3.334140396118164062e+01 -2.548751533031463623e-01 5.734466075897216797e+00 1.643877267837524414e+00 5.488761514425277710e-02
8.790000000000000000e+02 6.697970581054687500e+01 3.088891029357910156e+01 -2.785847783088684082e-01 5.728493690490722656e+00 1.634972691535949707e+00 4.352907463908195496e-02
8.800000000000000000e+02 6.604526519775390625e+01 2.607327842712402344e+01 -2.751499116420745850e-01 5.970953464508056641e+00 1.708741068840026855e+00 -1.071268618106842041e-01
8.810000000000000000e+02 6.740650177001953125e+01 2.477697372436523438e+01 -2.929222881793975830e-01 6.410478115081787109e+00 1.835266828536987305e+00 4.542978852987289429e-02
8.820000000000000000e+02 6.791381072998046875e+01 2.065723991394042969e+01 2.105685696005821228e-02 6.886880874633789062e+00 2.072381258010864258e+00 2.044530063867568970e-01
8.830000000000000000e+02 6.892436981201171875e+01 1.778962326049804688e+01 7.126484513282775879e-01 7.139451026916503906e+00 2.355629920959472656e+00 8.058398962020874023e-01
8.840000000000000000e+02 6.555059814453125000e+01 3.426973724365234375e+01 -2.468398511409759521e-01 5.402179241180419922e+00 1.546601772308349609e+00 -1.818500831723213196e-02
8.850000000000000000e+02 6.280857467651367188e+01 3.206933212280273438e+01 -2.260997742414474487e-01 5.043762207031250000e+00 1.445298671722412109e+00 -2.164369672536849976e-01
8.860000000000000000e+02 6.262075805664062500e+01 2.690527343750000000e+01 -2.263803780078887939e-01 5.328868865966796875e+00 1.530746579170227051e+00 -3.578719198703765869e-01
8.870000000000000000e+02 6.349029159545898438e+01 2.489342117309570312e+01 -1.838287562131881714e-01 5.647588729858398438e+00 1.639127969741821289e+00 -2.988981902599334717e-01
8.880000000000000000e+02 6.252173995971679688e+01 4.085109710693359375e+01 -1.317388713359832764e-01 4.781587123870849609e+00 1.394954442977905273e+00 -3.720332682132720947e-02
8.890000000000000000e+02 6.261717987060546875e+01 3.759803009033203125e+01 -1.396276801824569702e-01 4.799048900604248047e+00 1.397826313972473145e+00 -5.832679569721221924e-02
8.900000000000000000e+02 6.275326538085937500e+01 3.459181213378906250e+01 -1.875741183757781982e-01 4.894774913787841797e+00 1.412160277366638184e+00 -1.697106063365936279e-01
8.910000000000000000e+02 6.055921173095703125e+01 3.171623992919921875e+01 -1.778556853532791138e-01 4.668049812316894531e+00 1.347058176994323730e+00 -3.277811110019683838e-01
8.920000000000000000e+02 6.076227951049804688e+01 2.588059997558593750e+01 -1.660034209489822388e-01 5.003548622131347656e+00 1.451263546943664551e+00 -4.562623500823974609e-01
8.930000000000000000e+02 6.201069259643554688e+01 2.128135490417480469e+01 2.976671457290649414e-01 5.358956336975097656e+00 1.696987032890319824e+00 -5.576941370964050293e-01
8.940000000000000000e+02 5.767832565307617188e+01 4.054700851440429688e+01 1.648967340588569641e-02 3.835444688796997070e+00 1.155580282211303711e+00 -6.173663958907127380e-02
8.950000000000000000e+02 5.831921386718750000e+01 3.255545806884765625e+01 -7.957665622234344482e-02 4.171239376068115234e+00 1.227498888969421387e+00 -3.620064258575439453e-01
8.960000000000000000e+02 5.699775695800781250e+01 3.031133651733398438e+01 -6.567014008760452271e-02 3.923532009124755859e+00 1.157358527183532715e+00 -4.564399719238281250e-01
8.970000000000000000e+02 5.595256805419921875e+01 3.489927673339843750e+01 3.421543911099433899e-02 3.572825908660888672e+00 1.082112431526184082e+00 -2.971479296684265137e-01
8.980000000000000000e+02 5.461256790161132812e+01 3.214456176757812500e+01 8.805706351995468140e-02 3.198643445968627930e+00 9.860101342201232910e-01 -4.380846321582794189e-01
8.990000000000000000e+02 5.269846343994140625e+01 4.040591812133789062e+01 2.087382972240447998e-01 2.908325672149658203e+00 9.351192116737365723e-01 -1.052826195955276489e-01
9.000000000000000000e+02 5.257128143310546875e+01 3.650317764282226562e+01 1.985622197389602661e-01 2.842798709869384766e+00 9.124082922935485840e-01 -2.451029419898986816e-01
9.010000000000000000e+02 4.764745712280273438e+01 4.036393356323242188e+01 4.118314385414123535e-01 1.879379153251647949e+00 6.873631477355957031e-01 -5.806029587984085083e-02
9.020000000000000000e+02 3.482394409179687500e+01 3.459074401855468750e+01 4.606264531612396240e-01 2.905036807060241699e-01 2.253390401601791382e-01 8.525343239307403564e-02
9.030000000000000000e+02 3.287890243530273438e+01 3.214503097534179688e+01 3.513085842132568359e-01 1.195064708590507507e-01 1.412445157766342163e-01 1.465012580156326294e-01
9.040000000000000000e+02 3.146620559692382812e+01 3.011263847351074219e+01 2.646113634109497070e-01 5.071813985705375671e-02 9.459885209798812866e-02 1.958648711442947388e-01
9.050000000000000000e+02 3.421156692504882812e+01 2.664978408813476562e+01 1.217109262943267822e-01 1.133186146616935730e-01 7.050886005163192749e-02 2.088021934032440186e-01
9.060000000000000000e+02 3.273659896850585938e+01 2.358764648437500000e+01 -1.102502420544624329e-01 6.928692106157541275e-03 -3.099646605551242828e-02 2.672826051712036133e-01
9.070000000000000000e+02 3.466864395141601562e+01 2.157955360412597656e+01 -2.481437474489212036e-01 4.638105165213346481e-03 -7.305169105529785156e-02 2.331952452659606934e-01
9.080000000000000000e+02 3.219151306152343750e+01 1.729188919067382812e+01 -6.507654190063476562e-01 -7.332338392734527588e-02 -2.172266393899917603e-01 2.981037497520446777e-01
9.090000000000000000e+02 3.103331184387207031e+01 1.327099132537841797e+01 -4.852010905742645264e-01 -8.752194046974182129e-02 -1.718169152736663818e-01 -1.272343248128890991e-01
9.100000000000000000e+02 3.370701980590820312e+01 1.457406902313232422e+01 -1.558726310729980469e+00 -2.459809333086013794e-01 -5.414121747016906738e-01 3.278529644012451172e-02
9.110000000000000000e+02 3.242435455322265625e+01 4.035112380981445312e+01 5.045649409294128418e-01 2.018337249755859375e-01 2.119195908308029175e-01 2.733090519905090332e-02
9.120000000000000000e+02 3.170839691162109375e+01 3.647641372680664062e+01 4.566805660724639893e-01 1.400890946388244629e-01 1.790308952331542969e-01 8.618637174367904663e-02
9.130000000000000000e+02 3.061237716674804688e+01 3.339324188232421875e+01 3.557093739509582520e-01 5.390686169266700745e-02 1.228848695755004883e-01 1.489519476890563965e-01
9.140000000000000000e+02 2.768454551696777344e+01 3.133871078491210938e+01 2.505523860454559326e-01 -3.574655205011367798e-02 6.444174796342849731e-02 2.072263062000274658e-01
9.150000000000000000e+02 2.803235244750976562e+01 2.741026306152343750e+01 9.189825505018234253e-02 -5.956650897860527039e-02 9.699524380266666412e-03 2.528719902038574219e-01
9.160000000000000000e+02 3.023328018188476562e+01 2.224161911010742188e+01 -2.289983630180358887e-01 -3.461291640996932983e-02 -7.908338308334350586e-02 2.994331121444702148e-01
9.170000000000000000e+02 2.834727859497070312e+01 1.557015609741210938e+01 -5.082282423973083496e-01 4.611403867602348328e-02 -1.386342495679855347e-01 2.120303660631179810e-01
9.180000000000000000e+02 2.749574470520019531e+01 1.041807556152343750e+01 -1.067770272493362427e-01 -1.137601062655448914e-01 -6.616114079952239990e-02 -1.452312022447586060e-01
9.190000000000000000e+02 2.858994674682617188e+01 1.144282913208007812e+01 -1.729479730129241943e-01 -1.306203752756118774e-01 -9.107050299644470215e-02 -9.651184827089309692e-02
9.200000000000000000e+02 2.734856796264648438e+01 4.042699432373046875e+01 4.117967486381530762e-01 -3.106495365500450134e-02 1.142195388674736023e-01 4.586661607027053833e-02
9.210000000000000000e+02 2.758370018005371094e+01 3.665491867065429688e+01 3.857798278331756592e-01 -2.031948417425155640e-02 1.096381023526191711e-01 1.109399870038032532e-01
9.220000000000000000e+02 2.807857894897460938e+01 3.372216796875000000e+01 3.387023508548736572e-01 -1.166020147502422333e-02 9.811264276504516602e-02 1.681185960769653320e-01
9.230000000000000000e+02 2.441962242126464844e+01 3.065724372863769531e+01 1.879098713397979736e-01 -9.653955698013305664e-02 2.741109579801559448e-02 2.304509580135345459e-01
9.240000000000000000e+02 2.481201171875000000e+01 2.712299537658691406e+01 5.026120692491531372e-02 -1.027416661381721497e-01 -1.574413664638996124e-02 2.688511312007904053e-01
9.250000000000000000e+02 2.753179740905761719e+01 2.386257362365722656e+01 -1.290254294872283936e-01 -7.057923823595046997e-02 -5.988140031695365906e-02 2.725319266319274902e-01
9.260000000000000000e+02 2.712097167968750000e+01 1.910627746582031250e+01 -5.167832374572753906e-01 -1.354974228888750076e-03 -1.554414629936218262e-01 2.474862635135650635e-01
9.270000000000000000e+02 2.576746940612792969e+01 1.649327850341796875e+01 -6.490398645401000977e-01 4.466211050748825073e-02 -1.813133209943771362e-01 3.485186696052551270e-01
9.280000000000000000e+02 2.712877273559570312e+01 1.630293655395507812e+01 -5.855907201766967773e-01 8.595845103263854980e-02 -1.498896777629852295e-01 3.126377165317535400e-01
9.290000000000000000e+02 2.540170669555664062e+01 1.492766284942626953e+01 -5.272632837295532227e-02 1.421978026628494263e-01 2.684144116938114166e-02 2.464419156312942505e-01
9.300000000000000000e+02 2.445318031311035156e+01 1.314161968231201172e+01 1.285470873117446899e-01 2.625460624694824219e-01 1.173279434442520142e-01 1.478320360183715820e-01
9.310000000000000000e+02 2.547002601623535156e+01 1.379272365570068359e+01 7.120166718959808350e-02 1.965795755386352539e-01 8.033437281847000122e-02 1.058122664690017700e-01
9.320000000000000000e+02 2.347027206420898438e+01 1.224685764312744141e+01 1.087365075945854187e-01 1.337812691926956177e-01 7.275532931089401245e-02 1.222391799092292786e-01
9.330000000000000000e+02 1.958560562133789062e+01 6.047711849212646484e+00 -8.328440040349960327e-02 -1.160826534032821655e-02 -2.846779860556125641e-02 -3.435831889510154724e-02
9.340000000000000000e+02 2.180957984924316406e+01 5.906453609466552734e+00 -8.290903270244598389e-02 2.290052175521850586e-02 -1.800255291163921356e-02 -4.433229565620422363e-02
9.350000000000000000e+02 2.251308441162109375e+01 6.161326408386230469e+00 -7.726179808378219604e-02 6.251101847738027573e-03 -2.130320854485034943e-02 -4.906115680932998657e-02
9.360000000000000000e+02 2.379637336730957031e+01 6.839109420776367188e+00 -1.036513447761535645e-01 -4.542382434010505676e-02 -4.472254961729049683e-02 -7.271956652402877808e-02
9.370000000000000000e+02 2.472608184814453125e+01 7.455454349517822266e+00 -1.262587010860443115e-01 -8.231918513774871826e-02 -6.257336586713790894e-02 -9.097082912921905518e-02
9.380000000000000000e+02 2.506359100341796875e+01 1.085834407806396484e+01 -7.018679380416870117e-02 2.947996743023395538e-02 -1.221204735338687897e-02 -6.878083944320678711e-02
9.390000000000000000e+02 2.429480361938476562e+01 3.500511932373046875e+01 2.945135831832885742e-01 -1.010848656296730042e-01 5.802861973643302917e-02 1.532024890184402466e-01
9.400000000000000000e+02 2.235064506530761719e+01 3.227032089233398438e+01 1.908487230539321899e-01 -1.241366043686866760e-01 2.001363597810268402e-02 2.023109346628189087e-01
9.410000000000000000e+02 2.106875801086425781e+01 2.973669052124023438e+01 1.063547953963279724e-01 -1.253445446491241455e-01 -5.696923006325960159e-03 2.392722368240356445e-01
9.420000000000000000e+02 2.189018821716308594e+01 2.619446754455566406e+01 -1.486577931791543961e-02 -1.119354516267776489e-01 -3.804036974906921387e-02 2.765842974185943604e-01
9.430000000000000000e+02 2.175440597534179688e+01 2.253948020935058594e+01 -1.858356297016143799e-01 -1.040771901607513428e-01 -8.697384595870971680e-02 2.836830615997314453e-01
9.440000000000000000e+02 2.298735427856445312e+01 1.878299331665039062e+01 -4.744410514831542969e-01 -1.970063298940658569e-01 -2.014342099428176880e-01 2.791925966739654541e-01
9.450000000000000000e+02 2.029433822631835938e+01 1.583196735382080078e+01 -2.488611787557601929e-01 -2.457328885793685913e-02 -8.203034102916717529e-02 -2.335423789918422699e-02
9.460000000000000000e+02 1.624941635131835938e+01 1.371603965759277344e+01 -1.999661326408386230e-02 2.953125908970832825e-02 2.860394073650240898e-03 2.150252833962440491e-02
9.470000000000000000e+02 1.320404720306396484e+01 1.260657596588134766e+01 6.021234206855297089e-03 3.845567628741264343e-02 1.334307342767715454e-02 2.919618785381317139e-02
9.480000000000000000e+02 8.363436698913574219e+00 1.573293209075927734e+01 -3.249355033040046692e-02 -1.120216026902198792e-02 -1.310871355235576630e-02 2.625349164009094238e-02
9.490000000000000000e+02 4.386950492858886719e+00 1.453130817413330078e+01 -4.422795958817005157e-03 -3.182046487927436829e-02 -1.087297871708869934e-02 1.276606228202581406e-02
9.500000000000000000e+02 6.139481663703918457e-01 1.350722599029541016e+01 -1.121540670283138752e-03 -3.594275191426277161e-02 -1.111928746104240417e-02 1.430387143045663834e-03
9.510000000000000000e+02 1.898723125457763672e+00 1.483902454376220703e+01 -2.230971120297908783e-03 -3.761404380202293396e-02 -1.195350475609302521e-02 5.013233516365289688e-03
9.520000000000000000e+02 5.871509909629821777e-01 9.309740066528320312e+00 6.313726189546287060e-04 -2.028503082692623138e-02 -5.896097514778375626e-03 3.047392237931489944e-03
9.530000000000000000e+02 1.765538692474365234e+00 1.073186969757080078e+01 2.944839186966419220e-03 -2.613672986626625061e-02 -6.957567296922206879e-03 6.388901732861995697e-03
9.540000000000000000e+02 5.964081287384033203e-01 6.454766273498535156e+00 -5.841683014295995235e-04 -4.972412250936031342e-03 -1.666974159888923168e-03 2.536555519327521324e-03
9.550000000000000000e+02 4.659075260162353516e+00 3.687825441360473633e+00 -8.976087905466556549e-03 -7.569559384137392044e-04 -2.919913269579410553e-03 -2.125050377799198031e-04
9.560000000000000000e+02 6.590539932250976562e+00 6.153565406799316406e+00 -5.914659798145294189e-02 -8.315890096127986908e-03 -2.023874595761299133e-02 4.412583634257316589e-02
9.570000000000000000e+02 6.172345638275146484e+00 6.849083900451660156e+00 -8.482676930725574493e-03 -1.298243831843137741e-02 -6.439534481614828110e-03 3.639160469174385071e-02
9.580000000000000000e+02 8.423359870910644531e+00 6.692643165588378906e+00 -1.662609912455081940e-02 -4.894494637846946716e-02 -1.967131346464157104e-02 6.713451445102691650e-02
9.590000000000000000e+02 7.623279094696044922e+00 7.685291767120361328e+00 1.828918978571891785e-02 -3.731779754161834717e-02 -5.708581767976284027e-03 5.248619988560676575e-02
9.600000000000000000e+02 9.283509254455566406e+00 6.704032897949218750e+00 5.921180173754692078e-02 -2.731459215283393860e-02 9.569163434207439423e-03 1.862112060189247131e-02
9.610000000000000000e+02 1.302799415588378906e+01 1.062021636962890625e+01 4.758943617343902588e-02 5.252137407660484314e-02 3.003324195742607117e-02 4.791759327054023743e-02
9.620000000000000000e+02 1.114439678192138672e+01 8.618242263793945312e+00 4.337471723556518555e-02 6.748440861701965332e-02 3.325773775577545166e-02 4.789572581648826599e-02
9.630000000000000000e+02 1.204027080535888672e+01 9.612881660461425781e+00 4.805355891585350037e-02 5.771962553262710571e-02 3.173195570707321167e-02 5.307961627840995789e-02
9.640000000000000000e+02 1.511010360717773438e+01 1.265432357788085938e+01 1.924512907862663269e-02 3.691838309168815613e-02 1.684905402362346649e-02 3.727605193853378296e-02
9.650000000000000000e+02 2.232075691223144531e+01 4.056447219848632812e+01 3.136726617813110352e-01 -1.229627355933189392e-01 5.721298232674598694e-02 3.974493220448493958e-02
9.660000000000000000e+02 2.124855422973632812e+01 3.689884567260742188e+01 2.645804882049560547e-01 -1.353807300329208374e-01 3.875992074608802795e-02 1.144532784819602966e-01
9.670000000000000000e+02 1.976160812377929688e+01 3.366742324829101562e+01 1.777804940938949585e-01 -1.418304443359375000e-01 1.078501529991626740e-02 1.760755330324172974e-01
9.680000000000000000e+02 1.875580406188964844e+01 3.083003044128417969e+01 1.028671711683273315e-01 -1.311126351356506348e-01 -8.473639376461505890e-03 2.116356194019317627e-01
9.690000000000000000e+02 2.010918045043945312e+01 2.745699119567871094e+01 2.255247160792350769e-02 -1.105117350816726685e-01 -2.638777904212474823e-02 2.599486410617828369e-01
9.700000000000000000e+02 2.069949913024902344e+01 2.433436965942382812e+01 -8.683101087808609009e-02 -9.593345969915390015e-02 -5.482934042811393738e-02 2.777893841266632080e-01
9.710000000000000000e+02 1.670383262634277344e+01 1.994665336608886719e+01 -2.010496258735656738e-01 2.607540227472782135e-02 -5.249226838350296021e-02 1.508095860481262207e-01
9.720000000000000000e+02 1.895886802673339844e+01 1.518759536743164062e+01 -1.284716576337814331e-01 2.408991567790508270e-02 -3.131452202796936035e-02 -1.953225582838058472e-02
9.730000000000000000e+02 1.709862899780273438e+01 1.651249313354492188e+01 -1.669344305992126465e-01 5.380458384752273560e-02 -3.393895551562309265e-02 3.859418630599975586e-02
9.740000000000000000e+02 1.745209121704101562e+01 4.093026351928710938e+01 2.075339406728744507e-01 -1.731057167053222656e-01 1.032846700400114059e-02 3.088044002652168274e-02
9.750000000000000000e+02 1.714736747741699219e+01 3.773588943481445312e+01 1.912505179643630981e-01 -1.668540835380554199e-01 7.318928837776184082e-03 8.883506059646606445e-02
9.760000000000000000e+02 1.662129783630371094e+01 3.455070877075195312e+01 1.501042991876602173e-01 -1.568537652492523193e-01 -2.024842891842126846e-03 1.477520614862442017e-01
9.770000000000000000e+02 1.615822410583496094e+01 3.154818916320800781e+01 8.591573685407638550e-02 -1.391149312257766724e-01 -1.595976017415523529e-02 1.858794540166854858e-01
9.780000000000000000e+02 1.616988372802734375e+01 2.596444702148437500e+01 -4.267597943544387817e-02 -8.011075854301452637e-02 -3.683602064847946167e-02 2.244517058134078979e-01
9.790000000000000000e+02 1.436267280578613281e+01 1.856652641296386719e+01 -1.424281448125839233e-01 2.650585211813449860e-02 -3.477668762207031250e-02 9.536330401897430420e-02
9.800000000000000000e+02 1.566442108154296875e+01 1.834421539306640625e+01 -1.766491830348968506e-01 4.668213427066802979e-02 -3.899011760950088501e-02 9.179256856441497803e-02
9.810000000000000000e+02 1.272601604461669922e+01 4.105676651000976562e+01 1.205197423696517944e-01 -1.935019195079803467e-01 -2.189465425908565521e-02 2.029728703200817108e-02
9.820000000000000000e+02 1.308243751525878906e+01 3.804130172729492188e+01 1.190949231386184692e-01 -1.872339844703674316e-01 -2.044171653687953949e-02 7.215670496225357056e-02
9.830000000000000000e+02 1.329515361785888672e+01 3.490938949584960938e+01 1.027317494153976440e-01 -1.725741177797317505e-01 -2.095270901918411255e-02 1.210360601544380188e-01
9.840000000000000000e+02 1.348562240600585938e+01 2.905751800537109375e+01 1.656502299010753632e-02 -1.171558350324630737e-01 -3.017724491655826569e-02 1.836827248334884644e-01
9.850000000000000000e+02 1.102985000610351562e+01 2.595898056030273438e+01 -2.704187482595443726e-02 -8.566509187221527100e-02 -3.381209075450897217e-02 1.565624773502349854e-01
9.860000000000000000e+02 1.380711841583251953e+01 2.266425704956054688e+01 -9.787019342184066772e-02 -2.870756387710571289e-02 -3.797332942485809326e-02 1.691561192274093628e-01
9.870000000000000000e+02 1.303301525115966797e+01 2.022135353088378906e+01 -1.178286597132682800e-01 2.484274329617619514e-03 -3.460331633687019348e-02 1.175014972686767578e-01
9.880000000000000000e+02 1.379360675811767578e+01 1.574851131439208984e+01 -8.523801714181900024e-02 3.392108529806137085e-02 -1.539507880806922913e-02 4.139728099107742310e-02
9.890000000000000000e+02 1.295388984680175781e+01 1.757761955261230469e+01 -1.020117700099945068e-01 2.141371183097362518e-02 -2.417941577732563019e-02 6.620492786169052124e-02
9.900000000000000000e+02 8.218499183654785156e+00 4.101797103881835938e+01 5.351736024022102356e-02 -2.255742251873016357e-01 -5.161705985665321350e-02 1.820049807429313660e-02
9.910000000000000000e+02 9.315234184265136719e+00 3.795344543457031250e+01 6.386663019657135010e-02 -2.084026336669921875e-01 -4.336080327630043030e-02 5.895429104566574097e-02
9.920000000000000000e+02 9.219478607177734375e+00 2.920102119445800781e+01 8.234087377786636353e-03 -1.347157806158065796e-01 -3.794450685381889343e-02 1.313421577215194702e-01
9.930000000000000000e+02 8.719667434692382812e+00 2.551666450500488281e+01 -2.677502669394016266e-02 -9.001637250185012817e-02 -3.503742069005966187e-02 1.234386786818504333e-01
9.940000000000000000e+02 9.707043647766113281e+00 2.343016815185546875e+01 -5.589652061462402344e-02 -5.569898337125778198e-02 -3.347865119576454163e-02 1.182239055633544922e-01
9.950000000000000000e+02 1.015483379364013672e+01 2.064337158203125000e+01 -7.415707409381866455e-02 -2.136862464249134064e-02 -2.865771017968654633e-02 9.228542447090148926e-02
9.960000000000000000e+02 7.605556488037109375e+00 1.789100074768066406e+01 -3.802262991666793823e-02 -2.460638806223869324e-02 -1.878870651125907898e-02 3.947951272130012512e-02
9.970000000000000000e+02 5.077516078948974609e+00 4.027179718017578125e+01 2.025958895683288574e-02 -2.643378078937530518e-01 -7.322346419095993042e-02 2.389863692224025726e-02
9.980000000000000000e+02 6.503386974334716797e+00 3.786380767822265625e+01 3.673781454563140869e-02 -2.268549054861068726e-01 -5.703512579202651978e-02 4.856883361935615540e-02
9.990000000000000000e+02 6.168978214263916016e+00 3.607691574096679688e+01 3.306980803608894348e-02 -2.252076715230941772e-01 -5.764135718345642090e-02 6.191119551658630371e-02
1.000000000000000000e+03 6.749598503112792969e+00 3.047056579589843750e+01 1.117063686251640320e-02 -1.666413247585296631e-01 -4.664120450615882874e-02 9.748037904500961304e-02
1.001000000000000000e+03 7.515169143676757812e+00 2.487936401367187500e+01 -2.722935564815998077e-02 -8.923353254795074463e-02 -3.493886813521385193e-02 1.028285622596740723e-01
1.002000000000000000e+03 5.849554061889648438e+00 2.078293037414550781e+01 -2.302449382841587067e-02 -5.731894820928573608e-02 -2.410303242504596710e-02 5.378957465291023254e-02
1.003000000000000000e+03 6.464272499084472656e+00 1.532249927520751953e+01 -1.845446601510047913e-02 -2.527478896081447601e-02 -1.311877649277448654e-02 1.778920181095600128e-02
1.004000000000000000e+03 5.036730766296386719e+00 1.695746994018554688e+01 -1.487591862678527832e-02 -3.731765598058700562e-02 -1.565807312726974487e-02 2.340933121740818024e-02
1.005000000000000000e+03 2.042130231857299805e+00 4.162978744506835938e+01 -8.807523990981280804e-04 -3.257676959037780762e-01 -9.799453616142272949e-02 -2.275225269841030240e-04
1.006000000000000000e+03 2.662955045700073242e+00 3.794600296020507812e+01 9.605442173779010773e-03 -2.937498390674591064e-01 -8.524331450462341309e-02 1.582100428640842438e-02
1.007000000000000000e+03 2.092735052108764648e+00 3.313215255737304688e+01 4.293591715395450592e-03 -2.497418969869613647e-01 -7.363449037075042725e-02 2.915921434760093689e-02
1.008000000000000000e+03 2.163216352462768555e+00 3.172067070007324219e+01 2.104864455759525299e-03 -2.292573004961013794e-01 -6.814572960138320923e-02 3.640028834342956543e-02
1.009000000000000000e+03 2.111288070678710938e+00 2.748418998718261719e+01 -4.054741584695875645e-04 -1.610138267278671265e-01 -4.842579364776611328e-02 3.665959089994430542e-02
1.010000000000000000e+03 2.062449216842651367e+00 2.471192169189453125e+01 -1.954320818185806274e-03 -1.194877997040748596e-01 -3.643263503909111023e-02 3.179480880498886108e-02
1.011000000000000000e+03 2.054239988327026367e+00 2.049033737182617188e+01 -6.084545049816370010e-03 -6.898560374975204468e-02 -2.252104505896568298e-02 1.908161118626594543e-02
1.012000000000000000e+03 2.077404499053955078e+00 1.762740707397460938e+01 -5.086561199277639389e-03 -4.926254227757453918e-02 -1.630473136901855469e-02 1.032571401447057724e-02
1.013000000000000000e+03 6.799550056457519531e-01 1.772205924987792969e+01 6.402165163308382034e-04 -4.757066071033477783e-02 -1.407913304865360260e-02 3.017763374373316765e-03
1.014000000000000000e+03 1.814896106719970703e+00 7.976903915405273438e+00 -1.111176898120902479e-04 -1.352736540138721466e-02 -4.091545008122920990e-03 8.925700560212135315e-03
1.015000000000000000e+03 4.627141356468200684e-01 3.495634078979492188e+00 -5.734286387450993061e-04 2.190612256526947021e-03 4.851551202591508627e-04 -1.638587709749117494e-04
1.016000000000000000e+03 3.336442947387695312e+00 1.881428718566894531e+00 1.268094754777848721e-03 -7.302616722881793976e-04 1.613499334780499339e-04 4.814025305677205324e-04
1.017000000000000000e+03 1.794691324234008789e+00 3.667510509490966797e+00 -1.871623826446011662e-04 -1.371395308524370193e-03 -4.675673262681812048e-04 1.604091725312173367e-03
1.018000000000000000e+03 2.584007263183593750e+00 1.900143623352050781e+00 -9.770867181941866875e-04 -1.062964904122054577e-03 -6.120154866948723793e-04 -1.119486172683537006e-03
1.019000000000000000e+03 2.317159652709960938e+01 1.701976776123046875e+01 -8.848150968551635742e-01 -1.896954774856567383e-01 -3.223531842231750488e-01 1.010244861245155334e-01
1.020000000000000000e+03 2.452075195312500000e+01 1.680411720275878906e+01 -8.771457076072692871e-01 -3.200535178184509277e-01 -3.591597676277160645e-01 2.918503582477569580e-01
1.021000000000000000e+03 2.010856056213378906e+01 9.573979377746582031e+00 2.617527358233928680e-02 3.829341009259223938e-02 1.934060454368591309e-02 4.594986885786056519e-02
1.022000000000000000e+03 1.888205528259277344e+01 6.120675563812255859e+00 -7.479685544967651367e-02 2.768291346728801727e-02 -1.413418259471654892e-02 -1.373671554028987885e-02
1.023000000000000000e+03 1.736554336547851562e+01 6.156642913818359375e+00 -3.911197558045387268e-02 4.452856257557868958e-02 1.624975353479385376e-03 -1.900261454284191132e-02
1.024000000000000000e+03 3.711190032958984375e+01 1.330466842651367188e+01 -8.004004955291748047e-01 -7.389605790376663208e-02 -2.622889578342437744e-01 4.126440882682800293e-01
1.025000000000000000e+03 4.755780410766601562e+01 1.505037784576416016e+01 -3.021705627441406250e+00 -5.804992318153381348e-01 -1.080661416053771973e+00 -8.121022582054138184e-01
1.026000000000000000e+03 5.011626815795898438e+01 1.347128963470458984e+01 -9.288397431373596191e-02 -1.027199745178222656e+00 -3.360251188278198242e-01 2.894355952739715576e-01
1.027000000000000000e+03 5.162076568603515625e+01 1.370761871337890625e+01 1.134584099054336548e-01 7.838450670242309570e-01 2.691910266876220703e-01 -4.099638760089874268e-01
1.028000000000000000e+03 5.853552246093750000e+01 -3.123799562454223633e+00 -2.863101661205291748e-01 3.772818565368652344e+00 1.045952439308166504e+00 -1.569787979125976562e+00
1.029000000000000000e+03 5.580889129638671875e+01 -8.648781180381774902e-01 -1.186812996864318848e+00 3.472423315048217773e+00 6.856830716133117676e-01 -4.918282032012939453e+00
1.030000000000000000e+03 7.282675933837890625e+01 1.417862510681152344e+01 2.037855148315429688e+00 4.638747692108154297e+00 2.002980947494506836e+00 -4.226185977458953857e-01
1.031000000000000000e+03 7.416497039794921875e+01 1.170323371887207031e+01 1.240478456020355225e-01 4.378258228302001953e+00 1.350691795349121094e+00 -2.918991565704345703e+00
1.032000000000000000e+03 6.699848937988281250e+01 9.795035362243652344e+00 1.067892909049987793e+00 1.573283386230468750e+01 5.040217876434326172e+00 -8.847883343696594238e-01
1.033000000000000000e+03 6.834693908691406250e+01 8.988795280456542969e+00 -3.204766511917114258e-01 1.130323600769042969e+01 3.294827938079833984e+00 -1.459435343742370605e+00
1.034000000000000000e+03 6.715823364257812500e+01 7.084823608398437500e+00 -7.477763891220092773e-01 1.180727958679199219e+01 3.317850828170776367e+00 -1.928507447242736816e+00
1.035000000000000000e+03 6.818228912353515625e+01 6.475295543670654297e+00 -7.366721034049987793e-01 1.168966293334960938e+01 3.285897493362426758e+00 -3.052839756011962891e+00
1.036000000000000000e+03 7.584241485595703125e+01 3.501279354095458984e+00 -4.650714099407196045e-01 9.561988830566406250e+00 2.729075193405151367e+00 -3.023822307586669922e-01
1.037000000000000000e+03 7.709384918212890625e+01 2.436938524246215820e+00 -1.668467998504638672e+00 1.056689357757568359e+01 2.669527530670166016e+00 -2.261793136596679688e+00
1.038000000000000000e+03 6.451091766357421875e+01 -5.837616920471191406e-01 -2.450582027435302734e+00 4.545927524566650391e+00 6.286036968231201172e-01 4.752669811248779297e+00
1.039000000000000000e+03 5.992333221435546875e+01 2.404597282409667969e+00 -3.473391532897949219e+00 -4.230036586523056030e-02 -1.054707527160644531e+00 -1.435303449630737305e+00
1.040000000000000000e+03 6.070541763305664062e+01 1.379101276397705078e+00 -3.699337244033813477e+00 2.296924591064453125e+00 -4.207237958908081055e-01 4.814654588699340820e-01
1.041000000000000000e+03 6.927741241455078125e+01 3.854203224182128906e+00 3.279907464981079102e+00 1.912968063354492188e+01 6.722876071929931641e+00 -3.371274232864379883e+00
1.042000000000000000e+03 6.289963150024414062e+01 5.284691810607910156e+00 1.579664349555969238e-01 2.222189188003540039e+00 7.140467166900634766e-01 1.311712026596069336e+00
1.043000000000000000e+03 6.409454345703125000e+01 4.508997440338134766e+00 4.685047268867492676e-01 4.588127136230468750e+00 1.516989469528198242e+00 1.057189106941223145e+00
1.044000000000000000e+03 7.323635101318359375e+01 -6.944137573242187500e+00 3.383629918098449707e-01 8.132668495178222656e+00 2.541309356689453125e+00 2.266420610249042511e-02
1.045000000000000000e+03 7.362195587158203125e+01 -1.081309032440185547e+01 1.336678385734558105e+00 1.141487598419189453e+01 3.825466394424438477e+00 -2.273294925689697266e-01
1.046000000000000000e+03 7.623298645019531250e+01 -1.136474609375000000e+01 9.344058036804199219e-01 8.942877769470214844e+00 2.963185071945190430e+00 3.475628197193145752e-01
1.047000000000000000e+03 7.389775848388671875e+01 -1.487621307373046875e+01 1.375452518463134766e+00 9.353136062622070312e+00 3.218576669692993164e+00 -4.631862342357635498e-01
1.048000000000000000e+03 7.535374450683593750e+01 -1.552704906463623047e+01 1.800237298011779785e-01 8.993475914001464844e+00 2.752049922943115234e+00 -7.603893280029296875e-01
1.049000000000000000e+03 7.390679931640625000e+01 -1.730636787414550781e+01 -6.958548426628112793e-01 8.474805831909179688e+00 2.333685398101806641e+00 1.562523543834686279e-01
1.050000000000000000e+03 7.393938446044921875e+01 -1.212027072906494141e+01 1.203296780586242676e+00 1.092871189117431641e+01 3.639602422714233398e+00 3.091701567173004150e-01
1.051000000000000000e+03 7.551556110382080078e+00 -1.618316650390625000e+01 -3.058714233338832855e-02 -5.296247079968452454e-02 -2.506488375365734100e-02 -8.936672657728195190e-02
1.052000000000000000e+03 7.859625816345214844e+00 -1.774958419799804688e+01 -3.761904314160346985e-02 -6.577876955270767212e-02 -3.101934492588043213e-02 -1.038106530904769897e-01
1.053000000000000000e+03 1.369251060485839844e+01 -1.939174270629882812e+01 -5.205959081649780273e-02 -4.764230176806449890e-02 -2.991056814789772034e-02 -1.651026606559753418e-01
1.054000000000000000e+03 5.047080993652343750e+00 -1.923480033874511719e+01 -7.856166921555995941e-03 -9.942416101694107056e-02 -3.218409791588783264e-02 -8.057402074337005615e-02
1.055000000000000000e+03 1.410202789306640625e+01 -1.769606018066406250e+01 -7.870321720838546753e-02 -2.446134202182292938e-02 -3.094936721026897430e-02 -1.661305427551269531e-01
1.056000000000000000e+03 2.460222434997558594e+01 -1.720137214660644531e+01 -1.532427519559860229e-01 -2.149865962564945221e-02 -5.242242291569709778e-02 -1.036722362041473389e-01
1.057000000000000000e+03 2.727184867858886719e+01 -1.526664161682128906e+01 -2.424473166465759277e-01 -8.290625177323818207e-03 -7.522138208150863647e-02 1.010181731544435024e-03
1.058000000000000000e+03 2.200514984130859375e+01 -1.949080085754394531e+01 -9.095443785190582275e-02 -1.405420154333114624e-02 -3.150258958339691162e-02 -1.706891059875488281e-01
1.059000000000000000e+03 4.416443252563476562e+01 -2.022609519958496094e+01 -7.563378214836120605e-01 1.450251579284667969e+00 2.081741243600845337e-01 -2.250691056251525879e-01
1.060000000000000000e+03 6.235417175292968750e+01 -1.663125419616699219e+01 -3.524210751056671143e-01 5.210930824279785156e+00 1.457552909851074219e+00 -8.921760320663452148e-01
1.061000000000000000e+03 6.587658691406250000e+01 -1.598687458038330078e+01 -1.343683719635009766e+00 2.830507755279541016e+00 4.460472166538238525e-01 -8.603413701057434082e-01
1.062000000000000000e+03 6.231421279907226562e+01 -1.227335643768310547e+01 -2.971446216106414795e-01 6.427728176116943359e+00 1.839175105094909668e+00 8.827596157789230347e-02
1.063000000000000000e+03 6.384850311279296875e+01 -9.703106880187988281e+00 9.280388951301574707e-01 8.277812004089355469e+00 2.761755228042602539e+00 -1.991399407386779785e+00
1.064000000000000000e+03 6.228081130981445312e+01 -8.974929809570312500e+00 6.778460144996643066e-01 8.518604278564453125e+00 2.758935213088989258e+00 -1.797045953571796417e-02
1.065000000000000000e+03 5.724591827392578125e+01 -1.016561985015869141e+01 3.953869938850402832e-01 5.932054519653320312e+00 1.898232460021972656e+00 9.079290926456451416e-02
1.066000000000000000e+03 3.160960197448730469e+01 -1.319493865966796875e+01 -3.915882408618927002e-01 2.265501022338867188e-01 -4.951144754886627197e-02 1.368582248687744141e-01
1.067000000000000000e+03 2.755888366699218750e+01 -1.349321746826171875e+01 -3.012717366218566895e-01 -9.619836695492267609e-03 -9.326747059822082520e-02 8.588085323572158813e-02
1.068000000000000000e+03 2.981344223022460938e+01 -1.253411674499511719e+01 -3.447898030281066895e-01 1.503221094608306885e-01 -5.834031105041503906e-02 1.652691811323165894e-01
1.069000000000000000e+03 7.155931949615478516e+00 -1.281422710418701172e+01 -3.513161465525627136e-02 -2.767354622483253479e-02 -1.884154975414276123e-02 -5.501529574394226074e-02
1.070000000000000000e+03 1.290490722656250000e+01 -1.555922126770019531e+01 -9.012404829263687134e-02 -1.512370537966489792e-02 -3.157432749867439270e-02 -1.334207206964492798e-01
1.071000000000000000e+03 3.920650863647460938e+01 -8.720614433288574219e+00 -4.010028541088104248e-01 -8.588463664054870605e-01 -3.779547512531280518e-01 6.471194624900817871e-01
1.072000000000000000e+03 2.493766784667968750e+01 -2.348342895507812500e+00 7.309717684984207153e-02 -2.265541404485702515e-01 -4.603708535432815552e-02 -6.369542330503463745e-02
1.073000000000000000e+03 2.544625473022460938e+01 4.101856648921966553e-01 -2.034835889935493469e-02 -4.493155330419540405e-02 -1.958397403359413147e-02 -7.194432616233825684e-02
1.074000000000000000e+03 1.604406738281250000e+01 -9.992931365966796875e+00 -1.501909047365188599e-01 2.278080582618713379e-02 -3.822302818298339844e-02 -4.695826023817062378e-02
1.075000000000000000e+03 7.482201099395751953e+00 -1.006082344055175781e+01 -3.839148208498954773e-02 -1.296239718794822693e-02 -1.540616340935230255e-02 -3.321430087089538574e-02
1.076000000000000000e+03 1.249035358428955078e+01 -1.080977535247802734e+01 -9.702906012535095215e-02 7.162909489125013351e-03 -2.695984579622745514e-02 -5.803920701146125793e-02
1.077000000000000000e+03 3.398742294311523438e+01 -1.161250591278076172e+01 -1.584087908267974854e-01 7.074929773807525635e-02 -2.629784680902957916e-02 3.235384821891784668e-02
1.078000000000000000e+03 7.009217834472656250e+01 1.744930267333984375e+01 8.538181781768798828e-01 7.152918815612792969e+00 2.402021169662475586e+00 7.962102890014648438e-01
1.079000000000000000e+03 7.479242706298828125e+01 1.435071086883544922e+01 1.178494453430175781e+00 5.150335788726806641e+00 1.898649096488952637e+00 -8.992300629615783691e-01
1.080000000000000000e+03 6.378187561035156250e+01 1.408294200897216797e+01 4.629611015319824219e+00 3.045905828475952148e+00 2.302654981613159180e+00 -3.047798156738281250e+00
1.081000000000000000e+03 6.515371704101562500e+01 1.648128890991210938e+01 1.183624982833862305e+00 7.340889930725097656e+00 2.557354450225830078e+00 -1.975432872772216797e+00
1.082000000000000000e+03 6.324892044067382812e+01 1.758894538879394531e+01 1.572342276573181152e+00 5.066228389739990234e+00 1.991571307182312012e+00 -1.097274899482727051e+00
1.083000000000000000e+03 6.145305252075195312e+01 1.936757087707519531e+01 7.739157676696777344e-01 4.985304832458496094e+00 1.727766156196594238e+00 -5.051038861274719238e-01
1.084000000000000000e+03 6.071849441528320312e+01 2.050515174865722656e+01 4.824801683425903320e-01 4.904184818267822266e+00 1.615999579429626465e+00 -2.876477241516113281e-01
1.085000000000000000e+03 5.821744918823242188e+01 1.602526855468750000e+01 6.556134223937988281e-01 4.740260601043701172e+00 1.618762254714965820e+00 1.818611264228820801e+00
1.086000000000000000e+03 5.919647979736328125e+01 1.600161552429199219e+01 1.348854899406433105e+00 3.890236377716064453e+00 1.571727275848388672e+00 1.692537903785705566e+00
1.087000000000000000e+03 4.656222534179687500e+01 1.755093193054199219e+01 -8.650411963462829590e-01 3.272419050335884094e-02 -2.496950924396514893e-01 -4.705679789185523987e-02
1.088000000000000000e+03 6.577271270751953125e+01 1.030263805389404297e+01 1.123759984970092773e+00 2.168885612487792969e+01 6.843784809112548828e+00 2.956979513168334961e+00
1.089000000000000000e+03 6.552642059326171875e+01 1.332229423522949219e+01 5.113183021545410156e+00 1.513714027404785156e+01 6.075097084045410156e+00 -4.644440174102783203e+00
1.090000000000000000e+03 5.133460617065429688e+01 4.643964767456054688e+00 4.125746726989746094e+00 5.221846103668212891e+00 2.804277896881103516e+00 1.774504184722900391e+00
1.091000000000000000e+03 5.106780624389648438e+01 3.760738134384155273e+00 3.830812454223632812e+00 4.911269187927246094e+00 2.622624397277832031e+00 2.110941648483276367e+00
1.092000000000000000e+03 4.615287399291992188e+01 4.823724746704101562e+00 -4.087119996547698975e-01 -1.956575632095336914e+00 -7.095862627029418945e-01 -1.177408456802368164e+00
1.093000000000000000e+03 1.655872154235839844e+01 -8.024753570556640625e+00 -1.072297394275665283e-01 1.286009699106216431e-02 -2.831089310348033905e-02 1.217980519868433475e-03
1.094000000000000000e+03 8.323655128479003906e+00 -5.180860996246337891e+00 -1.390902325510978699e-02 -3.510452341288328171e-03 -5.225842818617820740e-03 -3.878698451444506645e-03
1.095000000000000000e+03 1.196252822875976562e+01 -5.966846466064453125e+00 -3.887769952416419983e-02 9.436203981749713421e-04 -1.138022355735301971e-02 -5.873004905879497528e-03
1.096000000000000000e+03 8.813470840454101562e+00 -1.797649621963500977e+00 5.046935286372900009e-03 -1.698017586022615433e-03 1.004675286822021008e-03 9.674371103756129742e-04
1.097000000000000000e+03 9.535903930664062500e+00 -2.563460159301757812e+01 4.529244732111692429e-03 -1.313244849443435669e-01 -3.803857043385505676e-02 -1.382680386304855347e-01
1.098000000000000000e+03 5.385687351226806641e+00 -2.231373596191406250e+01 -2.397925709374248981e-05 -1.385999023914337158e-01 -4.158716276288032532e-02 -9.903260320425033569e-02
1.099000000000000000e+03 1.409652137756347656e+01 -2.199997138977050781e+01 -1.666304655373096466e-02 -6.259310245513916016e-02 -2.377684414386749268e-02 -1.769632846117019653e-01
1.100000000000000000e+03 1.829771041870117188e+01 -1.948439979553222656e+01 -6.504447758197784424e-02 -2.890854142606258392e-02 -2.818590588867664337e-02 -1.946273297071456909e-01
1.101000000000000000e+03 2.420797348022460938e+01 -2.311365699768066406e+01 -1.369031611829996109e-02 5.643442645668983459e-02 1.282323244959115982e-02 -1.663327366113662720e-01
1.102000000000000000e+03 2.638155937194824219e+01 -2.154615402221679688e+01 -5.553372576832771301e-02 8.919811993837356567e-02 1.009931787848472595e-02 -1.363299936056137085e-01
1.103000000000000000e+03 3.275402450561523438e+01 -2.117381858825683594e+01 -1.073764637112617493e-01 2.516760826110839844e-01 4.328988119959831238e-02 -2.677594684064388275e-02
1.104000000000000000e+03 4.843156051635742188e+01 -2.383813667297363281e+01 -1.997763067483901978e-01 1.142435550689697266e+00 2.827977836132049561e-01 -8.017314970493316650e-02
1.105000000000000000e+03 4.559035873413085938e+01 -2.633690834045410156e+01 1.543310936540365219e-02 1.262327313423156738e+00 3.833281099796295166e-01 -1.346783638000488281e-01
1.106000000000000000e+03 7.115976715087890625e+01 -2.410913276672363281e+01 1.667486280202865601e-01 5.552039146423339844e+00 1.715636372566223145e+00 5.415796041488647461e-01
1.107000000000000000e+03 6.767523956298828125e+01 -2.348401069641113281e+01 3.653948903083801270e-01 4.381705284118652344e+00 1.424129962921142578e+00 -1.192743927240371704e-01
1.108000000000000000e+03 7.562294006347656250e+01 -2.027890014648437500e+01 -4.185208082199096680e-01 8.191583633422851562e+00 2.331918716430664062e+00 2.273456305265426636e-01
1.109000000000000000e+03 9.708465576171875000e+00 -2.836843109130859375e+01 2.948489040136337280e-02 -1.465036273002624512e-01 -3.510562330484390259e-02 -1.361173391342163086e-01
1.110000000000000000e+03 6.477711677551269531e+00 -2.675198173522949219e+01 1.113980170339345932e-02 -1.818039715290069580e-01 -5.119924992322921753e-02 -1.058719903230667114e-01
1.111000000000000000e+03 1.299008655548095703e+01 -2.354151535034179688e+01 -6.496306508779525757e-03 -7.829990237951278687e-02 -2.543886192142963409e-02 -1.712175160646438599e-01
1.112000000000000000e+03 1.562296581268310547e+01 -2.319082450866699219e+01 -8.170426823198795319e-03 -5.142117291688919067e-02 -1.787748001515865326e-02 -1.876021623611450195e-01
1.113000000000000000e+03 1.950874519348144531e+01 -2.509598922729492188e+01 3.375490382313728333e-02 -1.470524445176124573e-02 5.714898463338613510e-03 -1.902754604816436768e-01
1.114000000000000000e+03 2.700484848022460938e+01 -2.926132583618164062e+01 1.528455018997192383e-01 1.608372330665588379e-01 9.410481899976730347e-02 -1.531949639320373535e-01
1.115000000000000000e+03 3.073926162719726562e+01 -2.433251762390136719e+01 3.498716512694954872e-03 2.603437602519989014e-01 7.915274053812026978e-02 -1.168702319264411926e-01
1.116000000000000000e+03 3.461589813232421875e+01 -2.260148811340332031e+01 -4.624141752719879150e-02 3.496451079845428467e-01 9.102110564708709717e-02 -4.867004975676536560e-02
1.117000000000000000e+03 3.864218902587890625e+01 -2.508028030395507812e+01 -5.043925717473030090e-02 7.890163064002990723e-01 2.215731143951416016e-01 -2.580724470317363739e-02
1.118000000000000000e+03 4.917775726318359375e+01 -2.850020217895507812e+01 2.089350372552871704e-01 1.571729898452758789e+00 5.341994762420654297e-01 6.185216456651687622e-02
1.119000000000000000e+03 5.032280349731445312e+01 -2.459220123291015625e+01 -4.491011798381805420e-02 1.334958672523498535e+00 3.870145678520202637e-01 1.991723328828811646e-01
1.120000000000000000e+03 5.413314056396484375e+01 -2.617247962951660156e+01 -7.512216269969940186e-02 2.483881473541259766e+00 7.226278185844421387e-01 6.018140912055969238e-01
1.121000000000000000e+03 5.942490005493164062e+01 -2.238167572021484375e+01 -7.203974723815917969e-01 4.929879188537597656e+00 1.262844562530517578e+00 -3.483906984329223633e-01
1.122000000000000000e+03 6.967530059814453125e+01 -2.808905220031738281e+01 2.917081415653228760e-01 5.422810077667236328e+00 1.714355468750000000e+00 2.253755778074264526e-01
1.123000000000000000e+03 7.554169464111328125e+01 -2.361090660095214844e+01 -1.192987486720085144e-01 7.620223045349121094e+00 2.250277280807495117e+00 4.393467903137207031e-01
1.124000000000000000e+03 2.309331178665161133e+00 -2.354599189758300781e+01 -4.094151780009269714e-03 -1.826139241456985474e-01 -5.601242184638977051e-02 -4.828940331935882568e-02
1.125000000000000000e+03 8.072216033935546875e+00 -3.315395736694335938e+01 3.456179797649383545e-02 -2.085987627506256104e-01 -5.221108719706535339e-02 -9.361414611339569092e-02
1.126000000000000000e+03 5.212120056152343750e+00 -3.082840728759765625e+01 1.364396885037422180e-02 -2.453551590442657471e-01 -6.951335817575454712e-02 -8.248252421617507935e-02
1.127000000000000000e+03 1.813251304626464844e+01 -2.938597488403320312e+01 9.116051346063613892e-02 -3.714072704315185547e-02 1.620593667030334473e-02 -1.665067672729492188e-01
1.128000000000000000e+03 3.739397048950195312e+01 -2.698725128173828125e+01 1.696235872805118561e-02 6.639725565910339355e-01 2.042804658412933350e-01 -5.832728371024131775e-02
1.129000000000000000e+03 4.526374435424804688e+01 -3.112459564208984375e+01 3.186369538307189941e-01 1.258897066116333008e+00 4.732601940631866455e-01 -4.689829796552658081e-02
1.130000000000000000e+03 6.126042556762695312e+01 -2.749227142333984375e+01 -1.670113205909729004e-01 4.316346645355224609e+00 1.244800567626953125e+00 -1.112230420112609863e-01
1.131000000000000000e+03 6.962860107421875000e+01 -2.998980140686035156e+01 2.182989716529846191e-01 5.550859451293945312e+00 1.730747461318969727e+00 1.802639514207839966e-01
1.132000000000000000e+03 6.977720642089843750e+01 -3.215983581542968750e+01 2.221550494432449341e-01 5.709829330444335938e+00 1.779595255851745605e+00 2.080621123313903809e-01
1.133000000000000000e+03 7.416885375976562500e+01 -2.981953430175781250e+01 1.320078670978546143e-01 6.834335327148437500e+00 2.089902877807617188e+00 3.012490570545196533e-01
1.134000000000000000e+03 2.470044374465942383e+00 -2.909191703796386719e+01 -2.130788750946521759e-03 -2.785770297050476074e-01 -8.421234786510467529e-02 -4.628280177712440491e-02
1.135000000000000000e+03 7.810552215576171875e+01 -2.899428367614746094e+01 4.263458773493766785e-02 8.055369377136230469e+00 2.429401159286499023e+00 1.733130067586898804e-01
1.136000000000000000e+03 2.595217943191528320e+00 -3.338385009765625000e+01 1.196744199842214584e-02 -3.396173715591430664e-01 -9.829498082399368286e-02 -3.774216398596763611e-02
1.137000000000000000e+03 1.417998886108398438e+01 -3.261508178710937500e+01 8.296054601669311523e-02 -1.099854186177253723e-01 -8.107462897896766663e-03 -1.213415041565895081e-01
1.138000000000000000e+03 3.824616622924804688e+01 -3.092456817626953125e+01 1.856795549392700195e-01 7.228547334671020508e-01 2.725602984428405762e-01 -7.971051335334777832e-02
1.139000000000000000e+03 5.901115798950195312e+01 -3.009229087829589844e+01 -7.932759821414947510e-02 3.760061025619506836e+00 1.104220032691955566e+00 9.536086022853851318e-02
1.140000000000000000e+03 6.153403091430664062e+01 -3.197420883178710938e+01 1.370170712471008301e-01 4.155038356781005859e+00 1.287616610527038574e+00 6.132823973894119263e-02
1.141000000000000000e+03 6.521121978759765625e+01 -3.111089324951171875e+01 1.982528865337371826e-01 4.760159969329833984e+00 1.487523794174194336e+00 3.404906764626502991e-02
1.142000000000000000e+03 2.477623224258422852e+00 -3.049403762817382812e+01 6.700808182358741760e-03 -3.005566298961639404e-01 -8.815674483776092529e-02 -4.550798237323760986e-02
1.143000000000000000e+03 8.952623367309570312e+00 -3.825508117675781250e+01 5.501554533839225769e-02 -2.259252071380615234e-01 -5.127289891242980957e-02 -4.308581724762916565e-02
1.144000000000000000e+03 4.348519515991210938e+01 -3.615616226196289062e+01 4.355385303497314453e-01 1.178475260734558105e+00 4.842041432857513428e-01 -2.762992866337299347e-02
1.145000000000000000e+03 7.505002593994140625e+01 -3.465338516235351562e+01 4.765005409717559814e-02 6.977898120880126953e+00 2.107664346694946289e+00 1.505276113748550415e-01
1.146000000000000000e+03 2.616689682006835938e+00 -3.478482055664062500e+01 5.643517244607210159e-03 -3.614480197429656982e-01 -1.067413538694381714e-01 -2.673741430044174194e-02
1.147000000000000000e+03 3.294334030151367188e+01 -3.694047164916992188e+01 3.479189872741699219e-01 4.426196515560150146e-01 2.371615916490554810e-01 -6.936846673488616943e-02
1.148000000000000000e+03 6.064673233032226562e+01 -3.806481552124023438e+01 2.757132053375244141e-01 3.888639688491821289e+00 1.249305844306945801e+00 8.022887259721755981e-02
1.149000000000000000e+03 7.154676818847656250e+01 2.056613540649414062e+01 2.000856697559356689e-01 6.583433628082275391e+00 2.035055875778198242e+00 5.592359900474548340e-01
1.150000000000000000e+03 7.286006927490234375e+01 2.223289680480957031e+01 2.122973836958408356e-02 6.372164249420166016e+00 1.918018221855163574e+00 5.471833348274230957e-01
1.151000000000000000e+03 5.202030181884765625e+01 2.131997489929199219e+01 -1.844366639852523804e-01 2.588585853576660156e+00 7.212447524070739746e-01 -1.046839356422424316e+00
1.152000000000000000e+03 4.897831726074218750e+01 1.919106292724609375e+01 -1.826175302267074585e-01 6.725525259971618652e-01 1.469804942607879639e-01 -8.002514243125915527e-01
1.153000000000000000e+03 4.836907196044921875e+01 2.081357574462890625e+01 -4.659602418541908264e-02 8.530299663543701172e-01 2.419301867485046387e-01 -5.938662290573120117e-01
1.154000000000000000e+03 4.452818679809570312e+01 2.039822006225585938e+01 -2.721811830997467041e-01 3.914459943771362305e-01 3.577944263815879822e-02 -1.644812524318695068e-02
1.155000000000000000e+03 4.132542800903320312e+01 1.947970962524414062e+01 -5.269603729248046875e-01 3.182516992092132568e-01 -6.261260807514190674e-02 1.528097838163375854e-01
1.156000000000000000e+03 4.251115036010742188e+01 1.847044372558593750e+01 -7.080525755882263184e-01 3.415306806564331055e-01 -1.099565699696540833e-01 1.208099797368049622e-01
1.157000000000000000e+03 3.618618392944335938e+01 1.772353744506835938e+01 -6.811559796333312988e-01 -5.107678100466728210e-02 -2.196698188781738281e-01 1.577051579952239990e-01
1.158000000000000000e+03 3.307240676879882812e+01 1.602497291564941406e+01 -9.072167873382568359e-01 -1.917391717433929443e-01 -3.296867907047271729e-01 3.466077744960784912e-01
1.159000000000000000e+03 2.913887786865234375e+01 1.664780807495117188e+01 -6.268332004547119141e-01 5.463457107543945312e-02 -1.716595888137817383e-01 3.085092306137084961e-01
1.160000000000000000e+03 7.930222320556640625e+01 1.670750045776367188e+01 -2.474630810320377350e-02 5.224369525909423828e+00 1.559886932373046875e+00 -6.592674553394317627e-02
1.161000000000000000e+03 7.188861083984375000e+01 2.583335494995117188e+01 -1.856489330530166626e-01 6.345264911651611328e+00 1.847884893417358398e+00 4.024885892868041992e-01
1.162000000000000000e+03 7.464215087890625000e+01 2.370613861083984375e+01 -5.128696188330650330e-02 6.203917026519775391e+00 1.845789074897766113e+00 5.020841360092163086e-01
1.163000000000000000e+03 5.740590667724609375e+01 1.951707649230957031e+01 -3.465189784765243530e-02 4.706784725189208984e+00 1.401639819145202637e+00 -6.786867976188659668e-02
1.164000000000000000e+03 5.691727828979492188e+01 2.308874130249023438e+01 -9.540627151727676392e-02 4.174995422363281250e+00 1.223876833915710449e+00 -5.935262441635131836e-01
1.165000000000000000e+03 5.388282775878906250e+01 2.641152954101562500e+01 1.247265376150608063e-02 3.096451282501220703e+00 9.326772093772888184e-01 -7.246478796005249023e-01
1.166000000000000000e+03 5.003022766113281250e+01 3.112954139709472656e+01 2.513467967510223389e-01 2.253128767013549805e+00 7.513426542282104492e-01 -4.430559277534484863e-01
1.167000000000000000e+03 4.732801437377929688e+01 3.240748214721679688e+01 3.649003803730010986e-01 1.765312671661376953e+00 6.390639543533325195e-01 -2.944928109645843506e-01
1.168000000000000000e+03 5.035154342651367188e+01 2.491884613037109375e+01 1.324350982904434204e-01 2.023409843444824219e+00 6.467534899711608887e-01 -7.344279885292053223e-01
1.169000000000000000e+03 4.526423263549804688e+01 2.367602157592773438e+01 9.845411777496337891e-02 7.033861875534057617e-01 2.405520826578140259e-01 -1.787021458148956299e-01
1.170000000000000000e+03 3.204315185546875000e+01 2.174316596984863281e+01 -2.452473640441894531e-01 -1.215507928282022476e-02 -7.722073048353195190e-02 3.085210025310516357e-01
1.171000000000000000e+03 2.869600677490234375e+01 2.011145973205566406e+01 -4.326927065849304199e-01 1.409609802067279816e-03 -1.293849349021911621e-01 2.870029807090759277e-01
1.172000000000000000e+03 2.642412185668945312e+01 2.082387542724609375e+01 -3.566637337207794189e-01 -7.831692695617675781e-02 -1.304941922426223755e-01 2.332141399383544922e-01
1.173000000000000000e+03 2.244128227233886719e+01 2.059604644775390625e+01 -2.735071480274200439e-01 -1.190231814980506897e-01 -1.177591010928153992e-01 2.570026814937591553e-01
1.174000000000000000e+03 1.821171951293945312e+01 1.862691497802734375e+01 -2.615401744842529297e-01 4.502793028950691223e-02 -6.495366990566253662e-02 1.229828745126724243e-01
1.175000000000000000e+03 1.641011047363281250e+01 2.140209960937500000e+01 -1.846830993890762329e-01 5.394924082793295383e-04 -5.524308234453201294e-02 1.995817571878433228e-01
1.176000000000000000e+03 1.309536361694335938e+01 2.164164352416992188e+01 -1.065335646271705627e-01 -9.720730595290660858e-03 -3.487629070878028870e-02 1.401122063398361206e-01
1.177000000000000000e+03 8.918816566467285156e+00 2.134447479248046875e+01 -5.287917703390121460e-02 -3.861561790108680725e-02 -2.744843810796737671e-02 8.887898176908493042e-02
1.178000000000000000e+03 4.641374111175537109e+00 2.186088943481445312e+01 -1.349000725895166397e-02 -7.677128911018371582e-02 -2.707839012145996094e-02 5.146014690399169922e-02
1.179000000000000000e+03 6.810860037803649902e-01 2.054991912841796875e+01 2.648560621310025454e-04 -6.705937534570693970e-02 -2.003835700452327728e-02 6.221219431608915329e-03
1.180000000000000000e+03 7.776269531250000000e+01 2.086348915100097656e+01 -1.732964813709259033e-02 5.656175136566162109e+00 1.691653728485107422e+00 2.328588515520095825e-01
1.181000000000000000e+03 7.076757812500000000e+01 2.953236389160156250e+01 -2.415336221456527710e-01 6.146800041198730469e+00 1.771579980850219727e+00 2.883387804031372070e-01
1.182000000000000000e+03 7.477616119384765625e+01 2.514563369750976562e+01 -4.810959100723266602e-02 6.229004859924316406e+00 1.854268670082092285e+00 4.460443556308746338e-01
1.183000000000000000e+03 6.873323059082031250e+01 2.427484703063964844e+01 -2.265561521053314209e-01 6.489798545837402344e+00 1.878972768783569336e+00 2.710485458374023438e-01
1.184000000000000000e+03 6.356821060180664062e+01 2.323185729980468750e+01 -6.628231704235076904e-02 5.870317459106445312e+00 1.741210460662841797e+00 -3.992130160331726074e-01
1.185000000000000000e+03 5.840487289428710938e+01 2.301464843750000000e+01 -3.072347864508628845e-02 4.551990985870361328e+00 1.356380224227905273e+00 -5.105925202369689941e-01
1.186000000000000000e+03 4.222453689575195312e+01 2.805410575866699219e+01 3.182941675186157227e-01 6.939171552658081055e-01 3.036634027957916260e-01 -9.506648033857345581e-02
1.187000000000000000e+03 3.569988250732421875e+01 2.488834190368652344e+01 2.745685912668704987e-02 1.357376277446746826e-01 4.895834624767303467e-02 1.820364892482757568e-01
1.188000000000000000e+03 3.458027267456054688e+01 2.324257469177246094e+01 -1.094085425138473511e-01 4.836384952068328857e-02 -1.831340789794921875e-02 2.528928518295288086e-01
1.189000000000000000e+03 2.939717102050781250e+01 2.548096656799316406e+01 -2.282617613673210144e-02 -4.534009099006652832e-02 -2.044988051056861877e-02 2.695315182209014893e-01
1.190000000000000000e+03 2.479989814758300781e+01 2.413709068298339844e+01 -1.039222106337547302e-01 -1.147970259189605713e-01 -6.561577320098876953e-02 2.798721790313720703e-01
1.191000000000000000e+03 1.934248733520507812e+01 2.565232849121093750e+01 -4.300794005393981934e-02 -9.713491052389144897e-02 -4.204285517334938049e-02 2.642493247985839844e-01
1.192000000000000000e+03 1.300376796722412109e+01 2.413119697570800781e+01 -7.724985480308532715e-02 -4.721112176775932312e-02 -3.733829036355018616e-02 1.680599451065063477e-01
1.193000000000000000e+03 1.145357990264892578e+01 2.352591323852539062e+01 -6.617021560668945312e-02 -4.498261958360671997e-02 -3.334585204720497131e-02 1.410282701253890991e-01
1.194000000000000000e+03 9.763088226318359375e+00 2.478281974792480469e+01 -3.748379647731781006e-02 -7.317763566970825195e-02 -3.319843113422393799e-02 1.306958496570587158e-01
1.195000000000000000e+03 5.095137119293212891e+00 2.449474906921386719e+01 -1.242817565798759460e-02 -1.020412072539329529e-01 -3.434081375598907471e-02 7.091481238603591919e-02
1.196000000000000000e+03 6.726302504539489746e-01 2.338310432434082031e+01 -1.619067770661786199e-04 -1.008670330047607422e-01 -3.030868247151374817e-02 9.717027656733989716e-03
1.197000000000000000e+03 7.927486419677734375e+01 2.368574142456054688e+01 9.028153121471405029e-02 5.754363536834716797e+00 1.753393530845642090e+00 1.040107682347297668e-01
1.198000000000000000e+03 7.259227752685546875e+01 3.272309494018554688e+01 -1.533312052488327026e-01 6.169380664825439453e+00 1.804814815521240234e+00 2.131462842226028442e-01
1.199000000000000000e+03 7.431837463378906250e+01 3.095137977600097656e+01 -1.410944461822509766e-01 6.317725658416748047e+00 1.852989315986633301e+00 2.745261788368225098e-01
1.200000000000000000e+03 6.851461029052734375e+01 2.838109397888183594e+01 -2.936496138572692871e-01 6.059215545654296875e+00 1.729669809341430664e+00 1.903095096349716187e-01
1.201000000000000000e+03 6.349761962890625000e+01 3.004417037963867188e+01 -2.477894276380538940e-01 5.291439056396484375e+00 1.513094902038574219e+00 -2.150833606719970703e-01
1.202000000000000000e+03 6.122197341918945312e+01 2.925434112548828125e+01 -2.032619267702102661e-01 4.904559612274169922e+00 1.410389304161071777e+00 -3.485934734344482422e-01
1.203000000000000000e+03 5.087124252319335938e+01 2.955085754394531250e+01 2.252550721168518066e-01 2.321015834808349609e+00 7.638812661170959473e-01 -5.249306559562683105e-01
1.204000000000000000e+03 4.168487548828125000e+01 3.026497840881347656e+01 3.985767066478729248e-01 7.361830472946166992e-01 3.404279053211212158e-01 -8.186347782611846924e-02
1.205000000000000000e+03 3.778641510009765625e+01 2.919500541687011719e+01 3.193171918392181396e-01 3.900667428970336914e-01 2.128151804208755493e-01 7.169234752655029297e-02
1.206000000000000000e+03 2.972068786621093750e+01 3.085941123962402344e+01 2.585403621196746826e-01 -8.841408416628837585e-03 7.490968704223632812e-02 1.970352530479431152e-01
1.207000000000000000e+03 1.809834289550781250e+01 2.831842231750488281e+01 3.117934800684452057e-02 -1.138566434383392334e-01 -2.480318956077098846e-02 2.360469996929168701e-01
1.208000000000000000e+03 1.585739707946777344e+01 2.867577934265136719e+01 2.730853855609893799e-02 -1.124184206128120422e-01 -2.553296647965908051e-02 2.097750455141067505e-01
1.209000000000000000e+03 1.213216400146484375e+01 2.543257904052734375e+01 -4.830399528145790100e-02 -7.066725939512252808e-02 -3.569137677550315857e-02 1.701399981975555420e-01
1.210000000000000000e+03 9.798576354980468750e+00 2.596204757690429688e+01 -2.919643372297286987e-02 -9.010118991136550903e-02 -3.578928858041763306e-02 1.414579451084136963e-01
1.211000000000000000e+03 5.254333019256591797e+00 3.000536727905273438e+01 4.879158455878496170e-03 -1.696882843971252441e-01 -4.944273829460144043e-02 8.016496151685714722e-02
1.212000000000000000e+03 6.976274847984313965e-01 2.759763145446777344e+01 -7.887980318628251553e-04 -1.723554432392120361e-01 -5.194327235221862793e-02 1.323488540947437286e-02
1.213000000000000000e+03 7.931930541992187500e+01 2.782472229003906250e+01 -6.347015500068664551e-02 6.313256740570068359e+00 1.874935865402221680e+00 8.197487890720367432e-02
1.214000000000000000e+03 7.378765869140625000e+01 3.373891830444335938e+01 -1.226817220449447632e-01 6.283143043518066406e+00 1.848138451576232910e+00 1.743511706590652466e-01
1.215000000000000000e+03 6.487069702148437500e+01 3.167772293090820312e+01 -2.709303200244903564e-01 5.425793647766113281e+00 1.546458959579467773e+00 -1.108714640140533447e-01
1.216000000000000000e+03 6.007313156127929688e+01 3.414242553710937500e+01 -1.142512261867523193e-01 4.435923576354980469e+00 1.296501755714416504e+00 -2.429481744766235352e-01
1.217000000000000000e+03 5.168580245971679688e+01 3.098228263854980469e+01 2.140904217958450317e-01 2.516936540603637695e+00 8.193081021308898926e-01 -5.231684446334838867e-01
1.218000000000000000e+03 3.898466491699218750e+01 3.281025695800781250e+01 4.516558051109313965e-01 5.962980389595031738e-01 3.143861591815948486e-01 1.716765807941555977e-03
1.219000000000000000e+03 5.422092437744140625e+00 3.334510803222656250e+01 1.547518651932477951e-02 -2.058036774396896362e-01 -5.709854885935783386e-02 7.151480019092559814e-02
1.220000000000000000e+03 7.135900259017944336e-01 3.041940307617187500e+01 -8.032431942410767078e-04 -2.250040024518966675e-01 -6.774217635393142700e-02 1.339058857411146164e-02
1.221000000000000000e+03 7.920461273193359375e+01 3.195886993408203125e+01 2.782891504466533661e-02 6.683177471160888672e+00 2.013301849365234375e+00 5.708758533000946045e-02
1.222000000000000000e+03 7.509201812744140625e+01 3.577999114990234375e+01 -1.141544952988624573e-01 6.388695240020751953e+00 1.882362246513366699e+00 1.408678442239761353e-01
1.223000000000000000e+03 6.947519683837890625e+01 3.592556762695312500e+01 -1.732632666826248169e-01 5.821091651916503906e+00 1.694348454475402832e+00 1.037391200661659241e-01
1.224000000000000000e+03 4.945006179809570312e+01 3.338440704345703125e+01 3.115068972110748291e-01 2.162361145019531250e+00 7.421604394912719727e-01 -3.483151793479919434e-01
1.225000000000000000e+03 4.557358264923095703e+00 3.523584747314453125e+01 2.029358781874179840e-02 -2.383427470922470093e-01 -6.541474908590316772e-02 5.576946213841438293e-02
1.226000000000000000e+03 6.545184254646301270e-01 3.462771987915039062e+01 3.938402980566024780e-03 -2.926288545131683350e-01 -8.660713583230972290e-02 8.816688321530818939e-03
1.227000000000000000e+03 5.868955993652343750e+01 3.696406555175781250e+01 -3.429456800222396851e-02 4.064042568206787109e+00 1.208924293518066406e+00 -2.037191689014434814e-01
1.228000000000000000e+03 7.944697737693786621e-01 3.732365798950195312e+01 4.433630034327507019e-03 -3.181508183479309082e-01 -9.411516040563583374e-02 2.669583773240447044e-03
1.229000000000000000e+03 7.892913818359375000e+01 3.756195831298828125e+01 1.121931895613670349e-02 6.897826671600341797e+00 2.072713851928710938e+00 2.750374749302864075e-02
1.230000000000000000e+03 3.061880588531494141e+00 1.339043045043945312e+01 8.991533104563131928e-05 -3.230647370219230652e-02 -9.664967656135559082e-03 8.376570418477058411e-03
1.231000000000000000e+03 3.708531856536865234e+00 9.031735420227050781e+00 5.727175157517194748e-03 -1.677757687866687775e-02 -3.315120469778776169e-03 1.831333711743354797e-02
1.232000000000000000e+03 7.748449802398681641e+00 1.143782901763916016e+01 2.565910574048757553e-03 -8.711432106792926788e-03 -1.843656529672443867e-03 8.750727400183677673e-03
1.233000000000000000e+03 1.044351673126220703e+01 9.779251098632812500e+00 2.894561924040317535e-02 4.844031482934951782e-02 2.321578003466129303e-02 2.862052619457244873e-02
1.234000000000000000e+03 6.978240013122558594e+00 1.251074981689453125e+01 1.316636987030506134e-02 -1.309348177164793015e-02 2.186653364333324134e-05 1.384874247014522552e-02
1.235000000000000000e+03 1.229200649261474609e+01 1.353293228149414062e+01 -1.433246582746505737e-02 2.887803316116333008e-02 4.363670479506254196e-03 2.343284152448177338e-02
1.236000000000000000e+03 5.942463397979736328e+00 8.800540924072265625e+00 1.168461609631776810e-02 -2.331082336604595184e-02 -3.487862180918455124e-03 2.374221384525299072e-02
1.237000000000000000e+03 6.603147888183593750e+01 -1.307829761505126953e+01 -2.361594587564468384e-01 1.317100644111633301e+00 3.242823481559753418e-01 -5.085534453392028809e-01
1.238000000000000000e+03 6.981358337402343750e+01 7.003975868225097656e+00 -4.415530860424041748e-01 7.539831638336181641e+00 2.129483461380004883e+00 4.106528759002685547e-01
1.239000000000000000e+03 6.995944213867187500e+01 -6.439770221710205078e+00 9.972932338714599609e-01 3.164181947708129883e+00 1.248442530632019043e+00 -2.056057929992675781e+00
1.240000000000000000e+03 7.083729553222656250e+01 -7.511517524719238281e+00 1.973146915435791016e+00 5.672313690185546875e+00 2.293638229370117188e+00 -2.976807594299316406e+00
1.241000000000000000e+03 7.212196350097656250e+01 -9.975573539733886719e+00 1.384388923645019531e+00 1.373723602294921875e+01 4.536487579345703125e+00 -1.923983693122863770e+00
1.242000000000000000e+03 6.523388671875000000e+01 -1.206074428558349609e+01 5.254927277565002441e-01 2.670954704284667969e+00 9.589342474937438965e-01 -1.207709074020385742e+00
1.243000000000000000e+03 6.446082305908203125e+01 -1.094928264617919922e+01 9.356898665428161621e-01 5.229208946228027344e+00 1.849469661712646484e+00 -1.933196067810058594e+00
1.244000000000000000e+03 6.314942550659179688e+01 -7.063251972198486328e+00 3.928321897983551025e-01 1.159706497192382812e+01 3.596969127655029297e+00 -6.760421991348266602e-01
1.245000000000000000e+03 5.418696975708007812e+01 -9.069939613342285156e+00 5.111582279205322266e-01 3.158687829971313477e+00 1.100953817367553711e+00 -1.079511404037475586e+00
1.246000000000000000e+03 5.613426589965820312e+01 -1.592792797088623047e+01 -6.658085435628890991e-02 1.054722023010253906e+01 3.144191741943359375e+00 -3.112313151359558105e-01
1.247000000000000000e+03 5.100970840454101562e+01 -1.659574127197265625e+01 -1.331202745437622070e+00 -7.386006116867065430e-01 -6.209410429000854492e-01 7.894215583801269531e-01
1.248000000000000000e+03 4.644781875610351562e+01 -1.105161285400390625e+01 4.915402457118034363e-02 1.268002986907958984e+00 3.951471149921417236e-01 -2.030698210000991821e-01
1.249000000000000000e+03 4.476921844482421875e+01 -7.138342857360839844e+00 9.882132709026336670e-02 4.849575519561767578e+00 1.484519124031066895e+00 -7.809541225433349609e-01
1.250000000000000000e+03 3.783296585083007812e+01 -6.342733860015869141e+00 3.840173035860061646e-02 -8.696818947792053223e-01 -2.493840605020523071e-01 3.466145396232604980e-01
1.251000000000000000e+03 3.981557464599609375e+01 -9.913787841796875000e+00 -3.456771075725555420e-01 -2.398179471492767334e-01 -1.756485104560852051e-01 5.195046663284301758e-01
1.252000000000000000e+03 3.006617927551269531e+01 -6.395257472991943359e+00 7.525679469108581543e-02 4.130368828773498535e-01 1.464881002902984619e-01 -1.981858760118484497e-01
1.253000000000000000e+03 3.009346961975097656e+01 -3.893938064575195312e+00 5.067183449864387512e-02 4.163044393062591553e-01 1.400928795337677002e-01 -1.861866861581802368e-01
1.254000000000000000e+03 6.515014648437500000e+01 8.522500991821289062e+00 1.906974196434020996e+00 1.308367824554443359e+01 4.497195720672607422e+00 3.415143489837646484e+00
1.255000000000000000e+03 6.365283584594726562e+01 6.408989429473876953e+00 1.065827608108520508e+00 3.958370923995971680e+00 1.507259607315063477e+00 1.276379704475402832e+00
1.256000000000000000e+03 6.103168869018554688e+01 3.226363182067871094e+00 -1.896317481994628906e+00 4.624374210834503174e-01 -4.301640093326568604e-01 -1.665241569280624390e-01
1.257000000000000000e+03 5.846602630615234375e+01 5.776732787489891052e-02 -2.501673936843872070e+00 3.231399059295654297e-01 -6.535602211952209473e-01 -1.029818654060363770e+00
1.258000000000000000e+03 5.533206176757812500e+01 7.176403522491455078e+00 3.365784168243408203e+00 1.559334373474121094e+01 5.687738418579101562e+00 7.698433876037597656e+00
1.259000000000000000e+03 5.636559295654296875e+01 8.456356048583984375e+00 -1.081272885203361511e-01 8.339332580566406250e+00 2.469361782073974609e+00 2.953955173492431641e+00
1.260000000000000000e+03 5.167580795288085938e+01 1.310949039459228516e+01 2.626088261604309082e-01 4.686012566089630127e-01 2.193630337715148926e-01 -7.756931334733963013e-02
1.261000000000000000e+03 5.223689270019531250e+01 1.304418373107910156e+01 7.294049859046936035e-01 7.545481324195861816e-01 4.451859295368194580e-01 -5.472432374954223633e-01
1.262000000000000000e+03 5.374236297607421875e+01 1.287091350555419922e+01 1.638880252838134766e+00 3.850865125656127930e+00 1.646923542022705078e+00 -2.755468368530273438e+00
1.263000000000000000e+03 5.415145874023437500e+01 1.281762886047363281e+01 1.591082572937011719e+00 6.190179824829101562e+00 2.334378719329833984e+00 -3.636154890060424805e+00
1.264000000000000000e+03 5.513444137573242188e+01 1.280224800109863281e+01 -6.324521303176879883e-01 1.372364425659179688e+01 3.927357673645019531e+00 -1.795962929725646973e+00
1.265000000000000000e+03 5.536407470703125000e+01 1.280159473419189453e+01 -7.973940372467041016e-01 1.463213825225830078e+01 4.150423526763916016e+00 -3.332794904708862305e-01
1.266000000000000000e+03 5.990799713134765625e+01 1.226281738281250000e+01 1.236506223678588867e+00 2.548587918281555176e-01 4.474095106124877930e-01 6.345725059509277344e-01
1.267000000000000000e+03 5.671773147583007812e+01 1.154056358337402344e+01 7.483892917633056641e+00 8.650797843933105469e+00 4.840407371520996094e+00 5.889278888702392578e+00
1.268000000000000000e+03 5.677372360229492188e+01 1.131324100494384766e+01 7.742133617401123047e+00 7.337216377258300781e+00 4.523805141448974609e+00 4.861676216125488281e+00
1.269000000000000000e+03 5.676450347900390625e+01 1.109741115570068359e+01 7.809654235839843750e+00 6.698843002319335938e+00 4.352549076080322266e+00 3.866518259048461914e+00
1.270000000000000000e+03 5.663028717041015625e+01 1.050586032867431641e+01 4.893869400024414062e+00 8.924459457397460938e+00 4.145498752593994141e+00 1.273467183113098145e+00
1.271000000000000000e+03 5.374494934082031250e+01 9.561550140380859375e+00 3.758404254913330078e-01 6.599597930908203125e+00 2.092631578445434570e+00 5.136448383331298828e+00
1.272000000000000000e+03 5.212147521972656250e+01 9.591922760009765625e+00 -9.405882954597473145e-01 2.047636270523071289e+00 3.321143984794616699e-01 -2.724685370922088623e-01
1.273000000000000000e+03 5.219068908691406250e+01 9.262851715087890625e+00 -6.927129030227661133e-01 2.517485141754150391e+00 5.474317073822021484e-01 -7.432375103235244751e-02
1.274000000000000000e+03 5.110141754150390625e+01 9.467058181762695312e+00 -1.804850459098815918e+00 9.217143654823303223e-01 -2.649407982826232910e-01 -1.631475567817687988e+00
1.275000000000000000e+03 4.994605636596679688e+01 9.429910659790039062e+00 -1.965631961822509766e+00 -2.412259101867675781e+00 -1.313367366790771484e+00 -2.269351005554199219e+00
1.276000000000000000e+03 4.702317428588867188e+01 5.862757682800292969e+00 -1.281446576118469238e+00 -3.076730728149414062e+00 -1.307453155517578125e+00 -2.016118288040161133e+00
1.277000000000000000e+03 4.444800567626953125e+01 2.558003425598144531e+00 -5.282595753669738770e-01 -6.568746566772460938e-01 -3.555402755737304688e-01 -2.118688970804214478e-01
1.278000000000000000e+03 3.946350097656250000e+01 7.166156291961669922e+00 -2.535593695938587189e-02 -1.721790758892893791e-03 -8.123318664729595184e-03 5.134638864547014236e-03
1.279000000000000000e+03 4.109519577026367188e+01 8.453329086303710938e+00 5.863362457603216171e-03 2.842146903276443481e-03 2.611652715131640434e-03 -2.103337086737155914e-03
1.280000000000000000e+03 3.980342102050781250e+01 8.978668212890625000e+00 1.465495297452434897e-04 3.763443557545542717e-03 1.172997988760471344e-03 3.015974361915141344e-04
1.281000000000000000e+03 3.925444793701171875e+01 8.459884643554687500e+00 8.467167615890502930e-03 -5.849489243701100349e-04 2.364665502682328224e-03 1.000718795694410801e-03
1.282000000000000000e+03 3.916415405273437500e+01 9.119713783264160156e+00 -4.192400258034467697e-03 -5.655674729496240616e-03 -2.954422496259212494e-03 -3.183056367561221123e-03
1.283000000000000000e+03 3.837081909179687500e+01 9.165326118469238281e+00 6.047337315976619720e-03 6.648844573646783829e-03 3.808854613453149796e-03 -3.686146810650825500e-04
1.284000000000000000e+03 3.581897735595703125e+01 9.525284767150878906e+00 -1.019587554037570953e-02 4.082624334841966629e-03 -1.833975198678672314e-03 -4.391075577586889267e-03
1.285000000000000000e+03 3.250730133056640625e+01 6.300648689270019531e+00 -2.813575789332389832e-02 6.909769959747791290e-03 -6.367796566337347031e-03 -9.411181323230266571e-03
1.286000000000000000e+03 2.955912780761718750e+01 2.758419275283813477e+00 -1.175340190529823303e-01 -1.497696805745363235e-02 -3.975329548120498657e-02 -6.199892610311508179e-02
1.287000000000000000e+03 2.518911361694335938e+01 2.397747516632080078e+00 -6.005687266588211060e-02 1.041566208004951477e-02 -1.489236298948526382e-02 -1.773049868643283844e-02
1.288000000000000000e+03 2.471052360534667969e+01 1.709465742111206055e+00 -3.487752750515937805e-02 -1.210761722177267075e-03 -1.082648616284132004e-02 -2.948876284062862396e-02
1.289000000000000000e+03 2.649320030212402344e+01 2.157255411148071289e+00 -1.034577190876007080e-01 -3.760996088385581970e-02 -4.232030361890792847e-02 -5.787118896842002869e-02
1.290000000000000000e+03 2.573695945739746094e+01 2.303378582000732422e+00 -7.623595744371414185e-02 -2.726233564317226410e-02 -3.104948811233043671e-02 -5.126400291919708252e-02
1.291000000000000000e+03 1.890339279174804688e+01 1.887186765670776367e+00 8.595434948801994324e-03 5.522030871361494064e-03 4.235239699482917786e-03 5.933612119406461716e-03
1.292000000000000000e+03 1.828555107116699219e+01 2.640777826309204102e+00 4.639430902898311615e-03 1.773060881532728672e-03 1.923747477121651173e-03 -5.776413250714540482e-03
1.293000000000000000e+03 1.931093215942382812e+01 2.518088102340698242e+00 -1.353029906749725342e-02 7.114601321518421173e-04 -3.845651866868138313e-03 -1.532758004032075405e-03
1.294000000000000000e+03 2.115733146667480469e+01 -1.073469817638397217e-01 7.595004979521036148e-03 5.581413279287517071e-04 2.445943886414170265e-03 8.903365815058350563e-04
1.295000000000000000e+03 2.217140769958496094e+01 -1.185821652412414551e+00 -1.512077986262738705e-03 -7.769112009555101395e-03 -2.784356940537691116e-03 -6.525789503939449787e-04
1.296000000000000000e+03 2.050276947021484375e+01 -7.546700954437255859e+00 -1.161337718367576599e-01 -2.787961997091770172e-02 -4.320401698350906372e-02 4.507536068558692932e-02
1.297000000000000000e+03 1.756817817687988281e+01 -4.630220413208007812e+00 -3.056482411921024323e-03 3.719198051840066910e-03 1.988146686926484108e-04 -9.855964453890919685e-04
1.298000000000000000e+03 1.336960887908935547e+01 -2.012752294540405273e+00 2.939494326710700989e-03 -2.990666544064879417e-03 -1.535172486910596490e-05 -3.303562756627798080e-03
1.299000000000000000e+03 1.257714462280273438e+01 -1.988237261772155762e+00 1.392503851093351841e-03 -8.155237301252782345e-04 1.730940421111881733e-04 -2.569320378825068474e-03
1.300000000000000000e+03 1.030066108703613281e+01 -1.844145178794860840e+00 3.867663443088531494e-03 -1.757394755259156227e-03 6.330806063488125801e-04 -2.193895343225449324e-04
1.301000000000000000e+03 1.165798282623291016e+01 -2.660944700241088867e+00 -3.690226702019572258e-03 -1.172287622466683388e-03 -1.458754297345876694e-03 -1.689915778115391731e-03
1.302000000000000000e+03 8.764116287231445312e+00 -3.016351461410522461e+00 -2.254581544548273087e-03 -2.229595324024558067e-03 -1.345253083854913712e-03 1.485788961872458458e-04
1.303000000000000000e+03 7.389748573303222656e+00 -1.807059645652770996e+00 7.031368557363748550e-03 -2.020469866693019867e-03 1.503269653767347336e-03 1.875200658105313778e-03
1.304000000000000000e+03 6.844404220581054688e+00 -1.974729299545288086e+00 5.104304291307926178e-03 2.524324809201061726e-04 1.607021084055304527e-03 -7.896675379015505314e-05
1.305000000000000000e+03 5.576138019561767578e+00 -2.518422842025756836e+00 3.811968490481376648e-04 3.693827602546662092e-04 2.251738915219902992e-04 1.941049587912857533e-03
1.306000000000000000e+03 1.750987291336059570e+00 -5.206408977508544922e+00 1.422696514055132866e-03 3.352678380906581879e-03 1.432612421922385693e-03 1.745935296639800072e-03
1.307000000000000000e+03 1.162399768829345703e+00 -2.082548379898071289e+00 3.950384852942079306e-04 2.283671870827674866e-03 8.036131039261817932e-04 1.681730616837739944e-03
1.308000000000000000e+03 3.942381143569946289e-01 -2.178761720657348633e+00 -1.079608220607042313e-03 1.471162424422800541e-03 1.174662465928122401e-04 4.281434230506420135e-04
1.309000000000000000e+03 4.973796367645263672e+00 -4.016857910156250000e+01 1.659082993865013123e-02 -3.307415843009948730e-01 -9.424522519111633301e-02 -2.450346015393733978e-02
1.310000000000000000e+03 8.006118535995483398e-01 -3.872235488891601562e+01 -8.335189893841743469e-03 -4.308235943317413330e-01 -1.317476332187652588e-01 -9.788097813725471497e-04
1.311000000000000000e+03 8.649318218231201172e-01 -3.332828140258789062e+01 -1.082837115973234177e-03 -3.901267051696777344e-01 -1.173628643155097961e-01 -1.195157412439584732e-02
1.312000000000000000e+03 8.656492233276367188e-01 -3.191409683227539062e+01 4.060132894665002823e-03 -3.686961531639099121e-01 -1.093908026814460754e-01 -1.472796220332384109e-02
1.313000000000000000e+03 8.214079141616821289e-01 -2.907427978515625000e+01 3.028972772881388664e-03 -3.149360418319702148e-01 -9.357212483882904053e-02 -1.686167716979980469e-02
1.314000000000000000e+03 8.120553493499755859e-01 -2.627084159851074219e+01 3.347566351294517517e-03 -2.568547129631042480e-01 -7.605214416980743408e-02 -1.722906902432441711e-02
1.315000000000000000e+03 2.266484260559082031e+00 -2.212513732910156250e+01 8.409239817410707474e-04 -1.575588434934616089e-01 -4.701537638902664185e-02 -4.528411105275154114e-02
1.316000000000000000e+03 2.181930541992187500e+00 -1.924123573303222656e+01 4.086766566615551710e-04 -1.093930006027221680e-01 -3.269529715180397034e-02 -4.019980505108833313e-02
1.317000000000000000e+03 1.886410593986511230e+00 -1.208106803894042969e+01 -6.507036276161670685e-03 -1.958563923835754395e-02 -7.827802561223506927e-03 -1.439575105905532837e-02
1.318000000000000000e+03 1.671667933464050293e+00 -6.574813365936279297e+00 -4.055878613144159317e-03 3.281321376562118530e-03 -2.323671214981004596e-04 3.787543100770562887e-04
1.319000000000000000e+03 2.105432510375976562e+00 -2.785727262496948242e+00 8.693224517628550529e-04 4.569869779516011477e-04 3.978928143624216318e-04 2.903287298977375031e-03
1.320000000000000000e+03 7.601174163818359375e+01 4.057223510742187500e+01 -3.759736567735671997e-02 6.645572662353515625e+00 1.982392549514770508e+00 9.287414699792861938e-02
1.321000000000000000e+03 7.878378295898437500e+01 3.896825408935546875e+01 -6.513302028179168701e-02 6.906549453735351562e+00 2.052424907684326172e+00 -9.602904319763183594e-03
1.322000000000000000e+03 7.690696716308593750e+01 3.738381195068359375e+01 -3.676206991076469421e-02 6.611656665802001953e+00 1.972468376159667969e+00 4.905416816473007202e-02
1.323000000000000000e+03 7.907873535156250000e+01 3.474834823608398438e+01 7.119467947632074356e-03 6.823232650756835938e+00 2.049105644226074219e+00 3.290116041898727417e-02
1.324000000000000000e+03 7.929540252685546875e+01 2.920288658142089844e+01 4.412038624286651611e-02 6.458709239959716797e+00 1.950848817825317383e+00 7.095918804407119751e-02
1.325000000000000000e+03 7.797049713134765625e+01 2.772430610656738281e+01 2.133189886808395386e-02 6.274623870849609375e+00 1.888786673545837402e+00 2.073278725147247314e-01
1.326000000000000000e+03 7.784640502929687500e+01 2.506854438781738281e+01 3.970717638731002808e-02 6.033038139343261719e+00 1.821823596954345703e+00 2.609360814094543457e-01
1.327000000000000000e+03 7.776055145263671875e+01 2.227390480041503906e+01 9.057664126157760620e-02 5.759693145751953125e+00 1.755080938339233398e+00 2.788589894771575928e-01
1.328000000000000000e+03 7.927301788330078125e+01 1.949964904785156250e+01 -6.734240800142288208e-02 5.241412162780761719e+00 1.552220940589904785e+00 4.885700717568397522e-02
1.329000000000000000e+03 7.784790039062500000e+01 1.805623054504394531e+01 7.905699312686920166e-02 5.475530624389648438e+00 1.666376233100891113e+00 -9.093062020838260651e-03
1.330000000000000000e+03 7.798624420166015625e+01 1.523744201660156250e+01 3.041391633450984955e-02 5.625891208648681641e+00 1.696891546249389648e+00 -3.329248428344726562e-01
1.331000000000000000e+03 7.943756866455078125e+01 9.775364875793457031e+00 -2.141146361827850342e-01 5.157084941864013672e+00 1.482891082763671875e+00 3.001765012741088867e-01
1.332000000000000000e+03 7.809601593017578125e+01 8.691525459289550781e+00 8.209175616502761841e-02 8.138016700744628906e+00 2.466032505035400391e+00 2.793582081794738770e-01
1.333000000000000000e+03 7.947922515869140625e+01 5.635754585266113281e+00 3.673833608627319336e-02 6.288492679595947266e+00 1.897569298744201660e+00 -9.213590621948242188e-01
1.334000000000000000e+03 7.818450927734375000e+01 2.741531610488891602e+00 -6.007477641105651855e-01 1.065660762786865234e+01 3.016757965087890625e+00 -2.342484474182128906e+00
1.335000000000000000e+03 7.929380035400390625e+01 6.525747478008270264e-02 -4.392118752002716064e-01 1.383061790466308594e+01 4.017421722412109375e+00 6.064084544777870178e-02
1.336000000000000000e+03 7.726068878173828125e+01 -2.733901143074035645e-01 -1.375244140625000000e+00 9.595382690429687500e+00 2.466041564941406250e+00 7.121251225471496582e-01
1.337000000000000000e+03 7.939807891845703125e+01 -6.981831550598144531e+00 -4.065293073654174805e-02 9.238349914550781250e+00 2.759309053421020508e+00 4.204802215099334717e-01
1.338000000000000000e+03 7.823011016845703125e+01 -8.411661148071289062e+00 1.160633042454719543e-01 8.580598831176757812e+00 2.608998537063598633e+00 9.001404047012329102e-01
1.339000000000000000e+03 7.745080566406250000e+01 -1.234035682678222656e+01 4.314986169338226318e-01 8.321753501892089844e+00 2.625975608825683594e+00 3.610808402299880981e-03
1.340000000000000000e+03 7.937307739257812500e+01 -1.661868095397949219e+01 1.022097393870353699e-01 8.297628402709960938e+00 2.519951343536376953e+00 -2.577830255031585693e-01
1.341000000000000000e+03 7.816486358642578125e+01 -1.788705635070800781e+01 -6.929617375135421753e-02 8.652316093444824219e+00 2.574905872344970703e+00 -4.103240668773651123e-01
1.342000000000000000e+03 7.805083465576171875e+01 -2.210862541198730469e+01 -1.319007873535156250e-01 8.630462646484375000e+00 2.549568653106689453e+00 8.122435212135314941e-02
1.343000000000000000e+03 7.804095458984375000e+01 -2.351384925842285156e+01 -1.325512491166591644e-02 8.537730216979980469e+00 2.557342767715454102e+00 1.724595874547958374e-01
1.344000000000000000e+03 7.937142181396484375e+01 -2.641194152832031250e+01 -2.034868113696575165e-02 8.711342811584472656e+00 2.607298135757446289e+00 7.498560845851898193e-02
1.345000000000000000e+03 7.812470245361328125e+01 -2.765366744995117188e+01 -1.453769672662019730e-02 8.170937538146972656e+00 2.446919918060302734e+00 2.017232179641723633e-01
1.346000000000000000e+03 7.806103515625000000e+01 -3.033558654785156250e+01 -2.731251297518610954e-03 7.934158802032470703e+00 2.379428386688232422e+00 1.637526899576187134e-01
1.347000000000000000e+03 7.926405334472656250e+01 -3.605290222167968750e+01 3.142646327614784241e-02 7.869081497192382812e+00 2.370152473449707031e+00 3.424583747982978821e-02
1.348000000000000000e+03 7.864018249511718750e+01 -4.006103897094726562e+01 -3.881856426596641541e-02 7.584714889526367188e+00 2.263768911361694336e+00 8.049539476633071899e-02
1.349000000000000000e+03 3.759258091449737549e-01 2.154998302459716797e+00 3.471174277365207672e-04 1.403284491971135139e-03 5.251205875538289547e-04 -3.497395664453506470e-04
1.350000000000000000e+03 5.609555244445800781e-01 4.953907966613769531e+00 -4.994068294763565063e-04 7.980575901456177235e-05 -1.258803240489214659e-04 1.502863946370780468e-03
1.351000000000000000e+03 1.789568066596984863e+00 6.473443031311035156e+00 -1.568393083289265633e-03 -6.860531400889158249e-03 -2.528677228838205338e-03 9.237216785550117493e-03
1.352000000000000000e+03 1.738409876823425293e+00 9.381695747375488281e+00 3.416864201426506042e-04 -2.038750983774662018e-02 -6.013746839016675949e-03 1.028995588421821594e-02
1.353000000000000000e+03 6.010966897010803223e-01 1.210733127593994141e+01 1.344396267086267471e-03 -3.261729329824447632e-02 -9.381868876516819000e-03 1.425779308192431927e-03
1.354000000000000000e+03 1.799690961837768555e+00 1.209919929504394531e+01 3.831135982181876898e-04 -3.023491427302360535e-02 -8.955540135502815247e-03 5.945757962763309479e-03
1.355000000000000000e+03 6.566999554634094238e-01 1.631500244140625000e+01 -1.856075483374297619e-03 -4.216772690415382385e-02 -1.320714037865400314e-02 2.070608083158731461e-03
1.356000000000000000e+03 6.884913444519042969e-01 1.913219070434570312e+01 -1.998142339289188385e-03 -5.569309741258621216e-02 -1.730737090110778809e-02 4.770179279148578644e-03
1.357000000000000000e+03 6.726605296134948730e-01 2.196946144104003906e+01 -1.696181599982082844e-03 -8.212083578109741211e-02 -2.514510601758956909e-02 8.021423593163490295e-03
1.358000000000000000e+03 6.782622337341308594e-01 2.478900527954101562e+01 -8.536031818948686123e-04 -1.227149888873100281e-01 -3.707057610154151917e-02 1.101336721330881119e-02
1.359000000000000000e+03 6.879252195358276367e-01 2.619174385070800781e+01 -2.562726440373808146e-04 -1.465524286031723022e-01 -4.404261335730552673e-02 1.193613465875387192e-02
1.360000000000000000e+03 7.072934508323669434e-01 2.900748252868652344e+01 7.211615447886288166e-04 -1.987825185060501099e-01 -5.941840633749961853e-02 1.299113873392343521e-02
1.361000000000000000e+03 2.141555070877075195e+00 2.888888168334960938e+01 -1.042161136865615845e-03 -1.835858672857284546e-01 -5.538840964436531067e-02 3.920916095376014709e-02
1.362000000000000000e+03 6.811019778251647949e-01 3.323601150512695312e+01 -2.498708199709653854e-03 -2.714302837848663330e-01 -8.217869699001312256e-02 1.129699219018220901e-02
1.363000000000000000e+03 6.948784589767456055e-01 3.598065948486328125e+01 -1.462226733565330505e-03 -3.099004924297332764e-01 -9.340881556272506714e-02 7.219556719064712524e-03
1.364000000000000000e+03 1.346740245819091797e+00 4.005344390869140625e+01 5.091173574328422546e-03 -3.259556591510772705e-01 -9.625934809446334839e-02 3.540885227266699076e-04
1.365000000000000000e+03 4.123395919799804688e+00 1.861169695854187012e+00 -1.455701305530965328e-03 -1.384149654768407345e-03 -8.519552648067474365e-04 -2.562532608862966299e-04
1.366000000000000000e+03 4.169121742248535156e+00 2.571872949600219727e+00 9.090459789149463177e-04 -3.618258051574230194e-04 1.641660637687891722e-04 9.249490685760974884e-04
1.367000000000000000e+03 1.849725604057312012e+00 1.941900849342346191e+00 6.057123537175357342e-04 -2.258557506138458848e-04 1.139569794759154320e-04 -5.236632423475384712e-04
1.368000000000000000e+03 1.117502450942993164e+00 2.037390708923339844e+00 -4.974448238499462605e-04 5.664022173732519150e-04 2.068723006232175976e-05 -9.067612118087708950e-04
1.369000000000000000e+03 2.554153442382812500e+00 2.700690507888793945e+00 2.802732924465090036e-04 -6.563978968188166618e-04 -1.128373842220753431e-04 -2.138165000360459089e-04
1.370000000000000000e+03 5.169139862060546875e+00 4.233060836791992188e+00 -1.514078862965106964e-02 3.235845826566219330e-03 -3.571482840925455093e-03 1.587838283739984035e-03
1.371000000000000000e+03 5.659752845764160156e+00 4.846356391906738281e+00 -3.025783412158489227e-02 2.023964421823620796e-03 -8.470160886645317078e-03 6.120937410742044449e-03
1.372000000000000000e+03 6.115974426269531250e+00 5.534558296203613281e+00 -3.543625399470329285e-02 1.005847286432981491e-02 -7.613334339112043381e-03 2.076585032045841217e-02
1.373000000000000000e+03 1.024981212615966797e+01 6.746630191802978516e+00 1.089774537831544876e-02 1.386471241712570190e-01 4.486346244812011719e-02 1.272439118474721909e-02
1.374000000000000000e+03 8.416571617126464844e+00 7.649816513061523438e+00 4.951827600598335266e-02 -2.758261561393737793e-02 6.580698303878307343e-03 1.748541742563247681e-02
1.375000000000000000e+03 1.405234813690185547e+01 1.163152790069580078e+01 4.219749197363853455e-02 4.361891373991966248e-02 2.574492245912551880e-02 4.356089979410171509e-02
1.376000000000000000e+03 1.757247924804687500e+01 1.456184864044189453e+01 -6.750933080911636353e-02 1.527530141174793243e-02 -1.567021012306213379e-02 1.302639208734035492e-02
1.377000000000000000e+03 2.166259002685546875e+01 1.646626091003417969e+01 -4.500696957111358643e-01 1.935140974819660187e-02 -1.292154788970947266e-01 -6.097134575247764587e-02
1.378000000000000000e+03 2.133484458923339844e+01 1.039583301544189453e+01 6.396953016519546509e-02 6.082552671432495117e-02 3.743851929903030396e-02 5.045116692781448364e-02
1.379000000000000000e+03 2.096212768554687500e+01 8.991699218750000000e+00 2.001884579658508301e-02 3.710868209600448608e-02 1.713825762271881104e-02 2.104234509170055389e-02
1.380000000000000000e+03 1.788152885437011719e+01 7.841792106628417969e+00 6.378143094480037689e-03 2.090510353446006775e-02 8.184974081814289093e-03 3.802957013249397278e-02
1.381000000000000000e+03 1.610192298889160156e+01 6.890711307525634766e+00 9.590718895196914673e-02 2.354824729263782501e-02 3.583662956953048706e-02 2.086143940687179565e-02
1.382000000000000000e+03 1.518090248107910156e+01 6.308991432189941406e+00 1.330865453928709030e-02 2.726225927472114563e-02 1.217127405107021332e-02 6.975873559713363647e-02
1.383000000000000000e+03 1.811419677734375000e+01 6.159582138061523438e+00 -6.327528506517410278e-02 -3.734563291072845459e-02 -3.018627502024173737e-02 -2.857969515025615692e-02
1.384000000000000000e+03 1.662508392333984375e+01 6.246852397918701172e+00 -7.230435311794281006e-02 -1.613426394760608673e-02 -2.653158456087112427e-02 -4.037173092365264893e-02
1.385000000000000000e+03 1.582249832153320312e+01 6.255053043365478516e+00 2.939646504819393158e-02 8.905182592570781708e-03 1.149049401283264160e-02 5.262893438339233398e-02
1.386000000000000000e+03 1.877666282653808594e+01 7.219321727752685547e+00 4.734715912491083145e-03 1.374689600197598338e-04 1.461655483581125736e-03 -8.534821681678295135e-03
1.387000000000000000e+03 2.033749198913574219e+01 6.075069427490234375e+00 -8.999959379434585571e-02 1.888834871351718903e-02 -2.133337408304214478e-02 -2.611594274640083313e-02
1.388000000000000000e+03 2.113643836975097656e+01 6.022031307220458984e+00 -9.034601598978042603e-02 1.451047789305448532e-02 -2.275066077709197998e-02 -4.304642975330352783e-02
1.389000000000000000e+03 2.275247573852539062e+01 5.739494323730468750e+00 -7.703521847724914551e-02 8.664223365485668182e-03 -2.051129937171936035e-02 -4.641893878579139709e-02
1.390000000000000000e+03 2.325790977478027344e+01 5.813658237457275391e+00 -7.489442080259323120e-02 -1.333351433277130127e-02 -2.646837942302227020e-02 -6.033592298626899719e-02
1.391000000000000000e+03 2.562426757812500000e+01 8.355502128601074219e+00 -1.120073497295379639e-01 -9.391440451145172119e-02 -6.177652627229690552e-02 -1.245067268610000610e-01
1.392000000000000000e+03 2.974216461181640625e+01 1.244806098937988281e+01 -2.622329294681549072e-01 -8.028923720121383667e-02 -1.027566492557525635e-01 -1.177202165126800537e-01
1.393000000000000000e+03 3.234047317504882812e+01 1.395886898040771484e+01 -8.634368777275085449e-01 -4.372269287705421448e-02 -2.721478641033172607e-01 -2.245423346757888794e-01
1.394000000000000000e+03 3.665002822875976562e+01 1.332686614990234375e+01 -6.626757383346557617e-01 -1.916070282459259033e-01 -2.562848329544067383e-01 4.046700596809387207e-01
1.395000000000000000e+03 3.777584838867187500e+01 1.320555877685546875e+01 -7.693654298782348633e-01 3.503444418311119080e-02 -2.202992886304855347e-01 2.724130749702453613e-01
1.396000000000000000e+03 3.994182205200195312e+01 1.277481174468994141e+01 -6.352616548538208008e-01 1.285883337259292603e-01 -1.520019918680191040e-01 1.030603647232055664e-01
1.397000000000000000e+03 4.073228454589843750e+01 1.265060520172119141e+01 -6.435581445693969727e-01 1.186363026499748230e-01 -1.574765592813491821e-01 2.184384874999523163e-02
1.398000000000000000e+03 4.236898803710937500e+01 1.232204151153564453e+01 -5.940343737602233887e-01 1.081911772489547729e-01 -1.457529515027999878e-01 -1.057999879121780396e-01
1.399000000000000000e+03 4.310630798339843750e+01 1.209869480133056641e+01 -5.323954820632934570e-01 5.630947649478912354e-02 -1.428258121013641357e-01 -1.734092384576797485e-01
1.400000000000000000e+03 4.534093856811523438e+01 1.352016067504882812e+01 -9.020116925239562988e-01 -2.687042355537414551e-01 -3.512147963047027588e-01 -4.840870499610900879e-01
1.401000000000000000e+03 3.637820816040039062e+01 1.338682270050048828e+01 -9.221920371055603027e-01 -3.986932039260864258e-01 -3.962655961513519287e-01 5.089912414550781250e-01
1.402000000000000000e+03 5.689088058471679688e+01 1.006313323974609375e+01 1.466277480125427246e+00 5.474695682525634766e+00 2.082291841506958008e+00 5.208473801612854004e-01
1.403000000000000000e+03 5.556795883178710938e+01 9.498174667358398438e+00 -3.504629135131835938e+00 1.873552703857421875e+01 4.569269180297851562e+00 4.176054477691650391e+00
1.404000000000000000e+03 5.629026031494140625e+01 1.222877693176269531e+01 3.214751720428466797e+00 1.390223789215087891e+01 5.135097026824951172e+00 6.258082866668701172e+00
1.405000000000000000e+03 5.656309509277343750e+01 1.033393955230712891e+01 2.353810071945190430e+00 1.054583263397216797e+01 3.869892835617065430e+00 2.622786760330200195e-01
1.406000000000000000e+03 5.817766952514648438e+01 1.052956485748291016e+01 -9.239584803581237793e-01 -2.758373975753784180e+00 -1.104699730873107910e+00 -2.049772500991821289e+00
1.407000000000000000e+03 5.649812698364257812e+01 1.012954139709472656e+01 1.937251687049865723e+00 1.261279201507568359e+01 4.365013122558593750e+00 -1.624111980199813843e-01
1.408000000000000000e+03 5.898384857177734375e+01 1.140044593811035156e+01 6.423587799072265625e-01 -1.191669821739196777e+00 -1.647933125495910645e-01 -1.914478465914726257e-02
1.409000000000000000e+03 5.744480133056640625e+01 1.009481811523437500e+01 -6.209815740585327148e-01 -1.408992648124694824e+00 -6.089922785758972168e-01 -1.445027589797973633e+00
1.410000000000000000e+03 5.600054168701171875e+01 1.252087116241455078e+01 1.027145266532897949e+00 1.557699489593505859e+01 4.981242179870605469e+00 4.483976840972900391e+00
1.411000000000000000e+03 5.580121994018554688e+01 1.263520431518554688e+01 -6.930463016033172607e-02 1.584661388397216797e+01 4.733192443847656250e+00 2.904658794403076172e+00
1.412000000000000000e+03 5.839788436889648438e+01 1.180159282684326172e+01 3.328959941864013672e+00 -2.799035608768463135e-02 9.902908802032470703e-01 2.168170452117919922e+00
1.413000000000000000e+03 5.649287414550781250e+01 1.254219818115234375e+01 2.558477401733398438e+00 1.163655853271484375e+01 4.258510589599609375e+00 5.742294788360595703e+00
1.414000000000000000e+03 5.640872573852539062e+01 1.209159088134765625e+01 4.687964439392089844e+00 1.234813499450683594e+01 5.110829830169677734e+00 6.817121028900146484e+00
1.415000000000000000e+03 5.572901535034179688e+01 9.194128990173339844e+00 -3.298452615737915039e+00 1.701160049438476562e+01 4.113944530487060547e+00 3.729466676712036133e+00
1.416000000000000000e+03 5.592208099365234375e+01 9.438176155090332031e+00 -3.049938201904296875e+00 1.605487442016601562e+01 3.901480913162231445e+00 2.798185586929321289e+00
1.417000000000000000e+03 5.612506866455078125e+01 9.752122879028320312e+00 -5.086329579353332520e-01 1.503219985961914062e+01 4.357069969177246094e+00 8.308382034301757812e-01
1.418000000000000000e+03 5.575522232055664062e+01 9.607409477233886719e+00 -2.984165906906127930e+00 1.900867080688476562e+01 4.807351112365722656e+00 3.208176374435424805e+00
1.419000000000000000e+03 5.320362472534179688e+01 1.320997714996337891e+01 1.227585077285766602e+00 2.564722061157226562e+00 1.137692213058471680e+00 -1.830594182014465332e+00
1.420000000000000000e+03 5.299876022338867188e+01 1.330395030975341797e+01 1.047199010848999023e+00 2.236928939819335938e+00 9.852383732795715332e-01 -1.622285366058349609e+00
1.421000000000000000e+03 5.489251327514648438e+01 1.298487854003906250e+01 -2.604621648788452148e-01 1.164573955535888672e+01 3.415583133697509766e+00 -2.608441829681396484e+00
1.422000000000000000e+03 5.337720108032226562e+01 1.312931632995605469e+01 1.336885690689086914e+00 2.892940044403076172e+00 1.268947720527648926e+00 -2.076520442962646484e+00
1.423000000000000000e+03 5.492319107055664062e+01 1.275587463378906250e+01 -2.289785295724868774e-01 1.251509380340576172e+01 3.685834646224975586e+00 -3.001914978027343750e+00
1.424000000000000000e+03 5.312939071655273438e+01 1.365426635742187500e+01 7.893344759941101074e-01 2.961334228515625000e+00 1.125200629234313965e+00 -1.794828414916992188e+00
1.425000000000000000e+03 5.383451843261718750e+01 9.331990242004394531e+00 -1.931326687335968018e-01 8.443790435791015625e+00 2.475197315216064453e+00 5.473617076873779297e+00
1.426000000000000000e+03 5.338982009887695312e+01 9.235385894775390625e+00 1.902492344379425049e-01 6.199432849884033203e+00 1.916904568672180176e+00 3.645429611206054688e+00
1.427000000000000000e+03 5.290582656860351562e+01 9.553927421569824219e+00 -2.959787249565124512e-01 3.413788318634033203e+00 9.353428483009338379e-01 1.728124499320983887e+00
1.428000000000000000e+03 5.416785430908203125e+01 9.485890388488769531e+00 -4.815629124641418457e-01 1.037597084045410156e+01 2.968322515487670898e+00 7.072585582733154297e+00
1.429000000000000000e+03 5.507981109619140625e+01 9.443209648132324219e+00 -2.938072919845581055e+00 1.792217063903808594e+01 4.495229244232177734e+00 6.797388553619384766e+00
1.430000000000000000e+03 3.662690734863281250e+01 7.268001079559326172e+00 -6.972282659262418747e-03 -2.145916409790515900e-02 -8.529433980584144592e-03 -9.666313417255878448e-04
1.431000000000000000e+03 5.119714736938476562e+01 8.686860084533691406e+00 -9.389081597328186035e-01 2.005014896392822266e+00 3.198319971561431885e-01 -1.023513674736022949e+00
1.432000000000000000e+03 5.022066116333007812e+01 8.581094741821289062e+00 -1.915735125541687012e+00 -4.645998477935791016e-01 -7.141004800796508789e-01 -1.951853632926940918e+00
1.433000000000000000e+03 2.231021881103515625e+01 5.773915767669677734e+00 -7.912745326757431030e-02 3.459114814177155495e-03 -2.270050160586833954e-02 -4.686512798070907593e-02
1.434000000000000000e+03 2.298937225341796875e+01 6.489742279052734375e+00 -8.639590442180633545e-02 8.516049012541770935e-03 -2.336395718157291412e-02 -5.234172940254211426e-02
1.435000000000000000e+03 7.549625873565673828e+00 -2.398175477981567383e+00 3.005391627084463835e-04 -4.897812032140791416e-04 -5.677260924130678177e-05 1.130289310822263360e-04
1.436000000000000000e+03 6.417505264282226562e+00 -2.261015415191650391e+00 1.299250521697103977e-03 -3.229620633646845818e-04 2.928865433204919100e-04 2.356556477025151253e-03
1.437000000000000000e+03 4.173979282379150391e+00 -1.758947014808654785e+00 5.189757328480482101e-03 -2.173787914216518402e-03 9.047907660715281963e-04 3.421768778935074806e-03
1.438000000000000000e+03 6.006814002990722656e+00 -3.400032997131347656e+00 -4.364578053355216980e-03 -8.417231147177517414e-04 -1.561890356242656708e-03 1.440471853129565716e-03
1.439000000000000000e+03 5.192901992797851562e+01 9.030770301818847656e+00 -8.131345510482788086e-01 2.792924880981445312e+00 5.939370989799499512e-01 -3.070256412029266357e-01
1.440000000000000000e+03 5.046492004394531250e+01 9.485426902770996094e+00 -1.695172548294067383e+00 -2.312574982643127441e-01 -5.779290199279785156e-01 -2.096015930175781250e+00
1.441000000000000000e+03 5.064414215087890625e+01 8.727823257446289062e+00 -1.852246403694152832e+00 5.637401342391967773e-01 -3.865518867969512939e-01 -1.606673836708068848e+00
1.442000000000000000e+03 3.602325439453125000e+01 1.460408973693847656e+01 -1.124439835548400879e+00 -1.583729982376098633e-01 -3.848438560962677002e-01 1.897093504667282104e-01
1.443000000000000000e+03 3.795774459838867188e+01 1.399766731262207031e+01 -9.247720241546630859e-01 1.300253123044967651e-01 -2.384240180253982544e-01 2.354656308889389038e-01
1.444000000000000000e+03 3.917786026000976562e+01 1.293170928955078125e+01 -6.730660796165466309e-01 8.583042770624160767e-02 -1.761707067489624023e-01 1.690833270549774170e-01
1.445000000000000000e+03 2.491933059692382812e+01 -1.333529949188232422e+00 3.006042726337909698e-02 -1.176804900169372559e-01 -2.628601901233196259e-02 -5.012144520878791809e-02
1.446000000000000000e+03 2.405427551269531250e+01 9.004648923873901367e-01 -1.568085141479969025e-02 -1.016345992684364319e-02 -7.753293495625257492e-03 -2.795981988310813904e-02
1.447000000000000000e+03 3.609987020492553711e+00 -3.158795833587646484e+00 6.779050454497337341e-05 3.280657983850687742e-04 1.187568850582465529e-04 2.137302886694669724e-03
1.448000000000000000e+03 5.206894278526306152e-01 -3.572712182998657227e+00 1.594715169630944729e-03 4.507890902459621429e-03 1.830781809985637665e-03 1.360164489597082138e-03
1.449000000000000000e+03 1.887321472167968750e+01 2.346283197402954102e+00 -6.179803982377052307e-03 2.745020436123013496e-03 -1.030435087159276009e-03 -6.956417113542556763e-03
1.450000000000000000e+03 1.878076195716857910e+00 2.789524078369140625e+00 -1.951106940396130085e-03 -6.480732117779552937e-04 -7.797540165483951569e-04 -1.021990901790559292e-03
1.451000000000000000e+03 3.305765390396118164e+00 2.624712705612182617e+00 -2.701885765418410301e-03 -2.434375928714871407e-03 -1.540878554806113243e-03 -6.347328890115022659e-04
1.452000000000000000e+03 1.418437385559082031e+01 -2.018852233886718750e+00 2.604769309982657433e-03 -6.118339370004832745e-04 5.978806293569505215e-04 -4.008659161627292633e-03
1.453000000000000000e+03 9.555164337158203125e+00 -1.811884641647338867e+00 3.397750435397028923e-03 -5.056891241110861301e-04 8.676183642819523811e-04 2.876867656596004963e-04
1.454000000000000000e+03 1.091365623474121094e+01 -2.581416130065917969e+00 -1.476018107496201992e-03 -2.181878313422203064e-03 -1.097368891350924969e-03 -9.636039030738174915e-04
1.455000000000000000e+03 1.105145263671875000e+01 -1.890653491020202637e+00 2.382288919761776924e-03 -2.529751800466328859e-04 6.387940957210958004e-04 -8.789544808678328991e-04
1.456000000000000000e+03 1.787005233764648438e+01 6.665357589721679688e+00 -5.128680542111396790e-02 -8.453780785202980042e-03 -1.792217604815959930e-02 -1.313234679400920868e-02
1.457000000000000000e+03 2.005358314514160156e+01 8.300560951232910156e+00 -2.572158165276050568e-02 2.926123328506946564e-02 1.061895280145108700e-03 5.859214812517166138e-03
1.458000000000000000e+03 2.197998809814453125e+01 6.472866535186767578e+00 -9.171798825263977051e-02 1.517220027744770050e-02 -2.296373620629310608e-02 -5.230356752872467041e-02
1.459000000000000000e+03 2.118756294250488281e+01 6.741432666778564453e+00 -6.303832679986953735e-02 3.264197707176208496e-02 -9.118905290961265564e-03 -3.130705282092094421e-02
1.460000000000000000e+03 7.126837253570556641e+00 -2.884432554244995117e+00 -2.679413650184869766e-03 -1.184443826787173748e-03 -1.159157254733145237e-03 2.994310634676367044e-04
1.461000000000000000e+03 4.007366943359375000e+01 1.351012325286865234e+01 -7.668461799621582031e-01 1.635932773351669312e-01 -1.809758692979812622e-01 9.275961667299270630e-02
1.462000000000000000e+03 4.169932937622070312e+01 1.356011009216308594e+01 -7.955023646354675293e-01 2.004361897706985474e-01 -1.785198450088500977e-01 -3.900476917624473572e-02
1.463000000000000000e+03 4.158765029907226562e+01 1.255830574035644531e+01 -6.294552683830261230e-01 1.565450280904769897e-01 -1.418730616569519043e-01 -4.345443844795227051e-02
1.464000000000000000e+03 4.083371353149414062e+01 1.347303104400634766e+01 -7.578402757644653320e-01 2.186524569988250732e-01 -1.617563515901565552e-01 2.991899289190769196e-02
1.465000000000000000e+03 4.305706787109375000e+01 1.291179084777832031e+01 -7.090002894401550293e-01 1.194861680269241333e-01 -1.768542379140853882e-01 -1.455667316913604736e-01
1.466000000000000000e+03 4.077263259887695312e+01 1.420338153839111328e+01 -8.607930541038513184e-01 2.374232858419418335e-01 -1.870109289884567261e-01 4.012018442153930664e-02
1.467000000000000000e+03 1.450548267364501953e+01 -4.147522926330566406e+00 -1.246233657002449036e-02 -1.825893763452768326e-03 -4.286468960344791412e-03 4.019295156467705965e-04
1.468000000000000000e+03 1.242500305175781250e+01 -2.747909784317016602e+00 -2.681962447240948677e-03 -2.985667670145630836e-03 -1.700288965366780758e-03 -2.019150648266077042e-03
1.469000000000000000e+03 1.707515716552734375e+01 7.001318454742431641e+00 9.163831919431686401e-02 2.672118507325649261e-02 3.550785034894943237e-02 1.982180401682853699e-02
1.470000000000000000e+03 7.602893829345703125e+00 6.723093509674072266e+00 -1.969798654317855835e-02 -2.112261764705181122e-02 -1.224618125706911087e-02 4.234642535448074341e-02
1.471000000000000000e+03 4.196491718292236328e+00 4.512869834899902344e+00 -1.179242692887783051e-02 3.470477531664073467e-04 -3.433613805100321770e-03 4.400491714477539062e-03
1.472000000000000000e+03 6.846473693847656250e+00 6.854873180389404297e+00 -6.540630944073200226e-03 -2.172528393566608429e-02 -8.479774929583072662e-03 4.700976982712745667e-02
1.473000000000000000e+03 5.527258872985839844e+00 6.666729927062988281e+00 -2.107029221951961517e-02 -6.395187228918075562e-03 -8.239644579589366913e-03 3.244044259190559387e-02
1.474000000000000000e+03 1.673410177230834961e+00 4.921848297119140625e+00 -4.039864521473646164e-03 -1.579319359734654427e-03 -1.685755210928618908e-03 2.141341334208846092e-03
1.475000000000000000e+03 3.991393089294433594e+00 3.408989191055297852e+00 -5.400575697422027588e-03 -1.375688589178025723e-03 -2.032879274338483810e-03 -6.703368271701037884e-04
1.476000000000000000e+03 2.344549179077148438e+01 9.341127872467041016e-01 -2.426002407446503639e-03 -3.638811036944389343e-02 -1.164423394948244095e-02 -1.642520166933536530e-02
1.477000000000000000e+03 2.171353912353515625e+01 2.040132761001586914e+00 -7.572374306619167328e-04 -2.923601306974887848e-03 -1.104251598007977009e-03 3.741663880646228790e-03
1.478000000000000000e+03 6.229872512817382812e+01 -4.703070163726806641e+00 1.538586854934692383e+00 1.116452026367187500e+01 3.810931921005249023e+00 1.634429812431335449e+00
1.479000000000000000e+03 2.592804145812988281e+01 -1.265032863616943359e+01 -2.940054833889007568e-01 -1.839716732501983643e-01 -1.433931440114974976e-01 -5.699319764971733093e-03
1.480000000000000000e+03 2.821053504943847656e+01 -8.283849716186523438e+00 -2.317738085985183716e-01 -3.287004306912422180e-02 -7.939315587282180786e-02 -2.975383587181568146e-02
1.481000000000000000e+03 6.839754486083984375e+01 1.305433464050292969e+01 3.788276433944702148e+00 9.706628799438476562e+00 4.048471450805664062e+00 1.273707985877990723e+00
1.482000000000000000e+03 6.594023895263671875e+01 1.549722766876220703e+01 4.353202283382415771e-01 1.156798553466796875e+01 3.600991725921630859e+00 -1.485816240310668945e+00
1.483000000000000000e+03 6.831668090820312500e+01 -1.524255657196044922e+01 -2.202076435089111328e+00 -4.974492788314819336e-01 -8.098577260971069336e-01 9.638642072677612305e-01
1.484000000000000000e+03 6.659780883789062500e+01 -1.720629501342773438e+01 -6.775050163269042969e-01 2.510799169540405273e+00 5.499882102012634277e-01 -1.024381041526794434e+00
1.485000000000000000e+03 4.546504211425781250e+01 -2.415854692459106445e+00 7.421571612358093262e-01 3.515676021575927734e+00 1.277349948883056641e+00 2.998633146286010742e+00
1.486000000000000000e+03 4.365494155883789062e+01 -2.571446895599365234e+00 2.206435352563858032e-01 2.289866685867309570e+00 7.531530261039733887e-01 2.575829811394214630e-02
1.487000000000000000e+03 5.559221267700195312e+01 8.839699029922485352e-01 -1.767563819885253906e+00 2.724645853042602539e+00 2.871246039867401123e-01 -4.050230979919433594e+00
1.488000000000000000e+03 5.456967926025390625e+01 1.531467080116271973e+00 3.402598857879638672e+00 1.390002632141113281e+01 5.190787792205810547e+00 -4.363508701324462891e+00
1.489000000000000000e+03 5.381577301025390625e+01 4.224457740783691406e-01 -2.941220998764038086e+00 1.017733860015869141e+01 2.170835494995117188e+00 -5.671852827072143555e-01
1.490000000000000000e+03 6.615817260742187500e+01 7.731867313385009766e+00 -1.418882131576538086e+00 1.255462074279785156e+01 3.340721607208251953e+00 -8.094912171363830566e-01
1.491000000000000000e+03 3.315131759643554688e+01 5.919917225837707520e-01 -3.033225536346435547e-01 2.014257162809371948e-01 -3.056905046105384827e-02 -1.341921389102935791e-01
1.492000000000000000e+03 7.111283111572265625e+01 -7.600233554840087891e-01 -3.654335498809814453e+00 5.289102077484130859e+00 4.904299974441528320e-01 -4.114738941192626953e+00
1.493000000000000000e+03 3.016016578674316406e+01 1.779438495635986328e+00 -1.080190241336822510e-01 -3.120135143399238586e-02 -4.176611080765724182e-02 -3.665742278099060059e-02
1.494000000000000000e+03 2.710825347900390625e+01 2.278149574995040894e-01 -4.650816321372985840e-02 -2.700839936733245850e-02 -2.205496840178966522e-02 -8.652396500110626221e-02
1.495000000000000000e+03 6.245967483520507812e+01 1.581873703002929688e+01 3.009275913238525391e+00 3.204003810882568359e+00 1.863983869552612305e+00 -1.263658761978149414e+00
1.496000000000000000e+03 6.490090942382812500e+01 1.440329647064208984e+01 3.407445907592773438e+00 8.014273643493652344e+00 3.426516056060791016e+00 -4.058441638946533203e+00
1.497000000000000000e+03 6.423577117919921875e+01 1.539396858215332031e+01 1.815208911895751953e+00 6.238058567047119141e+00 2.415980339050292969e+00 -2.355105876922607422e+00
1.498000000000000000e+03 7.193709564208984375e+01 1.146764373779296875e+01 2.909575939178466797e+00 1.875084877014160156e+00 1.435398221015930176e+00 -8.158096671104431152e-01
1.499000000000000000e+03 7.321357727050781250e+01 9.838515281677246094e+00 -1.044819593429565430e+00 1.371165871620178223e+00 9.790387004613876343e-02 -2.639809370040893555e+00
1.500000000000000000e+03 6.821945953369140625e+01 3.304211854934692383e+00 3.546930789947509766e+00 9.858323097229003906e+00 4.021575927734375000e+00 -1.267287611961364746e+00
1.501000000000000000e+03 5.248704147338867188e+01 4.542624473571777344e+00 4.735363006591796875e+00 9.831069946289062500e+00 4.369929790496826172e+00 1.075049400329589844e+00
1.502000000000000000e+03 5.234315872192382812e+01 3.531332015991210938e+00 5.201066970825195312e+00 8.537141799926757812e+00 4.121462345123291016e+00 2.287760972976684570e+00
1.503000000000000000e+03 3.959616851806640625e+01 -2.758696973323822021e-01 -2.770378112792968750e+00 -6.536804437637329102e-01 -1.027217507362365723e+00 -2.111014723777770996e-01
1.504000000000000000e+03 3.853717422485351562e+01 -1.277509212493896484e+00 -8.456837534904479980e-01 -5.283081531524658203e-01 -4.121975600719451904e-01 -6.656482219696044922e-01
1.505000000000000000e+03 5.391674423217773438e+01 4.569327354431152344e+00 2.698335409164428711e+00 2.174556922912597656e+01 7.333171367645263672e+00 4.268788814544677734e+00
1.506000000000000000e+03 5.879048538208007812e+01 1.664862632751464844e+00 -5.705080986022949219e+00 -1.081316232681274414e+00 -2.035919189453125000e+00 -2.416153907775878906e+00
1.507000000000000000e+03 5.756283569335937500e+01 -7.428458929061889648e-01 -1.595352530479431152e+00 8.049343824386596680e-01 -2.371254265308380127e-01 -2.709267377853393555e+00
1.508000000000000000e+03 7.745086669921875000e+01 1.053786373138427734e+01 -3.112007081508636475e-01 7.484590530395507812e+00 2.152016878128051758e+00 -1.410864479839801788e-02
1.509000000000000000e+03 7.518684387207031250e+01 -1.310408830642700195e+00 -1.084381699562072754e+00 5.754646778106689453e+00 1.401079535484313965e+00 3.345415592193603516e-01
1.510000000000000000e+03 6.421536254882812500e+01 2.211292982101440430e+00 -1.142547845840454102e+00 4.966983795166015625e+00 1.147330880165100098e+00 2.308150768280029297e+00
1.511000000000000000e+03 6.752118682861328125e+01 1.074933338165283203e+01 2.657397985458374023e+00 1.208882141113281250e+01 4.423865795135498047e+00 1.292298287153244019e-01
1.512000000000000000e+03 6.591642761230468750e+01 1.143010425567626953e+01 2.733905553817749023e+00 2.460885238647460938e+01 8.202827453613281250e+00 -8.786510825157165527e-01
1.513000000000000000e+03 5.399359130859375000e+01 6.891737461090087891e+00 1.682585597038269043e+00 1.382061672210693359e+01 4.650960922241210938e+00 3.435031652450561523e+00
1.514000000000000000e+03 5.985638427734375000e+01 1.372434520721435547e+01 2.056215763092041016e+00 1.637471556663513184e+00 1.108106136322021484e+00 1.796582221984863281e+00
1.515000000000000000e+03 6.197462463378906250e+01 2.180414915084838867e+00 -2.633732795715332031e+00 3.448581457138061523e+00 2.444546222686767578e-01 1.149031639099121094e+00
1.516000000000000000e+03 6.473190307617187500e+01 5.739560604095458984e+00 8.445350080728530884e-02 6.696830272674560547e+00 2.034384965896606445e+00 1.074069142341613770e+00
1.517000000000000000e+03 6.134050369262695312e+01 1.576340961456298828e+01 2.679991960525512695e+00 2.537964820861816406e+00 1.565387129783630371e+00 2.449425309896469116e-01
1.518000000000000000e+03 5.708722305297851562e+01 9.293639183044433594e+00 -2.513097047805786133e+00 -1.687361747026443481e-01 -8.045499920845031738e-01 -2.165748834609985352e+00
1.519000000000000000e+03 6.544003295898437500e+01 6.801169872283935547e+00 -3.714863955974578857e-01 1.049517250061035156e+01 3.037105798721313477e+00 7.135326266288757324e-01
1.520000000000000000e+03 6.915590667724609375e+01 1.273782610893249512e+00 -1.212356090545654297e+00 1.054318618774414062e+01 2.799249172210693359e+00 -1.983915925025939941e+00
1.521000000000000000e+03 6.953110504150390625e+01 1.199852451682090759e-01 -2.496370553970336914e+00 8.003896713256835938e+00 1.652257800102233887e+00 -2.736724615097045898e+00
1.522000000000000000e+03 7.145834350585937500e+01 9.075170516967773438e+00 -4.263582706451416016e+00 -5.503053665161132812e-01 -1.444166421890258789e+00 -1.708160042762756348e+00
1.523000000000000000e+03 2.551733779907226562e+01 1.808606338500976562e+01 -6.796112656593322754e-01 -5.973644927144050598e-02 -2.218043208122253418e-01 1.062571778893470764e-01
1.524000000000000000e+03 6.750557708740234375e+01 3.996134042739868164e+00 3.019693613052368164e+00 9.690248489379882812e+00 3.812982797622680664e+00 -1.459937930107116699e+00
1.525000000000000000e+03 6.881225585937500000e+01 7.512411117553710938e+00 -2.084732055664062500e+00 1.116104125976562500e+01 2.722892761230468750e+00 -2.127407789230346680e+00
1.526000000000000000e+03 6.289848709106445312e+01 -1.770614981651306152e+00 -3.924659967422485352e+00 8.620563507080078125e+00 1.408771038055419922e+00 2.077982187271118164e+00
1.527000000000000000e+03 6.625777435302734375e+01 -9.185016751289367676e-01 -2.566228628158569336e+00 2.231680870056152344e+00 -1.003643348813056946e-01 1.526276588439941406e+00
1.528000000000000000e+03 6.299295806884765625e+01 1.177388072013854980e+00 -2.545383691787719727e+00 4.435405254364013672e+00 5.670064091682434082e-01 2.926496267318725586e+00
1.529000000000000000e+03 4.056566619873046875e+01 -1.905446815490722656e+01 -7.263035178184509277e-01 1.232370734214782715e+00 1.518201678991317749e-01 5.032362341880798340e-01
1.530000000000000000e+03 3.935322570800781250e+01 -1.663007736206054688e+01 -8.363648653030395508e-01 1.469752937555313110e-01 -2.068168669939041138e-01 9.045626521110534668e-01
1.531000000000000000e+03 3.595990753173828125e+01 -1.519418835639953613e+00 -1.010453775525093079e-01 1.355459839105606079e-01 1.035018265247344971e-02 -1.675093173980712891e-01
1.532000000000000000e+03 5.813689804077148438e+01 -1.773195648193359375e+01 5.120422244071960449e-01 6.742715835571289062e+00 2.176427364349365234e+00 -4.205295145511627197e-01
1.533000000000000000e+03 2.877387046813964844e+01 -3.835932493209838867e+00 1.636128872632980347e-01 2.647329121828079224e-02 5.702585354447364807e-02 -2.220885902643203735e-01
1.534000000000000000e+03 3.000013923645019531e+01 -2.482123613357543945e+00 6.771427392959594727e-02 2.064687907695770264e-01 8.225491642951965332e-02 -1.142624989151954651e-01
1.535000000000000000e+03 6.185860443115234375e+01 -7.694468498229980469e+00 7.610850334167480469e-01 9.242836952209472656e+00 3.001176595687866211e+00 4.754398465156555176e-01
1.536000000000000000e+03 6.344379425048828125e+01 -1.155413913726806641e+01 -5.790248140692710876e-02 6.147052764892578125e+00 1.826745152473449707e+00 -5.841630697250366211e-01
1.537000000000000000e+03 6.375178909301757812e+01 -1.442451953887939453e+01 -7.110768556594848633e-01 4.662828922271728516e+00 1.185525536537170410e+00 -6.672721505165100098e-01
1.538000000000000000e+03 3.244171905517578125e+01 -9.330899238586425781e+00 2.892467752099037170e-02 3.955789208412170410e-01 1.273510754108428955e-01 -1.408277451992034912e-01
1.539000000000000000e+03 3.213623809814453125e+01 -1.125145149230957031e+01 -2.382421940565109253e-01 2.682268321514129639e-01 8.995392359793186188e-03 6.330052763223648071e-02
1.540000000000000000e+03 6.531740570068359375e+01 -1.482802867889404297e+01 -8.769712448120117188e-01 3.028021335601806641e+00 6.453150510787963867e-01 -7.749347686767578125e-01
1.541000000000000000e+03 6.806499481201171875e+01 -2.668655633926391602e+00 -4.894776821136474609e+00 3.264929533004760742e+00 -4.889541566371917725e-01 -4.272202253341674805e-01
1.542000000000000000e+03 3.673261260986328125e+01 1.793407678604125977e+00 -2.119531333446502686e-01 -6.774082779884338379e-02 -8.390818536281585693e-02 2.808329164981842041e-01
1.543000000000000000e+03 6.478533935546875000e+01 -1.375358772277832031e+01 -6.764043569564819336e-01 3.825194358825683594e+00 9.446370005607604980e-01 -8.697948455810546875e-01
1.544000000000000000e+03 6.022476577758789062e+01 -7.152191162109375000e+00 9.972628951072692871e-01 7.018153667449951172e+00 2.404624938964843750e+00 3.794465363025665283e-01
1.545000000000000000e+03 6.996209716796875000e+01 -4.688385963439941406e+00 -1.415917515754699707e+00 3.876035928726196289e+00 7.380355596542358398e-01 -1.513003945350646973e+00
1.546000000000000000e+03 3.551131820678710938e+01 -4.334620833396911621e-01 -3.702224195003509521e-01 2.376006692647933960e-01 -3.978652134537696838e-02 -6.555091589689254761e-02
1.547000000000000000e+03 3.418937683105468750e+01 4.914032220840454102e-01 -3.734254539012908936e-01 2.943373024463653564e-01 -2.372644841670989990e-02 1.935848221182823181e-02
1.548000000000000000e+03 3.686632919311523438e+01 -1.506281757354736328e+01 -5.971149802207946777e-01 -1.033818870782852173e-01 -2.101490497589111328e-01 3.826374709606170654e-01
1.549000000000000000e+03 3.616370010375976562e+01 -4.106814384460449219e+00 3.054849803447723389e-01 4.444019496440887451e-02 1.049775481224060059e-01 -3.104377985000610352e-01
1.550000000000000000e+03 4.038191604614257812e+01 -1.110239219665527344e+01 -2.544212043285369873e-01 9.683085680007934570e-01 2.141662091016769409e-01 2.326493710279464722e-01
1.551000000000000000e+03 2.873264503479003906e+01 -5.152351379394531250e+00 4.305984079837799072e-02 -1.000095158815383911e-02 9.917666204273700714e-03 -2.355278730392456055e-01
1.552000000000000000e+03 4.063301086425781250e+01 -6.527186393737792969e+00 6.430107355117797852e-01 4.053592979907989502e-01 3.145110011100769043e-01 2.322023510932922363e-01
1.553000000000000000e+03 3.959876251220703125e+01 -7.048149585723876953e+00 1.917393207550048828e-01 -2.320700436830520630e-01 -1.209921389818191528e-02 3.161520063877105713e-01
1.554000000000000000e+03 4.203865432739257812e+01 -1.123207092285156250e+01 -5.562828779220581055e-01 2.066097736358642578e+00 4.529444575309753418e-01 9.051178693771362305e-01
1.555000000000000000e+03 5.066069412231445312e+01 1.573868942260742188e+01 -1.507389068603515625e+00 9.633600711822509766e-01 -1.632087081670761108e-01 -8.997667431831359863e-01
1.556000000000000000e+03 3.428890991210937500e+01 -1.519830417633056641e+01 -5.113455653190612793e-01 1.415817290544509888e-01 -1.109291464090347290e-01 1.048612669110298157e-01
1.557000000000000000e+03 3.076160812377929688e+01 -9.035705566406250000e+00 -1.268560737371444702e-01 3.386825025081634521e-01 6.354792416095733643e-02 -1.052603963762521744e-02
1.558000000000000000e+03 3.284968185424804688e+01 -1.245962142944335938e+01 -2.972791790962219238e-01 1.916841417551040649e-01 -3.167851641774177551e-02 1.041730418801307678e-01
1.559000000000000000e+03 3.357446289062500000e+01 -1.374302101135253906e+01 -4.464705586433410645e-01 1.545240283012390137e-01 -8.758395910263061523e-02 1.326630413532257080e-01
1.560000000000000000e+03 3.726861190795898438e+01 -1.276865601539611816e+00 -5.267005562782287598e-01 -8.365306258201599121e-02 -1.831060945987701416e-01 -2.386958599090576172e-01
1.561000000000000000e+03 3.464580535888671875e+01 -1.698191452026367188e+01 -4.665673971176147461e-01 2.371130138635635376e-01 -6.883631646633148193e-02 4.925457760691642761e-02
1.562000000000000000e+03 4.082953643798828125e+01 -9.359861373901367188e+00 -3.819888532161712646e-01 1.099126219749450684e+00 2.151411920785903931e-01 6.014395952224731445e-01
1.563000000000000000e+03 4.343198776245117188e+01 -7.588897347450256348e-01 -7.300750017166137695e-01 9.221008419990539551e-01 5.760776624083518982e-02 3.031368255615234375e-01
1.564000000000000000e+03 4.535602569580078125e+01 5.452008843421936035e-01 -4.558801651000976562e-01 3.745346367359161377e-01 -2.440366148948669434e-02 1.678818345069885254e+00
1.565000000000000000e+03 4.573619079589843750e+01 1.805377364158630371e+00 3.119774162769317627e-01 -3.845534622669219971e-01 -2.177281863987445831e-02 1.054840326309204102e+00
1.566000000000000000e+03 3.673571777343750000e+01 3.952280282974243164e+00 -3.548354655504226685e-02 -2.313280478119850159e-02 -1.758490502834320068e-02 5.663722753524780273e-02
1.567000000000000000e+03 4.925244522094726562e+01 7.282577037811279297e+00 -6.434935331344604492e-01 -2.002689838409423828e+00 -7.938550114631652832e-01 -1.652228116989135742e+00
1.568000000000000000e+03 4.239659881591796875e+01 -5.869382619857788086e-01 -1.410881876945495605e+00 5.798252820968627930e-01 -2.493170052766799927e-01 -3.289097845554351807e-01
1.569000000000000000e+03 4.791269302368164062e+01 5.251367092132568359e+00 9.073392748832702637e-01 -2.254028558731079102e+00 -4.040067493915557861e-01 -5.509440302848815918e-01
1.570000000000000000e+03 4.718631362915039062e+01 4.171322345733642578e+00 1.166614055633544922e+00 -1.971409916877746582e+00 -2.414387464523315430e-01 -3.821821138262748718e-02
1.571000000000000000e+03 5.251402282714843750e+01 7.896942615509033203e+00 4.300902783870697021e-01 6.614450931549072266e+00 2.113362312316894531e+00 1.536546349525451660e+00
1.572000000000000000e+03 4.979573822021484375e+01 8.090121269226074219e+00 -1.332320570945739746e+00 -9.076532721519470215e-01 -6.719921827316284180e-01 -1.797691106796264648e+00
1.573000000000000000e+03 3.544194030761718750e+01 1.630757713317871094e+01 -9.342278838157653809e-01 -2.551981210708618164e-01 -3.568277955055236816e-01 5.091255158185958862e-02
1.574000000000000000e+03 3.176705741882324219e+01 1.523348331451416016e+01 -9.900302290916442871e-01 2.217279933393001556e-02 -2.903572320938110352e-01 1.517101973295211792e-01
1.575000000000000000e+03 3.053639411926269531e+01 1.460090923309326172e+01 -6.412602663040161133e-01 4.146253317594528198e-02 -1.799393147230148315e-01 1.304804533720016479e-02
1.576000000000000000e+03 2.699786758422851562e+01 1.420959353446960449e+00 -7.367061078548431396e-02 -7.303613424301147461e-02 -4.401202499866485596e-02 -7.994884252548217773e-02
1.577000000000000000e+03 5.188306427001953125e+01 -3.790961265563964844e+00 -3.014260053634643555e+00 2.259330511093139648e+00 -2.264788448810577393e-01 -1.618151217699050903e-01
1.578000000000000000e+03 4.728754043579101562e+01 -1.587525367736816406e+00 -2.576655745506286621e-01 3.408161699771881104e-01 2.494517527520656586e-02 3.673130512237548828e+00
1.579000000000000000e+03 2.875446128845214844e+01 1.372370529174804688e+01 -3.490589559078216553e-01 -6.301538646221160889e-02 -1.236222982406616211e-01 3.152617439627647400e-02
1.580000000000000000e+03 2.764686203002929688e+01 1.346672725677490234e+01 -2.013913691043853760e-01 -5.262270197272300720e-02 -7.620421797037124634e-02 4.485436156392097473e-02
1.581000000000000000e+03 2.651110076904296875e+01 9.370013236999511719e+00 -1.577465683221817017e-01 -1.185634508728981018e-01 -8.289300650358200073e-02 -1.168147101998329163e-01
1.582000000000000000e+03 7.642787933349609375e+01 -3.894373703002929688e+01 2.382179722189903259e-02 7.423430919647216797e+00 2.234175920486450195e+00 6.370183825492858887e-02
1.583000000000000000e+03 7.901103973388671875e+01 -3.872080612182617188e+01 2.597979083657264709e-02 7.676669597625732422e+00 2.310794830322265625e+00 5.224725231528282166e-02
1.584000000000000000e+03 7.930823516845703125e+01 -3.331074142456054688e+01 2.798583917319774628e-02 8.045231819152832031e+00 2.421965122222900391e+00 3.325581550598144531e-02
1.585000000000000000e+03 7.780754089355468750e+01 -3.569927597045898438e+01 -2.683241106569766998e-02 7.617502689361572266e+00 2.277200937271118164e+00 1.196233853697776794e-01
1.586000000000000000e+03 7.933316040039062500e+01 -3.193190193176269531e+01 -2.190555073320865631e-02 8.136820793151855469e+00 2.434474468231201172e+00 4.985902085900306702e-02
1.587000000000000000e+03 7.935605621337890625e+01 -3.055135154724121094e+01 2.790494076907634735e-02 8.251197814941406250e+00 2.483731031417846680e+00 4.659590497612953186e-02
1.588000000000000000e+03 7.937110137939453125e+01 -2.917329406738281250e+01 -2.053136751055717468e-02 8.383472442626953125e+00 2.508882284164428711e+00 6.374124437570571899e-02
1.589000000000000000e+03 7.937624359130859375e+01 -2.779545402526855469e+01 2.574089542031288147e-02 8.540682792663574219e+00 2.569927215576171875e+00 6.227602064609527588e-02
1.590000000000000000e+03 7.935977935791015625e+01 -2.502208900451660156e+01 1.332600694149732590e-02 8.886030197143554688e+00 2.669806718826293945e+00 6.259530782699584961e-02
1.591000000000000000e+03 7.934922790527343750e+01 -2.362872695922851562e+01 -2.922071702778339386e-02 9.034109115600585938e+00 2.701466560363769531e+00 5.111008137464523315e-02
1.592000000000000000e+03 7.935289001464843750e+01 -2.223567199707031250e+01 8.262259885668754578e-03 9.145112037658691406e+00 2.746012449264526367e+00 2.372969128191471100e-02
1.593000000000000000e+03 7.937022399902343750e+01 -2.083985900878906250e+01 -6.970808655023574829e-02 9.171753883361816406e+00 2.730613708496093750e+00 -3.454034030437469482e-02
1.594000000000000000e+03 7.724177551269531250e+01 3.452194976806640625e+01 -6.359576433897018433e-02 6.610595703125000000e+00 1.964100003242492676e+00 1.174486055970191956e-01
1.595000000000000000e+03 7.901084899902343750e+01 3.615178680419921875e+01 -1.284661795943975449e-02 6.863916873931884766e+00 2.055321216583251953e+00 2.680684626102447510e-02
1.596000000000000000e+03 7.561981201171875000e+01 -2.739464759826660156e+01 3.380582481622695923e-02 7.338881969451904297e+00 2.211806297302246094e+00 3.600382208824157715e-01
1.597000000000000000e+03 7.772926330566406250e+01 -3.692712783813476562e+01 2.930702827870845795e-02 7.572076320648193359e+00 2.280415058135986328e+00 9.387947618961334229e-02
1.598000000000000000e+03 7.938710021972656250e+01 1.248347377777099609e+01 -5.859742686152458191e-02 5.658999919891357422e+00 1.680120706558227539e+00 -6.473414134234189987e-03
1.599000000000000000e+03 7.693588256835937500e+01 1.172830486297607422e+01 -6.452295780181884766e-01 7.553359985351562500e+00 2.072438955307006836e+00 -4.951168894767761230e-01
1.600000000000000000e+03 7.933863830566406250e+01 1.388511180877685547e+01 -2.468869835138320923e-02 5.540871620178222656e+00 1.654854893684387207e+00 -9.602970629930496216e-02
1.601000000000000000e+03 7.801692962646484375e+01 1.375241851806640625e+01 -3.243494033813476562e-02 5.937019824981689453e+00 1.771375417709350586e+00 -2.792162597179412842e-01
1.602000000000000000e+03 7.926467895507812500e+01 2.089495658874511719e+01 1.110846623778343201e-01 5.374254226684570312e+00 1.645601749420166016e+00 9.482802450656890869e-02
1.603000000000000000e+03 7.926497650146484375e+01 2.229141807556152344e+01 -9.481450170278549194e-02 5.560999393463134766e+00 1.639855504035949707e+00 1.063561737537384033e-01
1.604000000000000000e+03 7.928555297851562500e+01 1.810335540771484375e+01 1.043052449822425842e-01 5.178176879882812500e+00 1.584744691848754883e+00 1.827293634414672852e-02
1.605000000000000000e+03 7.929318237304687500e+01 2.507170677185058594e+01 -8.510278165340423584e-02 5.953908443450927734e+00 1.760641694068908691e+00 1.064207553863525391e-01
1.606000000000000000e+03 7.931555175781250000e+01 2.644835853576660156e+01 6.397423893213272095e-02 6.141627788543701172e+00 1.861680626869201660e+00 8.978173136711120605e-02
1.607000000000000000e+03 7.775218200683593750e+01 3.036968421936035156e+01 8.420322090387344360e-03 6.455539226531982422e+00 1.939187884330749512e+00 1.704481393098831177e-01
1.608000000000000000e+03 7.788458251953125000e+01 2.904324722290039062e+01 -6.621772795915603638e-02 6.378096580505371094e+00 1.893563628196716309e+00 1.984642595052719116e-01
1.609000000000000000e+03 7.914338684082031250e+01 3.334835433959960938e+01 -3.083495423197746277e-02 6.766726016998291016e+00 2.020767211914062500e+00 4.736237600445747375e-02
1.610000000000000000e+03 7.939838409423828125e+01 7.005179882049560547e+00 3.991063237190246582e-01 4.587729930877685547e+00 1.496050834655761719e+00 -3.580545485019683838e-01
1.611000000000000000e+03 7.809169006347656250e+01 4.176388549804687500e+01 6.013517826795578003e-02 6.838959693908691406e+00 2.069728612899780273e+00 -1.678748801350593567e-02
1.612000000000000000e+03 7.940144348144531250e+01 -1.522703742980957031e+01 -1.114548817276954651e-01 7.791265487670898438e+00 2.303943157196044922e+00 -2.285232394933700562e-01
1.613000000000000000e+03 7.946472167968750000e+01 -1.113092327117919922e+01 1.525588035583496094e-01 7.178706645965576172e+00 2.199379682540893555e+00 9.465661644935607910e-02
1.614000000000000000e+03 7.836621093750000000e+01 -1.367176628112792969e+01 1.255477964878082275e-01 7.930233478546142578e+00 2.416734457015991211e+00 -3.079719543457031250e-01
1.615000000000000000e+03 7.938323974609375000e+01 -1.943870353698730469e+01 1.745393872261047363e-02 9.059916496276855469e+00 2.723211050033569336e+00 -1.049237772822380066e-01
1.616000000000000000e+03 7.938037109375000000e+01 -1.803071594238281250e+01 -1.189059391617774963e-01 8.763837814331054688e+00 2.593479394912719727e+00 -2.025434672832489014e-01
1.617000000000000000e+03 7.941334533691406250e+01 -8.372228622436523438e+00 1.120024695992469788e-01 8.346422195434570312e+00 2.537527322769165039e+00 3.350659310817718506e-01
1.618000000000000000e+03 7.730467987060546875e+01 -1.116968250274658203e+01 5.832620859146118164e-01 8.413632392883300781e+00 2.699068307876586914e+00 2.842015624046325684e-01
1.619000000000000000e+03 7.937922668457031250e+01 -4.203476905822753906e+00 -5.458624660968780518e-02 1.132398986816406250e+01 3.380821228027343750e+00 4.703389406204223633e-01
1.620000000000000000e+03 7.818849182128906250e+01 -7.018225193023681641e+00 1.376605033874511719e-01 9.080792427062988281e+00 2.765535831451416016e+00 1.042592167854309082e+00
1.621000000000000000e+03 7.924173736572265625e+01 -1.368693351745605469e+00 -4.008926078677177429e-02 1.330059337615966797e+01 3.978151082992553711e+00 4.413122534751892090e-01
1.622000000000000000e+03 7.702026367187500000e+01 -4.355420589447021484e+00 -7.928538322448730469e-02 9.023855209350585938e+00 2.683371067047119141e+00 1.474024057388305664e+00
1.623000000000000000e+03 7.941596221923828125e+01 1.442808508872985840e+00 -8.842645585536956787e-02 1.339148902893066406e+01 3.990918874740600586e+00 -6.020132899284362793e-01
1.624000000000000000e+03 7.936952972412109375e+01 2.849138736724853516e+00 -3.378762900829315186e-01 1.150940799713134766e+01 3.351459503173828125e+00 -1.121746897697448730e+00
1.625000000000000000e+03 7.939483642578125000e+01 4.269643306732177734e+00 2.436075061559677124e-01 9.169200897216796875e+00 2.823842763900756836e+00 -1.304720997810363770e+00
1.626000000000000000e+03 7.759967803955078125e+01 3.172056007385253906e+01 -5.268325284123420715e-02 6.520742893218994141e+00 1.940417885780334473e+00 1.592821627855300903e-01
1.627000000000000000e+03 7.760241699218750000e+01 7.704307079315185547e+00 2.082984209060668945e+00 8.755863189697265625e+00 3.251654386520385742e+00 -6.467245221138000488e-01
1.628000000000000000e+03 7.763409423828125000e+01 6.185562610626220703e+00 1.515783429145812988e+00 9.835607528686523438e+00 3.405417203903198242e+00 -2.093093633651733398e+00
1.629000000000000000e+03 7.816926574707031250e+01 -1.930592346191406250e+01 -2.469759732484817505e-01 8.738364219665527344e+00 2.547416448593139648e+00 -2.449058890342712402e-01
1.630000000000000000e+03 4.226210021972656250e+01 -8.045145034790039062e+00 5.279158800840377808e-02 2.134631156921386719e+00 6.562268137931823730e-01 7.033860087394714355e-01
1.631000000000000000e+03 7.436769866943359375e+01 -1.332074451446533203e+01 1.322312831878662109e+00 1.006023693084716797e+01 3.414764881134033203e+00 -1.547973304986953735e-01
1.632000000000000000e+03 2.730610275268554688e+01 -5.128978252410888672e+00 1.079658195376396179e-01 -2.675938010215759277e-01 -4.788839071989059448e-02 -1.500138789415359497e-01
1.633000000000000000e+03 5.686780929565429688e+01 -1.152222537994384766e+01 1.543177217245101929e-01 6.676030158996582031e+00 2.049104452133178711e+00 -1.040753349661827087e-01
1.634000000000000000e+03 5.618567657470703125e+01 -9.346668243408203125e+00 1.762087345123291016e-01 5.362807273864746094e+00 1.661704897880554199e+00 -2.728024423122406006e-01
1.635000000000000000e+03 5.598314285278320312e+01 -1.456669139862060547e+01 6.186574101448059082e-01 9.874295234680175781e+00 3.147885799407958984e+00 -6.808758974075317383e-01
1.636000000000000000e+03 5.805841445922851562e+01 -1.161421585083007812e+01 3.464361429214477539e-01 6.866268157958984375e+00 2.163811206817626953e+00 6.138939857482910156e-01
1.637000000000000000e+03 4.554187393188476562e+01 -1.167761421203613281e+01 -4.455539882183074951e-01 1.767568826675415039e+00 3.966044485569000244e-01 1.060133203864097595e-01
1.638000000000000000e+03 4.858195877075195312e+01 -2.001600265502929688e+00 -3.705195486545562744e-01 -7.317651510238647461e-01 -3.306854069232940674e-01 2.660303592681884766e+00
1.639000000000000000e+03 5.272572708129882812e+01 -4.915956974029541016e+00 -2.578435182571411133e+00 2.554475545883178711e+00 -7.187905721366405487e-03 -2.506881356239318848e-01
1.640000000000000000e+03 5.148418807983398438e+01 -2.564237833023071289e+00 -2.721420288085937500e+00 2.833586215972900391e+00 3.364976868033409119e-02 -1.177240684628486633e-01
1.641000000000000000e+03 4.406150817871093750e+01 -9.145715713500976562e+00 -3.018715977668762207e-01 3.040112257003784180e+00 8.214722275733947754e-01 2.392531484365463257e-01
1.642000000000000000e+03 5.732076644897460938e+01 -1.551582527160644531e+01 8.675743937492370605e-01 8.710725784301757812e+00 2.873490095138549805e+00 4.272197782993316650e-01
1.643000000000000000e+03 4.724810409545898438e+01 -1.226238727569580078e+01 -2.754509747028350830e-01 3.120204806327819824e-01 1.097085420042276382e-02 -3.665128489956259727e-03
1.644000000000000000e+03 4.715773773193359375e+01 -1.432567787170410156e+01 -5.904842615127563477e-01 5.771732926368713379e-01 -3.993289545178413391e-03 6.264965981245040894e-02
1.645000000000000000e+03 5.444105911254882812e+01 -7.120818614959716797e+00 -4.063996970653533936e-01 3.283068656921386719e+00 8.630006909370422363e-01 -7.365927696228027344e-01
1.646000000000000000e+03 5.106313323974609375e+01 -1.880708312988281250e+01 -1.869833827018737793e+00 1.357467323541641235e-01 -5.202261209487915039e-01 2.540138661861419678e-01
1.647000000000000000e+03 5.528526687622070312e+01 -8.238028526306152344e+00 1.401580572128295898e-01 4.044810771942138672e+00 1.255490660667419434e+00 -8.559497594833374023e-01
1.648000000000000000e+03 2.091557741165161133e+00 2.609180259704589844e+01 -2.928955014795064926e-03 -1.400733441114425659e-01 -4.290069267153739929e-02 3.556745499372482300e-02
1.649000000000000000e+03 7.060741782188415527e-01 3.183043479919433594e+01 2.805669326335191727e-03 -2.488978803157806396e-01 -7.382766157388687134e-02 1.091236621141433716e-02
1.650000000000000000e+03 1.950680613517761230e+00 3.445843124389648438e+01 2.206092176493257284e-04 -2.657992243766784668e-01 -7.967358827590942383e-02 2.673713676631450653e-02
1.651000000000000000e+03 3.552189588546752930e+00 3.901033782958984375e+01 8.562826551496982574e-03 -2.951355576515197754e-01 -8.597181737422943115e-02 2.261671051383018494e-02
1.652000000000000000e+03 9.764684438705444336e-01 3.867586135864257812e+01 -3.206998342648148537e-03 -3.241452872753143311e-01 -9.820568561553955078e-02 4.067610017955303192e-03
1.653000000000000000e+03 1.991882681846618652e+00 -3.782079696655273438e+01 7.051757536828517914e-03 -3.964395225048065186e-01 -1.168163269758224487e-01 -9.017461910843849182e-03
1.654000000000000000e+03 7.077074646949768066e-01 -3.751193237304687500e+01 1.098697725683450699e-02 -4.285318553447723389e-01 -1.252634674310684204e-01 -1.238540979102253914e-03
1.655000000000000000e+03 2.030369758605957031e+00 2.332550239562988281e+01 -4.419978708028793335e-03 -1.014438793063163757e-01 -3.175915777683258057e-02 2.777406200766563416e-02
1.656000000000000000e+03 2.168360471725463867e+00 3.030065536499023438e+01 2.676714910194277763e-03 -2.056517750024795532e-01 -6.089251860976219177e-02 3.710862621665000916e-02
1.657000000000000000e+03 2.338254928588867188e+00 3.679043197631835938e+01 5.269540939480066299e-03 -2.889921665191650391e-01 -8.511678874492645264e-02 2.260748483240604401e-02
1.658000000000000000e+03 8.358130455017089844e-01 -3.049214363098144531e+01 -2.207652665674686432e-03 -3.430822789669036865e-01 -1.035869792103767395e-01 -1.585549674928188324e-02
1.659000000000000000e+03 5.593510866165161133e-01 -6.478917121887207031e+00 1.865240279585123062e-03 8.993067778646945953e-03 3.257492557168006897e-03 5.015179631300270557e-04
1.660000000000000000e+03 2.083344936370849609e+00 -4.075297832489013672e+00 -2.635282231494784355e-03 1.581509131938219070e-03 -3.161319473292678595e-04 3.700479632243514061e-03
1.661000000000000000e+03 6.019278764724731445e-01 -1.068966197967529297e+01 -3.543386468663811684e-03 1.447320682927966118e-04 -1.019596355035901070e-03 -3.200368722900748253e-03
1.662000000000000000e+03 1.727481842041015625e+00 -9.291216850280761719e+00 -5.358186550438404083e-03 -2.834774553775787354e-03 -2.457888331264257431e-03 -5.418234504759311676e-03
1.663000000000000000e+03 6.559097170829772949e-01 -1.351761817932128906e+01 -3.678045934066176414e-03 -2.266954071819782257e-02 -7.904276251792907715e-03 -6.820940878242254257e-03
1.664000000000000000e+03 7.135061621665954590e-01 -1.777829360961914062e+01 1.837822142988443375e-03 -8.287470042705535889e-02 -2.431106194853782654e-02 -1.269324775785207748e-02
1.665000000000000000e+03 2.088414669036865234e+00 -1.636129570007324219e+01 -7.916372851468622684e-04 -6.606050580739974976e-02 -2.005564235150814056e-02 -3.092000447213649750e-02
1.666000000000000000e+03 7.270702719688415527e-01 -1.920177078247070312e+01 -3.077147295698523521e-03 -1.085556447505950928e-01 -3.348983824253082275e-02 -1.352100819349288940e-02
1.667000000000000000e+03 7.399423718452453613e-01 -2.062532615661621094e+01 1.802140031941235065e-03 -1.362591981887817383e-01 -4.033711552619934082e-02 -1.522907894104719162e-02
1.668000000000000000e+03 7.503980994224548340e-01 -2.204655075073242188e+01 -3.254437120631337166e-03 -1.658635586500167847e-01 -5.073539912700653076e-02 -1.607668772339820862e-02
1.669000000000000000e+03 7.649848461151123047e-01 -2.346595001220703125e+01 3.146364353597164154e-03 -1.967784762382507324e-01 -5.808963254094123840e-02 -1.686055026948451996e-02
1.670000000000000000e+03 2.509059667587280273e+00 -2.631312179565429688e+01 -2.251624362543225288e-03 -2.330611348152160645e-01 -7.059382647275924683e-02 -4.891173541545867920e-02
1.671000000000000000e+03 1.983495712280273438e+00 1.622562408447265625e+01 -3.853240632452070713e-04 -4.274080321192741394e-02 -1.293783821165561676e-02 5.881884135305881500e-03
1.672000000000000000e+03 6.318991780281066895e-01 1.490882110595703125e+01 1.219806959852576256e-03 -3.871793299913406372e-02 -1.124943792819976807e-02 1.010435400530695915e-03
1.673000000000000000e+03 5.898498296737670898e-01 1.070828628540039062e+01 -3.095678112003952265e-04 -2.744857594370841980e-02 -8.327443152666091919e-03 2.886586822569370270e-03
1.674000000000000000e+03 6.036857962608337402e-01 7.896427154541015625e+00 -2.291261334903538227e-04 -1.206382736563682556e-02 -3.687886055558919907e-03 3.741849679499864578e-03
1.675000000000000000e+03 2.099599599838256836e+00 1.905048751831054688e+01 -2.037733094766736031e-03 -5.763171613216400146e-02 -1.790083386003971100e-02 1.384756341576576233e-02
1.676000000000000000e+03 2.023025035858154297e+00 2.191989517211914062e+01 -2.358691534027457237e-03 -8.432283252477645874e-02 -2.600445598363876343e-02 2.393211983144283295e-02
1.677000000000000000e+03 3.256924867630004883e+00 -3.876715469360351562e+01 1.052549108862876892e-02 -3.872627913951873779e-01 -1.130211949348449707e-01 -1.677469350397586823e-02
1.678000000000000000e+03 2.640784978866577148e+00 -3.195114135742187500e+01 2.134482376277446747e-03 -3.205922842025756836e-01 -9.553734213113784790e-02 -4.210696369409561157e-02
1.679000000000000000e+03 2.414998531341552734e+00 -2.494054603576660156e+01 4.750774241983890533e-03 -2.099034339189529419e-01 -6.154580041766166687e-02 -5.039247870445251465e-02
1.680000000000000000e+03 7.906004786491394043e-01 -2.487541961669921875e+01 -3.507558023557066917e-03 -2.272003889083862305e-01 -6.921238452196121216e-02 -1.647631265223026276e-02
1.681000000000000000e+03 2.031262636184692383e+00 -1.492810153961181641e+01 -6.874227430671453476e-03 -4.784198477864265442e-02 -1.641486398875713348e-02 -2.507198601961135864e-02
1.682000000000000000e+03 6.782568693161010742e-01 -1.493594074249267578e+01 1.821757294237613678e-03 -3.946978226304054260e-02 -1.129440777003765106e-02 -9.029481559991836548e-03
1.683000000000000000e+03 2.757465124130249023e+00 -6.696411132812500000e+00 -1.060556038282811642e-03 -1.485775341279804707e-03 -7.638994138687849045e-04 -9.779972024261951447e-04
1.684000000000000000e+03 5.591459870338439941e-01 -7.884525299072265625e+00 -3.016755683347582817e-03 9.105960838496685028e-03 1.826761523261666298e-03 -4.891513963229954243e-04
1.685000000000000000e+03 1.424448609352111816e+00 -3.247672796249389648e+00 3.074201231356710196e-04 2.780142007395625114e-03 9.262686362490057945e-04 2.379676327109336853e-03
1.686000000000000000e+03 1.841972351074218750e+00 1.346887397766113281e+01 1.865623402409255505e-03 -3.394780680537223816e-02 -9.624654427170753479e-03 3.186289686709642410e-03
1.687000000000000000e+03 3.087469863891601562e+01 3.471451520919799805e+00 -1.108821034431457520e-01 7.709466386586427689e-03 -3.095179051160812378e-02 -5.248900130391120911e-02
1.688000000000000000e+03 3.212312316894531250e+01 4.303225994110107422e+00 -1.179109066724777222e-01 2.112683653831481934e-02 -2.903522178530693054e-02 -2.296878583729267120e-02
1.689000000000000000e+03 3.431394577026367188e+01 6.043136596679687500e+00 -3.891104459762573242e-02 -9.912820532917976379e-03 -1.464715972542762756e-02 1.105938013643026352e-02
1.690000000000000000e+03 3.139816093444824219e+01 5.416252136230468750e+00 -4.950746148824691772e-02 -8.867475204169750214e-03 -1.751248165965080261e-02 -2.247995324432849884e-02
1.691000000000000000e+03 2.461680793762207031e+01 -4.340047836303710938e+00 -2.579819224774837494e-02 -3.559824526309967041e-01 -1.145341917872428894e-01 6.125541031360626221e-02
1.692000000000000000e+03 2.751662063598632812e+01 -3.756267070770263672e+00 6.471603363752365112e-02 -1.734325885772705078e-01 -3.261496499180793762e-02 -2.171287983655929565e-01
1.693000000000000000e+03 1.528860950469970703e+01 -4.470291614532470703e+00 -1.687778159976005554e-02 1.696149469353258610e-03 -4.554490093141794205e-03 2.754241693764925003e-03
1.694000000000000000e+03 2.395267295837402344e+01 -2.284592151641845703e+00 2.166607044637203217e-02 -1.377814859151840210e-01 -3.483462333679199219e-02 2.392605133354663849e-02
1.695000000000000000e+03 2.296664810180664062e+01 -2.407865762710571289e+00 1.893783104605972767e-03 -3.513108193874359131e-02 -9.971190243959426880e-03 4.169763997197151184e-03
1.696000000000000000e+03 1.877103996276855469e+01 -7.370004653930664062e+00 -1.098378002643585205e-01 4.041970707476139069e-03 -3.173875063657760620e-02 2.811987884342670441e-02
1.697000000000000000e+03 2.670550155639648438e+01 1.489496231079101562e+01 -2.970700562000274658e-01 -3.427688032388687134e-02 -9.940407425165176392e-02 2.772442698478698730e-01
1.698000000000000000e+03 2.137406349182128906e+01 1.810967445373535156e+01 -5.428773164749145508e-01 -8.305468596518039703e-03 -1.653548330068588257e-01 1.938236057758331299e-01
1.699000000000000000e+03 1.509183216094970703e+01 1.497309207916259766e+01 -7.580246776342391968e-02 4.206455498933792114e-02 -1.012137345969676971e-02 2.837750129401683807e-02
1.700000000000000000e+03 1.415800476074218750e+01 1.370817470550537109e+01 -1.681909523904323578e-02 3.372246772050857544e-02 5.071012303233146667e-03 2.541326731443405151e-02
1.701000000000000000e+03 1.852753829956054688e+01 1.693244361877441406e+01 -2.499410808086395264e-01 3.534328565001487732e-02 -6.437934190034866333e-02 6.091148778796195984e-02
1.702000000000000000e+03 1.130064392089843750e+01 1.062902259826660156e+01 2.773441933095455170e-02 4.048309102654457092e-02 2.046525292098522186e-02 2.984089590609073639e-02
1.703000000000000000e+03 1.992335319519042969e+01 1.747860717773437500e+01 -3.443198204040527344e-01 5.063383653759956360e-02 -8.810579776763916016e-02 6.068842113018035889e-02
1.704000000000000000e+03 2.532872772216796875e+01 1.232066631317138672e+01 -1.529853790998458862e-02 8.388993144035339355e-02 2.057741768658161163e-02 -1.446134783327579498e-02
1.705000000000000000e+03 2.782726669311523438e+01 1.451040554046630859e+01 -3.736375868320465088e-01 6.090354640036821365e-03 -1.102641671895980835e-01 1.819393634796142578e-01
1.706000000000000000e+03 2.213509559631347656e+01 8.002949714660644531e+00 -5.585409328341484070e-02 2.525471709668636322e-02 -9.179812856018543243e-03 -2.998736128211021423e-02
1.707000000000000000e+03 2.366365432739257812e+01 9.892728805541992188e+00 -4.766887053847312927e-02 5.222278833389282227e-02 1.366175594739615917e-03 -6.098247133195400238e-03
1.708000000000000000e+03 1.899622535705566406e+01 8.713863372802734375e+00 5.977569520473480225e-02 3.087367489933967590e-02 2.719481103122234344e-02 2.406126447021961212e-02
1.709000000000000000e+03 1.931567764282226562e+01 6.592551231384277344e+00 -7.827658206224441528e-02 1.854337379336357117e-02 -1.791996322572231293e-02 -1.913232170045375824e-02
1.710000000000000000e+03 2.246339416503906250e+01 1.131051445007324219e+01 6.088941171765327454e-02 8.700871467590332031e-02 4.436943680047988892e-02 7.588624954223632812e-02
1.711000000000000000e+03 4.937667465209960938e+01 1.520741176605224609e+01 -2.530485868453979492e+00 -5.278084874153137207e-01 -9.174883365631103516e-01 1.745730489492416382e-01
1.712000000000000000e+03 4.375891113281250000e+01 1.433133506774902344e+01 -1.078447818756103516e+00 1.711786240339279175e-01 -2.721807360649108887e-01 -2.044560909271240234e-01
1.713000000000000000e+03 2.818926429748535156e+01 2.362150430679321289e+00 -1.151557117700576782e-01 -6.149510666728019714e-02 -5.299524590373039246e-02 -5.586925148963928223e-02
1.714000000000000000e+03 6.579904174804687500e+01 5.236474037170410156e+00 2.258344441652297974e-01 8.602852821350097656e+00 2.648606300354003906e+00 -2.181239724159240723e-01
1.715000000000000000e+03 6.966773223876953125e+01 1.003395175933837891e+01 3.535960614681243896e-01 6.360679149627685547e+00 2.014282464981079102e+00 4.591694176197052002e-01
1.716000000000000000e+03 3.655894851684570312e+01 1.566585636138916016e+01 -1.080694675445556641e+00 -7.089605182409286499e-02 -3.454772233963012695e-01 1.143490821123123169e-01
1.717000000000000000e+03 3.499992370605468750e+01 1.487486267089843750e+01 -1.513752222061157227e+00 -4.459491670131683350e-01 -5.879104137420654297e-01 2.786756455898284912e-01
1.718000000000000000e+03 5.403582382202148438e+01 1.317273712158203125e+01 9.597460627555847168e-01 5.778610706329345703e+00 2.021507024765014648e+00 -2.988199949264526367e+00
1.719000000000000000e+03 5.395101928710937500e+01 1.285932731628417969e+01 1.656206607818603516e+00 4.840690135955810547e+00 1.949069023132324219e+00 -3.151614904403686523e+00
1.720000000000000000e+03 5.353892898559570312e+01 1.311574935913085938e+01 1.383291363716125488e+00 3.551443338394165039e+00 1.480420351028442383e+00 -2.391840934753417969e+00
1.721000000000000000e+03 5.434534454345703125e+01 1.278844547271728516e+01 1.246668577194213867e+00 7.662861347198486328e+00 2.672858953475952148e+00 -3.869679212570190430e+00
1.722000000000000000e+03 5.453680419921875000e+01 1.276163101196289062e+01 8.256183862686157227e-01 9.220849037170410156e+00 3.013940334320068359e+00 -3.829186677932739258e+00
1.723000000000000000e+03 5.489566040039062500e+01 9.521404266357421875e+00 -2.416465759277343750e+00 1.692176628112792969e+01 4.351590156555175781e+00 8.038847923278808594e+00
1.724000000000000000e+03 5.334258270263671875e+01 9.542548179626464844e+00 7.352549582719802856e-02 5.133535385131835938e+00 1.562118172645568848e+00 3.378710985183715820e+00
1.725000000000000000e+03 5.260251617431640625e+01 9.428848266601562500e+00 -4.619864821434020996e-01 3.094779014587402344e+00 7.898377180099487305e-01 8.443790674209594727e-01
1.726000000000000000e+03 5.312524032592773438e+01 9.525477409362792969e+00 -9.947558492422103882e-02 4.213092327117919922e+00 1.234084963798522949e+00 2.377495765686035156e+00
1.727000000000000000e+03 5.601056671142578125e+01 1.291808605194091797e+01 -1.189300194382667542e-01 1.364425754547119141e+01 4.057598590850830078e+00 3.317648410797119141e+00
1.728000000000000000e+03 5.473860931396484375e+01 1.295107555389404297e+01 2.061994746327400208e-02 1.066759967803955078e+01 3.206465959548950195e+00 -3.097699880599975586e+00
1.729000000000000000e+03 5.532217788696289062e+01 9.420945167541503906e+00 -3.302585601806640625e+00 1.841977500915527344e+01 4.535156726837158203e+00 5.748033046722412109e+00
1.730000000000000000e+03 5.683892440795898438e+01 1.038998508453369141e+01 2.399775981903076172e+00 5.625945091247558594e+00 2.407716274261474609e+00 8.969330787658691406e-01
1.731000000000000000e+03 5.778813171386718750e+01 1.196121215820312500e+01 4.629351615905761719e+00 2.957151412963867188e+00 2.275950908660888672e+00 4.185455322265625000e+00
1.732000000000000000e+03 5.925991821289062500e+01 1.296350193023681641e+01 2.216618537902832031e+00 1.074442386627197266e+00 9.873182773590087891e-01 2.075922250747680664e+00
1.733000000000000000e+03 5.791329574584960938e+01 1.111059379577636719e+01 3.668976068496704102e+00 -3.878719359636306763e-02 1.089056611061096191e+00 1.566041231155395508e+00
1.734000000000000000e+03 5.626437377929687500e+01 1.275860691070556641e+01 9.378001093864440918e-01 1.270396137237548828e+01 4.092528343200683594e+00 4.612891674041748047e+00
1.735000000000000000e+03 5.727167129516601562e+01 1.163203430175781250e+01 6.172923088073730469e+00 4.475621700286865234e+00 3.194563627243041992e+00 4.766404628753662109e+00
1.736000000000000000e+03 5.178211593627929688e+01 8.545238494873046875e+00 -5.737295150756835938e-01 3.382936239242553711e+00 8.427619934082031250e-01 -1.311509013175964355e-01
1.737000000000000000e+03 5.276126098632812500e+01 1.339769744873046875e+01 8.697472214698791504e-01 1.950683355331420898e+00 8.461291790008544922e-01 -1.281201839447021484e+00
1.738000000000000000e+03 2.154555320739746094e+01 7.403102397918701172e+00 -9.017027169466018677e-02 4.246471449732780457e-02 -1.431166660040616989e-02 -2.978960983455181122e-02
1.739000000000000000e+03 5.592390823364257812e+01 9.685776710510253906e+00 -2.058312892913818359e+00 1.658278846740722656e+01 4.357342720031738281e+00 2.094540834426879883e+00
1.740000000000000000e+03 4.289736747741699219e+00 -2.379646062850952148e+00 2.007548231631517410e-03 -2.507968747522681952e-04 5.270253750495612621e-04 3.710139542818069458e-03
1.741000000000000000e+03 3.721192550659179688e+01 1.415025234222412109e+01 -1.101578593254089355e+00 2.607558481395244598e-02 -3.226508796215057373e-01 1.945511996746063232e-01
1.742000000000000000e+03 3.742044067382812500e+01 1.506753540039062500e+01 -9.949524402618408203e-01 6.257467716932296753e-02 -2.797133326530456543e-01 1.397462934255599976e-01
1.743000000000000000e+03 2.021958923339843750e+01 6.813088417053222656e+00 -6.155444681644439697e-02 7.588803302496671677e-03 -1.618969254195690155e-02 -3.785925358533859253e-02
1.744000000000000000e+03 3.819774627685546875e+01 1.478909778594970703e+01 -1.014566063880920410e+00 1.630483716726303101e-01 -2.554553151130676270e-01 1.260469108819961548e-01
1.745000000000000000e+03 5.213221740722656250e+01 1.358085823059082031e+01 4.339302182197570801e-01 1.165699362754821777e+00 4.798888862133026123e-01 -6.684720516204833984e-01
1.746000000000000000e+03 5.247983169555664062e+01 1.348918914794921875e+01 6.898702979087829590e-01 1.584757328033447266e+00 6.823882460594177246e-01 -1.067205429077148438e+00
1.747000000000000000e+03 5.378228187561035156e+00 -3.913083076477050781e+00 -5.615599453449249268e-03 -1.449557486921548843e-03 -2.119546988978981972e-03 1.655068597756326199e-03
1.748000000000000000e+03 1.073508453369140625e+01 -3.295451879501342773e+00 -8.423156104981899261e-03 -1.320072682574391365e-03 -2.922968706116080284e-03 -1.413179794326424599e-03
1.749000000000000000e+03 9.487740516662597656e+00 -2.440409898757934570e+00 4.954778123646974564e-04 -2.012801589444279671e-03 -4.551971214823424816e-04 1.817063457565382123e-05
1.750000000000000000e+03 2.563177824020385742e+00 3.531575441360473633e+00 -4.549932666122913361e-03 -1.899502472952008247e-03 -1.934830565005540848e-03 1.633130130358040333e-03
1.751000000000000000e+03 1.004415416717529297e+01 -3.178944826126098633e+00 -5.026125814765691757e-03 -2.280550077557563782e-03 -2.192002721130847931e-03 -1.100625027902424335e-03
1.752000000000000000e+03 1.297334575653076172e+01 -3.698058366775512695e+00 -1.041760575026273727e-02 -3.114892169833183289e-03 -4.059749189764261246e-03 -1.400084234774112701e-03
1.753000000000000000e+03 1.990954780578613281e+01 7.557256698608398438e+00 -1.268036849796772003e-02 2.812360785901546478e-02 4.632971715182065964e-03 6.449333741329610348e-04
1.754000000000000000e+03 8.138013839721679688e+00 -2.389689683914184570e+00 2.634590025991201401e-03 -2.019127598032355309e-03 1.846387167461216450e-04 1.048688893206417561e-03
1.755000000000000000e+03 9.393926620483398438e+00 -3.069740295410156250e+00 -5.329148843884468079e-03 -1.670756610110402107e-03 -2.099971519783139229e-03 -7.101027877070009708e-04
1.756000000000000000e+03 2.081590080261230469e+01 7.875570297241210938e+00 -2.519212104380130768e-02 2.558361925184726715e-02 1.174498684122227132e-04 3.859987482428550720e-04
1.757000000000000000e+03 5.461372375488281250e+00 -3.234061479568481445e+00 5.604033358395099640e-04 -4.040653293486684561e-04 4.690140849561430514e-05 2.289498690515756607e-03
1.758000000000000000e+03 8.152547836303710938e+00 -3.006431818008422852e+00 -3.737374208867549896e-03 -1.174750505015254021e-03 -1.473637414164841175e-03 -4.504955431912094355e-04
1.759000000000000000e+03 4.823753833770751953e+00 -3.765767574310302734e+00 -6.217736518010497093e-04 -9.202383807860314846e-04 -4.626036097761243582e-04 2.885981230065226555e-03
1.760000000000000000e+03 4.146250915527343750e+01 1.448477077484130859e+01 -9.012811779975891113e-01 2.898038923740386963e-01 -1.834431886672973633e-01 -4.570041783154010773e-03
1.761000000000000000e+03 3.890766906738281250e+01 1.458043098449707031e+01 -9.140067100524902344e-01 2.102139592170715332e-01 -2.111378312110900879e-01 1.417554020881652832e-01
1.762000000000000000e+03 4.270368957519531250e+01 1.386843013763427734e+01 -8.641158342361450195e-01 2.190255075693130493e-01 -1.935270875692367554e-01 -1.200290992856025696e-01
1.763000000000000000e+03 3.987878799438476562e+01 1.510055541992187500e+01 -9.391940236091613770e-01 2.831692695617675781e-01 -1.968074291944503784e-01 7.397747784852981567e-02
1.764000000000000000e+03 3.935829544067382812e+01 1.365075016021728516e+01 -7.878519296646118164e-01 1.804101765155792236e-01 -1.822325289249420166e-01 1.468159407377243042e-01
1.765000000000000000e+03 4.017759704589843750e+01 1.418521976470947266e+01 -8.526924252510070801e-01 2.495673894882202148e-01 -1.809374988079071045e-01 7.620369642972946167e-02
1.766000000000000000e+03 1.401273345947265625e+01 -2.961484909057617188e+00 -2.179061993956565857e-03 -2.871162490919232368e-03 -1.515067298896610737e-03 -2.337533049285411835e-03
1.767000000000000000e+03 2.659951210021972656e+00 5.016533374786376953e+00 -3.075786400586366653e-03 -3.195384517312049866e-03 -1.881351345218718052e-03 5.366237834095954895e-03
1.768000000000000000e+03 9.014672279357910156e+00 8.638459205627441406e+00 5.169073864817619324e-02 1.844305731356143951e-02 2.104013971984386444e-02 1.697097718715667725e-02
1.769000000000000000e+03 5.960870742797851562e+00 7.784378051757812500e+00 -1.989018870517611504e-03 -2.031897380948066711e-02 -6.692397873848676682e-03 3.694402053952217102e-02
1.770000000000000000e+03 9.253272056579589844e+00 7.742653369903564453e+00 2.372946217656135559e-02 1.593792065978050232e-02 1.190021447837352753e-02 2.922927262261509895e-03
1.771000000000000000e+03 9.684317588806152344e+00 9.106697082519531250e+00 2.409863844513893127e-02 2.079211547970771790e-02 1.346722617745399475e-02 6.782802753150463104e-03
1.772000000000000000e+03 5.527036666870117188e+00 5.960667133331298828e+00 -3.419534489512443542e-02 -5.382225848734378815e-03 -1.187327131628990173e-02 2.105515450239181519e-02
1.773000000000000000e+03 5.153744697570800781e+00 5.369881629943847656e+00 -2.121010795235633850e-02 5.336938891559839249e-03 -4.761950578540563583e-03 1.395906414836645126e-02
1.774000000000000000e+03 4.704570293426513672e+00 4.880366802215576172e+00 -2.026057243347167969e-02 2.965186140500009060e-04 -5.989215802401304245e-03 7.639199029654264450e-03
1.775000000000000000e+03 2.934507131576538086e+00 4.080246925354003906e+00 -5.333587061613798141e-03 -5.176080157980322838e-04 -1.755358534865081310e-03 -3.032255699508823454e-05
1.776000000000000000e+03 7.587555885314941406e+00 -2.973906517028808594e+00 1.082452799892053008e-04 -1.971639925613999367e-03 -5.590184009633958340e-04 8.884753915481269360e-04
1.777000000000000000e+03 7.085430622100830078e+00 -2.459212779998779297e+00 2.271558158099651337e-03 -1.509459805674850941e-03 2.286295057274401188e-04 1.990014221519231796e-03
1.778000000000000000e+03 1.221471595764160156e+01 -3.535105466842651367e+00 -1.101261656731367111e-02 -1.826787833124399185e-03 -3.851821413263678551e-03 -1.989191630855202675e-03
1.779000000000000000e+03 1.373305797576904297e+01 -3.894645214080810547e+00 -1.337918452918529510e-02 -1.443544519133865833e-03 -4.446818493306636810e-03 -7.635564543306827545e-04
1.780000000000000000e+03 2.440651893615722656e+01 -2.035842537879943848e-01 4.233694635331630707e-03 -5.977273732423782349e-02 -1.666171289980411530e-02 -3.967275843024253845e-02
1.781000000000000000e+03 3.831134414672851562e+01 7.425762176513671875e+00 1.078460551798343658e-02 7.725708186626434326e-03 5.553094204515218735e-03 -1.170210633426904678e-02
1.782000000000000000e+03 7.074306488037109375e+01 1.145492744445800781e+01 2.062586545944213867e+00 3.599657058715820312e+00 1.698673129081726074e+00 5.943992733955383301e-01
1.783000000000000000e+03 6.949174499511718750e+01 1.141573429107666016e+01 2.517831087112426758e+00 6.500670909881591797e+00 2.705550670623779297e+00 9.387648701667785645e-01
1.784000000000000000e+03 5.109019470214843750e+01 1.460499477386474609e+01 -5.123465657234191895e-01 8.339117765426635742e-01 9.646957367658615112e-02 -5.040313601493835449e-01
1.785000000000000000e+03 5.181988143920898438e+01 1.605435752868652344e+01 -9.467827081680297852e-01 2.267933845520019531e+00 3.963453769683837891e-01 -1.307028889656066895e+00
1.786000000000000000e+03 7.652894592285156250e+01 8.974779844284057617e-01 -3.238436460494995117e+00 8.094500541687011719e+00 1.456819176673889160e+00 -7.092000842094421387e-01
1.787000000000000000e+03 3.240219354629516602e+00 3.366923332214355469e+00 -2.845901530236005783e-03 -7.426745723932981491e-04 -1.076572807505726814e-03 1.070780679583549500e-03
1.788000000000000000e+03 3.612661838531494141e+00 4.278779983520507812e+00 -6.627578288316726685e-03 -1.885522273369133472e-03 -2.553930273279547691e-03 4.025445319712162018e-03
1.789000000000000000e+03 6.017934799194335938e+01 1.470066165924072266e+01 2.115528345108032227e+00 2.207976579666137695e+00 1.297051548957824707e+00 1.656194567680358887e+00
1.790000000000000000e+03 2.371613502502441406e+01 1.084218406677246094e+01 6.917595863342285156e-03 9.552509337663650513e-02 3.073280863463878632e-02 4.901354759931564331e-02
1.791000000000000000e+03 2.509263992309570312e+01 9.903545379638671875e+00 -7.564580440521240234e-02 5.979691166430711746e-03 -2.089983411133289337e-02 -5.508666858077049255e-02
1.792000000000000000e+03 2.362141227722167969e+01 8.305925369262695312e+00 -7.189555466175079346e-02 1.050760969519615173e-02 -1.841638237237930298e-02 -4.371489584445953369e-02
1.793000000000000000e+03 5.063407135009765625e+01 8.138239860534667969e+00 -5.767590403556823730e-01 1.243332028388977051e+00 1.999718993902206421e-01 -1.003368854522705078e+00
1.794000000000000000e+03 5.007122421264648438e+01 6.665460586547851562e+00 1.082566499710083008e+00 8.870185017585754395e-01 5.908755064010620117e-01 -4.197954833507537842e-01
1.795000000000000000e+03 3.236233901977539062e+01 1.945668983459472656e+01 -4.435504376888275146e-01 -4.536446556448936462e-02 -1.466744691133499146e-01 3.062732219696044922e-01
1.796000000000000000e+03 4.807485961914062500e+01 -2.027435874938964844e+01 -6.074112653732299805e-01 9.198790192604064941e-01 9.374033659696578979e-02 -2.924980819225311279e-01
1.797000000000000000e+03 4.837315750122070312e+01 8.597041964530944824e-01 1.671115994453430176e+00 2.754634916782379150e-01 5.839738845825195312e-01 2.774091720581054688e+00
1.798000000000000000e+03 7.488026428222656250e+01 -1.445604991912841797e+01 8.032763600349426270e-01 9.848100662231445312e+00 3.195413112640380859e+00 -4.105737209320068359e-01
1.799000000000000000e+03 6.867208099365234375e+01 2.330349206924438477e+00 1.460333704948425293e+00 1.120232963562011719e+01 3.798798799514770508e+00 -4.677605628967285156e-01
1.800000000000000000e+03 2.438844680786132812e+01 1.162845993041992188e+01 -1.039308123290538788e-02 1.368536651134490967e-01 3.793817386031150818e-02 3.947754949331283569e-02
1.801000000000000000e+03 2.629047584533691406e+01 1.142874240875244141e+01 -8.691179007291793823e-02 -3.489883616566658020e-02 -3.654318675398826599e-02 -5.765516310930252075e-02
1.802000000000000000e+03 4.801293563842773438e+01 -1.786002349853515625e+01 -9.133279323577880859e-01 7.649679780006408691e-01 -4.450797662138938904e-02 1.656961248954758048e-04
1.803000000000000000e+03 3.039851951599121094e+01 -1.079677104949951172e+01 -2.816351652145385742e-01 2.383297234773635864e-01 -1.299163326621055603e-02 1.116818487644195557e-01
1.804000000000000000e+03 2.949261665344238281e+01 7.113101482391357422e-01 -1.524604707956314087e-01 -4.512424021959304810e-02 -5.927541479468345642e-02 -6.917969137430191040e-02
1.805000000000000000e+03 3.642627334594726562e+01 1.770544052124023438e-01 -4.210999310016632080e-01 1.246799901127815247e-01 -8.892598748207092285e-02 7.537325471639633179e-02
1.806000000000000000e+03 4.626725006103515625e+01 -1.534395217895507812e+01 -5.638132691383361816e-01 1.090660214424133301e+00 1.580540835857391357e-01 6.944007426500320435e-02
1.807000000000000000e+03 4.400327682495117188e+01 -1.488196468353271484e+01 -2.726893424987792969e-01 1.678236365318298340e+00 4.216641187667846680e-01 1.299618780612945557e-01
1.808000000000000000e+03 4.767624664306640625e+01 2.487905025482177734e+00 1.873540639877319336e+00 -7.168424725532531738e-01 3.470094501972198486e-01 1.611994981765747070e+00
1.809000000000000000e+03 4.283893203735351562e+01 -1.218903350830078125e+01 -3.432241082191467285e-01 2.253851175308227539e+00 5.731881260871887207e-01 7.626504302024841309e-01
1.810000000000000000e+03 3.563905715942382812e+01 4.434582710266113281e+00 -7.118795067071914673e-02 -2.937885187566280365e-02 -3.017004020512104034e-02 3.318674862384796143e-02
1.811000000000000000e+03 3.775013732910156250e+01 6.488513469696044922e+00 -1.073681004345417023e-02 -3.151137148961424828e-03 -4.166384227573871613e-03 3.512041294015944004e-04
1.812000000000000000e+03 2.419303131103515625e+01 -1.180444335937500000e+01 -2.870733737945556641e-01 -3.597570359706878662e-01 -1.940491199493408203e-01 -1.682600378990173340e-01
1.813000000000000000e+03 3.218970108032226562e+01 -1.452622413635253906e+01 -4.386655986309051514e-01 2.219583690166473389e-01 -6.501217186450958252e-02 8.228533715009689331e-02
1.814000000000000000e+03 7.394588470458984375e+01 1.303056716918945312e+01 1.719952821731567383e+00 4.429768562316894531e+00 1.844916343688964844e+00 -1.524104595184326172e+00
1.815000000000000000e+03 4.278345489501953125e+01 -1.634225010871887207e+00 -2.030188739299774170e-01 1.316012144088745117e+00 3.338979780673980713e-01 4.919896423816680908e-01
1.816000000000000000e+03 4.275427627563476562e+01 -3.408769845962524414e+00 1.650419473648071289e+00 1.665851116180419922e+00 9.948811531066894531e-01 2.496588826179504395e-01
1.817000000000000000e+03 1.562448215484619141e+01 1.660080337524414062e+01 -1.323266476392745972e-01 3.610306605696678162e-02 -2.886707521975040436e-02 5.402250587940216064e-02
1.818000000000000000e+03 6.855197906494140625e+01 -1.736351394653320312e+01 -5.301058292388916016e-01 1.366661548614501953e+00 2.509667277336120605e-01 -9.865878522396087646e-02
1.819000000000000000e+03 7.058925628662109375e+01 -1.830816650390625000e+01 -4.541152715682983398e-01 3.447185277938842773e+00 8.979210257530212402e-01 1.864224195480346680e+00
1.820000000000000000e+03 6.709927368164062500e+01 -1.795277953147888184e+00 -3.897927522659301758e+00 2.834231853485107422e+00 -3.191086947917938232e-01 -7.811880856752395630e-02
1.821000000000000000e+03 6.672501373291015625e+01 6.188802719116210938e-01 -1.125905871391296387e+00 4.989668369293212891e+00 1.159128665924072266e+00 1.014439940452575684e+00
1.822000000000000000e+03 6.548209381103515625e+01 4.154863834381103516e+00 7.085405588150024414e-01 6.899749755859375000e+00 2.282487154006958008e+00 8.376417160034179688e-01
1.823000000000000000e+03 7.327998352050781250e+01 -1.560566425323486328e+01 -3.703176081180572510e-01 9.091007232666015625e+00 2.616206884384155273e+00 -6.924199461936950684e-01
1.824000000000000000e+03 4.891350555419921875e+01 2.021689891815185547e+00 2.446731328964233398e+00 6.669986844062805176e-01 9.341189861297607422e-01 2.261610984802246094e+00
1.825000000000000000e+03 5.215272140502929688e+01 -1.990485954284667969e+01 -8.141949772834777832e-01 1.806078553199768066e-01 -1.900761425495147705e-01 3.102549612522125244e-01
1.826000000000000000e+03 5.331232070922851562e+01 -2.111629867553710938e+01 -3.212676644325256348e-01 9.533790946006774902e-01 1.896334290504455566e-01 1.000230789184570312e+00
1.827000000000000000e+03 6.432610321044921875e+01 -1.549556541442871094e+01 -1.035662770271301270e+00 4.221987247467041016e+00 9.558973908424377441e-01 -9.507240056991577148e-01
1.828000000000000000e+03 5.903606033325195312e+01 1.415631675720214844e+01 2.159335851669311523e+00 2.799965143203735352e+00 1.487790226936340332e+00 2.775235414505004883e+00
1.829000000000000000e+03 5.756375885009765625e+01 -1.969332885742187500e+01 -1.342996597290039062e+00 6.226918697357177734e+00 1.465176582336425781e+00 -3.054987192153930664e-01
1.830000000000000000e+03 4.117328262329101562e+01 -1.115527629852294922e+00 -8.700252771377563477e-01 -4.299648404121398926e-01 -3.899970352649688721e-01 -3.112145364284515381e-01
1.831000000000000000e+03 2.647651481628417969e+01 -1.072696208953857422e+01 -4.142284989356994629e-01 -2.402404844760894775e-01 -1.963406950235366821e-01 1.107545569539070129e-01
1.832000000000000000e+03 2.723847198486328125e+01 -8.969914436340332031e+00 -3.829234540462493896e-01 -1.882558017969131470e-01 -1.713537722826004028e-01 3.376379609107971191e-02
1.833000000000000000e+03 2.137913513183593750e+01 -1.035691165924072266e+01 -4.136924147605895996e-01 -2.703922335058450699e-03 -1.249189004302024841e-01 -1.216224506497383118e-01
1.834000000000000000e+03 3.145143127441406250e+01 -1.009878826141357422e+01 -1.367735862731933594e-01 2.992562055587768555e-01 4.874478653073310852e-02 2.733377553522586823e-02
1.835000000000000000e+03 6.107106781005859375e+01 2.877796590328216553e-01 -3.150913476943969727e+00 4.225800037384033203e+00 3.224660158157348633e-01 1.479182481765747070e+00
1.836000000000000000e+03 4.880302047729492188e+01 1.710691642761230469e+01 -6.391015648841857910e-01 -1.714032739400863647e-01 -2.431514412164688110e-01 -5.924144983291625977e-01
1.837000000000000000e+03 1.311384773254394531e+01 1.457737922668457031e+01 -4.961140081286430359e-02 3.597584739327430725e-02 -4.090666770935058594e-03 2.585981041193008423e-02
1.838000000000000000e+03 1.052977275848388672e+01 1.357969570159912109e+01 -1.190211344510316849e-02 1.660475321114063263e-02 1.410792232491075993e-03 1.919460110366344452e-02
1.839000000000000000e+03 7.683013916015625000e+01 -2.881386375427246094e+01 1.737201586365699768e-02 7.681596279144287109e+00 2.309690475463867188e+00 2.749187946319580078e-01
1.840000000000000000e+03 7.684564971923828125e+01 -2.485993957519531250e+01 1.170066371560096741e-02 7.954979896545410156e+00 2.390004158020019531e+00 3.193037211894989014e-01
1.841000000000000000e+03 7.688466644287109375e+01 -2.620627212524414062e+01 -2.525199949741363525e-02 7.865702629089355469e+00 2.352135181427001953e+00 3.096632957458496094e-01
1.842000000000000000e+03 7.676770782470703125e+01 -3.010790824890136719e+01 7.490610331296920776e-02 7.605149269104003906e+00 2.304016590118408203e+00 2.322647422552108765e-01
1.843000000000000000e+03 7.665332031250000000e+01 -3.142447280883789062e+01 2.306887693703174591e-02 7.495304107666015625e+00 2.255511760711669922e+00 2.268068492412567139e-01
1.844000000000000000e+03 7.638867950439453125e+01 -3.278319549560546875e+01 7.300393283367156982e-02 7.380932331085205078e+00 2.236180782318115234e+00 1.817485094070434570e-01
1.845000000000000000e+03 7.670724487304687500e+01 -2.343129348754882812e+01 -1.496827602386474609e-01 8.020799636840820312e+00 2.361335039138793945e+00 2.886258065700531006e-01
1.846000000000000000e+03 7.687194061279296875e+01 -2.752079963684082031e+01 5.764070153236389160e-02 7.777229785919189453e+00 2.350461244583129883e+00 2.916140854358673096e-01
1.847000000000000000e+03 7.640229797363281250e+01 -3.676391983032226562e+01 4.427125677466392517e-03 7.339331150054931641e+00 2.203127622604370117e+00 1.082300767302513123e-01
1.848000000000000000e+03 7.623790740966796875e+01 2.369061851501464844e+01 3.063468635082244873e-02 6.043329238891601562e+00 1.822189092636108398e+00 4.016660153865814209e-01
1.849000000000000000e+03 7.650432586669921875e+01 1.653209304809570312e+01 3.169759809970855713e-01 5.597083091735839844e+00 1.774217724800109863e+00 -2.751584649085998535e-01
1.850000000000000000e+03 7.669689941406250000e+01 1.511987686157226562e+01 3.394349217414855957e-01 5.697892665863037109e+00 1.811198353767395020e+00 -4.639428257942199707e-01
1.851000000000000000e+03 7.630949401855468750e+01 2.515533638000488281e+01 -7.828263193368911743e-02 6.137516021728515625e+00 1.817770123481750488e+00 4.092769324779510498e-01
1.852000000000000000e+03 7.685789489746093750e+01 1.377195453643798828e+01 -1.703478544950485229e-01 6.287426471710205078e+00 1.835123658180236816e+00 -8.058860301971435547e-01
1.853000000000000000e+03 7.623384857177734375e+01 3.003989219665527344e+01 -9.087165445089340210e-02 6.369121074676513672e+00 1.883474826812744141e+00 2.652866542339324951e-01
1.854000000000000000e+03 7.830332183837890625e+01 9.893447875976562500e+00 -1.527120918035507202e-01 6.879081726074218750e+00 2.017910957336425781e+00 2.628490626811981201e-01
1.855000000000000000e+03 7.590031433105468750e+01 -1.778964996337890625e+01 -3.984363079071044922e-01 8.690358161926269531e+00 2.487576723098754883e+00 -2.624275684356689453e-01
1.856000000000000000e+03 7.573080444335937500e+01 -1.661758232116699219e+01 -6.041926741600036621e-01 9.088259696960449219e+00 2.545220136642456055e+00 -6.396266222000122070e-01
1.857000000000000000e+03 7.698332977294921875e+01 -1.443329620361328125e+01 3.112272024154663086e-01 8.635481834411621094e+00 2.684012651443481445e+00 -5.280483961105346680e-01
1.858000000000000000e+03 7.685833740234375000e+01 -1.642266654968261719e+01 -4.160397499799728394e-02 8.706357002258300781e+00 2.599425792694091797e+00 -6.603100299835205078e-01
1.859000000000000000e+03 7.729950714111328125e+01 -1.335347080230712891e+01 4.771928191184997559e-01 8.491409301757812500e+00 2.690580606460571289e+00 -4.207813143730163574e-01
1.860000000000000000e+03 7.843817138671875000e+01 -1.240943527221679688e+01 3.061888813972473145e-01 7.834204196929931641e+00 2.442117929458618164e+00 -8.334442228078842163e-02
1.861000000000000000e+03 7.696842193603515625e+01 -5.656276226043701172e+00 1.164089217782020569e-01 8.901078224182128906e+00 2.705246210098266602e+00 1.394982933998107910e+00
1.862000000000000000e+03 7.695585632324218750e+01 -7.061365127563476562e+00 1.932684779167175293e-01 8.801471710205078125e+00 2.698421955108642578e+00 1.350646853446960449e+00
1.863000000000000000e+03 7.744374847412109375e+01 1.345102667808532715e+00 -1.971095085144042969e+00 9.881419181823730469e+00 2.373097419738769531e+00 -1.113690018653869629e+00
1.864000000000000000e+03 7.640253448486328125e+01 1.795924949645996094e+01 4.347265958786010742e-01 5.602582454681396484e+00 1.811192750930786133e+00 1.022428199648857117e-01
1.865000000000000000e+03 7.779454040527343750e+01 1.945876884460449219e+01 1.774010509252548218e-01 5.528764247894287109e+00 1.711849570274353027e+00 1.779745072126388550e-01
1.866000000000000000e+03 7.618949890136718750e+01 2.224289512634277344e+01 2.401300705969333649e-03 5.980569839477539062e+00 1.794891357421875000e+00 4.192862808704376221e-01
1.867000000000000000e+03 7.771288299560546875e+01 3.813819169998168945e+00 -2.085806131362915039e-01 1.081747150421142578e+01 3.182667255401611328e+00 -3.167243242263793945e+00
1.868000000000000000e+03 7.784481048583984375e+01 -1.543728351593017578e+00 -3.189871013164520264e-01 1.005484199523925781e+01 2.920756340026855469e+00 9.211102128028869629e-01
1.869000000000000000e+03 7.807822418212890625e+01 -2.925017118453979492e+00 -5.103481933474540710e-02 1.051060009002685547e+01 3.137869596481323242e+00 1.254744648933410645e+00
1.870000000000000000e+03 7.600514221191406250e+01 -3.306505918502807617e+00 -2.793900668621063232e-01 7.734439373016357422e+00 2.236514806747436523e+00 1.177083253860473633e+00
1.871000000000000000e+03 7.702117156982421875e+01 -8.488407135009765625e+00 4.087541997432708740e-01 8.709159851074218750e+00 2.735374212265014648e+00 1.083533525466918945e+00
1.872000000000000000e+03 7.830470275878906250e+01 -9.784089088439941406e+00 2.765699326992034912e-01 8.182694435119628906e+00 2.537779331207275391e+00 5.725177526473999023e-01
1.873000000000000000e+03 7.578300476074218750e+01 -8.619777679443359375e+00 6.820057630538940430e-01 8.811982154846191406e+00 2.848196268081665039e+00 1.065281748771667480e+00
1.874000000000000000e+03 7.699438476562500000e+01 -1.917692184448242188e+01 -2.529395818710327148e-01 8.575370788574218750e+00 2.496729373931884766e+00 -1.615196913480758667e-01
1.875000000000000000e+03 7.687447357177734375e+01 -2.054181861877441406e+01 -3.850238025188446045e-01 8.392963409423828125e+00 2.402381658554077148e+00 -5.624405108392238617e-03
1.876000000000000000e+03 7.834923553466796875e+01 1.530216574668884277e+00 -7.512884140014648438e-01 1.171642684936523438e+01 3.289541482925415039e+00 -1.517096638679504395e+00
1.877000000000000000e+03 7.597829437255859375e+01 3.137343788146972656e+01 -4.350928217172622681e-02 6.396478652954101562e+00 1.905890822410583496e+00 2.232066541910171509e-01
1.878000000000000000e+03 7.691223907470703125e+01 4.407537460327148438e+00 1.732924878597259521e-01 1.134121799468994141e+01 3.454353094100952148e+00 -2.773877859115600586e+00
1.879000000000000000e+03 7.826390838623046875e+01 4.683845520019531250e+00 2.373426556587219238e-01 9.174382209777832031e+00 2.823517560958862305e+00 -2.595167875289916992e+00
1.880000000000000000e+03 7.666877746582031250e+01 6.915860176086425781e+00 2.910670518875122070e+00 1.521200275421142578e+01 5.436801910400390625e+00 -3.022738456726074219e+00
1.881000000000000000e+03 7.833227539062500000e+01 6.821064949035644531e+00 1.282512545585632324e+00 8.583046913146972656e+00 2.959667921066284180e+00 -1.330292582511901855e+00
1.882000000000000000e+03 7.570156860351562500e+01 -2.304488658905029297e+00 -3.921387195587158203e-01 6.641615867614746094e+00 1.874843120574951172e+00 8.865680694580078125e-01
1.883000000000000000e+03 4.890058517456054688e+01 4.677772998809814453e+00 2.190221548080444336e+00 -6.890211701393127441e-01 4.503601193428039551e-01 6.573707461357116699e-01
1.884000000000000000e+03 5.109461975097656250e+01 6.343912124633789062e+00 2.188334226608276367e+00 3.768981933593750000e+00 1.787194848060607910e+00 4.069353342056274414e-01
1.885000000000000000e+03 5.032829284667968750e+01 1.400833797454833984e+01 -3.171552419662475586e-01 -7.082742452621459961e-01 -3.076288402080535889e-01 3.574044704437255859e-01
1.886000000000000000e+03 3.749793243408203125e+01 -2.267904043197631836e+00 -1.216249261051416397e-02 -4.216557145118713379e-01 -1.301454603672027588e-01 -5.583966374397277832e-01
1.887000000000000000e+03 5.948988342285156250e+01 7.633687853813171387e-01 -4.150650501251220703e+00 1.527325272560119629e+00 -7.869976162910461426e-01 -3.361758589744567871e-01
1.888000000000000000e+03 6.108063125610351562e+01 -2.147855997085571289e+00 -1.489876985549926758e+00 6.359818935394287109e+00 1.460982561111450195e+00 4.876867830753326416e-01
1.889000000000000000e+03 4.179611968994140625e+01 -2.306954145431518555e+00 1.081202924251556396e-01 6.440327763557434082e-01 2.256459295749664307e-01 -2.756182551383972168e-01
1.890000000000000000e+03 4.439004898071289062e+01 -1.592401742935180664e+00 -7.042882442474365234e-01 3.263306617736816406e+00 7.677055001258850098e-01 1.255323052406311035e+00
1.891000000000000000e+03 3.679681301116943359e+00 3.018141174316406250e+01 2.427863655611872673e-03 -1.887779831886291504e-01 -5.590503662824630737e-02 6.144219264388084412e-02
1.892000000000000000e+03 3.723738908767700195e+00 3.165328598022460938e+01 7.171061355620622635e-03 -2.074702680110931396e-01 -6.008976325392723083e-02 5.728004127740859985e-02
1.893000000000000000e+03 3.411099672317504883e+00 2.326138877868652344e+01 -6.437979638576507568e-03 -9.716577827930450439e-02 -3.108112700283527374e-02 4.558402672410011292e-02
1.894000000000000000e+03 3.515730381011962891e+00 2.462520408630371094e+01 -7.820347324013710022e-03 -1.150865480303764343e-01 -3.687207028269767761e-02 5.087619274854660034e-02
1.895000000000000000e+03 3.689902544021606445e+00 3.678662109375000000e+01 1.533469930291175842e-02 -2.713592648506164551e-01 -7.680736482143402100e-02 3.222950547933578491e-02
1.896000000000000000e+03 5.095530509948730469e+00 2.861298370361328125e+01 -1.699674176052212715e-03 -1.575206667184829712e-01 -4.776610434055328369e-02 8.034841716289520264e-02
1.897000000000000000e+03 3.550418615341186523e+00 2.738829421997070312e+01 -4.695715382695198059e-03 -1.490369141101837158e-01 -4.611978679895401001e-02 5.975096672773361206e-02
1.898000000000000000e+03 3.603201150894165039e+00 2.876760673522949219e+01 9.821398416534066200e-04 -1.691472679376602173e-01 -5.044953897595405579e-02 5.999053642153739929e-02
1.899000000000000000e+03 4.266042709350585938e+00 -2.780408287048339844e+01 2.964215353131294250e-03 -2.277457267045974731e-01 -6.743445247411727905e-02 -7.645066082477569580e-02
1.900000000000000000e+03 3.959731578826904297e+00 -3.047322463989257812e+01 2.185683464631438255e-03 -2.705924808979034424e-01 -8.052203804254531860e-02 -6.651261448860168457e-02
1.901000000000000000e+03 2.846440315246582031e+00 -5.475715160369873047e+00 -4.972767550498247147e-03 -3.427754272706806660e-04 -1.594662899151444435e-03 1.145022804848849773e-03
1.902000000000000000e+03 2.999650239944458008e+00 -1.062451744079589844e+01 -1.055806409567594528e-02 -1.534557249397039413e-02 -7.771091070026159286e-03 -1.589560508728027344e-02
1.903000000000000000e+03 2.873966455459594727e+00 -9.267275810241699219e+00 -3.281207988038659096e-03 -9.029648266732692719e-03 -3.693256992846727371e-03 -9.743152186274528503e-03
1.904000000000000000e+03 3.271013259887695312e+00 -1.344770050048828125e+01 -1.259354315698146820e-02 -3.669463098049163818e-02 -1.478645205497741699e-02 -3.153288736939430237e-02
1.905000000000000000e+03 3.137639522552490234e+00 -1.202377796173095703e+01 -5.642110947519540787e-03 -2.520884387195110321e-02 -9.255286306142807007e-03 -2.380701526999473572e-02
1.906000000000000000e+03 4.869596004486083984e+00 -1.628963470458984375e+01 -1.299570873379707336e-02 -6.508197635412216187e-02 -2.342330478131771088e-02 -6.455863267183303833e-02
1.907000000000000000e+03 3.477749109268188477e+00 -1.633375167846679688e+01 -1.231537386775016785e-02 -6.724304705858230591e-02 -2.386752702295780182e-02 -4.759786278009414673e-02
1.908000000000000000e+03 3.154136657714843750e+00 1.471182918548583984e+01 6.128830136731266975e-05 -3.495152294635772705e-02 -1.046707015484571457e-02 6.047556176781654358e-03
1.909000000000000000e+03 3.571822643280029297e+00 1.746681404113769531e+01 -5.977561231702566147e-03 -4.609011858701705933e-02 -1.562030427157878876e-02 1.695581339299678802e-02
1.910000000000000000e+03 4.687476158142089844e+00 5.825901508331298828e+00 -1.991368457674980164e-02 -6.571021396666765213e-03 -7.945411838591098785e-03 1.664694957435131073e-02
1.911000000000000000e+03 2.923635959625244141e+00 8.298606872558593750e+00 -3.086473792791366577e-03 -1.611496880650520325e-02 -5.760432686656713486e-03 1.635377854108810425e-02
1.912000000000000000e+03 3.717329263687133789e+00 -2.071561050415039062e+01 -1.109634409658610821e-03 -1.270763128995895386e-01 -3.845578059554100037e-02 -6.870400160551071167e-02
1.913000000000000000e+03 3.628465652465820312e+00 -1.924503135681152344e+01 -1.051384210586547852e-02 -1.047291085124015808e-01 -3.457288444042205811e-02 -6.135358288884162903e-02
1.914000000000000000e+03 3.833433628082275391e+00 -2.357721900939941406e+01 7.961227092891931534e-04 -1.681466251611709595e-01 -5.020514875650405884e-02 -7.121004164218902588e-02
1.915000000000000000e+03 3.817888259887695312e+00 -2.219582748413085938e+01 -5.929991602897644043e-03 -1.514896899461746216e-01 -4.722590744495391846e-02 -6.991884112358093262e-02
1.916000000000000000e+03 5.236502647399902344e+00 -3.528070068359375000e+01 1.836532168090343475e-02 -2.872149050235748291e-01 -8.065488189458847046e-02 -5.092972889542579651e-02
1.917000000000000000e+03 4.145109176635742188e+00 -2.487073326110839844e+01 -4.285455215722322464e-03 -1.845290213823318481e-01 -5.664434656500816345e-02 -7.939952611923217773e-02
1.918000000000000000e+03 3.384746789932250977e+00 -1.488482570648193359e+01 -6.207864731550216675e-03 -5.117251724004745483e-02 -1.721411384642124176e-02 -4.053582623600959778e-02
1.919000000000000000e+03 3.852851390838623047e+00 -7.953727722167968750e+00 -6.043635774403810501e-03 -7.576623000204563141e-03 -4.086077678948640823e-03 -7.438529748469591141e-03
1.920000000000000000e+03 2.874916076660156250e+00 6.262760639190673828e+00 -9.862106293439865112e-03 -6.963126827031373978e-03 -5.047569982707500458e-03 1.117726322263479233e-02
1.921000000000000000e+03 2.961618185043334961e+00 1.070987987518310547e+01 3.018279559910297394e-03 -2.518473751842975616e-02 -6.649937015026807785e-03 1.208843477070331573e-02
1.922000000000000000e+03 2.984084129333496094e+00 1.206571102142333984e+01 4.564451519399881363e-03 -2.891849167644977570e-02 -7.306212093681097031e-03 7.227672729641199112e-03
1.923000000000000000e+03 2.779268980026245117e+00 -7.961705684661865234e+00 -7.837942801415920258e-03 -3.666758770123124123e-03 -3.451410448178648949e-03 -4.806551616638898849e-03
1.924000000000000000e+03 2.841336488723754883e+00 9.442047119140625000e+00 4.510813858360052109e-03 -2.267149090766906738e-02 -5.448203068226575851e-03 1.191321387887001038e-02
1.925000000000000000e+03 3.415984153747558594e+00 2.048294258117675781e+01 -7.677190937101840973e-03 -6.793729960918426514e-02 -2.268434688448905945e-02 3.159206360578536987e-02
1.926000000000000000e+03 3.357753753662109375e+00 2.189030838012695312e+01 -1.156235020607709885e-02 -8.112142235040664673e-02 -2.780513279139995575e-02 3.772322461009025574e-02
1.927000000000000000e+03 3.313894271850585938e+00 1.605022048950195312e+01 -7.204389199614524841e-03 -3.866809234023094177e-02 -1.376174390316009521e-02 1.262442581355571747e-02
1.928000000000000000e+03 3.593686342239379883e+00 1.898921585083007812e+01 -1.312481611967086792e-02 -5.452356860041618347e-02 -2.029451541602611542e-02 2.486468292772769928e-02
1.929000000000000000e+03 3.429943084716796875e+01 1.683634161949157715e+00 -2.003245800733566284e-01 9.887938946485519409e-02 -3.043355979025363922e-02 2.248441334813833237e-03
1.930000000000000000e+03 3.487149429321289062e+01 3.445345640182495117e+00 -1.033548191189765930e-01 4.920589551329612732e-02 -1.624467596411705017e-02 7.834443449974060059e-02
1.931000000000000000e+03 1.697976112365722656e+01 -5.595973968505859375e+00 -3.690966218709945679e-02 4.972935654222965240e-03 -9.581018239259719849e-03 7.545743137598037720e-03
1.932000000000000000e+03 2.150983619689941406e+01 8.428009986877441406e+00 -5.537695437669754028e-02 7.646787166595458984e-02 6.327273789793252945e-03 5.547927226871252060e-03
1.933000000000000000e+03 1.020828628540039062e+01 7.979849338531494141e+00 5.296001210808753967e-02 9.039295464754104614e-02 4.300589114427566528e-02 3.679201751947402954e-02
1.934000000000000000e+03 5.901200866699218750e+01 -1.130420017242431641e+01 2.344470173120498657e-01 6.757540702819824219e+00 2.097596406936645508e+00 6.870887875556945801e-01
1.935000000000000000e+03 6.170107650756835938e+01 -1.095991897583007812e+01 7.877156883478164673e-02 7.150538921356201172e+00 2.168793201446533203e+00 4.501590728759765625e-01
1.936000000000000000e+03 6.570892333984375000e+01 2.891057968139648438e+00 5.133557915687561035e-01 5.802938938140869141e+00 1.894888401031494141e+00 1.545323491096496582e+00
1.937000000000000000e+03 5.312589263916015625e+01 -3.263476610183715820e+00 -2.774358272552490234e+00 4.402356147766113281e+00 4.883992969989776611e-01 -1.356781959533691406e+00
1.938000000000000000e+03 5.359451675415039062e+01 -6.008540153503417969e+00 -9.795612096786499023e-01 2.608514070510864258e+00 4.886858463287353516e-01 -6.247890591621398926e-01
1.939000000000000000e+03 4.359888076782226562e+01 -1.594391059875488281e+01 -4.415381252765655518e-01 1.816644430160522461e+00 4.125318825244903564e-01 -6.218450143933296204e-02
1.940000000000000000e+03 4.318540191650390625e+01 -1.718774795532226562e+01 -6.075289249420166016e-01 1.860784292221069336e+00 3.759766221046447754e-01 -7.153725624084472656e-02
1.941000000000000000e+03 3.902206039428710938e+01 -1.837609100341796875e+01 -2.294288277626037598e-01 6.662562489509582520e-01 1.310482323169708252e-01 5.516276955604553223e-01
1.942000000000000000e+03 2.635579299926757812e+01 -3.597522020339965820e+00 8.237159252166748047e-02 -2.076298147439956665e-01 -3.757746890187263489e-02 -1.382195353507995605e-01
1.943000000000000000e+03 2.646080780029296875e+01 -1.035546183586120605e+00 2.144853398203849792e-02 -6.500551104545593262e-02 -1.306709367781877518e-02 -1.443546563386917114e-01
1.944000000000000000e+03 4.479755020141601562e+01 -1.042106819152832031e+01 -2.887018918991088867e-01 2.532331705093383789e+00 6.730889678001403809e-01 2.165872454643249512e-01
1.945000000000000000e+03 3.838152694702148438e+01 8.276448249816894531e+00 -1.480208616703748703e-02 -2.456830348819494247e-03 -5.177674815058708191e-03 6.763673387467861176e-03
1.946000000000000000e+03 6.826512145996093750e+01 -7.458796352148056030e-02 -2.417258262634277344e+00 7.096709728240966797e+00 1.403835415840148926e+00 -9.402928948402404785e-01
1.947000000000000000e+03 5.464888763427734375e+01 -5.249458312988281250e+00 -1.573762059211730957e+00 3.942423582077026367e+00 7.105984687805175781e-01 -1.165517091751098633e+00
1.948000000000000000e+03 1.953515815734863281e+01 1.912896728515625000e+01 -3.619301021099090576e-01 2.800691314041614532e-02 -1.001769602298736572e-01 1.992499679327011108e-01
1.949000000000000000e+03 3.239427185058593750e+01 2.185704946517944336e+00 -2.325453460216522217e-01 8.027429133653640747e-02 -4.568131640553474426e-02 -5.179027467966079712e-02
1.950000000000000000e+03 4.211453247070312500e+01 -6.908020973205566406e+00 6.983253359794616699e-01 2.118221759796142578e+00 8.449641466140747070e-01 5.863601565361022949e-01
1.951000000000000000e+03 4.197259902954101562e+01 -9.322774887084960938e+00 -4.253050684928894043e-01 2.138085126876831055e+00 5.138339996337890625e-01 8.616359829902648926e-01
1.952000000000000000e+03 6.941988372802734375e+01 8.701274871826171875e+00 -2.345279216766357422e+00 7.885601520538330078e+00 1.662096738815307617e+00 -3.609838485717773438e-01
1.953000000000000000e+03 5.976947021484375000e+01 -1.573057174682617188e+01 1.962954550981521606e-01 6.150872707366943359e+00 1.904150485992431641e+00 1.678309403359889984e-02
1.954000000000000000e+03 5.875331497192382812e+01 -1.607969284057617188e+01 6.615023016929626465e-01 7.146848678588867188e+00 2.342505216598510742e+00 -2.162308841943740845e-01
1.955000000000000000e+03 7.095436096191406250e+01 -3.982064008712768555e+00 -1.773374557495117188e+00 4.943678379058837891e+00 9.510911107063293457e-01 -1.853236198425292969e+00
1.956000000000000000e+03 7.004277038574218750e+01 -2.839520454406738281e+00 -3.258511066436767578e+00 5.022270202636718750e+00 5.291277170181274414e-01 -2.307024002075195312e+00
1.957000000000000000e+03 5.840494537353515625e+01 -1.510456085205078125e+01 5.550667643547058105e-01 6.970139503479003906e+00 2.257561922073364258e+00 2.401942014694213867e-01
1.958000000000000000e+03 5.830932617187500000e+01 -1.406234645843505859e+01 5.528695583343505859e-01 7.434260845184326172e+00 2.396139144897460938e+00 5.952095389366149902e-01
1.959000000000000000e+03 6.647007751464843750e+01 6.177188396453857422e+00 -5.114941000938415527e-01 1.022823429107666016e+01 2.915022134780883789e+00 -1.551471948623657227e+00
1.960000000000000000e+03 5.215562438964843750e+01 6.327154636383056641e+00 2.881814479827880859e+00 8.369465827941894531e+00 3.375384092330932617e+00 1.324857234954833984e+00
1.961000000000000000e+03 5.238787460327148438e+01 5.471042156219482422e+00 3.289800643920898438e+00 9.954396247863769531e+00 3.973258972167968750e+00 1.339702725410461426e+00
1.962000000000000000e+03 7.638850402832031250e+01 9.742250442504882812e+00 -8.283874988555908203e-01 1.046958923339843750e+01 2.892360448837280273e+00 -9.525591135025024414e-01
1.963000000000000000e+03 5.698141860961914062e+01 -1.295517539978027344e+01 5.189905166625976562e-01 7.724255084991455078e+00 2.472973823547363281e+00 -6.453963462263345718e-03
1.964000000000000000e+03 5.810303115844726562e+01 -9.100045204162597656e+00 3.619599640369415283e-01 5.974537849426269531e+00 1.900949358940124512e+00 4.875948727130889893e-01
1.965000000000000000e+03 4.502948760986328125e+01 -5.557996034622192383e-01 -5.111379027366638184e-01 1.964095354080200195e+00 4.358872473239898682e-01 2.066873073577880859e+00
1.966000000000000000e+03 4.418115615844726562e+01 2.740923762321472168e-01 -9.769451618194580078e-01 1.185962200164794922e+00 6.270512193441390991e-02 6.292812824249267578e-01
1.967000000000000000e+03 6.747565460205078125e+01 5.549355506896972656e+00 9.973158836364746094e-01 1.069604587554931641e+01 3.508008480072021484e+00 -2.224613666534423828e+00
1.968000000000000000e+03 3.338589859008789062e+01 1.764442205429077148e+00 -1.810618191957473755e-01 1.456810384988784790e-01 -1.061423681676387787e-02 -1.247238833457231522e-02
1.969000000000000000e+03 4.660911178588867188e+01 1.132848933339118958e-01 5.137854218482971191e-01 2.574172019958496094e-01 2.313607931137084961e-01 2.713606119155883789e+00
1.970000000000000000e+03 2.942062950134277344e+01 1.475455188751220703e+01 -5.201882719993591309e-01 1.977845327928662300e-03 -1.554631292819976807e-01 7.823412120342254639e-02
1.971000000000000000e+03 7.324806976318359375e+01 -9.336129188537597656e+00 1.441423416137695312e+00 1.023754024505615234e+01 3.503689289093017578e+00 -3.516705036163330078e-01
1.972000000000000000e+03 5.925401687622070312e+01 -7.716476321220397949e-01 -2.071099758148193359e+00 2.471086263656616211e+00 1.199959367513656616e-01 -7.050882577896118164e-01
1.973000000000000000e+03 2.764228439331054688e+01 -2.235333204269409180e+00 5.365091562271118164e-02 -4.913035035133361816e-02 1.356169697828590870e-03 -1.947570443153381348e-01
1.974000000000000000e+03 3.980492782592773438e+01 7.974095821380615234e+00 6.080768536776304245e-03 -1.469120616093277931e-03 1.383494352921843529e-03 -7.399908266961574554e-03
1.975000000000000000e+03 6.303215789794921875e+01 -1.342325973510742188e+01 -5.942169427871704102e-01 5.615562915802001953e+00 1.506403684616088867e+00 -3.820543587207794189e-01
1.976000000000000000e+03 6.679277801513671875e+01 1.050110721588134766e+01 2.922420978546142578e+00 1.661723899841308594e+01 5.861898422241210938e+00 -2.175345420837402344e+00
1.977000000000000000e+03 4.589805221557617188e+01 1.552561378479003906e+01 -1.666601777076721191e+00 9.006846696138381958e-02 -4.729599952697753906e-01 -1.027726009488105774e-01
1.978000000000000000e+03 4.229417037963867188e+01 1.492381858825683594e+01 -1.014788031578063965e+00 3.020580410957336426e-01 -2.138190120458602905e-01 -2.867155149579048157e-02
1.979000000000000000e+03 6.665658569335937500e+01 4.640539169311523438e+00 1.392034053802490234e+00 8.927136421203613281e+00 3.095751047134399414e+00 -9.507132172584533691e-01
1.980000000000000000e+03 5.547055053710937500e+01 -6.303079605102539062e+00 -4.259989857673645020e-01 3.890911817550659180e+00 1.039473891258239746e+00 -1.107005357742309570e+00
1.981000000000000000e+03 4.317574310302734375e+01 -6.430950164794921875e+00 9.692423939704895020e-01 3.028058052062988281e+00 1.199190139770507812e+00 9.845349788665771484e-01
1.982000000000000000e+03 4.159584045410156250e+01 -5.928296566009521484e+00 1.002124667167663574e+00 1.399696350097656250e+00 7.205463051795959473e-01 5.659782886505126953e-01
1.983000000000000000e+03 6.747392272949218750e+01 -1.843076515197753906e+01 -1.405942440032958984e-01 2.525398254394531250e+00 7.154412269592285156e-01 -5.001913309097290039e-01
1.984000000000000000e+03 5.125138473510742188e+01 5.459998607635498047e+00 3.545379400253295898e+00 4.578048706054687500e+00 2.437028408050537109e+00 9.027584195137023926e-01
1.985000000000000000e+03 4.456756973266601562e+01 -1.642712783813476562e+01 -6.450251936912536621e-01 1.574310183525085449e+00 2.787854671478271484e-01 -7.632461190223693848e-02
1.986000000000000000e+03 5.040779876708984375e+01 -1.118733644485473633e+00 -4.652910232543945312e-01 2.380653619766235352e+00 5.746087431907653809e-01 1.548969626426696777e+00
1.987000000000000000e+03 5.002341842651367188e+01 -2.427953720092773438e+00 -1.964528799057006836e+00 3.753117620944976807e-01 -4.767650961875915527e-01 1.003343582153320312e+00
1.988000000000000000e+03 1.422052955627441406e+01 1.710865402221679688e+01 -1.158873066306114197e-01 4.111557826399803162e-02 -2.243151888251304626e-02 6.145371496677398682e-02
1.989000000000000000e+03 2.653104782104492188e+01 1.382254028320312500e+01 -2.673552371561527252e-02 -5.846906825900077820e-02 -2.556137740612030029e-02 8.669347316026687622e-02
1.990000000000000000e+03 3.580441665649414062e+01 -1.902332878112792969e+01 -1.624178886413574219e-01 1.946735382080078125e-01 9.676697663962841034e-03 1.332887075841426849e-02
1.991000000000000000e+03 7.084937286376953125e+01 -1.895655035972595215e+00 -2.514194488525390625e+00 4.723264217376708984e+00 6.627209186553955078e-01 -3.481033086776733398e+00
1.992000000000000000e+03 3.551823425292968750e+01 6.647680282592773438e+00 -8.820110000669956207e-03 9.832196868956089020e-03 3.036260604858398438e-04 5.401634611189365387e-03
1.993000000000000000e+03 3.489429092407226562e+01 5.088205814361572266e+00 -6.279405951499938965e-02 3.411784023046493530e-02 -8.602866902947425842e-03 3.005484491586685181e-02
1.994000000000000000e+03 6.688660430908203125e+01 1.653256607055664062e+01 6.487309336662292480e-01 8.358991622924804688e+00 2.702316761016845703e+00 4.044904410839080811e-01
1.995000000000000000e+03 1.610195159912109375e+01 -4.927204132080078125e+00 -2.057948149740695953e-02 4.161419637966901064e-04 -6.049002055078744888e-03 5.707097239792346954e-03
1.996000000000000000e+03 2.614329910278320312e+01 1.301730346679687500e+01 -1.965713314712047577e-02 3.266576305031776428e-02 3.902588738128542900e-03 1.492847967892885208e-02
1.997000000000000000e+03 9.595263481140136719e+00 1.087723731994628906e+01 1.843717321753501892e-02 1.083529554307460785e-02 8.781740441918373108e-03 8.746934123337268829e-03
1.998000000000000000e+03 7.514344787597656250e+01 -1.169122600555419922e+01 1.245497703552246094e+00 9.697607040405273438e+00 3.282931566238403320e+00 -5.678677186369895935e-02
1.999000000000000000e+03 7.714986419677734375e+01 -9.871143341064453125e+00 5.029638409614562988e-01 8.537865638732910156e+00 2.712248802185058594e+00 8.009017705917358398e-01
2.000000000000000000e+03 7.466131591796875000e+01 -1.677577590942382812e+01 -3.384669125080108643e-01 9.022938728332519531e+00 2.605341434478759766e+00 -7.272453606128692627e-02
2.001000000000000000e+03 7.281089019775390625e+01 -1.659399604797363281e+01 -1.909215927124023438e+00 9.875996589660644531e+00 2.390034198760986328e+00 6.207770705223083496e-01
2.002000000000000000e+03 5.671141052246093750e+01 -1.653641819953918457e+00 -1.365304350852966309e+00 2.429204463958740234e+00 3.191700279712677002e-01 -3.383690118789672852e+00
2.003000000000000000e+03 5.921913909912109375e+01 -5.334374427795410156e+00 1.207666873931884766e+00 5.187663078308105469e+00 1.918599009513854980e+00 -3.416879177093505859e-01
2.004000000000000000e+03 5.630103302001953125e+01 -7.337136268615722656e+00 -8.759546279907226562e-02 4.659790039062500000e+00 1.371658325195312500e+00 -4.390981793403625488e-01
2.005000000000000000e+03 4.084042739868164062e+01 -3.162185192108154297e+00 9.169158935546875000e-01 -1.776001155376434326e-01 2.217947393655776978e-01 -3.475891053676605225e-01
2.006000000000000000e+03 1.932185173034667969e+01 -1.024651813507080078e+01 -2.785941064357757568e-01 3.563297539949417114e-02 -7.288834452629089355e-02 -7.141627371311187744e-02
2.007000000000000000e+03 5.487687683105468750e+01 9.214240074157714844e+00 -2.898620367050170898e+00 1.604735755920410156e+01 3.944620847702026367e+00 7.138320446014404297e+00
2.008000000000000000e+03 5.348035430908203125e+01 1.331502342224121094e+01 1.112616062164306641e+00 3.627256155014038086e+00 1.421961665153503418e+00 -2.275812149047851562e+00
2.009000000000000000e+03 5.457586288452148438e+01 1.298658752441406250e+01 4.188464879989624023e-01 9.492091178894042969e+00 2.973281383514404297e+00 -3.344856023788452148e+00
2.010000000000000000e+03 5.371704483032226562e+01 1.316805171966552734e+01 1.326251268386840820e+00 4.261418819427490234e+00 1.676301002502441406e+00 -2.737331151962280273e+00
2.011000000000000000e+03 5.294758605957031250e+01 9.006691932678222656e+00 -4.846860095858573914e-02 5.419919490814208984e+00 1.611435294151306152e+00 2.302275896072387695e+00
2.012000000000000000e+03 5.456248855590820312e+01 7.469697952270507812e+00 3.560957908630371094e-01 1.615598869323730469e+01 4.953625202178955078e+00 4.754590988159179688e+00
2.013000000000000000e+03 5.367401123046875000e+01 8.985228538513183594e+00 -3.015481829643249512e-01 8.817393302917480469e+00 2.554753303527832031e+00 4.195870399475097656e+00
2.014000000000000000e+03 5.652400207519531250e+01 1.302465248107910156e+01 8.540781140327453613e-01 1.081828689575195312e+01 3.501709461212158203e+00 4.492037773132324219e+00
2.015000000000000000e+03 5.538964843750000000e+01 9.022744178771972656e+00 -3.803487539291381836e+00 1.641039085388183594e+01 3.782070875167846680e+00 5.232740402221679688e+00
2.016000000000000000e+03 5.731365203857421875e+01 1.199048042297363281e+01 5.247870922088623047e+00 5.015662193298339844e+00 3.079060077667236328e+00 5.206075668334960938e+00
2.017000000000000000e+03 5.228640365600585938e+01 8.815733909606933594e+00 -4.666895866394042969e-01 4.000381469726562500e+00 1.060107588768005371e+00 6.041493415832519531e-01
2.018000000000000000e+03 5.240301132202148438e+01 9.092411041259765625e+00 -4.972026646137237549e-01 3.760977745056152344e+00 9.791325330734252930e-01 5.620197057723999023e-01
2.019000000000000000e+03 5.333736801147460938e+01 1.348756885528564453e+01 8.840219974517822266e-01 3.350064516067504883e+00 1.270225882530212402e+00 -2.069318771362304688e+00
2.020000000000000000e+03 5.707675170898437500e+01 1.140054893493652344e+01 6.748373031616210938e+00 5.231019973754882812e+00 3.593817949295043945e+00 4.539006710052490234e+00
2.021000000000000000e+03 5.695721054077148438e+01 1.095912456512451172e+01 6.473308086395263672e+00 5.140418052673339844e+00 3.484117746353149414e+00 3.124895334243774414e+00
2.022000000000000000e+03 8.738616943359375000e+00 -3.607115507125854492e+00 -7.786541711539030075e-03 -2.301584463566541672e-03 -3.026437945663928986e-03 -1.957082655280828476e-03
2.023000000000000000e+03 5.739526748657226562e+01 1.072606945037841797e+01 3.803270816802978516e+00 1.836452841758728027e+00 1.691917061805725098e+00 1.396815180778503418e+00
2.024000000000000000e+03 5.256373977661132812e+01 1.395036125183105469e+01 4.067809283733367920e-01 2.214325904846191406e+00 7.863320112228393555e-01 -1.274772286415100098e+00
2.025000000000000000e+03 5.287227249145507812e+01 1.380478382110595703e+01 6.111355423927307129e-01 2.615888357162475586e+00 9.681072235107421875e-01 -1.623405814170837402e+00
2.026000000000000000e+03 2.374188041687011719e+01 2.267309129238128662e-01 -1.290712505578994751e-02 -3.712580353021621704e-02 -1.500987820327281952e-02 -3.465383127331733704e-02
2.027000000000000000e+03 2.517836189270019531e+01 -5.404919385910034180e-01 1.641798205673694611e-02 -8.831416070461273193e-02 -2.156885340809822083e-02 -8.549497276544570923e-02
2.028000000000000000e+03 3.457269191741943359e+00 -2.534656047821044922e+00 3.077278845012187958e-03 -9.997123852372169495e-04 6.232699379324913025e-04 3.690513316541910172e-03
2.029000000000000000e+03 5.044398117065429688e+01 5.049506187438964844e+00 3.057650327682495117e+00 2.431668996810913086e+00 1.646795749664306641e+00 1.094193458557128906e+00
2.030000000000000000e+03 1.123537349700927734e+01 -4.160663604736328125e+00 -1.656875573098659515e-02 -1.477382727898657322e-03 -5.413841456174850464e-03 -2.735245274379849434e-03
2.031000000000000000e+03 4.209795951843261719e+00 -4.306169033050537109e+00 -1.019634539261460304e-03 -1.454198732972145081e-03 -7.421500049531459808e-04 2.534345723688602448e-03
2.032000000000000000e+03 9.828880310058593750e+00 -3.860983133316040039e+00 -1.181581243872642517e-02 -1.481900457292795181e-03 -3.989313729107379913e-03 -1.431229873560369015e-03
2.033000000000000000e+03 3.850519943237304688e+01 1.552196121215820312e+01 -9.514142870903015137e-01 1.893871724605560303e-01 -2.286081314086914062e-01 1.166254281997680664e-01
2.034000000000000000e+03 3.956763458251953125e+01 1.437647056579589844e+01 -8.915568590164184570e-01 2.090562731027603149e-01 -2.047501802444458008e-01 1.144803017377853394e-01
2.035000000000000000e+03 3.790841293334960938e+01 1.582434082031250000e+01 -1.019913434982299805e+00 1.371758282184600830e-01 -2.648212909698486328e-01 1.057861670851707458e-01
2.036000000000000000e+03 1.099747371673583984e+01 -4.897132396697998047e+00 -1.982549577951431274e-02 -2.531453967094421387e-03 -6.707085296511650085e-03 -3.212579991668462753e-03
2.037000000000000000e+03 1.195959091186523438e+01 -4.319018363952636719e+00 -1.642315834760665894e-02 -2.689965767785906792e-03 -5.733937025070190430e-03 -1.902624499052762985e-03
2.038000000000000000e+03 1.051191329956054688e+01 -4.023634910583496094e+00 -1.134388614445924759e-02 -2.878778381273150444e-03 -4.266799427568912506e-03 -2.171915955841541290e-03
2.039000000000000000e+03 8.147183418273925781e+00 -3.652783632278442383e+00 -4.606697242707014084e-03 -2.409609267488121986e-03 -2.104891929775476456e-03 3.644538082880899310e-05
2.040000000000000000e+03 5.849959564208984375e+01 1.258672428131103516e+01 2.849310636520385742e+00 1.453710675239562988e+00 1.290906429290771484e+00 3.018512487411499023e+00
2.041000000000000000e+03 2.238153648376464844e+01 6.996781826019287109e+00 -7.972282171249389648e-02 9.422792121767997742e-03 -2.109000831842422485e-02 -5.359648168087005615e-02
2.042000000000000000e+03 4.099184799194335938e+01 1.525944805145263672e+01 -9.673755764961242676e-01 3.149510622024536133e-01 -1.957273632287979126e-01 4.459913074970245361e-02
2.043000000000000000e+03 4.045331954956054688e+01 1.474083232879638672e+01 -9.089268445968627930e-01 2.745530307292938232e-01 -1.903121322393417358e-01 5.789388343691825867e-02
2.044000000000000000e+03 8.510672569274902344e+00 9.224413871765136719e+00 2.659140899777412415e-02 -1.486316905356943607e-03 7.531527895480394363e-03 -6.612282013520598412e-04
2.045000000000000000e+03 8.363305091857910156e+00 8.495602607727050781e+00 3.069976530969142914e-02 -1.169079542160034180e-02 5.702691152691841125e-03 2.494154311716556549e-02
2.046000000000000000e+03 3.920335388183593750e+01 1.536260509490966797e+01 -9.969903826713562012e-01 2.471270114183425903e-01 -2.249590009450912476e-01 9.867636859416961670e-02
2.047000000000000000e+03 1.337539768218994141e+01 -4.802872657775878906e+00 -2.324781194329261780e-02 -1.672600279562175274e-03 -7.476123515516519547e-03 -3.642353403847664595e-04
2.048000000000000000e+03 5.063136291503906250e+01 1.862297630310058594e+01 -3.134106397628784180e-01 1.454278469085693359e+00 3.422603309154510498e-01 -1.147663712501525879e+00
2.049000000000000000e+03 4.981590652465820312e+01 1.628061294555664062e+01 -1.140753149986267090e+00 2.287847250699996948e-01 -2.735905349254608154e-01 -1.086570024490356445e+00
2.050000000000000000e+03 3.889846563339233398e+00 5.197575092315673828e+00 -1.629604771733283997e-02 6.622531218454241753e-04 -4.690138623118400574e-03 9.211334399878978729e-03
2.051000000000000000e+03 6.964281082153320312e+00 -3.329186916351318359e+00 -1.730291522108018398e-03 -1.694914535619318485e-03 -1.027561840601265430e-03 3.236324118915945292e-04
2.052000000000000000e+03 5.104556083679199219e+00 7.479803562164306641e+00 2.596096601337194443e-03 -1.228585932403802872e-02 -2.906928770244121552e-03 2.796452306210994720e-02
2.053000000000000000e+03 4.136017322540283203e+00 6.074144840240478516e+00 -1.177398953586816788e-02 -1.707349438220262527e-03 -4.044401925057172775e-03 1.745573244988918304e-02
2.054000000000000000e+03 5.198213195800781250e+01 7.121697425842285156e+00 1.190091967582702637e+00 6.176880836486816406e+00 2.210091829299926758e+00 9.499814510345458984e-01
2.055000000000000000e+03 1.408176708221435547e+01 -5.127949714660644531e+00 -3.083260916173458099e-02 8.982390281744301319e-04 -8.980310522019863129e-03 1.896321075037121773e-03
2.056000000000000000e+03 4.828521728515625000e+01 3.612029790878295898e+00 2.201532602310180664e+00 -8.145654201507568359e-01 4.160901606082916260e-01 9.902889132499694824e-01
2.057000000000000000e+03 4.944313049316406250e+01 3.129279375076293945e+00 3.003947496414184570e+00 9.408532381057739258e-01 1.183440208435058594e+00 2.065325260162353516e+00
2.058000000000000000e+03 6.639065742492675781e+00 -4.208776950836181641e+00 -8.439758792519569397e-03 -2.078661462292075157e-03 -3.155526006594300270e-03 -1.022050157189369202e-03
2.059000000000000000e+03 1.481134605407714844e+01 -5.519369602203369141e+00 -3.588957339525222778e-02 1.091576064936816692e-03 -1.043939962983131409e-02 3.765707137063145638e-03
2.060000000000000000e+03 4.752078056335449219e+00 -4.972940921783447266e+00 -2.786306664347648621e-03 -2.611865755170583725e-03 -1.619451795704662800e-03 2.373002236708998680e-03
2.061000000000000000e+03 5.824220180511474609e+00 -4.869230747222900391e+00 -9.853810071945190430e-03 -2.944472478702664375e-03 -3.839484881609678268e-03 -1.359737245365977287e-03
2.062000000000000000e+03 2.441281890869140625e+01 9.073613166809082031e+00 -1.155450418591499329e-01 3.300205804407596588e-03 -3.367345035076141357e-02 -4.626711085438728333e-02
2.063000000000000000e+03 6.011089706420898438e+01 -1.489417195320129395e+00 -1.402971267700195312e+00 3.860931634902954102e+00 7.373880743980407715e-01 -1.911939084529876709e-01
2.064000000000000000e+03 5.934784698486328125e+01 -2.300234317779541016e+00 -5.218756794929504395e-01 3.814483404159545898e+00 9.877822995185852051e-01 -8.031899333000183105e-01
2.065000000000000000e+03 2.299214172363281250e+01 7.569530010223388672e+00 -1.076058670878410339e-01 1.505790837109088898e-02 -2.776438742876052856e-02 -3.850390017032623291e-02
2.066000000000000000e+03 6.636367034912109375e+01 -1.951834106445312500e+01 4.817846417427062988e-02 3.319496154785156250e+00 1.010302424430847168e+00 -9.082672595977783203e-01
2.067000000000000000e+03 7.529289245605468750e+01 1.213246154785156250e+01 5.309316795319318771e-03 6.146411418914794922e+00 1.845516204833984375e+00 -2.140024423599243164e+00
2.068000000000000000e+03 3.378203153610229492e+00 5.057890892028808594e+00 -1.192227751016616821e-02 -2.749049104750156403e-03 -4.401397891342639923e-03 8.033722639083862305e-03
2.069000000000000000e+03 5.316202545166015625e+01 6.488968849182128906e+00 2.551860570907592773e+00 1.134193229675292969e+01 4.168138027191162109e+00 2.799414396286010742e+00
2.070000000000000000e+03 2.865601158142089844e+01 -1.301380062103271484e+01 -3.185622394084930420e-01 3.553801029920578003e-02 -8.490726351737976074e-02 1.188956126570701599e-01
2.071000000000000000e+03 3.716498184204101562e+01 6.970121264457702637e-01 -6.731172204017639160e-01 -4.694798216223716736e-02 -2.160195559263229370e-01 1.931570172309875488e-01
2.072000000000000000e+03 5.919754028320312500e+01 1.499052524566650391e+01 1.677699804306030273e+00 3.279408454895019531e+00 1.487132430076599121e+00 2.180211544036865234e+00
2.073000000000000000e+03 5.166278076171875000e+01 -1.346523284912109375e+00 -1.542605519294738770e+00 3.818200349807739258e+00 6.826785206794738770e-01 3.650583922863006592e-01
2.074000000000000000e+03 5.489810943603515625e+01 -3.474366426467895508e+00 -2.148832082748413086e+00 4.759413719177246094e+00 7.831745147705078125e-01 -2.450932025909423828e+00
2.075000000000000000e+03 7.439631652832031250e+01 -5.509910583496093750e+00 -1.694776713848114014e-01 7.350750923156738281e+00 2.154381990432739258e+00 5.553211569786071777e-01
2.076000000000000000e+03 7.239196777343750000e+01 -6.172402381896972656e+00 -2.014998495578765869e-01 7.275361537933349609e+00 2.122158527374267578e+00 -8.332024216651916504e-01
2.077000000000000000e+03 3.748691940307617188e+01 7.971473693847656250e+00 9.945077821612358093e-03 1.181428786367177963e-03 3.337952075526118279e-03 -1.136113982647657394e-02
2.078000000000000000e+03 1.788809013366699219e+01 -6.431756019592285156e+00 -4.799895733594894409e-02 -1.099970759241841733e-04 -1.443268638104200363e-02 1.741841807961463928e-02
2.079000000000000000e+03 6.115833282470703125e+01 -1.411114883422851562e+01 -3.020846247673034668e-01 6.146592617034912109e+00 1.753352284431457520e+00 -1.316360384225845337e-02
2.080000000000000000e+03 6.394702529907226562e+01 3.492821753025054932e-01 -2.876375198364257812e+00 5.270152568817138672e+00 7.181332111358642578e-01 3.579010963439941406e+00
2.081000000000000000e+03 7.205477905273437500e+01 -2.294572114944458008e+00 -1.953227043151855469e+00 4.853032112121582031e+00 8.699415326118469238e-01 -2.310945272445678711e+00
2.082000000000000000e+03 5.052299022674560547e+00 9.055565834045410156e+00 1.252688188105821609e-02 -1.978136785328388214e-02 -2.176346024498343468e-03 2.535751275718212128e-02
2.083000000000000000e+03 4.800163269042968750e+00 2.313060760498046875e+01 -1.747271791100502014e-02 -8.866587281227111816e-02 -3.184157982468605042e-02 5.928457528352737427e-02
2.084000000000000000e+03 2.013509750366210938e+01 -1.130355358123779297e+01 -2.818114757537841797e-01 -7.494444027543067932e-03 -8.679177612066268921e-02 -9.971648454666137695e-02
2.085000000000000000e+03 7.064197540283203125e+01 1.278379821777343750e+01 3.523655176162719727e+00 4.588033676147460938e+00 2.433506727218627930e+00 7.866581082344055176e-01
2.086000000000000000e+03 7.450107574462890625e+01 -8.831141471862792969e+00 9.495944380760192871e-01 9.333342552185058594e+00 3.084881067276000977e+00 6.377561092376708984e-01
2.087000000000000000e+03 3.110115242004394531e+01 -1.666336822509765625e+01 -3.481869697570800781e-01 1.882841140031814575e-01 -4.797085747122764587e-02 7.884355261921882629e-03
2.088000000000000000e+03 3.268600845336914062e+01 -1.596558475494384766e+01 -4.212099909782409668e-01 2.459159940481185913e-01 -5.258819833397865295e-02 3.137851133942604065e-02
2.089000000000000000e+03 5.930468368530273438e+01 -1.450575160980224609e+01 2.871139645576477051e-01 6.762911796569824219e+00 2.115007877349853516e+00 1.414733082056045532e-01
2.090000000000000000e+03 3.905025482177734375e+01 -5.910648822784423828e+00 6.202480196952819824e-01 -5.824714303016662598e-01 1.133297570049762726e-02 4.863599687814712524e-02
2.091000000000000000e+03 7.635621643066406250e+01 1.275117683410644531e+01 -2.554860413074493408e-01 6.503374099731445312e+00 1.874366521835327148e+00 -1.350141763687133789e+00
2.092000000000000000e+03 7.565316009521484375e+01 1.472417068481445312e+01 5.560752153396606445e-01 5.415518283843994141e+00 1.791478037834167480e+00 -9.725184440612792969e-01
2.093000000000000000e+03 7.637617492675781250e+01 -1.521902942657470703e+01 1.239577680826187134e-01 8.909068107604980469e+00 2.709907770156860352e+00 -8.261144757270812988e-01
2.094000000000000000e+03 3.105727767944335938e+01 1.643269538879394531e+01 -7.175431251525878906e-01 -1.717789098620414734e-02 -2.204163074493408203e-01 3.366711735725402832e-01
2.095000000000000000e+03 5.138098239898681641e+00 -2.070500564575195312e+01 -1.436660066246986389e-02 -1.149360314011573792e-01 -3.879078850150108337e-02 -8.706689625978469849e-02
2.096000000000000000e+03 6.351695632934570312e+01 1.632176971435546875e+01 2.053055763244628906e+00 5.215668201446533203e+00 2.180617094039916992e+00 -2.095935583114624023e+00
2.097000000000000000e+03 6.102925872802734375e+01 1.841219711303710938e+01 1.123210549354553223e+00 4.610848903656005859e+00 1.720217823982238770e+00 -1.624732017517089844e-01
2.098000000000000000e+03 7.466265106201171875e+01 1.914256858825683594e+01 4.521927535533905029e-01 5.922085285186767578e+00 1.912283420562744141e+00 3.981572985649108887e-01
2.099000000000000000e+03 4.105628013610839844e+00 -2.920222473144531250e+01 7.146195508539676666e-03 -2.511807382106781006e-01 -7.321035861968994141e-02 -7.154145091772079468e-02
2.100000000000000000e+03 5.210377693176269531e+00 -3.289835357666015625e+01 1.718193106353282928e-02 -2.670701146125793457e-01 -7.496645301580429077e-02 -7.017786800861358643e-02
2.101000000000000000e+03 2.800351333618164062e+01 -1.108156740665435791e-01 -8.476202189922332764e-02 -2.669441886246204376e-02 -3.343693166971206665e-02 -1.402575522661209106e-01
2.102000000000000000e+03 2.628150367736816406e+01 2.334766238927841187e-01 -3.715295344591140747e-02 -7.934091240167617798e-02 -3.494815900921821594e-02 -1.002323701977729797e-01
2.103000000000000000e+03 5.067163848876953125e+01 2.738023281097412109e+00 3.668930530548095703e+00 3.672965049743652344e+00 2.202568769454956055e+00 2.332003355026245117e+00
2.104000000000000000e+03 4.321982192993164062e+01 1.548775672912597656e+01 -1.091545224189758301e+00 3.257303833961486816e-01 -2.297444641590118408e-01 -2.382608316838741302e-02
2.105000000000000000e+03 3.795158863067626953e+00 -6.791987419128417969e+00 -9.506094269454479218e-03 -3.669042140245437622e-03 -3.952540922909975052e-03 -3.337649861350655556e-03
2.106000000000000000e+03 7.262368774414062500e+01 -4.602015972137451172e+00 -9.859700798988342285e-01 6.331429004669189453e+00 1.603637695312500000e+00 -7.866514325141906738e-01
2.107000000000000000e+03 7.482112121582031250e+01 -1.035138797760009766e+01 1.363761067390441895e+00 9.557182312011718750e+00 3.276283025741577148e+00 4.614007472991943359e-01
2.108000000000000000e+03 4.781669616699218750e+01 1.838384056091308594e+01 -5.070426464080810547e-01 9.532279521226882935e-02 -1.235159635543823242e-01 -3.279601335525512695e-01
2.109000000000000000e+03 4.707905197143554688e+01 1.613502502441406250e+01 -1.376490116119384766e+00 -2.137022614479064941e-01 -4.770576953887939453e-01 1.571565866470336914e-02
2.110000000000000000e+03 2.246599388122558594e+01 8.677249908447265625e+00 -7.940918952226638794e-02 4.025889560580253601e-02 -1.174508966505527496e-02 -2.474925294518470764e-02
2.111000000000000000e+03 4.994005966186523438e+01 4.152522563934326172e+00 3.295677423477172852e+00 1.384338378906250000e+00 1.404004812240600586e+00 1.430305242538452148e+00
2.112000000000000000e+03 6.722716522216796875e+01 -3.147232234477996826e-01 -2.451614618301391602e+00 4.840262889862060547e+00 7.165945172309875488e-01 8.613948822021484375e-01
2.113000000000000000e+03 6.781259155273437500e+01 8.005619049072265625e+00 -1.932139754295349121e+00 1.225214672088623047e+01 3.096002101898193359e+00 -2.043656826019287109e+00
2.114000000000000000e+03 6.688642883300781250e+01 8.558168411254882812e+00 -1.407494954764842987e-02 1.312233066558837891e+01 3.932476758956909180e+00 -1.219478964805603027e+00
2.115000000000000000e+03 1.785178947448730469e+01 2.022489356994628906e+01 -2.554894089698791504e-01 1.959306560456752777e-02 -7.076890021562576294e-02 1.989614665508270264e-01
2.116000000000000000e+03 1.693613433837890625e+01 1.834395980834960938e+01 -2.247544676065444946e-01 3.904676809906959534e-02 -5.571231245994567871e-02 1.172190010547637939e-01
2.117000000000000000e+03 1.581296825408935547e+01 -7.499053955078125000e+00 -9.853825718164443970e-02 1.612062193453311920e-02 -2.472529001533985138e-02 5.471616052091121674e-03
2.118000000000000000e+03 4.373591995239257812e+01 -1.314735317230224609e+01 -2.805116772651672363e-01 2.083800315856933594e+00 5.409865975379943848e-01 4.929997920989990234e-01
2.119000000000000000e+03 4.461800765991210938e+01 -1.233727836608886719e+01 -4.172354936599731445e-01 1.983726143836975098e+00 4.699471890926361084e-01 4.489472806453704834e-01
2.120000000000000000e+03 6.319127273559570312e+01 3.276754140853881836e+00 -9.481617808341979980e-01 3.510536909103393555e+00 7.687125205993652344e-01 1.795654296875000000e+00
2.121000000000000000e+03 6.790625000000000000e+01 9.799384474754333496e-01 -1.020548343658447266e+00 7.529696941375732422e+00 1.952744603157043457e+00 3.268928825855255127e-01
2.122000000000000000e+03 4.749835491180419922e+00 -1.481145477294921875e+01 -2.095782011747360229e-02 -4.960757121443748474e-02 -2.116961777210235596e-02 -5.274076014757156372e-02
2.123000000000000000e+03 3.617125701904296875e+01 1.900743675231933594e+01 -4.930223822593688965e-01 -4.336335230618715286e-03 -1.492076069116592407e-01 1.436713933944702148e-01
2.124000000000000000e+03 3.702243804931640625e+01 -3.563332557678222656e+00 4.599661529064178467e-01 -4.902373254299163818e-01 -9.081359021365642548e-03 -3.694652020931243896e-01
2.125000000000000000e+03 3.938804626464843750e+01 -3.245999336242675781e+00 8.804115653038024902e-01 -6.151509284973144531e-01 7.957819849252700806e-02 -5.412769317626953125e-01
2.126000000000000000e+03 7.567424774169921875e+01 -2.487510490417480469e+01 -6.058074533939361572e-02 7.523650646209716797e+00 2.238920927047729492e+00 4.090869426727294922e-01
2.127000000000000000e+03 7.453844451904296875e+01 -2.373235702514648438e+01 -1.629813164472579956e-01 7.125890254974365234e+00 2.088872671127319336e+00 5.762649178504943848e-01
2.128000000000000000e+03 7.543682861328125000e+01 -3.112241363525390625e+01 1.011218503117561340e-01 7.218227386474609375e+00 2.195804834365844727e+00 2.377642840147018433e-01
2.129000000000000000e+03 3.518712615966796875e+01 -2.081980705261230469e+01 -1.945362985134124756e-01 3.736240863800048828e-01 5.372633412480354309e-02 8.712422847747802734e-02
2.130000000000000000e+03 3.713980484008789062e+01 -1.953955268859863281e+01 -2.005981206893920898e-01 4.064105749130249023e-01 6.174373999238014221e-02 2.536303699016571045e-01
2.131000000000000000e+03 5.134677410125732422e+00 1.192279243469238281e+01 6.671707145869731903e-03 -2.250388823449611664e-02 -4.749654326587915421e-03 1.063664443790912628e-02
2.132000000000000000e+03 6.061463356018066406e+00 1.202046680450439453e+01 4.343900829553604126e-03 -2.396176941692829132e-02 -5.885360762476921082e-03 1.302663888782262802e-02
2.133000000000000000e+03 6.281367492675781250e+01 -1.028353309631347656e+01 3.955923318862915039e-01 7.474668979644775391e+00 2.361078500747680664e+00 -2.850721180438995361e-01
2.134000000000000000e+03 7.635687255859375000e+01 -3.416459655761718750e+01 7.429487071931362152e-03 7.323915004730224609e+00 2.199403285980224609e+00 1.618176698684692383e-01
2.135000000000000000e+03 7.324869537353515625e+01 -5.668777942657470703e+00 -3.245187103748321533e-01 7.216947078704833984e+00 2.067728519439697266e+00 -1.509164273738861084e-01
2.136000000000000000e+03 7.700613403320312500e+01 -1.781602478027343750e+01 -4.674999117851257324e-01 8.692963600158691406e+00 2.467639207839965820e+00 -5.124934315681457520e-01
2.137000000000000000e+03 7.432966613769531250e+01 -1.581079196929931641e+01 -1.054133892059326172e+00 9.927797317504882812e+00 2.662099123001098633e+00 -5.173885822296142578e-01
2.138000000000000000e+03 5.198229980468750000e+01 2.429743766784667969e+00 3.433215618133544922e+00 8.036828041076660156e+00 3.441013336181640625e+00 2.959140539169311523e+00
2.139000000000000000e+03 3.321999359130859375e+01 5.244030475616455078e+00 -6.420504301786422729e-02 3.025331534445285797e-02 -1.018551737070083618e-02 -1.318843453191220760e-03
2.140000000000000000e+03 6.834361267089843750e+01 1.117156600952148438e+01 2.656073808670043945e+00 9.914244651794433594e+00 3.771095514297485352e+00 4.449679553508758545e-01
2.141000000000000000e+03 5.235234069824218750e+01 -2.235226821899414062e+01 -2.492273598909378052e-01 1.142476916313171387e+00 2.679748535156250000e-01 6.058580279350280762e-01
2.142000000000000000e+03 3.614239931106567383e+00 3.318227767944335938e+01 7.929167710244655609e-03 -2.295038402080535889e-01 -6.647240370512008667e-02 5.395497754216194153e-02
2.143000000000000000e+03 5.021249294281005859e+00 1.925264930725097656e+01 -1.626070216298103333e-02 -4.970190301537513733e-02 -1.978878118097782135e-02 3.667197376489639282e-02
2.144000000000000000e+03 2.534128379821777344e+01 -1.117780113220214844e+01 -2.435966581106185913e-01 -3.738808929920196533e-01 -1.852432638406753540e-01 4.796315357089042664e-02
2.145000000000000000e+03 2.769452476501464844e+01 -1.033103275299072266e+01 -3.999033868312835693e-01 -1.315354853868484497e-01 -1.594316661357879639e-01 1.048449948430061340e-01
2.146000000000000000e+03 3.123005485534667969e+01 2.311382770538330078e+00 -1.153579801321029663e-01 3.709449991583824158e-02 -2.347904257476329803e-02 -7.704189419746398926e-02
2.147000000000000000e+03 4.709637069702148438e+01 1.313691496849060059e+00 1.128440022468566895e+00 -3.196259737014770508e-01 2.426442056894302368e-01 2.090454339981079102e+00
2.148000000000000000e+03 4.610540008544921875e+01 -1.109931945800781250e+00 -6.325877308845520020e-01 1.156766533851623535e+00 1.572536528110504150e-01 2.993097066879272461e+00
2.149000000000000000e+03 4.176638031005859375e+01 -4.224520206451416016e+00 1.593875765800476074e+00 1.226568341255187988e+00 8.461332321166992188e-01 1.989889144897460938e-01
2.150000000000000000e+03 5.882297134399414062e+01 -1.884395408630371094e+01 2.714322209358215332e-01 6.595414638519287109e+00 2.060054063796997070e+00 -8.367853164672851562e-01
2.151000000000000000e+03 6.389789199829101562e+01 -1.725195884704589844e+01 -5.307344794273376465e-01 4.258421421051025391e+00 1.118306040763854980e+00 -1.151262521743774414e+00
2.152000000000000000e+03 6.552003479003906250e+01 -1.807193374633789062e+01 -3.893116414546966553e-01 3.354758501052856445e+00 8.896340131759643555e-01 -1.113502740859985352e+00
2.153000000000000000e+03 4.252707672119140625e+01 1.657019042968750000e+01 -1.015033960342407227e+00 3.611905574798583984e-01 -1.961529999971389771e-01 8.614470809698104858e-02
2.154000000000000000e+03 7.238460540771484375e+01 -8.739954829216003418e-01 -1.837122797966003418e+00 3.012050867080688477e+00 3.524784147739410400e-01 -3.966772317886352539e+00
2.155000000000000000e+03 4.955382919311523438e+01 5.686349868774414062e+00 1.888382434844970703e+00 2.972328849136829376e-02 5.754317045211791992e-01 1.518937647342681885e-01
2.156000000000000000e+03 2.566421699523925781e+01 -1.227234721183776855e+00 4.057721421122550964e-02 -1.579763442277908325e-01 -3.521973639726638794e-02 -1.017849370837211609e-01
2.157000000000000000e+03 6.844316864013671875e+01 -1.961371803283691406e+01 2.518621087074279785e-01 2.897209167480468750e+00 9.447213411331176758e-01 -4.115226678550243378e-03
2.158000000000000000e+03 7.351078796386718750e+01 -1.828319740295410156e+01 -1.383666515350341797e+00 8.183983802795410156e+00 2.040095329284667969e+00 4.010103344917297363e-01
2.159000000000000000e+03 4.226730346679687500e+00 -3.168128776550292969e+01 1.751443743705749512e-02 -2.792469263076782227e-01 -7.851973921060562134e-02 -6.435930728912353516e-02
2.160000000000000000e+03 5.453902435302734375e+01 -2.244580650329589844e+01 -4.823997616767883301e-01 2.163955211639404297e+00 5.044665932655334473e-01 1.466123819351196289e+00
2.161000000000000000e+03 5.545886993408203125e+01 -2.138097000122070312e+01 -7.627695202827453613e-01 4.478276252746582031e+00 1.114652037620544434e+00 2.009967803955078125e+00
2.162000000000000000e+03 1.139446640014648438e+01 1.257391548156738281e+01 -3.318758972454816103e-04 2.767982333898544312e-02 8.204384706914424896e-03 2.023841440677642822e-02
2.163000000000000000e+03 1.224003696441650391e+01 1.158627223968505859e+01 2.568567916750907898e-02 3.821657225489616394e-02 1.917067542672157288e-02 3.141825646162033081e-02
2.164000000000000000e+03 2.984829139709472656e+01 -9.773176193237304688e+00 -2.094310373067855835e-01 1.711031794548034668e-01 -1.149835810065269470e-02 7.411273568868637085e-02
2.165000000000000000e+03 2.911471939086914062e+01 -9.055790901184082031e+00 -2.440899759531021118e-01 1.227951869368553162e-01 -3.638843819499015808e-02 2.551515772938728333e-02
2.166000000000000000e+03 5.723850250244140625e+01 -8.264190673828125000e+00 3.829944729804992676e-01 5.221711635589599609e+00 1.681411862373352051e+00 -6.957160681486129761e-02
2.167000000000000000e+03 1.554369640350341797e+01 1.990217399597167969e+01 -1.826972216367721558e-01 2.124244347214698792e-02 -4.843643680214881897e-02 1.478309780359268188e-01
2.168000000000000000e+03 5.746839523315429688e+01 -2.174703788757324219e+01 -8.977531194686889648e-01 4.972018718719482422e+00 1.222279667854309082e+00 2.694706618785858154e-01
2.169000000000000000e+03 3.329482650756835938e+01 1.829901504516601562e+01 -5.957390069961547852e-01 -1.208230182528495789e-01 -2.149686068296432495e-01 3.092595338821411133e-01
2.170000000000000000e+03 3.132118415832519531e+01 1.843983459472656250e+01 -5.769281387329101562e-01 -3.379650041460990906e-02 -1.832173913717269897e-01 3.467980921268463135e-01
2.171000000000000000e+03 5.576865768432617188e+01 -4.416763782501220703e+00 -8.106202483177185059e-01 3.990908861160278320e+00 9.540865421295166016e-01 -2.149821043014526367e+00
2.172000000000000000e+03 6.336861801147460938e+01 -1.610848045349121094e+01 -6.847118139266967773e-01 4.755439758300781250e+00 1.221218466758728027e+00 -9.522926211357116699e-01
2.173000000000000000e+03 4.533310699462890625e+01 -1.348716259002685547e+01 -4.412447512149810791e-01 1.496533513069152832e+00 3.165866136550903320e-01 2.086989581584930420e-01
2.174000000000000000e+03 5.500584030151367188e+01 -1.800853371620178223e+00 -2.795667171478271484e+00 6.091302871704101562e+00 9.886906743049621582e-01 -3.716833829879760742e+00
2.175000000000000000e+03 4.873212337493896484e+00 3.749745178222656250e+01 1.878549531102180481e-02 -2.554238438606262207e-01 -7.099150866270065308e-02 4.305890202522277832e-02
2.176000000000000000e+03 3.457664108276367188e+01 -1.873615837097167969e+01 -3.691639900207519531e-01 2.168178409337997437e-01 -4.570384323596954346e-02 -4.885223880410194397e-02
2.177000000000000000e+03 3.210374069213867188e+01 8.970322012901306152e-01 -1.047077476978302002e-01 1.069387868046760559e-01 6.693134200759232044e-04 -1.520659774541854858e-01
2.178000000000000000e+03 6.029602050781250000e+01 -3.029757022857666016e+00 -2.752644419670104980e-01 5.349531650543212891e+00 1.522280097007751465e+00 -7.944324016571044922e-01
2.179000000000000000e+03 5.830678939819335938e+01 -1.063323402404785156e+01 1.421236991882324219e-01 6.781359672546386719e+00 2.077044963836669922e+00 6.869004964828491211e-01
2.180000000000000000e+03 7.514161682128906250e+01 -3.727894592285156250e+01 2.379938773810863495e-02 7.097619533538818359e+00 2.136425733566284180e+00 3.650936856865882874e-02
2.181000000000000000e+03 6.417360782623291016e+00 -3.416910552978515625e+01 4.104654490947723389e-02 -2.566016614437103271e-01 -6.466653198003768921e-02 -6.931055337190628052e-02
2.182000000000000000e+03 2.813598632812500000e+01 -1.172825145721435547e+01 -3.252309560775756836e-01 -1.013926509767770767e-02 -1.006110608577728271e-01 1.689222455024719238e-01
2.183000000000000000e+03 4.844150066375732422e+00 -5.829288005828857422e+00 -1.010407879948616028e-02 -3.924655262380838394e-03 -4.208620171993970871e-03 -3.224459476768970490e-03
2.184000000000000000e+03 3.523337936401367188e+01 1.638079524040222168e+00 -3.461150527000427246e-01 1.855926513671875000e-01 -4.815671592950820923e-02 1.634916812181472778e-01
2.185000000000000000e+03 3.397177124023437500e+01 2.622260570526123047e+00 -2.701450884342193604e-01 1.028088629245758057e-01 -5.020086467266082764e-02 1.824552565813064575e-02
2.186000000000000000e+03 5.009246349334716797e+00 6.334752082824707031e+00 -1.627865992486476898e-02 1.340722199529409409e-03 -4.481381271034479141e-03 2.654672786593437195e-02
2.187000000000000000e+03 3.577172040939331055e+00 7.383368015289306641e+00 9.328235173597931862e-04 -1.048730220645666122e-02 -2.866343595087528229e-03 1.746295578777790070e-02
2.188000000000000000e+03 2.805962181091308594e+01 1.770778656005859375e+01 -5.967617034912109375e-01 7.446054369211196899e-02 -1.566903442144393921e-01 2.638691961765289307e-01
2.189000000000000000e+03 4.415441513061523438e+00 -2.629577064514160156e+01 7.069235667586326599e-03 -2.021968513727188110e-01 -5.853828787803649902e-02 -8.334818482398986816e-02
2.190000000000000000e+03 6.055586624145507812e+01 -8.336953163146972656e+00 9.363574981689453125e-01 7.129102706909179688e+00 2.419637918472290039e+00 8.836196064949035645e-01
2.191000000000000000e+03 5.979147720336914062e+01 -6.185867786407470703e+00 1.008010387420654297e+00 6.284741401672363281e+00 2.187825679779052734e+00 5.496564507484436035e-01
2.192000000000000000e+03 4.484643936157226562e+01 -1.544573783874511719e+01 -4.890202283859252930e-01 1.520454049110412598e+00 3.094301521778106689e-01 2.154464647173881531e-02
2.193000000000000000e+03 5.820324325561523438e+01 -5.898559093475341797e+00 4.516707956790924072e-01 5.072873592376708984e+00 1.657363295555114746e+00 -2.487896680831909180e-01
2.194000000000000000e+03 7.442272186279296875e+01 -2.853926718235015869e-01 -1.713497042655944824e+00 2.410160541534423828e+00 2.089990675449371338e-01 3.963595628738403320e-01
2.195000000000000000e+03 7.667485809326171875e+01 -1.925649285316467285e+00 -5.978724956512451172e-01 8.282666206359863281e+00 2.305438280105590820e+00 1.156122446060180664e+00
2.196000000000000000e+03 5.420149993896484375e+01 1.336369228363037109e+01 3.851955235004425049e-01 6.872850894927978516e+00 2.177413940429687500e+00 -2.827752828598022461e+00
2.197000000000000000e+03 5.404772567749023438e+01 1.362904930114746094e+01 3.058404624462127686e-01 6.108368396759033203e+00 1.924262642860412598e+00 -2.502189397811889648e+00
2.198000000000000000e+03 5.506954574584960938e+01 1.312013053894042969e+01 -7.436884045600891113e-01 1.210196876525878906e+01 3.407484054565429688e+00 -1.656612753868103027e+00
2.199000000000000000e+03 5.551364517211914062e+01 1.320069313049316406e+01 -1.017788648605346680e+00 1.282667636871337891e+01 3.542666435241699219e+00 3.838455080986022949e-01
2.200000000000000000e+03 5.468486404418945312e+01 1.358887672424316406e+01 -5.229276418685913086e-01 8.796103477478027344e+00 2.481952905654907227e+00 -1.954295277595520020e+00
2.201000000000000000e+03 5.487435531616210938e+01 8.076783180236816406e+00 -7.772050499916076660e-01 1.553339195251464844e+01 4.426856040954589844e+00 5.759375572204589844e+00
2.202000000000000000e+03 5.621002960205078125e+01 1.319399452209472656e+01 -8.247791230678558350e-02 1.179733180999755859e+01 3.514456272125244141e+00 3.413976907730102539e+00
2.203000000000000000e+03 5.828169631958007812e+01 1.321635246276855469e+01 2.512416601181030273e+00 3.316913127899169922e+00 1.748798966407775879e+00 3.843343257904052734e+00
2.204000000000000000e+03 5.822408294677734375e+01 1.374963378906250000e+01 2.048854589462280273e+00 4.188911437988281250e+00 1.871329903602600098e+00 3.652118206024169922e+00
2.205000000000000000e+03 5.456974029541015625e+01 9.133257865905761719e+00 -2.156487226486206055e+00 1.425553131103515625e+01 3.629713296890258789e+00 6.941993713378906250e+00
2.206000000000000000e+03 5.777324295043945312e+01 1.254515266418457031e+01 3.520029783248901367e+00 3.965276956558227539e+00 2.245591878890991211e+00 4.677070617675781250e+00
2.207000000000000000e+03 5.399358749389648438e+01 7.830606460571289062e+00 2.438459694385528564e-01 1.226853370666503906e+01 3.753713846206665039e+00 3.833897829055786133e+00
2.208000000000000000e+03 5.356413650512695312e+01 1.371840858459472656e+01 5.890012979507446289e-01 4.283240795135498047e+00 1.461672663688659668e+00 -2.203591823577880859e+00
2.209000000000000000e+03 5.299614715576171875e+01 8.560490608215332031e+00 1.306202858686447144e-01 6.715049266815185547e+00 2.053700923919677734e+00 2.515738964080810547e+00
2.210000000000000000e+03 5.231013488769531250e+01 8.447496414184570312e+00 2.198351547122001648e-02 5.062939643859863281e+00 1.525476932525634766e+00 9.798998236656188965e-01
2.211000000000000000e+03 5.185465240478515625e+01 7.860363006591796875e+00 2.777650356292724609e-01 4.802417278289794922e+00 1.524054765701293945e+00 4.366936385631561279e-01
2.212000000000000000e+03 9.495587348937988281e+00 -4.542015075683593750e+00 -1.310399081557989120e-02 -3.235409036278724670e-03 -4.901819862425327301e-03 -3.580621909350156784e-03
2.213000000000000000e+03 5.304799270629882812e+01 1.419663238525390625e+01 2.636708021163940430e-01 3.224274873733520508e+00 1.046383619308471680e+00 -1.645901441574096680e+00
2.214000000000000000e+03 5.171848297119140625e+01 1.434473419189453125e+01 -1.155088916420936584e-01 1.255018472671508789e+00 3.418528735637664795e-01 -6.912736296653747559e-01
2.215000000000000000e+03 5.138293838500976562e+01 1.534648895263671875e+01 -7.170796394348144531e-01 1.475374817848205566e+00 2.274885773658752441e-01 -8.447558879852294922e-01
2.216000000000000000e+03 5.033967590332031250e+01 1.481628322601318359e+01 -1.120554208755493164e+00 -3.253598138689994812e-02 -3.459270596504211426e-01 5.954374000430107117e-02
2.217000000000000000e+03 5.873823547363281250e+01 1.352972316741943359e+01 2.471575260162353516e+00 2.799964904785156250e+00 1.581462025642395020e+00 3.223400592803955078e+00
2.218000000000000000e+03 1.026624584197998047e+01 -4.749523162841796875e+00 -2.074337564408779144e-02 -1.431556185707449913e-03 -6.652479525655508041e-03 -4.058300051838159561e-03
2.219000000000000000e+03 9.255686759948730469e+00 -3.666123628616333008e+00 -7.765566464513540268e-03 -2.376447664573788643e-03 -3.042604308575391769e-03 -1.700653927400708199e-03
2.220000000000000000e+03 1.168629360198974609e+01 -5.059442043304443359e+00 -2.658427692949771881e-02 -8.715666481293737888e-04 -8.236752822995185852e-03 -4.186217207461595535e-03
2.221000000000000000e+03 8.918379783630371094e+00 -4.152585029602050781e+00 -1.171302143484354019e-02 -2.062476938590407372e-03 -4.132649395614862442e-03 -9.404525626450777054e-04
2.222000000000000000e+03 6.566410541534423828e+00 -3.531757116317749023e+00 -1.724294736050069332e-03 -1.746807480230927467e-03 -1.041330629959702492e-03 1.407315372489392757e-03
2.223000000000000000e+03 3.152866363525390625e+00 -3.600841283798217773e+00 -2.293505240231752396e-03 1.654248480917885900e-04 -6.384241278283298016e-04 3.980796318501234055e-03
2.224000000000000000e+03 4.338466167449951172e+00 5.461327552795410156e+00 -1.364604011178016663e-02 -4.139827215112745762e-04 -4.218006972223520279e-03 9.258423931896686554e-03
2.225000000000000000e+03 5.831587982177734375e+01 1.436215591430664062e+01 1.474527835845947266e+00 4.461699008941650391e+00 1.780868172645568848e+00 3.126169204711914062e+00
2.226000000000000000e+03 4.091088485717773438e+01 1.664207267761230469e+01 -9.332779645919799805e-01 3.358884751796722412e-01 -1.792168468236923218e-01 7.997069507837295532e-02
2.227000000000000000e+03 4.444108963012695312e+00 8.250492095947265625e+00 -4.348994698375463486e-03 -2.009698562324047089e-02 -7.333794143050909042e-03 2.369420230388641357e-02
2.228000000000000000e+03 4.400456428527832031e+00 6.807580947875976562e+00 -1.396066974848508835e-02 -1.044701132923364639e-02 -7.322304416447877884e-03 2.027910202741622925e-02
2.229000000000000000e+03 7.414886951446533203e+00 -4.307094573974609375e+00 -6.969148293137550354e-03 -2.748528495430946350e-03 -2.915302990004420280e-03 -1.210809452459216118e-03
2.230000000000000000e+03 8.241779327392578125e+00 -4.363284111022949219e+00 -1.290487125515937805e-02 -2.113522728905081749e-03 -4.505518358200788498e-03 -3.109783167019486427e-03
2.231000000000000000e+03 3.860671997070312500e+01 1.627037429809570312e+01 -9.751322865486145020e-01 2.139306664466857910e-01 -2.283604741096496582e-01 5.467025935649871826e-02
2.232000000000000000e+03 5.714902877807617188e+01 1.319555568695068359e+01 1.772574663162231445e+00 7.390048027038574219e+00 2.748786926269531250e+00 4.811830043792724609e+00
2.233000000000000000e+03 5.116360473632812500e+01 1.652807807922363281e+01 -7.655646800994873047e-01 1.511232852935791016e+00 2.237004339694976807e-01 -1.396452665328979492e+00
2.234000000000000000e+03 5.116115951538085938e+01 7.201856136322021484e+00 9.394499659538269043e-01 3.639086246490478516e+00 1.373560905456542969e+00 -6.389519572257995605e-02
2.235000000000000000e+03 2.969076156616210938e+00 -4.417579174041748047e+00 1.328278798609972000e-03 5.040227551944553852e-04 5.496904486790299416e-04 3.114455379545688629e-03
2.236000000000000000e+03 3.592958068847656250e+01 5.489115715026855469e+00 -2.930969372391700745e-02 -3.188356012105941772e-02 -1.835797727108001709e-02 1.213016733527183533e-02
2.237000000000000000e+03 6.497502899169921875e+01 1.093177437782287598e+00 -1.219452261924743652e+00 4.775761604309082031e+00 1.066892862319946289e+00 3.247818946838378906e+00
2.238000000000000000e+03 6.014115524291992188e+01 -1.358018779754638672e+01 5.697320029139518738e-02 6.670278072357177734e+00 2.018175363540649414e+00 4.986555278301239014e-01
2.239000000000000000e+03 5.313160705566406250e+01 8.027544021606445312e+00 3.357234299182891846e-01 8.749545097351074219e+00 2.725580692291259766e+00 2.610631942749023438e+00
2.240000000000000000e+03 7.322616577148437500e+01 -2.568433523178100586e+00 -1.087485432624816895e+00 5.010901451110839844e+00 1.177024841308593750e+00 -1.540880560874938965e+00
2.241000000000000000e+03 7.312476348876953125e+01 -3.768036603927612305e+00 -8.206260800361633301e-01 5.756090641021728516e+00 1.480639338493347168e+00 -8.353807330131530762e-01
2.242000000000000000e+03 1.246500873565673828e+01 -6.402534008026123047e+00 -4.418916255235671997e-02 1.473988639190793037e-03 -1.281455252319574356e-02 -6.938579957932233810e-03
2.243000000000000000e+03 1.503926658630371094e+01 -6.989741802215576172e+00 -6.865696609020233154e-02 6.800584029406309128e-03 -1.855691336095333099e-02 4.531474551185965538e-04
2.244000000000000000e+03 2.574117851257324219e+01 -2.256337881088256836e+00 4.439662396907806396e-02 -1.365386098623275757e-01 -2.764259837567806244e-02 -1.106953993439674377e-01
2.245000000000000000e+03 2.738377761840820312e+01 -8.838920593261718750e-01 -4.410518333315849304e-02 -5.508499592542648315e-02 -2.975705452263355255e-02 -1.623641252517700195e-01
2.246000000000000000e+03 7.357790374755859375e+01 -1.317443966865539551e+00 -5.929473042488098145e-01 2.680140733718872070e+00 6.261580586433410645e-01 -1.544798016548156738e+00
2.247000000000000000e+03 7.616085815429687500e+01 -7.791336774826049805e-01 -1.049081444740295410e+00 6.660348892211914062e+00 1.683380246162414551e+00 8.787734508514404297e-01
2.248000000000000000e+03 6.998324584960937500e+01 -1.042284488677978516e+00 -3.715284585952758789e+00 6.718304157257080078e+00 9.009059071540832520e-01 -3.014167547225952148e+00
2.249000000000000000e+03 7.203853607177734375e+01 -3.568438768386840820e+00 -1.457761168479919434e+00 5.445842742919921875e+00 1.196424484252929688e+00 -1.828221797943115234e+00
2.250000000000000000e+03 5.348022842407226562e+01 7.471477508544921875e+00 9.786456227302551270e-01 1.106117820739746094e+01 3.611947059631347656e+00 3.341663122177124023e+00
2.251000000000000000e+03 6.012455749511718750e+01 1.713839340209960938e+01 1.631648540496826172e+00 3.798061847686767578e+00 1.628913164138793945e+00 5.785291790962219238e-01
2.252000000000000000e+03 6.024180221557617188e+01 1.588066673278808594e+01 1.905020236968994141e+00 2.789718389511108398e+00 1.408421635627746582e+00 1.151435732841491699e+00
2.253000000000000000e+03 5.844204711914062500e+01 -1.558503270149230957e+00 -1.145609498023986816e+00 2.296440601348876953e+00 3.452493250370025635e-01 -1.512279391288757324e+00
2.254000000000000000e+03 3.682091236114501953e+00 -3.722385168075561523e+00 3.291269531473517418e-04 2.194509870605543256e-04 1.645733864279463887e-04 4.928066395223140717e-03
2.255000000000000000e+03 5.414815902709960938e+01 -1.111131072044372559e+00 -2.804759740829467773e+00 6.549670219421386719e+00 1.123473167419433594e+00 -2.080945968627929688e+00
2.256000000000000000e+03 9.714672088623046875e+00 1.459453678131103516e+01 -2.941051311790943146e-02 5.914401262998580933e-03 -7.048833649605512619e-03 1.981212012469768524e-02
2.257000000000000000e+03 6.713712310791015625e+01 3.061971902847290039e+00 1.359456419944763184e+00 8.520551681518554688e+00 2.964002370834350586e+00 2.378793358802795410e-01
2.258000000000000000e+03 6.058901214599609375e+01 -1.167274570465087891e+01 2.021172828972339630e-02 6.848165988922119141e+00 2.060513257980346680e+00 7.086598277091979980e-01
2.259000000000000000e+03 2.868332290649414062e+01 -6.356071949005126953e+00 -1.571836881339550018e-02 5.905171483755111694e-02 1.300000306218862534e-02 -1.395214945077896118e-01
2.260000000000000000e+03 1.638734817504882812e+01 -6.555358409881591797e+00 -5.698201060295104980e-02 2.987415762618184090e-03 -1.619837805628776550e-02 1.029442064464092255e-02
2.261000000000000000e+03 1.794157600402832031e+01 -8.150709152221679688e+00 -1.300785690546035767e-01 1.376985572278499603e-02 -3.489261493086814880e-02 9.872908703982830048e-03
2.262000000000000000e+03 4.116086006164550781e+00 1.078394794464111328e+01 8.043634705245494843e-03 -2.359075844287872314e-02 -4.664137028157711029e-03 1.396344788372516632e-02
2.263000000000000000e+03 6.620169067382812500e+01 1.673967242240905762e+00 -2.620731592178344727e-01 5.393270015716552734e+00 1.539358973503112793e+00 1.812951564788818359e+00
2.264000000000000000e+03 6.750405883789062500e+01 9.291887283325195312e+00 4.289568066596984863e-01 1.342081165313720703e+01 4.154930591583251953e+00 -9.973257184028625488e-01
2.265000000000000000e+03 6.771399688720703125e+01 1.001417446136474609e+01 1.846601009368896484e+00 1.273137474060058594e+01 4.373393058776855469e+00 -1.457661151885986328e+00
2.266000000000000000e+03 6.223884582519531250e+01 -3.399346256628632545e-03 -3.582573652267456055e+00 5.442919254302978516e+00 5.581036806106567383e-01 1.824072122573852539e+00
2.267000000000000000e+03 6.174393463134765625e+01 -1.165948152542114258e+00 -2.209348440170288086e+00 5.654616355895996094e+00 1.033580422401428223e+00 1.266215443611145020e+00
2.268000000000000000e+03 5.210080718994140625e+01 -2.204362899065017700e-01 -1.199902892112731934e+00 6.346805572509765625e+00 1.544070839881896973e+00 7.445600032806396484e-01
2.269000000000000000e+03 7.362735748291015625e+01 -2.235255050659179688e+01 -3.057967126369476318e-01 6.876107692718505859e+00 1.971093177795410156e+00 7.272260189056396484e-01
2.270000000000000000e+03 7.532996368408203125e+01 -2.160694503784179688e+01 -4.166142642498016357e-01 7.750436782836914062e+00 2.200146675109863281e+00 3.762361407279968262e-01
2.271000000000000000e+03 4.586102485656738281e+00 -1.335419559478759766e+01 -1.340644527226686478e-02 -3.778661414980888367e-02 -1.535791810601949692e-02 -4.288020357489585876e-02
2.272000000000000000e+03 6.412564754486083984e+00 -1.026279163360595703e+01 -2.474158070981502533e-02 -1.671490073204040527e-02 -1.243694406002759933e-02 -3.066899813711643219e-02
2.273000000000000000e+03 7.485258483886718750e+01 -1.771988487243652344e+01 -1.085803627967834473e+00 8.804136276245117188e+00 2.315499782562255859e+00 -2.112059146165847778e-01
2.274000000000000000e+03 4.564818954467773438e+01 1.904023742675781250e+01 -4.598526954650878906e-01 2.710813283920288086e-01 -5.663140863180160522e-02 3.133272752165794373e-02
2.275000000000000000e+03 5.045183563232421875e+01 1.713170242309570312e+01 -6.370173096656799316e-01 9.516654610633850098e-01 9.439445286989212036e-02 -1.106630921363830566e+00
2.276000000000000000e+03 5.903802490234375000e+01 -7.558941841125488281e+00 9.166401624679565430e-01 5.889733791351318359e+00 2.041912078857421875e+00 5.744845271110534668e-01
2.277000000000000000e+03 3.833819580078125000e+01 -3.681841850280761719e+00 8.198203444480895996e-01 -7.362470626831054688e-01 2.507198043167591095e-02 -4.118784368038177490e-01
2.278000000000000000e+03 4.964032745361328125e+01 4.541729390621185303e-01 1.478848814964294434e+00 1.946602702140808105e+00 1.027635455131530762e+00 2.672297239303588867e+00
2.279000000000000000e+03 5.017576980590820312e+01 1.623988270759582520e+00 2.561212539672851562e+00 2.693550109863281250e+00 1.576428771018981934e+00 2.915881872177124023e+00
2.280000000000000000e+03 7.173240661621093750e+01 1.415752792358398438e+01 2.510786771774291992e+00 4.960335254669189453e+00 2.241336584091186523e+00 3.624098300933837891e-01
2.281000000000000000e+03 7.180790710449218750e+01 1.283539962768554688e+01 2.412943601608276367e+00 4.053376674652099609e+00 1.939895987510681152e+00 -3.831757605075836182e-01
2.282000000000000000e+03 6.178431510925292969e+00 2.280169868469238281e+01 -2.074805833399295807e-02 -7.917211204767227173e-02 -2.997605130076408386e-02 7.347510755062103271e-02
2.283000000000000000e+03 7.557068634033203125e+01 -1.296646976470947266e+01 8.831937909126281738e-01 9.491271972656250000e+00 3.112339735031127930e+00 -1.255492419004440308e-01
2.284000000000000000e+03 3.152543783187866211e+00 3.467695617675781250e+01 1.020952779799699783e-02 -2.555631399154663086e-01 -7.360608130693435669e-02 3.986363485455513000e-02
2.285000000000000000e+03 2.928111457824707031e+01 -1.131808280944824219e+01 -3.430771827697753906e-01 8.535557985305786133e-02 -7.731647789478302002e-02 1.502158790826797485e-01
2.286000000000000000e+03 3.034003257751464844e+01 -1.380342674255371094e+01 -3.749166727066040039e-01 1.706595718860626221e-01 -6.127713248133659363e-02 1.073630899190902710e-01
2.287000000000000000e+03 5.992692947387695312e+01 -1.049014377593994141e+01 2.891812622547149658e-01 6.932087898254394531e+00 2.166380643844604492e+00 9.200588464736938477e-01
2.288000000000000000e+03 7.598532867431640625e+01 -1.005103683471679688e+01 8.956066966056823730e-01 8.996056556701660156e+00 2.967499017715454102e+00 6.431779265403747559e-01
2.289000000000000000e+03 7.568908691406250000e+01 -7.104928970336914062e+00 3.379721641540527344e-01 8.591484069824218750e+00 2.678836822509765625e+00 1.220407843589782715e+00
2.290000000000000000e+03 7.389114379882812500e+01 1.536996173858642578e+01 1.453006625175476074e+00 5.080429553985595703e+00 1.960030913352966309e+00 -2.721514403820037842e-01
2.291000000000000000e+03 4.455385971069335938e+01 -1.400638675689697266e+01 -2.811650335788726807e-01 1.774333834648132324e+00 4.479506313800811768e-01 2.935261428356170654e-01
2.292000000000000000e+03 7.395335388183593750e+01 -3.316086578369140625e+01 1.228083893656730652e-01 6.772584915161132812e+00 2.068618059158325195e+00 2.099774777889251709e-01
2.293000000000000000e+03 7.514656066894531250e+01 1.647443580627441406e+01 8.815991282463073730e-01 5.433558464050292969e+00 1.894547224044799805e+00 -1.560369729995727539e-01
2.294000000000000000e+03 7.494175720214843750e+01 1.532651996612548828e+01 7.359881401062011719e-01 5.554904460906982422e+00 1.887267827987670898e+00 -4.605211317539215088e-01
2.295000000000000000e+03 7.144458770751953125e+01 -2.014268302917480469e+01 -9.419778734445571899e-02 5.200390815734863281e+00 1.531857967376708984e+00 1.271713614463806152e+00
2.296000000000000000e+03 7.189903259277343750e+01 -1.884509277343750000e+01 -1.101559996604919434e+00 5.872328281402587891e+00 1.431230545043945312e+00 1.954494953155517578e+00
2.297000000000000000e+03 5.900880050659179688e+01 -9.712058067321777344e+00 5.539510846138000488e-01 6.525768280029296875e+00 2.123915910720825195e+00 6.895999908447265625e-01
2.298000000000000000e+03 3.398394012451171875e+01 4.300254821777343750e+00 -1.240505054593086243e-01 1.867831312119960785e-02 -3.161165863275527954e-02 9.385088458657264709e-03
2.299000000000000000e+03 4.447129058837890625e+01 -1.798129272460937500e+01 -6.821491122245788574e-01 1.571943163871765137e+00 2.669382095336914062e-01 -1.983238607645034790e-01
2.300000000000000000e+03 5.396846294403076172e+00 1.287055301666259766e+01 7.118551060557365417e-03 -2.486873231828212738e-02 -5.325054284185171127e-03 1.309897098690271378e-02
2.301000000000000000e+03 4.903857803344726562e+01 -1.894896316528320312e+01 -1.279990077018737793e+00 6.817032694816589355e-01 -1.794860512018203735e-01 -1.010152399539947510e-01
2.302000000000000000e+03 5.029467010498046875e+01 -2.227659416198730469e+01 -2.782513499259948730e-01 9.545213580131530762e-01 2.028810083866119385e-01 5.956186726689338684e-02
2.303000000000000000e+03 2.299417686462402344e+01 -1.263373088836669922e+01 -3.187660276889801025e-01 -1.578488051891326904e-01 -1.429844498634338379e-01 -1.786255985498428345e-01
2.304000000000000000e+03 6.197032928466796875e+00 1.092779731750488281e+01 1.633095368742942810e-02 -1.936188712716102600e-02 -9.092801483348011971e-04 1.228728983551263809e-02
2.305000000000000000e+03 6.843192577362060547e+00 8.710707664489746094e+00 2.012213319540023804e-02 -2.586810477077960968e-02 -1.723791589029133320e-03 3.453801199793815613e-02
2.306000000000000000e+03 5.917493820190429688e+00 -1.320626926422119141e+01 -3.168115019798278809e-02 -3.327675536274909973e-02 -1.948737166821956635e-02 -5.210373923182487488e-02
2.307000000000000000e+03 5.921987152099609375e+01 -8.639984130859375000e+00 4.752259850502014160e-01 6.466854572296142578e+00 2.082624197006225586e+00 5.666111707687377930e-01
2.308000000000000000e+03 6.419654846191406250e+00 -2.065616035461425781e+01 -8.278056979179382324e-03 -1.091853305697441101e-01 -3.523901849985122681e-02 -1.022948473691940308e-01
2.309000000000000000e+03 5.849428558349609375e+01 -2.097769355773925781e+01 -1.016347765922546387e+00 5.896492481231689453e+00 1.464043378829956055e+00 -1.230800524353981018e-02
2.310000000000000000e+03 5.655618667602539062e+01 -5.483922004699707031e+00 -3.678838312625885010e-01 4.342461109161376953e+00 1.192373156547546387e+00 -1.111404538154602051e+00
2.311000000000000000e+03 5.777304077148437500e+01 -4.016805648803710938e+00 3.942395448684692383e-01 3.722334384918212891e+00 1.234972119331359863e+00 -1.538480997085571289e+00
2.312000000000000000e+03 7.497361755371093750e+01 1.328195381164550781e+01 5.828465223312377930e-01 5.124147415161132812e+00 1.712098240852355957e+00 -1.734766483306884766e+00
2.313000000000000000e+03 3.556430578231811523e+00 -1.778917884826660156e+01 -4.748004022985696793e-03 -8.571757376194000244e-02 -2.713967300951480865e-02 -5.568934231996536255e-02
2.314000000000000000e+03 3.004677391052246094e+01 1.568321418762207031e+01 -7.384234666824340820e-01 7.687675952911376953e-02 -1.984640061855316162e-01 1.938411593437194824e-01
2.315000000000000000e+03 2.934652709960937500e+01 1.872531890869140625e+01 -5.469704270362854004e-01 1.435946486890316010e-02 -1.597832888364791870e-01 3.228544592857360840e-01
2.316000000000000000e+03 8.508019447326660156e+00 3.141244316101074219e+01 2.629571966826915741e-02 -1.621497571468353271e-01 -4.075621068477630615e-02 1.139377281069755554e-01
2.317000000000000000e+03 7.591940307617187500e+01 -1.416478919982910156e+01 7.764835953712463379e-01 8.933357238769531250e+00 2.912952184677124023e+00 -5.513705015182495117e-01
2.318000000000000000e+03 7.450536346435546875e+01 2.066668128967285156e+01 1.871886551380157471e-01 6.105643272399902344e+00 1.887849688529968262e+00 4.738257527351379395e-01
2.319000000000000000e+03 5.590427780151367188e+01 -2.387859916687011719e+01 -6.035477519035339355e-01 3.874221563339233398e+00 9.812021255493164062e-01 1.008690714836120605e+00
2.320000000000000000e+03 3.140225410461425781e+01 -1.831981086730957031e+01 -2.882151007652282715e-01 2.401603609323501587e-01 -1.441642269492149353e-02 -3.503264859318733215e-02
2.321000000000000000e+03 1.261128139495849609e+01 1.639706039428710938e+01 -8.129368722438812256e-02 3.116982616484165192e-02 -1.503715757280588150e-02 4.760745540261268616e-02
2.322000000000000000e+03 7.633120727539062500e+01 -3.544147109985351562e+01 2.155943773686885834e-02 7.310334682464599609e+00 2.199568271636962891e+00 1.151742935180664062e-01
2.323000000000000000e+03 3.800131607055664062e+01 -2.212747955322265625e+01 -1.540276408195495605e-01 7.013371586799621582e-01 1.641928553581237793e-01 1.224354952573776245e-01
2.324000000000000000e+03 5.585048294067382812e+01 -2.596885681152343750e+00 -1.191505074501037598e+00 3.900529623031616211e+00 8.127074241638183594e-01 -3.543439626693725586e+00
2.325000000000000000e+03 5.826054763793945312e+01 -1.283210468292236328e+01 2.368318289518356323e-01 6.964330673217773438e+00 2.160348653793334961e+00 4.670408368110656738e-01
2.326000000000000000e+03 7.177908420562744141e+00 -2.498275375366210938e+01 3.348763799294829369e-03 -1.503366231918334961e-01 -4.409635812044143677e-02 -1.191495805978775024e-01
2.327000000000000000e+03 3.562570095062255859e+00 2.600053215026855469e+01 -4.550455138087272644e-03 -1.298323720693588257e-01 -4.031484574079513550e-02 5.450009927153587341e-02
2.328000000000000000e+03 8.927909851074218750e+00 1.002472496032714844e+01 2.523064799606800079e-02 1.250319089740514755e-02 1.132015138864517212e-02 2.128279767930507660e-02
2.329000000000000000e+03 5.145342636108398438e+01 1.273846149444580078e+00 2.193843364715576172e+00 6.183749675750732422e+00 2.513278007507324219e+00 2.446755647659301758e+00
2.330000000000000000e+03 5.482755661010742188e+01 -2.485878372192382812e+01 -3.118497729301452637e-01 2.695186614990234375e+00 7.150010466575622559e-01 8.701480031013488770e-01
2.331000000000000000e+03 7.553757476806640625e+01 -2.864782714843750000e+01 9.919141232967376709e-02 7.292489528656005859e+00 2.217504262924194336e+00 3.202734291553497314e-01
2.332000000000000000e+03 2.470832633972167969e+01 1.968314933776855469e+01 -3.566610813140869141e-01 -1.464052647352218628e-01 -1.509198993444442749e-01 2.078814953565597534e-01
2.333000000000000000e+03 1.860493278503417969e+01 -9.176027297973632812e+00 -2.208071500062942505e-01 3.139111399650573730e-02 -5.682481080293655396e-02 5.670174024999141693e-03
2.334000000000000000e+03 7.439986419677734375e+01 -7.170451164245605469e+00 4.113418161869049072e-01 8.606994628906250000e+00 2.705500841140747070e+00 7.207346558570861816e-01
2.335000000000000000e+03 7.657201385498046875e+01 2.646588706970214844e+01 -2.636088430881500244e-02 6.207205772399902344e+00 1.854253530502319336e+00 3.283572494983673096e-01
2.336000000000000000e+03 7.339002227783203125e+01 2.537309455871582031e+01 -1.215668767690658569e-01 6.288963317871093750e+00 1.850218892097473145e+00 4.886955022811889648e-01
2.337000000000000000e+03 3.591746902465820312e+01 1.058996319770812988e+00 -3.974495232105255127e-01 1.146623715758323669e-01 -8.483614772558212280e-02 1.021646931767463684e-01
2.338000000000000000e+03 3.019927787780761719e+01 1.756710052490234375e+01 -6.209776401519775391e-01 2.442695759236812592e-02 -1.789651960134506226e-01 2.911219894886016846e-01
2.339000000000000000e+03 7.568089294433593750e+01 -2.613521194458007812e+01 5.585604161024093628e-02 7.436560153961181641e+00 2.247724771499633789e+00 4.021919667720794678e-01
2.340000000000000000e+03 5.358381271362304688e+01 1.430561923980712891e+01 -8.995211683213710785e-03 4.604655742645263672e+00 1.378698110580444336e+00 -1.877604246139526367e+00
2.341000000000000000e+03 5.688436508178710938e+01 1.277958679199218750e+01 2.378315925598144531e+00 8.843346595764160156e+00 3.366498947143554688e+00 5.389004707336425781e+00
2.342000000000000000e+03 5.604372406005859375e+01 1.360120296478271484e+01 -7.578842639923095703e-01 1.090492820739746094e+01 3.044113159179687500e+00 2.229412078857421875e+00
2.343000000000000000e+03 5.425659942626953125e+01 9.107189178466796875e+00 -1.023221373558044434e+00 1.193863296508789062e+01 3.274623394012451172e+00 6.413187026977539062e+00
2.344000000000000000e+03 5.341835403442382812e+01 8.618043899536132812e+00 -8.101757615804672241e-02 8.606023788452148438e+00 2.557502031326293945e+00 3.397159814834594727e+00
2.345000000000000000e+03 5.560247421264648438e+01 8.010467529296875000e+00 8.812881708145141602e-01 1.339119529724121094e+01 4.281744956970214844e+00 5.206131935119628906e+00
2.346000000000000000e+03 5.242995071411132812e+01 1.461808204650878906e+01 -4.024332016706466675e-02 2.436936616897583008e+00 7.190079689025878906e-01 -1.275502324104309082e+00
2.347000000000000000e+03 5.272801589965820312e+01 1.436350727081298828e+01 1.684384942054748535e-01 2.801686525344848633e+00 8.910375237464904785e-01 -1.535523533821105957e+00
2.348000000000000000e+03 5.201080322265625000e+01 1.497972297668457031e+01 -4.052072763442993164e-01 2.098131656646728516e+00 5.078773498535156250e-01 -1.144493579864501953e+00
2.349000000000000000e+03 6.157748699188232422e+00 -6.564130306243896484e+00 -1.415582839399576187e-02 -5.732537712901830673e-03 -5.966509692370891571e-03 -8.976333774626255035e-03
2.350000000000000000e+03 5.217467784881591797e+00 -4.601922512054443359e+00 -3.224505810067057610e-03 -2.394270850345492363e-03 -1.685632974840700626e-03 2.410230663372203708e-04
2.351000000000000000e+03 6.535717010498046875e+00 -5.844079017639160156e+00 -1.593996956944465637e-02 -4.495603963732719421e-03 -6.130671594291925430e-03 -4.529595840722322464e-03
2.352000000000000000e+03 5.278593444824218750e+01 7.220474243164062500e+00 1.267306447029113770e+00 9.132473945617675781e+00 3.119934082031250000e+00 2.110112190246582031e+00
2.353000000000000000e+03 9.964476585388183594e+00 -6.281751632690429688e+00 -3.343709185719490051e-02 -1.742240856401622295e-03 -1.055379956960678101e-02 -1.047085039317607880e-02
2.354000000000000000e+03 1.185931587219238281e+01 -7.026951789855957031e+00 -5.138975754380226135e-02 3.256289521232247353e-03 -1.444004103541374207e-02 -1.028245501220226288e-02
2.355000000000000000e+03 4.169442749023437500e+01 1.586749076843261719e+01 -9.753213524818420410e-01 3.489727675914764404e-01 -1.879045814275741577e-01 5.928953364491462708e-02
2.356000000000000000e+03 5.835147476196289062e+01 1.511569499969482422e+01 1.119130849838256836e+00 4.655706882476806641e+00 1.732451438903808594e+00 2.633721351623535156e+00
2.357000000000000000e+03 5.764492034912109375e+01 1.506908226013183594e+01 5.201853513717651367e-01 5.603475570678710938e+00 1.837098240852355957e+00 2.503508567810058594e+00
2.358000000000000000e+03 3.732651901245117188e+01 1.750824928283691406e+01 -7.268361449241638184e-01 3.312106803059577942e-02 -2.081145197153091431e-01 5.301385372877120972e-02
2.359000000000000000e+03 5.401058197021484375e+01 8.719627380371093750e+00 -5.489881038665771484e-01 1.154237079620361328e+01 3.298014879226684570e+00 4.768921375274658203e+00
2.360000000000000000e+03 5.391720199584960938e+01 8.438550949096679688e+00 -2.527810633182525635e-01 1.096319103240966797e+01 3.213123083114624023e+00 4.461155414581298828e+00
2.361000000000000000e+03 1.306919765472412109e+01 -6.901082515716552734e+00 -5.886825919151306152e-02 5.467975512146949768e-03 -1.602008379995822906e-02 -7.168979849666357040e-03
2.362000000000000000e+03 4.729589462280273438e+00 -4.371830463409423828e+00 -5.886893253773450851e-03 -5.195034318603575230e-04 -1.921919058077037334e-03 7.481630309484899044e-04
2.363000000000000000e+03 9.236222267150878906e+00 -5.305603504180908203e+00 -2.246564626693725586e-02 -2.039326820522546768e-03 -7.351492065936326981e-03 -5.468331743031740189e-03
2.364000000000000000e+03 3.996560287475585938e+01 1.723896789550781250e+01 -8.533210158348083496e-01 2.887849211692810059e-01 -1.693608164787292480e-01 1.203197613358497620e-01
2.365000000000000000e+03 5.703306961059570312e+01 1.710977935791015625e+01 -2.173868417739868164e-01 5.335607051849365234e+00 1.535465955734252930e+00 8.263869285583496094e-01
2.366000000000000000e+03 1.006900787353515625e+01 -5.496715068817138672e+00 -2.245075628161430359e-02 -2.773538231849670410e-03 -7.567288354039192200e-03 -5.222007632255554199e-03
2.367000000000000000e+03 7.424594879150390625e+00 -5.119853973388671875e+00 -1.535507664084434509e-02 -2.764669014140963554e-03 -5.435923580080270767e-03 -3.798495046794414520e-03
2.368000000000000000e+03 1.720386695861816406e+01 -7.269415855407714844e+00 -9.807058423757553101e-02 1.357313804328441620e-02 -2.534923516213893890e-02 1.621866226196289062e-02
2.369000000000000000e+03 5.876999664306640625e+01 -6.688328266143798828e+00 9.142094254493713379e-01 5.474694252014160156e+00 1.916671156883239746e+00 -1.050790846347808838e-01
2.370000000000000000e+03 1.449819374084472656e+01 -7.974835395812988281e+00 -9.577222913503646851e-02 1.502553187310695648e-02 -2.422400936484336853e-02 -9.361877106130123138e-03
2.371000000000000000e+03 1.360500431060791016e+01 -6.050966739654541016e+00 -4.393284395337104797e-02 2.109746215865015984e-03 -1.254692953079938889e-02 -1.805065432563424110e-03
2.372000000000000000e+03 6.367237091064453125e+00 -7.960679531097412109e+00 -1.778840646147727966e-02 -8.993424475193023682e-03 -8.034549653530120850e-03 -1.514868251979351044e-02
2.373000000000000000e+03 5.577809810638427734e+00 -7.326947689056396484e+00 -1.618277840316295624e-02 -7.408067584037780762e-03 -7.077253889292478561e-03 -8.606139570474624634e-03
2.374000000000000000e+03 7.592092132568359375e+01 1.365835285186767578e+01 2.594797015190124512e-01 5.924921035766601562e+00 1.855320334434509277e+00 -1.205372929573059082e+00
2.375000000000000000e+03 4.396149158477783203e+00 9.723884582519531250e+00 4.952519200742244720e-03 -2.691648155450820923e-02 -6.589189171791076660e-03 1.756505668163299561e-02
2.376000000000000000e+03 7.314089965820312500e+01 -1.941151237487792969e+01 -9.151340723037719727e-01 7.633369445800781250e+00 2.015470743179321289e+00 1.083274364471435547e+00
2.377000000000000000e+03 7.583093261718750000e+01 -1.901255226135253906e+01 -7.133152484893798828e-01 8.443195343017578125e+00 2.318964242935180664e+00 -1.437490880489349365e-01
2.378000000000000000e+03 5.318968200683593750e+01 -5.903579592704772949e-01 -1.764622330665588379e+00 6.874925136566162109e+00 1.533090829849243164e+00 -1.243753671646118164e+00
2.379000000000000000e+03 8.703866004943847656e+00 1.201890945434570312e+01 1.388249173760414124e-02 4.014695994555950165e-03 5.369156133383512497e-03 1.612403988838195801e-02
2.380000000000000000e+03 7.143227100372314453e+00 1.070944213867187500e+01 1.961907930672168732e-02 -1.734755747020244598e-02 6.814569351263344288e-04 1.420672703534364700e-02
2.381000000000000000e+03 6.115909957885742188e+01 -1.286451911926269531e+01 -1.646402776241302490e-01 6.598263263702392578e+00 1.930086970329284668e+00 3.566172719001770020e-01
2.382000000000000000e+03 5.948490905761718750e+01 -1.240621566772460938e+01 1.563636213541030884e-01 6.969921588897705078e+00 2.137885570526123047e+00 7.002595067024230957e-01
2.383000000000000000e+03 1.429773807525634766e+01 -6.502014160156250000e+00 -5.916986241936683655e-02 6.286404095590114594e-03 -1.586503721773624420e-02 5.402864189818501472e-05
2.384000000000000000e+03 7.415186309814453125e+01 -2.842544794082641602e+00 -3.115099668502807617e-01 4.719886779785156250e+00 1.322512984275817871e+00 -2.732517719268798828e-01
2.385000000000000000e+03 6.955705165863037109e+00 9.690972328186035156e+00 2.430128492414951324e-02 -2.078525535762310028e-02 1.054808730259537697e-03 1.405128650367259979e-02
2.386000000000000000e+03 5.224758148193359375e+00 9.924238204956054688e+00 1.062305178493261337e-02 -2.112545259296894073e-02 -3.150720149278640747e-03 1.797625422477722168e-02
2.387000000000000000e+03 5.169108390808105469e+00 1.089601802825927734e+01 1.170594431459903717e-02 -2.881333976984024048e-02 -5.132218357175588608e-03 1.531158573925495148e-02
2.388000000000000000e+03 4.095754241943359375e+01 -5.045773029327392578e+00 1.225228905677795410e+00 3.264971971511840820e-01 4.655178487300872803e-01 1.717813014984130859e-01
2.389000000000000000e+03 5.906600952148437500e+01 1.714354133605957031e+01 9.846533536911010742e-01 4.135192871093750000e+00 1.535953879356384277e+00 1.016685366630554199e+00
2.390000000000000000e+03 4.969179153442382812e+01 1.798810958862304688e+01 -5.020908117294311523e-01 7.375534176826477051e-01 7.063879817724227905e-02 -9.607288241386413574e-01
2.391000000000000000e+03 2.659123229980468750e+01 -2.307232141494750977e+00 5.604172870516777039e-02 -1.706825941801071167e-01 -3.439226001501083374e-02 -1.551297903060913086e-01
2.392000000000000000e+03 6.441165161132812500e+01 -1.853172302246093750e+01 -3.689947426319122314e-01 4.032549381256103516e+00 1.099066376686096191e+00 -1.264497399330139160e+00
2.393000000000000000e+03 3.518974685668945312e+01 1.827643775939941406e+01 -6.219244003295898438e-01 -1.410709619522094727e-01 -2.288985997438430786e-01 1.931381523609161377e-01
2.394000000000000000e+03 6.338899612426757812e+01 -6.205860376358032227e-01 -3.364667654037475586e+00 6.765573501586914062e+00 1.020271778106689453e+00 4.283105373382568359e+00
2.395000000000000000e+03 5.458411216735839844e+00 1.480675029754638672e+01 -3.618407994508743286e-03 -2.565692551434040070e-02 -8.782600052654743195e-03 1.655909232795238495e-02
2.396000000000000000e+03 4.298901557922363281e+00 1.326858615875244141e+01 2.669509733095765114e-03 -2.896200120449066162e-02 -7.887747138738632202e-03 7.383555173873901367e-03
2.397000000000000000e+03 4.690828323364257812e+01 2.004712677001953125e+01 -1.543717682361602783e-01 4.840994179248809814e-01 9.891829639673233032e-02 -2.752865850925445557e-01
2.398000000000000000e+03 4.450317382812500000e+01 1.815565681457519531e+01 -7.675961852073669434e-01 2.703655958175659180e-01 -1.491691619157791138e-01 9.548163414001464844e-02
2.399000000000000000e+03 1.205591297149658203e+01 1.537559986114501953e+01 -5.716359987854957581e-02 2.572355791926383972e-02 -9.432012215256690979e-03 3.436091169714927673e-02
2.400000000000000000e+03 5.943465423583984375e+01 -3.838067531585693359e+00 1.153936386108398438e+00 4.594974517822265625e+00 1.724673271179199219e+00 -7.231631278991699219e-01
2.401000000000000000e+03 6.007146835327148438e+01 -7.459814846515655518e-02 -2.472055196762084961e+00 2.228914260864257812e+00 -7.294228672981262207e-02 2.260488718748092651e-01
2.402000000000000000e+03 4.700816631317138672e+00 2.058800506591796875e+01 -2.041384391486644745e-02 -6.293144822120666504e-02 -2.500358782708644867e-02 4.226131737232208252e-02
2.403000000000000000e+03 5.163241863250732422e+00 2.597010993957519531e+01 -1.123168319463729858e-02 -1.214866340160369873e-01 -3.981549292802810669e-02 7.747871428728103638e-02
2.404000000000000000e+03 4.030745315551757812e+01 -8.187598228454589844e+00 -1.882621645927429199e-01 4.827950894832611084e-01 8.835987746715545654e-02 4.604694545269012451e-01
2.405000000000000000e+03 3.334255981445312500e+01 -1.903120231628417969e+01 -3.039536476135253906e-01 2.632143497467041016e-01 -1.222178991883993149e-02 -3.712085634469985962e-02
2.406000000000000000e+03 5.761380767822265625e+01 -2.426978588104248047e+00 -3.279185891151428223e-01 2.625147342681884766e+00 6.891685724258422852e-01 -2.328037261962890625e+00
2.407000000000000000e+03 4.166511917114257812e+01 1.752055358886718750e+01 -8.299210071563720703e-01 3.412159681320190430e-01 -1.466115117073059082e-01 1.423136293888092041e-01
2.408000000000000000e+03 1.887323188781738281e+01 -1.222603988647460938e+01 -2.526406645774841309e-01 1.571737974882125854e-02 -7.107698917388916016e-02 -1.296098828315734863e-01
2.409000000000000000e+03 2.180035591125488281e+01 -1.356368064880371094e+01 -2.287265062332153320e-01 -8.738417178392410278e-02 -9.483320266008377075e-02 -1.735591739416122437e-01
2.410000000000000000e+03 1.425261878967285156e+01 2.136313438415527344e+01 -1.402314752340316772e-01 -2.218948444351553917e-03 -4.273512586951255798e-02 1.598050445318222046e-01
2.411000000000000000e+03 2.031150817871093750e+01 2.152376556396484375e+01 -2.153150439262390137e-01 -6.264420598745346069e-02 -8.338776975870132446e-02 2.543981671333312988e-01
2.412000000000000000e+03 1.902966499328613281e+01 2.076454734802246094e+01 -2.341065555810928345e-01 -3.271005302667617798e-02 -8.004498481750488281e-02 2.485573142766952515e-01
2.413000000000000000e+03 4.052728176116943359e+00 -4.878597736358642578e+00 -7.413143757730722427e-03 -8.388513815589249134e-04 -2.475598594173789024e-03 1.715443213470280170e-03
2.414000000000000000e+03 6.405586719512939453e+00 -1.776665878295898438e+01 -1.841990277171134949e-02 -7.542009651660919189e-02 -2.815200015902519226e-02 -9.039997309446334839e-02
2.415000000000000000e+03 5.449460983276367188e+00 3.153390884399414062e+01 1.110802590847015381e-02 -1.913977861404418945e-01 -5.408693104982376099e-02 7.972710579633712769e-02
2.416000000000000000e+03 7.519583702087402344e+00 3.403378677368164062e+01 3.149418532848358154e-02 -1.957886219024658203e-01 -4.928833246231079102e-02 8.605370670557022095e-02
2.417000000000000000e+03 4.951136589050292969e+00 2.736104965209960938e+01 -3.586720675230026245e-03 -1.400723755359649658e-01 -4.309773072600364685e-02 7.669608294963836670e-02
2.418000000000000000e+03 6.170713901519775391e+00 2.781383323669433594e+01 -2.804874442517757416e-03 -1.398934572935104370e-01 -4.280949756503105164e-02 9.371608495712280273e-02
2.419000000000000000e+03 4.942654800415039062e+01 -2.328249740600585938e+01 -1.406891494989395142e-01 1.096598863601684570e+00 2.867729067802429199e-01 -6.379216909408569336e-02
2.420000000000000000e+03 7.626515197753906250e+01 1.935941886901855469e+01 1.774104684591293335e-01 5.754115581512451172e+00 1.779457926750183105e+00 2.400966435670852661e-01
2.421000000000000000e+03 4.973596096038818359e+00 -1.777150726318359375e+01 -1.803515665233135223e-02 -8.182595670223236084e-02 -2.995833382010459900e-02 -7.265970855951309204e-02
2.422000000000000000e+03 4.018918609619140625e+01 -2.102882003784179688e+01 -3.777793049812316895e-01 1.097111105918884277e+00 2.157995551824569702e-01 2.001549154520034790e-01
2.423000000000000000e+03 7.287250518798828125e+01 1.537588405609130859e+01 1.631128191947937012e+00 5.421611309051513672e+00 2.115821838378906250e+00 1.872984319925308228e-01
2.424000000000000000e+03 3.785691070556640625e+01 -4.430597305297851562e+00 6.480399370193481445e-01 -6.786760687828063965e-01 -9.190847165882587433e-03 -2.445490807294845581e-01
2.425000000000000000e+03 7.548207855224609375e+01 -2.990039825439453125e+01 6.522532552480697632e-02 7.233818054199218750e+00 2.189713001251220703e+00 2.961890995502471924e-01
2.426000000000000000e+03 2.568178367614746094e+01 2.254296493530273438e+01 -1.957095116376876831e-01 -1.029132902622222900e-01 -8.958683907985687256e-02 2.605436742305755615e-01
2.427000000000000000e+03 3.052656555175781250e+01 1.945847702026367188e+01 -4.748334586620330811e-01 -8.000436238944530487e-03 -1.448501646518707275e-01 3.001540303230285645e-01
2.428000000000000000e+03 5.874501800537109375e+01 -2.526606369018554688e+01 -5.292162895202636719e-01 4.244156360626220703e+00 1.114481925964355469e+00 7.030752301216125488e-02
2.429000000000000000e+03 5.704844665527343750e+01 -2.573615646362304688e+01 -5.804759860038757324e-01 3.823423624038696289e+00 9.728842377662658691e-01 3.206064701080322266e-01
2.430000000000000000e+03 7.559410858154296875e+01 2.710737228393554688e+01 -5.977869033813476562e-02 6.245716094970703125e+00 1.855781197547912598e+00 3.739704489707946777e-01
2.431000000000000000e+03 7.581169605255126953e+00 -2.826861190795898438e+01 1.004632469266653061e-02 -1.805770695209503174e-01 -5.115922540426254272e-02 -1.126998066902160645e-01
2.432000000000000000e+03 3.399550628662109375e+01 -2.014746284484863281e+01 -1.656506508588790894e-01 2.234296053647994995e-01 1.733368635177612305e-02 -6.988977640867233276e-02
2.433000000000000000e+03 3.859981155395507812e+01 -2.023008728027343750e+01 -4.051138162612915039e-01 6.851533055305480957e-01 8.401185274124145508e-02 2.779230773448944092e-01
2.434000000000000000e+03 6.726702213287353516e+00 -1.152134704589843750e+01 -3.475815057754516602e-02 -2.180766686797142029e-02 -1.696974411606788635e-02 -4.290207102894783020e-02
2.435000000000000000e+03 5.128844261169433594e+00 -9.067713737487792969e+00 -1.377723645418882370e-02 -1.255782693624496460e-02 -7.900519296526908875e-03 -1.662595383822917938e-02
2.436000000000000000e+03 5.996985626220703125e+01 1.848361015319824219e+01 9.515132904052734375e-01 4.346627712249755859e+00 1.589442253112792969e+00 7.138318568468093872e-02
2.437000000000000000e+03 7.490579223632812500e+01 -2.713691473007202148e+00 -6.511604189872741699e-01 6.239803791046142578e+00 1.676593065261840820e+00 4.043886959552764893e-01
2.438000000000000000e+03 7.444493865966796875e+01 -1.966619491577148438e+00 -7.460214495658874512e-01 4.628053665161132812e+00 1.164609670639038086e+00 2.942936718463897705e-01
2.439000000000000000e+03 1.737656211853027344e+01 -9.871975898742675781e+00 -1.988012939691543579e-01 3.647847473621368408e-02 -4.869684204459190369e-02 -4.556107148528099060e-02
2.440000000000000000e+03 1.797582054138183594e+01 -1.109825038909912109e+01 -2.147111147642135620e-01 2.138170041143894196e-02 -5.799882486462593079e-02 -6.793916225433349609e-02
2.441000000000000000e+03 5.530889892578125000e+01 1.414856052398681641e+01 -1.096967220306396484e+00 9.303906440734863281e+00 2.462081670761108398e+00 -1.793508678674697876e-01
2.442000000000000000e+03 5.575110244750976562e+01 1.351693344116210938e+01 -9.700596928596496582e-01 1.139542198181152344e+01 3.127608776092529297e+00 1.305447697639465332e+00
2.443000000000000000e+03 5.300404739379882812e+01 1.530037307739257812e+01 -5.012763738632202148e-01 3.645841598510742188e+00 9.433695673942565918e-01 -1.535252213478088379e+00
2.444000000000000000e+03 5.450109481811523438e+01 1.432487487792968750e+01 -7.073892951011657715e-01 7.211213588714599609e+00 1.951147317886352539e+00 -1.474887490272521973e+00
2.445000000000000000e+03 5.636851882934570312e+01 1.348763370513916016e+01 -8.989983797073364258e-02 1.034094905853271484e+01 3.075314760208129883e+00 3.271093845367431641e+00
2.446000000000000000e+03 5.769559097290039062e+01 1.314099311828613281e+01 2.372964382171630859e+00 5.089593887329101562e+00 2.238767385482788086e+00 4.547498703002929688e+00
2.447000000000000000e+03 4.765369892120361328e+00 -6.861254692077636719e+00 -6.947892252355813980e-03 -5.786215886473655701e-03 -3.820232348516583443e-03 -4.128363449126482010e-03
2.448000000000000000e+03 5.767919540405273438e+01 1.439252090454101562e+01 9.379728436470031738e-01 5.791304111480712891e+00 2.018783092498779297e+00 3.284863948822021484e+00
2.449000000000000000e+03 5.435944747924804688e+01 8.687416076660156250e+00 -1.580262660980224609e+00 1.373260116577148438e+01 3.645701408386230469e+00 5.809575557708740234e+00
2.450000000000000000e+03 1.080755424499511719e+01 -5.637141704559326172e+00 -3.050111792981624603e-02 -7.565902196802198887e-04 -9.377312846481800079e-03 -6.804183125495910645e-03
2.451000000000000000e+03 1.246302318572998047e+01 -7.651426792144775391e+00 -6.241803988814353943e-02 4.065294284373521805e-03 -1.750582456588745117e-02 -1.721493154764175415e-02
2.452000000000000000e+03 7.406733036041259766e+00 -6.006267547607421875e+00 -1.539425365626811981e-02 -4.399280995130538940e-03 -5.938060581684112549e-03 -6.267191842198371887e-03
2.453000000000000000e+03 9.924333572387695312e+00 -7.072218894958496094e+00 -3.437389805912971497e-02 -2.479665214195847511e-03 -1.105606928467750549e-02 -1.162339467555284500e-02
2.454000000000000000e+03 1.374415493011474609e+01 -7.433187961578369141e+00 -7.013973593711853027e-02 7.603356149047613144e-03 -1.876091398298740387e-02 -1.037948671728372574e-02
2.455000000000000000e+03 1.074170589447021484e+01 -6.428064346313476562e+00 -3.499080985784530640e-02 -1.025480567477643490e-03 -1.080488692969083786e-02 -8.719786070287227631e-03
2.456000000000000000e+03 5.740492820739746094e+00 -5.773792743682861328e+00 -8.934957906603813171e-03 -3.738118801265954971e-03 -3.801923012360930443e-03 -2.372079528868198395e-03
2.457000000000000000e+03 3.810442352294921875e+01 1.861989021301269531e+01 -5.981222391128540039e-01 1.147078350186347961e-01 -1.450243145227432251e-01 1.257987022399902344e-01
2.458000000000000000e+03 6.597545623779296875e+00 -5.004729270935058594e+00 -8.713874034583568573e-03 -3.223018720746040344e-03 -3.581068012863397598e-03 -2.329909242689609528e-03
2.459000000000000000e+03 7.481203556060791016e+00 -7.605665206909179688e+00 -2.192955650389194489e-02 -8.497602306306362152e-03 -9.128147736191749573e-03 -1.495580282062292099e-02
2.460000000000000000e+03 4.008106231689453125e+01 -4.736318588256835938e+00 1.117221713066101074e+00 -2.054126560688018799e-01 2.735427021980285645e-01 -1.016172170639038086e-01
2.461000000000000000e+03 1.145233535766601562e+01 -6.388388156890869141e+00 -4.049924388527870178e-02 4.195710789645090699e-05 -1.213718578219413757e-02 -1.038007624447345734e-02
2.462000000000000000e+03 7.776245594024658203e+00 9.500685691833496094e+00 2.249395102262496948e-02 -7.837696932256221771e-03 4.396875854581594467e-03 2.465086244046688080e-02
2.463000000000000000e+03 6.087756156921386719e+00 9.840510368347167969e+00 1.771666854619979858e-02 -2.588068135082721710e-02 -2.449203515425324440e-03 2.292840369045734406e-02
2.464000000000000000e+03 7.570181274414062500e+01 -5.574159145355224609e+00 -2.682938007637858391e-03 8.207427978515625000e+00 2.461423397064208984e+00 1.237170457839965820e+00
2.465000000000000000e+03 6.243275642395019531e+00 1.978951644897460938e+01 -3.091640584170818329e-02 -4.898938164114952087e-02 -2.397173643112182617e-02 4.984736442565917969e-02
2.466000000000000000e+03 5.766270828247070312e+01 -4.986096858978271484e+00 3.343242704868316650e-01 4.294792652130126953e+00 1.388735055923461914e+00 -1.346022605895996094e+00
2.467000000000000000e+03 5.860006332397460938e+01 -4.555434703826904297e+00 6.716835498809814453e-01 4.631441593170166016e+00 1.590937614440917969e+00 -6.845782995223999023e-01
2.468000000000000000e+03 3.548561859130859375e+01 2.022631454467773438e+01 -4.070430994033813477e-01 -1.248053554445505142e-02 -1.258570849895477295e-01 2.161566168069839478e-01
2.469000000000000000e+03 5.205300903320312500e+01 1.843343734741210938e+01 -4.905494451522827148e-01 2.579682350158691406e+00 6.267398595809936523e-01 -1.223755836486816406e+00
2.470000000000000000e+03 5.349920272827148438e+01 -1.902882218360900879e+00 -2.718622684478759766e+00 5.956173896789550781e+00 9.712653756141662598e-01 -2.117449045181274414e+00
2.471000000000000000e+03 6.164809703826904297e+00 1.362404918670654297e+01 -6.966270972043275833e-03 -2.298441343009471893e-02 -8.985205553472042084e-03 9.946105070412158966e-03
2.472000000000000000e+03 6.826098918914794922e+00 7.766928672790527344e+00 4.627702292054891586e-03 -1.993232406675815582e-02 -4.591386299580335617e-03 3.431490808725357056e-02
2.473000000000000000e+03 3.821006774902343750e+01 1.702640151977539062e+01 -8.122586607933044434e-01 1.691001802682876587e-01 -1.929475516080856323e-01 9.175383299589157104e-02
2.474000000000000000e+03 3.734004211425781250e+01 1.968071556091308594e+01 -5.046873092651367188e-01 1.019740998744964600e-01 -1.208139583468437195e-01 1.374991238117218018e-01
2.475000000000000000e+03 1.153841686248779297e+01 1.696896553039550781e+01 -7.670860737562179565e-02 1.368234679102897644e-02 -1.890787854790687561e-02 5.274129286408424377e-02
2.476000000000000000e+03 5.414599227905273438e+01 -2.619038343429565430e+00 -2.279858827590942383e+00 4.891109943389892578e+00 7.833753228187561035e-01 -2.187235116958618164e+00
2.477000000000000000e+03 4.985634994506835938e+01 2.109505462646484375e+01 -4.190998896956443787e-02 1.461899280548095703e+00 4.259967803955078125e-01 -9.088141918182373047e-01
2.478000000000000000e+03 1.943892669677734375e+01 2.315185928344726562e+01 -1.554140299558639526e-01 -6.844619661569595337e-02 -6.715806573629379272e-02 2.701548933982849121e-01
2.479000000000000000e+03 1.644775009155273438e+01 2.278818702697753906e+01 -1.263845264911651611e-01 -3.186022490262985229e-02 -4.747342690825462341e-02 2.107327878475189209e-01
2.480000000000000000e+03 7.050930786132812500e+01 1.416181278228759766e+01 2.277117729187011719e+00 6.096064090728759766e+00 2.511954545974731445e+00 1.132144808769226074e+00
2.481000000000000000e+03 7.400189971923828125e+01 -2.112218856811523438e+01 -4.579076468944549561e-01 7.381228446960449219e+00 2.076996326446533203e+00 6.836416721343994141e-01
2.482000000000000000e+03 7.465820312500000000e+01 -1.874176025390625000e+01 -6.703217625617980957e-01 8.369571685791015625e+00 2.309774875640869141e+00 3.159013986587524414e-01
2.483000000000000000e+03 5.930939102172851562e+01 -1.690431022644042969e+01 4.414087533950805664e-01 6.649061203002929688e+00 2.127140998840332031e+00 -4.355672299861907959e-01
2.484000000000000000e+03 6.288860702514648438e+01 -1.508893966674804688e+01 -7.578818798065185547e-01 5.280517101287841797e+00 1.356790542602539062e+00 -7.411973476409912109e-01
2.485000000000000000e+03 8.018040657043457031e+00 2.352368164062500000e+01 -3.625336289405822754e-02 -6.603699177503585815e-02 -3.068710491061210632e-02 1.005687713623046875e-01
2.486000000000000000e+03 1.532381439208984375e+01 -8.481019973754882812e+00 -1.108142882585525513e-01 1.659663394093513489e-02 -2.826529741287231445e-02 -1.698318310081958771e-02
2.487000000000000000e+03 2.094006729125976562e+01 1.980119705200195312e+01 -3.250719904899597168e-01 -7.816214859485626221e-02 -1.209702417254447937e-01 2.767916619777679443e-01
2.488000000000000000e+03 6.751905822753906250e+01 1.382719135284423828e+01 3.086812019348144531e+00 9.566644668579101562e+00 3.796036958694458008e+00 1.701634168624877930e+00
2.489000000000000000e+03 2.375487327575683594e+01 -1.390055942535400391e+01 -1.873729079961776733e-01 -1.889031082391738892e-01 -1.128828078508377075e-01 -1.322575211524963379e-01
2.490000000000000000e+03 1.856388282775878906e+01 -1.428608512878417969e+01 -1.997025609016418457e-01 -5.869811400771141052e-03 -6.167171150445938110e-02 -1.604541838169097900e-01
2.491000000000000000e+03 1.939923477172851562e+01 -1.543530178070068359e+01 -1.613292396068572998e-01 -2.996481582522392273e-02 -5.738821625709533691e-02 -1.759340912103652954e-01
2.492000000000000000e+03 1.619099998474121094e+01 -8.855570793151855469e+00 -1.515145897865295410e-01 3.102366626262664795e-02 -3.614727780222892761e-02 -1.324992068111896515e-02
2.493000000000000000e+03 6.183039855957031250e+01 -1.842040824890136719e+01 -2.684051692485809326e-01 5.119477272033691406e+00 1.455321669578552246e+00 -1.057136535644531250e+00
2.494000000000000000e+03 6.287070083618164062e+01 -1.779575347900390625e+01 -3.432912826538085938e-01 4.871766090393066406e+00 1.358542561531066895e+00 -1.171166896820068359e+00
2.495000000000000000e+03 2.402264213562011719e+01 2.146638107299804688e+01 -2.716709375381469727e-01 -1.345414370298385620e-01 -1.218637079000473022e-01 2.622846662998199463e-01
2.496000000000000000e+03 4.554876708984375000e+01 -2.354363632202148438e+01 -3.718341290950775146e-01 1.195313930511474609e+00 2.470439225435256958e-01 -2.143147438764572144e-01
2.497000000000000000e+03 5.884650039672851562e+01 1.837208557128906250e+01 5.727225542068481445e-01 4.579543590545654297e+00 1.545679807662963867e+00 4.173456132411956787e-01
2.498000000000000000e+03 7.790436267852783203e+00 -2.315318107604980469e+01 -1.859780284576117992e-03 -1.242961362004280090e-01 -3.784677758812904358e-02 -1.229432076215744019e-01
2.499000000000000000e+03 7.313499450683593750e+01 1.850575065612792969e+01 5.951390266418457031e-01 6.076367855072021484e+00 2.001451969146728516e+00 5.177641510963439941e-01
2.500000000000000000e+03 3.339987945556640625e+01 2.069579505920410156e+01 -3.521097898483276367e-01 -5.558104068040847778e-02 -1.223072484135627747e-01 2.881684303283691406e-01
2.501000000000000000e+03 5.481233978271484375e+01 1.438606739044189453e+01 -9.180420041084289551e-01 7.950802326202392578e+00 2.109827995300292969e+00 -1.006594061851501465e+00
2.502000000000000000e+03 5.587997055053710938e+01 1.412885856628417969e+01 -9.878398776054382324e-01 9.559231758117675781e+00 2.571417570114135742e+00 1.343538880348205566e+00
2.503000000000000000e+03 5.542550277709960938e+01 1.474008464813232422e+01 -1.110649824142456055e+00 8.158246994018554688e+00 2.114279270172119141e+00 1.178906485438346863e-01
2.504000000000000000e+03 5.415674972534179688e+01 1.421911621093750000e+01 -3.372198939323425293e-01 6.328222274780273438e+00 1.797300696372985840e+00 -1.896519660949707031e+00
2.505000000000000000e+03 5.282698822021484375e+01 1.477886486053466797e+01 -2.329089641571044922e-01 3.175119161605834961e+00 8.826630711555480957e-01 -1.431409358978271484e+00
2.506000000000000000e+03 5.767647552490234375e+01 1.375244140625000000e+01 1.452559947967529297e+00 5.683647632598876953e+00 2.140862226486206055e+00 3.900112152099609375e+00
2.507000000000000000e+03 5.720073699951171875e+01 1.368625831604003906e+01 1.002973794937133789e+00 7.076249122619628906e+00 2.423766851425170898e+00 4.079854965209960938e+00
2.508000000000000000e+03 5.706761932373046875e+01 1.492380046844482422e+01 -3.436683863401412964e-02 6.722473144531250000e+00 2.006431818008422852e+00 2.403456687927246094e+00
2.509000000000000000e+03 5.650680541992187500e+01 1.380037879943847656e+01 -1.462325304746627808e-01 9.372551918029785156e+00 2.767895936965942383e+00 3.207571506500244141e+00
2.510000000000000000e+03 5.802386474609375000e+01 1.709552001953125000e+01 3.282338082790374756e-01 4.939010620117187500e+00 1.580173373222351074e+00 1.124464154243469238e+00
2.511000000000000000e+03 6.825209617614746094e+00 -7.171773910522460938e+00 -2.155639603734016418e-02 -5.560886114835739136e-03 -8.135184645652770996e-03 -9.499486535787582397e-03
2.512000000000000000e+03 8.318656921386718750e+00 -6.067353725433349609e+00 -2.477746643126010895e-02 -3.012357046827673912e-03 -8.336947299540042877e-03 -8.125101216137409210e-03
2.513000000000000000e+03 9.189458847045898438e+00 -7.076342105865478516e+00 -3.602025285363197327e-02 -2.073067706078290939e-03 -1.142799574881792068e-02 -1.432616729289293289e-02
2.514000000000000000e+03 5.396191787719726562e+01 1.638616180419921875e+01 -9.307191967964172363e-01 4.789822578430175781e+00 1.157730937004089355e+00 -1.116772413253784180e+00
2.515000000000000000e+03 5.780046463012695312e+01 1.825372886657714844e+01 1.389154791831970215e-01 4.731750011444091797e+00 1.461199641227722168e+00 4.495673775672912598e-01
2.516000000000000000e+03 1.127174663543701172e+01 -7.637061119079589844e+00 -4.979007691144943237e-02 1.095432322472333908e-03 -1.460839342325925827e-02 -1.714049279689788818e-02
2.517000000000000000e+03 5.235364532470703125e+01 1.672126197814941406e+01 -7.135129570960998535e-01 2.879886627197265625e+00 6.499121189117431641e-01 -1.451056361198425293e+00
2.518000000000000000e+03 6.214836597442626953e+00 -9.030621528625488281e+00 -2.723501250147819519e-02 -1.074710115790367126e-02 -1.139463391155004501e-02 -2.033194527029991150e-02
2.519000000000000000e+03 5.157946014404296875e+01 1.909175682067871094e+01 -3.866893649101257324e-01 2.120954036712646484e+00 5.202793478965759277e-01 -1.190647125244140625e+00
2.520000000000000000e+03 5.259466934204101562e+01 1.923552322387695312e+01 -4.284137189388275146e-01 2.929687023162841797e+00 7.503820061683654785e-01 -1.187628030776977539e+00
2.521000000000000000e+03 4.016040039062500000e+01 -5.620433807373046875e+00 9.004898071289062500e-01 6.733444333076477051e-02 2.903472781181335449e-01 1.182213723659515381e-01
2.522000000000000000e+03 7.304387664794921875e+01 1.653807830810546875e+01 1.203721523284912109e+00 5.548953056335449219e+00 2.025802373886108398e+00 2.903975248336791992e-01
2.523000000000000000e+03 7.187767791748046875e+01 1.772233200073242188e+01 9.574092030525207520e-01 6.341703891754150391e+00 2.189733982086181641e+00 6.149331927299499512e-01
2.524000000000000000e+03 5.654375457763671875e+01 1.582278823852539062e+01 -5.591750741004943848e-01 6.538526058197021484e+00 1.793805241584777832e+00 1.273691654205322266e+00
2.525000000000000000e+03 5.742855072021484375e+01 1.579206466674804688e+01 8.214113116264343262e-02 5.764523029327392578e+00 1.753999233245849609e+00 1.819979667663574219e+00
2.526000000000000000e+03 6.579996585845947266e+00 2.400668144226074219e+01 -2.278395742177963257e-02 -9.028176963329315186e-02 -3.391971811652183533e-02 8.351999521255493164e-02
2.527000000000000000e+03 6.818595409393310547e+00 2.123825836181640625e+01 -3.393279761075973511e-02 -5.558180063962936401e-02 -2.685437910258769989e-02 6.734112650156021118e-02
2.528000000000000000e+03 1.487773799896240234e+01 -9.533964157104492188e+00 -1.307484805583953857e-01 2.157377451658248901e-02 -3.275241330265998840e-02 -3.231658786535263062e-02
2.529000000000000000e+03 7.292411041259765625e+01 2.073297691345214844e+01 2.432882338762283325e-01 6.225412845611572266e+00 1.940610289573669434e+00 5.842128992080688477e-01
2.530000000000000000e+03 7.337825298309326172e+00 2.031567382812500000e+01 -3.659351170063018799e-02 -4.297297820448875427e-02 -2.386994659900665283e-02 6.584398448467254639e-02
2.531000000000000000e+03 4.568577194213867188e+01 2.149359512329101562e+01 -6.778965890407562256e-02 5.861572027206420898e-01 1.555102616548538208e-01 -1.727220416069030762e-01
2.532000000000000000e+03 4.650301742553710938e+01 2.285418319702148438e+01 1.105974614620208740e-01 8.297753930091857910e-01 2.821118533611297607e-01 -3.204468190670013428e-01
2.533000000000000000e+03 6.858520507812500000e+01 1.485519504547119141e+01 1.560202240943908691e+00 8.815011978149414062e+00 3.112564325332641602e+00 1.271699547767639160e+00
2.534000000000000000e+03 6.470125675201416016e+00 -1.927187538146972656e+01 -2.172227390110492706e-02 -9.171068668365478516e-02 -3.402988985180854797e-02 -9.749620407819747925e-02
2.535000000000000000e+03 9.627336502075195312e+00 1.278129291534423828e+01 -3.034306457266211510e-03 7.969679310917854309e-03 1.480611856095492840e-03 1.215961761772632599e-02
2.536000000000000000e+03 7.121766090393066406e+00 1.421354961395263672e+01 -4.316096659749746323e-03 -1.324168778955936432e-02 -5.267335101962089539e-03 1.822239533066749573e-02
2.537000000000000000e+03 3.999764633178710938e+01 -3.840626716613769531e+00 1.096108913421630859e+00 -3.574856817722320557e-01 2.215869873762130737e-01 -2.987505793571472168e-01
2.538000000000000000e+03 3.895108032226562500e+01 -4.827100276947021484e+00 8.229005336761474609e-01 -6.783380508422851562e-01 4.336875304579734802e-02 -1.807894408702850342e-01
2.539000000000000000e+03 1.767057418823242188e+01 -1.319586086273193359e+01 -1.897097975015640259e-01 4.510242957621812820e-03 -5.555986613035202026e-02 -1.252864748239517212e-01
2.540000000000000000e+03 2.021950531005859375e+01 -1.666553306579589844e+01 -1.516703069210052490e-01 -3.533431887626647949e-02 -5.610138550400733948e-02 -1.812514662742614746e-01
2.541000000000000000e+03 2.263202667236328125e+01 -1.479789543151855469e+01 -2.061335891485214233e-01 -9.808222204446792603e-02 -9.126473963260650635e-02 -1.624904274940490723e-01
2.542000000000000000e+03 2.944548416137695312e+01 -1.557954597473144531e+01 -3.224477171897888184e-01 1.213851124048233032e-01 -6.031877920031547546e-02 4.287349060177803040e-02
2.543000000000000000e+03 2.801702880859375000e+01 -1.714720535278320312e+01 -2.378454953432083130e-01 7.550355792045593262e-02 -4.870257899165153503e-02 -2.178011834621429443e-02
2.544000000000000000e+03 7.436042785644531250e+01 -2.724350929260253906e+01 1.297217160463333130e-01 6.909966945648193359e+00 2.111906766891479492e+00 4.052846133708953857e-01
2.545000000000000000e+03 7.419966125488281250e+01 -2.848970031738281250e+01 1.119485422968864441e-01 6.830465793609619141e+00 2.082724332809448242e+00 3.471977412700653076e-01
2.546000000000000000e+03 6.944521331787109375e+01 1.270036125183105469e+01 3.407598495483398438e+00 6.707118034362792969e+00 3.034415006637573242e+00 1.186628222465515137e+00
2.547000000000000000e+03 2.827458381652832031e+01 2.190896987915039062e+01 -2.634575068950653076e-01 -3.485929593443870544e-02 -8.949504047632217407e-02 2.754859328269958496e-01
2.548000000000000000e+03 3.014477729797363281e+01 2.060634994506835938e+01 -3.765781521797180176e-01 -9.514490142464637756e-03 -1.158277913928031921e-01 3.150627315044403076e-01
2.549000000000000000e+03 3.135459709167480469e+01 2.035235214233398438e+01 -4.102817475795745850e-01 -3.646023944020271301e-02 -1.340225934982299805e-01 3.206758499145507812e-01
2.550000000000000000e+03 1.841494941711425781e+01 2.460421371459960938e+01 -8.009153604507446289e-02 -7.676477730274200439e-02 -4.705689474940299988e-02 2.518408298492431641e-01
2.551000000000000000e+03 1.831154251098632812e+01 2.232801437377929688e+01 -1.720712780952453613e-01 -3.703298047184944153e-02 -6.273127347230911255e-02 2.338151186704635620e-01
2.552000000000000000e+03 3.900530624389648438e+01 1.786317443847656250e+01 -7.654319405555725098e-01 2.150081843137741089e-01 -1.651271283626556396e-01 7.528115063905715942e-02
2.553000000000000000e+03 2.353207397460937500e+01 2.519408035278320312e+01 -4.876364022493362427e-02 -1.112092658877372742e-01 -4.799187183380126953e-02 2.863246798515319824e-01
2.554000000000000000e+03 6.004855728149414062e+01 -1.788941383361816406e+01 5.952909961342811584e-02 5.747018814086914062e+00 1.741964340209960938e+00 -7.390878796577453613e-01
2.555000000000000000e+03 5.510645675659179688e+01 1.454792118072509766e+01 -1.081317424774169922e+00 8.158895492553710938e+00 2.123273611068725586e+00 -5.189938545227050781e-01
2.556000000000000000e+03 5.389494705200195312e+01 1.464080238342285156e+01 -4.718409776687622070e-01 5.516476154327392578e+00 1.513390541076660156e+00 -1.719536662101745605e+00
2.557000000000000000e+03 5.598977661132812500e+01 1.471440219879150391e+01 -9.579842090606689453e-01 8.307098388671875000e+00 2.204734086990356445e+00 1.266671538352966309e+00
2.558000000000000000e+03 5.666339874267578125e+01 1.410120391845703125e+01 -1.834160834550857544e-01 8.371633529663085938e+00 2.456465244293212891e+00 2.927481889724731445e+00
2.559000000000000000e+03 5.659048461914062500e+01 1.472426319122314453e+01 -4.413115084171295166e-01 7.603338718414306641e+00 2.148608207702636719e+00 2.179919719696044922e+00
2.560000000000000000e+03 5.350420761108398438e+01 1.500500202178955078e+01 -4.184201359748840332e-01 4.505352973937988281e+00 1.226079821586608887e+00 -1.575881242752075195e+00
2.561000000000000000e+03 5.242921447753906250e+01 1.563033962249755859e+01 -5.722996592521667480e-01 2.849353075027465820e+00 6.831160187721252441e-01 -1.320669651031494141e+00
2.562000000000000000e+03 5.671199798583984375e+01 1.439701461791992188e+01 -2.730385661125183105e-01 7.890359401702880859e+00 2.285196304321289062e+00 2.636093378067016602e+00
2.563000000000000000e+03 5.684535217285156250e+01 1.541327762603759766e+01 -3.562657535076141357e-01 6.589159011840820312e+00 1.869867920875549316e+00 1.818953037261962891e+00
2.564000000000000000e+03 5.434275436401367188e+01 1.585590934753417969e+01 -9.341629147529602051e-01 5.577476501464843750e+00 1.392994046211242676e+00 -9.601286053657531738e-01
2.565000000000000000e+03 8.339244842529296875e+00 -7.954627513885498047e+00 -3.765109181404113770e-02 -5.134623497724533081e-03 -1.283571496605873108e-02 -1.900204829871654510e-02
2.566000000000000000e+03 1.016010189056396484e+01 -7.849690914154052734e+00 -4.724970087409019470e-02 -2.019573701545596123e-03 -1.478078216314315796e-02 -2.292147092521190643e-02
2.567000000000000000e+03 8.356766700744628906e+00 -6.981055736541748047e+00 -2.478939853608608246e-02 -5.292343441396951675e-03 -9.024522267282009125e-03 -1.218520943075418472e-02
2.568000000000000000e+03 7.210712432861328125e+00 -8.280829429626464844e+00 -3.130098059773445129e-02 -6.617429666221141815e-03 -1.137552317231893539e-02 -1.801567710936069489e-02
2.569000000000000000e+03 7.497477054595947266e+00 -6.872299194335937500e+00 -2.521070651710033417e-02 -4.732840694487094879e-03 -8.983063511550426483e-03 -1.120197214186191559e-02
2.570000000000000000e+03 5.252358627319335938e+01 1.784909248352050781e+01 -6.731465458869934082e-01 3.001542568206787109e+00 6.985188126564025879e-01 -1.345345139503479004e+00
2.571000000000000000e+03 4.215644836425781250e+01 2.064702987670898438e+01 -3.546655774116516113e-01 3.524391055107116699e-01 -6.679343641735613346e-04 7.651787996292114258e-02
2.572000000000000000e+03 5.611946868896484375e+01 1.714547920227050781e+01 -6.803112626075744629e-01 5.623219966888427734e+00 1.482872605323791504e+00 2.778622806072235107e-01
2.573000000000000000e+03 1.238269710540771484e+01 -9.096224784851074219e+00 -7.996787875890731812e-02 6.741996854543685913e-03 -2.196776494383811951e-02 -3.351491317152976990e-02
2.574000000000000000e+03 1.427735996246337891e+01 -1.063425731658935547e+01 -1.240395903587341309e-01 1.765995472669601440e-02 -3.191389143466949463e-02 -5.833092704415321350e-02
2.575000000000000000e+03 1.135056114196777344e+01 1.444567966461181641e+01 -3.644087910652160645e-02 2.302541956305503845e-02 -4.024637863039970398e-03 2.373691089451313019e-02
2.576000000000000000e+03 7.897914409637451172e+00 1.316489028930664062e+01 -6.406711414456367493e-03 -1.057832688093185425e-02 -5.095511209219694138e-03 9.739604778587818146e-03
2.577000000000000000e+03 1.668640899658203125e+01 -1.214550209045410156e+01 -1.882369220256805420e-01 2.456872351467609406e-02 -4.910045862197875977e-02 -1.050350069999694824e-01
2.578000000000000000e+03 1.549428081512451172e+01 -1.130560207366943359e+01 -1.624837964773178101e-01 2.334876917302608490e-02 -4.174050688743591309e-02 -6.441622972488403320e-02
2.579000000000000000e+03 6.241121292114257812e+00 1.646751785278320312e+01 -1.499459426850080490e-02 -2.732393704354763031e-02 -1.269555930048227310e-02 2.565660141408443451e-02
2.580000000000000000e+03 7.398946380615234375e+01 1.642678451538085938e+01 9.272976517677307129e-01 5.631145000457763672e+00 1.967532873153686523e+00 2.455998212099075317e-02
2.581000000000000000e+03 2.238699340820312500e+01 -1.705913734436035156e+01 -1.431904882192611694e-01 -5.003708973526954651e-02 -5.796827375888824463e-02 -1.602593362331390381e-01
2.582000000000000000e+03 2.107534408569335938e+01 -1.801600265502929688e+01 -1.028783619403839111e-01 -3.827191516757011414e-02 -4.234508052468299866e-02 -1.799126267433166504e-01
2.583000000000000000e+03 1.312700176239013672e+01 -8.301306724548339844e+00 -8.311641961336135864e-02 1.059824228286743164e-02 -2.175545319914817810e-02 -1.896132715046405792e-02
2.584000000000000000e+03 8.422392845153808594e+00 2.022800827026367188e+01 -4.842229560017585754e-02 -3.906086087226867676e-02 -2.624494768679141998e-02 7.317757606506347656e-02
2.585000000000000000e+03 5.975974273681640625e+01 2.185307884216308594e+01 1.111688390374183655e-01 4.817513942718505859e+00 1.478604793548583984e+00 -4.290638267993927002e-01
2.586000000000000000e+03 5.963950729370117188e+01 1.982685279846191406e+01 4.851754307746887207e-01 4.740757465362548828e+00 1.567779898643493652e+00 -1.543797254562377930e-01
2.587000000000000000e+03 3.671925735473632812e+01 2.101372146606445312e+01 -2.958761751651763916e-01 1.042338684201240540e-01 -5.749269574880599976e-02 1.795974224805831909e-01
2.588000000000000000e+03 5.854529953002929688e+01 1.967102432250976562e+01 2.398263365030288696e-01 4.550416469573974609e+00 1.437072873115539551e+00 -4.664611443877220154e-02
2.589000000000000000e+03 6.948104858398437500e+01 1.603591346740722656e+01 1.524618506431579590e+00 7.013700962066650391e+00 2.561496019363403320e+00 1.251333117485046387e+00
2.590000000000000000e+03 7.275960540771484375e+01 -2.826109123229980469e+01 2.036608755588531494e-01 6.371906757354736328e+00 1.972670197486877441e+00 3.643935322761535645e-01
2.591000000000000000e+03 7.226707458496093750e+01 -2.604941749572753906e+01 1.920439600944519043e-01 6.137372970581054688e+00 1.898825168609619141e+00 4.177525937557220459e-01
2.592000000000000000e+03 3.435329437255859375e+01 1.935652351379394531e+01 -4.413771927356719971e-01 -9.163761883974075317e-02 -1.599044501781463623e-01 2.471680641174316406e-01
2.593000000000000000e+03 1.817273902893066406e+01 -1.631193161010742188e+01 -1.487667411565780640e-01 -1.627331972122192383e-02 -4.951201751828193665e-02 -1.753915697336196899e-01
2.594000000000000000e+03 1.305931472778320312e+01 1.886445999145507812e+01 -1.129957884550094604e-01 2.194095775485038757e-02 -2.731644921004772186e-02 8.808267861604690552e-02
2.595000000000000000e+03 1.048342037200927734e+01 1.726408767700195312e+01 -6.137523800134658813e-02 9.032207541167736053e-03 -1.570290885865688324e-02 5.243108421564102173e-02
2.596000000000000000e+03 7.993828296661376953e+00 1.482503032684326172e+01 -1.974836736917495728e-02 -1.194415241479873657e-02 -9.507755748927593231e-03 1.780056022107601166e-02
2.597000000000000000e+03 5.554533386230468750e+01 1.379360961914062500e+01 -1.166830420494079590e+00 1.060573768615722656e+01 2.831672191619873047e+00 4.604943394660949707e-01
2.598000000000000000e+03 5.560313796997070312e+01 1.631908988952636719e+01 -9.380872249603271484e-01 6.122553825378417969e+00 1.555340051651000977e+00 8.545242249965667725e-02
2.599000000000000000e+03 5.605496978759765625e+01 1.528839111328125000e+01 -8.868663907051086426e-01 7.351076602935791016e+00 1.939262986183166504e+00 1.091171741485595703e+00
2.600000000000000000e+03 5.690097808837890625e+01 1.632047080993652344e+01 -2.939348518848419189e-01 5.826655387878417969e+00 1.659816265106201172e+00 1.247649908065795898e+00
2.601000000000000000e+03 5.683956146240234375e+01 1.808700561523437500e+01 -2.714359462261199951e-01 5.041712760925292969e+00 1.431082963943481445e+00 2.835831642150878906e-01
2.602000000000000000e+03 5.457965087890625000e+01 1.667417335510253906e+01 -9.278131127357482910e-01 5.130757331848144531e+00 1.260883212089538574e+00 -7.904086112976074219e-01
2.603000000000000000e+03 5.293343353271484375e+01 1.732521820068359375e+01 -8.049705028533935547e-01 3.469151496887207031e+00 7.992542982101440430e-01 -1.323751091957092285e+00
2.604000000000000000e+03 5.341936492919921875e+01 1.586476516723632812e+01 -7.258344292640686035e-01 4.192132949829101562e+00 1.039889574050903320e+00 -1.359689950942993164e+00
2.605000000000000000e+03 7.838573455810546875e+00 -1.120423698425292969e+01 -3.994249179959297180e-02 -1.681053638458251953e-02 -1.702590845525264740e-02 -4.564550146460533142e-02
2.606000000000000000e+03 9.337785720825195312e+00 -8.141936302185058594e+00 -3.880853205919265747e-02 -4.431308247148990631e-03 -1.297195162624120712e-02 -1.988174952566623688e-02
2.607000000000000000e+03 1.090739345550537109e+01 -8.407149314880371094e+00 -6.217243149876594543e-02 2.706221304833889008e-03 -1.783986203372478485e-02 -2.411036565899848938e-02
2.608000000000000000e+03 5.332530975341796875e+01 1.800020217895507812e+01 -7.118270397186279297e-01 3.619065284729003906e+00 8.721714615821838379e-01 -1.200154662132263184e+00
2.609000000000000000e+03 5.349156951904296875e+01 2.080459403991699219e+01 -3.364757597446441650e-01 3.236638069152832031e+00 8.700486421585083008e-01 -1.007429361343383789e+00
2.610000000000000000e+03 5.366537857055664062e+01 2.241676139831542969e+01 -1.849442422389984131e-01 3.187999010086059570e+00 9.009164571762084961e-01 -8.857659101486206055e-01
2.611000000000000000e+03 1.047796440124511719e+01 1.168978595733642578e+01 1.470925658941268921e-02 2.448125369846820831e-02 1.175715308636426926e-02 1.897287927567958832e-02
2.612000000000000000e+03 5.555709075927734375e+01 1.878767585754394531e+01 -5.399011969566345215e-01 4.596117973327636719e+00 1.216865062713623047e+00 -4.192844331264495850e-01
2.613000000000000000e+03 9.600054740905761719e+00 -9.405657768249511719e+00 -5.710135400295257568e-02 -2.766931895166635513e-03 -1.796048507094383240e-02 -3.379722684621810913e-02
2.614000000000000000e+03 5.375267410278320312e+01 1.897624397277832031e+01 -5.796461701393127441e-01 3.737744808197021484e+00 9.474295973777770996e-01 -9.731034040451049805e-01
2.615000000000000000e+03 5.769497680664062500e+01 2.172576904296875000e+01 -5.287526175379753113e-02 4.473086357116699219e+00 1.326063275337219238e+00 -4.698796868324279785e-01
2.616000000000000000e+03 5.658557510375976562e+01 2.077633666992187500e+01 -1.932524293661117554e-01 4.346534729003906250e+00 1.245984673500061035e+00 -4.565534889698028564e-01
2.617000000000000000e+03 3.426716613769531250e+01 1.710373115539550781e+01 -6.674142479896545410e-01 -2.154996395111083984e-01 -2.648741602897644043e-01 2.378245592117309570e-01
2.618000000000000000e+03 6.247443008422851562e+01 1.986424827575683594e+01 6.848399043083190918e-01 5.262002468109130859e+00 1.784052610397338867e+00 -4.719204008579254150e-01
2.619000000000000000e+03 4.325065994262695312e+01 2.165710639953613281e+01 -1.361220926046371460e-01 4.390757381916046143e-01 9.088609367609024048e-02 2.221169695258140564e-02
2.620000000000000000e+03 4.009626388549804688e+01 1.989210128784179688e+01 -4.248563945293426514e-01 2.818430066108703613e-01 -4.290401563048362732e-02 1.296217441558837891e-01
2.621000000000000000e+03 4.075951766967773438e+01 2.212429428100585938e+01 -1.529168188571929932e-01 3.278245329856872559e-01 5.247231200337409973e-02 1.071008443832397461e-01
2.622000000000000000e+03 7.063036346435546875e+01 1.557872104644775391e+01 2.008490324020385742e+00 6.631126880645751953e+00 2.591885089874267578e+00 9.473090767860412598e-01
2.623000000000000000e+03 6.862651824951171875e+01 1.917501831054687500e+01 2.146799117326736450e-01 7.451149940490722656e+00 2.299748897552490234e+00 4.113719761371612549e-01
2.624000000000000000e+03 1.041247463226318359e+01 1.536187934875488281e+01 -4.298929125070571899e-02 1.224891562014818192e-02 -9.222112596035003662e-03 2.868206426501274109e-02
2.625000000000000000e+03 1.660795211791992188e+01 -1.420343875885009766e+01 -1.659091711044311523e-01 6.706455256789922714e-03 -4.776081442832946777e-02 -1.436079293489456177e-01
2.626000000000000000e+03 7.828621387481689453e+00 1.941633605957031250e+01 -4.586287215352058411e-02 -3.225712850689888000e-02 -2.343600057065486908e-02 5.775768309831619263e-02
2.627000000000000000e+03 1.160140609741210938e+01 2.040348434448242188e+01 -8.969382941722869873e-02 -4.067188128829002380e-03 -2.812830545008182526e-02 1.003736555576324463e-01
2.628000000000000000e+03 1.077378845214843750e+01 1.850826263427734375e+01 -7.586421072483062744e-02 -5.313713918440043926e-04 -2.291867323219776154e-02 6.678184121847152710e-02
2.629000000000000000e+03 5.318963527679443359e+00 -1.041341114044189453e+01 -2.412068285048007965e-02 -1.735290139913558960e-02 -1.244207471609115601e-02 -2.740179933607578278e-02
2.630000000000000000e+03 1.327222919464111328e+01 -9.894427299499511719e+00 -1.047660112380981445e-01 1.283130981028079987e-02 -2.758041024208068848e-02 -4.044669494032859802e-02
2.631000000000000000e+03 2.652490997314453125e+01 -1.410269641876220703e+01 -2.283303290605545044e-01 -7.550521194934844971e-02 -9.115066379308700562e-02 4.951369017362594604e-02
2.632000000000000000e+03 7.192810058593750000e+00 1.655328941345214844e+01 -2.636337652802467346e-02 -2.441789582371711731e-02 -1.523438189178705215e-02 2.622824534773826599e-02
2.633000000000000000e+03 7.100772857666015625e+01 1.863988304138183594e+01 6.030263900756835938e-01 6.597466468811035156e+00 2.160147905349731445e+00 6.935073733329772949e-01
2.634000000000000000e+03 5.574182510375976562e+01 1.542360782623291016e+01 -1.001698732376098633e+00 7.215439796447753906e+00 1.864122271537780762e+00 5.330018401145935059e-01
2.635000000000000000e+03 5.620617675781250000e+01 1.445760917663574219e+01 -8.280554413795471191e-01 8.647901535034179688e+00 2.345953702926635742e+00 1.761482715606689453e+00
2.636000000000000000e+03 5.564612579345703125e+01 1.441679000854492188e+01 -1.142968297004699707e+00 9.041730880737304688e+00 2.369628906250000000e+00 6.264321208000183105e-01
2.637000000000000000e+03 5.425007247924804688e+01 1.501719093322753906e+01 -7.435079216957092285e-01 5.989988327026367188e+00 1.573944211006164551e+00 -1.300396203994750977e+00
2.638000000000000000e+03 5.386767196655273438e+01 1.544583702087402344e+01 -7.690261602401733398e-01 5.096146106719970703e+00 1.298135876655578613e+00 -1.374868392944335938e+00
2.639000000000000000e+03 5.617068481445312500e+01 1.565335750579833984e+01 -7.732357382774353027e-01 6.900055408477783203e+00 1.838045954704284668e+00 1.063454389572143555e+00
2.640000000000000000e+03 5.522655105590820312e+01 1.594323444366455078e+01 -1.021080970764160156e+00 6.284555435180664062e+00 1.579042434692382812e+00 -2.300831079483032227e-01
2.641000000000000000e+03 5.482689285278320312e+01 1.621783638000488281e+01 -1.024683356285095215e+00 5.799034595489501953e+00 1.432305455207824707e+00 -5.656445026397705078e-01
2.642000000000000000e+03 5.466673660278320312e+01 1.838350105285644531e+01 -6.879522800445556641e-01 4.468361854553222656e+00 1.134122848510742188e+00 -6.754781603813171387e-01
2.643000000000000000e+03 8.202775001525878906e+00 -1.229925441741943359e+01 -4.953476041555404663e-02 -2.044265344738960266e-02 -2.099322341382503510e-02 -5.841178819537162781e-02
2.644000000000000000e+03 1.093241691589355469e+01 -1.045731639862060547e+01 -7.636871933937072754e-02 4.377955046948045492e-04 -2.277927845716476440e-02 -4.954697936773300171e-02
2.645000000000000000e+03 5.565114212036132812e+01 1.979435348510742188e+01 -3.985139131546020508e-01 4.317003726959228516e+00 1.175546884536743164e+00 -5.141960382461547852e-01
2.646000000000000000e+03 5.445695495605468750e+01 2.138349914550781250e+01 -2.801140844821929932e-01 3.644308805465698242e+00 1.009258389472961426e+00 -7.604447007179260254e-01
2.647000000000000000e+03 5.581540584564208984e+00 -1.177309989929199219e+01 -2.004970051348209381e-02 -2.551242522895336151e-02 -1.366863772273063660e-02 -3.727876767516136169e-02
2.648000000000000000e+03 5.404983520507812500e+01 1.760970306396484375e+01 -8.379289507865905762e-01 4.328582286834716797e+00 1.047196030616760254e+00 -9.815860390663146973e-01
2.649000000000000000e+03 8.520571708679199219e+00 -9.713310241699218750e+00 -4.177279397845268250e-02 -8.910629898309707642e-03 -1.520502660423517227e-02 -3.175523877143859863e-02
2.650000000000000000e+03 9.962115287780761719e+00 -1.072061729431152344e+01 -5.955042690038681030e-02 -6.786508951336145401e-03 -1.990108191967010498e-02 -4.577049612998962402e-02
2.651000000000000000e+03 1.452252197265625000e+01 -1.259322071075439453e+01 -1.393502056598663330e-01 1.408213004469871521e-02 -3.758042305707931519e-02 -1.014635488390922546e-01
2.652000000000000000e+03 7.961704730987548828e+00 -8.749853134155273438e+00 -3.539315983653068542e-02 -8.524699136614799500e-03 -1.317535806447267532e-02 -2.596113272011280060e-02
2.653000000000000000e+03 6.219115447998046875e+01 1.724212265014648438e+01 1.555630207061767578e+00 4.639455318450927734e+00 1.858525633811950684e+00 -7.362492084503173828e-01
2.654000000000000000e+03 4.302687835693359375e+01 2.397998809814453125e+01 4.276726767420768738e-02 5.460036396980285645e-01 1.766312718391418457e-01 -3.383943811058998108e-02
2.655000000000000000e+03 6.502095031738281250e+01 1.878888702392578125e+01 5.474883913993835449e-01 6.604418277740478516e+00 2.145571947097778320e+00 -9.391538500785827637e-01
2.656000000000000000e+03 6.697019577026367188e+00 1.731612968444824219e+01 -2.458316646516323090e-02 -2.664706856012344360e-02 -1.536906976252794266e-02 3.443854302167892456e-02
2.657000000000000000e+03 4.588849067687988281e+00 1.569758796691894531e+01 -7.208355702459812164e-03 -3.503597155213356018e-02 -1.267329882830381393e-02 1.217967178672552109e-02
2.658000000000000000e+03 6.720584106445312500e+01 1.852998542785644531e+01 3.328599929809570312e-01 7.453275680541992188e+00 2.335840702056884766e+00 1.237300485372543335e-01
2.659000000000000000e+03 9.628065109252929688e+00 1.938626480102539062e+01 -6.346916407346725464e-02 -1.500463765114545822e-02 -2.354213967919349670e-02 7.387597113847732544e-02
2.660000000000000000e+03 1.433058071136474609e+01 1.999695396423339844e+01 -1.448847949504852295e-01 2.053968049585819244e-02 -3.730353340506553650e-02 1.248256787657737732e-01
2.661000000000000000e+03 7.014352416992187500e+01 1.983617019653320312e+01 2.764258384704589844e-01 6.752617359161376953e+00 2.108712911605834961e+00 6.671262383460998535e-01
2.662000000000000000e+03 1.164992809295654297e+01 2.197165298461914062e+01 -8.680476993322372437e-02 -2.787247113883495331e-02 -3.440317139029502869e-02 1.296674013137817383e-01
2.663000000000000000e+03 2.547156143188476562e+01 -1.456401920318603516e+01 -2.208634316921234131e-01 -9.269604831933975220e-02 -9.406784176826477051e-02 -5.909092724323272705e-02
2.664000000000000000e+03 8.806649208068847656e+00 1.391371059417724609e+01 -1.133715268224477768e-02 2.598412567749619484e-03 -2.621622057631611824e-03 1.841859333217144012e-02
2.665000000000000000e+03 9.397579193115234375e+00 1.574050045013427734e+01 -3.442951664328575134e-02 4.579083062708377838e-03 -8.955130353569984436e-03 3.253021463751792908e-02
2.666000000000000000e+03 5.465755081176757812e+01 1.536825084686279297e+01 -1.007190108299255371e+00 6.383084774017333984e+00 1.612768411636352539e+00 -8.234193921089172363e-01
2.667000000000000000e+03 5.637163162231445312e+01 1.505671596527099609e+01 -7.107558846473693848e-01 7.514066696166992188e+00 2.040993213653564453e+00 1.576203465461730957e+00
2.668000000000000000e+03 5.583068466186523438e+01 1.569461822509765625e+01 -9.131873250007629395e-01 6.936750411987304688e+00 1.807068824768066406e+00 6.360068321228027344e-01
2.669000000000000000e+03 5.617900085449218750e+01 1.648210525512695312e+01 -7.006578445434570312e-01 5.955083847045898438e+00 1.576327800750732422e+00 4.780032038688659668e-01
2.670000000000000000e+03 5.488695907592773438e+01 1.493076705932617188e+01 -9.989242553710937500e-01 7.155348300933837891e+00 1.846927285194396973e+00 -7.038612961769104004e-01
2.671000000000000000e+03 5.522863388061523438e+01 1.509216594696044922e+01 -1.090716600418090820e+00 7.359975337982177734e+00 1.880777597427368164e+00 -2.186073511838912964e-01
2.672000000000000000e+03 5.510305023193359375e+01 1.550848293304443359e+01 -1.038061618804931641e+00 6.601924896240234375e+00 1.669159054756164551e+00 -3.729581534862518311e-01
2.673000000000000000e+03 9.227548599243164062e+00 -1.217268562316894531e+01 -5.541135370731353760e-02 -1.544861122965812683e-02 -2.125798910856246948e-02 -6.467106193304061890e-02
2.674000000000000000e+03 5.467821502685546875e+01 1.724853134155273438e+01 -8.886239528656005859e-01 4.985672950744628906e+00 1.229114651679992676e+00 -6.687770485877990723e-01
2.675000000000000000e+03 5.617533874511718750e+01 1.601663780212402344e+01 -6.901946067810058594e-01 6.374946117401123047e+00 1.705425500869750977e+00 8.197473287582397461e-01
2.676000000000000000e+03 6.427246093750000000e+01 1.738665008544921875e+01 1.009954452514648438e+00 6.642637252807617188e+00 2.295777559280395508e+00 -1.451108336448669434e+00
2.677000000000000000e+03 6.195019149780273438e+01 1.842323684692382812e+01 1.414180874824523926e+00 4.625998973846435547e+00 1.812054038047790527e+00 -5.542774796485900879e-01
2.678000000000000000e+03 5.442496871948242188e+01 2.018227005004882812e+01 -3.846894204616546631e-01 3.784153223037719727e+00 1.019839167594909668e+00 -7.992975711822509766e-01
2.679000000000000000e+03 5.559865188598632812e+01 2.210483741760253906e+01 -1.857759952545166016e-01 3.892684221267700195e+00 1.112072467803955078e+00 -6.947088837623596191e-01
2.680000000000000000e+03 6.860604286193847656e+00 1.882205009460449219e+01 -3.103445656597614288e-02 -3.554151579737663269e-02 -1.997279189527034760e-02 4.813613742589950562e-02
2.681000000000000000e+03 5.778836727142333984e+00 1.809965324401855469e+01 -2.333177439868450165e-02 -3.957446664571762085e-02 -1.887187175452709198e-02 3.109049424529075623e-02
2.682000000000000000e+03 1.153294849395751953e+01 -1.158837127685546875e+01 -8.337356150150299072e-02 -1.262166770175099373e-03 -2.539071999490261078e-02 -6.098926812410354614e-02
2.683000000000000000e+03 1.167873573303222656e+01 -9.890005111694335938e+00 -8.010897040367126465e-02 4.643593449145555496e-03 -2.263961359858512878e-02 -3.905318677425384521e-02
2.684000000000000000e+03 9.298915863037109375e+00 1.714491653442382812e+01 -5.114592239260673523e-02 -9.288479574024677277e-03 -1.813032105565071106e-02 4.335081577301025391e-02
2.685000000000000000e+03 1.743997192382812500e+01 -1.518683815002441406e+01 -1.495170444250106812e-01 -1.005318481475114822e-02 -4.787106812000274658e-02 -1.599353551864624023e-01
2.686000000000000000e+03 7.444346904754638672e+00 1.563488292694091797e+01 -2.213884145021438599e-02 -1.218680944293737411e-02 -1.029769517481327057e-02 2.674642018973827362e-02
2.687000000000000000e+03 5.593430709838867188e+01 1.793289184570312500e+01 -6.033090949058532715e-01 5.055100440979003906e+00 1.335537433624267578e+00 -5.643991008400917053e-02
2.688000000000000000e+03 6.607422637939453125e+01 1.758902359008789062e+01 8.737321197986602783e-02 8.738087654113769531e+00 2.647638320922851562e+00 -6.657520532608032227e-01
2.689000000000000000e+03 1.534032058715820312e+01 2.141853713989257812e+01 -1.501132100820541382e-01 1.502932165749371052e-03 -4.458308219909667969e-02 1.676544994115829468e-01
2.690000000000000000e+03 9.576742172241210938e+00 2.739138793945312500e+01 -6.953960284590721130e-03 -1.099149510264396667e-01 -3.506067395210266113e-02 1.392536759376525879e-01
2.691000000000000000e+03 8.125278472900390625e+00 2.695906639099121094e+01 -1.277250144630670547e-02 -1.123941689729690552e-01 -3.755000233650207520e-02 1.191222816705703735e-01
2.692000000000000000e+03 6.631405639648437500e+01 1.993106842041015625e+01 8.249135687947273254e-03 7.234405517578125000e+00 2.172796487808227539e+00 -2.258411496877670288e-01
2.693000000000000000e+03 2.592159271240234375e+01 -1.826063919067382812e+01 -1.326393038034439087e-01 2.099185995757579803e-02 -3.349423408508300781e-02 -1.045411303639411926e-01
2.694000000000000000e+03 2.809035110473632812e+01 -1.462794399261474609e+01 -2.826022803783416748e-01 2.942587994039058685e-02 -7.595291733741760254e-02 6.692941486835479736e-02
2.695000000000000000e+03 1.575022220611572266e+01 -1.517871952056884766e+01 -1.325797438621520996e-01 -6.704958621412515640e-03 -4.178541153669357300e-02 -1.406873166561126709e-01
2.696000000000000000e+03 4.727839660644531250e+01 2.656194686889648438e+01 2.562151253223419189e-01 1.395972847938537598e+00 4.956564009189605713e-01 -4.397815167903900146e-01
2.697000000000000000e+03 4.429962158203125000e+01 2.268155670166015625e+01 2.270251326262950897e-02 5.753421187400817871e-01 1.794133931398391724e-01 -9.145237505435943604e-02
2.698000000000000000e+03 1.300898075103759766e+01 2.679771041870117188e+01 -2.003411203622817993e-02 -8.859947323799133301e-02 -3.259007632732391357e-02 1.827841103076934814e-01
2.699000000000000000e+03 1.864865303039550781e+01 -2.080093383789062500e+01 -4.748336225748062134e-02 -2.731792628765106201e-02 -2.244038693606853485e-02 -1.899744272232055664e-01
2.700000000000000000e+03 2.035085678100585938e+01 -2.040711021423339844e+01 -4.790521040558815002e-02 -2.011051587760448456e-02 -2.040471881628036499e-02 -1.926515102386474609e-01
2.701000000000000000e+03 5.518117141723632812e+01 1.661366462707519531e+01 -9.206253886222839355e-01 5.726132869720458984e+00 1.441652178764343262e+00 -1.955676823854446411e-01
2.702000000000000000e+03 8.677133560180664062e+00 1.846567726135253906e+01 -4.763526469469070435e-02 -1.709637418389320374e-02 -1.941949129104614258e-02 5.488695204257965088e-02
2.703000000000000000e+03 8.144557952880859375e+00 1.686174774169921875e+01 -3.265717625617980957e-02 -1.158045977354049683e-02 -1.327129080891609192e-02 3.612145408987998962e-02
2.704000000000000000e+03 1.100345611572265625e+01 -1.364898586273193359e+01 -7.371302694082260132e-02 -1.564728468656539917e-02 -2.680809237062931061e-02 -9.056708961725234985e-02
2.705000000000000000e+03 1.343250465393066406e+01 -1.175160789489746094e+01 -1.200504153966903687e-01 1.094930153340101242e-02 -3.273033350706100464e-02 -6.977588683366775513e-02
2.706000000000000000e+03 5.002765274047851562e+01 2.280022811889648438e+01 4.768436029553413391e-02 1.743686914443969727e+00 5.374113917350769043e-01 -8.238550424575805664e-01
2.707000000000000000e+03 4.818415832519531250e+01 2.274067497253417969e+01 1.161060556769371033e-01 1.169318318367004395e+00 3.856273293495178223e-01 -5.471941232681274414e-01
2.708000000000000000e+03 1.448153781890869141e+01 2.516677856445312500e+01 -5.520714446902275085e-02 -6.833951175212860107e-02 -3.706399723887443542e-02 2.026227861642837524e-01
2.709000000000000000e+03 1.640998077392578125e+01 -1.595751285552978516e+01 -1.350608319044113159e-01 -9.355008602142333984e-03 -4.332475364208221436e-02 -1.608807891607284546e-01
2.710000000000000000e+03 1.756543350219726562e+01 -1.830838775634765625e+01 -1.042403206229209900e-01 -1.946093887090682983e-02 -3.711037710309028625e-02 -1.829247027635574341e-01
2.711000000000000000e+03 7.509111404418945312e+00 2.861955261230468750e+01 2.724013291299343109e-03 -1.380407363176345825e-01 -4.059501737356185913e-02 1.112606152892112732e-01
2.712000000000000000e+03 1.475148677825927734e+01 -1.461362266540527344e+01 -1.276516318321228027e-01 2.028618764597922564e-04 -3.823463246226310730e-02 -1.380198150873184204e-01
2.713000000000000000e+03 2.826087951660156250e+01 -1.571171855926513672e+01 -2.696036100387573242e-01 9.831268340349197388e-02 -5.138728022575378418e-02 3.039815276861190796e-02
2.714000000000000000e+03 6.950392913818359375e+01 2.128532409667968750e+01 -4.392034187912940979e-02 6.937125682830810547e+00 2.067961454391479492e+00 4.289713799953460693e-01
2.715000000000000000e+03 6.514252471923828125e+01 2.321245193481445312e+01 -1.136173531413078308e-01 6.136881828308105469e+00 1.806979298591613770e+00 -2.520349025726318359e-01
2.716000000000000000e+03 4.566384506225585938e+01 2.576121520996093750e+01 2.425495982170104980e-01 9.868261218070983887e-01 3.688127100467681885e-01 -2.855549752712249756e-01
2.717000000000000000e+03 7.499440765380859375e+01 1.778585243225097656e+01 5.282649397850036621e-01 5.742669582366943359e+00 1.881280422210693359e+00 1.896138936281204224e-01
2.718000000000000000e+03 1.121915912628173828e+01 2.740038871765136719e+01 -1.049152668565511703e-02 -1.048774942755699158e-01 -3.461070731282234192e-02 1.597863733768463135e-01
2.719000000000000000e+03 5.546741485595703125e+01 1.549538898468017578e+01 -1.028580665588378906e+00 6.944644451141357422e+00 1.774819135665893555e+00 1.537539809942245483e-01
2.720000000000000000e+03 8.857037544250488281e+00 -1.314308166503906250e+01 -5.491922050714492798e-02 -2.173579111695289612e-02 -2.299650385975837708e-02 -6.690488010644912720e-02
2.721000000000000000e+03 4.811845016479492188e+01 2.473932647705078125e+01 1.929573863744735718e-01 1.384472846984863281e+00 4.732290804386138916e-01 -5.064089894294738770e-01
2.722000000000000000e+03 1.181179237365722656e+01 1.795313835144042969e+01 -8.661875128746032715e-02 2.011899277567863464e-02 -1.994992792606353760e-02 6.585731357336044312e-02
2.723000000000000000e+03 1.539589214324951172e+01 -1.626413726806640625e+01 -1.089260503649711609e-01 -1.184174139052629471e-02 -3.623033687472343445e-02 -1.617984622716903687e-01
2.724000000000000000e+03 1.554911422729492188e+01 -1.768500137329101562e+01 -9.681688994169235229e-02 -2.378193475306034088e-02 -3.617964684963226318e-02 -1.665882766246795654e-01
2.725000000000000000e+03 6.729190349578857422e+00 2.631683158874511719e+01 -1.122061349451541901e-02 -1.147535443305969238e-01 -3.779224678874015808e-02 9.952470660209655762e-02
2.726000000000000000e+03 2.543512535095214844e+01 -1.590370655059814453e+01 -1.655707359313964844e-01 -7.094398140907287598e-02 -7.095441222190856934e-02 -6.169689819216728210e-02
2.727000000000000000e+03 1.723758697509765625e+01 2.388550186157226562e+01 -1.140405833721160889e-01 -5.464662611484527588e-02 -5.060616508126258850e-02 2.435444742441177368e-01
2.728000000000000000e+03 1.236081314086914062e+01 -1.288123893737792969e+01 -1.038521230220794678e-01 7.805784116499125957e-04 -3.092146292328834534e-02 -9.232760965824127197e-02
2.729000000000000000e+03 7.873464584350585938e+00 -1.381556129455566406e+01 -4.505273699760437012e-02 -3.181633725762367249e-02 -2.306072227656841278e-02 -7.567795366048812866e-02
2.730000000000000000e+03 8.497007369995117188e+00 -1.471682357788085938e+01 -4.421508312225341797e-02 -3.667185455560684204e-02 -2.426608093082904816e-02 -8.498807996511459351e-02
2.731000000000000000e+03 1.120721530914306641e+01 2.939668273925781250e+01 1.827033050358295441e-02 -1.261313557624816895e-01 -3.235830739140510559e-02 1.528058648109436035e-01
2.732000000000000000e+03 2.449298286437988281e+01 -1.510111904144287109e+01 -1.957599222660064697e-01 -9.207703918218612671e-02 -8.635108917951583862e-02 -7.976933568716049194e-02
2.733000000000000000e+03 1.102852821350097656e+01 1.617444229125976562e+01 -5.746688321232795715e-02 1.294262707233428955e-02 -1.335727702826261520e-02 3.851659968495368958e-02
2.734000000000000000e+03 2.757989501953125000e+01 -1.917891883850097656e+01 -1.560536324977874756e-01 1.200611516833305359e-01 -1.079774461686611176e-02 -8.807840198278427124e-02
2.735000000000000000e+03 2.953168106079101562e+01 -1.915372467041015625e+01 -2.085047215223312378e-01 1.527672559022903442e-01 -1.672124117612838745e-02 -7.209499925374984741e-02
2.736000000000000000e+03 1.143197250366210938e+01 -1.537520122528076172e+01 -8.339957892894744873e-02 -2.253399416804313660e-02 -3.178007155656814575e-02 -1.142169684171676636e-01
2.737000000000000000e+03 2.485429000854492188e+01 -1.319361591339111328e+01 -2.297085821628570557e-01 -1.847379952669143677e-01 -1.243339702486991882e-01 -1.342190522700548172e-02
2.738000000000000000e+03 1.082746601104736328e+01 3.189859580993652344e+01 4.225106537342071533e-02 -1.559604257345199585e-01 -3.411280736327171326e-02 1.359840482473373413e-01
2.739000000000000000e+03 3.019829940795898438e+01 -2.108671760559082031e+01 -1.166084334254264832e-01 2.002095878124237061e-01 2.508034370839595795e-02 -9.170910716056823730e-02
2.740000000000000000e+03 6.212196731567382812e+01 2.409125900268554688e+01 -4.654353111982345581e-02 5.340556144714355469e+00 1.588203787803649902e+00 -4.712910354137420654e-01
2.741000000000000000e+03 6.369989013671875000e+01 2.147021675109863281e+01 1.904656440019607544e-01 5.917429924011230469e+00 1.832368612289428711e+00 -4.997200071811676025e-01
2.742000000000000000e+03 4.921825408935546875e+01 -2.120907402038574219e+01 -6.115434169769287109e-01 8.195589780807495117e-01 6.240465864539146423e-02 -1.399734467267990112e-01
2.743000000000000000e+03 4.684790039062500000e+01 -1.919700241088867188e+01 -9.362295866012573242e-01 1.112631797790527344e+00 5.292065441608428955e-02 -2.659326791763305664e-01
2.744000000000000000e+03 6.724853515625000000e+01 2.222632408142089844e+01 -1.874659210443496704e-01 6.798437595367431641e+00 1.983291387557983398e+00 9.028296172618865967e-02
2.745000000000000000e+03 7.219766235351562500e+01 -2.348684692382812500e+01 4.568187892436981201e-02 5.979615688323974609e+00 1.807589173316955566e+00 6.110357642173767090e-01
2.746000000000000000e+03 6.981617736816406250e+01 -2.647833633422851562e+01 2.669931054115295410e-01 5.315637588500976562e+00 1.674789309501647949e+00 2.326030731201171875e-01
2.747000000000000000e+03 7.403958320617675781e+00 -1.479968547821044922e+01 -4.110115393996238708e-02 -4.198309034109115601e-02 -2.492527291178703308e-02 -7.475283741950988770e-02
2.748000000000000000e+03 4.594191360473632812e+01 -1.768893051147460938e+01 -7.622716426849365234e-01 1.244446396827697754e+00 1.446524411439895630e-01 -1.776565015316009521e-01
2.749000000000000000e+03 6.669976043701171875e+01 1.459423446655273438e+01 6.451579928398132324e-01 1.108003234863281250e+01 3.517557144165039062e+00 1.230762124061584473e+00
2.750000000000000000e+03 4.591434097290039062e+01 -2.110023307800292969e+01 -5.575580596923828125e-01 1.268599152565002441e+00 2.133123278617858887e-01 -3.091397583484649658e-01
2.751000000000000000e+03 7.128378295898437500e+01 -2.998868751525878906e+01 2.181350737810134888e-01 5.999927520751953125e+00 1.865418672561645508e+00 2.880843281745910645e-01
2.752000000000000000e+03 2.126836585998535156e+01 -2.197326087951660156e+01 -3.325431421399116516e-02 4.650069866329431534e-03 -8.581273257732391357e-03 -1.893438696861267090e-01
2.753000000000000000e+03 3.814997863769531250e+01 2.178216171264648438e+01 -2.535984516143798828e-01 1.934031844139099121e-01 -1.805857941508293152e-02 1.532263755798339844e-01
2.754000000000000000e+03 6.954483032226562500e+01 -2.067640113830566406e+01 3.052039146423339844e-01 4.002281188964843750e+00 1.292245507240295410e+00 6.777440309524536133e-01
2.755000000000000000e+03 3.308615493774414062e+01 -2.269253540039062500e+01 -1.261194348335266113e-01 3.288806676864624023e-01 6.082836911082267761e-02 -4.289119690656661987e-02
2.756000000000000000e+03 5.447811126708984375e+01 2.349019432067871094e+01 -1.433282792568206787e-01 3.458807468414306641e+00 9.946437478065490723e-01 -7.961570024490356445e-01
2.757000000000000000e+03 7.338684082031250000e+01 -2.477564430236816406e+01 2.183229662477970123e-02 6.555284023284912109e+00 1.973134875297546387e+00 5.331736207008361816e-01
2.758000000000000000e+03 7.974897861480712891e+00 -1.947760391235351562e+01 -2.236814983189105988e-02 -8.140219748020172119e-02 -3.113110549747943878e-02 -1.181312799453735352e-01
2.759000000000000000e+03 8.787500381469726562e+00 -1.595734405517578125e+01 -4.927104339003562927e-02 -4.558221995830535889e-02 -2.845597825944423676e-02 -9.782204031944274902e-02
2.760000000000000000e+03 6.999947357177734375e+01 -2.300338935852050781e+01 3.307853341102600098e-01 4.903997898101806641e+00 1.570434927940368652e+00 4.612660408020019531e-01
2.761000000000000000e+03 7.225106048583984375e+01 -2.209478187561035156e+01 7.227617315948009491e-03 5.976915836334228516e+00 1.795243144035339355e+00 8.444977998733520508e-01
2.762000000000000000e+03 6.250838088989257812e+01 -1.961440658569335938e+01 -1.702894568443298340e-01 4.829079151153564453e+00 1.397637009620666504e+00 -1.243672013282775879e+00
2.763000000000000000e+03 4.424600601196289062e+01 2.492737197875976562e+01 1.711191833019256592e-01 7.186471223831176758e-01 2.669298946857452393e-01 -1.611827611923217773e-01
2.764000000000000000e+03 7.311647796630859375e+01 -3.154166984558105469e+01 1.377045661211013794e-01 6.527085304260253906e+00 1.999436974525451660e+00 2.532950341701507568e-01
2.765000000000000000e+03 7.014109802246093750e+01 2.601137351989746094e+01 -2.746613323688507080e-01 6.350329875946044922e+00 1.822700500488281250e+00 3.355949819087982178e-01
2.766000000000000000e+03 7.019123077392578125e+01 2.447716903686523438e+01 -1.955936700105667114e-01 6.461615085601806641e+00 1.879806518554687500e+00 3.306274712085723877e-01
2.767000000000000000e+03 3.593044662475585938e+01 2.231677436828613281e+01 -1.926424056291580200e-01 7.615423947572708130e-02 -3.494644910097122192e-02 2.025200724601745605e-01
2.768000000000000000e+03 5.961344146728515625e+01 -2.007166481018066406e+01 -8.383217453956604004e-01 5.731750488281250000e+00 1.468028545379638672e+00 -8.868111371994018555e-01
2.769000000000000000e+03 6.555187225341796875e+01 2.159207153320312500e+01 -1.430168468505144119e-02 6.476801872253417969e+00 1.938750028610229492e+00 -4.109385609626770020e-01
2.770000000000000000e+03 1.141503429412841797e+01 -1.705201339721679688e+01 -5.857126414775848389e-02 -3.892444446682929993e-02 -2.924871258437633514e-02 -1.332469731569290161e-01
2.771000000000000000e+03 1.004259681701660156e+01 -1.562136840820312500e+01 -5.711370334029197693e-02 -3.340882807970046997e-02 -2.715675905346870422e-02 -1.062493845820426941e-01
2.772000000000000000e+03 5.148242950439453125e+01 -2.609746360778808594e+01 1.321274489164352417e-01 1.786078929901123047e+00 5.754619240760803223e-01 2.809666693210601807e-01
2.773000000000000000e+03 5.581929779052734375e+01 2.480152702331542969e+01 -1.097555235028266907e-01 3.775074243545532227e+00 1.099595665931701660e+00 -7.236618399620056152e-01
2.774000000000000000e+03 7.544801330566406250e+01 3.421181106567382812e+01 -6.067467108368873596e-02 6.399126529693603516e+00 1.901535511016845703e+00 1.680501252412796021e-01
2.775000000000000000e+03 2.601406335830688477e+00 -3.633068847656250000e+01 1.125869806855916977e-02 -3.727254569530487061e-01 -1.084400266408920288e-01 -1.817054674029350281e-02
2.776000000000000000e+03 5.106421279907226562e+01 2.111693191528320312e+01 -1.180190965533256531e-01 1.974869012832641602e+00 5.570549964904785156e-01 -9.813963174819946289e-01
2.777000000000000000e+03 5.138272476196289062e+01 2.226867294311523438e+01 -5.585604533553123474e-02 2.217685937881469727e+00 6.485489606857299805e-01 -9.315577149391174316e-01
2.778000000000000000e+03 7.238820648193359375e+01 -3.414327621459960938e+01 1.376101076602935791e-01 6.346171379089355469e+00 1.945134520530700684e+00 1.815802752971649170e-01
2.779000000000000000e+03 2.344271087646484375e+01 -1.842750930786132812e+01 -9.963633120059967041e-02 -3.083823062479496002e-02 -3.914237022399902344e-02 -1.457667201757431030e-01
2.780000000000000000e+03 2.353327369689941406e+01 -1.604593467712402344e+01 -1.441359668970108032e-01 -9.677132219076156616e-02 -7.227218896150588989e-02 -1.316695064306259155e-01
2.781000000000000000e+03 4.713372039794921875e+01 -2.388570404052734375e+01 -1.603864133358001709e-01 1.216354846954345703e+00 3.167905211448669434e-01 -2.202797532081604004e-01
2.782000000000000000e+03 7.477349090576171875e+01 2.958583450317382812e+01 -9.485559165477752686e-02 6.310116291046142578e+00 1.864578247070312500e+00 3.080510497093200684e-01
2.783000000000000000e+03 7.408322143554687500e+01 3.237363433837890625e+01 -1.104258820414543152e-01 6.309114933013916016e+00 1.859606742858886719e+00 2.194037139415740967e-01
2.784000000000000000e+03 1.506886863708496094e+01 -2.041051483154296875e+01 -5.077701061964035034e-02 -3.903863951563835144e-02 -2.694469504058361053e-02 -1.809621900320053101e-01
2.785000000000000000e+03 6.645796203613281250e+01 2.369552612304687500e+01 -1.920369118452072144e-01 6.310262680053710938e+00 1.835467696189880371e+00 -9.879251569509506226e-02
2.786000000000000000e+03 4.050374603271484375e+01 2.394455528259277344e+01 -1.592358574271202087e-02 3.680847585201263428e-01 1.056483536958694458e-01 6.208287924528121948e-02
2.787000000000000000e+03 3.866992568969726562e+01 2.480513381958007812e+01 4.194465652108192444e-02 2.949044704437255859e-01 1.010547429323196411e-01 9.916540980339050293e-02
2.788000000000000000e+03 5.929909515380859375e+01 2.452012062072753906e+01 -9.372006356716156006e-02 4.666369438171386719e+00 1.371794819831848145e+00 -5.399491190910339355e-01
2.789000000000000000e+03 4.393306255340576172e+00 -3.696922683715820312e+01 1.915699988603591919e-02 -3.342052996158599854e-01 -9.451448917388916016e-02 -4.177009314298629761e-02
2.790000000000000000e+03 7.503037261962890625e+01 3.759176635742187500e+01 -6.189560890197753906e-02 6.450923919677734375e+00 1.916708588600158691e+00 9.099138528108596802e-02
2.791000000000000000e+03 1.344442081451416016e+01 3.191063880920410156e+01 6.997503340244293213e-02 -1.472179442644119263e-01 -2.317287027835845947e-02 1.603355705738067627e-01
2.792000000000000000e+03 9.334125518798828125e+00 -3.117088699340820312e+01 3.981605172157287598e-02 -1.764730513095855713e-01 -4.099709913134574890e-02 -1.104135513305664062e-01
2.793000000000000000e+03 1.011662673950195312e+01 3.480311584472656250e+01 6.349778175354003906e-02 -1.844636797904968262e-01 -3.628977015614509583e-02 9.941385686397552490e-02
2.794000000000000000e+03 4.231667709350585938e+01 -2.773715400695800781e+01 5.855869874358177185e-02 1.030225753784179688e+00 3.266353309154510498e-01 -9.709586948156356812e-02
2.795000000000000000e+03 4.724541091918945312e+01 2.927218246459960938e+01 3.357525169849395752e-01 1.571116566658020020e+00 5.720607638359069824e-01 -3.761640787124633789e-01
2.796000000000000000e+03 5.911056137084960938e+01 2.808687019348144531e+01 -1.442832499742507935e-01 4.499413013458251953e+00 1.306538939476013184e+00 -4.888914823532104492e-01
2.797000000000000000e+03 2.305774879455566406e+01 2.844031906127929688e+01 9.047786146402359009e-02 -1.121476590633392334e-01 -6.500940769910812378e-03 2.616135478019714355e-01
2.798000000000000000e+03 4.391914749145507812e+01 -2.946445655822753906e+01 1.455023586750030518e-01 1.146119713783264160e+00 3.874866366386413574e-01 -8.541948348283767700e-02
2.799000000000000000e+03 4.033697891235351562e+01 -2.634364128112792969e+01 -9.432277828454971313e-02 8.977443575859069824e-01 2.410264760255813599e-01 -5.343326926231384277e-02
2.800000000000000000e+03 6.589629364013671875e+01 -2.909072494506835938e+01 1.227490827441215515e-01 4.832315921783447266e+00 1.486519455909729004e+00 -2.572361566126346588e-02
2.801000000000000000e+03 7.160623931884765625e+01 -3.196347618103027344e+01 1.883010268211364746e-01 6.083889961242675781e+00 1.881657361984252930e+00 2.117675989866256714e-01
2.802000000000000000e+03 7.033612060546875000e+01 -2.524825477600097656e+01 3.345479369163513184e-01 5.356687545776367188e+00 1.707370638847351074e+00 3.529238700866699219e-01
2.803000000000000000e+03 4.530738830566406250e+01 1.682940673828125000e+01 -1.044996976852416992e+00 1.409187167882919312e-01 -2.712234854698181152e-01 1.204980611801147461e-01
2.804000000000000000e+03 1.728212165832519531e+01 -2.028225326538085938e+01 -5.636831372976303101e-02 -2.624636702239513397e-02 -2.478440478444099426e-02 -1.931807994842529297e-01
2.805000000000000000e+03 3.241809844970703125e+01 2.543935585021972656e+01 2.785683050751686096e-02 1.722174137830734253e-02 1.352357212454080582e-02 2.484533190727233887e-01
2.806000000000000000e+03 4.537823486328125000e+01 -1.457009983062744141e+01 -4.655347168445587158e-01 1.297040343284606934e+00 2.494516819715499878e-01 1.346204988658428192e-02
2.807000000000000000e+03 6.515925598144531250e+01 2.470588493347167969e+01 -2.383207082748413086e-01 5.996409893035888672e+00 1.727426767349243164e+00 -2.025355696678161621e-01
2.808000000000000000e+03 8.633839607238769531e+00 -2.199373435974121094e+01 -2.225952222943305969e-02 -9.804474562406539917e-02 -3.609127923846244812e-02 -1.327982991933822632e-01
2.809000000000000000e+03 9.520229339599609375e+00 -1.981876182556152344e+01 -3.758523985743522644e-02 -7.339414954185485840e-02 -3.329381719231605530e-02 -1.304116398096084595e-01
2.810000000000000000e+03 3.597596359252929688e+01 -2.564146423339843750e+01 5.362649261951446533e-02 5.274165868759155273e-01 1.743129193782806396e-01 -3.420602157711982727e-02
2.811000000000000000e+03 3.716491317749023438e+01 -2.396278762817382812e+01 -1.754265725612640381e-01 6.255700588226318359e-01 1.350430399179458618e-01 3.787536872550845146e-03
2.812000000000000000e+03 4.851199340820312500e+01 -2.244219398498535156e+01 -2.905259728431701660e-01 1.059419155120849609e+00 2.306679487228393555e-01 -2.040331661701202393e-01
2.813000000000000000e+03 1.127995681762695312e+01 -1.852340126037597656e+01 -5.488551408052444458e-02 -5.484599620103836060e-02 -3.291945531964302063e-02 -1.423348188400268555e-01
2.814000000000000000e+03 1.000907993316650391e+01 -1.837087821960449219e+01 -3.927831351757049561e-02 -6.001568213105201721e-02 -2.978819794952869415e-02 -1.315026283264160156e-01
2.815000000000000000e+03 7.345682525634765625e+01 2.907831382751464844e+01 -1.752850860357284546e-01 6.297995090484619141e+00 1.836812973022460938e+00 3.531595468521118164e-01
2.816000000000000000e+03 7.512024688720703125e+01 2.829738807678222656e+01 -1.230986714363098145e-01 6.295868873596191406e+00 1.851830959320068359e+00 3.619212806224822998e-01
2.817000000000000000e+03 7.221863555908203125e+01 -2.472817420959472656e+01 1.676269620656967163e-01 6.068108081817626953e+00 1.870720505714416504e+00 5.119359493255615234e-01
2.818000000000000000e+03 6.053099822998046875e+01 -2.334774017333984375e+01 -7.074338197708129883e-01 4.831645965576171875e+00 1.237263560295104980e+00 -4.910595417022705078e-01
2.819000000000000000e+03 6.125400543212890625e+01 -2.229597091674804688e+01 -5.608181357383728027e-01 4.871678829193115234e+00 1.293258309364318848e+00 -8.199280500411987305e-01
2.820000000000000000e+03 6.414878845214843750e+01 -2.188611221313476562e+01 -2.738617919385433197e-02 4.356320381164550781e+00 1.298680186271667480e+00 -8.964717984199523926e-01
2.821000000000000000e+03 3.955431747436523438e+01 -2.306714057922363281e+01 -3.265050351619720459e-01 8.730243444442749023e-01 1.639557927846908569e-01 6.636567413806915283e-02
2.822000000000000000e+03 5.247574996948242188e+01 2.285739326477050781e+01 -8.071828633546829224e-02 2.627972841262817383e+00 7.641763687133789062e-01 -9.303656816482543945e-01
2.823000000000000000e+03 6.422182464599609375e+01 -1.975126647949218750e+01 -4.234214872121810913e-02 4.091618061065673828e+00 1.214782834053039551e+00 -1.213958024978637695e+00
2.824000000000000000e+03 6.745137786865234375e+01 -2.083676719665527344e+01 3.076275289058685303e-01 3.576753377914428711e+00 1.165314316749572754e+00 -3.007315993309020996e-01
2.825000000000000000e+03 6.329375839233398438e+01 -2.071997070312500000e+01 -3.421355783939361572e-01 4.515255928039550781e+00 1.251936078071594238e+00 -1.130933046340942383e+00
2.826000000000000000e+03 6.866156768798828125e+01 -2.199110031127929688e+01 3.593357503414154053e-01 4.100160598754882812e+00 1.337848782539367676e+00 1.359253078699111938e-01
2.827000000000000000e+03 7.206730651855468750e+01 2.750010490417480469e+01 -2.182678878307342529e-01 6.292577743530273438e+00 1.822293043136596680e+00 4.052284657955169678e-01
2.828000000000000000e+03 6.851334381103515625e+01 2.572536659240722656e+01 -2.693083286285400391e-01 6.248856067657470703e+00 1.793864369392395020e+00 1.658369749784469604e-01
2.829000000000000000e+03 7.573893737792968750e+01 3.276014709472656250e+01 -8.925981074571609497e-02 6.416714191436767578e+00 1.898236274719238281e+00 1.995673924684524536e-01
2.830000000000000000e+03 6.779982757568359375e+01 -2.972398185729980469e+01 2.550894021987915039e-01 5.155791282653808594e+00 1.623264193534851074e+00 9.879929572343826294e-02
2.831000000000000000e+03 5.215030670166015625e+01 2.801431655883789062e+01 1.324960589408874512e-01 2.602590799331665039e+00 8.205260634422302246e-01 -6.736769676208496094e-01
2.832000000000000000e+03 6.472306060791015625e+01 2.794764137268066406e+01 -2.832766473293304443e-01 5.636512756347656250e+00 1.605970859527587891e+00 -1.498348861932754517e-01
2.833000000000000000e+03 5.546694183349609375e+01 2.828130912780761719e+01 -1.230583153665065765e-02 3.502364873886108398e+00 1.047017693519592285e+00 -6.136747002601623535e-01
2.834000000000000000e+03 2.635709381103515625e+01 2.914438819885253906e+01 1.527971327304840088e-01 -7.119312882423400879e-02 2.448119968175888062e-02 2.444387823343276978e-01
2.835000000000000000e+03 4.909398269653320312e+01 -2.547583007812500000e+01 8.422764390707015991e-02 1.375199079513549805e+00 4.378280043601989746e-01 -3.149689733982086182e-02
2.836000000000000000e+03 1.483007335662841797e+01 -3.036982727050781250e+01 7.362673431634902954e-02 -9.509261697530746460e-02 -6.439765915274620056e-03 -1.493942290544509888e-01
2.837000000000000000e+03 3.873196411132812500e+01 2.687092590332031250e+01 1.934747397899627686e-01 3.661241233348846436e-01 1.678796559572219849e-01 6.568705290555953979e-02
2.838000000000000000e+03 1.787376785278320312e+01 2.621498870849609375e+01 -2.658061496913433075e-02 -9.285156428813934326e-02 -3.582965210080146790e-02 2.485366016626358032e-01
2.839000000000000000e+03 3.596006774902343750e+01 2.809839820861816406e+01 2.291283160448074341e-01 2.321069687604904175e-01 1.383705884218215942e-01 1.471901983022689819e-01
2.840000000000000000e+03 5.029948425292968750e+01 -2.707241058349609375e+01 1.030816063284873962e-01 1.643301963806152344e+00 5.239150524139404297e-01 1.779721528291702271e-01
2.841000000000000000e+03 2.186250877380371094e+01 -2.563017845153808594e+01 4.944887012243270874e-02 1.432631909847259521e-02 1.913255639374256134e-02 -1.779380738735198975e-01
2.842000000000000000e+03 2.989170265197753906e+01 2.878509712219238281e+01 1.744379252195358276e-01 -1.613611169159412384e-02 4.749054089188575745e-02 2.285903245210647583e-01
2.843000000000000000e+03 6.546404266357421875e+01 -2.498165893554687500e+01 1.898636221885681152e-01 4.490591049194335938e+00 1.404136419296264648e+00 -3.601429462432861328e-01
2.844000000000000000e+03 7.026512908935546875e+01 2.777283477783203125e+01 -2.697449624538421631e-01 6.230471134185791016e+00 1.788217782974243164e+00 2.455895096063613892e-01
2.845000000000000000e+03 6.892418670654296875e+01 2.277702522277832031e+01 -1.241083666682243347e-01 6.596901416778564453e+00 1.941837906837463379e+00 2.685759663581848145e-01
2.846000000000000000e+03 6.526012420654296875e+01 -2.074308204650878906e+01 -1.984599605202674866e-02 3.918522119522094727e+00 1.169602751731872559e+00 -9.422665834426879883e-01
2.847000000000000000e+03 6.846456909179687500e+01 -2.596595954895019531e+01 3.562078475952148438e-01 4.935655117034912109e+00 1.587558865547180176e+00 8.357921242713928223e-02
2.848000000000000000e+03 2.700819396972656250e+01 -1.216376113891601562e+01 -2.611998617649078369e-01 -1.564070880413055420e-01 -1.252820789813995361e-01 9.690909087657928467e-02
2.849000000000000000e+03 6.053990936279296875e+01 -2.510735321044921875e+01 -4.637694060802459717e-01 4.644137859344482422e+00 1.254110455513000488e+00 -2.080494761466979980e-01
2.850000000000000000e+03 6.212475967407226562e+01 -2.477327537536621094e+01 -2.659708559513092041e-01 4.531816959381103516e+00 1.279753923416137695e+00 -4.826666414737701416e-01
2.851000000000000000e+03 1.241730785369873047e+01 -1.872920799255371094e+01 -5.639849975705146790e-02 -4.346590116620063782e-02 -2.995931915938854218e-02 -1.559715718030929565e-01
2.852000000000000000e+03 6.414324951171875000e+01 -2.551007080078125000e+01 1.447965763509273529e-02 4.497476577758789062e+00 1.353586912155151367e+00 -4.297991991043090820e-01
2.853000000000000000e+03 6.295868682861328125e+01 -2.272463798522949219e+01 -2.682771086692810059e-01 4.563666820526123047e+00 1.288616895675659180e+00 -8.174341320991516113e-01
2.854000000000000000e+03 1.824528694152832031e+01 -2.242696762084960938e+01 -1.465727109462022781e-02 -2.587144076824188232e-02 -1.215861365199089050e-02 -1.986753642559051514e-01
2.855000000000000000e+03 6.283981704711914062e+01 -2.648524856567382812e+01 -9.805585443973541260e-02 4.537917613983154297e+00 1.331958413124084473e+00 -2.993838787078857422e-01
2.856000000000000000e+03 3.287399291992187500e+01 2.854671478271484375e+01 2.146019637584686279e-01 7.421565055847167969e-02 8.664528280496597290e-02 2.017266899347305298e-01
2.857000000000000000e+03 1.658676338195800781e+01 -2.615540122985839844e+01 3.654377907514572144e-02 -5.396295711398124695e-02 -5.225753411650657654e-03 -1.826700419187545776e-01
2.858000000000000000e+03 5.561664199829101562e+01 -2.630580520629882812e+01 -2.707003057003021240e-01 3.269242286682128906e+00 8.995625972747802734e-01 7.252718210220336914e-01
2.859000000000000000e+03 1.458889961242675781e+01 -2.495470809936523438e+01 2.084003202617168427e-02 -7.474981248378753662e-02 -1.617293432354927063e-02 -1.754322052001953125e-01
2.860000000000000000e+03 6.697261810302734375e+01 -2.528238868713378906e+01 2.576279938220977783e-01 4.616598606109619141e+00 1.462267994880676270e+00 -1.602634340524673462e-01
2.861000000000000000e+03 7.220796203613281250e+01 2.901316261291503906e+01 -2.138774544000625610e-01 6.273684978485107422e+00 1.817942261695861816e+00 2.841815650463104248e-01
2.862000000000000000e+03 1.076630687713623047e+01 -2.066942024230957031e+01 -3.123054467141628265e-02 -7.479029148817062378e-02 -3.180624917149543762e-02 -1.499480456113815308e-01
2.863000000000000000e+03 6.650881958007812500e+01 -2.720477867126464844e+01 2.381577491760253906e-01 4.793878555297851562e+00 1.509610891342163086e+00 -9.861867874860763550e-02
2.864000000000000000e+03 6.909302520751953125e+01 -2.439675140380859375e+01 3.128774762153625488e-01 4.860428810119628906e+00 1.551991820335388184e+00 1.998313963413238525e-01
2.865000000000000000e+03 1.057713699340820312e+01 -2.300804138183593750e+01 -1.766925118863582611e-02 -9.930427372455596924e-02 -3.509205579757690430e-02 -1.515433937311172485e-01
2.866000000000000000e+03 7.055916595458984375e+01 2.322684669494628906e+01 -1.487575322389602661e-01 6.596092700958251953e+00 1.934200644493103027e+00 4.466409683227539062e-01
2.867000000000000000e+03 6.754059600830078125e+01 2.708003044128417969e+01 -3.282922208309173584e-01 6.108302116394042969e+00 1.734002947807312012e+00 7.596156746149063110e-02
2.868000000000000000e+03 1.744600105285644531e+01 -2.423735046386718750e+01 1.875480823218822479e-02 -4.420109093189239502e-02 -7.633885368704795837e-03 -1.871499717235565186e-01
2.869000000000000000e+03 5.776911544799804688e+01 -2.797709083557128906e+01 -1.588663458824157715e-01 3.636049509048461914e+00 1.043154954910278320e+00 3.167146444320678711e-01
2.870000000000000000e+03 6.989855194091796875e+01 3.222658157348632812e+01 -2.309351265430450439e-01 5.983455181121826172e+00 1.725756049156188965e+00 1.875124275684356689e-01
2.871000000000000000e+03 1.888449859619140625e+01 -2.717687988281250000e+01 6.558214128017425537e-02 -2.777569182217121124e-02 1.134193409234285355e-02 -1.759145110845565796e-01
2.872000000000000000e+03 6.508879089355468750e+01 -2.654642105102539062e+01 1.213564202189445496e-01 4.622301101684570312e+00 1.423097252845764160e+00 -2.089846134185791016e-01
2.873000000000000000e+03 7.669736480712890625e+01 2.759240722656250000e+01 -8.932691067457199097e-02 6.265854835510253906e+00 1.852958440780639648e+00 3.140977323055267334e-01
2.874000000000000000e+03 5.032495880126953125e+01 1.331819820404052734e+01 -6.432990729808807373e-02 -6.202489137649536133e-01 -2.053736597299575806e-01 1.201924383640289307e-01
2.875000000000000000e+03 2.621667289733886719e+01 2.647644996643066406e+00 -1.414206773042678833e-01 -4.175870120525360107e-02 -5.495381355285644531e-02 -5.761954560875892639e-02
2.876000000000000000e+03 2.395015144348144531e+01 5.882592201232910156e+00 -5.356032401323318481e-02 -6.935993582010269165e-02 -3.687607869505882263e-02 -6.206667795777320862e-02
2.877000000000000000e+03 6.775482654571533203e+00 -2.658183097839355469e+00 1.975418068468570709e-03 -7.048928528092801571e-04 3.811575588770210743e-04 1.074604806490242481e-03
2.878000000000000000e+03 5.240415954589843750e+01 9.346454620361328125e+00 -5.764905810356140137e-01 3.179535388946533203e+00 7.809134125709533691e-01 4.542331993579864502e-01
2.879000000000000000e+03 5.234163665771484375e+01 9.624135017395019531e+00 -8.505991697311401367e-01 2.299093961715698242e+00 4.345484375953674316e-01 -2.319687418639659882e-02
2.880000000000000000e+03 5.253392791748046875e+01 9.644762992858886719e+00 -7.185256481170654297e-01 2.430115699768066406e+00 5.134770274162292480e-01 4.767895638942718506e-01
2.881000000000000000e+03 5.271034622192382812e+01 9.626338958740234375e+00 -5.507484674453735352e-01 2.891417026519775391e+00 7.022005915641784668e-01 9.956428408622741699e-01
2.882000000000000000e+03 5.361065673828125000e+01 9.264147758483886719e+00 -5.415341258049011230e-02 7.467334747314453125e+00 2.223954439163208008e+00 4.412804603576660156e+00
2.883000000000000000e+03 5.355120086669921875e+01 9.549474716186523438e+00 3.278247117996215820e-01 5.664197444915771484e+00 1.797606706619262695e+00 4.269039154052734375e+00
2.884000000000000000e+03 5.393821334838867188e+01 9.527081489562988281e+00 8.185029774904251099e-02 8.526584625244140625e+00 2.582530498504638672e+00 5.933959960937500000e+00
2.885000000000000000e+03 5.395413970947265625e+01 9.054260253906250000e+00 -6.995984911918640137e-01 1.049595165252685547e+01 2.938905954360961914e+00 5.570839405059814453e+00
2.886000000000000000e+03 5.454598999023437500e+01 9.550583839416503906e+00 -1.055052757263183594e+00 1.367714977264404297e+01 3.786629199981689453e+00 8.485447883605957031e+00
2.887000000000000000e+03 5.472797393798828125e+01 9.548399925231933594e+00 -1.563556313514709473e+00 1.531500625610351562e+01 4.125434875488281250e+00 8.387807846069335938e+00
2.888000000000000000e+03 5.475884628295898438e+01 9.399853706359863281e+00 -2.146801233291625977e+00 1.572100830078125000e+01 4.072262287139892578e+00 7.685551166534423828e+00
2.889000000000000000e+03 5.623586654663085938e+01 9.363212585449218750e+00 -2.747709512710571289e+00 1.284337806701660156e+01 3.028700351715087891e+00 1.652650117874145508e+00
2.890000000000000000e+03 5.724826049804687500e+01 1.113057041168212891e+01 5.860554695129394531e+00 3.278282642364501953e+00 2.741651058197021484e+00 2.971351385116577148e+00
2.891000000000000000e+03 5.699915313720703125e+01 1.163417816162109375e+01 6.781152248382568359e+00 6.474004268646240234e+00 3.976547002792358398e+00 5.365333080291748047e+00
2.892000000000000000e+03 5.694847106933593750e+01 1.189583396911621094e+01 5.834267616271972656e+00 7.656241416931152344e+00 4.047152519226074219e+00 5.882235527038574219e+00
2.893000000000000000e+03 5.664950180053710938e+01 1.175156593322753906e+01 6.930361270904541016e+00 9.945558547973632812e+00 5.062775611877441406e+00 6.550859451293945312e+00
2.894000000000000000e+03 5.575859069824218750e+01 1.305414962768554688e+01 -7.482087016105651855e-01 1.354851055145263672e+01 3.840090513229370117e+00 1.878036260604858398e+00
2.895000000000000000e+03 5.558898925781250000e+01 1.272684860229492188e+01 -5.950286984443664551e-01 1.559039878845214844e+01 4.498610973358154297e+00 1.233724832534790039e+00
2.896000000000000000e+03 5.526888275146484375e+01 1.342416858673095703e+01 -1.018697738647460938e+00 1.134942626953125000e+01 3.099218368530273438e+00 -5.355488657951354980e-01
2.897000000000000000e+03 5.472911834716796875e+01 1.274605941772460938e+01 4.076638519763946533e-01 1.103403377532958984e+01 3.432509183883666992e+00 -3.701163053512573242e+00
2.898000000000000000e+03 5.440355682373046875e+01 1.305689144134521484e+01 6.588865518569946289e-01 8.005430221557617188e+00 2.599294900894165039e+00 -3.269478559494018555e+00
2.899000000000000000e+03 5.421850967407226562e+01 1.310519027709960938e+01 8.094438910484313965e-01 6.910711288452148438e+00 2.316046714782714844e+00 -3.211071968078613281e+00
2.900000000000000000e+03 5.353713989257812500e+01 1.285389995574951172e+01 1.622413873672485352e+00 2.972336769104003906e+00 1.378425240516662598e+00 -2.320251226425170898e+00
2.901000000000000000e+03 5.334157562255859375e+01 1.286518192291259766e+01 1.532972812652587891e+00 2.395630121231079102e+00 1.178580880165100098e+00 -1.912557959556579590e+00
2.902000000000000000e+03 5.314546585083007812e+01 1.289611625671386719e+01 1.400484800338745117e+00 1.876327276229858398e+00 9.830436110496520996e-01 -1.581322789192199707e+00
2.903000000000000000e+03 5.249819564819335938e+01 1.301095485687255859e+01 8.335807919502258301e-01 1.130984902381896973e+00 5.893697142601013184e-01 -7.185062170028686523e-01
2.904000000000000000e+03 1.874091911315917969e+01 2.664749622344970703e+00 -2.349253743886947632e-03 -2.703252539504319429e-04 -7.858736789785325527e-04 1.114890561439096928e-03
2.905000000000000000e+03 1.483765125274658203e+01 -3.116393566131591797e+00 -3.079629037529230118e-03 8.175090770237147808e-04 -6.786360172554850578e-04 -2.520714886486530304e-03
2.906000000000000000e+03 4.270833969116210938e+00 -3.063045263290405273e+00 1.629609148949384689e-03 -5.188437062315642834e-04 3.332296328153461218e-04 4.338850267231464386e-03
2.907000000000000000e+03 2.020269775390625000e+01 7.523816227912902832e-01 -1.381664257496595383e-02 1.592168409842997789e-04 -4.097227472811937332e-03 -4.155169241130352020e-03
2.908000000000000000e+03 2.067191314697265625e+01 1.338138341903686523e+00 1.090787118300795555e-03 3.160871274303644896e-04 4.220622649881988764e-04 -1.789954374544322491e-03
2.909000000000000000e+03 2.222062301635742188e+01 9.543922424316406250e+00 -1.956600323319435120e-02 7.617913186550140381e-02 1.698393933475017548e-02 3.001765161752700806e-02
2.910000000000000000e+03 7.693055725097656250e+01 8.615522384643554688e+00 1.015746593475341797e+00 9.317113876342773438e+00 3.099858283996582031e+00 1.076529771089553833e-01
2.911000000000000000e+03 3.105981445312500000e+01 1.212550997734069824e+00 -1.622625440359115601e-01 -3.261039033532142639e-02 -5.846187844872474670e-02 -1.062950268387794495e-01
2.912000000000000000e+03 5.501595306396484375e+01 8.923645019531250000e+00 -3.348048686981201172e+00 1.611543083190917969e+01 3.830214500427246094e+00 6.077779769897460938e+00
2.913000000000000000e+03 5.699288558959960938e+01 1.064944648742675781e+01 4.234515190124511719e+00 3.858578681945800781e+00 2.427928209304809570e+00 1.732125401496887207e+00
2.914000000000000000e+03 1.321168804168701172e+01 -2.846012592315673828e+00 -4.166087601333856583e-03 -1.857613213360309601e-03 -1.807110267691314220e-03 -2.449642401188611984e-03
2.915000000000000000e+03 5.386712646484375000e+01 1.335678100585937500e+01 8.476467132568359375e-01 5.069802761077880859e+00 1.775234818458557129e+00 -2.678529024124145508e+00
2.916000000000000000e+03 5.367131805419921875e+01 1.342962455749511719e+01 8.159500360488891602e-01 4.480545520782470703e+00 1.588948726654052734e+00 -2.403728246688842773e+00
2.917000000000000000e+03 5.318593215942382812e+01 9.149525642395019531e+00 3.013947978615760803e-02 5.871276378631591797e+00 1.770424842834472656e+00 2.923657655715942383e+00
2.918000000000000000e+03 5.339551925659179688e+01 8.965450286865234375e+00 -1.215013861656188965e-01 7.132427692413330078e+00 2.103277921676635742e+00 3.541267156600952148e+00
2.919000000000000000e+03 5.384298324584960938e+01 1.396164894104003906e+01 1.054808646440505981e-01 5.334138393402099609e+00 1.631885766983032227e+00 -2.165527582168579102e+00
2.920000000000000000e+03 5.464872360229492188e+01 1.316973400115966797e+01 -4.241065308451652527e-02 9.600180625915527344e+00 2.867331027984619141e+00 -2.714159488677978516e+00
2.921000000000000000e+03 5.479199981689453125e+01 1.311088275909423828e+01 -1.669764220714569092e-01 1.061820030212402344e+01 3.135367155075073242e+00 -2.643861055374145508e+00
2.922000000000000000e+03 5.495772933959960938e+01 1.399239826202392578e+01 -1.003369450569152832e+00 9.070526123046875000e+00 2.420146942138671875e+00 -9.869464039802551270e-01
2.923000000000000000e+03 5.489274978637695312e+01 1.329030704498291016e+01 -6.191447377204895020e-01 1.051037502288818359e+01 2.967368841171264648e+00 -1.857384324073791504e+00
2.924000000000000000e+03 7.643187522888183594e+00 8.594238281250000000e+00 3.349059820175170898e-02 -2.128124423325061798e-02 3.662805771455168724e-03 1.267931051552295685e-02
2.925000000000000000e+03 5.278245544433593750e+01 9.264870643615722656e+00 -1.850036829710006714e-01 4.139478683471679688e+00 1.186342597007751465e+00 1.547572493553161621e+00
2.926000000000000000e+03 5.469961547851562500e+01 8.776495933532714844e+00 -1.840493083000183105e+00 1.462856578826904297e+01 3.836421966552734375e+00 6.101446151733398438e+00
2.927000000000000000e+03 5.680521011352539062e+01 1.216126918792724609e+01 4.686526775360107422e+00 9.335858345031738281e+00 4.206715583801269531e+00 6.310031414031982422e+00
2.928000000000000000e+03 5.758033752441406250e+01 1.145658016204833984e+01 5.077991008758544922e+00 2.496011734008789062e+00 2.272200822830200195e+00 3.360865592956542969e+00
2.929000000000000000e+03 5.718968200683593750e+01 1.241233539581298828e+01 3.880705833435058594e+00 6.902976989746093750e+00 3.235104799270629883e+00 5.554643630981445312e+00
2.930000000000000000e+03 5.594095993041992188e+01 1.332732009887695312e+01 -6.995045542716979980e-01 1.219122314453125000e+01 3.447515487670898438e+00 2.224587917327880859e+00
2.931000000000000000e+03 2.817597007751464844e+01 1.226866006851196289e+00 -1.053614243865013123e-01 5.828472785651683807e-03 -2.985988557338714600e-02 -7.131198793649673462e-02
2.932000000000000000e+03 5.655056762695312500e+01 1.229130172729492188e+01 3.758447647094726562e+00 1.127004146575927734e+01 4.508546829223632812e+00 6.298762798309326172e+00
2.933000000000000000e+03 6.694409179687500000e+01 1.124874591827392578e+01 4.390071868896484375e+00 1.394639587402343750e+01 5.500940322875976562e+00 -7.838941216468811035e-01
2.934000000000000000e+03 4.900330543518066406e+00 -3.110532760620117188e+00 -1.834408263675868511e-03 -3.308592131361365318e-04 -6.495802663266658783e-04 2.863949863240122795e-03
2.935000000000000000e+03 5.551969909667968750e+01 8.595523834228515625e+00 -3.259450435638427734e+00 1.442912578582763672e+01 3.350902557373046875e+00 4.081982135772705078e+00
2.936000000000000000e+03 2.726595115661621094e+01 1.238335418701171875e+01 -8.639276772737503052e-02 -7.831534743309020996e-02 -4.941243305802345276e-02 -6.756488233804702759e-02
2.937000000000000000e+03 6.075197219848632812e+01 -1.917658424377441406e+01 -5.879178643226623535e-02 5.551639556884765625e+00 1.647854328155517578e+00 -1.107684373855590820e+00
2.938000000000000000e+03 2.710130500793457031e+01 -7.732950687408447266e+00 -3.011583983898162842e-01 -2.165410071611404419e-01 -1.553098261356353760e-01 -1.052913293242454529e-01
2.939000000000000000e+03 6.878169059753417969e+00 -3.576042938232421875e+01 2.808135747909545898e-02 -2.600139677524566650e-01 -6.957978010177612305e-02 -5.844625085592269897e-02
2.940000000000000000e+03 4.248689174652099609e+00 -3.697204589843750000e+00 -2.649671398103237152e-03 -7.006115629337728024e-04 -1.005084835924208164e-03 1.884707016870379448e-03
2.941000000000000000e+03 5.039683151245117188e+01 7.514344692230224609e+00 -4.081516340374946594e-02 9.392923116683959961e-01 2.695431411266326904e-01 -8.810628056526184082e-01
2.942000000000000000e+03 5.219730377197265625e+01 1.412267875671386719e+01 1.540053486824035645e-01 1.773430705070495605e+00 5.782307982444763184e-01 -1.022387862205505371e+00
2.943000000000000000e+03 5.442514801025390625e+01 1.349248409271240234e+01 3.880632342770695686e-03 7.769764900207519531e+00 2.332093715667724609e+00 -2.568016052246093750e+00
2.944000000000000000e+03 5.431315994262695312e+01 1.381831455230712891e+01 -2.466765493154525757e-01 7.123267173767089844e+00 2.062977313995361328e+00 -2.163980960845947266e+00
2.945000000000000000e+03 5.501466751098632812e+01 8.556444168090820312e+00 -2.042560815811157227e+00 1.537689399719238281e+01 4.000299930572509766e+00 5.308607101440429688e+00
2.946000000000000000e+03 1.267404460906982422e+01 -4.533521175384521484e+00 -2.173392474651336670e-02 -1.250483328476548195e-03 -6.895322352647781372e-03 -1.764259999617934227e-03
2.947000000000000000e+03 3.860242843627929688e+01 -2.212479829788208008e+00 -1.553890574723482132e-02 -6.798909306526184082e-01 -2.086289525032043457e-01 -6.361172199249267578e-01
2.948000000000000000e+03 3.779291534423828125e+01 -3.112082242965698242e+00 3.787770271301269531e-01 -6.015851497650146484e-01 -6.684245169162750244e-02 -4.918490350246429443e-01
2.949000000000000000e+03 6.573037147521972656e+00 -3.026559591293334961e+00 -2.524678595364093781e-03 -6.329842726700007915e-04 -9.472988895140588284e-04 7.668288890272378922e-04
2.950000000000000000e+03 5.373552703857421875e+01 8.691108703613281250e+00 -1.658740043640136719e-01 9.864877700805664062e+00 2.909701108932495117e+00 4.693531990051269531e+00
2.951000000000000000e+03 5.267141342163085938e+01 8.998008728027343750e+00 -3.137153089046478271e-01 4.870379924774169922e+00 1.366999268531799316e+00 1.522015213966369629e+00
2.952000000000000000e+03 6.293176269531250000e+01 1.878126525878906250e+01 9.550743699073791504e-01 5.516569614410400391e+00 1.941493153572082520e+00 -9.490105509757995605e-01
2.953000000000000000e+03 3.977716445922851562e+01 -2.428325176239013672e+00 1.505688875913619995e-01 -6.429531574249267578e-01 -1.477152854204177856e-01 -6.209182143211364746e-01
2.954000000000000000e+03 4.353891754150390625e+01 -7.771405220031738281e+00 -7.967761717736721039e-03 3.826846361160278320e+00 1.145663619041442871e+00 6.494338512420654297e-01
2.955000000000000000e+03 4.132108306884765625e+01 -1.035916423797607422e+01 -6.253077983856201172e-01 1.900255441665649414e+00 3.824842870235443115e-01 6.923164725303649902e-01
2.956000000000000000e+03 2.262708663940429688e+01 7.590601444244384766e-01 -1.322859153151512146e-02 -5.603880621492862701e-03 -5.649741739034652710e-03 2.349323593080043793e-03
2.957000000000000000e+03 6.855743408203125000e+01 1.005317115783691406e+01 6.709819436073303223e-01 9.717514991760253906e+00 3.116549015045166016e+00 8.109973371028900146e-02
2.958000000000000000e+03 3.671847343444824219e+00 -4.393107891082763672e+00 -2.330959308892488480e-03 -1.854573260061442852e-03 -1.255659735761582851e-03 1.570867723785340786e-03
2.959000000000000000e+03 1.240172386169433594e+00 3.098435878753662109e+00 2.780050563160330057e-04 5.031344480812549591e-04 2.343418454984202981e-04 -4.930066643282771111e-04
2.960000000000000000e+03 2.401629066467285156e+01 -1.112707614898681641e+00 2.530499175190925598e-02 -8.536636084318161011e-02 -1.801840960979461670e-02 -3.953265026211738586e-02
2.961000000000000000e+03 3.566581010818481445e+00 5.780059337615966797e+00 -6.964544765651226044e-03 -2.610011026263237000e-03 -2.872366691008210182e-03 1.273991353809833527e-02
2.962000000000000000e+03 2.108114480972290039e+00 3.560425949096679688e+01 8.991339243948459625e-03 -2.781839668750762939e-01 -8.075778186321258545e-02 2.252336964011192322e-02
2.963000000000000000e+03 6.746737670898437500e+01 2.020751476287841797e+00 4.841845929622650146e-01 7.587288856506347656e+00 2.421442031860351562e+00 2.865196168422698975e-01
2.964000000000000000e+03 3.078136825561523438e+01 -1.515959358215332031e+01 -3.708365261554718018e-01 2.033680528402328491e-01 -5.024054646492004395e-02 6.895735114812850952e-02
2.965000000000000000e+03 5.014224624633789062e+01 1.969737625122070312e+01 -2.254360914230346680e-01 1.328144788742065430e+00 3.308126032352447510e-01 -9.735321998596191406e-01
2.966000000000000000e+03 6.851738739013671875e+01 1.663965415954589844e+01 7.530589699745178223e-01 8.264795303344726562e+00 2.705356359481811523e+00 1.026940226554870605e+00
2.967000000000000000e+03 6.782774353027343750e+01 1.739884376525878906e+01 3.703850805759429932e-01 8.560821533203125000e+00 2.679362058639526367e+00 2.038530707359313965e-01
2.968000000000000000e+03 5.260677337646484375e+01 8.645684242248535156e+00 -2.540849335491657257e-02 5.624450683593750000e+00 1.679712772369384766e+00 1.456914305686950684e+00
2.969000000000000000e+03 5.361472702026367188e+01 8.209146499633789062e+00 6.592642515897750854e-02 1.045095443725585938e+01 3.155064344406127930e+00 3.993524789810180664e+00
2.970000000000000000e+03 5.498548889160156250e+01 1.359007358551025391e+01 -8.250256776809692383e-01 9.949059486389160156e+00 2.737210035324096680e+00 -1.317341446876525879e+00
2.971000000000000000e+03 5.461563873291015625e+01 1.392742061614990234e+01 -5.692473053932189941e-01 8.006011962890625000e+00 2.231029272079467773e+00 -1.798637032508850098e+00
2.972000000000000000e+03 4.854355621337890625e+01 3.037528228759765625e+01 3.005937635898590088e-01 1.925758361816406250e+00 6.679056286811828613e-01 -4.329936206340789795e-01
2.973000000000000000e+03 2.598888397216796875e+01 3.272351074218750000e+01 2.769803404808044434e-01 -6.558293849229812622e-02 6.341922283172607422e-02 1.976613551378250122e-01
2.974000000000000000e+03 6.202349472045898438e+01 -1.547203254699707031e+01 -4.802274107933044434e-01 5.551206588745117188e+00 1.521293640136718750e+00 -4.956864118576049805e-01
2.975000000000000000e+03 3.856900024414062500e+01 -3.008217573165893555e+00 4.620115458965301514e-01 -6.869810819625854492e-01 -6.749085336923599243e-02 -6.218066215515136719e-01
2.976000000000000000e+03 5.469704818725585938e+01 1.334102725982666016e+01 -2.905369997024536133e-01 9.371644020080566406e+00 2.724332094192504883e+00 -2.304218530654907227e+00
2.977000000000000000e+03 5.452118682861328125e+01 1.326789760589599609e+01 4.183074831962585449e-02 8.557991981506347656e+00 2.579946756362915039e+00 -2.771297931671142578e+00
2.978000000000000000e+03 5.672209930419921875e+01 1.334660625457763672e+01 6.890703439712524414e-01 9.623796463012695312e+00 3.093860149383544922e+00 4.330312252044677734e+00
2.979000000000000000e+03 7.486786365509033203e+00 -3.590031623840332031e+00 -6.951874587684869766e-03 -1.473340205848217010e-03 -2.527564298361539841e-03 -4.791495739482343197e-04
2.980000000000000000e+03 1.233156967163085938e+01 -5.306404113769531250e+00 -2.863436751067638397e-02 -1.279686111956834793e-03 -8.974215947091579437e-03 -2.990457462146878242e-03
2.981000000000000000e+03 5.333221817016601562e+01 1.398354244232177734e+01 3.438114225864410400e-01 3.873668193817138672e+00 1.265243887901306152e+00 -1.940673828125000000e+00
2.982000000000000000e+03 5.430592727661132812e+01 8.251144409179687500e+00 -8.718768954277038574e-01 1.403606128692626953e+01 3.949255228042602539e+00 4.577174186706542969e+00
2.983000000000000000e+03 2.573222875595092773e+00 -3.301766157150268555e+00 2.397940028458833694e-03 6.858405540697276592e-04 9.251341689378023148e-04 2.278371248394250870e-03
2.984000000000000000e+03 3.515560913085937500e+01 6.106064915657043457e-01 -2.463950961828231812e-01 2.121257632970809937e-01 -1.028079912066459656e-02 2.880861237645149231e-02
2.985000000000000000e+03 5.616977691650390625e+01 1.392728996276855469e+01 -7.344427704811096191e-01 9.821125984191894531e+00 2.726004838943481445e+00 2.084377765655517578e+00
2.986000000000000000e+03 7.647679901123046875e+01 2.876387405395507812e+01 -2.682727761566638947e-02 6.316299438476562500e+00 1.886841654777526855e+00 2.771806716918945312e-01
2.987000000000000000e+03 7.027889251708984375e+01 -1.950831222534179688e+01 -1.075901761651039124e-01 4.185697555541992188e+00 1.223432183265686035e+00 9.958144426345825195e-01
2.988000000000000000e+03 5.683907318115234375e+01 1.368701553344726562e+01 4.818848073482513428e-01 8.536255836486816406e+00 2.705441951751708984e+00 3.956788778305053711e+00
2.989000000000000000e+03 6.091578292846679688e+01 -1.560469436645507812e+01 -4.033719003200531006e-02 6.118573188781738281e+00 1.823470711708068848e+00 -3.558468818664550781e-01
2.990000000000000000e+03 1.623927307128906250e+01 -3.373298645019531250e+01 1.114503964781761169e-01 -8.156526088714599609e-02 8.965540677309036255e-03 -1.199360117316246033e-01
2.991000000000000000e+03 5.575035476684570312e+01 1.497135925292968750e+01 -1.053436398506164551e+00 7.928195476531982422e+00 2.062427759170532227e+00 7.130176424980163574e-01
2.992000000000000000e+03 5.457949066162109375e+01 1.468433094024658203e+01 -8.804740309715270996e-01 6.993391036987304688e+00 1.833875179290771484e+00 -1.212311744689941406e+00
2.993000000000000000e+03 5.324906158447265625e+01 1.458717536926269531e+01 -1.735719144344329834e-01 4.005421161651611328e+00 1.149554729461669922e+00 -1.707789063453674316e+00
2.994000000000000000e+03 6.929431152343750000e+01 1.387740898132324219e+01 2.995544195175170898e+00 7.031026363372802734e+00 3.007971286773681641e+00 1.781571626663208008e+00
2.995000000000000000e+03 4.373629760742187500e+01 2.861863708496093750e+01 3.521634936332702637e-01 9.023179411888122559e-01 3.763444423675537109e-01 -1.655188202857971191e-01
2.996000000000000000e+03 4.465361404418945312e+01 2.719977378845214844e+01 3.085238933563232422e-01 9.507072567939758301e-01 3.777693510055541992e-01 -2.215991318225860596e-01
2.997000000000000000e+03 4.602047348022460938e+01 2.814241600036621094e+01 3.269253671169281006e-01 1.270531415939331055e+00 4.792370200157165527e-01 -2.879279851913452148e-01
2.998000000000000000e+03 7.695993041992187500e+01 -3.125920057296752930e+00 -6.453923881053924561e-02 8.572594642639160156e+00 2.552416801452636719e+00 1.235684990882873535e+00
2.999000000000000000e+03 2.914243316650390625e+01 -1.426347255706787109e+01 -3.269837498664855957e-01 1.131197214126586914e-01 -6.415920704603195190e-02 1.034359931945800781e-01
3.000000000000000000e+03 7.591912841796875000e+01 -4.308050155639648438e+00 -7.423723489046096802e-02 7.805233478546142578e+00 2.319298982620239258e+00 1.102967023849487305e+00
3.001000000000000000e+03 8.019894599914550781e+00 1.045275115966796875e+01 3.485431149601936340e-02 -1.065707579255104065e-02 7.259171456098556519e-03 9.343447163701057434e-03
3.002000000000000000e+03 3.115336227416992188e+01 2.707234954833984375e+01 1.074341759085655212e-01 7.917053066194057465e-03 3.460536897182464600e-02 2.403968125581741333e-01
3.003000000000000000e+03 6.903247833251953125e+01 3.025665855407714844e+01 -2.714183926582336426e-01 6.032315731048583984e+00 1.728269219398498535e+00 1.488765925168991089e-01
3.004000000000000000e+03 6.672521972656250000e+01 2.869987106323242188e+01 -2.915341854095458984e-01 5.830269813537597656e+00 1.661620616912841797e+00 -1.869477517902851105e-02
3.005000000000000000e+03 5.272933197021484375e+01 -1.503484487533569336e+00 -2.729827642440795898e+00 5.624198436737060547e+00 8.683111667633056641e-01 -8.090299367904663086e-01
3.006000000000000000e+03 4.239049911499023438e+01 -3.310115814208984375e+01 3.063519299030303955e-01 1.053584933280944824e+00 4.079810678958892822e-01 -3.974543511867523193e-02
3.007000000000000000e+03 6.343284988403320312e+01 -1.891428184509277344e+01 -3.273376226425170898e-01 4.488254547119140625e+00 1.248275041580200195e+00 -1.232088446617126465e+00
3.008000000000000000e+03 5.263952255249023438e+01 -2.502125930786132812e+01 -4.306418448686599731e-02 1.865730404853820801e+00 5.467998385429382324e-01 5.794168114662170410e-01
3.009000000000000000e+03 5.349771118164062500e+01 1.690415763854980469e+01 -8.181370496749877930e-01 4.038942337036132812e+00 9.662415385246276855e-01 -1.249155044555664062e+00
3.010000000000000000e+03 4.545576095581054688e+01 -1.623574447631835938e+01 -6.915889978408813477e-01 1.365254282951354980e+00 2.020995765924453735e-01 -6.601317226886749268e-02
3.011000000000000000e+03 4.853890609741210938e+01 2.768600845336914062e+01 2.640417814254760742e-01 1.752338171005249023e+00 6.049139499664306641e-01 -5.227265954017639160e-01
3.012000000000000000e+03 4.960730361938476562e+01 2.872872352600097656e+01 2.453956604003906250e-01 2.137308597564697266e+00 7.148113250732421875e-01 -5.219860672950744629e-01
3.013000000000000000e+03 7.656956481933593750e+01 -1.257040309906005859e+01 7.847129702568054199e-01 8.738047599792480469e+00 2.856827974319458008e+00 -1.785418540239334106e-01
3.014000000000000000e+03 7.436923980712890625e+01 -1.989460563659667969e+01 -8.113448619842529297e-01 7.755671501159667969e+00 2.083297967910766602e+00 4.138858616352081299e-01
3.015000000000000000e+03 4.111888504028320312e+01 -2.984261703491210938e+01 1.623092889785766602e-01 9.463988542556762695e-01 3.326124548912048340e-01 -7.593188434839248657e-02
3.016000000000000000e+03 5.700810241699218750e+01 1.399815750122070312e+01 4.502598345279693604e-01 7.422389030456542969e+00 2.361794710159301758e+00 3.532131910324096680e+00
3.017000000000000000e+03 4.278409957885742188e+01 -3.104589080810546875e+01 2.430598586797714233e-01 1.037522912025451660e+00 3.841748535633087158e-01 -8.461225032806396484e-02
3.018000000000000000e+03 3.480731201171875000e+01 -2.435265922546386719e+01 -9.171100705862045288e-02 4.694236516952514648e-01 1.133137941360473633e-01 -3.094631619751453400e-02
3.019000000000000000e+03 5.881436157226562500e+01 2.082733154296875000e+01 1.420172452926635742e-01 4.657586097717285156e+00 1.439880967140197754e+00 -2.971554696559906006e-01
3.020000000000000000e+03 5.245934677124023438e+01 2.028939819335937500e+01 -3.368271291255950928e-01 2.776117801666259766e+00 7.317872047424316406e-01 -1.105271458625793457e+00
3.021000000000000000e+03 7.206790924072265625e+01 1.666656112670898438e+01 1.357694983482360840e+00 6.124862670898437500e+00 2.244767189025878906e+00 7.428644299507141113e-01
3.022000000000000000e+03 7.108440399169921875e+01 1.685445594787597656e+01 1.100684881210327148e+00 6.317748546600341797e+00 2.225529909133911133e+00 9.074343442916870117e-01
3.023000000000000000e+03 5.607175445556640625e+01 -2.841079902648925781e+01 -2.006907165050506592e-01 3.251244068145751953e+00 9.151660203933715820e-01 3.697375953197479248e-01
3.024000000000000000e+03 2.630332756042480469e+01 2.563557052612304688e+01 -2.115299366414546967e-02 -8.644816279411315918e-02 -3.228034824132919312e-02 2.745649218559265137e-01
3.025000000000000000e+03 7.360455036163330078e+00 -3.019653511047363281e+01 2.304043807089328766e-02 -1.997529864311218262e-01 -5.301376432180404663e-02 -1.036648675799369812e-01
3.026000000000000000e+03 4.316608047485351562e+01 2.634793281555175781e+01 2.457096576690673828e-01 6.956040263175964355e-01 2.823941111564636230e-01 -1.124753355979919434e-01
3.027000000000000000e+03 3.974352264404296875e+01 1.881045150756835938e+01 -6.448541283607482910e-01 2.678730785846710205e-01 -1.130943223834037781e-01 1.531306058168411255e-01
3.028000000000000000e+03 4.068342590332031250e+01 1.827414703369140625e+01 -7.358496785163879395e-01 3.026164770126342773e-01 -1.299699544906616211e-01 9.604512155055999756e-02
3.029000000000000000e+03 1.392914390563964844e+01 -8.945233345031738281e+00 -9.851852059364318848e-02 1.399919297546148300e-02 -2.535579726099967957e-02 -2.969070896506309509e-02
3.030000000000000000e+03 1.145006179809570312e+01 -5.733797073364257812e+00 -2.988018281757831573e-02 -1.294357352890074253e-03 -9.352361783385276794e-03 -4.642775747925043106e-03
3.031000000000000000e+03 2.331987571716308594e+01 2.329211807250976562e+01 -1.355799138545989990e-01 -1.128663942217826843e-01 -7.453389465808868408e-02 2.778847217559814453e-01
3.032000000000000000e+03 4.643915939331054688e+01 2.433139419555664062e+01 1.895501166582107544e-01 1.005514860153198242e+00 3.585194945335388184e-01 -3.721807897090911865e-01
3.033000000000000000e+03 5.713828659057617188e+01 1.440505123138427734e+01 3.246236741542816162e-01 6.889105796813964844e+00 2.164118766784667969e+00 3.021091461181640625e+00
3.034000000000000000e+03 5.290729904174804688e+01 2.177249145507812500e+01 -2.066401690244674683e-01 2.830724477767944336e+00 7.872253060340881348e-01 -1.000658392906188965e+00
3.035000000000000000e+03 3.296766662597656250e+01 -2.480436897277832031e+01 2.185380272567272186e-02 3.647735416889190674e-01 1.159882023930549622e-01 -1.025401130318641663e-01
3.036000000000000000e+03 4.115588188171386719e+00 1.201879215240478516e+01 5.348914302885532379e-03 -2.837703563272953033e-02 -6.908436305820941925e-03 1.248800288885831833e-02
3.037000000000000000e+03 3.091588020324707031e+01 2.410873794555664062e+01 -9.441432356834411621e-02 -1.993356645107269287e-02 -3.430436551570892334e-02 2.785629630088806152e-01
3.038000000000000000e+03 5.640623474121093750e+01 1.423254299163818359e+01 -5.636066198348999023e-01 8.676383018493652344e+00 2.433832883834838867e+00 2.348868608474731445e+00
3.039000000000000000e+03 4.199528884887695312e+01 2.293929290771484375e+01 -2.754902467131614685e-02 4.411747455596923828e-01 1.240877211093902588e-01 2.815282531082630157e-02
3.040000000000000000e+03 1.175996208190917969e+01 1.904441642761230469e+01 -9.442628175020217896e-02 3.400917164981365204e-03 -2.730760909616947174e-02 8.441649377346038818e-02
3.041000000000000000e+03 5.553919601440429688e+01 1.522209644317626953e+01 -1.054986357688903809e+00 7.323649883270263672e+00 1.880599021911621094e+00 2.876000702381134033e-01
3.042000000000000000e+03 7.453626251220703125e+01 -2.486010932922363281e+01 4.050482437014579773e-02 7.036902427673339844e+00 2.123222112655639648e+00 5.155561566352844238e-01
3.043000000000000000e+03 7.449874877929687500e+01 -2.604632186889648438e+01 3.327180817723274231e-02 6.960466384887695312e+00 2.098121404647827148e+00 4.441108703613281250e-01
3.044000000000000000e+03 1.736197853088378906e+01 2.166682052612304688e+01 -1.751045882701873779e-01 -2.466797828674316406e-02 -5.993176996707916260e-02 2.260181456804275513e-01
3.045000000000000000e+03 7.504273223876953125e+01 -3.221411895751953125e+01 7.091736048460006714e-02 7.028579235076904297e+00 2.129848957061767578e+00 2.348061501979827881e-01
3.046000000000000000e+03 1.330832004547119141e+01 -2.684011459350585938e+01 2.882834523916244507e-02 -9.776268154382705688e-02 -2.068030089139938354e-02 -1.646806895732879639e-01
3.047000000000000000e+03 2.193892097473144531e+01 -2.359447097778320312e+01 2.161540463566780090e-02 1.784006692469120026e-02 1.183664146810770035e-02 -1.906312704086303711e-01
3.048000000000000000e+03 1.004235839843750000e+01 2.195959854125976562e+01 -6.120429933071136475e-02 -3.677377477288246155e-02 -2.939342148602008820e-02 1.056607067584991455e-01
3.049000000000000000e+03 7.185184001922607422e+00 -9.060778617858886719e+00 -2.871926501393318176e-02 -1.078185252845287323e-02 -1.185033563524484634e-02 -2.433459088206291199e-02
3.050000000000000000e+03 5.533511352539062500e+01 1.713030433654785156e+01 -8.371467590332031250e-01 5.451431751251220703e+00 1.384285569190979004e+00 -2.581340968608856201e-01
3.051000000000000000e+03 7.484961700439453125e+01 -2.273915672302246094e+01 -1.606653481721878052e-01 7.441042423248291016e+00 2.184113025665283203e+00 4.753898084163665771e-01
3.052000000000000000e+03 3.908257675170898438e+01 -2.852515029907226562e+01 1.376460492610931396e-01 7.913138866424560547e-01 2.786879837512969971e-01 -9.183005243539810181e-02
3.053000000000000000e+03 7.108390808105468750e+01 -2.646921157836914062e+01 2.279080301523208618e-01 5.762255191802978516e+00 1.797048926353454590e+00 4.034781157970428467e-01
3.054000000000000000e+03 7.123307800292968750e+01 -2.815396118164062500e+01 2.235425114631652832e-01 5.884868144989013672e+00 1.832523226737976074e+00 3.005985617637634277e-01
3.055000000000000000e+03 7.336618041992187500e+01 -2.591476249694824219e+01 1.709200739860534668e-01 6.553854465484619141e+00 2.017432451248168945e+00 4.751644432544708252e-01
3.056000000000000000e+03 7.114743041992187500e+01 2.192028808593750000e+01 6.585138291120529175e-02 6.493576049804687500e+00 1.967828273773193359e+00 5.654750466346740723e-01
3.057000000000000000e+03 5.555779266357421875e+01 1.578106594085693359e+01 -9.977334737777709961e-01 6.709687709808349609e+00 1.713586211204528809e+00 1.364428251981735229e-01
3.058000000000000000e+03 5.579692459106445312e+01 1.597659111022949219e+01 -8.790317773818969727e-01 6.490411758422851562e+00 1.683413982391357422e+00 4.278743267059326172e-01
3.059000000000000000e+03 1.512910366058349609e+01 2.310144615173339844e+01 -1.197713017463684082e-01 -3.153901547193527222e-02 -4.539309442043304443e-02 2.021821588277816772e-01
3.060000000000000000e+03 5.516075897216796875e+01 1.770800018310546875e+01 -7.932925224304199219e-01 5.030287742614746094e+00 1.271098613739013672e+00 -4.346317648887634277e-01
3.061000000000000000e+03 9.734411239624023438e+00 -2.138121604919433594e+01 -1.117488369345664978e-02 -9.148140996694564819e-02 -3.079688921570777893e-02 -1.385919600725173950e-01
3.062000000000000000e+03 7.614967346191406250e+00 2.220248985290527344e+01 -4.008737206459045410e-02 -5.942155793309211731e-02 -2.985267899930477142e-02 8.467078953981399536e-02
3.063000000000000000e+03 1.060310649871826172e+01 -7.216252326965332031e+00 -4.724799841642379761e-02 3.994862199760973454e-04 -1.405455358326435089e-02 -1.467072777450084686e-02
3.064000000000000000e+03 1.177841663360595703e+01 -2.206158828735351562e+01 -1.416247338056564331e-02 -8.031558245420455933e-02 -2.834341675043106079e-02 -1.601783782243728638e-01
3.065000000000000000e+03 1.107943820953369141e+01 2.481369972229003906e+01 -5.740828067064285278e-02 -6.212514638900756836e-02 -3.586002811789512634e-02 1.470250785350799561e-01
3.066000000000000000e+03 1.425226116180419922e+01 -1.603356361389160156e+01 -1.071484237909317017e-01 -1.623988151550292969e-02 -3.701649233698844910e-02 -1.401372402906417847e-01
3.067000000000000000e+03 5.832463741302490234e+00 2.174958229064941406e+01 -2.799357660114765167e-02 -6.702152639627456665e-02 -2.850452996790409088e-02 6.270843744277954102e-02
3.068000000000000000e+03 1.073473453521728516e+01 -9.388507843017578125e+00 -5.922643840312957764e-02 -9.272466413676738739e-04 -1.804610528051853180e-02 -3.218792378902435303e-02
3.069000000000000000e+03 1.021832847595214844e+01 -1.704197311401367188e+01 -6.056117638945579529e-02 -4.274088516831398010e-02 -3.099061921238899231e-02 -1.198709383606910706e-01
3.070000000000000000e+03 1.170452404022216797e+01 -1.975667381286621094e+01 -3.711133822798728943e-02 -6.176095828413963318e-02 -2.966168895363807678e-02 -1.509641706943511963e-01
3.071000000000000000e+03 1.038605213165283203e+01 -1.208992576599121094e+01 -7.886077463626861572e-02 -6.210354156792163849e-03 -2.552133798599243164e-02 -6.751093268394470215e-02
3.072000000000000000e+03 9.116909980773925781e+00 -1.739083290100097656e+01 -4.036858305335044861e-02 -5.419337376952171326e-02 -2.836858667433261871e-02 -1.125257462263107300e-01
3.073000000000000000e+03 5.129981994628906250e+01 1.180004501342773438e+01 -3.631806075572967529e-01 -1.172417216002941132e-02 -1.124714314937591553e-01 3.029631674289703369e-01
3.074000000000000000e+03 5.187554550170898438e+01 1.170820999145507812e+01 -5.350991487503051758e-01 9.010352939367294312e-02 -1.334986835718154907e-01 3.736239671707153320e-01
3.075000000000000000e+03 5.195271301269531250e+01 1.191280555725097656e+01 -3.237912952899932861e-01 4.331018030643463135e-02 -8.414433896541595459e-02 3.378269374370574951e-01
3.076000000000000000e+03 5.202395629882812500e+01 1.208675479888916016e+01 -1.183776464313268661e-02 1.192029267549514771e-01 3.220954909920692444e-02 2.626963257789611816e-01
3.077000000000000000e+03 5.173647689819335938e+01 1.234686470031738281e+01 1.327070593833923340e-01 1.384971588850021362e-01 8.136126399040222168e-02 2.112766951322555542e-01
3.078000000000000000e+03 5.203861999511718750e+01 1.227325153350830078e+01 1.827136874198913574e-01 3.052197583019733429e-02 6.397069990634918213e-02 1.800266355276107788e-01
3.079000000000000000e+03 5.175397872924804688e+01 1.146528530120849609e+01 -8.507462143898010254e-01 5.857273191213607788e-02 -2.376520335674285889e-01 2.048627287149429321e-01
3.080000000000000000e+03 5.198645019531250000e+01 1.246715641021728516e+01 3.359245359897613525e-01 1.186396628618240356e-01 1.363692581653594971e-01 1.081673502922058105e-01
3.081000000000000000e+03 5.183115386962890625e+01 1.269646930694580078e+01 3.951423168182373047e-01 1.781577914953231812e-01 1.719900369644165039e-01 4.916239902377128601e-02
3.082000000000000000e+03 5.058708572387695312e+01 1.200418853759765625e+01 -9.086844325065612793e-02 -2.324817925691604614e-01 -9.700506925582885742e-02 1.453804671764373779e-01
3.083000000000000000e+03 5.046675491333007812e+01 1.278912639617919922e+01 -2.374510914087295532e-01 -4.928320348262786865e-01 -2.190849334001541138e-01 4.105271995067596436e-01
3.084000000000000000e+03 5.081387710571289062e+01 1.280223464965820312e+01 -2.385019510984420776e-02 -4.374770224094390869e-01 -1.383981704711914062e-01 2.031847983598709106e-01
3.085000000000000000e+03 5.172430419921875000e+01 1.210892677307128906e+01 -1.416360586881637573e-01 -1.282358355820178986e-02 -4.633789137005805969e-02 2.977053523063659668e-01
3.086000000000000000e+03 5.126376724243164062e+01 1.266795921325683594e+01 2.314146421849727631e-02 2.141083478927612305e-01 7.117494195699691772e-02 2.448821663856506348e-01
3.087000000000000000e+03 5.095850753784179688e+01 1.242972946166992188e+01 -5.855527240782976151e-03 -1.211144030094146729e-01 -3.809097781777381897e-02 1.621622145175933838e-01
3.088000000000000000e+03 5.048525619506835938e+01 1.267393207550048828e+01 2.007515728473663330e-02 -7.313926815986633301e-01 -2.133952528238296509e-01 2.748216688632965088e-01
3.089000000000000000e+03 5.089895629882812500e+01 1.263438796997070312e+01 6.630320847034454346e-02 -5.798897147178649902e-01 -1.540759503841400146e-01 1.871154606342315674e-01
3.090000000000000000e+03 5.136550903320312500e+01 1.242843532562255859e+01 9.127275645732879639e-02 1.492175739258527756e-02 3.185835480690002441e-02 3.113195896148681641e-01
3.091000000000000000e+03 5.129376602172851562e+01 1.219601058959960938e+01 -4.818337783217430115e-02 2.636079862713813782e-02 -6.546773947775363922e-03 2.920252382755279541e-01
3.092000000000000000e+03 3.058919191360473633e+00 3.710482716560363770e-01 2.120128134265542030e-03 -4.504233947955071926e-04 5.009113810956478119e-04 1.342515606665983796e-04
3.093000000000000000e+03 3.884933710098266602e+00 3.823724985122680664e-01 1.239110599271953106e-03 4.487907863222062588e-04 5.063703865744173527e-04 2.271151315653696656e-04
3.094000000000000000e+03 4.025801181793212891e+00 1.122372508049011230e+00 2.079604892060160637e-03 -6.595732993446290493e-04 4.260095010977238417e-04 8.549253689125180244e-04
3.095000000000000000e+03 1.729085445404052734e+00 1.105241179466247559e+00 -7.015167648205533624e-05 -1.275672839256003499e-04 -5.931568739470094442e-05 -1.114999409765005112e-03
3.096000000000000000e+03 1.433710694313049316e+00 3.652411401271820068e-01 9.798306273296475410e-04 2.224052004748955369e-04 3.606707614380866289e-04 -6.669163849437609315e-05
3.097000000000000000e+03 6.956086158752441406e-01 3.891016840934753418e-01 -1.772875111782923341e-04 -1.920963695738464594e-04 -1.108151627704501152e-04 -3.680290537886321545e-04
3.098000000000000000e+03 3.642284870147705078e-01 9.534841775894165039e-01 -1.530483132228255272e-05 4.435027658473700285e-04 1.284593745367601514e-04 -1.023007207550108433e-04
3.099000000000000000e+03 2.239435195922851562e+00 3.632993698120117188e-01 1.016752677969634533e-03 -6.668356218142434955e-05 2.850207092706114054e-04 -4.966924316249787807e-04
3.100000000000000000e+03 3.251289129257202148e+00 1.111048340797424316e+00 -4.355238343123346567e-05 -4.635253280866891146e-04 -1.521233207313343883e-04 -5.821025697514414787e-04
3.101000000000000000e+03 2.483307361602783203e+00 1.103299379348754883e+00 1.562998164445161819e-03 -3.984343784395605326e-04 3.493691328912973404e-04 -3.942732655559666455e-05
3.102000000000000000e+03 1.042485833168029785e+00 1.129101634025573730e+00 9.120907634496688843e-04 3.990191034972667694e-04 3.933329717256128788e-04 -6.147988606244325638e-04
3.103000000000000000e+03 8.019037246704101562e+00 -5.698001384735107422e-01 1.068988163024187088e-02 3.239165816921740770e-04 3.304139478132128716e-03 -1.952097227331250906e-04
3.104000000000000000e+03 8.802864074707031250e+00 -1.147397160530090332e+00 7.709535304456949234e-03 -1.015978796203853562e-05 2.309812698513269424e-03 7.732264348305761814e-04
3.105000000000000000e+03 7.366508960723876953e+00 -1.208535552024841309e+00 6.680333986878395081e-03 -1.219049561768770218e-03 1.638385350815951824e-03 2.084690378978848457e-03
3.106000000000000000e+03 9.578845977783203125e+00 -1.131019115447998047e+00 8.642895147204399109e-03 -1.433636876754462719e-03 2.162777585908770561e-03 4.640949773602187634e-04
3.107000000000000000e+03 8.069246292114257812e+00 -1.189969897270202637e+00 8.531306870281696320e-03 -1.143814763054251671e-03 2.216247841715812683e-03 1.729240291751921177e-03
3.108000000000000000e+03 9.559395790100097656e+00 -3.910191655158996582e-01 1.371758338063955307e-02 9.613757720217108727e-04 4.403687547892332077e-03 -1.062215742422267795e-04
3.109000000000000000e+03 7.455066680908203125e+00 -6.983375549316406250e-01 9.631957858800888062e-03 -6.484061595983803272e-04 2.695065457373857498e-03 2.594245597720146179e-03
3.110000000000000000e+03 7.593650817871093750e+00 -2.498020380735397339e-01 1.221582107245922089e-02 1.636810135096311569e-03 4.155789036303758621e-03 1.255761948414146900e-03
3.111000000000000000e+03 8.711921691894531250e+00 -4.073971211910247803e-01 1.301483064889907837e-02 -1.410644035786390305e-03 3.481255844235420227e-03 7.751777302473783493e-04
3.112000000000000000e+03 5.357113838195800781e+00 -3.411730229854583740e-01 1.300322939641773701e-03 1.174064585939049721e-03 7.423162460327148438e-04 -1.150475232861936092e-03
3.113000000000000000e+03 4.608037471771240234e+00 -2.835304141044616699e-01 3.470011055469512939e-03 -1.316140289418399334e-03 6.461612647399306297e-04 -9.094516281038522720e-04
3.114000000000000000e+03 4.710992336273193359e+00 -1.023530364036560059e+00 6.482554599642753601e-03 -1.928112353198230267e-03 1.366332639008760452e-03 9.123604977503418922e-04
3.115000000000000000e+03 6.835397243499755859e+00 -7.025487422943115234e-01 7.265306077897548676e-03 -1.709834206849336624e-03 1.666641561314463615e-03 3.768696216866374016e-03
3.116000000000000000e+03 6.662335872650146484e+00 -1.208234548568725586e+00 1.224125549197196960e-02 -1.087752869352698326e-03 3.346050856634974480e-03 1.293317531235516071e-03
3.117000000000000000e+03 5.497839450836181641e+00 -1.081173062324523926e+00 1.227019540965557098e-02 4.356067627668380737e-03 4.987879190593957901e-03 1.498157856985926628e-03
3.118000000000000000e+03 6.861754417419433594e+00 -2.543141841888427734e-01 8.016718551516532898e-03 -2.152282278984785080e-03 1.759330742061138153e-03 1.137977582402527332e-03
3.119000000000000000e+03 6.181279182434082031e+00 -9.049344062805175781e-01 1.225287374109029770e-02 1.542935264296829700e-03 4.138742573559284210e-03 2.729100640863180161e-03
3.120000000000000000e+03 6.095579147338867188e+00 -3.066433668136596680e-01 2.775517990812659264e-03 1.664559938944876194e-03 1.332023413851857185e-03 2.166884951293468475e-03
3.121000000000000000e+03 6.431427001953125000e+00 1.820162296295166016e+00 -4.222055431455373764e-04 -2.813499850162770599e-05 -1.351021637674421072e-04 1.292542583541944623e-04
3.122000000000000000e+03 7.159246444702148438e+00 1.673283696174621582e+00 5.547322216443717480e-04 8.404668187722563744e-05 1.916336768772453070e-04 -1.641468697926029563e-04
3.123000000000000000e+03 1.469936847686767578e+01 1.773380279541015625e+00 -1.822630110837053508e-05 1.275246147997677326e-03 3.771059564314782619e-04 -8.053280762396752834e-04
3.124000000000000000e+03 1.445661830902099609e+01 2.640754699707031250e+00 2.364291111007332802e-03 4.066659603267908096e-04 8.312871214002370834e-04 7.907146937213838100e-04
3.125000000000000000e+03 9.594597816467285156e+00 2.746501922607421875e+00 7.451665005646646023e-04 5.884919082745909691e-04 4.000975168310105801e-04 5.777391488663852215e-04
3.126000000000000000e+03 7.967365264892578125e+00 1.639453649520874023e+00 -1.512553426437079906e-04 -9.500214946456253529e-05 -7.387724326690658927e-05 -1.815006689867004752e-04
3.127000000000000000e+03 1.256250381469726562e+01 1.591072559356689453e+00 3.831726498901844025e-04 -5.896608927287161350e-04 -6.194646994117647409e-05 -7.339599542319774628e-04
3.128000000000000000e+03 1.195436763763427734e+01 1.626313209533691406e+00 1.012234250083565712e-03 6.339566316455602646e-04 4.938572528772056103e-04 4.228666657581925392e-04
3.129000000000000000e+03 1.176981258392333984e+01 2.315680503845214844e+00 2.379828598350286484e-03 -4.372228286229074001e-04 5.827816785313189030e-04 1.548630098113790154e-04
3.130000000000000000e+03 1.128148365020751953e+01 1.782198309898376465e+00 -1.157845137640833855e-03 -4.896325408481061459e-04 -4.942433442920446396e-04 -5.173589452169835567e-04
3.131000000000000000e+03 1.052827453613281250e+01 2.693688869476318359e+00 -2.800845541059970856e-04 -5.727416137233376503e-04 -2.558478445280343294e-04 -6.792841013520956039e-04
3.132000000000000000e+03 9.096383094787597656e+00 2.099678754806518555e+00 -1.271106884814798832e-03 -1.732202799757942557e-04 -4.332981479819864035e-04 -4.962757811881601810e-04
3.133000000000000000e+03 1.042359733581542969e+01 1.879573464393615723e+00 3.053810505662113428e-04 4.286100447643548250e-04 2.201973256887868047e-04 5.862464895471930504e-04
3.134000000000000000e+03 8.796865463256835938e+00 1.672843456268310547e+00 3.698044456541538239e-04 1.560388227517250925e-05 1.156224971055053174e-04 6.831189966760575771e-05
3.135000000000000000e+03 1.232376384735107422e+01 1.987425327301025391e+00 -1.697560073807835579e-03 5.966831231489777565e-04 -3.302631084807217121e-04 5.531995557248592377e-04
3.136000000000000000e+03 1.316373729705810547e+01 1.650711774826049805e+00 -2.079030819004401565e-04 1.698395935818552971e-04 -1.141904795076698065e-05 8.212956599891185760e-04
3.137000000000000000e+03 1.512185192108154297e+01 2.405154466629028320e+00 -1.459739985875785351e-03 -5.422324175015091896e-04 -6.005917093716561794e-04 4.843186761718243361e-04
3.138000000000000000e+03 1.427688312530517578e+01 2.106805086135864258e+00 -3.125745104625821114e-03 2.430903696222230792e-04 -8.647963986732065678e-04 -1.762895990395918489e-04
3.139000000000000000e+03 1.373222541809082031e+01 2.722819328308105469e+00 -2.241426380351185799e-03 -9.490792290307581425e-04 -9.571516420692205429e-04 -1.345843309536576271e-03
3.140000000000000000e+03 1.373459720611572266e+01 1.684970498085021973e+00 -4.533243190962821245e-04 3.380286798346787691e-04 -3.458869832684285939e-05 -9.663488599471747875e-04
3.141000000000000000e+03 1.140512371063232422e+01 2.768403291702270508e+00 -8.309486438520252705e-04 6.357255624607205391e-04 -5.856691132066771388e-05 4.383398918434977531e-04
3.142000000000000000e+03 1.369023799896240234e+01 2.191561698913574219e+00 1.502227620221674442e-03 -2.170853440475184470e-05 4.441557393874973059e-04 9.005296160466969013e-04
3.143000000000000000e+03 8.758806228637695312e+00 2.800725221633911133e+00 -4.968772409483790398e-04 -5.697069573216140270e-04 -3.199752536602318287e-04 -6.446736515499651432e-04
3.144000000000000000e+03 9.561607360839843750e+00 1.777740120887756348e+00 6.317154038697481155e-04 -2.665250794962048531e-04 1.095570914912968874e-04 -4.723361053038388491e-05
3.145000000000000000e+03 8.247145652770996094e+00 2.106858730316162109e+00 2.864505222532898188e-04 3.581588971428573132e-04 1.933828316396102309e-04 4.750197986140847206e-04
3.146000000000000000e+03 1.293806552886962891e+01 2.733785867691040039e+00 1.258753472939133644e-03 9.467299678362905979e-04 6.616450264118611813e-04 1.326336991041898727e-03
3.147000000000000000e+03 1.215185070037841797e+01 2.787881851196289062e+00 -1.070799655281007290e-03 -3.535544965416193008e-04 -4.273062513675540686e-04 -9.036257979460060596e-04
3.148000000000000000e+03 1.426091766357421875e+01 1.688389539718627930e+00 1.486684195697307587e-03 -6.298763328231871128e-04 2.570423530414700508e-04 -2.888939925469458103e-04
3.149000000000000000e+03 1.298928642272949219e+01 2.174380540847778320e+00 -2.692437010409776121e-05 -1.942686212714761496e-04 -6.635789759457111359e-05 -1.500123529694974422e-03
3.150000000000000000e+03 7.861133575439453125e+00 4.031277179718017578e+00 -2.843723632395267487e-04 -5.498147802427411079e-04 -2.502561546862125397e-04 1.388656528433784842e-04
3.151000000000000000e+03 7.410462379455566406e+00 3.546055316925048828e+00 6.564348004758358002e-04 3.658982750494033098e-04 3.066999197471886873e-04 -4.520225338637828827e-04
3.152000000000000000e+03 7.613649845123291016e+00 2.915391683578491211e+00 -2.230791724286973476e-04 4.683699080487713218e-05 -5.287265230435878038e-05 8.935624646255746484e-05
3.153000000000000000e+03 6.688477516174316406e+00 2.444559097290039062e+00 4.695441457442939281e-04 3.085484786424785852e-04 2.334277960471808910e-04 -1.570992026245221496e-04
3.154000000000000000e+03 8.198487281799316406e+00 3.243148326873779297e+00 4.405428480822592974e-04 5.296423914842307568e-04 2.910555631387978792e-04 1.578889932716265321e-04
3.155000000000000000e+03 7.040536880493164062e+00 3.044068336486816406e+00 -5.459687672555446625e-04 -4.104706167709082365e-04 -2.869318122975528240e-04 4.991283640265464783e-04
3.156000000000000000e+03 7.417679786682128906e+00 2.185935020446777344e+00 -2.940464473795145750e-04 -3.533421549946069717e-04 -1.942165836226195097e-04 -1.635755324969068170e-04
3.157000000000000000e+03 2.034901237487792969e+01 5.342971324920654297e+00 -1.094780787825584412e-01 1.026441692374646664e-03 -3.253549337387084961e-02 -2.700596861541271210e-02
3.158000000000000000e+03 2.110828781127929688e+01 5.289262771606445312e+00 -9.591687470674514771e-02 1.174317020922899246e-02 -2.525211125612258911e-02 -2.786671742796897888e-02
3.159000000000000000e+03 1.883009910583496094e+01 5.447298526763916016e+00 -1.271348297595977783e-01 -1.305473409593105316e-02 -4.205686599016189575e-02 -2.060516551136970520e-02
3.160000000000000000e+03 1.954028892517089844e+01 4.657379150390625000e+00 -1.596305817365646362e-01 8.292973507195711136e-04 -4.764038696885108948e-02 -8.789448183961212635e-04
3.161000000000000000e+03 2.104417419433593750e+01 4.551930904388427734e+00 -1.059573739767074585e-01 2.261891728267073631e-03 -3.110864572227001190e-02 -7.837912999093532562e-03
3.162000000000000000e+03 1.878804969787597656e+01 4.708437442779541016e+00 -1.879389733076095581e-01 -2.427765866741538048e-03 -5.711002275347709656e-02 -3.217134624719619751e-03
3.163000000000000000e+03 2.029225349426269531e+01 4.605130195617675781e+00 -1.341064572334289551e-01 2.534853992983698845e-03 -3.947148099541664124e-02 -4.044789355248212814e-03
3.164000000000000000e+03 1.958969306945800781e+01 5.395730018615722656e+00 -1.228229105472564697e-01 1.369742117822170258e-02 -3.273764625191688538e-02 -2.139288000762462616e-02
3.165000000000000000e+03 1.637983322143554688e+01 4.803785800933837891e+00 -2.607581019401550293e-01 3.402816597372293472e-03 -7.720658928155899048e-02 -2.910639741457998753e-04
3.166000000000000000e+03 1.298356437683105469e+01 4.704628467559814453e+00 -5.307725071907043457e-01 -1.502414792776107788e-02 -1.637389957904815674e-01 5.194103717803955078e-02
3.167000000000000000e+03 1.177423858642578125e+01 4.763041496276855469e+00 -1.812827944755554199e+00 -9.784639813005924225e-03 -5.467838048934936523e-01 7.731809467077255249e-02
3.168000000000000000e+03 1.018246746063232422e+01 5.674672126770019531e+00 1.590533182024955750e-02 1.605924814939498901e-01 5.294934287667274475e-02 -1.170662790536880493e-02
3.169000000000000000e+03 1.013370227813720703e+01 5.089568614959716797e+00 -1.913830637931823730e-01 -7.689946144819259644e-02 -8.048475533723831177e-02 1.033568009734153748e-01
3.170000000000000000e+03 9.284529685974121094e+00 5.854344367980957031e+00 -1.179603040218353271e-01 -1.279323548078536987e-01 -7.376779615879058838e-02 7.620292156934738159e-02
3.171000000000000000e+03 9.335826873779296875e+00 5.327028274536132812e+00 -1.248854324221611023e-01 8.487247675657272339e-02 -1.200388744473457336e-02 1.303927451372146606e-01
3.172000000000000000e+03 1.803861427307128906e+01 5.487761020660400391e+00 -1.329836398363113403e-01 1.001198589801788330e-02 -3.689149767160415649e-02 -2.435493469238281250e-02
3.173000000000000000e+03 1.639271926879882812e+01 5.543782234191894531e+00 -1.493812054395675659e-01 1.175363548099994659e-02 -4.128827154636383057e-02 -1.454246044158935547e-02
3.174000000000000000e+03 1.474550819396972656e+01 5.590154647827148438e+00 6.606523692607879639e-02 6.661093235015869141e-02 3.980284929275512695e-02 1.690627634525299072e-02
3.175000000000000000e+03 1.390083026885986328e+01 4.819621562957763672e+00 -5.260897278785705566e-01 3.838672116398811340e-02 -1.463109105825424194e-01 -7.958466187119483948e-03
3.176000000000000000e+03 1.220392990112304688e+01 4.634844303131103516e+00 -4.052926599979400635e-01 2.175517007708549500e-02 -1.150612458586692810e-01 -5.088055506348609924e-02
3.177000000000000000e+03 8.498252868652343750e+00 5.874431133270263672e+00 -2.850640192627906799e-02 -1.088971178978681564e-02 -1.181883364915847778e-02 5.466502904891967773e-02
3.178000000000000000e+03 8.731795310974121094e+00 5.240024566650390625e+00 -2.504386901855468750e-01 -1.493579447269439697e-01 -1.199389845132827759e-01 -2.351467730477452278e-03
3.179000000000000000e+03 7.731923580169677734e+00 5.859321117401123047e+00 -6.122893095016479492e-02 -3.960172832012176514e-02 -3.024919703602790833e-02 7.760030031204223633e-02
3.180000000000000000e+03 8.089856147766113281e+00 5.106512069702148438e+00 -1.777987778186798096e-01 -3.288738057017326355e-02 -6.320585310459136963e-02 2.583528123795986176e-02
3.181000000000000000e+03 1.065108299255371094e+01 4.762430191040039062e+00 -9.637269973754882812e-01 1.084415912628173828e-01 -2.565856277942657471e-01 1.424661129713058472e-01
3.182000000000000000e+03 1.380731105804443359e+01 5.398728847503662109e+00 1.057744026184082031e-01 3.717828309163451195e-03 3.284766897559165955e-02 1.495670177973806858e-03
3.183000000000000000e+03 1.556646156311035156e+01 4.829121589660644531e+00 -3.097754418849945068e-01 -2.390478178858757019e-02 -1.001040711998939514e-01 -2.420372702181339264e-02
3.184000000000000000e+03 1.556915283203125000e+01 5.569469928741455078e+00 -1.138713508844375610e-01 -6.762351840734481812e-02 -5.444846302270889282e-02 -3.074904903769493103e-02
3.185000000000000000e+03 1.719260978698730469e+01 4.777213573455810547e+00 -2.391139417886734009e-01 -1.436743885278701782e-03 -7.216520607471466064e-02 -2.644472988322377205e-03
3.186000000000000000e+03 1.800533866882324219e+01 4.748468875885009766e+00 -2.159049361944198608e-01 2.304781926795840263e-03 -6.408004462718963623e-02 -3.024478908628225327e-03
3.187000000000000000e+03 9.937987327575683594e+00 4.809810638427734375e+00 -6.072127223014831543e-01 -1.474174559116363525e-01 -2.263890504837036133e-01 9.509998373687267303e-03
3.188000000000000000e+03 1.475301074981689453e+01 4.849453449249267578e+00 -4.193639159202575684e-01 2.057729521766304970e-03 -1.251918524503707886e-01 -5.111831426620483398e-02
3.189000000000000000e+03 1.721569061279296875e+01 5.516857624053955078e+00 -1.440163552761077881e-01 -2.570667304098606110e-03 -4.397610947489738464e-02 -1.896901987493038177e-02
3.190000000000000000e+03 1.273300933837890625e+01 4.954238891601562500e+00 -5.397963523864746094e-01 -1.346546038985252380e-02 -1.659785360097885132e-01 -5.126488208770751953e-02
3.191000000000000000e+03 1.144375038146972656e+01 4.709188938140869141e+00 -1.071528196334838867e+00 -2.127604372799396515e-02 -3.278412520885467529e-01 1.416776608675718307e-02
3.192000000000000000e+03 9.219163894653320312e+00 4.895892620086669922e+00 -2.688365578651428223e-01 1.683211624622344971e-01 -3.015461750328540802e-02 1.630465835332870483e-01
3.193000000000000000e+03 6.064543247222900391e+00 3.573476552963256836e+00 3.815592732280492783e-03 -1.608318649232387543e-03 6.621822249144315720e-04 -1.534615992568433285e-03
3.194000000000000000e+03 6.481155872344970703e+00 4.280267238616943359e+00 -3.971802070736885071e-02 -3.423444693908095360e-03 -1.294243987649679184e-02 -1.215392444282770157e-02
3.195000000000000000e+03 5.616716861724853516e+00 2.920150279998779297e+00 -5.007669329643249512e-03 1.211154623888432980e-03 -1.138954306952655315e-03 3.054823318962007761e-04
3.196000000000000000e+03 6.529135227203369141e+00 3.343321800231933594e+00 4.883911460638046265e-04 3.676503896713256836e-03 1.249468536116182804e-03 1.693029538728296757e-03
3.197000000000000000e+03 6.083950042724609375e+00 2.712398290634155273e+00 1.091910642571747303e-03 2.291557379066944122e-03 1.015040441416203976e-03 3.067969111725687981e-03
3.198000000000000000e+03 6.081230640411376953e+00 4.429358959197998047e+00 -2.528289705514907837e-02 7.777071092277765274e-03 -5.251748021692037582e-03 4.004673101007938385e-03
3.199000000000000000e+03 7.072127342224121094e+00 5.498886585235595703e+00 -5.998299643397331238e-02 1.158623397350311279e-02 -1.451902836561203003e-02 3.340637311339378357e-02
3.200000000000000000e+03 5.160166740417480469e+00 3.122973203659057617e+00 3.962113521993160248e-03 -9.664627723395824432e-04 8.986952016130089760e-04 -5.244754138402640820e-04
3.201000000000000000e+03 5.633822441101074219e+00 3.782831668853759766e+00 -1.872234418988227844e-02 -2.774169843178242445e-04 -5.699928384274244308e-03 -5.307197570800781250e-03
3.202000000000000000e+03 6.546886920928955078e+00 4.943883895874023438e+00 -5.109610036015510559e-02 1.005690451711416245e-02 -1.231175940483808517e-02 6.355756893754005432e-03
3.203000000000000000e+03 6.969904899597167969e+00 4.040812969207763672e+00 -1.034190319478511810e-02 4.321158048696815968e-04 -2.972936257719993591e-03 -3.414347302168607712e-03
3.204000000000000000e+03 7.447043418884277344e+00 4.761515140533447266e+00 -8.034937828779220581e-02 -4.171838052570819855e-03 -2.535636536777019501e-02 -1.351242326200008392e-02
3.205000000000000000e+03 5.466835975646972656e+00 1.780064940452575684e+00 -1.700727501884102821e-03 6.584473885595798492e-04 -3.126840456388890743e-04 2.718310104683041573e-03
3.206000000000000000e+03 5.362783908843994141e+00 2.328254699707031250e+00 5.321772769093513489e-03 2.438270021229982376e-03 2.328012837097048759e-03 4.701978468801826239e-04
3.207000000000000000e+03 4.886854648590087891e+00 2.462563276290893555e+00 -4.633026663213968277e-03 -3.010664368048310280e-03 -2.293107332661747932e-03 8.375504694413393736e-05
3.208000000000000000e+03 5.811068058013916016e+00 2.087705373764038086e+00 2.832563826814293861e-03 3.728828392922878265e-03 1.968417782336473465e-03 -3.743045381270349026e-04
3.209000000000000000e+03 4.849430561065673828e+00 1.816301584243774414e+00 3.833690891042351723e-03 -2.739595947787165642e-04 1.067919423803687096e-03 1.087488839402794838e-03
3.210000000000000000e+03 6.373782157897949219e+00 -1.653981924057006836e+00 2.811740618199110031e-03 6.813074578531086445e-04 1.047914382070302963e-03 5.189904477447271347e-04
3.211000000000000000e+03 4.977878570556640625e+00 -1.675424814224243164e+00 7.028561085462570190e-03 2.038686303421854973e-03 2.720174146816134453e-03 3.634180175140500069e-03
3.212000000000000000e+03 5.699524402618408203e+00 -1.621715664863586426e+00 5.424886010587215424e-03 2.458611968904733658e-03 2.365049207583069801e-03 3.767196089029312134e-03
3.213000000000000000e+03 5.394181728363037109e+00 -1.995555639266967773e+00 2.782099414616823196e-03 1.427564653567969799e-03 1.262899255380034447e-03 4.360281862318515778e-03
3.214000000000000000e+03 5.981556415557861328e+00 -1.885626554489135742e+00 5.511030554771423340e-03 6.046902853995561600e-04 1.834716298617422581e-03 8.915112121030688286e-04
3.215000000000000000e+03 1.799764633178710938e+01 3.976000785827636719e+00 2.480243332684040070e-03 -3.230245318263769150e-03 -2.250005636597052217e-04 2.814727602526545525e-03
3.216000000000000000e+03 1.802036094665527344e+01 3.234774589538574219e+00 -1.775025506503880024e-03 -1.078482996672391891e-02 -3.767956746742129326e-03 -3.502602456137537956e-03
3.217000000000000000e+03 1.661771774291992188e+01 3.299204349517822266e+00 2.455328823998570442e-03 8.639237843453884125e-03 3.328370163217186928e-03 5.511380266398191452e-03
3.218000000000000000e+03 1.595736217498779297e+01 3.689948797225952148e+00 -7.293454371392726898e-03 -1.641756854951381683e-02 -7.113306783139705658e-03 -2.541334833949804306e-03
3.219000000000000000e+03 1.739968109130859375e+01 3.258831262588500977e+00 1.560548227280378342e-02 1.943147275596857071e-03 5.264589097350835800e-03 1.565448037581518292e-04
3.220000000000000000e+03 1.468982219696044922e+01 4.175592422485351562e+00 2.160880103474482894e-04 -2.058475278317928314e-03 -5.527161993086338043e-04 -8.141127764247357845e-04
3.221000000000000000e+03 1.387075328826904297e+01 4.179982185363769531e+00 1.214612129842862487e-04 1.339853508397936821e-03 4.383944324217736721e-04 9.135908912867307663e-04
3.222000000000000000e+03 1.305658531188964844e+01 4.214945316314697266e+00 -7.238428224809467793e-04 -8.267436060123145580e-04 -4.651759227272123098e-04 -4.553325416054576635e-04
3.223000000000000000e+03 1.212989234924316406e+01 3.302501678466796875e+00 -8.048022282309830189e-04 -1.247033942490816116e-04 -2.788516867440193892e-04 1.396313775330781937e-03
3.224000000000000000e+03 1.151010513305664062e+01 4.324381351470947266e+00 1.762018800945952535e-04 -3.473458928056061268e-04 -5.134320599609054625e-05 -3.964019997511059046e-04
3.225000000000000000e+03 9.949157714843750000e+00 4.366832733154296875e+00 -2.766925899777561426e-05 3.418635460548102856e-04 9.425828466191887856e-05 -8.705492655280977488e-05
3.226000000000000000e+03 9.932945251464843750e+00 3.384121179580688477e+00 -9.062906610779464245e-04 -3.093451377935707569e-04 -3.646907280199229717e-04 -7.441247580572962761e-04
3.227000000000000000e+03 9.204218864440917969e+00 4.346347332000732422e+00 -3.250001755077391863e-04 -4.419017059262841940e-04 -2.300705673405900598e-04 1.549623702885583043e-04
3.228000000000000000e+03 8.465202331542968750e+00 4.316827774047851562e+00 5.474624776979908347e-05 5.039355019107460976e-04 1.676045212661847472e-04 -2.403632970526814461e-04
3.229000000000000000e+03 8.824538230895996094e+00 3.563970327377319336e+00 -2.865408168872818351e-05 -2.616515266709029675e-04 -8.709168469067662954e-05 2.409583248663693666e-04
3.230000000000000000e+03 1.567019557952880859e+01 3.252961874008178711e+00 6.163856945931911469e-03 5.244910251349210739e-03 3.422630019485950470e-03 -2.624642569571733475e-03
3.231000000000000000e+03 1.384450912475585938e+01 3.663609027862548828e+00 1.281379605643451214e-03 1.635745138628408313e-04 4.334862460382282734e-04 -1.660720561631023884e-03
3.232000000000000000e+03 1.383718013763427734e+01 3.223686933517456055e+00 1.219968311488628387e-03 2.184726530686020851e-03 1.021408475935459137e-03 2.689561108127236366e-03
3.233000000000000000e+03 1.321729660034179688e+01 3.334477663040161133e+00 -2.938130171969532967e-03 -1.522036618553102016e-03 -1.338050002232193947e-03 -1.247682725079357624e-03
3.234000000000000000e+03 1.215228843688964844e+01 3.795787334442138672e+00 3.367993049323558807e-04 -1.034965855069458485e-03 -2.094499504892155528e-04 -1.352009247057139874e-03
3.235000000000000000e+03 1.070322895050048828e+01 3.859316349029541016e+00 -1.215234369738027453e-04 3.274851042078807950e-05 -2.663247687451075763e-05 -6.486402126029133797e-04
3.236000000000000000e+03 9.443907737731933594e+00 3.722287416458129883e+00 6.185394013300538063e-04 6.066273199394345284e-04 3.675500047393143177e-04 -3.481485691736452281e-05
3.237000000000000000e+03 1.542356109619140625e+01 4.099992275238037109e+00 5.599454976618289948e-03 3.780841128900647163e-03 2.814088715240359306e-03 3.596820868551731110e-03
3.238000000000000000e+03 1.725479507446289062e+01 4.004279136657714844e+00 -5.904909223318099976e-03 1.340954564511775970e-03 -1.369186327792704105e-03 4.133326467126607895e-03
3.239000000000000000e+03 1.228913879394531250e+01 4.288514137268066406e+00 -2.998864511027932167e-04 6.483879406005144119e-04 1.045504468493163586e-04 1.999514061026275158e-04
3.240000000000000000e+03 1.145178890228271484e+01 3.832140445709228516e+00 1.190955299534834921e-05 1.831430708989500999e-04 5.851578680449165404e-05 8.840353111736476421e-04
3.241000000000000000e+03 1.072398853302001953e+01 4.351354122161865234e+00 1.428176765330135822e-04 -8.715639705769717693e-05 1.669838457019068301e-05 3.076156717725098133e-04
3.242000000000000000e+03 1.001038265228271484e+01 3.872972011566162109e+00 2.284081856487318873e-04 -4.259113047737628222e-04 -5.925093500991351902e-05 5.739922053180634975e-04
3.243000000000000000e+03 1.456358337402343750e+01 3.201005935668945312e+00 -4.403427708894014359e-03 -6.650213617831468582e-04 -1.520534744486212730e-03 -3.656593617051839828e-03
3.244000000000000000e+03 1.521894454956054688e+01 3.585825443267822266e+00 -1.612772047519683838e-02 -2.037135185673832893e-03 -5.449456628412008286e-03 -4.932658746838569641e-03
3.245000000000000000e+03 1.651922035217285156e+01 4.021458148956298828e+00 1.025403500534594059e-03 7.347033359110355377e-03 2.511731116101145744e-03 -6.995990872383117676e-03
3.246000000000000000e+03 1.525548934936523438e+01 3.170724391937255859e+00 8.647402748465538025e-03 -1.929091638885438442e-03 2.015493344515562057e-03 1.140294945798814297e-03
3.247000000000000000e+03 1.271649932861328125e+01 3.606709003448486328e+00 2.256532665342092514e-03 1.318434253334999084e-03 1.072490005753934383e-03 9.699859656393527985e-04
3.248000000000000000e+03 1.064930152893066406e+01 3.358359575271606445e+00 2.453747147228568792e-04 2.236541622551158071e-04 1.407086674589663744e-04 9.537498117424547672e-04
3.249000000000000000e+03 1.141008567810058594e+01 3.330572128295898438e+00 1.013701257761567831e-04 -2.919249818660318851e-04 -5.716645318898372352e-05 -9.868975030258297920e-04
3.250000000000000000e+03 1.459164142608642578e+01 3.664122581481933594e+00 1.985140610486268997e-03 1.376234460622072220e-03 1.008412451483309269e-03 3.406723029911518097e-03
3.251000000000000000e+03 1.948812866210937500e+01 3.877326726913452148e+00 -1.379415425617480651e-05 4.248847719281911850e-03 1.270516077056527138e-03 -2.511299680918455124e-04
3.252000000000000000e+03 2.017558670043945312e+01 3.088615179061889648e+00 -2.502475166693329811e-03 2.323004184290766716e-03 -5.384129690355621278e-05 -2.057559788227081299e-03
3.253000000000000000e+03 2.097657775878906250e+01 3.774520874023437500e+00 8.483365527354180813e-04 -1.920115610118955374e-04 1.968974975170567632e-04 -1.300221309065818787e-03
3.254000000000000000e+03 1.870165252685546875e+01 3.189713239669799805e+00 -3.479102393612265587e-03 3.114950610324740410e-03 -1.092455277102999389e-04 8.439770317636430264e-04
3.255000000000000000e+03 1.874370384216308594e+01 3.928573846817016602e+00 2.196551067754626274e-03 -1.963908551260828972e-03 6.979273166507482529e-05 -2.777751069515943527e-03
3.256000000000000000e+03 2.091246414184570312e+01 3.037189483642578125e+00 1.015793182887136936e-03 1.111951074562966824e-03 6.383233121596276760e-04 6.790204904973506927e-03
3.257000000000000000e+03 1.943872451782226562e+01 3.138975620269775391e+00 5.693546263501048088e-04 -6.714769551763311028e-05 1.506620756117627025e-04 -6.521283066831529140e-04
3.258000000000000000e+03 2.023234558105468750e+01 3.826456785202026367e+00 4.506594850681722164e-04 -2.420309698209166527e-03 -5.908950697630643845e-04 1.160835032351315022e-03
3.259000000000000000e+03 2.338276290893554688e+01 2.962652921676635742e+00 7.128855679184198380e-03 8.344280533492565155e-03 4.641940817236900330e-03 4.578824737109243870e-04
3.260000000000000000e+03 2.264334869384765625e+01 2.863679885864257812e+00 3.597577568143606186e-03 -5.565177649259567261e-03 -5.902801058255136013e-04 3.445576003286987543e-04
3.261000000000000000e+03 2.270840263366699219e+01 3.601070642471313477e+00 -3.146453527733683586e-03 -8.069103583693504333e-03 -3.364667063578963280e-03 -6.925252731889486313e-03
3.262000000000000000e+03 2.175264739990234375e+01 2.959368467330932617e+00 4.455357557162642479e-04 -2.580862259492278099e-03 -6.405979511328041553e-04 -2.703049685806035995e-03
3.263000000000000000e+03 2.181952476501464844e+01 3.696549654006958008e+00 3.418850246816873550e-03 2.795298583805561066e-03 1.864244695752859116e-03 2.772536827251315117e-03
3.264000000000000000e+03 2.345920753479003906e+01 4.853706359863281250e+00 -1.531008910387754440e-02 -2.144143544137477875e-02 -1.102545764297246933e-02 -1.648955605924129486e-02
3.265000000000000000e+03 2.276159095764160156e+01 4.334619045257568359e+00 -1.865495555102825165e-02 2.683989936485886574e-03 -4.791289567947387695e-03 -1.067151594907045364e-02
3.266000000000000000e+03 2.174504089355468750e+01 5.324580192565917969e+00 -8.247250318527221680e-02 1.042850222438573837e-02 -2.161319926381111145e-02 -3.680440410971641541e-02
3.267000000000000000e+03 2.223744201660156250e+01 5.344407081604003906e+00 -7.445617765188217163e-02 1.120664551854133606e-02 -1.897486113011837006e-02 -4.266847297549247742e-02
3.268000000000000000e+03 2.311081886291503906e+01 5.164704799652099609e+00 -5.217804387211799622e-02 -1.761998049914836884e-02 -2.093940787017345428e-02 -4.389652982354164124e-02
3.269000000000000000e+03 2.188203620910644531e+01 4.431602478027343750e+00 -6.776097416877746582e-02 5.701486370526254177e-04 -2.015724591910839081e-02 -9.316732175648212433e-03
3.270000000000000000e+03 2.270535469055175781e+01 5.283616065979003906e+00 -7.553628087043762207e-02 -1.370758167468011379e-03 -2.307211235165596008e-02 -5.005544796586036682e-02
3.271000000000000000e+03 2.265127754211425781e+01 4.880835533142089844e+00 -5.815136060118675232e-02 -2.693142974749207497e-03 -1.825335249304771423e-02 -3.363088145852088928e-02
3.272000000000000000e+03 2.204319572448730469e+01 4.953784942626953125e+00 -7.827927917242050171e-02 8.595311082899570465e-03 -2.090519107878208160e-02 -3.489213436841964722e-02
3.273000000000000000e+03 6.957012653350830078e+00 3.898485600948333740e-01 9.565569780534133315e-05 1.575052156113088131e-04 7.594827184220775962e-05 -4.857769454247318208e-05
3.274000000000000000e+03 7.073252201080322266e+00 1.129848599433898926e+00 -2.144573954865336418e-04 -1.567473809700459242e-04 -1.113614343921653926e-04 8.055353828240185976e-05
3.275000000000000000e+03 6.319694042205810547e+00 1.129848599433898926e+00 1.888579427031800151e-04 8.631848322693258524e-05 8.255292777903378010e-05 -5.483319546328857541e-05
3.276000000000000000e+03 6.201207637786865234e+00 3.898485600948333740e-01 -4.685352541855536401e-05 -2.970537934743333608e-05 -2.296767161169555038e-05 -1.674017198638466652e-06
3.277000000000000000e+03 8.670824050903320312e+00 3.840262591838836670e-01 3.513008778099901974e-06 3.587130922824144363e-04 1.086678312276490033e-04 7.607232691952958703e-05
3.278000000000000000e+03 7.878619670867919922e+00 1.127028346061706543e+00 2.541816502343863249e-05 9.254500037059187889e-05 3.538894816301763058e-05 -5.826323467772454023e-05
3.279000000000000000e+03 7.779973506927490234e+00 3.870283365249633789e-01 2.119105192832648754e-05 -2.952185168396681547e-04 -8.220823656301945448e-05 2.852631041605491191e-05
3.280000000000000000e+03 9.562618255615234375e+00 3.869979083538055420e-01 -4.684001032728701830e-05 -2.653046976774930954e-04 -9.364341531181707978e-05 -1.369578967569395900e-04
3.281000000000000000e+03 9.595384597778320312e+00 1.126997947692871094e+00 -1.337302819592878222e-05 2.024141140282154083e-04 5.671232793247327209e-05 2.913652278948575258e-04
3.282000000000000000e+03 8.736529350280761719e+00 1.124026298522949219e+00 7.463542715413495898e-05 -1.344387565040960908e-04 -1.794099807739257812e-05 -3.898155046044848859e-05
3.283000000000000000e+03 3.818112134933471680e+00 -2.739334106445312500e-01 4.515655338764190674e-03 6.399403791874647141e-04 1.546678715385496616e-03 6.861056317575275898e-04
3.284000000000000000e+03 3.930468320846557617e+00 -1.013933420181274414e+00 3.655445994809269905e-03 -2.890303439926356077e-04 1.009924686513841152e-03 6.160744815133512020e-04
3.285000000000000000e+03 3.030747890472412109e+00 -3.350256085395812988e-01 2.864652080461382866e-03 -3.517162404023110867e-04 7.538807694800198078e-04 3.252613532822579145e-04
3.286000000000000000e+03 2.223073005676269531e+00 -3.565944731235504150e-01 1.675972365774214268e-03 3.291253597126342356e-05 5.126654868945479393e-04 7.349314983002841473e-04
3.287000000000000000e+03 1.423210144042968750e+00 -3.682287633419036865e-01 6.847340264357626438e-04 3.490993403829634190e-04 3.101500042248517275e-04 4.129641456529498100e-05
3.288000000000000000e+03 3.579095304012298584e-01 -9.568480253219604492e-01 1.223122002556920052e-03 1.020878553390502930e-03 6.732001784257590771e-04 -2.294144796906039119e-04
3.289000000000000000e+03 6.884766817092895508e-01 -3.942328691482543945e-01 -8.574749808758497238e-04 -6.740721291862428188e-04 -4.594641213770955801e-04 1.056806882843375206e-03
3.290000000000000000e+03 3.199677228927612305e+00 -1.075025558471679688e+00 3.330569481477141380e-03 -4.344708286225795746e-04 8.688296074979007244e-04 2.069560810923576355e-03
3.291000000000000000e+03 2.448575496673583984e+00 -1.096594452857971191e+00 1.715575344860553741e-03 2.035986399278044701e-04 5.757521721534430981e-04 1.383705530315637589e-03
3.292000000000000000e+03 1.705285787582397461e+00 -1.108228802680969238e+00 1.141019514761865139e-03 5.829159636050462723e-04 5.171806551516056061e-04 1.630664104595780373e-03
3.293000000000000000e+03 1.027125477790832520e+00 -1.134232878684997559e+00 9.534247219562530518e-04 3.339266913826577365e-05 2.960452111437916756e-04 4.363795742392539978e-04
3.294000000000000000e+03 4.037366485595703125e+01 1.113951778411865234e+01 -4.054013788700103760e-01 -1.913758367300033569e-02 -1.273616850376129150e-01 5.557427182793617249e-02
3.295000000000000000e+03 3.962160873413085938e+01 1.131359195709228516e+01 -4.401799440383911133e-01 1.794674433767795563e-02 -1.266699582338333130e-01 9.903569519519805908e-02
3.296000000000000000e+03 4.275807952880859375e+01 1.133976268768310547e+01 -3.452700376510620117e-01 -8.315201848745346069e-03 -1.060755699872970581e-01 -1.255445927381515503e-01
3.297000000000000000e+03 3.886851119995117188e+01 1.148583889007568359e+01 -4.327710866928100586e-01 -4.533964022994041443e-02 -1.434332132339477539e-01 1.073945313692092896e-01
3.298000000000000000e+03 4.112229919433593750e+01 1.096372222900390625e+01 -3.242740035057067871e-01 4.406629502773284912e-02 -8.406231552362442017e-02 2.578250505030155182e-02
3.299000000000000000e+03 4.054919052124023438e+01 1.186267280578613281e+01 -4.991377890110015869e-01 8.367795497179031372e-02 -1.246379464864730835e-01 2.823825553059577942e-02
3.300000000000000000e+03 4.185790634155273438e+01 1.078891849517822266e+01 -2.081675380468368530e-01 -9.453671053051948547e-03 -6.528636068105697632e-02 -2.385938540101051331e-02
3.301000000000000000e+03 4.253778457641601562e+01 1.062180137634277344e+01 -8.377318084239959717e-02 3.790822625160217285e-02 -1.375948637723922729e-02 -3.108088485896587372e-02
3.302000000000000000e+03 4.325923919677734375e+01 1.099616241455078125e+01 -1.257035732269287109e-01 -5.780120193958282471e-02 -5.505143105983734131e-02 -6.353511661291122437e-02
3.303000000000000000e+03 3.901419448852539062e+01 1.221245574951171875e+01 -5.030472278594970703e-01 4.463338106870651245e-02 -1.375241577625274658e-01 1.746691912412643433e-01
3.304000000000000000e+03 4.131274795532226562e+01 1.168514633178710938e+01 -4.566829800605773926e-01 5.270030722022056580e-02 -1.211948022246360779e-01 -2.913553826510906219e-02
3.305000000000000000e+03 4.206327819824218750e+01 1.150861167907714844e+01 -4.176875948905944824e-01 9.266314655542373657e-02 -9.750733524560928345e-02 -6.693379580974578857e-02
3.306000000000000000e+03 3.978221511840820312e+01 1.203847694396972656e+01 -5.280823111534118652e-01 2.236774191260337830e-02 -1.517143845558166504e-01 8.211718499660491943e-02
3.307000000000000000e+03 3.674169540405273438e+01 1.212182044982910156e+01 -4.347443953156471252e-02 -2.404162436723709106e-01 -8.516720682382583618e-02 1.845577955245971680e-01
3.308000000000000000e+03 3.698434829711914062e+01 1.262278556823730469e+01 -4.498994052410125732e-01 -8.957717567682266235e-02 -1.618429720401763916e-01 2.294509410858154297e-01
3.309000000000000000e+03 3.825864791870117188e+01 1.234777259826660156e+01 -5.073872208595275879e-01 -7.864115759730339050e-03 -1.545753926038742065e-01 2.353784888982772827e-01
3.310000000000000000e+03 3.804425811767578125e+01 1.163198184967041016e+01 -2.812253236770629883e-01 1.409943122416734695e-02 -8.013776689767837524e-02 1.465115845203399658e-01
3.311000000000000000e+03 3.756306838989257812e+01 1.246899890899658203e+01 -5.130169391632080078e-01 -3.777107968926429749e-02 -1.652363985776901245e-01 3.359148502349853516e-01
3.312000000000000000e+03 3.719634628295898438e+01 1.177657890319824219e+01 -7.447838038206100464e-02 -7.221397757530212402e-02 -4.400770366191864014e-02 7.170164585113525391e-02
3.313000000000000000e+03 3.663000488281250000e+01 1.268585968017578125e+01 -4.802217483520507812e-01 -2.981239259243011475e-01 -2.335036993026733398e-01 3.354725837707519531e-01
3.314000000000000000e+03 3.645061874389648438e+01 1.246910285949707031e+01 -1.730505824089050293e-01 -2.994926571846008301e-01 -1.417629718780517578e-01 2.308426350355148315e-01
3.315000000000000000e+03 3.871810150146484375e+01 1.072134113311767578e+01 2.542085945606231689e-03 5.252502858638763428e-03 2.338376594707369804e-03 7.566949352622032166e-04
3.316000000000000000e+03 3.946144485473632812e+01 1.055411434173583984e+01 -1.543308462714776397e-04 -4.795328713953495026e-03 -1.484897918999195099e-03 -1.732684904709458351e-03
3.317000000000000000e+03 4.214028167724609375e+01 9.757813453674316406e+00 -3.045539488084614277e-04 8.006323478184640408e-04 1.488235284341499209e-04 5.428497388493269682e-05
3.318000000000000000e+03 3.857750320434570312e+01 9.993584632873535156e+00 -3.132920246571302414e-03 -6.518148351460695267e-03 -2.895320532843470573e-03 -1.911612926051020622e-03
3.319000000000000000e+03 4.160499191284179688e+01 1.006451320648193359e+01 1.730409450829029083e-03 -1.674803497735410929e-04 4.688787448685616255e-04 -2.921956765931099653e-04
3.320000000000000000e+03 4.144534683227539062e+01 9.334435462951660156e+00 -6.834061816334724426e-03 -5.229459144175052643e-03 -3.619056427851319313e-03 2.356512704864144325e-03
3.321000000000000000e+03 4.092973709106445312e+01 1.022012138366699219e+01 -3.039596194867044687e-04 -2.022007713094353676e-03 -6.977901794016361237e-04 6.373469368554651737e-04
3.322000000000000000e+03 4.020204162597656250e+01 1.038670063018798828e+01 4.753937246277928352e-04 4.427926149219274521e-03 1.470995950512588024e-03 1.747438509482890368e-04
3.323000000000000000e+03 4.077485275268554688e+01 9.490621566772460938e+00 5.640556337311863899e-04 7.768760900944471359e-03 2.499844878911972046e-03 -1.519234851002693176e-03
3.324000000000000000e+03 4.005191802978515625e+01 9.657777786254882812e+00 -6.391099304892122746e-05 -5.585602484643459320e-03 -1.694853999651968479e-03 -1.866671140305697918e-03
3.325000000000000000e+03 3.931608200073242188e+01 9.825769424438476562e+00 2.861012239009141922e-03 5.606193561106920242e-03 2.540161600336432457e-03 1.195560325868427753e-03
3.326000000000000000e+03 1.463219356536865234e+01 1.208772420883178711e+00 1.990072429180145264e-03 1.171323237940669060e-03 9.484187467023730278e-04 -1.992608486034441739e-05
3.327000000000000000e+03 1.413865852355957031e+01 3.089686632156372070e-01 -2.006718859774991870e-04 3.593454312067478895e-04 4.760206138598732650e-05 2.366320404689759016e-05
3.328000000000000000e+03 1.413591098785400391e+01 8.441513180732727051e-01 -8.232835534727200866e-05 -5.226156790740787983e-04 -1.814832066884264350e-04 9.668475831858813763e-04
3.329000000000000000e+03 1.324289608001708984e+01 1.113969683647155762e+00 4.298585408832877874e-04 2.778132038656622171e-04 2.123015292454510927e-04 -2.155023248633369803e-04
3.330000000000000000e+03 1.484628582000732422e+01 5.796153545379638672e-01 3.227236675229505636e-06 -1.850261614890769124e-04 -5.453967969515360892e-05 -6.427011248888447881e-05
3.331000000000000000e+03 1.338759136199951172e+01 2.497024983167648315e-01 1.219631303683854640e-04 -3.296259092167019844e-04 -6.229883729247376323e-05 6.062456668587401509e-05
3.332000000000000000e+03 1.422421169281005859e+01 1.250681281089782715e+00 3.442690067458897829e-04 -2.335164754185825586e-04 3.322576230857521296e-05 -7.057643961161375046e-04
3.333000000000000000e+03 1.355335903167724609e+01 8.086416125297546387e-01 -7.913326262496411800e-04 2.618817052280064672e-05 -2.295433368999511003e-04 -3.211079747416079044e-04
3.334000000000000000e+03 1.374464988708496094e+01 1.230049014091491699e+00 1.183182233944535255e-03 -7.732653175480663776e-04 1.229750923812389374e-04 5.651756073348224163e-04
3.335000000000000000e+03 1.038163661956787109e+01 3.719484806060791016e-01 9.405725722899660468e-05 1.008825565804727376e-04 5.848194632562808692e-05 1.426278759026899934e-04
3.336000000000000000e+03 1.112833786010742188e+01 3.352923989295959473e-01 -7.207932503661140800e-05 8.669067028677091002e-05 4.383402028906857595e-06 -1.064014140865765512e-04
3.337000000000000000e+03 1.187404060363769531e+01 3.023687005043029785e-01 1.050982173183001578e-04 -1.991995522985234857e-04 -2.823039903887547553e-05 6.548564851982519031e-05
3.338000000000000000e+03 1.187335777282714844e+01 1.043116807937622070e+00 -2.351279836148023605e-04 -6.426527761504985392e-06 -7.246635504998266697e-05 -8.759512274991720915e-05
3.339000000000000000e+03 1.261872673034667969e+01 2.733090519905090332e-01 -3.449187352089211345e-05 2.741891657933592796e-04 7.190918404376134276e-05 -6.784859579056501389e-05
3.340000000000000000e+03 1.261125278472900391e+01 1.014356493949890137e+00 5.008361040381714702e-05 -1.369417418572993483e-06 1.461425836168928072e-05 2.205698256148025393e-04
3.341000000000000000e+03 1.039453697204589844e+01 1.112098097801208496e+00 -2.880924730561673641e-04 -5.378885907703079283e-05 -1.025644014589488506e-04 -4.518491914495825768e-04
3.342000000000000000e+03 1.113444709777832031e+01 1.075741291046142578e+00 3.821649879682809114e-04 -7.473654113709926605e-05 9.222853259416297078e-05 2.240805188193917274e-04
3.343000000000000000e+03 5.544353008270263672e+00 1.129850029945373535e+00 3.054389380849897861e-04 8.070672629401087761e-04 3.337518428452312946e-04 3.436784027144312859e-04
3.344000000000000000e+03 4.790751457214355469e+00 1.129850029945373535e+00 -4.778730799444019794e-04 1.448367402190342546e-04 -9.991089609684422612e-05 1.229396788403391838e-03
3.345000000000000000e+03 4.676749229431152344e+00 3.898500204086303711e-01 1.224841107614338398e-03 -5.160957807675004005e-04 2.126235922332853079e-04 1.884442317532375455e-04
3.346000000000000000e+03 5.432579994201660156e+00 3.898500204086303711e-01 2.190531668020412326e-04 3.649569698609411716e-04 1.752030366333201528e-04 3.797293757088482380e-04
3.347000000000000000e+03 1.112103080749511719e+01 -4.428110718727111816e-01 1.403463725000619888e-02 1.159944222308695316e-03 4.558374639600515366e-03 -7.276475662365555763e-04
3.348000000000000000e+03 1.187371921539306641e+01 -4.752737879753112793e-01 1.379535626620054245e-02 -1.395933330059051514e-03 3.719826927408576012e-03 -9.334209607914090157e-04
3.349000000000000000e+03 1.111492252349853516e+01 -1.183259963989257812e+00 8.352076634764671326e-03 -1.600158284418284893e-03 2.025575609877705574e-03 -5.763656226918101311e-04
3.350000000000000000e+03 1.262644767761230469e+01 -5.069373250007629395e-01 1.259611267596483231e-02 1.339157111942768097e-03 4.180580843240022659e-03 -1.218852121382951736e-03
3.351000000000000000e+03 1.035515594482421875e+01 -1.148333072662353516e+00 8.258530870079994202e-03 4.297636041883379221e-04 2.606488298624753952e-03 -2.759226772468537092e-04
3.352000000000000000e+03 1.036805534362792969e+01 -4.081833958625793457e-01 1.407031062990427017e-02 -1.426919014193117619e-03 3.793017473071813583e-03 -3.352409112267196178e-04
3.353000000000000000e+03 1.263392257690429688e+01 -1.248021602630615234e+00 7.019882090389728546e-03 -1.816612668335437775e-03 1.560980919748544693e-03 -2.146193990483880043e-03
3.354000000000000000e+03 1.187440204620361328e+01 -1.216021895408630371e+00 7.328136358410120010e-03 5.859676166437566280e-04 2.374231116846203804e-03 -1.403367030434310436e-03
3.355000000000000000e+03 3.787689590454101562e+01 1.088152790069580078e+01 -4.743009922094643116e-04 -5.592494737356901169e-03 -1.820038771256804466e-03 -8.587422053096815944e-05
3.356000000000000000e+03 3.687048339843750000e+01 1.029800510406494141e+01 -5.381897557526826859e-03 -1.483568456023931503e-03 -2.059639897197484970e-03 -1.499538891948759556e-03
3.357000000000000000e+03 3.774330520629882812e+01 1.015336227416992188e+01 4.989060107618570328e-03 3.664994612336158752e-03 2.596216276288032532e-03 1.377368462271988392e-03
3.358000000000000000e+03 3.632341003417968750e+01 1.056402301788330078e+01 2.135443268343806267e-03 -5.994050297886133194e-03 -1.157582155428826809e-03 4.730568733066320419e-03
3.359000000000000000e+03 3.699481582641601562e+01 1.102758884429931641e+01 3.223095089197158813e-03 8.624309673905372620e-03 3.554221242666244507e-03 -1.978068612515926361e-03
3.360000000000000000e+03 1.483313274383544922e+01 -3.616165518760681152e-01 1.198637881316244602e-03 -8.463288540951907635e-04 1.056926848832517862e-04 -1.596684800460934639e-03
3.361000000000000000e+03 1.534506702423095703e+01 -8.866766691207885742e-01 9.641435462981462479e-04 4.086903762072324753e-03 1.515314215794205666e-03 -9.876560652628540993e-04
3.362000000000000000e+03 1.413932895660400391e+01 -4.292643368244171143e-01 5.252083297818899155e-03 8.238415466621518135e-04 1.822777441702783108e-03 -1.979567809030413628e-03
3.363000000000000000e+03 1.338562393188476562e+01 -4.926638007164001465e-01 9.984215721487998962e-03 -1.585718826390802860e-03 2.519549103453755379e-03 -1.268192310817539692e-03
3.364000000000000000e+03 1.341033267974853516e+01 -1.234521746635437012e+00 5.808102898299694061e-03 -3.936876964871771634e-05 1.730620278976857662e-03 -3.770196111872792244e-03
3.365000000000000000e+03 1.419171237945556641e+01 -1.172296047210693359e+00 6.682816892862319946e-03 -2.437856048345565796e-03 1.273488276638090611e-03 -3.913078922778367996e-03
3.366000000000000000e+03 1.491319084167480469e+01 -1.105822205543518066e+00 5.477396305650472641e-03 3.499527461826801300e-03 2.693077083677053452e-03 -5.222767591476440430e-03
3.367000000000000000e+03 5.502747726440429688e+01 1.109828948974609375e+01 4.005152511596679688e+01 4.888022899627685547e+00 1.348186492919921875e+01 1.113128376007080078e+01
3.368000000000000000e+03 5.503018569946289062e+01 1.107901096343994141e+01 3.850494003295898438e+01 1.683743476867675781e+01 1.660271263122558594e+01 2.412917900085449219e+01
3.369000000000000000e+03 5.503659820556640625e+01 1.106062889099121094e+01 3.557717895507812500e+01 2.818523216247558594e+01 1.912872314453125000e+01 2.965139770507812500e+01
3.370000000000000000e+03 5.504646301269531250e+01 1.104384613037109375e+01 3.116464233398437500e+01 4.138915634155273438e+01 2.176613998413085938e+01 3.203913879394531250e+01
3.371000000000000000e+03 5.505941009521484375e+01 1.102930545806884766e+01 2.615493202209472656e+01 5.284233093261718750e+01 2.369917869567871094e+01 3.133791542053222656e+01
3.372000000000000000e+03 5.507493591308593750e+01 1.101756286621093750e+01 2.180300903320312500e+01 6.345690536499023438e+01 2.557797431945800781e+01 2.758440589904785156e+01
3.373000000000000000e+03 5.509245300292968750e+01 1.100906848907470703e+01 1.842954635620117188e+01 7.108225250244140625e+01 2.685354042053222656e+01 2.183130645751953125e+01
3.374000000000000000e+03 5.511128997802734375e+01 1.100414752960205078e+01 1.718671035766601562e+01 7.583290863037109375e+01 2.790588569641113281e+01 1.462025165557861328e+01
3.375000000000000000e+03 5.513072204589843750e+01 1.100298690795898438e+01 1.824075698852539062e+01 7.732875061035156250e+01 2.867085266113281250e+01 7.115260601043701172e+00
3.376000000000000000e+03 5.515001296997070312e+01 1.100563144683837891e+01 2.065233802795410156e+01 7.551390075683593750e+01 2.884987068176269531e+01 4.420080184936523438e-01
3.377000000000000000e+03 5.516841506958007812e+01 1.101198101043701172e+01 2.605339241027832031e+01 7.193716430664062500e+01 2.939716720581054688e+01 -4.556305408477783203e+00
3.378000000000000000e+03 5.518523025512695312e+01 1.102179145812988281e+01 3.047974395751953125e+01 6.589765167236328125e+01 2.891321754455566406e+01 -7.814941883087158203e+00
3.379000000000000000e+03 5.519981384277343750e+01 1.103468894958496094e+01 3.681673812866210938e+01 6.091100311279296875e+01 2.931832122802734375e+01 -8.196649551391601562e+00
3.380000000000000000e+03 5.521160888671875000e+01 1.105017757415771484e+01 4.113272857666015625e+01 5.455191040039062500e+01 2.870539283752441406e+01 -7.111148834228515625e+00
3.381000000000000000e+03 5.522016143798828125e+01 1.106766605377197266e+01 4.512041854858398438e+01 5.113936233520507812e+01 2.887793350219726562e+01 -4.051176548004150391e+00
3.382000000000000000e+03 5.522514724731445312e+01 1.108648586273193359e+01 4.723172760009765625e+01 4.813082122802734375e+01 2.860876464843750000e+01 1.379842758178710938e-01
3.383000000000000000e+03 5.522637176513671875e+01 1.110591506958007812e+01 4.777655792236328125e+01 4.758397293090820312e+01 2.860815811157226562e+01 4.660920619964599609e+00
3.384000000000000000e+03 5.522378921508789062e+01 1.112521171569824219e+01 4.658467864990234375e+01 4.908924102783203125e+01 2.870217704772949219e+01 9.266737937927246094e+00
3.385000000000000000e+03 5.521750259399414062e+01 1.114363670349121094e+01 4.353545761108398438e+01 5.209474182128906250e+01 2.868906021118164062e+01 1.315651798248291016e+01
3.386000000000000000e+03 5.520774841308593750e+01 1.116048431396484375e+01 3.921561431884765625e+01 5.724037170410156250e+01 2.893679618835449219e+01 1.565746784210205078e+01
3.387000000000000000e+03 5.519490051269531250e+01 1.117511081695556641e+01 3.330472564697265625e+01 6.275636672973632812e+01 2.881832695007324219e+01 1.646756744384765625e+01
3.388000000000000000e+03 5.517945098876953125e+01 1.118695640563964844e+01 2.735766410827636719e+01 6.892903137207031250e+01 2.888600730895996094e+01 1.479729080200195312e+01
3.389000000000000000e+03 5.516199111938476562e+01 1.119556808471679688e+01 2.109556770324707031e+01 7.381936645507812500e+01 2.847448158264160156e+01 1.090419578552246094e+01
3.390000000000000000e+03 5.514318847656250000e+01 1.120061492919921875e+01 1.624737930297851562e+01 7.693184661865234375e+01 2.795376777648925781e+01 4.849464416503906250e+00
3.391000000000000000e+03 5.512376022338867188e+01 1.120190525054931641e+01 1.283876419067382812e+01 7.703192138671875000e+01 2.696120643615722656e+01 -2.488609075546264648e+00
3.392000000000000000e+03 5.510445785522460938e+01 1.119938850402832031e+01 1.166155529022216797e+01 7.384324645996093750e+01 2.565144157409667969e+01 -1.028497791290283203e+01
3.393000000000000000e+03 5.508600997924804688e+01 1.119316196441650391e+01 1.211339759826660156e+01 6.728766632080078125e+01 2.382031822204589844e+01 -1.721433258056640625e+01
3.394000000000000000e+03 5.506912994384765625e+01 1.118346309661865234e+01 1.449483966827392578e+01 5.791132354736328125e+01 2.172184944152832031e+01 -2.253453636169433594e+01
3.395000000000000000e+03 5.505446243286132812e+01 1.117066383361816406e+01 1.710268974304199219e+01 4.659114456176757812e+01 1.910815048217773438e+01 -2.550641059875488281e+01
3.396000000000000000e+03 5.504256439208984375e+01 1.115525436401367188e+01 2.057622718811035156e+01 3.397457885742187500e+01 1.636524200439453125e+01 -2.560881233215332031e+01
3.397000000000000000e+03 5.503389358520507812e+01 1.113782215118408203e+01 2.293825531005859375e+01 2.155884742736816406e+01 1.334913063049316406e+01 -2.294435310363769531e+01
3.398000000000000000e+03 5.502878570556640625e+01 1.111903667449951172e+01 2.675338363647460938e+01 7.747265338897705078e+00 1.035019493103027344e+01 -1.306125164031982422e+01
