# el_label, x, y, sXX, sYY, sZZ, sXY
1.000000000000000000e+00 1.868996047973632812e+01 4.354629039764404297e+00 4.885595321655273438e+00 -1.412195086479187012e+00 1.042020082473754883e+00 -2.115082502365112305e+00
2.000000000000000000e+00 1.888887596130371094e+01 4.361678123474121094e+00 7.816854953765869141e+00 5.271660685539245605e-01 2.503206253051757812e+00 2.654367685317993164e-01
3.000000000000000000e+00 1.908779144287109375e+01 4.368727207183837891e+00 6.447319984436035156e+00 -2.408586442470550537e-01 1.861938357353210449e+00 -1.920267790555953979e-01
4.000000000000000000e+00 1.928670883178710938e+01 4.375776767730712891e+00 5.785022735595703125e+00 4.802787303924560547e-02 1.749915242195129395e+00 4.717837274074554443e-02
5.000000000000000000e+00 1.868219184875488281e+01 4.412515163421630859e+00 1.489071559906005859e+01 -1.936471104621887207e+00 3.886273145675659180e+00 1.993536055088043213e-01
6.000000000000000000e+00 1.887593078613281250e+01 4.458154678344726562e+00 9.451532363891601562e+00 1.364855170249938965e-01 2.876405239105224609e+00 5.315001010894775391e-01
7.000000000000000000e+00 1.906966781616210938e+01 4.503794193267822266e+00 8.781926155090332031e+00 2.648352682590484619e-01 2.714028358459472656e+00 1.216531634330749512e+00
8.000000000000000000e+00 1.926340484619140625e+01 4.549434185028076172e+00 7.331222534179687500e+00 -2.255491167306900024e-02 2.192600250244140625e+00 8.854693770408630371e-01
9.000000000000000000e+00 1.866330337524414062e+01 4.467781066894531250e+00 1.840206336975097656e+01 7.570570707321166992e-01 5.747736454010009766e+00 4.891641616821289062e+00
1.000000000000000000e+01 1.884444999694824219e+01 4.550264835357666016e+00 1.283003520965576172e+01 4.132089316844940186e-01 3.972973346710205078e+00 2.863781929016113281e+00
1.100000000000000000e+01 1.902559661865234375e+01 4.632748603820800781e+00 9.815007209777832031e+00 9.024107456207275391e-01 3.215225458145141602e+00 2.525866508483886719e+00
1.200000000000000000e+01 1.920674133300781250e+01 4.715232372283935547e+00 8.471858024597167969e+00 7.385118603706359863e-01 2.763110876083374023e+00 2.559972763061523438e+00
1.300000000000000000e+01 1.863401794433593750e+01 4.518312454223632812e+00 1.941855430603027344e+01 4.743056774139404297e+00 7.248483180999755859e+00 8.709227561950683594e+00
1.400000000000000000e+01 1.879563903808593750e+01 4.634483814239501953e+00 1.356310749053955078e+01 2.869905948638916016e+00 4.929903984069824219e+00 5.693908214569091797e+00
1.500000000000000000e+01 1.895726203918457031e+01 4.750655174255371094e+00 1.076627540588378906e+01 2.255327701568603516e+00 3.906481027603149414e+00 4.605317115783691406e+00
1.600000000000000000e+01 1.911888313293457031e+01 4.866826534271240234e+00 8.517539024353027344e+00 2.043014526367187500e+00 3.168165922164916992e+00 4.081523895263671875e+00
1.700000000000000000e+01 1.859545516967773438e+01 4.562175750732421875e+00 1.795516204833984375e+01 1.030813026428222656e+01 8.478987693786621094e+00 1.130702495574951172e+01
1.800000000000000000e+01 1.873136711120605469e+01 4.707589149475097656e+00 1.318329620361328125e+01 6.201284408569335938e+00 5.815374374389648438e+00 7.842580318450927734e+00
1.900000000000000000e+01 1.886727905273437500e+01 4.853002548217773438e+00 1.013085174560546875e+01 4.899984359741210938e+00 4.509251117706298828e+00 6.314614772796630859e+00
2.000000000000000000e+01 1.900319290161132812e+01 4.998415470123291016e+00 8.190887451171875000e+00 4.026813983917236328e+00 3.665310382843017578e+00 5.626549720764160156e+00
2.100000000000000000e+01 1.854908943176269531e+01 4.597692012786865234e+00 1.560398483276367188e+01 1.591084671020507812e+01 9.454449653625488281e+00 1.219414901733398438e+01
2.200000000000000000e+01 1.865409278869628906e+01 4.766782760620117188e+00 1.160717010498046875e+01 1.053553962707519531e+01 6.642812728881835938e+00 8.720067977905273438e+00
2.300000000000000000e+01 1.875909423828125000e+01 4.935873985290527344e+00 8.911274909973144531e+00 7.886173248291015625e+00 5.039234638214111328e+00 7.328298568725585938e+00
2.400000000000000000e+01 1.886409759521484375e+01 5.104964733123779297e+00 6.938258171081542969e+00 6.679451465606689453e+00 4.085312843322753906e+00 6.229153156280517578e+00
2.500000000000000000e+01 1.849669647216796875e+01 4.623502254486083984e+00 1.319483947753906250e+01 2.170750617980957031e+01 1.047070312500000000e+01 1.094944858551025391e+01
2.600000000000000000e+01 1.856677246093750000e+01 4.809800148010253906e+00 9.629127502441406250e+00 1.434827804565429688e+01 7.193221569061279297e+00 8.517313003540039062e+00
2.700000000000000000e+01 1.863684654235839844e+01 4.996098041534423828e+00 7.474324703216552734e+00 1.133761692047119141e+01 5.643582344055175781e+00 6.933061122894287109e+00
2.800000000000000000e+01 1.870692253112792969e+01 5.182395458221435547e+00 5.321002960205078125e+00 9.248926162719726562e+00 4.370978832244873047e+00 6.271822929382324219e+00
2.900000000000000000e+01 1.844028282165527344e+01 4.638618946075439453e+00 1.085626697540283203e+01 2.572955131530761719e+01 1.097574520111083984e+01 8.573412895202636719e+00
3.000000000000000000e+01 1.847274780273437500e+01 4.834994316101074219e+00 8.564579010009765625e+00 1.810525512695312500e+01 8.000950813293457031e+00 6.678567409515380859e+00
3.100000000000000000e+01 1.850521278381347656e+01 5.031370162963867188e+00 5.668994903564453125e+00 1.395285320281982422e+01 5.886554241180419922e+00 5.862869262695312500e+00
3.200000000000000000e+01 1.853767967224121094e+01 5.227745532989501953e+00 4.486409187316894531e+00 1.161606121063232422e+01 4.830740928649902344e+00 4.912854671478271484e+00
3.300000000000000000e+01 1.838200569152832031e+01 4.642463207244873047e+00 1.105102729797363281e+01 2.881991767883300781e+01 1.196128273010253906e+01 4.798843860626220703e+00
3.400000000000000000e+01 1.837561798095703125e+01 4.841402053833007812e+00 7.028245925903320312e+00 2.020957946777343750e+01 8.171347618103027344e+00 4.384339332580566406e+00
3.500000000000000000e+01 1.836923217773437500e+01 5.040340423583984375e+00 5.750582218170166016e+00 1.613596343994140625e+01 6.565963745117187500e+00 3.587079286575317383e+00
3.600000000000000000e+01 1.836284446716308594e+01 5.239279270172119141e+00 3.023069858551025391e+00 1.312309837341308594e+01 4.843850612640380859e+00 3.165899515151977539e+00
3.700000000000000000e+01 1.832409477233886719e+01 4.634888648986816406e+00 1.074251842498779297e+01 2.937160301208496094e+01 1.203423690795898438e+01 1.112215161323547363e+00
3.800000000000000000e+01 1.827910041809082031e+01 4.828777313232421875e+00 8.463746070861816406e+00 2.161163520812988281e+01 9.022614479064941406e+00 1.448378205299377441e+00
3.900000000000000000e+01 1.823410606384277344e+01 5.022666454315185547e+00 4.895586967468261719e+00 1.676707649230957031e+01 6.498798847198486328e+00 1.136383652687072754e+00
4.000000000000000000e+01 1.818910980224609375e+01 5.216554641723632812e+00 4.243224620819091797e+00 1.399488735198974609e+01 5.471433639526367188e+00 9.712672233581542969e-01
4.100000000000000000e+01 1.826876640319824219e+01 4.616184234619140625e+00 1.407927608489990234e+01 2.917930984497070312e+01 1.297757530212402344e+01 -2.041186332702636719e+00
4.200000000000000000e+01 1.818688583374023438e+01 4.797603607177734375e+00 8.678421020507812500e+00 2.100256538391113281e+01 8.904295921325683594e+00 -1.423193693161010742e+00
4.300000000000000000e+01 1.810500526428222656e+01 4.979022979736328125e+00 7.281022071838378906e+00 1.682262802124023438e+01 7.231094837188720703e+00 -1.098995566368103027e+00
4.400000000000000000e+01 1.802312469482421875e+01 5.160442352294921875e+00 4.237797260284423828e+00 1.322140312194824219e+01 5.237760066986083984e+00 -1.352489709854125977e+00
4.500000000000000000e+01 1.821813583374023438e+01 4.587066650390625000e+00 1.583407878875732422e+01 2.681723785400390625e+01 1.279539489746093750e+01 -4.560323238372802734e+00
4.600000000000000000e+01 1.810250473022460938e+01 4.749073982238769531e+00 1.214531517028808594e+01 2.018738174438476562e+01 9.699809074401855469e+00 -3.283613681793212891e+00
4.700000000000000000e+01 1.798687171936035156e+01 4.911081790924072266e+00 8.255363464355468750e+00 1.517104053497314453e+01 7.027921199798583984e+00 -3.242509126663208008e+00
4.800000000000000000e+01 1.787123870849609375e+01 5.073089599609375000e+00 7.153033256530761719e+00 1.230721473693847656e+01 5.838074207305908203e+00 -2.874548196792602539e+00
4.900000000000000000e+01 1.817414474487304688e+01 4.548649787902832031e+00 2.016847038269042969e+01 2.513735961914062500e+01 1.359174919128417969e+01 -5.238056182861328125e+00
5.000000000000000000e+01 1.802918434143066406e+01 4.685045719146728516e+00 1.391481399536132812e+01 1.760265159606933594e+01 9.455239295959472656e+00 -4.862494468688964844e+00
5.100000000000000000e+01 1.788422393798828125e+01 4.821442127227783203e+00 1.188927173614501953e+01 1.371275711059570312e+01 7.680608749389648438e+00 -3.918146371841430664e+00
5.200000000000000000e+01 1.773926353454589844e+01 4.957838058471679688e+00 8.538534164428710938e+00 1.036476135253906250e+01 5.670988559722900391e+00 -4.102082729339599609e+00
5.300000000000000000e+01 1.813847541809082031e+01 4.502403259277343750e+00 2.243571281433105469e+01 2.195882987976074219e+01 1.331836318969726562e+01 -5.475021839141845703e+00
5.400000000000000000e+01 1.796973419189453125e+01 4.607968807220458984e+00 1.753412437438964844e+01 1.606979370117187500e+01 1.008117580413818359e+01 -4.504302501678466797e+00
5.500000000000000000e+01 1.780099296569824219e+01 4.713533878326416016e+00 1.372689342498779297e+01 1.109250259399414062e+01 7.445818901062011719e+00 -4.580410003662109375e+00
5.600000000000000000e+01 1.763225364685058594e+01 4.819098949432373047e+00 1.215242385864257812e+01 8.715419769287109375e+00 6.260353088378906250e+00 -3.474761009216308594e+00
5.700000000000000000e+01 1.811248970031738281e+01 4.450097560882568359e+00 2.521245765686035156e+01 2.080015754699707031e+01 1.380378437042236328e+01 -4.115995407104492188e+00
5.800000000000000000e+01 1.792642593383789062e+01 4.520792007446289062e+00 1.963240051269531250e+01 1.334605216979980469e+01 9.893535614013671875e+00 -3.976477146148681641e+00
5.900000000000000000e+01 1.774036407470703125e+01 4.591486930847167969e+00 1.636312484741210938e+01 9.926404953002929688e+00 7.886858940124511719e+00 -3.219960927963256836e+00
6.000000000000000000e+01 1.755430030822753906e+01 4.662181377410888672e+00 1.388630008697509766e+01 6.219935894012451172e+00 6.031870841979980469e+00 -3.390207529067993164e+00
6.100000000000000000e+01 1.809718513488769531e+01 4.393733501434326172e+00 2.671219253540039062e+01 1.918160247802734375e+01 1.376813888549804688e+01 -2.238352060317993164e+00
6.200000000000000000e+01 1.790091896057128906e+01 4.426852226257324219e+00 2.110354804992675781e+01 1.242828464508056641e+01 1.005954933166503906e+01 -2.318540334701538086e+00
6.300000000000000000e+01 1.770465278625488281e+01 4.459970951080322266e+00 1.808248138427734375e+01 8.157373428344726562e+00 7.871956348419189453e+00 -1.895610809326171875e+00
6.400000000000000000e+01 1.750838661193847656e+01 4.493089675903320312e+00 1.537011241912841797e+01 5.560569763183593750e+00 6.279204845428466797e+00 -1.568895459175109863e+00
6.500000000000000000e+01 1.809314727783203125e+01 4.335468769073486328e+00 2.684016418457031250e+01 1.839790534973144531e+01 1.357142066955566406e+01 -4.048663079738616943e-01
6.600000000000000000e+01 1.789418983459472656e+01 4.329744338989257812e+00 2.182882881164550781e+01 1.242982769012451172e+01 1.027759742736816406e+01 -1.053216829895973206e-01
6.700000000000000000e+01 1.769523048400878906e+01 4.324019908905029297e+00 1.826617431640625000e+01 7.383066654205322266e+00 7.694772243499755859e+00 -3.008180260658264160e-01
6.800000000000000000e+01 1.749627113342285156e+01 4.318295001983642578e+00 1.658516502380371094e+01 5.167665958404541016e+00 6.525849342346191406e+00 1.652860343456268311e-01
6.900000000000000000e+01 1.810052871704101562e+01 4.277532577514648438e+00 2.649684715270996094e+01 2.030632400512695312e+01 1.404095172882080078e+01 1.863508939743041992e+00
7.000000000000000000e+01 1.790649223327636719e+01 4.233183860778808594e+00 2.072570037841796875e+01 1.174919319152832031e+01 9.742467880249023438e+00 1.646108388900756836e+00
7.100000000000000000e+01 1.771245574951171875e+01 4.188835620880126953e+00 1.799051284790039062e+01 9.111635208129882812e+00 8.130644798278808594e+00 1.474821329116821289e+00
7.200000000000000000e+01 1.751841735839843750e+01 4.144486904144287109e+00 1.557850837707519531e+01 4.336781501770019531e+00 5.974586963653564453e+00 1.404904365539550781e+00
7.300000000000000000e+01 1.811904907226562500e+01 4.222142219543457031e+00 2.400837898254394531e+01 2.001627159118652344e+01 1.320739555358886719e+01 3.749763488769531250e+00
7.400000000000000000e+01 1.793735885620117188e+01 4.140866279602050781e+00 1.930965614318847656e+01 1.505154418945312500e+01 1.030836009979248047e+01 2.748305797576904297e+00
7.500000000000000000e+01 1.775566673278808594e+01 4.059590816497802734e+00 1.598191642761230469e+01 8.609118461608886719e+00 7.377310752868652344e+00 2.788034915924072266e+00
7.600000000000000000e+01 1.757397651672363281e+01 3.978315114974975586e+00 1.455324554443359375e+01 7.280466556549072266e+00 6.550113677978515625e+00 2.283624649047851562e+00
7.700000000000000000e+01 1.814799880981445312e+01 4.171416759490966797e+00 2.207075691223144531e+01 2.368023681640625000e+01 1.372529792785644531e+01 4.126803398132324219e+00
7.800000000000000000e+01 1.798560714721679688e+01 4.056324481964111328e+00 1.599805736541748047e+01 1.565069961547851562e+01 9.494626998901367188e+00 3.844919443130493164e+00
7.900000000000000000e+01 1.782321548461914062e+01 3.941231727600097656e+00 1.403324127197265625e+01 1.222424030303955078e+01 7.877244472503662109e+00 2.412441730499267578e+00
8.000000000000000000e+01 1.766082382202148438e+01 3.826139211654663086e+00 1.174241447448730469e+01 6.998795986175537109e+00 5.622363090515136719e+00 2.823826551437377930e+00
8.100000000000000000e+01 1.818626785278320312e+01 4.127297878265380859e+00 1.779150199890136719e+01 2.575312042236328125e+01 1.306338691711425781e+01 4.338829517364501953e+00
8.200000000000000000e+01 1.804939079284667969e+01 3.982792854309082031e+00 1.366360664367675781e+01 1.850114631652832031e+01 9.649425506591796875e+00 2.714849472045898438e+00
8.300000000000000000e+01 1.791251182556152344e+01 3.838287591934204102e+00 1.060965061187744141e+01 1.363888835906982422e+01 7.274561882019042969e+00 2.351718664169311523e+00
8.400000000000000000e+01 1.777563476562500000e+01 3.693782567977905273e+00 9.818202018737792969e+00 1.022723865509033203e+01 6.013632297515869141e+00 1.337057828903198242e+00
8.500000000000000000e+01 1.823239517211914062e+01 4.091474056243896484e+00 1.446741199493408203e+01 2.765451431274414062e+01 1.263657855987548828e+01 2.986498594284057617e+00
8.600000000000000000e+01 1.812627029418945312e+01 3.923085927963256836e+00 1.062012386322021484e+01 2.090319442749023438e+01 9.456995964050292969e+00 9.624249339103698730e-01
8.700000000000000000e+01 1.802014350891113281e+01 3.754698038101196289e+00 8.022916793823242188e+00 1.517654132843017578e+01 6.959837436676025391e+00 7.562393546104431152e-01
8.800000000000000000e+01 1.791401672363281250e+01 3.586310148239135742e+00 7.044093132019042969e+00 1.229813861846923828e+01 5.802669525146484375e+00 -3.658109903335571289e-01
8.900000000000000000e+01 1.828461456298828125e+01 4.065315246582031250e+00 1.253103351593017578e+01 3.031161880493164062e+01 1.285279560089111328e+01 -3.454804122447967529e-01
9.000000000000000000e+01 1.821330070495605469e+01 3.879488229751586914e+00 7.106452465057373047e+00 2.125339317321777344e+01 8.507953643798828125e+00 -8.879275321960449219e-01
9.100000000000000000e+01 1.814198684692382812e+01 3.693661212921142578e+00 7.127467632293701172e+00 1.714951896667480469e+01 7.283096313476562500e+00 -2.287510156631469727e+00
9.200000000000000000e+01 1.807067298889160156e+01 3.507834434509277344e+00 3.234645366668701172e+00 1.294017791748046875e+01 4.852447032928466797e+00 -1.963475584983825684e+00
9.300000000000000000e+01 1.834092712402343750e+01 4.049823284149169922e+00 8.273846626281738281e+00 2.959083747863769531e+01 1.135940551757812500e+01 -3.422331809997558594e+00
9.400000000000000000e+01 1.830715560913085938e+01 3.853668212890625000e+00 8.027970314025878906e+00 2.196477699279785156e+01 8.997823715209960938e+00 -4.413001537322998047e+00
9.500000000000000000e+01 1.827338218688964844e+01 3.657513380050659180e+00 3.303553819656372070e+00 1.682350349426269531e+01 6.038116931915283203e+00 -4.350931167602539062e+00
9.600000000000000000e+01 1.823961067199707031e+01 3.461358308792114258e+00 4.808543205261230469e+00 1.441468906402587891e+01 5.766969680786132812e+00 -4.608778476715087891e+00
9.700000000000000000e+01 1.839917755126953125e+01 4.045590877532958984e+00 1.020599651336669922e+01 2.901698303222656250e+01 1.176689434051513672e+01 -7.341999053955078125e+00
9.800000000000000000e+01 1.840423965454101562e+01 3.846614122390747070e+00 5.146683216094970703e+00 1.991661834716796875e+01 7.518990516662597656e+00 -7.263098716735839844e+00
9.900000000000000000e+01 1.840930175781250000e+01 3.647637367248535156e+00 5.568636894226074219e+00 1.638209724426269531e+01 6.585220336914062500e+00 -6.742990016937255859e+00
1.000000000000000000e+02 1.841436386108398438e+01 3.448660612106323242e+00 2.101730346679687500e+00 1.307036590576171875e+01 4.551629066467285156e+00 -6.843725204467773438e+00
1.010000000000000000e+02 1.845713806152343750e+01 4.052779674530029297e+00 9.113677978515625000e+00 2.486547851562500000e+01 1.019374656677246094e+01 -1.106490230560302734e+01
1.020000000000000000e+02 1.850084114074707031e+01 3.858595371246337891e+00 7.715782642364501953e+00 1.788186073303222656e+01 7.679292678833007812e+00 -9.235514640808105469e+00
1.030000000000000000e+02 1.854454231262207031e+01 3.664411544799804688e+00 4.373795509338378906e+00 1.360544204711914062e+01 5.393771648406982422e+00 -8.822487831115722656e+00
1.040000000000000000e+02 1.858824539184570312e+01 3.470227241516113281e+00 4.160437107086181641e+00 1.214982223510742188e+01 4.893077850341796875e+00 -8.169056892395019531e+00
1.050000000000000000e+02 1.851259040832519531e+01 4.071114540100097656e+00 1.207177448272705078e+01 2.063150215148925781e+01 9.810982704162597656e+00 -1.291499996185302734e+01
1.060000000000000000e+02 1.859325981140136719e+01 3.889153957366943359e+00 8.087881088256835938e+00 1.350494289398193359e+01 6.477847099304199219e+00 -1.065016555786132812e+01
1.070000000000000000e+02 1.867393112182617188e+01 3.707193613052368164e+00 6.378388881683349609e+00 1.115006542205810547e+01 5.258536338806152344e+00 -9.476063728332519531e+00
1.080000000000000000e+02 1.875460052490234375e+01 3.525232791900634766e+00 4.303538322448730469e+00 9.300197601318359375e+00 4.081120967864990234e+00 -8.735169410705566406e+00
1.090000000000000000e+02 1.856341171264648438e+01 4.099894523620605469e+00 1.415076446533203125e+01 1.442467498779296875e+01 8.572631835937500000e+00 -1.341897869110107422e+01
1.100000000000000000e+02 1.867796325683593750e+01 3.937120437622070312e+00 9.902797698974609375e+00 9.483162879943847656e+00 5.815787792205810547e+00 -1.042804908752441406e+01
1.110000000000000000e+02 1.879251480102539062e+01 3.774346351623535156e+00 7.146675586700439453e+00 7.618361473083496094e+00 4.429511070251464844e+00 -8.911671638488769531e+00
1.120000000000000000e+02 1.890706443786621094e+01 3.611572504043579102e+00 5.516968250274658203e+00 6.585692882537841797e+00 3.630798339843750000e+00 -8.580652236938476562e+00
1.130000000000000000e+02 1.860765838623046875e+01 4.138017654418945312e+00 1.601320457458496094e+01 8.133582115173339844e+00 7.244035720825195312e+00 -1.196476936340332031e+01
1.140000000000000000e+02 1.875170707702636719e+01 4.000658988952636719e+00 1.077735233306884766e+01 5.574253559112548828e+00 4.905481815338134766e+00 -8.490806579589843750e+00
1.150000000000000000e+02 1.889575386047363281e+01 3.863300561904907227e+00 7.808321952819824219e+00 4.239239692687988281e+00 3.614268541336059570e+00 -7.731793403625488281e+00
1.160000000000000000e+02 1.903980255126953125e+01 3.725941896438598633e+00 5.738660335540771484e+00 4.506880760192871094e+00 3.073662281036376953e+00 -6.766869068145751953e+00
1.170000000000000000e+02 1.864363670349121094e+01 4.184025287628173828e+00 1.652730751037597656e+01 3.452790975570678711e+00 5.994029521942138672e+00 -8.316101074218750000e+00
1.180000000000000000e+02 1.881166839599609375e+01 4.077338695526123047e+00 1.041667842864990234e+01 1.574778556823730469e+00 3.597436904907226562e+00 -5.971704959869384766e+00
1.190000000000000000e+02 1.897970199584960938e+01 3.970651626586914062e+00 7.173134326934814453e+00 2.800136089324951172e+00 2.991981029510498047e+00 -5.026438713073730469e+00
1.200000000000000000e+02 1.914773750305175781e+01 3.863964796066284180e+00 5.474795341491699219e+00 1.733556032180786133e+00 2.162505388259887695e+00 -5.326067924499511719e+00
1.210000000000000000e+02 1.866996765136718750e+01 4.236156940460205078e+00 1.416681098937988281e+01 -1.864363431930541992e+00 3.690734148025512695e+00 -3.546151161193847656e+00
1.220000000000000000e+02 1.885555648803710938e+01 4.164224624633789062e+00 7.893234729766845703e+00 1.405870199203491211e+00 2.789731502532958984e+00 -2.605226993560791016e+00
1.230000000000000000e+02 1.904114532470703125e+01 4.092292308807373047e+00 6.043550014495849609e+00 4.609734416007995605e-01 1.951357007026672363e+00 -3.373756647109985352e+00
1.240000000000000000e+02 1.922673416137695312e+01 4.020359516143798828e+00 4.078173637390136719e+00 1.258329987525939941e+00 1.600951194763183594e+00 -2.714496612548828125e+00
1.250000000000000000e+02 1.868564796447753906e+01 4.292417526245117188e+00 5.705581188201904297e+00 -1.009635329246520996e+00 1.408783793449401855e+00 7.436406016349792480e-01
1.260000000000000000e+02 1.888168907165527344e+01 4.257992267608642578e+00 6.070392608642578125e+00 9.413870424032211304e-02 1.849359393119812012e+00 -1.565512537956237793e+00
1.270000000000000000e+02 1.907773017883300781e+01 4.223567008972167969e+00 3.733633041381835938e+00 5.216170549392700195e-01 1.276574969291687012e+00 -8.176829814910888672e-01
1.280000000000000000e+02 1.927377319335937500e+01 4.189141273498535156e+00 2.076137781143188477e+00 -3.553809225559234619e-01 5.162270665168762207e-01 -9.830504059791564941e-01
1.290000000000000000e+02 2.162034797668457031e+01 5.058271408081054688e+00 1.357778191566467285e+00 1.446675509214401245e-01 4.507337510585784912e-01 1.003192186355590820e+00
1.300000000000000000e+02 2.345616722106933594e+01 4.840818405151367188e+00 1.451509445905685425e-01 1.935575455427169800e-01 1.016125455498695374e-01 1.813659816980361938e-01
1.310000000000000000e+02 2.177050209045410156e+01 5.487368106842041016e+00 1.050013184547424316e+00 3.157178163528442383e-01 4.097193181514739990e-01 1.183475255966186523e+00
1.320000000000000000e+02 2.303646850585937500e+01 5.148258686065673828e+00 4.280717074871063232e-01 2.399789392948150635e-01 2.004151940345764160e-01 4.393759071826934814e-01
1.330000000000000000e+02 2.173069190979003906e+01 4.568217277526855469e+00 1.091551542282104492e+00 -4.854733869433403015e-02 3.129012584686279297e-01 3.411410450935363770e-01
1.340000000000000000e+02 2.276675987243652344e+01 4.279086589813232422e+00 1.778473854064941406e-01 -1.230855006724596024e-02 4.966165125370025635e-02 7.173407077789306641e-02
1.350000000000000000e+02 2.258070945739746094e+01 4.784480571746826172e+00 6.554813981056213379e-01 6.924311816692352295e-02 2.174173593521118164e-01 4.535145163536071777e-01
1.360000000000000000e+02 2.197750282287597656e+01 4.273892879486083984e+00 7.848652005195617676e-01 5.701467744074761868e-04 2.356306016445159912e-01 8.377532660961151123e-02
1.370000000000000000e+02 2.203023910522460938e+01 5.243549823760986328e+00 9.404366612434387207e-01 2.345005273818969727e-01 3.524811565876007080e-01 9.287990927696228027e-01
1.380000000000000000e+02 2.250333404541015625e+01 5.257280826568603516e+00 5.852439403533935547e-01 2.388202548027038574e-01 2.472192645072937012e-01 6.870695352554321289e-01
1.390000000000000000e+02 2.152436256408691406e+01 4.515754222869873047e+00 1.456437230110168457e+00 -8.855019696056842804e-03 4.342746436595916748e-01 3.297761380672454834e-01
1.400000000000000000e+02 2.155823707580566406e+01 4.359680175781250000e+00 1.260025739669799805e+00 -6.120604649186134338e-02 3.596459031105041504e-01 1.095770671963691711e-01
1.410000000000000000e+02 2.206100654602050781e+01 4.643648624420166016e+00 8.008010983467102051e-01 2.824128419160842896e-02 2.487127035856246948e-01 4.011166691780090332e-01
1.420000000000000000e+02 2.190368080139160156e+01 4.926265239715576172e+00 9.568556547164916992e-01 9.494940191507339478e-02 3.155415058135986328e-01 6.896761059761047363e-01
1.430000000000000000e+02 2.152248382568359375e+01 4.694260120391845703e+00 1.401368379592895508e+00 2.760236850008368492e-03 4.212386012077331543e-01 5.108287334442138672e-01
1.440000000000000000e+02 2.154962921142578125e+01 4.867503643035888672e+00 1.340121626853942871e+00 6.134283170104026794e-02 4.204393327236175537e-01 7.322443127632141113e-01
1.450000000000000000e+02 2.167097091674804688e+01 5.272821426391601562e+00 1.290987491607666016e+00 1.460786312818527222e-01 4.311198592185974121e-01 1.099087715148925781e+00
1.460000000000000000e+02 2.169302940368652344e+01 4.760145664215087891e+00 1.187744379043579102e+00 2.916842512786388397e-02 3.650738596916198730e-01 5.644805431365966797e-01
1.470000000000000000e+02 1.840750885009765625e+01 2.937150478363037109e+00 1.171336531639099121e+00 7.756773471832275391e+00 2.678432941436767578e+00 -5.773740768432617188e+00
1.480000000000000000e+02 1.707554626464843750e+01 4.880027294158935547e+00 9.254778861999511719e+00 2.188466548919677734e+00 3.432973384857177734e+00 -2.359650135040283203e+00
1.490000000000000000e+02 1.774669456481933594e+01 5.370063304901123047e+00 3.696456909179687500e+00 8.679857254028320312e+00 3.712894439697265625e+00 -2.886074304580688477e+00
1.500000000000000000e+02 1.877533912658691406e+01 5.405929565429687500e+00 3.791701555252075195e+00 7.867549419403076172e+00 3.497775316238403320e+00 5.299209594726562500e+00
1.510000000000000000e+02 2.010564994812011719e+01 4.346538066864013672e+00 3.544814586639404297e+00 6.694708485156297684e-03 1.065452814102172852e+00 7.272394746541976929e-02
1.520000000000000000e+02 2.076035499572753906e+01 2.783919334411621094e+00 1.113371133804321289e+00 2.879098176956176758e+00 1.197740793228149414e+00 -2.366988182067871094e+00
1.530000000000000000e+02 1.837128257751464844e+01 5.457156658172607422e+00 2.435296773910522461e+00 1.101638889312744141e+01 4.035505771636962891e+00 2.921715259552001953e+00
1.540000000000000000e+02 1.761480331420898438e+01 3.546472549438476562e+00 8.108662605285644531e+00 5.600334644317626953e+00 4.112699031829833984e+00 1.305731773376464844e+00
1.550000000000000000e+02 2.127228355407714844e+01 4.018267154693603516e+00 -5.013089179992675781e+00 -8.754983544349670410e-01 -1.766576290130615234e+00 1.650359109044075012e-02
1.560000000000000000e+02 2.107132148742675781e+01 4.032186985015869141e+00 -4.581023693084716797e+00 5.475167036056518555e-01 -1.210052013397216797e+00 4.368055462837219238e-01
1.570000000000000000e+02 2.123143386840820312e+01 3.596826076507568359e+00 -1.939531803131103516e+00 6.141176912933588028e-03 -5.800171494483947754e-01 1.817910671234130859e-01
1.580000000000000000e+02 2.080359840393066406e+01 3.414093494415283203e+00 -7.527265548706054688e-01 1.111463069915771484e+00 1.076209694147109985e-01 -9.809377193450927734e-01
1.590000000000000000e+02 1.966184616088867188e+01 4.125462055206298828e+00 -4.861330389976501465e-01 -2.282843142747879028e-01 -2.143252044916152954e-01 -6.358529329299926758e-01
1.600000000000000000e+02 1.946778297424316406e+01 4.156396389007568359e+00 6.697773933410644531e-01 6.226243972778320312e-01 3.877205252647399902e-01 -6.862671971321105957e-01
1.610000000000000000e+02 1.727448081970214844e+01 4.325189113616943359e+00 1.428842067718505859e+01 2.269524574279785156e+00 4.967383384704589844e+00 -4.354947432875633240e-02
1.620000000000000000e+02 1.729340171813964844e+01 3.534788608551025391e+00 8.939784049987792969e+00 1.810805797576904297e+00 3.225177049636840820e+00 2.439186573028564453e+00
1.630000000000000000e+02 1.775588989257812500e+01 3.420639038085937500e+00 6.356984138488769531e+00 8.406272888183593750e+00 4.428977012634277344e+00 2.550462633371353149e-02
1.640000000000000000e+02 1.823241043090820312e+01 3.238322496414184570e+00 9.987354278564453125e-01 1.121824359893798828e+01 3.665093660354614258e+00 -4.644404411315917969e+00
1.650000000000000000e+02 1.949335861206054688e+01 3.660740375518798828e+00 3.010686159133911133e+00 1.677134156227111816e+00 1.406346082687377930e+00 -4.589815616607666016e+00
1.660000000000000000e+02 1.931497955322265625e+01 3.762828588485717773e+00 4.061112880706787109e+00 2.587110519409179688e+00 1.994467020034790039e+00 -4.626511573791503906e+00
1.670000000000000000e+02 1.970414924621582031e+01 4.386633396148681641e+00 4.574182987213134766e+00 -2.631793357431888580e-02 1.364359498023986816e+00 8.568193763494491577e-02
1.680000000000000000e+02 1.769555282592773438e+01 5.585532188415527344e+00 1.494897007942199707e+00 7.551208972930908203e+00 2.713831901550292969e+00 -2.472645759582519531e+00
1.690000000000000000e+02 1.746401023864746094e+01 4.955754280090332031e+00 8.938462257385253906e+00 5.916042327880859375e+00 4.456351280212402344e+00 -3.759508848190307617e+00
1.700000000000000000e+02 1.973010253906250000e+01 4.639434814453125000e+00 5.272546291351318359e+00 8.850695192813873291e-02 1.608315944671630859e+00 1.010424971580505371e+00
1.710000000000000000e+02 2.137132835388183594e+01 5.111106395721435547e+00 1.599120855331420898e+00 1.108015328645706177e-01 5.129767060279846191e-01 1.072802782058715820e+00
1.720000000000000000e+02 2.109473800659179688e+01 4.282546520233154297e+00 1.794376492500305176e+00 -6.384042557328939438e-03 5.363977551460266113e-01 4.646597057580947876e-02
1.730000000000000000e+02 2.111136817932128906e+01 4.495923042297363281e+00 1.884124159812927246e+00 1.253537740558385849e-02 5.689978599548339844e-01 3.079225718975067139e-01
1.740000000000000000e+02 2.129547691345214844e+01 4.268795490264892578e+00 1.548809051513671875e+00 2.357214130461215973e-02 4.717143774032592773e-01 2.671973593533039093e-02
1.750000000000000000e+02 2.141085624694824219e+01 5.532235622406005859e+00 1.178566694259643555e+00 4.404483735561370850e-01 4.857045114040374756e-01 1.468174934387207031e+00
1.760000000000000000e+02 2.120844650268554688e+01 5.546023845672607422e+00 1.381143331527709961e+00 5.250582098960876465e-01 5.718604922294616699e-01 1.690483927726745605e+00
1.770000000000000000e+02 1.916181945800781250e+01 5.183925628662109375e+00 6.171743392944335938e+00 3.391154527664184570e+00 2.868869304656982422e+00 4.906299591064453125e+00
1.780000000000000000e+02 1.951894950866699219e+01 5.386462688446044922e+00 4.486040592193603516e+00 2.202985525131225586e+00 2.006707906723022461e+00 4.061937808990478516e+00
1.790000000000000000e+02 1.957671928405761719e+01 5.639652729034423828e+00 2.988157272338867188e+00 2.756994962692260742e+00 1.723545670509338379e+00 4.254975318908691406e+00
1.800000000000000000e+02 2.100639915466308594e+01 5.560011386871337891e+00 1.563256740570068359e+00 5.523378252983093262e-01 6.346783638000488281e-01 1.857646107673645020e+00
1.810000000000000000e+02 2.115688133239746094e+01 2.755640745162963867e+00 6.960257887840270996e-01 3.031470775604248047e+00 1.118248939514160156e+00 -1.723000407218933105e+00
1.820000000000000000e+02 2.017489624023437500e+01 2.853466987609863281e+00 2.077580213546752930e+00 3.736370801925659180e+00 1.744185328483581543e+00 -4.163684368133544922e+00
1.830000000000000000e+02 1.896639251708984375e+01 2.895757436752319336e+00 2.494628667831420898e+00 8.442491531372070312e+00 3.281136035919189453e+00 -8.213373184204101562e+00
1.840000000000000000e+02 1.852697372436523438e+01 3.057424306869506836e+00 1.598389625549316406e+00 9.989332199096679688e+00 3.476316452026367188e+00 -7.057914733886718750e+00
1.850000000000000000e+02 1.731552505493164062e+01 4.104589939117431641e+00 1.467517757415771484e+01 3.508038282394409180e+00 5.454964637756347656e+00 1.391635179519653320e+00
1.860000000000000000e+02 1.730747032165527344e+01 4.544476985931396484e+00 1.353709983825683594e+01 2.533941745758056641e+00 4.821312427520751953e+00 -1.664467453956604004e+00
1.870000000000000000e+02 1.918721199035644531e+01 3.598665714263916016e+00 4.478729248046875000e+00 3.519981861114501953e+00 2.399613380432128906e+00 -6.762204647064208984e+00
1.880000000000000000e+02 1.748286819458007812e+01 3.700419902801513672e+00 1.157744026184082031e+01 5.744043827056884766e+00 5.196445465087890625e+00 2.542704582214355469e+00
1.890000000000000000e+02 1.716548347473144531e+01 3.673200368881225586e+00 1.113609886169433594e+01 1.793809533119201660e+00 3.878972530364990234e+00 3.430042028427124023e+00
1.900000000000000000e+02 1.844595146179199219e+01 3.240384340286254883e+00 2.892295122146606445e+00 1.161974716186523438e+01 4.353612899780273438e+00 -6.595633983612060547e+00
1.910000000000000000e+02 1.993115234375000000e+01 3.180050373077392578e+00 1.954653978347778320e+00 3.060799121856689453e+00 1.504635930061340332e+00 -4.321105003356933594e+00
1.920000000000000000e+02 1.985970687866210938e+01 4.097827434539794922e+00 -1.433029890060424805e+00 3.911737203598022461e-01 -3.125568330287933350e-01 -4.527076780796051025e-01
1.930000000000000000e+02 1.940905380249023438e+01 3.952339410781860352e+00 2.782660722732543945e+00 3.901990354061126709e-01 9.518579244613647461e-01 -2.836320161819458008e+00
1.940000000000000000e+02 1.876880073547363281e+01 2.906013727188110352e+00 1.441238641738891602e+00 8.236608505249023438e+00 2.903354167938232422e+00 -7.363312721252441406e+00
1.950000000000000000e+02 1.857010078430175781e+01 5.445370197296142578e+00 2.265636444091796875e+00 9.878156661987304688e+00 3.643138170242309570e+00 4.474972248077392578e+00
1.960000000000000000e+02 1.721248435974121094e+01 4.829825878143310547e+00 1.050830745697021484e+01 2.494034767150878906e+00 3.900702714920043945e+00 -2.996258497238159180e+00
1.970000000000000000e+02 1.897565078735351562e+01 5.313725948333740234e+00 4.926587104797363281e+00 5.785605907440185547e+00 3.213657855987548828e+00 5.703547000885009766e+00
1.980000000000000000e+02 1.790971565246582031e+01 5.306112766265869141e+00 3.840850353240966797e+00 1.162432384490966797e+01 4.639552116394042969e+00 -1.445202946662902832e+00
1.990000000000000000e+02 1.759834480285644531e+01 5.117051124572753906e+00 7.464352607727050781e+00 8.351138114929199219e+00 4.744647502899169922e+00 -3.406037807464599609e+00
2.000000000000000000e+02 1.929895591735839844e+01 5.419871807098388672e+00 4.451298236846923828e+00 3.438454389572143555e+00 2.366925716400146484e+00 4.858081340789794922e+00
2.010000000000000000e+02 1.880333709716796875e+01 5.677901268005371094e+00 1.613737702369689941e+00 7.124336242675781250e+00 2.621422290802001953e+00 4.648546695709228516e+00
2.020000000000000000e+02 1.949343299865722656e+01 4.385625839233398438e+00 5.098831653594970703e+00 -3.947858884930610657e-02 1.517805933952331543e+00 3.881887346506118774e-02
2.030000000000000000e+02 1.990837860107421875e+01 4.370643615722656250e+00 4.054558753967285156e+00 9.533880278468132019e-03 1.219227790832519531e+00 9.737148880958557129e-02
2.040000000000000000e+02 1.818034553527832031e+01 5.443043708801269531e+00 1.741113066673278809e+00 1.139439678192138672e+01 3.940652847290039062e+00 9.313686490058898926e-01
2.050000000000000000e+02 1.821637153625488281e+01 2.987089872360229492e+00 2.393253803253173828e+00 1.076793479919433594e+01 3.948356628417968750e+00 -4.409000396728515625e+00
2.060000000000000000e+02 1.803740310668945312e+01 3.279432773590087891e+00 4.109689235687255859e+00 1.175086784362792969e+01 4.758167266845703125e+00 -3.296692848205566406e+00
2.070000000000000000e+02 1.743354034423828125e+01 5.307237625122070312e+00 4.417643547058105469e+00 5.857238292694091797e+00 3.082464456558227539e+00 -3.486588716506958008e+00
2.080000000000000000e+02 1.729383468627929688e+01 5.149659633636474609e+00 7.271332263946533203e+00 4.294964313507080078e+00 3.469888925552368164e+00 -3.353698968887329102e+00
2.090000000000000000e+02 1.769686889648437500e+01 3.133063077926635742e+00 2.072910308837890625e+00 5.029982566833496094e+00 2.130867958068847656e+00 -2.875662088394165039e+00
2.100000000000000000e+02 1.776029014587402344e+01 5.225514888763427734e+00 4.613693237304687500e+00 9.971452713012695312e+00 4.375543594360351562e+00 -2.909938097000122070e+00
2.110000000000000000e+02 1.785161781311035156e+01 3.259711027145385742e+00 2.921769380569458008e+00 8.075071334838867188e+00 3.299052476882934570e+00 -2.468887090682983398e+00
2.120000000000000000e+02 1.714928054809570312e+01 4.039072036743164062e+00 1.287958431243896484e+01 -8.442762494087219238e-02 3.838546991348266602e+00 2.193819522857666016e+00
2.130000000000000000e+02 1.700662422180175781e+01 4.143826484680175781e+00 1.317738246917724609e+01 2.182644903659820557e-01 4.018693923950195312e+00 1.211333751678466797e+00
2.140000000000000000e+02 1.701721191406250000e+01 4.715278148651123047e+00 1.012725448608398438e+01 4.345869719982147217e-01 3.168552398681640625e+00 -2.307914733886718750e+00
2.150000000000000000e+02 1.702348899841308594e+01 4.342308521270751953e+00 1.281401920318603516e+01 4.576941728591918945e-01 3.981513977050781250e+00 3.770907819271087646e-01
2.160000000000000000e+02 1.742582130432128906e+01 3.380530118942260742e+00 8.683205604553222656e+00 4.054111480712890625e+00 3.821195125579833984e+00 2.232577323913574219e+00
2.170000000000000000e+02 1.700619506835937500e+01 4.545239925384521484e+00 1.209968662261962891e+01 9.609589576721191406e-01 3.918193578720092773e+00 -6.598073244094848633e-01
2.180000000000000000e+02 1.801221466064453125e+01 5.682896614074707031e+00 3.706966936588287354e-01 8.498414039611816406e+00 2.660733222961425781e+00 -1.483204774558544159e-02
2.190000000000000000e+02 1.714592361450195312e+01 4.636492729187011719e+00 1.244526672363281250e+01 2.685807704925537109e+00 4.539322376251220703e+00 -1.170241713523864746e+00
2.200000000000000000e+02 1.716765594482421875e+01 5.014730930328369141e+00 7.604163169860839844e+00 3.095189332962036133e+00 3.209805727005004883e+00 -3.345817565917968750e+00
2.210000000000000000e+02 1.839005851745605469e+01 5.708199501037597656e+00 1.996768563985824585e-01 9.030837059020996094e+00 2.769154071807861328e+00 2.573675870895385742e+00
2.220000000000000000e+02 1.757050132751464844e+01 5.457000255584716797e+00 3.338922977447509766e+00 7.513981819152832031e+00 3.255871295928955078e+00 -2.859651565551757812e+00
2.230000000000000000e+02 2.046962547302246094e+01 4.067216396331787109e+00 -3.611536502838134766e+00 -2.710873782634735107e-01 -1.164787173271179199e+00 -5.118153244256973267e-02
2.240000000000000000e+02 1.957949829101562500e+01 2.889807939529418945e+00 2.321082353591918945e+00 4.982048511505126953e+00 2.190939188003540039e+00 -5.838934421539306641e+00
2.250000000000000000e+02 1.937484550476074219e+01 2.909685850143432617e+00 2.833012819290161133e+00 6.239449501037597656e+00 2.721738576889038086e+00 -6.899728775024414062e+00
2.260000000000000000e+02 2.097167968750000000e+01 2.984300851821899414e+00 3.486336767673492432e-01 2.056524753570556641e+00 7.215475440025329590e-01 -1.577340483665466309e+00
2.270000000000000000e+02 2.121152496337890625e+01 3.387397289276123047e+00 -1.346596598625183105e+00 8.259113430976867676e-01 -1.562055796384811401e-01 -1.070665493607521057e-01
2.280000000000000000e+02 2.095762252807617188e+01 2.770599365234375000e+00 8.043410181999206543e-01 2.219949007034301758e+00 9.072869420051574707e-01 -1.903350472450256348e+00
2.290000000000000000e+02 2.026499748229980469e+01 4.070951938629150391e+00 -3.001205682754516602e+00 4.754522144794464111e-01 -7.577260732650756836e-01 -9.872064739465713501e-02
2.300000000000000000e+02 2.006085205078125000e+01 4.078619003295898438e+00 -2.321230411529541016e+00 -1.284620165824890137e-01 -7.349077463150024414e-01 -4.232614338397979736e-01
2.310000000000000000e+02 2.056587409973144531e+01 2.796411991119384766e+00 1.453775525093078613e+00 2.861544847488403320e+00 1.294596076011657715e+00 -2.953387975692749023e+00
2.320000000000000000e+02 1.959514808654785156e+01 3.887381315231323242e+00 1.634120821952819824e+00 1.323129653930664062e+00 8.871752023696899414e-01 -2.489962100982666016e+00
2.330000000000000000e+02 2.084755706787109375e+01 3.831751823425292969e+00 -2.926859855651855469e+00 5.508424639701843262e-01 -7.128052115440368652e-01 -6.120321527123451233e-02
2.340000000000000000e+02 2.058227920532226562e+01 3.005921602249145508e+00 9.422188997268676758e-01 2.389025926589965820e+00 9.993734359741210938e-01 -2.494594812393188477e+00
2.350000000000000000e+02 2.030004119873046875e+01 4.327524662017822266e+00 3.072071790695190430e+00 1.807624287903308868e-02 9.270443916320800781e-01 4.502435401082038879e-02
2.360000000000000000e+02 2.040190696716308594e+01 5.598846435546875000e+00 2.280340671539306641e+00 9.526699185371398926e-01 9.699031710624694824e-01 2.645579099655151367e+00
2.370000000000000000e+02 2.060408782958984375e+01 5.587924957275390625e+00 1.981389045715332031e+00 7.379023432731628418e-01 8.157873749732971191e-01 2.331920623779296875e+00
2.380000000000000000e+02 2.070731925964355469e+01 4.522000789642333984e+00 2.550672292709350586e+00 -8.181169629096984863e-03 7.627473473548889160e-01 3.868985176086425781e-01
2.390000000000000000e+02 2.131387519836425781e+01 4.480452537536621094e+00 1.595296740531921387e+00 -2.932959422469139099e-02 4.697901606559753418e-01 3.269577622413635254e-01
2.400000000000000000e+02 1.859123992919921875e+01 5.699140071868896484e+00 1.419755101203918457e+00 8.374160766601562500e+00 2.938174962997436523e+00 3.780442714691162109e+00
2.410000000000000000e+02 1.819793319702148438e+01 5.700675010681152344e+00 6.719573736190795898e-01 9.079239845275878906e+00 2.925359249114990234e+00 1.361483097076416016e+00
2.420000000000000000e+02 1.918684577941894531e+01 5.693583011627197266e+00 2.318824529647827148e+00 4.370865821838378906e+00 2.006906986236572266e+00 4.598177909851074219e+00
2.430000000000000000e+02 2.038787460327148438e+01 5.386965274810791016e+00 2.703655004501342773e+00 6.225561499595642090e-01 9.978633522987365723e-01 2.296430587768554688e+00
2.440000000000000000e+02 1.999231147766113281e+01 5.613835811614990234e+00 2.849780797958374023e+00 1.512140035629272461e+00 1.308576345443725586e+00 3.253778934478759766e+00
2.450000000000000000e+02 2.050820732116699219e+01 4.529105186462402344e+00 2.917006254196166992e+00 2.195956883952021599e-03 8.757606744766235352e-01 4.207433462142944336e-01
2.460000000000000000e+02 2.058597373962402344e+01 5.378692150115966797e+00 2.408231019973754883e+00 5.710203051567077637e-01 8.937754034996032715e-01 2.088681459426879883e+00
2.470000000000000000e+02 1.978514480590820312e+01 5.626862525939941406e+00 2.932784795761108398e+00 1.994772791862487793e+00 1.478267312049865723e+00 3.668914794921875000e+00
2.480000000000000000e+02 2.112916183471679688e+01 4.706600189208984375e+00 1.922341346740722656e+00 3.244557604193687439e-02 5.864360928535461426e-01 6.622818112373352051e-01
2.490000000000000000e+02 2.125145721435546875e+01 3.807038784027099609e+00 -3.064296722412109375e+00 -2.809135941788554192e-03 -9.201318025588989258e-01 1.589906960725784302e-01
2.500000000000000000e+02 2.119211578369140625e+01 3.178186416625976562e+00 -5.676485300064086914e-01 1.055853724479675293e+00 1.464615464210510254e-01 -3.069205284118652344e-01
2.510000000000000000e+02 2.135208702087402344e+01 4.900987625122070312e+00 1.604361176490783691e+00 1.071491315960884094e-01 5.134530663490295410e-01 8.828760385513305664e-01
2.520000000000000000e+02 2.114790534973144531e+01 4.915522575378417969e+00 1.917197704315185547e+00 7.070290297269821167e-02 5.963701605796813965e-01 9.092213511466979980e-01
2.530000000000000000e+02 2.133286285400390625e+01 4.691029548645019531e+00 1.648649215698242188e+00 1.899413950741291046e-02 5.002930164337158203e-01 5.312469601631164551e-01
2.540000000000000000e+02 2.039623641967773438e+01 3.180437326431274414e+00 7.669691443443298340e-01 2.054501056671142578e+00 8.464410901069641113e-01 -2.584880113601684570e+00
2.550000000000000000e+02 1.996724510192871094e+01 2.881309747695922852e+00 2.308853864669799805e+00 4.222599983215332031e+00 1.959436058998107910e+00 -4.610446453094482422e+00
2.560000000000000000e+02 1.994141769409179688e+01 3.486806869506835938e+00 1.185917139053344727e+00 1.548506021499633789e+00 8.203269839286804199e-01 -3.414476156234741211e+00
2.570000000000000000e+02 1.931484603881835938e+01 3.150599479675292969e+00 2.797346353530883789e+00 5.875218391418457031e+00 2.601769447326660156e+00 -6.872668266296386719e+00
2.580000000000000000e+02 1.900965499877929688e+01 3.218993663787841797e+00 3.319862365722656250e+00 7.635521888732910156e+00 3.286615371704101562e+00 -8.239620208740234375e+00
2.590000000000000000e+02 2.104821777343750000e+01 3.819587707519531250e+00 -3.301532268524169922e+00 -2.294669151306152344e-01 -1.059299707412719727e+00 -1.415806710720062256e-01
2.600000000000000000e+02 2.058240127563476562e+01 3.216130733489990234e+00 3.685009181499481201e-01 1.745432615280151367e+00 6.341800689697265625e-01 -1.945654988288879395e+00
2.610000000000000000e+02 2.089438438415527344e+01 4.295516490936279297e+00 2.063016653060913086e+00 -7.726950570940971375e-03 6.165869235992431641e-01 3.585852310061454773e-02
2.620000000000000000e+02 1.930602264404296875e+01 5.020323276519775391e+00 6.886707782745361328e+00 1.876552104949951172e+00 2.628978013992309570e+00 4.020920276641845703e+00
2.630000000000000000e+02 2.118741798400878906e+01 5.335041522979736328e+00 1.632724046707153320e+00 3.036471307277679443e-01 5.809113383293151855e-01 1.442894458770751953e+00
2.640000000000000000e+02 2.000267410278320312e+01 4.841981887817382812e+00 4.373420715332031250e+00 2.016057670116424561e-01 1.372507929801940918e+00 1.407446026802062988e+00
2.650000000000000000e+02 2.139089393615722656e+01 5.321503639221191406e+00 1.413692951202392578e+00 3.090287446975708008e-01 5.168164968490600586e-01 1.291594147682189941e+00
2.660000000000000000e+02 1.934923171997070312e+01 3.468486070632934570e+00 3.690432071685791016e+00 4.056629657745361328e+00 2.324118375778198242e+00 -5.959319591522216797e+00
2.670000000000000000e+02 1.941787147521972656e+01 4.824954509735107422e+00 6.760391235351562500e+00 5.526535511016845703e-01 2.193913459777832031e+00 2.330836057662963867e+00
2.680000000000000000e+02 2.098773384094238281e+01 3.194412231445312500e+00 -5.219322443008422852e-01 1.544495224952697754e+00 3.067688941955566406e-01 -9.297986030578613281e-01
2.690000000000000000e+02 2.077296447753906250e+01 2.997659921646118164e+00 6.227846741676330566e-01 2.013684272766113281e+00 7.909406423568725586e-01 -1.923314094543457031e+00
2.700000000000000000e+02 2.059982299804687500e+01 3.427290916442871094e+00 -4.820210337638854980e-01 1.076216220855712891e+00 1.782585531473159790e-01 -1.642537236213684082e+00
2.710000000000000000e+02 2.023729515075683594e+01 3.810029745101928711e+00 -1.004660844802856445e+00 3.501784801483154297e-01 -1.963447183370590210e-01 -1.277293205261230469e+00
2.720000000000000000e+02 1.979543876647949219e+01 3.828932046890258789e+00 6.578852534294128418e-01 4.434776306152343750e-01 3.304088711738586426e-01 -2.210958957672119141e+00
2.730000000000000000e+02 2.032137680053710938e+01 4.524519443511962891e+00 3.240053653717041016e+00 -1.791794784367084503e-02 9.666407108306884766e-01 4.124116301536560059e-01
2.740000000000000000e+02 2.092495536804199219e+01 4.721026420593261719e+00 2.250435590744018555e+00 2.963880449533462524e-02 6.840223073959350586e-01 6.852168440818786621e-01
2.750000000000000000e+02 2.073631286621093750e+01 4.943171977996826172e+00 2.571582794189453125e+00 1.095289960503578186e-01 8.043335080146789551e-01 1.140746593475341797e+00
2.760000000000000000e+02 2.021859931945800781e+01 5.164874076843261719e+00 3.612433195114135742e+00 5.008802413940429688e-01 1.233994007110595703e+00 2.135911464691162109e+00
2.770000000000000000e+02 1.961471366882324219e+01 4.983739852905273438e+00 5.855175495147705078e+00 7.794849872589111328e-01 1.990398168563842773e+00 2.640188932418823242e+00
2.780000000000000000e+02 2.116730117797851562e+01 5.124784946441650391e+00 1.799335718154907227e+00 2.155852615833282471e-01 6.044763326644897461e-01 1.229587554931640625e+00
2.790000000000000000e+02 2.078514862060546875e+01 3.207851886749267578e+00 -3.233098238706588745e-02 1.471659302711486816e+00 4.317984879016876221e-01 -1.553666234016418457e+00
2.800000000000000000e+02 1.979557228088378906e+01 4.890002727508544922e+00 5.132733821868896484e+00 3.243863582611083984e-01 1.637136101722717285e+00 1.837223291397094727e+00
2.810000000000000000e+02 1.989965629577636719e+01 5.125921249389648438e+00 4.404691219329833984e+00 7.612840533256530762e-01 1.549792528152465820e+00 2.613981485366821289e+00
2.820000000000000000e+02 2.080496597290039062e+01 5.574210166931152344e+00 1.784054160118103027e+00 7.055093050003051758e-01 7.468690276145935059e-01 2.119437456130981445e+00
2.830000000000000000e+02 2.098470687866210938e+01 5.348938941955566406e+00 1.873598933219909668e+00 4.094574153423309326e-01 6.849169135093688965e-01 1.661299705505371094e+00
2.840000000000000000e+02 2.069460487365722656e+01 4.307271003723144531e+00 2.362117290496826172e+00 5.136896390467882156e-03 7.101762890815734863e-01 4.020982980728149414e-02
2.850000000000000000e+02 2.090926551818847656e+01 4.509955406188964844e+00 2.202687501907348633e+00 -5.361818708479404449e-03 6.591976881027221680e-01 3.742373883724212646e-01
2.860000000000000000e+02 2.049641227722167969e+01 4.317383766174316406e+00 2.687223911285400391e+00 -1.457559783011674881e-02 8.017944693565368652e-01 3.231674060225486755e-02
2.870000000000000000e+02 2.050262641906738281e+01 4.745078563690185547e+00 3.076294660568237305e+00 5.532925203442573547e-02 9.394871592521667480e-01 8.774715065956115723e-01
2.880000000000000000e+02 2.015353775024414062e+01 4.559200763702392578e+00 3.748657703399658203e+00 7.829988747835159302e-02 1.148087263107299805e+00 5.767161846160888672e-01
2.890000000000000000e+02 1.996069908142089844e+01 4.613150119781494141e+00 4.327153205871582031e+00 3.162157908082008362e-02 1.307632327079772949e+00 7.634966969490051270e-01
2.900000000000000000e+02 1.948671722412109375e+01 4.612477302551269531e+00 6.269634723663330078e+00 9.959086030721664429e-02 1.910767674446105957e+00 1.121320724487304688e+00
2.910000000000000000e+02 2.019749832153320312e+01 5.605307102203369141e+00 2.522063255310058594e+00 1.114073634147644043e+00 1.090841054916381836e+00 2.938681364059448242e+00
2.920000000000000000e+02 2.017974090576171875e+01 5.369867324829101562e+00 3.192215681076049805e+00 8.456819057464599609e-01 1.211369276046752930e+00 2.584300041198730469e+00
2.930000000000000000e+02 1.974484825134277344e+01 5.387662410736083984e+00 4.020377159118652344e+00 1.511886358261108398e+00 1.659679055213928223e+00 3.428075313568115234e+00
2.940000000000000000e+02 1.937434005737304688e+01 5.660273551940917969e+00 2.725248098373413086e+00 3.493685722351074219e+00 1.865680098533630371e+00 4.345242500305175781e+00
2.950000000000000000e+02 1.900527000427246094e+01 5.688749790191650391e+00 2.279094934463500977e+00 5.799705028533935547e+00 2.423640012741088867e+00 4.904135227203369141e+00
2.960000000000000000e+02 1.783956909179687500e+01 5.656000614166259766e+00 1.050369501113891602e+00 8.238628387451171875e+00 2.786699295043945312e+00 -1.746247053146362305e+00
2.970000000000000000e+02 1.737301826477050781e+01 4.759581089019775391e+00 1.208341121673583984e+01 4.755898952484130859e+00 5.051793098449707031e+00 -2.668900012969970703e+00
2.980000000000000000e+02 1.701663398742675781e+01 3.976681232452392578e+00 1.236630916595458984e+01 1.744051575660705566e+00 4.233108043670654297e+00 1.153421521186828613e+00
2.990000000000000000e+02 1.707285690307617188e+01 3.810822248458862305e+00 1.066972541809082031e+01 -3.946348130702972412e-01 3.082527160644531250e+00 2.730212688446044922e+00
3.000000000000000000e+02 1.721531486511230469e+01 3.845308065414428711e+00 1.220761680603027344e+01 3.153545856475830078e+00 4.608348846435546875e+00 2.083889007568359375e+00
3.010000000000000000e+02 1.738732147216796875e+01 3.891550540924072266e+00 1.222873210906982422e+01 2.897088050842285156e+00 4.537745952606201172e+00 2.530042409896850586e+00
3.020000000000000000e+02 1.756338882446289062e+01 3.249581336975097656e+00 5.788117408752441406e+00 2.233537197113037109e+00 2.406496286392211914e+00 -7.760550379753112793e-01
3.030000000000000000e+02 1.784446144104003906e+01 3.059115171432495117e+00 1.860826134681701660e+00 8.862702369689941406e+00 3.217058420181274414e+00 -2.172473669052124023e+00
3.040000000000000000e+02 1.801927757263183594e+01 3.021838903427124023e+00 -3.411374390125274658e-01 8.356408119201660156e+00 2.404581308364868164e+00 -3.373445034027099609e+00
3.050000000000000000e+02 1.858135795593261719e+01 2.905193567276000977e+00 1.753189563751220703e+00 9.512259483337402344e+00 3.379634857177734375e+00 -7.220107078552246094e+00
3.060000000000000000e+02 1.873582649230957031e+01 3.093306779861450195e+00 2.934118509292602539e+00 9.276179313659667969e+00 3.663089275360107422e+00 -8.075030326843261719e+00
3.070000000000000000e+02 1.866259956359863281e+01 3.280591487884521484e+00 2.237511873245239258e+00 1.023220729827880859e+01 3.740915536880493164e+00 -8.009718894958496094e+00
3.080000000000000000e+02 2.087110137939453125e+01 4.046018600463867188e+00 -4.423602104187011719e+00 -4.237929284572601318e-01 -1.454218506813049316e+00 1.639297753572463989e-01
3.090000000000000000e+02 2.067135429382324219e+01 4.058485507965087891e+00 -4.055521965026855469e+00 4.567058980464935303e-01 -1.079644799232482910e+00 2.061074376106262207e-01
3.100000000000000000e+02 2.102726554870605469e+01 3.609553337097167969e+00 -1.891614794731140137e+00 5.061537027359008789e-01 -4.156383275985717773e-01 -2.417690157890319824e-01
3.110000000000000000e+02 2.082647132873535156e+01 3.621377706527709961e+00 -1.814722537994384766e+00 3.225617110729217529e-01 -4.476482570171356201e-01 -6.624704003334045410e-01
3.120000000000000000e+02 2.063342857360839844e+01 3.633924961090087891e+00 -1.325230121612548828e+00 8.008031845092773438e-01 -1.573280990123748779e-01 -8.192074894905090332e-01
3.130000000000000000e+02 2.065033149719238281e+01 3.841664075851440430e+00 -2.702369928359985352e+00 -3.219545632600784302e-02 -8.203696012496948242e-01 -4.232166409492492676e-01
3.140000000000000000e+02 2.045044136047363281e+01 3.841221094131469727e+00 -2.091930866241455078e+00 6.704088449478149414e-01 -4.264566302299499512e-01 -6.731842756271362305e-01
3.150000000000000000e+02 2.001273155212402344e+01 3.793365240097045898e+00 -8.545813709497451782e-02 9.932826757431030273e-01 2.723473608493804932e-01 -1.691336154937744141e+00
3.160000000000000000e+02 2.117411804199218750e+01 2.967655181884765625e+00 -4.920012652873992920e-01 2.171905994415283203e+00 5.039713978767395020e-01 -7.970537543296813965e-01
3.170000000000000000e+02 2.040533256530761719e+01 3.010584354400634766e+00 1.353038549423217773e+00 2.671975612640380859e+00 1.207504272460937500e+00 -2.913979530334472656e+00
3.180000000000000000e+02 2.037231254577636719e+01 2.813491106033325195e+00 1.636689305305480957e+00 3.195246934890747070e+00 1.449580907821655273e+00 -3.266172170639038086e+00
3.190000000000000000e+02 1.969776344299316406e+01 3.096735239028930664e+00 2.716267347335815430e+00 4.369279861450195312e+00 2.125664234161376953e+00 -5.299513339996337891e+00
3.200000000000000000e+02 1.976689910888671875e+01 2.867993831634521484e+00 1.908115386962890625e+00 4.845925331115722656e+00 2.026212215423583984e+00 -5.282337188720703125e+00
3.210000000000000000e+02 1.917673492431640625e+01 3.327568292617797852e+00 3.263898611068725586e+00 5.386085987091064453e+00 2.594995260238647461e+00 -7.285674095153808594e+00
3.220000000000000000e+02 1.912372589111328125e+01 3.080387592315673828e+00 2.907285451889038086e+00 6.817112922668457031e+00 2.917319536209106445e+00 -7.880742073059082031e+00
3.230000000000000000e+02 1.916473197937011719e+01 2.891780376434326172e+00 2.207573652267456055e+00 6.942449569702148438e+00 2.745006799697875977e+00 -6.862436294555664062e+00
3.240000000000000000e+02 1.903246498107910156e+01 3.465526819229125977e+00 4.251222610473632812e+00 6.378422737121582031e+00 3.188893556594848633e+00 -7.797658920288085938e+00
3.250000000000000000e+02 1.953251266479492188e+01 3.299739837646484375e+00 2.495416641235351562e+00 3.467175960540771484e+00 1.788777828216552734e+00 -5.736373901367187500e+00
3.260000000000000000e+02 1.886032676696777344e+01 3.354455709457397461e+00 3.694672822952270508e+00 8.045804977416992188e+00 3.522143125534057617e+00 -8.361229896545410156e+00
3.270000000000000000e+02 1.782069396972656250e+01 5.513071537017822266e+00 2.065345287322998047e+00 8.832063674926757812e+00 3.269222497940063477e+00 -1.801089763641357422e+00
3.280000000000000000e+02 1.799299621582031250e+01 5.464094161987304688e+00 2.471345424652099609e+00 1.044759464263916016e+01 3.875681877136230469e+00 -6.844758987426757812e-01
3.290000000000000000e+02 2.071813011169433594e+01 4.734245300292968750e+00 2.620697975158691406e+00 4.087636992335319519e-02 7.984722852706909180e-01 7.977360486984252930e-01
3.300000000000000000e+02 2.078382492065429688e+01 5.363707065582275391e+00 2.114587068557739258e+00 4.350182712078094482e-01 7.648816108703613281e-01 1.841519713401794434e+00
3.310000000000000000e+02 2.094313621520996094e+01 4.929353713989257812e+00 2.217578172683715820e+00 1.194897443056106567e-01 7.011203765869140625e-01 1.056803345680236816e+00
3.320000000000000000e+02 2.028793334960937500e+01 4.706343650817871094e+00 3.487363576889038086e+00 3.718951344490051270e-02 1.057366013526916504e+00 8.990582227706909180e-01
3.330000000000000000e+02 2.100676155090332031e+01 3.401616096496582031e+00 -1.028792858123779297e+00 6.613887548446655273e-01 -1.102212294936180115e-01 -5.297825932502746582e-01
3.340000000000000000e+02 2.024956512451171875e+01 3.066014528274536133e+00 1.454613208770751953e+00 2.453123807907104492e+00 1.172321081161499023e+00 -3.294174671173095703e+00
3.350000000000000000e+02 2.030307769775390625e+01 3.330912351608276367e+00 3.424193859100341797e-01 1.673235058784484863e+00 6.046963334083557129e-01 -2.467684507369995117e+00
3.360000000000000000e+02 1.970859909057617188e+01 5.172603607177734375e+00 4.544084548950195312e+00 1.146704554557800293e+00 1.707236766815185547e+00 3.024575710296630859e+00
3.370000000000000000e+02 1.951531600952148438e+01 5.154133319854736328e+00 5.475260257720947266e+00 1.587390184402465820e+00 2.118795156478881836e+00 3.585469007492065430e+00
3.380000000000000000e+02 1.894321823120117188e+01 3.079719781875610352e+00 2.060052633285522461e+00 7.625509738922119141e+00 2.905668735504150391e+00 -7.491082668304443359e+00
3.390000000000000000e+02 1.970060539245605469e+01 3.548728942871093750e+00 2.203637599945068359e+00 2.493104457855224609e+00 1.409022569656372070e+00 -3.967042684555053711e+00
3.400000000000000000e+02 2.096360969543457031e+01 5.138406276702880859e+00 2.090137481689453125e+00 2.017267048358917236e-01 6.875592470169067383e-01 1.338766217231750488e+00
3.410000000000000000e+02 2.076128196716308594e+01 5.153110027313232422e+00 2.430134057998657227e+00 2.795418202877044678e-01 8.129027485847473145e-01 1.551696896553039551e+00
3.420000000000000000e+02 1.910345077514648438e+01 5.516795635223388672e+00 3.537790060043334961e+00 4.928276538848876953e+00 2.539819955825805664e+00 4.987798690795898438e+00
3.430000000000000000e+02 2.052344894409179688e+01 4.961393833160400391e+00 3.030981063842773438e+00 1.755854040384292603e-01 9.619699716567993164e-01 1.336031794548034668e+00
3.440000000000000000e+02 2.045333099365234375e+01 3.645888090133666992e+00 -1.152914047241210938e+00 5.458083152770996094e-01 -1.821317374706268311e-01 -1.177490830421447754e+00
3.450000000000000000e+02 2.056531715393066406e+01 5.172005176544189453e+00 2.732275247573852539e+00 3.245685696601867676e-01 9.170531630516052246e-01 1.742634415626525879e+00
3.460000000000000000e+02 2.019602394104003906e+01 4.883051395416259766e+00 3.768384218215942383e+00 1.805832087993621826e-01 1.184690237045288086e+00 1.339753746986389160e+00
3.470000000000000000e+02 2.015455818176269531e+01 3.440905094146728516e+00 6.212478280067443848e-01 1.944674253463745117e+00 7.697766423225402832e-01 -2.530371189117431641e+00
3.480000000000000000e+02 1.996262931823730469e+01 5.366164684295654297e+00 3.500876188278198242e+00 1.098380088806152344e+00 1.379776835441589355e+00 2.890845060348510742e+00
3.490000000000000000e+02 2.014351272583007812e+01 3.225889444351196289e+00 1.361005425453186035e+00 2.493559122085571289e+00 1.156369447708129883e+00 -3.272050142288208008e+00
3.500000000000000000e+02 2.033862876892089844e+01 5.025757789611816406e+00 3.373060464859008789e+00 2.028055191040039062e-01 1.072759866714477539e+00 1.545183539390563965e+00
3.510000000000000000e+02 2.041722488403320312e+01 3.478190898895263672e+00 1.145892068743705750e-01 1.363256216049194336e+00 4.433536231517791748e-01 -1.855335474014282227e+00
3.520000000000000000e+02 2.028364372253417969e+01 3.600076913833618164e+00 -3.547295928001403809e-01 1.116162419319152832e+00 2.284298539161682129e-01 -1.977968931198120117e+00
3.530000000000000000e+02 2.038586235046386719e+01 5.194798946380615234e+00 3.069463968276977539e+00 4.289343655109405518e-01 1.049519538879394531e+00 1.991433024406433105e+00
3.540000000000000000e+02 2.007367706298828125e+01 5.035928249359130859e+00 4.034296035766601562e+00 3.857098519802093506e-01 1.326001763343811035e+00 2.009947061538696289e+00
3.550000000000000000e+02 7.449614715576171875e+01 1.019282245635986328e+01 -2.098061591386795044e-01 4.729269504547119141e+00 1.355839014053344727e+00 -2.610653162002563477e+00
3.560000000000000000e+02 7.308344268798828125e+01 1.136308002471923828e+01 1.599848628044128418e+00 2.964389085769653320e+00 1.369271397590637207e+00 -1.708845376968383789e+00
3.570000000000000000e+02 7.393264770507812500e+01 1.353667545318603516e+01 1.026475071907043457e+00 5.177872657775878906e+00 1.861304402351379395e+00 -6.097117066383361816e-01
3.580000000000000000e+02 7.445843505859375000e+01 1.643652725219726562e+01 7.217752933502197266e-01 6.043416500091552734e+00 2.029557466506958008e+00 -5.472889542579650879e-02
3.590000000000000000e+02 7.462220001220703125e+01 2.184691619873046875e+01 6.888157874345779419e-02 6.721232414245605469e+00 2.037034034729003906e+00 2.709154188632965088e-01
3.600000000000000000e+02 7.380723571777343750e+01 2.278262519836425781e+01 2.897534519433975220e-02 6.707274436950683594e+00 2.020874977111816406e+00 2.946474552154541016e-01
3.610000000000000000e+02 7.390138244628906250e+01 2.677167892456054688e+01 -7.000838965177536011e-02 6.795288085937500000e+00 2.017583847045898438e+00 2.542599141597747803e-01
3.620000000000000000e+02 7.463084411621093750e+01 3.080326652526855469e+01 -5.003275722265243530e-02 6.908574104309082031e+00 2.057562351226806641e+00 1.812319457530975342e-01
3.630000000000000000e+02 7.231420898437500000e+01 3.765259552001953125e+01 -9.474775940179824829e-02 6.694156646728515625e+00 1.979822754859924316e+00 9.120434522628784180e-02
3.640000000000000000e+02 7.208230590820312500e+01 4.074980926513671875e+01 -8.570156246423721313e-02 6.669731616973876953e+00 1.975208997726440430e+00 3.023185394704341888e-02
3.650000000000000000e+02 7.156473541259765625e+01 3.365927505493164062e+01 -1.017255857586860657e-01 6.636970520019531250e+00 1.960573434829711914e+00 1.583380103111267090e-01
3.660000000000000000e+02 7.204654693603515625e+01 3.034925079345703125e+01 -1.005373671650886536e-01 6.661685466766357422e+00 1.968344449996948242e+00 2.063565850257873535e-01
3.670000000000000000e+02 6.962593841552734375e+01 2.521720123291015625e+01 -1.002322137355804443e-01 6.499558925628662109e+00 1.919797897338867188e+00 2.482739835977554321e-01
3.680000000000000000e+02 7.259998321533203125e+01 2.216732978820800781e+01 4.326409101486206055e-02 6.672512054443359375e+00 2.014732837677001953e+00 3.513226509094238281e-01
3.690000000000000000e+02 7.082648468017578125e+01 2.007882118225097656e+01 9.088537096977233887e-02 6.681850433349609375e+00 2.031820774078369141e+00 4.291113317012786865e-01
3.700000000000000000e+02 7.138481903076171875e+01 1.606397819519042969e+01 9.858499765396118164e-01 6.344720840454101562e+00 2.199171066284179688e+00 8.009061813354492188e-01
3.710000000000000000e+02 7.297644805908203125e+01 1.265409374237060547e+01 1.423732638359069824e+00 4.262208938598632812e+00 1.705782532691955566e+00 -4.389292299747467041e-01
3.720000000000000000e+02 7.206192016601562500e+01 1.002172183990478516e+01 -1.263865709304809570e+00 2.677998133003711700e-02 -3.711257278919219971e-01 -4.562441110610961914e-01
3.730000000000000000e+02 7.095171356201171875e+01 1.010998725891113281e+01 5.129621028900146484e-01 3.111626386642456055e+00 1.087376594543457031e+00 1.236382484436035156e+00
3.740000000000000000e+02 7.574935150146484375e+01 1.103285980224609375e+01 -5.463233590126037598e-01 7.990913391113281250e+00 2.233376979827880859e+00 -2.335554599761962891e+00
3.750000000000000000e+02 7.935574340820312500e+01 8.412741661071777344e+00 2.573809027671813965e-01 6.243575096130371094e+00 1.950286865234375000e+00 3.435943424701690674e-01
3.760000000000000000e+02 7.836440277099609375e+01 1.109385108947753906e+01 -4.051148295402526855e-01 7.630010128021240234e+00 2.167468547821044922e+00 1.877689659595489502e-01
3.770000000000000000e+02 7.943701934814453125e+01 1.114317035675048828e+01 8.950715512037277222e-02 7.408679008483886719e+00 2.249455928802490234e+00 -7.299610879272222519e-03
3.780000000000000000e+02 7.807371520996093750e+01 1.245655632019042969e+01 -9.827359020709991455e-02 7.383879184722900391e+00 2.185681581497192383e+00 -3.573037385940551758e-01
3.790000000000000000e+02 7.936497497558593750e+01 1.538941001892089844e+01 2.907311543822288513e-02 6.959819316864013672e+00 2.096667766571044922e+00 -1.018739417195320129e-01
3.800000000000000000e+02 7.817581176757812500e+01 1.691356086730957031e+01 1.243812963366508484e-01 6.691173076629638672e+00 2.044666290283203125e+00 -1.343136429786682129e-01
3.810000000000000000e+02 7.600269317626953125e+01 2.128908729553222656e+01 5.406788364052772522e-02 6.719239711761474609e+00 2.031992197036743164e+00 2.140007466077804565e-01
3.820000000000000000e+02 7.789242553710937500e+01 2.383983612060546875e+01 -1.226356159895658493e-02 6.885987281799316406e+00 2.062117099761962891e+00 1.504018902778625488e-01
3.830000000000000000e+02 7.803163909912109375e+01 2.646398544311523438e+01 -1.813149638473987579e-02 7.032196044921875000e+00 2.104219198226928711e+00 1.288223713636398315e-01
3.840000000000000000e+02 7.919562530517578125e+01 3.063076591491699219e+01 -8.434855379164218903e-03 7.354423522949218750e+00 2.203796625137329102e+00 4.360971599817276001e-02
3.850000000000000000e+02 7.701076507568359375e+01 3.359752655029296875e+01 -5.413170903921127319e-03 7.183954238891601562e+00 2.153562307357788086e+00 9.878437966108322144e-02
3.860000000000000000e+02 7.744830322265625000e+01 3.642797088623046875e+01 -2.253104373812675476e-02 7.317267417907714844e+00 2.188421010971069336e+00 5.741953104734420776e-02
3.870000000000000000e+02 7.582777404785156250e+01 4.045587158203125000e+01 -2.559602633118629456e-02 7.239582061767578125e+00 2.164195775985717773e+00 8.239085972309112549e-02
3.880000000000000000e+02 7.859883880615234375e+01 4.019103622436523438e+01 -2.481516636908054352e-02 7.499033451080322266e+00 2.242265462875366211e+00 -4.884262382984161377e-02
3.890000000000000000e+02 7.582607269287109375e+01 7.886218070983886719e+00 2.979487180709838867e+00 1.524663829803466797e+01 5.467837810516357422e+00 -3.931608915328979492e+00
3.900000000000000000e+02 7.763331604003906250e+01 6.180387496948242188e+00 1.369552135467529297e+00 1.040601253509521484e+01 3.532669305801391602e+00 -1.413767218589782715e+00
3.910000000000000000e+02 7.612248229980468750e+01 5.891523361206054688e+00 8.207406997680664062e-01 1.682785034179687500e+01 5.294577121734619141e+00 -1.208928465843200684e+00
3.920000000000000000e+02 7.598693084716796875e+01 4.700818061828613281e+00 4.690399765968322754e-02 1.490245914459228516e+01 4.484808921813964844e+00 2.227977812290191650e-01
3.930000000000000000e+02 7.600053405761718750e+01 2.154840707778930664e+00 -1.954199910163879395e+00 8.222194671630859375e+00 1.880398511886596680e+00 -2.517460882663726807e-01
3.940000000000000000e+02 7.495539855957031250e+01 1.757911443710327148e+00 -2.732174158096313477e+00 2.903085231781005859e+00 5.127333849668502808e-02 -5.064892172813415527e-01
3.950000000000000000e+02 7.553568267822265625e+01 -5.470969080924987793e-01 -1.485959053039550781e+00 5.862152099609375000e+00 1.312857866287231445e+00 5.139580368995666504e-01
3.960000000000000000e+02 7.398876190185546875e+01 1.080685734748840332e+00 -5.349678039550781250e+00 -6.082016229629516602e-01 -1.787363886833190918e+00 -1.701291799545288086e+00
3.970000000000000000e+02 7.318600463867187500e+01 2.243127822875976562e-01 -4.055212497711181641e+00 -2.320333719253540039e-01 -1.286173701286315918e+00 -1.488024473190307617e+00
3.980000000000000000e+02 7.215628814697265625e+01 8.603372573852539062e-01 -3.997239828109741211e+00 1.503482609987258911e-01 -1.154067516326904297e+00 -1.946904897689819336e+00
3.990000000000000000e+02 7.112075805664062500e+01 1.281829953193664551e+00 1.098000407218933105e+00 5.178948402404785156e+00 1.883084535598754883e+00 -3.011864662170410156e+00
4.000000000000000000e+02 7.102434539794921875e+01 1.141609400510787964e-01 -3.863006114959716797e+00 5.416616916656494141e+00 4.660832285881042480e-01 -4.383974075317382812e+00
4.010000000000000000e+02 7.003690338134765625e+01 1.267717480659484863e+00 7.956159710884094238e-01 7.573363304138183594e+00 2.510693788528442383e+00 -3.104087829589843750e+00
4.020000000000000000e+02 6.960128784179687500e+01 2.545171737670898438e+00 2.639947414398193359e+00 1.173059272766113281e+01 4.311161994934082031e+00 -4.054710865020751953e+00
4.030000000000000000e+02 6.856764984130859375e+01 4.858206748962402344e+00 1.524630784988403320e+00 1.388111686706542969e+01 4.621724128723144531e+00 -1.088647961616516113e+00
4.040000000000000000e+02 6.928845214843750000e+01 5.876730442047119141e+00 6.360816955566406250e-01 1.331496906280517578e+01 4.185315132141113281e+00 5.662805438041687012e-01
4.050000000000000000e+02 7.053511810302734375e+01 8.248895645141601562e+00 -1.239404916763305664e+00 3.042670249938964844e+00 5.409796237945556641e-01 9.797400236129760742e-02
4.060000000000000000e+02 6.588444519042968750e+01 1.167343711853027344e+01 2.794191360473632812e+00 2.075682067871093750e+01 7.065303802490234375e+00 -8.648849129676818848e-01
4.070000000000000000e+02 6.538005065917968750e+01 1.296521282196044922e+01 3.703252315521240234e+00 1.336426734924316406e+01 5.120255947113037109e+00 -3.916322708129882812e+00
4.080000000000000000e+02 6.775920104980468750e+01 1.587884235382080078e+01 -7.346322294324636459e-03 8.203447341918945312e+00 2.458830118179321289e+00 6.452429890632629395e-01
4.090000000000000000e+02 6.193847656250000000e+01 1.977168083190917969e+01 7.805914282798767090e-01 4.511275768280029297e+00 1.587560176849365234e+00 2.717978656291961670e-01
4.100000000000000000e+02 5.904156112670898438e+01 2.193213844299316406e+01 1.277310401201248169e-01 5.118179321289062500e+00 1.573773026466369629e+00 8.886221051216125488e-01
4.110000000000000000e+02 5.558404159545898438e+01 2.732402038574218750e+01 -5.237994790077209473e-01 5.090950965881347656e+00 1.370145320892333984e+00 1.098937615752220154e-01
4.120000000000000000e+02 5.334939193725585938e+01 3.036163330078125000e+01 -4.683980047702789307e-01 4.416872024536132812e+00 1.184542179107666016e+00 -2.191681563854217529e-01
4.130000000000000000e+02 5.061444091796875000e+01 3.358967971801757812e+01 -2.665434181690216064e-01 3.623236417770385742e+00 1.007007956504821777e+00 -2.942193746566772461e-01
4.140000000000000000e+02 4.274555969238281250e+01 4.073654174804687500e+01 1.946369111537933350e-01 2.008949995040893555e+00 6.610760688781738281e-01 -7.628230750560760498e-02
4.150000000000000000e+02 3.771778106689453125e+01 4.072732925415039062e+01 3.455384075641632080e-01 1.257327437400817871e+00 4.808597564697265625e-01 -4.191759228706359863e-02
4.160000000000000000e+02 3.672053909301757812e+01 3.423147201538085938e+01 2.656961083412170410e-01 9.623473882675170898e-01 3.684130609035491943e-01 -1.550810486078262329e-01
4.170000000000000000e+02 3.592509841918945312e+01 3.140601539611816406e+01 1.975117772817611694e-01 8.028213381767272949e-01 3.000999391078948975e-01 -1.292587965726852417e-01
4.180000000000000000e+02 3.912048339843750000e+01 2.411573028564453125e+01 -1.781795471906661987e-01 6.820824742317199707e-01 1.511708647012710571e-01 -3.669523596763610840e-01
4.190000000000000000e+02 3.753947067260742188e+01 2.031794357299804688e+01 -8.973310589790344238e-01 7.438509166240692139e-02 -2.468837946653366089e-01 -2.916359901428222656e-01
4.200000000000000000e+02 3.718705749511718750e+01 1.571971797943115234e+01 -2.472337722778320312e+00 -6.976705044507980347e-02 -7.626314163208007812e-01 -4.168060719966888428e-01
4.210000000000000000e+02 3.636729049682617188e+01 1.362372589111328125e+01 -2.416441202163696289e+00 -5.333637595176696777e-01 -8.849414587020874023e-01 1.050287127494812012e+00
4.220000000000000000e+02 3.549004745483398438e+01 1.412585449218750000e+01 -4.145684719085693359e+00 -1.069796442985534668e+00 -1.564644455909729004e+00 9.155824184417724609e-01
4.230000000000000000e+02 3.670502471923828125e+01 1.346409320831298828e+01 -2.007472038269042969e+00 -3.142798542976379395e-01 -6.965255737304687500e-01 7.585527300834655762e-01
4.240000000000000000e+02 3.842266464233398438e+01 1.304149532318115234e+01 -1.493940830230712891e+00 1.747376620769500732e-01 -3.957609534263610840e-01 5.449573993682861328e-01
4.250000000000000000e+02 3.851934814453125000e+01 1.372025108337402344e+01 -1.844098925590515137e+00 2.354232370853424072e-01 -4.826027154922485352e-01 4.157323837280273438e-01
4.260000000000000000e+02 4.423564910888671875e+01 1.335693836212158203e+01 -1.579033970832824707e+00 -7.130735367536544800e-02 -4.951024055480957031e-01 -6.068438291549682617e-01
4.270000000000000000e+02 4.415032958984375000e+01 1.660467338562011719e+01 -1.441852688789367676e+00 6.114232540130615234e-01 -2.491288334131240845e-01 -1.393336653709411621e-01
4.280000000000000000e+02 4.450774765014648438e+01 2.107021141052246094e+01 -5.453236103057861328e-01 1.587256431579589844e+00 3.125798404216766357e-01 -9.204542040824890137e-01
4.290000000000000000e+02 4.182537078857421875e+01 2.961361122131347656e+01 1.084547955542802811e-02 1.655337572097778320e+00 4.998548924922943115e-01 -4.646598696708679199e-01
4.300000000000000000e+02 4.313349914550781250e+01 3.206067657470703125e+01 3.271901234984397888e-02 2.016317844390869141e+00 6.147110462188720703e-01 -4.348770678043365479e-01
4.310000000000000000e+02 4.778363800048828125e+01 3.744489669799804688e+01 -6.113949418067932129e-02 3.011964797973632812e+00 8.852475881576538086e-01 -2.054754942655563354e-01
4.320000000000000000e+02 4.358333587646484375e+01 3.754355621337890625e+01 1.349130421876907349e-01 2.147488832473754883e+00 6.847205758094787598e-01 -1.910398900508880615e-01
4.330000000000000000e+02 3.989585113525390625e+01 3.326103973388671875e+01 1.966326385736465454e-01 1.356133699417114258e+00 4.658299088478088379e-01 -2.442553639411926270e-01
4.340000000000000000e+02 3.893372726440429688e+01 3.070743370056152344e+01 1.421881616115570068e-01 1.105304360389709473e+00 3.742477595806121826e-01 -2.821990549564361572e-01
4.350000000000000000e+02 3.878400802612304688e+01 2.655149650573730469e+01 -1.068619452416896820e-02 8.066552877426147461e-01 2.387907356023788452e-01 -3.308396935462951660e-01
4.360000000000000000e+02 3.948576736450195312e+01 2.055010032653808594e+01 -8.456323146820068359e-01 4.454310834407806396e-01 -1.200603693723678589e-01 -3.698638081550598145e-01
4.370000000000000000e+02 4.075922012329101562e+01 1.588218307495117188e+01 -1.876703619956970215e+00 7.021987438201904297e-01 -3.523514866828918457e-01 -7.980467379093170166e-02
4.380000000000000000e+02 6.625685882568359375e+01 -2.435917854309082031e+00 -6.517374515533447266e+00 -1.437280416488647461e+00 -2.386396408081054688e+00 2.857977867126464844e+00
4.390000000000000000e+02 6.814095306396484375e+01 -4.354243755340576172e+00 -1.998121738433837891e+00 4.391268789768218994e-01 -4.676984548568725586e-01 5.097790956497192383e-01
4.400000000000000000e+02 6.720379638671875000e+01 -3.344374418258666992e+00 -3.971723079681396484e+00 -5.075320601463317871e-01 -1.343776583671569824e+00 1.969237327575683594e+00
4.410000000000000000e+02 7.088077545166015625e+01 -5.709531307220458984e+00 -4.007380902767181396e-01 4.437437057495117188e+00 1.211009621620178223e+00 -1.220609188079833984e+00
4.420000000000000000e+02 7.164688110351562500e+01 -8.698834419250488281e+00 1.548102140426635742e+00 9.551317214965820312e+00 3.329825878143310547e+00 -2.806469917297363281e+00
4.430000000000000000e+02 7.230145263671875000e+01 -1.140198421478271484e+01 2.720380425453186035e-01 1.340122222900390625e+01 4.101977825164794922e+00 -4.028619527816772461e-01
4.440000000000000000e+02 7.242169952392578125e+01 -1.269791126251220703e+01 6.566426157951354980e-01 1.420620346069335938e+01 4.458853721618652344e+00 7.048719525337219238e-01
4.450000000000000000e+02 7.296829223632812500e+01 -1.384044742584228516e+01 1.683250069618225098e+00 1.286084175109863281e+01 4.363227844238281250e+00 1.464180588722229004e+00
4.460000000000000000e+02 7.212870788574218750e+01 -1.474777984619140625e+01 2.457121133804321289e+00 1.373811912536621094e+01 4.858572006225585938e+00 2.864718437194824219e+00
4.470000000000000000e+02 7.148225402832031250e+01 -1.575232315063476562e+01 9.310063123703002930e-01 7.454137802124023438e+00 2.515543222427368164e+00 3.258663415908813477e+00
4.480000000000000000e+02 7.230292510986328125e+01 -1.749544906616210938e+01 -8.786937594413757324e-01 8.749007225036621094e+00 2.361093997955322266e+00 2.031522035598754883e+00
4.490000000000000000e+02 6.942490386962890625e+01 -1.618159103393554688e+01 -1.915605306625366211e+00 -2.738294899463653564e-01 -6.568304300308227539e-01 1.668811440467834473e+00
4.500000000000000000e+02 7.085832977294921875e+01 -1.688621902465820312e+01 -7.449908852577209473e-01 3.982053279876708984e+00 9.711186885833740234e-01 2.764121532440185547e+00
4.510000000000000000e+02 6.823114776611328125e+01 -2.126768302917480469e+01 7.272025346755981445e-01 4.071673870086669922e+00 1.439662933349609375e+00 -6.587411276996135712e-03
4.520000000000000000e+02 6.743747711181640625e+01 -2.595855522155761719e+01 3.442898690700531006e-01 5.258142948150634766e+00 1.680729746818542480e+00 -1.324079781770706177e-01
4.530000000000000000e+02 6.865760040283203125e+01 -2.703886795043945312e+01 2.574595808982849121e-01 5.439812183380126953e+00 1.709181547164916992e+00 -5.296428874135017395e-02
4.540000000000000000e+02 6.773186492919921875e+01 -3.194612312316894531e+01 1.105037182569503784e-01 5.592524528503417969e+00 1.710908532142639160e+00 -3.339163213968276978e-02
4.550000000000000000e+02 6.758895111083984375e+01 -3.463488769531250000e+01 7.858747243881225586e-02 5.676059246063232422e+00 1.726394057273864746e+00 -4.348916932940483093e-03
4.560000000000000000e+02 6.764270019531250000e+01 -3.760983657836914062e+01 5.734359472990036011e-02 5.646191596984863281e+00 1.711060523986816406e+00 1.592355780303478241e-02
4.570000000000000000e+02 6.759107971191406250e+01 -4.083907699584960938e+01 5.119371414184570312e-02 5.655389785766601562e+00 1.711974978446960449e+00 -4.801262170076370239e-03
4.580000000000000000e+02 7.187377929687500000e+01 -4.093792724609375000e+01 3.658693656325340271e-02 6.188512802124023438e+00 1.867529869079589844e+00 1.189307216554880142e-02
4.590000000000000000e+02 7.096379089355468750e+01 -3.779381942749023438e+01 4.452455788850784302e-02 6.065266132354736328e+00 1.832937240600585938e+00 1.281325425952672958e-02
4.600000000000000000e+02 7.003098297119140625e+01 -3.237338256835937500e+01 1.277092099189758301e-01 5.890791893005371094e+00 1.805550336837768555e+00 4.659127071499824524e-02
4.610000000000000000e+02 7.020961761474609375e+01 -3.041099739074707031e+01 1.371405869722366333e-01 5.847111701965332031e+00 1.795275688171386719e+00 5.365878716111183167e-02
4.620000000000000000e+02 7.075978851318359375e+01 -2.890886116027832031e+01 1.984468996524810791e-01 5.849440574645996094e+00 1.814366221427917480e+00 6.138863414525985718e-02
4.630000000000000000e+02 7.187119293212890625e+01 -2.437865447998046875e+01 2.131875902414321899e-01 5.841547489166259766e+00 1.816420555114746094e+00 4.348157942295074463e-01
4.640000000000000000e+02 7.056244659423828125e+01 -1.935047912597656250e+01 1.830953210592269897e-01 4.607540607452392578e+00 1.437190771102905273e+00 1.231303334236145020e+00
4.650000000000000000e+02 7.295903778076171875e+01 -2.022247314453125000e+01 -5.492581725120544434e-01 6.712371349334716797e+00 1.848933935165405273e+00 1.020974516868591309e+00
4.660000000000000000e+02 6.964369201660156250e+01 -1.856517791748046875e+01 6.370456814765930176e-01 3.081506013870239258e+00 1.115565538406372070e+00 1.448770284652709961e+00
4.670000000000000000e+02 6.907492828369140625e+01 -5.375890254974365234e+00 -3.825784623622894287e-01 1.425980925559997559e+00 3.130207359790802002e-01 -5.109049081802368164e-01
4.680000000000000000e+02 6.766180419921875000e+01 -1.644729995727539062e+01 -9.137545228004455566e-01 1.287379741668701172e+00 1.120875552296638489e-01 -5.214135050773620605e-01
4.690000000000000000e+02 6.636190032958984375e+01 -1.344057846069335938e+01 -4.858779311180114746e-01 7.271502614021301270e-01 7.238169759511947632e-02 -1.821805238723754883e-01
4.700000000000000000e+02 6.117692184448242188e+01 -1.029262828826904297e+01 2.970829606056213379e-01 8.632757186889648438e+00 2.678952217102050781e+00 6.716043949127197266e-01
4.710000000000000000e+02 5.755170822143554688e+01 -6.765295505523681641e+00 2.969081997871398926e-01 6.876046657562255859e+00 2.151886463165283203e+00 -4.407422542572021484e-01
4.720000000000000000e+02 5.336097717285156250e+01 -7.858662128448486328e+00 8.191161155700683594e-01 3.917733907699584961e+00 1.421054959297180176e+00 -1.713307023048400879e+00
4.730000000000000000e+02 5.490562057495117188e+01 -1.025329113006591797e+01 1.086316823959350586e+00 7.573864936828613281e+00 2.598054409027099609e+00 -2.325408935546875000e+00
4.740000000000000000e+02 5.626706314086914062e+01 -1.723872375488281250e+01 1.588873982429504395e+00 1.549862480163574219e+01 5.126249313354492188e+00 1.574069857597351074e+00
4.750000000000000000e+02 5.714930725097656250e+01 -1.414108562469482422e+01 6.873748898506164551e-01 1.141960430145263672e+01 3.632093906402587891e+00 -3.876766860485076904e-01
4.760000000000000000e+02 6.112093734741210938e+01 -1.895971488952636719e+01 8.412218689918518066e-01 6.689415454864501953e+00 2.259191274642944336e+00 -1.369053721427917480e+00
4.770000000000000000e+02 6.521354675292968750e+01 -2.181986045837402344e+01 4.111399650573730469e-01 4.564882755279541016e+00 1.492806792259216309e+00 -1.028444528579711914e+00
4.780000000000000000e+02 6.348915481567382812e+01 -2.115586853027343750e+01 -1.766590587794780731e-02 5.448374271392822266e+00 1.629212498664855957e+00 -1.210108041763305664e+00
4.790000000000000000e+02 6.447538757324218750e+01 -2.041102790832519531e+01 5.483939647674560547e-01 4.846870899200439453e+00 1.618579506874084473e+00 -1.284195184707641602e+00
4.800000000000000000e+02 6.447113037109375000e+01 -1.805360412597656250e+01 3.676883876323699951e-01 4.595662117004394531e+00 1.489005088806152344e+00 -1.335873961448669434e+00
4.810000000000000000e+02 6.131693267822265625e+01 -1.525615406036376953e+01 3.044958114624023438e-01 6.960626602172851562e+00 2.179536819458007812e+00 -5.395053029060363770e-01
4.820000000000000000e+02 5.547558593750000000e+01 -1.163903999328613281e+01 1.033452153205871582e+00 1.004456138610839844e+01 3.323404312133789062e+00 -2.103222370147705078e+00
4.830000000000000000e+02 5.577002334594726562e+01 -1.311808204650878906e+01 4.182031154632568359e-01 1.218575668334960938e+01 3.781188011169433594e+00 -1.996253967285156250e+00
4.840000000000000000e+02 6.733977508544921875e+01 -1.432356452941894531e+01 -8.295763731002807617e-01 2.283307015895843506e-01 -1.803736984729766846e-01 5.379155278205871582e-01
4.850000000000000000e+02 6.669386291503906250e+01 -1.551591205596923828e+01 -1.015567898750305176e+00 1.691243648529052734e+00 2.027027159929275513e-01 -5.179191827774047852e-01
4.860000000000000000e+02 6.282067489624023438e+01 -1.255891609191894531e+01 -2.700358331203460693e-01 6.979294300079345703e+00 2.012777566909790039e+00 -4.102126657962799072e-01
4.870000000000000000e+02 6.371626281738281250e+01 -9.615186691284179688e+00 8.773411512374877930e-01 8.629858016967773438e+00 2.852159738540649414e+00 -1.736808180809020996e+00
4.880000000000000000e+02 6.306207656860351562e+01 -5.433967590332031250e+00 8.487025499343872070e-01 1.456653022766113281e+01 4.624569892883300781e+00 8.972852826118469238e-01
4.890000000000000000e+02 6.129286956787109375e+01 -4.437577247619628906e+00 2.262406826019287109e+00 8.431150436401367188e+00 3.208067178726196289e+00 7.617714405059814453e-01
4.900000000000000000e+02 6.431684875488281250e+01 -2.291225433349609375e+00 -1.760295748710632324e+00 6.399374485015869141e+00 1.391723632812500000e+00 5.114807605743408203e+00
4.910000000000000000e+02 6.498861694335937500e+01 -3.717036545276641846e-01 -1.340767502784729004e+00 4.858092308044433594e+00 1.055197477340698242e+00 5.114059925079345703e+00
4.920000000000000000e+02 6.943485260009765625e+01 -1.660752058029174805e+00 -3.177945852279663086e+00 5.061471939086914062e+00 5.650578141212463379e-01 -2.259616374969482422e+00
4.930000000000000000e+02 6.823464965820312500e+01 -2.501123249530792236e-01 -2.461473703384399414e+00 5.692537307739257812e+00 9.693191051483154297e-01 4.490633681416511536e-02
4.940000000000000000e+02 4.678071594238281250e+01 -2.894464254379272461e+00 -1.722435235977172852e+00 8.766496777534484863e-01 -2.537356615066528320e-01 3.705894231796264648e+00
4.950000000000000000e+02 4.943155288696289062e+01 -3.734732866287231445e+00 -7.720911502838134766e+00 -1.285720229148864746e+00 -2.701989412307739258e+00 2.949197053909301758e+00
4.960000000000000000e+02 4.809294128417968750e+01 -3.225480079650878906e+00 -7.291524887084960938e+00 -1.050669550895690918e+00 -2.502658367156982422e+00 2.298836708068847656e+00
4.970000000000000000e+02 5.286829757690429688e+01 8.969231247901916504e-01 1.898622393608093262e+00 9.934422492980957031e+00 3.549913406372070312e+00 -1.482021361589431763e-01
4.980000000000000000e+02 5.349655914306640625e+01 2.188832759857177734e+00 4.947930335998535156e+00 1.652162742614746094e+01 6.440867424011230469e+00 -2.783776760101318359e+00
4.990000000000000000e+02 5.387996292114257812e+01 3.527881622314453125e+00 2.882243394851684570e+00 2.213397979736328125e+01 7.504867076873779297e+00 -1.694992899894714355e+00
5.000000000000000000e+02 5.244280624389648438e+01 7.284794330596923828e+00 1.126625109463930130e-02 1.390144634246826172e+01 4.173813819885253906e+00 3.392920643091201782e-02
5.010000000000000000e+02 4.987109375000000000e+01 7.143155574798583984e+00 1.391228675842285156e+00 1.132959938049316406e+01 3.816248416900634766e+00 3.009209156036376953e+00
5.020000000000000000e+02 4.811103057861328125e+01 6.971653938293457031e+00 2.730569362640380859e+00 5.978520393371582031e+00 2.612726926803588867e+00 3.478262662887573242e+00
5.030000000000000000e+02 4.792331695556640625e+01 5.030145645141601562e+00 3.107763051986694336e+00 5.229821681976318359e+00 2.501275300979614258e+00 3.066876411437988281e+00
5.040000000000000000e+02 4.722862625122070312e+01 4.072991013526916504e-01 2.016120672225952148e+00 3.168302297592163086e+00 1.555326938629150391e+00 4.433303833007812500e+00
5.050000000000000000e+02 4.944564056396484375e+01 -7.693250179290771484e-01 4.916029572486877441e-01 2.483695030212402344e+00 8.925894498825073242e-01 2.436048030853271484e+00
5.060000000000000000e+02 5.003689575195312500e+01 5.203994512557983398e-01 2.010212659835815430e+00 5.000913143157958984e+00 2.103337764739990234e+00 1.777289509773254395e+00
5.070000000000000000e+02 5.164247894287109375e+01 -5.604242801666259766e+00 -1.760593771934509277e+00 8.988205790519714355e-01 -2.585319578647613525e-01 5.301886796951293945e-01
5.080000000000000000e+02 5.062246704101562500e+01 -4.572804450988769531e+00 -4.740228176116943359e+00 -7.191967964172363281e-01 -1.637827515602111816e+00 1.979021668434143066e+00
5.090000000000000000e+02 5.255752563476562500e+01 -6.699181556701660156e+00 -2.101646661758422852e-01 2.536448001861572266e+00 6.978850364685058594e-01 -1.027600646018981934e+00
5.100000000000000000e+02 5.353394317626953125e+01 -4.111395835876464844e+00 -2.995358705520629883e+00 5.370186328887939453e+00 7.124482989311218262e-01 -1.978276729583740234e+00
5.110000000000000000e+02 5.276158905029296875e+01 -2.809788703918457031e+00 -3.231555223464965820e+00 6.018736362457275391e+00 8.361542820930480957e-01 -2.131953477859497070e+00
5.120000000000000000e+02 5.666241455078125000e+01 -3.578110218048095703e+00 -6.191185712814331055e-01 5.349010944366455078e+00 1.418967723846435547e+00 -3.054901599884033203e+00
5.130000000000000000e+02 5.661819458007812500e+01 -6.162815093994140625e+00 -2.282032221555709839e-01 6.339236736297607422e+00 1.833310008049011230e+00 -1.186627626419067383e+00
5.140000000000000000e+02 6.194588851928710938e+01 -7.181444168090820312e+00 8.199575543403625488e-01 1.073289394378662109e+01 3.465855360031127930e+00 6.769230365753173828e-01
5.150000000000000000e+02 6.319519042968750000e+01 -6.885700225830078125e+00 4.205918014049530029e-01 1.256033420562744141e+01 3.894277811050415039e+00 -5.289629697799682617e-01
5.160000000000000000e+02 6.173720932006835938e+01 -5.735019683837890625e+00 1.712242841720581055e+00 1.029537296295166016e+01 3.602284669876098633e+00 1.400354504585266113e+00
5.170000000000000000e+02 6.322766494750976562e+01 -4.045073986053466797e+00 2.734321355819702148e+00 1.559979057312011719e+01 5.500233650207519531e+00 3.479466438293457031e+00
5.180000000000000000e+02 5.982787322998046875e+01 -4.231523036956787109e+00 1.688384771347045898e+00 6.622551918029785156e+00 2.493280887603759766e+00 -2.659313678741455078e-01
5.190000000000000000e+02 6.219266510009765625e+01 -3.440354108810424805e+00 1.359539747238159180e+00 9.253804206848144531e+00 3.184003114700317383e+00 6.941546797752380371e-01
5.200000000000000000e+02 5.768607711791992188e+01 -1.668110847473144531e+01 1.870938658714294434e+00 9.962923049926757812e+00 3.550158500671386719e+00 3.197527527809143066e-01
5.210000000000000000e+02 5.859942245483398438e+01 -2.110948562622070312e+01 -7.634995579719543457e-01 7.721253395080566406e+00 2.087326049804687500e+00 -2.652950026094913483e-02
5.220000000000000000e+02 5.670652389526367188e+01 -1.852783012390136719e+01 2.226409912109375000e+00 1.187025928497314453e+01 4.229001045227050781e+00 8.648688197135925293e-01
5.230000000000000000e+02 5.890561294555664062e+01 -1.892532730102539062e+01 1.246368050575256348e+00 8.542010307312011719e+00 2.936513423919677734e+00 -1.073250532150268555e+00
5.240000000000000000e+02 5.291950225830078125e+01 -1.855675315856933594e+01 -3.256616830825805664e+00 -1.700942635536193848e+00 -1.487267851829528809e+00 1.645031690597534180e+00
5.250000000000000000e+02 4.973490524291992188e+01 -1.744814491271972656e+01 -1.112064957618713379e+00 6.241218186914920807e-03 -3.317471146583557129e-01 7.200977802276611328e-01
5.260000000000000000e+02 4.884276199340820312e+01 -1.634063911437988281e+01 -1.282418489456176758e+00 -1.966445893049240112e-01 -4.437189400196075439e-01 2.767859697341918945e-01
5.270000000000000000e+02 4.995735549926757812e+01 -1.546979904174804688e+01 -1.177852749824523926e+00 -1.121629953384399414e+00 -6.898447871208190918e-01 1.524294495582580566e+00
5.280000000000000000e+02 4.898891830444335938e+01 -1.443196201324462891e+01 -1.517708539962768555e+00 -1.245000123977661133e+00 -8.288125991821289062e-01 1.029104709625244141e+00
5.290000000000000000e+02 4.229035186767578125e+01 -2.084843254089355469e+01 -7.980068027973175049e-02 4.053092956542968750e+00 1.191987633705139160e+00 -1.270123422145843506e-01
5.300000000000000000e+02 4.322649765014648438e+01 -2.401201057434082031e+01 -8.285695314407348633e-02 3.128531217575073242e+00 9.137022495269775391e-01 -3.810357153415679932e-01
5.310000000000000000e+02 4.489260482788085938e+01 -2.883082199096679688e+01 1.208630353212356567e-01 2.807603359222412109e+00 8.785399198532104492e-01 -2.722443640232086182e-01
5.320000000000000000e+02 4.364400482177734375e+01 -3.142876052856445312e+01 1.540926992893218994e-01 2.834016799926757812e+00 8.964328169822692871e-01 -1.545014679431915283e-01
5.330000000000000000e+02 4.289976501464843750e+01 -3.441487884521484375e+01 1.603034883737564087e-01 2.751647472381591797e+00 8.735853433609008789e-01 -9.002102166414260864e-02
5.340000000000000000e+02 4.231754302978515625e+01 -3.756086349487304688e+01 1.810934394598007202e-01 2.763283491134643555e+00 8.833131194114685059e-01 -4.434538632631301880e-02
5.350000000000000000e+02 4.229825592041015625e+01 -4.084156799316406250e+01 1.982503980398178101e-01 2.752050638198852539e+00 8.850903511047363281e-01 -1.988936029374599457e-02
5.360000000000000000e+02 4.667645645141601562e+01 -4.101546096801757812e+01 2.192194014787673950e-01 3.149696588516235352e+00 1.010674834251403809e+00 3.655343549326062202e-03
5.370000000000000000e+02 4.606639480590820312e+01 -3.820457077026367188e+01 2.186163365840911865e-01 3.017969131469726562e+00 9.709756970405578613e-01 -2.010104246437549591e-02
5.380000000000000000e+02 4.659086990356445312e+01 -3.547995376586914062e+01 2.273878157138824463e-01 3.059749603271484375e+00 9.861412048339843750e-01 -4.505925253033638000e-02
5.390000000000000000e+02 4.729290390014648438e+01 -3.279006958007812500e+01 2.428684234619140625e-01 3.008339405059814453e+00 9.753623604774475098e-01 -7.421813905239105225e-02
5.400000000000000000e+02 4.704872894287109375e+01 -1.877560424804687500e+01 -2.241025269031524658e-01 2.078964710235595703e+00 5.564586520195007324e-01 -7.690901160240173340e-01
5.410000000000000000e+02 4.783514022827148438e+01 -1.529876518249511719e+01 -4.573753774166107178e-01 5.444849133491516113e-01 2.613286860287189484e-02 5.935369729995727539e-01
5.420000000000000000e+02 4.689897155761718750e+01 -1.625741958618164062e+01 -5.776609182357788086e-01 1.222434163093566895e+00 1.934319585561752319e-01 -3.290857970714569092e-01
5.430000000000000000e+02 4.604957199096679688e+01 -1.253809165954589844e+01 -8.077508211135864258e-01 2.675338268280029297e+00 5.602762103080749512e-01 5.797721147537231445e-01
5.440000000000000000e+02 4.289261627197265625e+01 -9.834655761718750000e+00 -1.627818942070007324e+00 6.672419548034667969e+00 1.513380169868469238e+00 2.159978389739990234e+00
5.450000000000000000e+02 3.971239089965820312e+01 -7.214865207672119141e+00 -7.730864286422729492e-01 -3.811798244714736938e-02 -2.433613240718841553e-01 1.410655975341796875e+00
5.460000000000000000e+02 4.130439376831054688e+01 -9.790749549865722656e+00 -1.757162451744079590e+00 4.649806976318359375e+00 8.677933216094970703e-01 1.888138175010681152e+00
5.470000000000000000e+02 4.045060729980468750e+01 -1.136990547180175781e+01 -7.523819804191589355e-01 3.824992418289184570e+00 9.217831492424011230e-01 2.697345614433288574e-01
5.480000000000000000e+02 4.079727172851562500e+01 -1.273312568664550781e+01 3.564107418060302734e-01 7.763223648071289062e+00 2.435890197753906250e+00 4.131286591291427612e-02
5.490000000000000000e+02 4.278447723388671875e+01 -1.547475337982177734e+01 1.846014857292175293e+00 5.223891258239746094e+00 2.120971918106079102e+00 6.979229450225830078e-01
5.500000000000000000e+02 4.222114562988281250e+01 -1.403724288940429688e+01 8.528642654418945312e-01 7.549260139465332031e+00 2.520637273788452148e+00 2.040191411972045898e+00
5.510000000000000000e+02 4.526506423950195312e+01 -8.291138648986816406e+00 5.898253917694091797e-01 9.138749122619628906e+00 2.918572425842285156e+00 -1.403537154197692871e+00
5.520000000000000000e+02 4.569932937622070312e+01 -9.634301185607910156e+00 -2.010241895914077759e-01 5.764256477355957031e+00 1.668969631195068359e+00 -1.007168054580688477e+00
5.530000000000000000e+02 4.802595901489257812e+01 -1.335337829589843750e+01 -8.687893748283386230e-01 -5.783394575119018555e-01 -4.341386556625366211e-01 1.220242381095886230e+00
5.540000000000000000e+02 4.284691619873046875e+01 -5.385474681854248047e+00 2.641135215759277344e+00 7.139044761657714844e+00 2.934054136276245117e+00 1.126246690750122070e+00
5.550000000000000000e+02 3.860471343994140625e+01 -7.592495441436767578e+00 -1.203559398651123047e+00 -2.762420177459716797e+00 -1.189793825149536133e+00 2.195028543472290039e+00
5.560000000000000000e+02 3.723086166381835938e+01 -5.117111206054687500e+00 -5.748853683471679688e-01 -2.845516443252563477e+00 -1.026120543479919434e+00 1.486190080642700195e+00
5.570000000000000000e+02 3.807264328002929688e+01 3.736402690410614014e-01 1.104174494743347168e+00 -1.021124720573425293e+00 2.491489984095096588e-02 -2.429391294717788696e-01
5.580000000000000000e+02 3.578143310546875000e+01 5.167050361633300781e-01 1.270565032958984375e+00 -1.262659072875976562e+00 2.371787326410412788e-03 1.552459783852100372e-02
5.590000000000000000e+02 3.772400283813476562e+01 2.324765443801879883e+00 -9.709259867668151855e-02 -1.628186702728271484e+00 -5.175837874412536621e-01 1.231953650712966919e-01
5.600000000000000000e+02 3.562110137939453125e+01 2.959244966506958008e+00 2.701305747032165527e-01 -2.479783743619918823e-01 6.645654328167438507e-03 9.425952434539794922e-01
5.610000000000000000e+02 3.017054939270019531e+01 4.580574035644531250e+00 -2.703270435333251953e+00 -7.487919330596923828e-01 -1.035618782043457031e+00 -1.630306243896484375e+00
5.620000000000000000e+02 3.271977996826171875e+01 5.019547939300537109e+00 -1.402526736259460449e+00 4.815197288990020752e-01 -2.763020992279052734e-01 1.062812730669975281e-01
5.630000000000000000e+02 2.903242111206054688e+01 3.795451164245605469e+00 -4.174151420593261719e+00 -1.432186841964721680e+00 -1.681901454925537109e+00 -2.176799535751342773e+00
5.640000000000000000e+02 2.786268806457519531e+01 3.172174215316772461e+00 -5.539271831512451172e+00 -1.399535298347473145e+00 -2.081642150878906250e+00 -2.957718610763549805e+00
5.650000000000000000e+02 2.706522369384765625e+01 2.596532106399536133e+00 -5.348552227020263672e+00 -1.712720394134521484e+00 -2.118381738662719727e+00 -2.145266771316528320e+00
5.660000000000000000e+02 4.460124969482421875e+01 -5.709423065185546875e+00 1.835048198699951172e+00 1.707473945617675781e+01 5.672936439514160156e+00 3.505277335643768311e-01
5.670000000000000000e+02 4.388850402832031250e+01 -4.511364459991455078e+00 3.558755397796630859e+00 1.301199817657470703e+01 4.971226215362548828e+00 1.652926921844482422e+00
5.680000000000000000e+02 4.229170989990234375e+01 6.985245943069458008e-01 8.690764307975769043e-01 2.207527875900268555e+00 9.229812622070312500e-01 1.644711613655090332e+00
5.690000000000000000e+02 4.345133590698242188e+01 1.626733541488647461e+00 1.840354561805725098e+00 3.585249900817871094e+00 1.627681374549865723e+00 2.580627679824829102e+00
5.700000000000000000e+02 4.613497924804687500e+01 3.002467870712280273e+00 2.886734008789062500e+00 3.494969367980957031e+00 1.914510965347290039e+00 3.520123004913330078e+00
5.710000000000000000e+02 4.484934997558593750e+01 -3.578811883926391602e+00 3.203856229782104492e+00 1.424429607391357422e+01 5.234445571899414062e+00 4.537571907043457031e+00
5.720000000000000000e+02 2.811156082153320312e+01 1.561237573623657227e+00 -1.034718036651611328e+00 -1.116981744766235352e+00 -6.455099582672119141e-01 -3.761391341686248779e-01
5.730000000000000000e+02 3.024964523315429688e+01 -1.202899813652038574e+00 4.106945991516113281e+00 4.522296905517578125e+00 2.588772773742675781e+00 3.576305866241455078e+00
5.740000000000000000e+02 2.615952682495117188e+01 1.578876972198486328e+00 -3.415413141250610352e+00 -1.011780500411987305e+00 -1.328158020973205566e+00 -5.443089008331298828e-01
5.750000000000000000e+02 2.541105842590332031e+01 1.695265412330627441e+00 -4.719858646392822266e+00 -7.223970293998718262e-01 -1.632676720619201660e+00 -4.032247364521026611e-01
5.760000000000000000e+02 2.469663619995117188e+01 9.690078496932983398e-01 -1.102176547050476074e+00 -1.858124256134033203e+00 -8.880902528762817383e-01 5.786973834037780762e-01
5.770000000000000000e+02 2.419756507873535156e+01 1.866382718086242676e+00 -8.751323699951171875e+00 -3.328313112258911133e+00 -3.623891115188598633e+00 1.279481053352355957e+00
5.780000000000000000e+02 2.153094291687011719e+01 5.587314963340759277e-01 4.465868949890136719e+00 5.809724330902099609e+00 3.082678079605102539e+00 -5.385380268096923828e+00
5.790000000000000000e+02 2.112502479553222656e+01 -2.315317243337631226e-01 6.782023906707763672e+00 8.885151863098144531e+00 4.700152397155761719e+00 -7.518600940704345703e+00
5.800000000000000000e+02 2.295502090454101562e+01 -7.467746734619140625e-01 5.302530288696289062e+00 4.153874874114990234e+00 2.836921453475952148e+00 -4.716641426086425781e+00
5.810000000000000000e+02 2.211895942687988281e+01 -1.331007838249206543e+00 5.757774353027343750e+00 7.654473304748535156e+00 4.023674011230468750e+00 -6.857855796813964844e+00
5.820000000000000000e+02 2.466867828369140625e+01 -4.825632095336914062e+00 3.129059314727783203e+00 8.351477622985839844e+00 3.444161176681518555e+00 -3.995909929275512695e+00
5.830000000000000000e+02 2.628094482421875000e+01 -5.504518508911132812e+00 2.272422552108764648e+00 5.923963069915771484e+00 2.458915710449218750e+00 -1.252322793006896973e+00
5.840000000000000000e+02 2.684509658813476562e+01 -6.697003841400146484e+00 1.867128610610961914e+00 4.895863533020019531e+00 2.028897762298583984e+00 -1.453688621520996094e+00
5.850000000000000000e+02 2.560045623779296875e+01 -7.421250343322753906e+00 1.087217211723327637e+00 9.178473472595214844e+00 3.079707145690917969e+00 -8.535753488540649414e-01
5.860000000000000000e+02 2.408943748474121094e+01 -1.029721355438232422e+01 -6.900147795677185059e-01 8.261952400207519531e-01 4.085413739085197449e-02 1.121560692787170410e+00
5.870000000000000000e+02 2.499955177307128906e+01 -9.328853607177734375e+00 -4.842032492160797119e-02 4.356294631958007812e+00 1.292362332344055176e+00 9.813425540924072266e-01
5.880000000000000000e+02 3.037158203125000000e+01 -8.597208023071289062e+00 9.440765380859375000e-01 1.204021334648132324e+00 6.444293260574340820e-01 -1.216422677040100098e+00
5.890000000000000000e+02 3.397309494018554688e+01 -1.153832626342773438e+01 5.503014326095581055e-01 1.021387815475463867e+00 4.715067744255065918e-01 -6.987140178680419922e-01
5.900000000000000000e+02 3.487252807617187500e+01 -1.258094024658203125e+01 3.839139938354492188e-01 7.479219436645507812e-01 3.395507633686065674e-01 -5.686698555946350098e-01
5.910000000000000000e+02 3.828017425537109375e+01 -1.733478736877441406e+01 1.292585968971252441e+00 7.133230566978454590e-01 6.017727255821228027e-01 6.137106418609619141e-01
5.920000000000000000e+02 3.173392868041992188e+01 -2.375118434429168701e-01 7.145891666412353516e+00 1.776339530944824219e+00 2.676669359207153320e+00 8.489848971366882324e-01
5.930000000000000000e+02 3.053744125366210938e+01 8.333149552345275879e-02 6.605697154998779297e+00 4.664124965667724609e+00 3.380946636199951172e+00 1.557009339332580566e+00
5.940000000000000000e+02 3.305591201782226562e+01 3.938328504562377930e+00 -8.726202845573425293e-01 8.812994956970214844e-01 2.603769069537520409e-03 7.293255925178527832e-01
5.950000000000000000e+02 3.404413223266601562e+01 -6.669713854789733887e-01 1.917741298675537109e+00 -2.448308169841766357e-01 5.018731355667114258e-01 -9.660308063030242920e-02
5.960000000000000000e+02 3.288586044311523438e+01 -6.711900830268859863e-01 2.796720504760742188e+00 -2.849568128585815430e-01 7.535291314125061035e-01 -7.420873045921325684e-01
5.970000000000000000e+02 3.451238250732421875e+01 -1.906999588012695312e+00 1.234664320945739746e+00 -4.351125955581665039e-01 2.398655265569686890e-01 -1.647382825613021851e-01
5.980000000000000000e+02 3.543077087402343750e+01 -2.855157613754272461e+00 2.037424892187118530e-01 -1.300914168357849121e+00 -3.291514813899993896e-01 3.333596885204315186e-01
5.990000000000000000e+02 4.101929473876953125e+01 -1.413339138031005859e+01 -3.404237329959869385e-02 1.009793281555175781e+01 3.019166946411132812e+00 4.468645155429840088e-01
6.000000000000000000e+02 4.111833953857421875e+01 -1.550719928741455078e+01 2.484371900558471680e+00 1.036857700347900391e+01 3.855884552001953125e+00 2.064209222793579102e+00
6.010000000000000000e+02 3.757049179077148438e+01 -1.569855976104736328e+01 7.269305735826492310e-02 2.466387003660202026e-01 9.579952806234359741e-02 -1.955224573612213135e-01
6.020000000000000000e+02 4.134995651245117188e+01 -1.712654495239257812e+01 2.148828744888305664e+00 7.436036109924316406e+00 2.875459432601928711e+00 9.227138757705688477e-01
6.030000000000000000e+02 4.181300735473632812e+01 -1.901800155639648438e+01 -5.933834314346313477e-01 4.721035003662109375e+00 1.238295555114746094e+00 -3.928535059094429016e-02
6.040000000000000000e+02 4.136907196044921875e+01 -2.289035415649414062e+01 -3.990145325660705566e-01 3.556156873703002930e+00 9.471427202224731445e-01 -4.193008691072463989e-02
6.050000000000000000e+02 3.967958831787109375e+01 -2.517222595214843750e+01 -2.721914462745189667e-02 2.886126995086669922e+00 8.576723337173461914e-01 -1.682332903146743774e-02
6.060000000000000000e+02 3.997293472290039062e+01 -2.744252777099609375e+01 -5.596251413226127625e-02 2.809403896331787109e+00 8.260324597358703613e-01 -1.061414107680320740e-01
6.070000000000000000e+02 4.005923461914062500e+01 -3.029734230041503906e+01 8.665278553962707520e-02 2.648688554763793945e+00 8.206024169921875000e-01 -1.116075217723846436e-01
6.080000000000000000e+02 3.927886199951171875e+01 -3.328084564208984375e+01 1.140220761299133301e-01 2.560003280639648438e+00 8.022076487541198730e-01 -7.057388126850128174e-02
6.090000000000000000e+02 3.815850830078125000e+01 -3.656198501586914062e+01 1.366501152515411377e-01 2.400198698043823242e+00 7.610546350479125977e-01 -4.628041759133338928e-02
6.100000000000000000e+02 3.750529479980468750e+01 -4.040530395507812500e+01 1.549541354179382324e-01 2.348354101181030273e+00 7.509924769401550293e-01 -1.113404985517263412e-02
6.110000000000000000e+02 3.668182754516601562e+01 -1.464922904968261719e+01 1.835702657699584961e-01 4.519747793674468994e-01 1.906635165214538574e-01 -1.974304914474487305e-01
6.120000000000000000e+02 3.200959777832031250e+01 -1.112376785278320312e+01 4.932218194007873535e-01 1.269749164581298828e+00 5.288912653923034668e-01 -7.907481193542480469e-01
6.130000000000000000e+02 3.234827423095703125e+01 -9.251982688903808594e+00 5.779976248741149902e-01 9.071970582008361816e-01 4.455583989620208740e-01 -7.034940123558044434e-01
6.140000000000000000e+02 2.974995231628417969e+01 -7.160287380218505859e+00 9.258981347084045410e-01 1.018571853637695312e+00 5.833410024642944336e-01 -1.323790550231933594e+00
6.150000000000000000e+02 3.106383705139160156e+01 -6.711651802062988281e+00 4.868603050708770752e-01 -2.459109276533126831e-01 7.228481769561767578e-02 -1.308971941471099854e-01
6.160000000000000000e+02 2.810888481140136719e+01 -1.039089679718017578e+01 -5.160869657993316650e-02 3.169777154922485352e+00 9.354504942893981934e-01 -1.243845105171203613e+00
6.170000000000000000e+02 3.056907463073730469e+01 -5.367067813873291016e+00 -1.442908048629760742e-01 -8.451640605926513672e-01 -2.968364655971527100e-01 -5.723180621862411499e-02
6.180000000000000000e+02 2.906630325317382812e+01 -4.059405326843261719e+00 5.563445687294006348e-01 1.382255315780639648e+00 5.815799832344055176e-01 2.045705169439315796e-01
6.190000000000000000e+02 2.535484695434570312e+01 7.398945093154907227e-01 -9.390560984611511230e-01 -1.116665720939636230e+00 -6.167165637016296387e-01 2.880425378680229187e-02
6.200000000000000000e+02 2.564857864379882812e+01 -4.157969951629638672e+00 2.804126739501953125e+00 5.099860668182373047e+00 2.371196269989013672e+00 -1.992664813995361328e+00
6.210000000000000000e+02 2.918766784667968750e+01 -1.102259874343872070e+00 4.268210887908935547e+00 6.104999780654907227e-01 1.463613152503967285e+00 2.691162586212158203e+00
6.220000000000000000e+02 2.360598754882812500e+01 1.964720726013183594e+01 -1.140495181083679199e+00 8.137141466140747070e-01 -9.803430736064910889e-02 -9.562374949455261230e-01
6.230000000000000000e+02 3.002461624145507812e+01 1.431912231445312500e+01 -1.364383697509765625e+00 -1.441516995429992676e+00 -8.417702317237854004e-01 -5.469840168952941895e-01
6.240000000000000000e+02 3.213039016723632812e+01 1.387197494506835938e+01 -3.786336183547973633e+00 -1.420357704162597656e+00 -1.562008261680603027e+00 -1.852331638336181641e+00
6.250000000000000000e+02 3.329846572875976562e+01 1.448179244995117188e+01 -4.751876831054687500e+00 -9.424569606781005859e-01 -1.708300232887268066e+00 -1.002578854560852051e+00
6.260000000000000000e+02 3.416325759887695312e+01 1.525735950469970703e+01 -3.978264808654785156e+00 -1.391296863555908203e+00 -1.610868573188781738e+00 -3.583069774322211742e-04
6.270000000000000000e+02 2.738932418823242188e+01 1.687585258483886719e+01 -4.871824383735656738e-01 2.171715021133422852e+00 5.053597688674926758e-01 2.053026676177978516e+00
6.280000000000000000e+02 2.714613533020019531e+01 1.543512630462646484e+01 8.212240934371948242e-01 1.107511520385742188e+00 5.786206722259521484e-01 1.495836853981018066e+00
6.290000000000000000e+02 2.821662330627441406e+01 1.497693729400634766e+01 -5.927425995469093323e-02 1.917755752801895142e-01 3.975039348006248474e-02 1.185495018959045410e+00
6.300000000000000000e+02 2.592662048339843750e+01 1.393407821655273438e+01 1.884644269943237305e+00 5.980319023132324219e+00 2.359488964080810547e+00 1.509442090988159180e+00
6.310000000000000000e+02 2.474040412902832031e+01 1.308665370941162109e+01 2.411036491394042969e+00 6.502706050872802734e+00 2.674122810363769531e+00 3.040943145751953125e+00
6.320000000000000000e+02 2.367944145202636719e+01 1.218150424957275391e+01 2.216717720031738281e+00 3.638066053390502930e+00 1.756435155868530273e+00 2.635388612747192383e+00
6.330000000000000000e+02 2.156972503662109375e+01 8.493464469909667969e+00 -1.915250420570373535e+00 2.371580839157104492e+00 1.368991583585739136e-01 1.355564594268798828e+00
6.340000000000000000e+02 1.852720069885253906e+01 6.025525093078613281e+00 -1.060793399810791016e+00 6.808649063110351562e+00 1.724356651306152344e+00 2.878445625305175781e+00
6.350000000000000000e+02 1.336582183837890625e+01 5.009296417236328125e+00 1.187481522560119629e+00 -1.919345140457153320e+00 -2.195590734481811523e-01 -5.543695092201232910e-01
6.360000000000000000e+02 1.385162830352783203e+01 1.852479934692382812e+00 8.113330006599426270e-01 -9.972983598709106445e-01 -5.578960105776786804e-02 -1.727226972579956055e+00
6.370000000000000000e+02 1.380008602142333984e+01 3.021624565124511719e+00 5.492899894714355469e+00 -2.261442899703979492e+00 9.694370627403259277e-01 -2.587347030639648438e+00
6.380000000000000000e+02 1.664839935302734375e+01 4.066294670104980469e+00 1.116525173187255859e+01 -1.260537743568420410e+00 2.971414089202880859e+00 1.652559995651245117e+00
6.390000000000000000e+02 1.670875358581542969e+01 3.838919401168823242e+00 1.023249816894531250e+01 -1.594348907470703125e+00 2.591444730758666992e+00 2.652472019195556641e+00
6.400000000000000000e+02 1.744622802734375000e+01 3.024061203002929688e+00 1.542941927909851074e+00 -2.129621028900146484e+00 -1.760037094354629517e-01 -2.250709295272827148e+00
6.410000000000000000e+02 1.796825599670410156e+01 2.780556917190551758e+00 1.426204800605773926e+00 9.019550323486328125e+00 3.133726596832275391e+00 -2.538602352142333984e+00
6.420000000000000000e+02 2.098168754577636719e+01 2.488856315612792969e+00 1.309139490127563477e+00 3.447118043899536133e+00 1.426877260208129883e+00 -2.374074459075927734e+00
6.430000000000000000e+02 2.268617630004882812e+01 2.079232931137084961e+00 -1.907516121864318848e+00 1.188034892082214355e+00 -2.158443480730056763e-01 -1.566472351551055908e-01
6.440000000000000000e+02 1.191113948822021484e+01 1.792593598365783691e+00 -6.589660644531250000e-01 1.123338460922241211e+00 1.393117010593414307e-01 -2.484091043472290039e+00
6.450000000000000000e+02 1.048784446716308594e+01 1.891380071640014648e+00 -1.086252212524414062e+00 1.434048056602478027e+00 1.043387353420257568e-01 -3.923119008541107178e-01
6.460000000000000000e+02 1.120649814605712891e+01 1.833286762237548828e+00 -1.112137317657470703e+00 1.717553257942199707e+00 1.816247999668121338e-01 -1.404624223709106445e+00
6.470000000000000000e+02 9.743622779846191406e+00 1.968055725097656250e+00 -8.632538914680480957e-01 1.329542636871337891e+00 1.398866176605224609e-01 5.134993791580200195e-01
6.480000000000000000e+02 1.008695316314697266e+01 6.460508823394775391e+00 1.199576854705810547e+00 7.192001819610595703e+00 2.517473697662353516e+00 -1.523072361946105957e+00
6.490000000000000000e+02 1.060040569305419922e+01 7.765222549438476562e+00 -3.577534258365631104e-01 1.769898056983947754e+00 4.236433804035186768e-01 4.565600156784057617e-01
6.500000000000000000e+02 1.139783191680908203e+01 8.970065116882324219e+00 -3.518033921718597412e-01 6.964920759201049805e-01 1.034066155552864075e-01 -3.328877389430999756e-01
6.510000000000000000e+02 1.234431076049804688e+01 1.004277229309082031e+01 -7.855401635169982910e-01 -3.045200407505035400e-01 -3.270180523395538330e-01 -4.053853750228881836e-01
6.520000000000000000e+02 1.355206966400146484e+01 1.295685958862304688e+01 -1.255678534507751465e+00 -7.166541367769241333e-02 -3.982031941413879395e-01 -5.683669447898864746e-01
6.530000000000000000e+02 1.368609809875488281e+01 1.784535598754882812e+01 -9.397672414779663086e-01 1.643168628215789795e-01 -2.326351106166839600e-01 -1.340524703264236450e-01
6.540000000000000000e+02 1.195441532135009766e+01 2.241998100280761719e+01 -4.472098350524902344e-01 4.888187646865844727e-01 1.248268224298954010e-02 1.253468543291091919e-01
6.550000000000000000e+02 1.182315444946289062e+01 2.542142677307128906e+01 -2.156122773885726929e-01 5.148749351501464844e-01 8.977878838777542114e-02 1.610456705093383789e-01
6.560000000000000000e+02 1.118452739715576172e+01 2.702690696716308594e+01 -9.492542594671249390e-02 5.414155721664428711e-01 1.339470297098159790e-01 1.862207204103469849e-01
6.570000000000000000e+02 1.195450782775878906e+01 3.139592552185058594e+01 7.694815844297409058e-02 5.283547043800354004e-01 1.815908700227737427e-01 1.853949576616287231e-01
6.580000000000000000e+02 1.250184440612792969e+01 3.400984191894531250e+01 1.385657340288162231e-01 4.982649981975555420e-01 1.910492181777954102e-01 1.728644520044326782e-01
6.590000000000000000e+02 1.314021396636962891e+01 3.706782913208007812e+01 2.062120586633682251e-01 4.859856963157653809e-01 2.076593339443206787e-01 1.007679030299186707e-01
6.600000000000000000e+02 1.299627590179443359e+01 4.061231613159179688e+01 2.235260307788848877e-01 5.107522606849670410e-01 2.202834933996200562e-01 4.459410905838012695e-02
6.610000000000000000e+02 8.283392906188964844e+00 4.080842590332031250e+01 1.184621304273605347e-01 7.729616761207580566e-01 2.674271464347839355e-01 3.006555885076522827e-02
6.620000000000000000e+02 9.278238296508789062e+00 3.749854660034179688e+01 1.350350528955459595e-01 7.202998995780944824e-01 2.566004693508148193e-01 1.155969649553298950e-01
6.630000000000000000e+02 7.986071109771728516e+00 3.151783370971679688e+01 4.346657544374465942e-02 8.014425039291381836e-01 2.534727156162261963e-01 1.809844523668289185e-01
6.640000000000000000e+02 8.122134208679199219e+00 2.936659240722656250e+01 6.402482744306325912e-03 8.013293147087097168e-01 2.423195391893386841e-01 2.229827791452407837e-01
6.650000000000000000e+02 9.636925697326660156e+00 2.709521865844726562e+01 -8.053994923830032349e-02 6.720709204673767090e-01 1.774592846632003784e-01 2.156846225261688232e-01
6.660000000000000000e+02 8.420787811279296875e+00 2.361370849609375000e+01 -2.150226384401321411e-01 7.894860506057739258e-01 1.723390221595764160e-01 1.289579272270202637e-01
6.670000000000000000e+02 9.610595703125000000e+00 1.884400367736816406e+01 -6.281850934028625488e-01 7.984024882316589355e-01 5.106522887945175171e-02 -5.408087745308876038e-02
6.680000000000000000e+02 9.232594490051269531e+00 1.446920108795166016e+01 -9.387252926826477051e-01 1.050050497055053711e+00 3.339755907654762268e-02 -3.663549423217773438e-01
6.690000000000000000e+02 7.378310203552246094e+00 2.006593465805053711e+00 -6.345123648643493652e-01 -1.316588222980499268e-01 -2.298513501882553101e-01 1.475722432136535645e+00
6.700000000000000000e+02 6.578851699829101562e+00 1.960226178169250488e+00 -6.225847601890563965e-01 -1.015124619007110596e-01 -2.172291725873947144e-01 1.279751539230346680e+00
6.710000000000000000e+02 1.070941448211669922e+01 2.679252862930297852e+00 1.573150515556335449e+00 3.332083225250244141e+00 1.471570134162902832e+00 -5.834622979164123535e-01
6.720000000000000000e+02 1.335425567626953125e+01 1.102455711364746094e+01 -9.527698159217834473e-01 -3.914629817008972168e-01 -4.032698571681976318e-01 -7.610289454460144043e-01
6.730000000000000000e+02 1.550855636596679688e+01 1.280347919464111328e+01 -1.609930753707885742e+00 -7.000284194946289062e-01 -6.929877400398254395e-01 -1.025652050971984863e+00
6.740000000000000000e+02 1.666394996643066406e+01 1.357047653198242188e+01 -1.837131619453430176e+00 -6.634252071380615234e-01 -7.501670122146606445e-01 -1.026050686836242676e+00
6.750000000000000000e+02 1.505763816833496094e+01 1.560437202453613281e+01 -1.295539259910583496e+00 -2.066511064767837524e-01 -4.506571292877197266e-01 -4.412110447883605957e-01
6.760000000000000000e+02 1.620660209655761719e+01 2.068814468383789062e+01 -7.768796086311340332e-01 -1.394722983241081238e-02 -2.372480481863021851e-01 -5.448796786367893219e-03
6.770000000000000000e+02 1.551055049896240234e+01 2.369755744934082031e+01 -4.086583554744720459e-01 1.645896583795547485e-01 -7.322061061859130859e-02 1.179681345820426941e-01
6.780000000000000000e+02 1.597978115081787109e+01 2.640093040466308594e+01 -1.901075839996337891e-01 2.319187223911285400e-01 1.254334021359682083e-02 1.096779182553291321e-01
6.790000000000000000e+02 1.525994110107421875e+01 3.272533035278320312e+01 1.440823078155517578e-01 3.709402382373809814e-01 1.545067578554153442e-01 1.337497532367706299e-01
6.800000000000000000e+02 1.672747611999511719e+01 3.524036026000976562e+01 2.199309915304183960e-01 3.067945837974548340e-01 1.580176800489425659e-01 1.119118332862854004e-01
6.810000000000000000e+02 1.942670440673828125e+01 3.714982223510742188e+01 2.854842245578765869e-01 2.868694961071014404e-01 1.717061102390289307e-01 6.069825217127799988e-02
6.820000000000000000e+02 1.794008827209472656e+01 4.065396118164062500e+01 3.134868741035461426e-01 3.075377047061920166e-01 1.863073706626892090e-01 2.609901875257492065e-02
6.830000000000000000e+02 1.588049507141113281e+01 1.457698917388916016e+01 -1.537148237228393555e+00 -4.074060320854187012e-01 -5.833662748336791992e-01 -6.842731833457946777e-01
6.840000000000000000e+02 2.021656799316406250e+01 1.558081626892089844e+01 -2.462031841278076172e+00 -6.210334897041320801e-01 -9.249196052551269531e-01 -1.072845220565795898e+00
6.850000000000000000e+02 1.867563438415527344e+01 1.738940811157226562e+01 -1.783242344856262207e+00 -2.678895890712738037e-01 -6.153395771980285645e-01 -4.156481027603149414e-01
6.860000000000000000e+02 2.074276924133300781e+01 2.088820648193359375e+01 -8.828524351119995117e-01 -1.629473082721233368e-02 -2.697441577911376953e-01 -3.080773949623107910e-01
6.870000000000000000e+02 1.936020660400390625e+01 2.254874610900878906e+01 -5.929524898529052734e-01 -7.314220536500215530e-03 -1.800800114870071411e-01 -1.462152600288391113e-01
6.880000000000000000e+02 1.924806976318359375e+01 2.606377220153808594e+01 -2.478478997945785522e-01 1.028843298554420471e-01 -4.348907247185707092e-02 -1.098249480128288269e-02
6.890000000000000000e+02 1.943072700500488281e+01 3.255670166015625000e+01 1.500118672847747803e-01 2.474366128444671631e-01 1.192345470190048218e-01 7.893229275941848755e-02
6.900000000000000000e+02 2.125639915466308594e+01 3.434454727172851562e+01 2.165900021791458130e-01 2.222917675971984863e-01 1.316645294427871704e-01 9.458775818347930908e-02
6.910000000000000000e+02 2.333330345153808594e+01 3.773933792114257812e+01 3.438968062400817871e-01 2.512974143028259277e-01 1.785582602024078369e-01 5.136130750179290771e-02
6.920000000000000000e+02 2.278117942810058594e+01 4.089867401123046875e+01 3.772498667240142822e-01 2.549727261066436768e-01 1.896667778491973877e-01 1.350844278931617737e-02
6.930000000000000000e+02 2.244175720214843750e+01 1.685919761657714844e+01 -3.380760669708251953e+00 -5.642740130424499512e-01 -1.183510422706604004e+00 -8.259384036064147949e-01
6.940000000000000000e+02 2.170543289184570312e+01 1.898169326782226562e+01 -1.323350071907043457e+00 -1.873706281185150146e-01 -4.532161951065063477e-01 -4.525558948516845703e-01
6.950000000000000000e+02 2.115804481506347656e+01 2.601423454284667969e+01 -3.985807299613952637e-01 1.898394972085952759e-01 -6.262237578630447388e-02 -2.570408768951892853e-02
6.960000000000000000e+02 2.131750488281250000e+01 2.833772468566894531e+01 -9.027974307537078857e-02 1.814841628074645996e-01 2.736132405698299408e-02 3.068554587662220001e-02
6.970000000000000000e+02 2.328274536132812500e+01 3.272904586791992188e+01 1.526755988597869873e-01 2.430062144994735718e-01 1.187045425176620483e-01 6.633955985307693481e-02
6.980000000000000000e+02 2.372343826293945312e+01 3.494357299804687500e+01 2.476073801517486572e-01 2.879831194877624512e-01 1.606771498918533325e-01 5.675272271037101746e-02
6.990000000000000000e+02 2.748929786682128906e+01 3.741378402709960938e+01 3.614302575588226318e-01 3.665152192115783691e-01 2.183836400508880615e-01 2.022145502269268036e-02
7.000000000000000000e+02 6.213584899902343750e+01 1.399585914611816406e+01 -5.836231112480163574e-01 2.456595897674560547e-01 -1.013890579342842102e-01 -3.803418278694152832e-01
7.010000000000000000e+02 5.921694946289062500e+01 1.591082191467285156e+01 1.402504324913024902e+00 2.830275774002075195e+00 1.269834041595458984e+00 1.817976713180541992e+00
7.020000000000000000e+02 5.729372787475585938e+01 2.008251380920410156e+01 6.093699112534523010e-02 5.314683914184570312e+00 1.612686276435852051e+00 1.531126737594604492e+00
7.030000000000000000e+02 5.486732482910156250e+01 2.413822937011718750e+01 -7.365204691886901855e-01 5.450834751129150391e+00 1.414294362068176270e+00 2.887720167636871338e-01
7.040000000000000000e+02 4.931655883789062500e+01 2.575123214721679688e+01 -5.889741182327270508e-01 3.805394172668457031e+00 9.649260044097900391e-01 -7.593064308166503906e-01
7.050000000000000000e+02 4.668412399291992188e+01 3.125910568237304688e+01 -1.756280213594436646e-01 2.796604633331298828e+00 7.862930297851562500e-01 -5.377161502838134766e-01
7.060000000000000000e+02 4.664093780517578125e+01 2.845143508911132812e+01 -2.380328327417373657e-01 2.768534660339355469e+00 7.591505050659179688e-01 -6.861907839775085449e-01
7.070000000000000000e+02 4.478406524658203125e+01 2.551283264160156250e+01 -2.435490339994430542e-01 2.204739570617675781e+00 5.883571505546569824e-01 -8.025407791137695312e-01
7.080000000000000000e+02 4.926616668701171875e+01 2.089130401611328125e+01 -9.105284214019775391e-01 4.250270366668701172e+00 1.001922607421875000e+00 -1.532430052757263184e+00
7.090000000000000000e+02 5.442948532104492188e+01 1.706976509094238281e+01 -3.131505846977233887e-01 7.654461383819580078e+00 2.202393293380737305e+00 2.499069452285766602e+00
7.100000000000000000e+02 5.791129302978515625e+01 1.271084308624267578e+01 1.163450956344604492e+00 2.495979547500610352e+00 1.097829103469848633e+00 1.710368394851684570e+00
7.110000000000000000e+02 5.879584121704101562e+01 1.163294029235839844e+01 3.010676503181457520e-01 6.643239855766296387e-01 2.896174788475036621e-01 5.744866132736206055e-01
7.120000000000000000e+02 6.098413467407226562e+01 1.330331230163574219e+01 -6.090921163558959961e-01 1.677305847406387329e-01 -1.324084550142288208e-01 1.054228991270065308e-01
7.130000000000000000e+02 5.986559295654296875e+01 1.250693035125732422e+01 -1.838453672826290131e-02 4.852019846439361572e-01 1.400452405214309692e-01 2.615788578987121582e-01
7.140000000000000000e+02 6.612408447265625000e+01 9.181967735290527344e+00 1.618623495101928711e+00 1.446267509460449219e+01 4.824389457702636719e+00 1.873441934585571289e+00
7.150000000000000000e+02 6.436034393310546875e+01 7.430941581726074219e+00 1.184028029441833496e+00 5.784748077392578125e+00 2.090632677078247070e+00 2.806198120117187500e+00
7.160000000000000000e+02 6.187568283081054688e+01 4.167405128479003906e+00 -3.737247362732887268e-02 1.788428425788879395e+00 5.253167748451232910e-01 7.630318403244018555e-01
7.170000000000000000e+02 6.057782363891601562e+01 -7.578158378601074219e-01 -1.619257211685180664e+00 4.637829780578613281e+00 9.055717587471008301e-01 4.096017777919769287e-01
7.180000000000000000e+02 5.665177536010742188e+01 1.012905538082122803e-01 -1.885895013809204102e+00 1.098350286483764648e+00 -2.362634092569351196e-01 -4.154911041259765625e+00
7.190000000000000000e+02 5.488295364379882812e+01 -2.501957118511199951e-01 -2.124381780624389648e+00 1.037255859375000000e+01 2.474452972412109375e+00 -6.120945453643798828e+00
7.200000000000000000e+02 5.763146972656250000e+01 9.690596461296081543e-01 -5.412454605102539062e+00 -9.365592598915100098e-01 -1.904704093933105469e+00 -3.108912706375122070e+00
7.210000000000000000e+02 5.460997009277343750e+01 6.179321765899658203e+00 1.327572941780090332e+00 1.238274192810058594e+01 4.113094329833984375e+00 2.910651683807373047e+00
7.220000000000000000e+02 5.586701583862304688e+01 1.065139579772949219e+01 1.407446622848510742e+00 5.537631988525390625e+00 2.083523511886596680e+00 1.802111625671386719e+00
7.230000000000000000e+02 5.205343627929687500e+01 1.107436847686767578e+01 3.589460134506225586e+00 1.506660938262939453e+01 5.596820831298828125e+00 1.501611948013305664e+00
7.240000000000000000e+02 5.051321411132812500e+01 1.054940605163574219e+01 2.583483934402465820e+00 2.217453956604003906e+01 7.427406787872314453e+00 4.968067169189453125e+00
7.250000000000000000e+02 4.898941802978515625e+01 8.081875801086425781e+00 2.664876222610473633e+00 7.883286476135253906e+00 3.164448976516723633e+00 4.682571887969970703e+00
7.260000000000000000e+02 5.412729263305664062e+01 4.859045982360839844e+00 1.085736989974975586e+00 1.804458808898925781e+01 5.739097595214843750e+00 2.411833763122558594e+00
7.270000000000000000e+02 5.292741394042968750e+01 5.353013515472412109e+00 1.500935077667236328e+00 1.490174484252929688e+01 4.920804023742675781e+00 -6.653499603271484375e-01
7.280000000000000000e+02 5.599405670166015625e+01 8.605606079101562500e+00 8.290655612945556641e-01 4.486750602722167969e+00 1.594744801521301270e+00 1.560606241226196289e+00
7.290000000000000000e+02 5.285891342163085938e+01 1.193118953704833984e+01 3.197406530380249023e+00 1.271634960174560547e+01 4.774127006530761719e+00 2.042591333389282227e+00
7.300000000000000000e+02 5.068040084838867188e+01 1.416986846923828125e+01 3.337088346481323242e+00 1.921219062805175781e+01 6.764783382415771484e+00 -2.795759916305541992e+00
7.310000000000000000e+02 5.164063262939453125e+01 1.301493453979492188e+01 3.051100969314575195e+00 1.851458358764648438e+01 6.469705581665039062e+00 4.448547661304473877e-01
7.320000000000000000e+02 5.086248779296875000e+01 1.186996936798095703e+01 1.871983051300048828e+00 2.391795539855957031e+01 7.736981868743896484e+00 1.562085866928100586e+00
7.330000000000000000e+02 5.687728881835937500e+01 9.662256240844726562e+00 5.832787752151489258e-01 2.161319971084594727e+00 8.233796358108520508e-01 1.055315136909484863e+00
7.340000000000000000e+02 5.781077957153320312e+01 1.066998386383056641e+01 5.591798424720764160e-01 1.212527751922607422e+00 5.315122604370117188e-01 6.617309451103210449e-01
7.350000000000000000e+02 5.496497726440429688e+01 1.388049125671386719e+01 2.155027866363525391e+00 7.069876194000244141e+00 2.767471313476562500e+00 3.164938688278198242e+00
7.360000000000000000e+02 4.982797622680664062e+01 1.924814987182617188e+01 -1.363464832305908203e+00 5.248204708099365234e+00 1.165421843528747559e+00 -2.083214044570922852e+00
7.370000000000000000e+02 4.668901824951171875e+01 1.682515716552734375e+01 -5.842216014862060547e-01 9.048219323158264160e-01 9.618009626865386963e-02 -1.014525294303894043e+00
7.380000000000000000e+02 4.755926895141601562e+01 1.551127338409423828e+01 -2.620869398117065430e+00 -6.505882143974304199e-01 -9.814373254776000977e-01 -2.066762685775756836e+00
7.390000000000000000e+02 4.638398361206054688e+01 1.455398082733154297e+01 -2.890794038772583008e+00 -1.031255006790161133e+00 -1.176614761352539062e+00 -1.441407918930053711e+00
7.400000000000000000e+02 4.475371551513671875e+01 1.527630996704101562e+01 -2.402660608291625977e+00 5.188298225402832031e-01 -5.651492476463317871e-01 -4.483499228954315186e-01
7.410000000000000000e+02 4.402688980102539062e+01 1.198419570922851562e+01 -9.565688371658325195e-01 -3.099701404571533203e-01 -3.799616992473602295e-01 -5.597847104072570801e-01
7.420000000000000000e+02 1.500151634216308594e+01 -2.020842313766479492e+00 -4.798980802297592163e-02 -9.345494210720062256e-03 -1.720059104263782501e-02 3.254158049821853638e-02
7.430000000000000000e+02 1.480500888824462891e+01 -3.045652627944946289e+00 -9.890086948871612549e-02 -9.931767359375953674e-03 -3.264978900551795959e-02 4.046441242098808289e-02
7.440000000000000000e+02 1.147882461547851562e+01 -3.407556772232055664e+00 -9.475336223840713501e-02 3.137504309415817261e-02 -1.901349611580371857e-02 -1.057157176546752453e-03
7.450000000000000000e+02 1.181107330322265625e+01 -1.939410686492919922e+00 -6.633810698986053467e-02 1.571585051715373993e-02 -1.518667675554752350e-02 9.368428029119968414e-03
7.460000000000000000e+02 1.207570838928222656e+01 -6.091322898864746094e+00 -1.704818159341812134e-01 5.932600796222686768e-02 -3.334674239158630371e-02 -4.610554873943328857e-02
7.470000000000000000e+02 1.252119159698486328e+01 -1.039646530151367188e+01 -1.782558262348175049e-01 1.037809923291206360e-01 -2.234245091676712036e-02 -1.596283465623855591e-01
7.480000000000000000e+02 1.206663417816162109e+01 -1.382485008239746094e+01 -3.891519457101821899e-02 1.040282696485519409e-01 1.953392103314399719e-02 -2.103956341743469238e-01
7.490000000000000000e+02 9.673376083374023438e+00 -1.899862480163574219e+01 2.108530327677726746e-02 -1.284167636185884476e-02 2.473088214173913002e-03 -1.871707290410995483e-01
7.500000000000000000e+02 1.076147937774658203e+01 -2.128556823730468750e+01 6.964907050132751465e-02 5.650825798511505127e-02 3.784719854593276978e-02 -1.673726737499237061e-01
7.510000000000000000e+02 9.345505714416503906e+00 -2.516896438598632812e+01 6.017068773508071899e-02 -3.516443073749542236e-02 7.501876913011074066e-03 -1.395134180784225464e-01
7.520000000000000000e+02 7.591735363006591797e+00 -2.523070335388183594e+01 4.291649535298347473e-02 -1.638602018356323242e-01 -3.628311306238174438e-02 -1.277733594179153442e-01
7.530000000000000000e+02 9.283852577209472656e+00 -3.331267166137695312e+01 4.393922165036201477e-02 -5.843886733055114746e-02 -4.349894355982542038e-03 -6.958987563848495483e-02
7.540000000000000000e+02 9.423669815063476562e+00 -3.581655502319335938e+01 5.267225950956344604e-02 -4.812156781554222107e-02 1.365208066999912262e-03 -5.006016045808792114e-02
7.550000000000000000e+02 9.101026535034179688e+00 -3.846509552001953125e+01 3.961303085088729858e-02 -9.506230801343917847e-02 -1.663478463888168335e-02 -2.326674386858940125e-02
7.560000000000000000e+02 8.144148826599121094e+00 -4.116229248046875000e+01 2.638770826160907745e-02 -1.761582046747207642e-01 -4.493114724755287170e-02 -1.412368752062320709e-02
7.570000000000000000e+02 1.260300350189208984e+01 -4.124128723144531250e+01 6.094137579202651978e-02 2.086489945650100708e-01 8.087711036205291748e-02 -1.491386676207184792e-03
7.580000000000000000e+02 1.273141860961914062e+01 -3.852759933471679688e+01 6.317418068647384644e-02 2.196451723575592041e-01 8.484581112861633301e-02 -3.052541054785251617e-02
7.590000000000000000e+02 1.264765357971191406e+01 -3.553932952880859375e+01 7.095687091350555420e-02 2.048287838697433472e-01 8.273569494485855103e-02 -4.038632661104202271e-02
7.600000000000000000e+02 1.201772212982177734e+01 -3.066373252868652344e+01 6.221171468496322632e-02 1.266514211893081665e-01 5.665894225239753723e-02 -7.619029283523559570e-02
7.610000000000000000e+02 1.461816978454589844e+01 -2.671507453918457031e+01 1.029143854975700378e-01 3.222810029983520508e-01 1.275586187839508057e-01 -1.010731831192970276e-01
7.620000000000000000e+02 1.125678825378417969e+01 -2.301200866699218750e+01 5.920902639627456665e-02 7.876913249492645264e-02 4.139344766736030579e-02 -1.549009680747985840e-01
7.630000000000000000e+02 1.196300315856933594e+01 -1.994188880920410156e+01 5.465396866202354431e-02 9.230700880289077759e-02 4.408829286694526672e-02 -1.819175779819488525e-01
7.640000000000000000e+02 1.382716560363769531e+01 -1.655452156066894531e+01 1.042636390775442123e-02 1.557628661394119263e-01 4.985677078366279602e-02 -1.886774897575378418e-01
7.650000000000000000e+02 1.341015052795410156e+01 -1.335418510437011719e+01 -9.509076923131942749e-02 1.181751042604446411e-01 6.925300695002079010e-03 -2.023962289094924927e-01
7.660000000000000000e+02 1.589451980590820312e+01 -9.605969429016113281e+00 -3.148674666881561279e-01 1.341100782155990601e-01 -5.422721803188323975e-02 -1.197738274931907654e-01
7.670000000000000000e+02 1.518977069854736328e+01 -5.720882892608642578e+00 -2.536336481571197510e-01 5.057014152407646179e-02 -6.091905012726783752e-02 4.121316596865653992e-02
7.680000000000000000e+02 1.839619445800781250e+01 -5.629610538482666016e+00 -2.752135694026947021e-01 -1.390518099069595337e-01 -1.242796182632446289e-01 1.490676552057266235e-01
7.690000000000000000e+02 1.655835151672363281e+01 -3.715754270553588867e+00 -1.209438517689704895e-01 -7.545948028564453125e-02 -5.892099812626838684e-02 6.767669320106506348e-02
7.700000000000000000e+02 1.021199035644531250e+01 -2.529835462570190430e+00 -7.381097227334976196e-02 7.312128320336341858e-03 -1.994965411722660065e-02 -8.390113711357116699e-03
7.710000000000000000e+02 7.375924110412597656e+00 -3.297447443008422852e+00 -5.030758678913116455e-02 5.909185856580734253e-03 -1.331952027976512909e-02 -2.900210954248905182e-02
7.720000000000000000e+02 8.103019714355468750e+00 -5.488791465759277344e+00 -7.048785686492919922e-02 1.587521098554134369e-02 -1.638379320502281189e-02 -6.066245213150978088e-02
7.730000000000000000e+02 7.011836528778076172e+00 -1.026281547546386719e+01 -4.626765102148056030e-02 -2.297992072999477386e-02 -2.077427133917808533e-02 -1.371436715126037598e-01
7.740000000000000000e+02 8.134927749633789062e+00 -1.269674301147460938e+01 -4.862675815820693970e-02 -2.573961950838565826e-02 -2.230991236865520477e-02 -1.649760454893112183e-01
7.750000000000000000e+02 6.545032978057861328e+00 -1.753564262390136719e+01 1.304481923580169678e-02 -1.296992301940917969e-01 -3.499632328748703003e-02 -1.684120297431945801e-01
7.760000000000000000e+02 7.911964416503906250e+00 -2.054849815368652344e+01 2.792168222367763519e-02 -1.031538844108581543e-01 -2.256966009736061096e-02 -1.682467609643936157e-01
7.770000000000000000e+02 4.570811271667480469e+00 -2.344796562194824219e+01 1.363992132246494293e-02 -3.209686279296875000e-01 -9.219861030578613281e-02 -1.083865910768508911e-01
7.780000000000000000e+02 5.893348693847656250e+00 -2.697005462646484375e+01 3.303654864430427551e-02 -2.810508906841278076e-01 -7.440429925918579102e-02 -1.026881188154220581e-01
7.790000000000000000e+02 6.332063198089599609e+00 -3.005356597900390625e+01 3.996653854846954346e-02 -2.655629217624664307e-01 -6.767891347408294678e-02 -8.566480875015258789e-02
7.800000000000000000e+02 4.411892890930175781e+00 -3.615599441528320312e+01 2.879123389720916748e-02 -4.731161296367645264e-01 -1.332974731922149658e-01 -3.614579141139984131e-02
7.810000000000000000e+02 6.295350551605224609e+00 -3.813389205932617188e+01 2.545630186796188354e-02 -2.977945506572723389e-01 -8.170147240161895752e-02 -4.216317459940910339e-02
7.820000000000000000e+02 1.010711193084716797e+01 -3.197962999343872070e+00 -7.926314324140548706e-02 2.346259169280529022e-02 -1.674016565084457397e-02 -1.436280272901058197e-02
7.830000000000000000e+02 4.228064537048339844e+00 -1.917653203010559082e+00 -1.443500164896249771e-02 -3.352302825078368187e-03 -5.336191039532423019e-03 -1.266164798289537430e-02
7.840000000000000000e+02 5.031410694122314453e+00 -2.762277126312255859e+00 -2.417158894240856171e-02 -4.219830967485904694e-03 -8.517426438629627228e-03 -2.092674188315868378e-02
7.850000000000000000e+02 5.684750556945800781e+00 -5.194103717803955078e+00 -4.477250948548316956e-02 -1.344271469861268997e-02 -1.746456697583198547e-02 -5.240338668227195740e-02
7.860000000000000000e+02 4.216081142425537109e+00 -9.209234237670898438e+00 -3.127820044755935669e-02 -6.611745059490203857e-02 -2.921869605779647827e-02 -8.408626914024353027e-02
7.870000000000000000e+02 7.121515750885009766e+00 -1.282980728149414062e+01 -2.488294430077075958e-02 -4.990310594439506531e-02 -2.243581414222717285e-02 -1.708313375711441040e-01
7.880000000000000000e+02 3.549652814865112305e+00 -1.624544143676757812e+01 -4.184671677649021149e-03 -2.267181873321533203e-01 -6.927085667848587036e-02 -1.127651110291481018e-01
7.890000000000000000e+02 7.033632397651672363e-01 -2.057908439636230469e+01 5.558877252042293549e-03 -4.810706377029418945e-01 -1.426535248756408691e-01 -2.215689606964588165e-02
7.900000000000000000e+02 2.112499237060546875e+00 -2.056153488159179688e+01 -1.561734534334391356e-04 -4.056894481182098389e-01 -1.217536851763725281e-01 -6.796908378601074219e-02
7.910000000000000000e+02 6.967000365257263184e-01 -2.198994636535644531e+01 -6.656535435467958450e-03 -5.274829268455505371e-01 -1.602418422698974609e-01 -2.300413139164447784e-02
7.920000000000000000e+02 2.087695598602294922e+00 -2.334284019470214844e+01 -3.359552705660462379e-03 -4.730941057205200195e-01 -1.429360955953598022e-01 -5.983401462435722351e-02
7.930000000000000000e+02 8.256788253784179688e-01 -2.760716438293457031e+01 -3.406763775274157524e-03 -6.771478056907653809e-01 -2.041663825511932373e-01 -1.665903255343437195e-02
7.940000000000000000e+02 2.489693641662597656e+00 -2.746323394775390625e+01 1.139260828495025635e-02 -5.376505255699157715e-01 -1.578773856163024902e-01 -5.401413887739181519e-02
7.950000000000000000e+02 5.961537957191467285e-01 -3.464637756347656250e+01 7.026578765362501144e-03 -7.939319014549255371e-01 -2.360716015100479126e-01 -8.181101642549037933e-03
7.960000000000000000e+02 7.513926029205322266e-01 -3.594651794433593750e+01 7.086374796926975250e-03 -7.916184067726135254e-01 -2.353596091270446777e-01 7.111892104148864746e-03
7.970000000000000000e+02 1.339118242263793945e+00 -4.008712387084960938e+01 2.512355893850326538e-02 -7.268778681755065918e-01 -2.105262875556945801e-01 2.842683158814907074e-02
7.980000000000000000e+02 8.840116262435913086e-01 -3.731330108642578125e+01 3.205691697075963020e-03 -7.715427279472351074e-01 -2.305011004209518433e-01 1.436874642968177795e-02
7.990000000000000000e+02 2.617683410644531250e+00 -3.366518020629882812e+00 -7.251805625855922699e-03 -9.303777478635311127e-03 -4.966674838215112686e-03 -1.671123877167701721e-02
8.000000000000000000e+02 1.778211593627929688e+00 -9.308266639709472656e+00 -9.266036562621593475e-03 -9.294433891773223877e-02 -3.066311217844486237e-02 -4.158260300755500793e-02
8.010000000000000000e+02 2.984686136245727539e+00 -9.288179397583007812e+00 -8.782463148236274719e-03 -8.176158368587493896e-02 -2.716321311891078949e-02 -6.941424310207366943e-02
8.020000000000000000e+02 2.121205806732177734e+00 -1.630491065979003906e+01 2.340312348678708076e-03 -2.771066427230834961e-01 -8.242990076541900635e-02 -7.387804985046386719e-02
8.030000000000000000e+02 2.017709016799926758e+00 -1.346692085266113281e+01 -7.574519258923828602e-04 -1.959350407123565674e-01 -5.900774896144866943e-02 -6.811656057834625244e-02
8.040000000000000000e+02 2.027065992355346680e+00 -4.164194107055664062e+01 -3.791949898004531860e-02 -7.118886709213256836e-01 -2.249424457550048828e-01 1.088625658303499222e-02
8.050000000000000000e+02 1.664671897888183594e+01 -3.839854812622070312e+01 9.672838449478149414e-02 5.391700267791748047e-01 1.907695233821868896e-01 -1.797248050570487976e-02
8.060000000000000000e+02 1.618859100341796875e+01 -3.536031341552734375e+01 8.546632528305053711e-02 4.976930916309356689e-01 1.749478280544281006e-01 -5.066352710127830505e-02
8.070000000000000000e+02 1.647265815734863281e+01 -3.221051406860351562e+01 1.150572821497917175e-01 4.893964827060699463e-01 1.813361346721649170e-01 -4.656727239489555359e-02
8.080000000000000000e+02 1.714845657348632812e+01 -2.727621650695800781e+01 1.189404651522636414e-01 5.405940413475036621e-01 1.978603452444076538e-01 -7.339124381542205811e-02
8.090000000000000000e+02 1.455874443054199219e+01 -2.508709716796875000e+01 9.209762513637542725e-02 2.917224764823913574e-01 1.151460334658622742e-01 -1.341295689344406128e-01
8.100000000000000000e+02 1.555040359497070312e+01 -1.990545845031738281e+01 1.108260303735733032e-01 3.110554218292236328e-01 1.265644431114196777e-01 -1.301648765802383423e-01
8.110000000000000000e+02 1.858101463317871094e+01 -1.681658744812011719e+01 2.014061436057090759e-02 4.523138403892517090e-01 1.417363286018371582e-01 -5.470592528581619263e-02
8.120000000000000000e+02 1.801293182373046875e+01 -1.380128955841064453e+01 -8.946761488914489746e-02 2.811785638332366943e-01 5.751328542828559875e-02 -9.792487323284149170e-02
8.130000000000000000e+02 1.833525276184082031e+01 -9.116964340209960938e+00 -5.032415390014648438e-01 7.054255157709121704e-02 -1.298096925020217896e-01 -2.090481854975223541e-02
8.140000000000000000e+02 2.037732887268066406e+01 -7.812440872192382812e+00 -7.110177874565124512e-01 -2.400594502687454224e-01 -2.853231728076934814e-01 3.126427233219146729e-01
8.150000000000000000e+02 1.931575012207031250e+01 -6.761224269866943359e+00 -4.019306898117065430e-01 -1.408530175685882568e-01 -1.628351062536239624e-01 2.643126845359802246e-01
8.160000000000000000e+02 1.723478889465332031e+01 -4.118062210083007812e+01 8.445259928703308105e-02 5.907515883445739746e-01 2.025612592697143555e-01 -1.035172864794731140e-02
8.170000000000000000e+02 2.031031990051269531e+01 -3.803628540039062500e+01 1.089750155806541443e-01 8.705900907516479492e-01 2.938695251941680908e-01 -1.941995695233345032e-02
8.180000000000000000e+02 1.947910881042480469e+01 -3.546069335937500000e+01 1.165750473737716675e-01 7.513315081596374512e-01 2.603719830513000488e-01 -2.309538051486015320e-02
8.190000000000000000e+02 1.973019409179687500e+01 -3.277647018432617188e+01 1.040894314646720886e-01 7.699450850486755371e-01 2.622103393077850342e-01 -5.041046068072319031e-02
8.200000000000000000e+02 1.873081207275390625e+01 -2.580630493164062500e+01 1.424311995506286621e-01 6.590194702148437500e-01 2.404351979494094849e-01 -6.541389971971511841e-02
8.210000000000000000e+02 1.772956275939941406e+01 -2.032075691223144531e+01 1.218214631080627441e-01 4.959689378738403320e-01 1.853371262550354004e-01 -1.036748141050338745e-01
8.220000000000000000e+02 2.071708106994628906e+01 -1.707871055603027344e+01 -1.612260378897190094e-02 6.844763755798339844e-01 2.005061358213424683e-01 4.692892357707023621e-02
8.230000000000000000e+02 2.453659057617187500e+01 -1.255414104461669922e+01 -3.991407752037048340e-01 1.467391729354858398e+00 3.204753100872039795e-01 6.458095312118530273e-01
8.240000000000000000e+02 2.159640884399414062e+01 -8.629985809326171875e+00 -9.999445676803588867e-01 -1.900399923324584961e-01 -3.569953739643096924e-01 4.986662566661834717e-01
8.250000000000000000e+02 2.211693191528320312e+01 -1.071542072296142578e+01 -2.322415262460708618e-01 1.770770102739334106e-01 -1.654935814440250397e-02 2.512096464633941650e-01
8.260000000000000000e+02 2.283457946777343750e+01 -9.350867271423339844e+00 -1.220957756042480469e+00 -3.017553687095642090e-01 -4.568139314651489258e-01 4.824646115303039551e-01
8.270000000000000000e+02 2.184193801879882812e+01 -4.091768264770507812e+01 1.069333925843238831e-01 9.912680983543395996e-01 3.294604420661926270e-01 -3.025131998583674431e-03
8.280000000000000000e+02 2.232405471801757812e+01 -3.637646484375000000e+01 1.139177456498146057e-01 1.032359600067138672e+00 3.438831865787506104e-01 -1.730461418628692627e-02
8.290000000000000000e+02 2.282246780395507812e+01 -3.356652832031250000e+01 1.392078101634979248e-01 1.052664399147033691e+00 3.575616478919982910e-01 -1.987210288643836975e-02
8.300000000000000000e+02 2.315475654602050781e+01 -3.067921447753906250e+01 1.207331866025924683e-01 1.060686707496643066e+00 3.544259667396545410e-01 -3.509822487831115723e-02
8.310000000000000000e+02 2.358432006835937500e+01 -2.787876892089843750e+01 1.616436839103698730e-01 1.107630610466003418e+00 3.807823061943054199e-01 -4.012090340256690979e-02
8.320000000000000000e+02 2.420207023620605469e+01 -2.528176879882812500e+01 9.526532143354415894e-02 1.109708905220031738e+00 3.614922463893890381e-01 -5.842462182044982910e-02
8.330000000000000000e+02 2.247371101379394531e+01 -2.003019332885742188e+01 5.793205648660659790e-02 9.772397875785827637e-01 3.105515539646148682e-01 -1.858582906424999237e-02
8.340000000000000000e+02 2.409652328491210938e+01 -1.619042587280273438e+01 -6.269323080778121948e-02 1.383469223976135254e+00 3.962327837944030762e-01 8.346726000308990479e-02
8.350000000000000000e+02 2.540422058105468750e+01 -3.754658889770507812e+01 1.247162669897079468e-01 1.264404296875000000e+00 4.167361855506896973e-01 -8.442004211246967316e-03
8.360000000000000000e+02 2.601091384887695312e+01 -3.449742507934570312e+01 1.272596120834350586e-01 1.329133749008178711e+00 4.369179904460906982e-01 -1.350026484578847885e-02
8.370000000000000000e+02 2.609591293334960938e+01 -3.135132408142089844e+01 1.607038527727127075e-01 1.359085202217102051e+00 4.559367299079895020e-01 -2.439654245972633362e-02
8.380000000000000000e+02 2.834990119934082031e+01 -2.895390892028808594e+01 1.774098426103591919e-01 1.518695831298828125e+00 5.088316798210144043e-01 -8.139555342495441437e-03
8.390000000000000000e+02 2.723316383361816406e+01 -2.372638702392578125e+01 1.120712533593177795e-01 1.356656432151794434e+00 4.406183063983917236e-01 -9.796270728111267090e-02
8.400000000000000000e+02 2.486022567749023438e+01 -2.278064346313476562e+01 1.231402456760406494e-01 1.249415159225463867e+00 4.117666184902191162e-01 -5.165192484855651855e-02
8.410000000000000000e+02 3.044871139526367188e+01 -1.699172401428222656e+01 3.119654720649123192e-03 1.670393824577331543e+00 5.020540356636047363e-01 -4.789290726184844971e-01
8.420000000000000000e+02 3.159627532958984375e+01 -1.302315521240234375e+01 1.338151693344116211e-01 1.601005554199218750e+00 5.204462409019470215e-01 -7.723564505577087402e-01
8.430000000000000000e+02 3.028754043579101562e+01 -1.373505401611328125e+01 9.914676845073699951e-02 1.667543411254882812e+00 5.300070643424987793e-01 -8.370720148086547852e-01
8.440000000000000000e+02 2.626265525817871094e+01 -4.075685882568359375e+01 1.187978759407997131e-01 1.384777069091796875e+00 4.510724544525146484e-01 -5.021500401198863983e-03
8.450000000000000000e+02 2.875654983520507812e+01 -3.906769180297851562e+01 1.261371076107025146e-01 1.593580961227416992e+00 5.159153938293457031e-01 -1.199036370962858200e-02
8.460000000000000000e+02 2.919077301025390625e+01 -3.576309967041015625e+01 1.344583332538604736e-01 1.656449198722839355e+00 5.372722744941711426e-01 -2.040414698421955109e-02
8.470000000000000000e+02 3.032764816284179688e+01 -3.354302597045898438e+01 1.483100652694702148e-01 1.739920020103454590e+00 5.664690136909484863e-01 1.327297184616327286e-03
8.480000000000000000e+02 2.860824584960937500e+01 -3.124133872985839844e+01 1.145564168691635132e-01 1.571703791618347168e+00 5.058780312538146973e-01 -5.126170348376035690e-03
8.490000000000000000e+02 3.121326637268066406e+01 -2.816758346557617188e+01 1.801499128341674805e-01 1.786476373672485352e+00 5.899878740310668945e-01 3.272700682282447815e-02
8.500000000000000000e+02 2.977148246765136719e+01 -2.470037460327148438e+01 2.319164425134658813e-01 1.646134018898010254e+00 5.634151697158813477e-01 -1.592018269002437592e-02
8.510000000000000000e+02 3.065887451171875000e+01 -1.891578483581542969e+01 1.285792440176010132e-01 1.521638631820678711e+00 4.950653910636901855e-01 -3.621670901775360107e-01
8.520000000000000000e+02 3.250866699218750000e+01 -1.724071121215820312e+01 2.098487615585327148e-01 1.558582901954650879e+00 5.305294990539550781e-01 -4.502260684967041016e-01
8.530000000000000000e+02 3.232333755493164062e+01 -1.418293094635009766e+01 1.874565780162811279e-01 1.420520424842834473e+00 4.823930859565734863e-01 -7.406536936759948730e-01
8.540000000000000000e+02 3.272187042236328125e+01 -4.019739913940429688e+01 1.384029537439346313e-01 1.946713805198669434e+00 6.255350708961486816e-01 -4.932314157485961914e-03
8.550000000000000000e+02 3.224332809448242188e+01 -3.623915863037109375e+01 1.153561994433403015e-01 1.932977914810180664e+00 6.145002245903015137e-01 -2.738077193498611450e-03
8.560000000000000000e+02 3.215103530883789062e+01 -3.194498062133789062e+01 1.201879158616065979e-01 1.885044813156127930e+00 6.015698313713073730e-01 1.263824198395013809e-02
8.570000000000000000e+02 3.347512054443359375e+01 -2.993158912658691406e+01 1.291573792695999146e-01 2.050163745880126953e+00 6.537963151931762695e-01 1.003096625208854675e-02
8.580000000000000000e+02 3.450687789916992188e+01 -2.790453910827636719e+01 1.855822652578353882e-01 2.139380931854248047e+00 6.974889636039733887e-01 9.818277508020401001e-02
8.590000000000000000e+02 3.362948608398437500e+01 -2.445130920410156250e+01 2.895871996879577637e-01 1.905782580375671387e+00 6.586109399795532227e-01 8.708415925502777100e-02
8.600000000000000000e+02 3.187093734741210938e+01 -1.898321533203125000e+01 3.144780695438385010e-01 1.675174236297607422e+00 5.968956947326660156e-01 -2.949598729610443115e-01
8.610000000000000000e+02 3.599007034301757812e+01 -1.683307075500488281e+01 8.069231510162353516e-01 1.060774922370910645e+00 5.603094100952148438e-01 -3.750019669532775879e-01
8.620000000000000000e+02 3.382677459716796875e+01 -1.649416923522949219e+01 4.494887888431549072e-01 1.298592090606689453e+00 5.244242548942565918e-01 -6.436318159103393555e-01
8.630000000000000000e+02 3.466762542724609375e+01 -3.448608779907226562e+01 1.265777200460433960e-01 2.147244930267333984e+00 6.821467876434326172e-01 -1.687367074191570282e-02
8.640000000000000000e+02 3.610188674926757812e+01 -3.178343963623046875e+01 1.065651178359985352e-01 2.308237552642822266e+00 7.244408130645751953e-01 -2.034290879964828491e-02
8.650000000000000000e+02 3.700351333618164062e+01 -2.932204437255859375e+01 3.667650371789932251e-02 2.485232353210449219e+00 7.565726637840270996e-01 -1.576896384358406067e-02
8.660000000000000000e+02 3.742080688476562500e+01 -2.707348442077636719e+01 1.208620518445968628e-01 2.573306798934936523e+00 8.082506656646728516e-01 1.162205711007118225e-01
8.670000000000000000e+02 3.528618240356445312e+01 -2.331741523742675781e+01 3.988159000873565674e-01 2.198644161224365234e+00 7.792379856109619141e-01 2.102195620536804199e-01
8.680000000000000000e+02 3.585033798217773438e+01 -2.069723701477050781e+01 6.573712229728698730e-01 2.033009290695190430e+00 8.071141242980957031e-01 2.519587874412536621e-01
8.690000000000000000e+02 4.923934173583984375e+01 -3.955668258666992188e+01 2.394482642412185669e-01 3.408315420150756836e+00 1.094329118728637695e+00 -3.398887813091278076e-03
8.700000000000000000e+02 5.008566284179687500e+01 -3.663753890991210938e+01 2.262004911899566650e-01 3.425935029983520508e+00 1.095640659332275391e+00 3.106310218572616577e-02
8.710000000000000000e+02 5.074189758300781250e+01 -3.390565872192382812e+01 2.526351213455200195e-01 3.445797681808471680e+00 1.109529852867126465e+00 8.920682966709136963e-02
8.720000000000000000e+02 5.140813446044921875e+01 -3.140183639526367188e+01 2.495147138833999634e-01 3.357965230941772461e+00 1.082244038581848145e+00 1.594646275043487549e-01
8.730000000000000000e+02 5.050572586059570312e+01 -2.606646156311035156e+01 4.628425240516662598e-01 2.529790639877319336e+00 8.977899551391601562e-01 1.059278324246406555e-01
8.740000000000000000e+02 5.260027694702148438e+01 -2.318486976623535156e+01 4.557077586650848389e-01 2.162929773330688477e+00 7.855912446975708008e-01 8.691652417182922363e-01
8.750000000000000000e+02 5.291394042968750000e+01 -4.083374786376953125e+01 1.997368335723876953e-01 3.772343635559082031e+00 1.191624164581298828e+00 2.589614130556583405e-02
8.760000000000000000e+02 5.361215209960937500e+01 -3.766164398193359375e+01 1.985690444707870483e-01 3.882416963577270508e+00 1.224295735359191895e+00 8.238696306943893433e-02
8.770000000000000000e+02 5.415521240234375000e+01 -3.478460693359375000e+01 1.531869620084762573e-01 3.913170099258422852e+00 1.219907164573669434e+00 1.476031243801116943e-01
8.780000000000000000e+02 5.462454986572265625e+01 -3.216446685791015625e+01 1.326968818902969360e-01 4.009276866912841797e+00 1.242592096328735352e+00 2.759815752506256104e-01
8.790000000000000000e+02 5.284844589233398438e+01 -2.701027488708496094e+01 2.679123282432556152e-01 3.224738121032714844e+00 1.047795176506042480e+00 6.448515653610229492e-01
8.800000000000000000e+02 5.368607711791992188e+01 -2.405167007446289062e+01 3.319254815578460693e-01 2.694144010543823242e+00 9.078208208084106445e-01 1.436005830764770508e+00
8.810000000000000000e+02 5.399568557739257812e+01 -1.982497024536132812e+01 -1.174154758453369141e+00 1.838848292827606201e-01 -2.970809936523437500e-01 2.701171159744262695e+00
8.820000000000000000e+02 5.738222503662109375e+01 -4.111240386962890625e+01 1.367344111204147339e-01 4.384332180023193359e+00 1.356320023536682129e+00 1.068390347063541412e-02
8.830000000000000000e+02 5.736994552612304688e+01 -3.827874755859375000e+01 1.133366599678993225e-01 4.377278327941894531e+00 1.347184538841247559e+00 6.528710573911666870e-02
8.840000000000000000e+02 5.766122055053710938e+01 -3.542249298095703125e+01 8.961120247840881348e-02 4.474550247192382812e+00 1.369248509407043457e+00 1.318027377128601074e-01
8.850000000000000000e+02 5.801115798950195312e+01 -3.257560348510742188e+01 -2.168151177465915680e-02 4.548111438751220703e+00 1.357928991317749023e+00 1.819637715816497803e-01
8.860000000000000000e+02 5.537474441528320312e+01 -2.759930992126464844e+01 -8.508091419935226440e-02 4.362132072448730469e+00 1.283115386962890625e+00 6.483651399612426758e-01
8.870000000000000000e+02 5.862197875976562500e+01 -2.344850730895996094e+01 -9.729169607162475586e-01 6.495598316192626953e+00 1.656804442405700684e+00 5.418315157294273376e-02
8.880000000000000000e+02 5.526952743530273438e+01 -1.908413124084472656e+01 -3.654422163963317871e-01 6.515519618988037109e+00 1.845023274421691895e+00 3.534654140472412109e+00
8.890000000000000000e+02 6.164141082763671875e+01 -4.118547439575195312e+01 7.651672512292861938e-02 4.982544898986816406e+00 1.517718434333801270e+00 1.932702213525772095e-02
8.900000000000000000e+02 6.088616180419921875e+01 -3.865330123901367188e+01 7.017967104911804199e-02 4.858935832977294922e+00 1.478734731674194336e+00 3.988190367817878723e-02
8.910000000000000000e+02 6.112321853637695312e+01 -3.603998184204101562e+01 3.136881068348884583e-02 4.859171390533447266e+00 1.467162013053894043e+00 5.738665163516998291e-02
8.920000000000000000e+02 6.223764801025390625e+01 -3.032874488830566406e+01 -1.041936129331588745e-01 5.183313846588134766e+00 1.523736000061035156e+00 -8.537578582763671875e-02
8.930000000000000000e+02 6.138174438476562500e+01 -2.655142211914062500e+01 -3.230159282684326172e-01 5.493679046630859375e+00 1.551198840141296387e+00 -2.953071892261505127e-01
8.940000000000000000e+02 6.160052490234375000e+01 -2.231606674194335938e+01 -1.661042571067810059e-01 5.892172336578369141e+00 1.717820405960083008e+00 -1.041305303573608398e+00
8.950000000000000000e+02 6.395786285400390625e+01 -3.975939559936523438e+01 6.053477898240089417e-02 5.194317340850830078e+00 1.576455593109130859e+00 1.489371247589588165e-02
8.960000000000000000e+02 6.438249969482421875e+01 -3.688130569458007812e+01 4.915240779519081116e-02 5.351637363433837891e+00 1.620236992835998535e+00 -7.951068691909313202e-03
8.970000000000000000e+02 6.462713623046875000e+01 -3.400309753417968750e+01 3.282587230205535889e-02 5.321026325225830078e+00 1.606155633926391602e+00 -3.277405351400375366e-02
8.980000000000000000e+02 6.344993591308593750e+01 -2.786691856384277344e+01 3.621198236942291260e-02 5.339042186737060547e+00 1.612576246261596680e+00 -2.683179974555969238e-01
8.990000000000000000e+02 6.410623931884765625e+01 -2.431382942199707031e+01 4.123592004179954529e-02 5.211381912231445312e+00 1.575785398483276367e+00 -7.556446790695190430e-01
9.000000000000000000e+02 7.495495605468750000e+01 -4.021506500244140625e+01 3.134573996067047119e-02 6.549671173095703125e+00 1.974305033683776855e+00 -1.874562911689281464e-02
9.010000000000000000e+02 7.360187530517578125e+01 -3.774315261840820312e+01 3.389084711670875549e-02 6.334608078002929688e+00 1.910549640655517578e+00 2.945953980088233948e-02
9.020000000000000000e+02 7.395774841308593750e+01 -3.589178085327148438e+01 2.518510445952415466e-02 6.400358676910400391e+00 1.927663207054138184e+00 4.015964269638061523e-02
9.030000000000000000e+02 7.364728546142578125e+01 -3.148857307434082031e+01 8.714307099580764771e-02 6.368209838867187500e+00 1.936605811119079590e+00 1.087944209575653076e-01
9.040000000000000000e+02 7.391778564453125000e+01 -2.884135818481445312e+01 1.032067984342575073e-01 6.399231910705566406e+00 1.950731635093688965e+00 1.711308658123016357e-01
9.050000000000000000e+02 7.371913146972656250e+01 -2.323958587646484375e+01 -3.437988832592964172e-02 6.485980510711669922e+00 1.935480117797851562e+00 5.038307309150695801e-01
9.060000000000000000e+02 7.812300872802734375e+01 -1.640480422973632812e+01 2.934997715055942535e-02 7.149111270904541016e+00 2.153538465499877930e+00 -5.077606439590454102e-01
9.070000000000000000e+02 7.938439941406250000e+01 -1.385579204559326172e+01 2.786392159759998322e-02 5.971773624420166016e+00 1.799891352653503418e+00 -3.411945328116416931e-02
9.080000000000000000e+02 7.818329620361328125e+01 -1.512892627716064453e+01 1.775777041912078857e-01 7.019044876098632812e+00 2.158986806869506836e+00 -3.333090841770172119e-01
9.090000000000000000e+02 7.940148925781250000e+01 -1.245473575592041016e+01 7.998943328857421875e-02 6.010366439819335938e+00 1.827106714248657227e+00 8.281239867210388184e-02
9.100000000000000000e+02 7.822718811035156250e+01 -1.090649127960205078e+01 2.334835678339004517e-01 7.313195705413818359e+00 2.264003753662109375e+00 6.230597496032714844e-01
9.110000000000000000e+02 7.265142059326171875e+01 -8.119580268859863281e+00 6.389188766479492188e-01 8.819635391235351562e+00 2.837566375732421875e+00 -1.951783597469329834e-01
9.120000000000000000e+02 7.176422882080078125e+01 -6.851427555084228516e+00 -6.727261096239089966e-02 6.486167907714843750e+00 1.925668597221374512e+00 -1.226234674453735352e+00
9.130000000000000000e+02 7.796083831787109375e+01 -4.163042449951171875e+01 4.056704044342041016e-02 6.881258964538574219e+00 2.076547861099243164e+00 1.120623014867305756e-02
9.140000000000000000e+02 7.922151184082031250e+01 -3.742070770263671875e+01 -4.944227170199155807e-03 6.987955570220947266e+00 2.094903469085693359e+00 2.333559282124042511e-02
9.150000000000000000e+02 7.739044189453125000e+01 -3.799116897583007812e+01 -4.895325284451246262e-03 6.823175430297851562e+00 2.045484066009521484e+00 4.507349804043769836e-02
9.160000000000000000e+02 7.933522796630859375e+01 -3.473106002807617188e+01 5.015000235289335251e-03 7.067323684692382812e+00 2.121701478958129883e+00 1.867582276463508606e-02
9.170000000000000000e+02 7.798268127441406250e+01 -3.451271438598632812e+01 -8.643081411719322205e-03 6.927428722381591797e+00 2.075635671615600586e+00 3.106364421546459198e-02
9.180000000000000000e+02 7.805392456054687500e+01 -3.322900390625000000e+01 1.672506518661975861e-02 6.947813987731933594e+00 2.089361667633056641e+00 5.011352896690368652e-02
9.190000000000000000e+02 7.808512115478515625e+01 -3.193409729003906250e+01 3.229069756343960762e-03 6.985938072204589844e+00 2.096750020980834961e+00 5.184865742921829224e-02
9.200000000000000000e+02 7.791979980468750000e+01 -2.645227050781250000e+01 -1.030125934630632401e-02 7.177510261535644531e+00 2.150162696838378906e+00 1.216051056981086731e-01
9.210000000000000000e+02 7.792749023437500000e+01 -2.505386924743652344e+01 -3.472077194601297379e-03 7.252653121948242188e+00 2.174754381179809570e+00 1.062430888414382935e-01
9.220000000000000000e+02 7.667826080322265625e+01 -2.216917800903320312e+01 -2.040208578109741211e-01 7.229181289672851562e+00 2.107547998428344727e+00 7.480917870998382568e-02
9.230000000000000000e+02 7.802081298828125000e+01 -2.080539131164550781e+01 -1.548230648040771484e-01 7.417850494384765625e+00 2.178908348083496094e+00 -1.162946298718452454e-01
9.240000000000000000e+02 7.937449645996093750e+01 -9.657464027404785156e+00 4.268509522080421448e-02 7.103290557861328125e+00 2.143792867660522461e+00 3.938799500465393066e-01
9.250000000000000000e+02 7.793081665039062500e+01 -6.495031833648681641e+00 4.406129010021686554e-03 8.878403663635253906e+00 2.664842844009399414e+00 1.360580086708068848e+00
9.260000000000000000e+02 7.439218139648437500e+01 -2.558495759963989258e+00 -3.917891681194305420e-01 5.218116760253906250e+00 1.447898268699645996e+00 3.396746218204498291e-01
9.270000000000000000e+02 7.179054260253906250e+01 -4.985972404479980469e+00 -1.137248277664184570e+00 5.351157665252685547e+00 1.264172792434692383e+00 -9.526093602180480957e-01
9.280000000000000000e+02 6.912914276123046875e+01 -3.530274152755737305e+00 -2.842229127883911133e+00 3.031571149826049805e+00 5.680258572101593018e-02 -6.148746013641357422e-01
9.290000000000000000e+02 7.936908721923828125e+01 -5.429906845092773438e+00 -2.961397729814052582e-02 1.015619373321533203e+01 3.037973880767822266e+00 5.039454102516174316e-01
9.300000000000000000e+02 7.829516601562500000e+01 -3.822694778442382812e+00 1.183652225881814957e-02 1.020315265655517578e+01 3.064496755599975586e+00 1.115331411361694336e+00
9.310000000000000000e+02 7.357604217529296875e+01 -5.292598724365234375e+00 -6.001630425453186035e-01 6.641025066375732422e+00 1.812258601188659668e+00 3.481826782226562500e-01
9.320000000000000000e+02 7.940193939208984375e+01 -2.699902296066284180e+00 -1.020121127367019653e-01 1.243429851531982422e+01 3.699685811996459961e+00 4.265039861202239990e-01
9.330000000000000000e+02 7.842139434814453125e+01 1.387370705604553223e+00 -4.220153391361236572e-01 1.154596424102783203e+01 3.337184906005859375e+00 -1.137459397315979004e+00
9.340000000000000000e+02 7.666357421875000000e+01 -8.778694272041320801e-01 -1.104547142982482910e+00 8.290665626525878906e+00 2.155835628509521484e+00 1.043983697891235352e+00
9.350000000000000000e+02 7.771080017089843750e+01 3.783854484558105469e+00 -8.321484923362731934e-02 1.095836067199707031e+01 3.262543678283691406e+00 -2.541594743728637695e+00
9.360000000000000000e+02 7.667012786865234375e+01 6.917884349822998047e+00 2.468738555908203125e+00 1.491639232635498047e+01 5.215538978576660156e+00 -2.295516729354858398e+00
9.370000000000000000e+02 6.723487091064453125e+01 4.075574493408203125e+01 -1.725216060876846313e-01 6.109681129455566406e+00 1.781147837638854980e+00 3.836518526077270508e-02
9.380000000000000000e+02 6.941308593750000000e+01 3.572043991088867188e+01 -1.368388682603836060e-01 6.366635799407958984e+00 1.868939042091369629e+00 1.316884458065032959e-01
9.390000000000000000e+02 6.758931732177734375e+01 3.290824890136718750e+01 -1.778833568096160889e-01 6.158317565917968750e+00 1.794130206108093262e+00 1.672071665525436401e-01
9.400000000000000000e+02 6.635353088378906250e+01 3.026811790466308594e+01 -1.609213650226593018e-01 6.021596431732177734e+00 1.758202552795410156e+00 1.983957439661026001e-01
9.410000000000000000e+02 6.787308502197265625e+01 2.683136177062988281e+01 -1.051016449928283691e-01 6.239857196807861328e+00 1.840426683425903320e+00 2.178754210472106934e-01
9.420000000000000000e+02 6.837171936035156250e+01 2.385603713989257812e+01 -8.510260283946990967e-02 6.399208068847656250e+00 1.894231557846069336e+00 2.318602651357650757e-01
9.430000000000000000e+02 6.901012420654296875e+01 2.084847831726074219e+01 -5.498613789677619934e-02 6.679901599884033203e+00 1.987474679946899414e+00 3.003177046775817871e-01
9.440000000000000000e+02 6.665519714355468750e+01 1.778757095336914062e+01 -1.414140313863754272e-01 7.122606277465820312e+00 2.094357728958129883e+00 -1.340884417295455933e-01
9.450000000000000000e+02 6.612573242187500000e+01 3.733120727539062500e+01 -1.956906020641326904e-01 6.000240802764892578e+00 1.741365075111389160e+00 7.744885236024856567e-02
9.460000000000000000e+02 6.465126800537109375e+01 3.413608932495117188e+01 -2.259154915809631348e-01 5.815652370452880859e+00 1.676921010017395020e+00 1.262119710445404053e-01
9.470000000000000000e+02 6.354144668579101562e+01 3.124627876281738281e+01 -2.239435613155364990e-01 5.711063385009765625e+00 1.646135926246643066e+00 1.595026403665542603e-01
9.480000000000000000e+02 6.227627944946289062e+01 2.617201423645019531e+01 -5.701734498143196106e-02 5.491480827331542969e+00 1.630339026451110840e+00 2.529805004596710205e-01
9.490000000000000000e+02 6.542380523681640625e+01 2.261719131469726562e+01 7.566337287425994873e-02 5.857978343963623047e+00 1.780092597007751465e+00 2.460337802767753601e-02
9.500000000000000000e+02 6.306074523925781250e+01 2.066933250427246094e+01 5.511086583137512207e-01 4.913743019104003906e+00 1.639455556869506836e+00 -3.683342784643173218e-02
9.510000000000000000e+02 6.236190414428710938e+01 4.103203201293945312e+01 -2.428713887929916382e-01 5.459668636322021484e+00 1.565039157867431641e+00 1.723581575788557529e-03
9.520000000000000000e+02 6.191074371337890625e+01 3.802006912231445312e+01 -2.545872330665588379e-01 5.423876285552978516e+00 1.550786614418029785e+00 4.254883527755737305e-02
9.530000000000000000e+02 6.120840835571289062e+01 3.494482421875000000e+01 -2.684031724929809570e-01 5.386338710784912109e+00 1.535380601882934570e+00 6.666919589042663574e-02
9.540000000000000000e+02 6.043725585937500000e+01 3.196296691894531250e+01 -2.947250604629516602e-01 5.329431056976318359e+00 1.510411739349365234e+00 1.095132380723953247e-01
9.550000000000000000e+02 5.958705139160156250e+01 2.633650779724121094e+01 -2.052417099475860596e-01 5.303843021392822266e+00 1.529580473899841309e+00 3.482062518596649170e-01
9.560000000000000000e+02 6.027750778198242188e+01 2.168592071533203125e+01 3.600486218929290771e-01 4.956480503082275391e+00 1.594958662986755371e+00 7.631107568740844727e-01
9.570000000000000000e+02 5.757884216308593750e+01 4.111211013793945312e+01 -2.549243271350860596e-01 4.772739410400390625e+00 1.355344533920288086e+00 5.180454347282648087e-03
9.580000000000000000e+02 5.761624908447265625e+01 3.538406372070312500e+01 -2.959091067314147949e-01 4.832743644714355469e+00 1.361050367355346680e+00 -2.043868415057659149e-02
9.590000000000000000e+02 5.653971862792968750e+01 2.970676422119140625e+01 -4.298670589923858643e-01 4.983772754669189453e+00 1.366171717643737793e+00 4.410652443766593933e-02
9.600000000000000000e+02 5.373336410522460938e+01 3.807292175292968750e+01 -2.196130156517028809e-01 4.098471641540527344e+00 1.163657546043395996e+00 -9.917341917753219604e-02
9.610000000000000000e+02 5.426938247680664062e+01 3.555997848510742188e+01 -2.906354069709777832e-01 4.343657016754150391e+00 1.215906500816345215e+00 -1.530168652534484863e-01
9.620000000000000000e+02 5.385450744628906250e+01 3.298841476440429688e+01 -3.523360788822174072e-01 4.371003627777099609e+00 1.205600261688232422e+00 -1.528991311788558960e-01
9.630000000000000000e+02 5.276230239868164062e+01 4.092048263549804688e+01 -1.712369322776794434e-01 3.901923894882202148e+00 1.119206070899963379e+00 -4.775798320770263672e-02
9.640000000000000000e+02 5.135069274902343750e+01 3.640729904174804688e+01 -1.912278980016708374e-01 3.707965612411499023e+00 1.055021286010742188e+00 -1.611029207706451416e-01
9.650000000000000000e+02 4.778027725219726562e+01 4.080149459838867188e+01 -1.682270877063274384e-02 3.018881082534790039e+00 9.006175398826599121e-01 -6.005110219120979309e-02
9.660000000000000000e+02 3.341329574584960938e+01 3.756724929809570312e+01 3.742882609367370605e-01 7.143895626068115234e-01 3.266033530235290527e-01 -2.180916257202625275e-02
9.670000000000000000e+02 3.356005859375000000e+01 3.485851287841796875e+01 3.087274730205535889e-01 7.293850183486938477e-01 3.114337623119354248e-01 -4.688333719968795776e-02
9.680000000000000000e+02 3.278380584716796875e+01 3.217366409301757812e+01 1.988863050937652588e-01 5.675674080848693848e-01 2.299361079931259155e-01 -1.918826065957546234e-02
9.690000000000000000e+02 3.459481811523437500e+01 2.369245529174804688e+01 -3.415677845478057861e-01 5.344637483358383179e-02 -8.643642067909240723e-02 5.441081151366233826e-02
9.700000000000000000e+02 3.576792526245117188e+01 1.958305931091308594e+01 -1.047312140464782715e+00 -3.344759047031402588e-01 -4.145364165306091309e-01 -1.234024912118911743e-01
9.710000000000000000e+02 3.192022705078125000e+01 1.781075096130371094e+01 -1.195129632949829102e+00 -8.955766558647155762e-01 -6.272118687629699707e-01 5.750406980514526367e-01
9.720000000000000000e+02 3.270108032226562500e+01 4.074081420898437500e+01 4.221755862236022949e-01 6.673319339752197266e-01 3.268522620201110840e-01 -1.085694413632154465e-02
9.730000000000000000e+02 2.976497840881347656e+01 3.325455856323242188e+01 2.298237979412078857e-01 4.149703681468963623e-01 1.934382468461990356e-01 4.383086040616035461e-02
9.740000000000000000e+02 2.877671432495117188e+01 3.051466560363769531e+01 2.680532820522785187e-02 3.363523185253143311e-01 1.089472994208335876e-01 1.023253276944160461e-01
9.750000000000000000e+02 2.786765480041503906e+01 2.554497718811035156e+01 -5.250713825225830078e-01 5.318267345428466797e-01 2.026607980951666832e-03 2.380885928869247437e-01
9.760000000000000000e+02 2.969344520568847656e+01 2.284064483642578125e+01 -8.566227555274963379e-01 4.042235314846038818e-01 -1.357197612524032593e-01 5.112488865852355957e-01
9.770000000000000000e+02 3.110835647583007812e+01 2.231596755981445312e+01 -5.947211384773254395e-01 2.908671498298645020e-01 -9.115619212388992310e-02 5.742095708847045898e-01
9.780000000000000000e+02 2.894272232055664062e+01 1.698900985717773438e+01 -4.535883069038391113e-01 1.548184007406234741e-01 -8.963096886873245239e-02 1.244823813438415527e+00
9.790000000000000000e+02 2.770486068725585938e+01 4.077148437500000000e+01 4.180203080177307129e-01 3.755037784576416016e-01 2.380572259426116943e-01 1.204150076955556870e-02
9.800000000000000000e+02 2.674757003784179688e+01 3.436037063598632812e+01 2.506592869758605957e-01 2.919573783874511719e-01 1.627849936485290527e-01 5.839432403445243835e-02
9.810000000000000000e+02 2.592054176330566406e+01 3.171856307983398438e+01 7.719714194536209106e-02 3.057714104652404785e-01 1.148905679583549500e-01 6.963970512151718140e-02
9.820000000000000000e+02 2.360290336608886719e+01 2.747092819213867188e+01 -2.978064715862274170e-01 2.891180217266082764e-01 -2.606530673801898956e-03 3.891392424702644348e-02
9.830000000000000000e+02 2.504118156433105469e+01 2.414243507385253906e+01 -8.389514088630676270e-01 4.734358191490173340e-01 -1.096546649932861328e-01 5.750399827957153320e-02
9.840000000000000000e+02 2.797947692871093750e+01 2.014499282836914062e+01 -1.641444325447082520e+00 1.107150554656982422e+00 -1.602881252765655518e-01 6.882737278938293457e-01
9.850000000000000000e+02 2.455383682250976562e+01 1.708374595642089844e+01 -2.046978235244750977e+00 2.460052967071533203e+00 1.239224523305892944e-01 -1.045614957809448242e+00
9.860000000000000000e+02 5.101682186126708984e+00 4.013535690307617188e+01 6.001925468444824219e-02 1.005058526992797852e+00 3.195233345031738281e-01 3.220400959253311157e-02
9.870000000000000000e+02 6.484171867370605469e+00 3.756456375122070312e+01 7.505647838115692139e-02 8.733618855476379395e-01 2.845255136489868164e-01 7.896437495946884155e-02
9.880000000000000000e+02 6.105287075042724609e+00 3.569139862060546875e+01 6.655661016702651978e-02 8.963980674743652344e-01 2.888863980770111084e-01 1.174164488911628723e-01
9.890000000000000000e+02 6.527608394622802734e+00 2.928518104553222656e+01 -5.043381359428167343e-03 9.559620022773742676e-01 2.852755784988403320e-01 1.768493950366973877e-01
9.900000000000000000e+02 4.835110187530517578e+00 3.070902061462402344e+01 1.407460309565067291e-02 1.089131951332092285e+00 3.309619426727294922e-01 1.525185704231262207e-01
9.910000000000000000e+02 5.630631446838378906e+00 2.199518585205078125e+01 -1.918704211711883545e-01 1.131746888160705566e+00 2.819629609584808350e-01 4.060709476470947266e-02
9.920000000000000000e+02 5.720348834991455078e+00 2.076636123657226562e+01 -2.514296770095825195e-01 1.127087950706481934e+00 2.626974582672119141e-01 -7.221742719411849976e-02
9.930000000000000000e+02 6.089377880096435547e+00 1.818601799011230469e+01 -4.187097847461700439e-01 1.137959718704223633e+00 2.157749682664871216e-01 -2.699215412139892578e-01
9.940000000000000000e+02 6.404583930969238281e+00 1.398461627960205078e+01 -6.919761896133422852e-01 1.332202792167663574e+00 1.920679956674575806e-01 -6.967887878417968750e-01
9.950000000000000000e+02 6.565626144409179688e+00 8.009211540222167969e+00 7.982210516929626465e-01 1.104265093803405762e+00 5.707458257675170898e-01 -1.679877758026123047e+00
9.960000000000000000e+02 3.480463743209838867e+00 1.938774824142456055e+00 -3.801946043968200684e-01 -1.629133671522140503e-01 -1.629323810338973999e-01 7.004466652870178223e-01
9.970000000000000000e+02 5.782895088195800781e+00 2.770238876342773438e+00 3.902830183506011963e-01 -3.492040336132049561e-01 1.232369896024465561e-02 1.054357171058654785e+00
9.980000000000000000e+02 5.791404247283935547e+00 1.932580351829528809e+00 -6.349046826362609863e-01 -3.824710845947265625e-01 -3.052127361297607422e-01 1.215872168540954590e+00
9.990000000000000000e+02 2.045555114746093750e+00 4.161632919311523438e+01 3.576754778623580933e-02 1.096109867095947266e+00 3.395632505416870117e-01 1.032955665141344070e-02
1.000000000000000000e+03 2.629438877105712891e+00 3.791902160644531250e+01 1.253201160579919815e-02 1.117381691932678223e+00 3.389741182327270508e-01 6.655666232109069824e-02
1.001000000000000000e+03 2.049820899963378906e+00 3.438032531738281250e+01 6.672074552625417709e-03 1.227936029434204102e+00 3.703824579715728760e-01 7.473507523536682129e-02
1.002000000000000000e+03 1.971180438995361328e+00 3.175814628601074219e+01 6.080671213567256927e-03 1.319926261901855469e+00 3.978020548820495605e-01 8.849361538887023926e-02
1.003000000000000000e+03 2.096251487731933594e+00 2.761902236938476562e+01 -1.127226371318101883e-02 1.463573694229125977e+00 4.356904327869415283e-01 8.853156864643096924e-02
1.004000000000000000e+03 2.032069206237792969e+00 2.479361343383789062e+01 -3.112204745411872864e-02 1.558670043945312500e+00 4.582643806934356689e-01 6.464299559593200684e-02
1.005000000000000000e+03 1.981637835502624512e+00 2.054852676391601562e+01 -1.882993802428245544e-02 1.588769912719726562e+00 4.709819853305816650e-01 -2.898646704852581024e-02
1.006000000000000000e+03 2.132471084594726562e+00 1.765553855895996094e+01 -5.189686268568038940e-02 1.431446552276611328e+00 4.138649106025695801e-01 -1.898506432771682739e-01
1.007000000000000000e+03 2.282674312591552734e+00 1.464549827575683594e+01 -6.018779799342155457e-02 1.083748817443847656e+00 3.070683181285858154e-01 -4.484544098377227783e-01
1.008000000000000000e+03 1.927042245864868164e+00 1.044411754608154297e+01 -3.283806145191192627e-02 2.090098559856414795e-01 5.285153910517692566e-02 -6.011784076690673828e-01
1.009000000000000000e+03 1.754037618637084961e+00 7.697044372558593750e+00 1.536897867918014526e-01 -4.690021872520446777e-01 -9.459371864795684814e-02 -3.489529192447662354e-01
1.010000000000000000e+03 1.262160062789916992e+00 3.405549526214599609e+00 4.909749701619148254e-02 -5.745253562927246094e-01 -1.576283574104309082e-01 3.495639860630035400e-01
1.011000000000000000e+03 4.256933629512786865e-01 3.561780929565429688e+00 5.457513034343719482e-03 -7.825427055358886719e-01 -2.331255525350570679e-01 1.416587233543395996e-01
1.012000000000000000e+03 2.055510139465332031e+01 2.517532110214233398e+00 2.008244514465332031e+00 3.892150402069091797e+00 1.770118474960327148e+00 -3.370010137557983398e+00
1.013000000000000000e+03 1.840181159973144531e+01 2.712180614471435547e+00 1.558325529098510742e+00 8.265537261962890625e+00 2.947158813476562500e+00 -6.475477218627929688e+00
1.014000000000000000e+03 1.453439617156982422e+01 5.607884883880615234e+00 -3.058939218521118164e+00 -4.215164184570312500e+00 -2.182230949401855469e+00 -4.339891910552978516e+00
1.015000000000000000e+03 1.925338172912597656e+01 9.023365020751953125e+00 -3.314612627029418945e+00 -1.544004976749420166e-01 -1.040704011917114258e+00 -1.372844934463500977e+00
1.016000000000000000e+03 1.829909324645996094e+01 6.017613887786865234e+00 -6.870809197425842285e-01 7.075145244598388672e+00 1.916419267654418945e+00 1.772479295730590820e+00
1.017000000000000000e+03 2.331356239318847656e+01 6.741489410400390625e+00 -5.263110995292663574e-01 9.991794824600219727e-01 1.418605148792266846e-01 4.959250390529632568e-01
1.018000000000000000e+03 2.419264030456542969e+01 6.368732929229736328e+00 -8.496767282485961914e-02 5.085077881813049316e-01 1.270620226860046387e-01 2.019816040992736816e-01
1.019000000000000000e+03 2.678748512268066406e+01 1.126378536224365234e+01 -1.686918020248413086e+00 7.319757342338562012e-02 -4.841161072254180908e-01 -1.022276878356933594e+00
1.020000000000000000e+03 2.250583457946777344e+01 1.143489170074462891e+01 1.320055007934570312e+00 1.918648123741149902e+00 9.716109633445739746e-01 1.704511284828186035e+00
1.021000000000000000e+03 2.176276969909667969e+01 6.370884418487548828e+00 6.069022789597511292e-02 1.022303223609924316e+00 3.248980343341827393e-01 1.729475617408752441e+00
1.022000000000000000e+03 2.766030311584472656e+01 1.033554840087890625e+01 -3.209326505661010742e+00 -1.876218438148498535e+00 -1.525663495063781738e+00 -2.749366998672485352e+00
1.023000000000000000e+03 2.777288627624511719e+01 1.204415893554687500e+01 -1.702764391899108887e+00 -5.286813974380493164e-01 -6.694337725639343262e-01 -1.611263275146484375e+00
1.024000000000000000e+03 2.874973869323730469e+01 1.123957729339599609e+01 -3.269285917282104492e+00 -2.473415613174438477e+00 -1.722810506820678711e+00 -2.879292964935302734e+00
1.025000000000000000e+03 3.715480041503906250e+01 1.329440498352050781e+01 -1.775868296623229980e+00 -6.432648748159408569e-02 -5.520583987236022949e-01 7.552404999732971191e-01
1.026000000000000000e+03 3.864921569824218750e+01 -5.924292206764221191e-01 1.619747757911682129e+00 -3.724927306175231934e-01 3.741765022277832031e-01 -4.309443533420562744e-01
1.027000000000000000e+03 3.976060867309570312e+01 -4.568836987018585205e-01 1.673118233680725098e+00 3.038997650146484375e-01 5.931053757667541504e-01 -6.034250259399414062e-01
1.028000000000000000e+03 3.648193740844726562e+01 -2.523524314165115356e-02 1.677094221115112305e+00 -1.288745164871215820e+00 1.165046915411949158e-01 -2.048875093460083008e-01
1.029000000000000000e+03 3.812011718750000000e+01 3.620891094207763672e+00 3.809722512960433960e-02 -7.155415415763854980e-01 -2.032332867383956909e-01 -2.283153682947158813e-02
1.030000000000000000e+03 3.618036270141601562e+01 8.765501976013183594e+00 -6.277464330196380615e-02 -1.428702846169471741e-02 -2.311850152909755707e-02 -8.154080249369144440e-03
1.031000000000000000e+03 3.763380432128906250e+01 9.460725784301757812e+00 1.195971760898828506e-02 -1.648564636707305908e-02 -1.357778324745595455e-03 1.127068884670734406e-03
1.032000000000000000e+03 3.617060089111328125e+01 9.586878776550292969e+00 2.964047528803348541e-02 5.388095974922180176e-02 2.505643106997013092e-02 5.722052417695522308e-03
1.033000000000000000e+03 3.345425415039062500e+01 6.893216133117675781e+00 -4.999703168869018555e-01 8.724578469991683960e-02 -1.238173618912696838e-01 -1.336903423070907593e-01
1.034000000000000000e+03 3.468652343750000000e+01 7.024989604949951172e+00 -3.283034861087799072e-01 8.577680587768554688e-02 -7.275800406932830811e-02 9.020140022039413452e-02
1.035000000000000000e+03 3.789112091064453125e+01 6.261809825897216797e+00 -4.171336069703102112e-02 -1.431199461221694946e-01 -5.544999241828918457e-02 1.014623716473579407e-01
1.036000000000000000e+03 3.700659942626953125e+01 7.865997314453125000e+00 -1.057198271155357361e-01 -4.320621117949485779e-02 -4.467781260609626770e-02 3.127345815300941467e-02
1.037000000000000000e+03 3.929364395141601562e+01 7.108410835266113281e+00 2.158175781369209290e-02 3.507322072982788086e-02 1.699649356305599213e-02 6.980458274483680725e-03
1.038000000000000000e+03 4.050933074951171875e+01 8.783559799194335938e+00 3.380953567102551460e-03 -4.136969335377216339e-03 -2.268047392135486007e-04 1.411703974008560181e-02
1.039000000000000000e+03 5.815989303588867188e+01 -3.149039506912231445e+00 1.756547391414642334e-01 4.950039386749267578e+00 1.537708282470703125e+00 -1.898527145385742188e+00
1.040000000000000000e+03 5.581178665161132812e+01 -9.593933820724487305e-01 -5.099240541458129883e-01 5.423382282257080078e+00 1.474037408828735352e+00 -6.243197917938232422e+00
1.041000000000000000e+03 7.080204010009765625e+01 1.287400817871093750e+01 2.379342317581176758e+00 5.023862838745117188e+00 2.220961570739746094e+00 1.211305260658264160e+00
1.042000000000000000e+03 7.413847351074218750e+01 1.158530044555664062e+01 2.659487128257751465e-01 4.425137519836425781e+00 1.407325983047485352e+00 -2.213513374328613281e+00
1.043000000000000000e+03 6.724284362792968750e+01 9.639491081237792969e+00 6.582448482513427734e-01 1.328640270233154297e+01 4.183394432067871094e+00 -3.034319877624511719e-01
1.044000000000000000e+03 6.787170410156250000e+01 8.692934989929199219e+00 5.074801854789257050e-03 1.166548442840576172e+01 3.501167774200439453e+00 -7.450916767120361328e-01
1.045000000000000000e+03 6.691490936279296875e+01 7.055343151092529297e+00 -1.562715321779251099e-01 1.113911151885986328e+01 3.294852018356323242e+00 -5.896852016448974609e-01
1.046000000000000000e+03 6.805921173095703125e+01 6.620677947998046875e+00 -2.329137474298477173e-01 1.087774753570556641e+01 3.193450212478637695e+00 -1.711113691329956055e+00
1.047000000000000000e+03 7.584613037109375000e+01 3.487227439880371094e+00 1.058013364672660828e-01 1.079214000701904297e+01 3.269382476806640625e+00 3.027476370334625244e-01
1.048000000000000000e+03 7.711132049560546875e+01 2.336006879806518555e+00 -1.391169667243957520e+00 1.071522617340087891e+01 2.797216892242431641e+00 -1.788951396942138672e+00
1.049000000000000000e+03 6.392679977416992188e+01 -9.472364783287048340e-01 -3.509566068649291992e+00 7.205612659454345703e+00 1.108814001083374023e+00 4.887583255767822266e+00
1.050000000000000000e+03 5.979262924194335938e+01 2.385316133499145508e+00 -3.525753021240234375e+00 -5.317515134811401367e-02 -1.073678493499755859e+00 -1.610272169113159180e+00
1.051000000000000000e+03 6.036664581298828125e+01 1.319369673728942871e+00 -3.598434686660766602e+00 2.347881555557250977e+00 -3.751659393310546875e-01 3.446928262710571289e-01
1.052000000000000000e+03 6.913391876220703125e+01 3.738865375518798828e+00 2.580318212509155273e+00 1.608431053161621094e+01 5.599388599395751953e+00 -2.111645698547363281e+00
1.053000000000000000e+03 6.277512359619140625e+01 5.233654499053955078e+00 6.152279973030090332e-01 2.650236129760742188e+00 9.796391725540161133e-01 1.420363306999206543e+00
1.054000000000000000e+03 6.363593673706054688e+01 4.330447673797607422e+00 3.942944109439849854e-01 4.404216289520263672e+00 1.439553260803222656e+00 1.540540456771850586e+00
1.055000000000000000e+03 3.829353713989257812e+01 -2.558054208755493164e+00 1.647306680679321289e+00 -1.287453413009643555e+00 1.079559847712516785e-01 -2.699534296989440918e-01
1.056000000000000000e+03 3.975304031372070312e+01 -1.802042245864868164e+00 1.706476330757141113e+00 4.212247729301452637e-01 6.383103132247924805e-01 -4.442416727542877197e-01
1.057000000000000000e+03 7.357987213134765625e+01 -7.245755672454833984e+00 1.678726375102996826e-01 7.887804508209228516e+00 2.416703224182128906e+00 5.730287432670593262e-01
1.058000000000000000e+03 7.350154876708984375e+01 -1.101569271087646484e+01 1.155725717544555664e+00 1.140783309936523438e+01 3.769067525863647461e+00 2.588781416416168213e-01
1.059000000000000000e+03 7.596662139892578125e+01 -1.191145133972167969e+01 9.817067980766296387e-01 8.445787429809570312e+00 2.828248262405395508e+00 6.523790955543518066e-01
1.060000000000000000e+03 7.385629272460937500e+01 -1.475442981719970703e+01 2.088577747344970703e+00 9.292734146118164062e+00 3.414393663406372070e+00 2.634032070636749268e-01
1.061000000000000000e+03 7.541543579101562500e+01 -1.517250919342041016e+01 7.666741609573364258e-01 8.438867568969726562e+00 2.761662483215332031e+00 -3.041508495807647705e-01
1.062000000000000000e+03 7.389684295654296875e+01 -1.724722099304199219e+01 -3.133476078510284424e-01 8.150421142578125000e+00 2.351121902465820312e+00 4.818795248866081238e-02
1.063000000000000000e+03 7.372812652587890625e+01 -1.222218513488769531e+01 1.214447021484375000e+00 1.089735507965087891e+01 3.633540630340576172e+00 8.430542945861816406e-01
1.064000000000000000e+03 4.961013317108154297e+00 -2.055571556091308594e+01 1.166353467851877213e-02 -2.534742951393127441e-01 -7.254322618246078491e-02 -1.342398971319198608e-01
1.065000000000000000e+03 9.591514587402343750e+00 -1.736107063293457031e+01 2.223157323896884918e-02 -4.104760009795427322e-03 5.438044201582670212e-03 -1.933429241180419922e-01
1.066000000000000000e+03 1.243629264831542969e+01 -1.682362365722656250e+01 2.708519063889980316e-02 1.248643547296524048e-01 4.558486491441726685e-02 -2.009346485137939453e-01
1.067000000000000000e+03 1.327332973480224609e+01 -2.272751617431640625e+01 9.579865634441375732e-02 1.900611072778701782e-01 8.575792610645294189e-02 -1.524061858654022217e-01
1.068000000000000000e+03 9.306060791015625000e+00 -2.194346427917480469e+01 4.470198228955268860e-02 -3.782128915190696716e-02 2.064207568764686584e-03 -1.590819060802459717e-01
1.069000000000000000e+03 1.720701599121093750e+01 -1.909553909301757812e+01 7.750182598829269409e-02 4.158087968826293945e-01 1.479931771755218506e-01 -1.095164269208908081e-01
1.070000000000000000e+03 1.990156364440917969e+01 -1.599869728088378906e+01 1.098910570144653320e-01 5.832923054695129395e-01 2.079550027847290039e-01 -3.703076392412185669e-02
1.071000000000000000e+03 2.414375686645507812e+01 -1.904149436950683594e+01 2.834012359380722046e-02 1.253952860832214355e+00 3.846879005432128906e-01 -1.187323592603206635e-02
1.072000000000000000e+03 2.694812011718750000e+01 -1.870763587951660156e+01 -1.367252320051193237e-02 1.645959258079528809e+00 4.896860122680664062e-01 -1.594285070896148682e-01
1.073000000000000000e+03 4.360998916625976562e+01 -1.897462272644042969e+01 1.649069935083389282e-01 4.480706214904785156e+00 1.393683910369873047e+00 -8.512043356895446777e-01
1.074000000000000000e+03 6.032529449462890625e+01 -1.504865169525146484e+01 7.089989781379699707e-01 8.203812599182128906e+00 2.673843383789062500e+00 -2.101294696331024170e-01
1.075000000000000000e+03 6.225669097900390625e+01 -1.790074348449707031e+01 1.863095611333847046e-01 5.908478260040283203e+00 1.828436374664306641e+00 -1.372568368911743164e+00
1.076000000000000000e+03 6.525646972656250000e+01 -1.614595031738281250e+01 -5.994749665260314941e-01 3.759335517883300781e+00 9.479581117630004883e-01 -1.145752549171447754e+00
1.077000000000000000e+03 6.161685562133789062e+01 -1.274896812438964844e+01 2.757385373115539551e-03 7.602675914764404297e+00 2.281630039215087891e+00 1.702801585197448730e-01
1.078000000000000000e+03 6.245774078369140625e+01 -9.940840721130371094e+00 2.723086178302764893e-01 8.431844711303710938e+00 2.611245870590209961e+00 1.737935692071914673e-01
1.079000000000000000e+03 5.709031295776367188e+01 -9.780923843383789062e+00 5.084581971168518066e-01 8.255281448364257812e+00 2.629122018814086914e+00 -2.186327427625656128e-01
1.080000000000000000e+03 2.721669960021972656e+01 -1.430046176910400391e+01 -3.761639893054962158e-01 1.975515127182006836e+00 4.798053503036499023e-01 -4.125687181949615479e-01
1.081000000000000000e+03 2.142666053771972656e+01 -1.201790237426757812e+01 -7.678623497486114502e-02 4.001898467540740967e-01 9.702108800411224365e-02 1.813492923974990845e-01
1.082000000000000000e+03 2.013280677795410156e+01 -1.428053283691406250e+01 6.031323969364166260e-02 5.089577436447143555e-01 1.707812994718551636e-01 2.315340749919414520e-02
1.083000000000000000e+03 1.045791149139404297e+01 -1.295857429504394531e+01 -5.103671923279762268e-02 5.533702298998832703e-02 1.290091429837048054e-03 -1.997657865285873413e-01
1.084000000000000000e+03 1.656743049621582031e+01 -1.402979087829589844e+01 9.619778022170066833e-03 2.317277342081069946e-01 7.240425795316696167e-02 -1.583324521780014038e-01
1.085000000000000000e+03 8.075172424316406250e+00 -1.747059631347656250e+01 5.560780875384807587e-03 -7.374522089958190918e-02 -2.045533247292041779e-02 -1.845124065876007080e-01
1.086000000000000000e+03 5.047963142395019531e+00 -1.761516952514648438e+01 6.928191869519650936e-04 -1.975729614496231079e-01 -5.906404554843902588e-02 -1.445530951023101807e-01
1.087000000000000000e+03 3.932502746582031250e+01 -8.794727325439453125e+00 -1.484398245811462402e+00 -1.531525969505310059e+00 -9.047772288322448730e-01 1.777359127998352051e+00
1.088000000000000000e+03 1.912339591979980469e+01 -1.085876464843750000e+01 -3.709361553192138672e-01 1.574641764163970947e-01 -6.404159963130950928e-02 -1.174573749303817749e-01
1.089000000000000000e+03 1.024624538421630859e+01 -8.612296104431152344e+00 -1.213292181491851807e-01 5.802233517169952393e-02 -1.899206638336181641e-02 -1.125785633921623230e-01
1.090000000000000000e+03 1.707772636413574219e+01 -1.058396911621093750e+01 -3.097880780696868896e-01 1.356031596660614014e-01 -5.225547775626182556e-02 -1.604435741901397705e-01
1.091000000000000000e+03 4.532216072082519531e+00 -1.185237598419189453e+01 -2.700260654091835022e-02 -1.034305393695831299e-01 -3.912994265556335449e-02 -1.148457899689674377e-01
1.092000000000000000e+03 7.440692138671875000e+01 1.526920318603515625e+01 8.601841330528259277e-01 5.814525604248046875e+00 2.002413034439086914e+00 -2.127493470907211304e-01
1.093000000000000000e+03 7.186564636230468750e+01 1.766844558715820312e+01 5.208098292350769043e-01 6.414175987243652344e+00 2.080495834350585938e+00 5.850629806518554688e-01
1.094000000000000000e+03 6.962309265136718750e+01 2.247064781188964844e+01 -3.823279589414596558e-02 6.556629657745361328e+00 1.955519080162048340e+00 2.754217088222503662e-01
1.095000000000000000e+03 6.356142807006835938e+01 1.722196388244628906e+01 8.711549043655395508e-01 4.259510040283203125e+00 1.539199590682983398e+00 -9.803118705749511719e-01
1.096000000000000000e+03 6.239945220947265625e+01 1.628222274780273438e+01 1.207690954208374023e+00 2.501336336135864258e+00 1.112708210945129395e+00 -5.053149461746215820e-01
1.097000000000000000e+03 6.432103729248046875e+01 1.385791301727294922e+01 9.361600279808044434e-01 2.875753402709960938e+00 1.143574118614196777e+00 -3.010998725891113281e+00
1.098000000000000000e+03 6.582238769531250000e+01 1.032981300354003906e+01 1.218288421630859375e+00 1.882538604736328125e+01 6.013102531433105469e+00 2.645030498504638672e+00
1.099000000000000000e+03 6.074205780029296875e+01 1.899412727355957031e+01 9.073083400726318359e-01 4.013618469238281250e+00 1.476278066635131836e+00 6.845529079437255859e-01
1.100000000000000000e+03 6.019254302978515625e+01 2.034382057189941406e+01 6.785671710968017578e-01 4.519968032836914062e+00 1.559560537338256836e+00 8.682460784912109375e-01
1.101000000000000000e+03 5.548203277587890625e+01 2.293592643737792969e+01 -6.492093205451965332e-01 5.582730770111083984e+00 1.480056405067443848e+00 6.881633400917053223e-01
1.102000000000000000e+03 5.286933898925781250e+01 2.547695732116699219e+01 -7.761150598526000977e-01 4.957285881042480469e+00 1.254351258277893066e+00 -2.482997179031372070e-01
1.103000000000000000e+03 5.014165496826171875e+01 3.084029006958007812e+01 -3.358876109123229980e-01 3.677148580551147461e+00 1.002378225326538086e+00 -4.189850986003875732e-01
1.104000000000000000e+03 4.723537063598632812e+01 3.425434875488281250e+01 -8.675032854080200195e-02 2.871330261230468750e+00 8.353739976882934570e-01 -3.694843649864196777e-01
1.105000000000000000e+03 5.436477661132812500e+01 2.191016006469726562e+01 -9.070962071418762207e-01 6.080933094024658203e+00 1.552151083946228027e+00 5.654535293579101562e-01
1.106000000000000000e+03 5.473785781860351562e+01 1.919361877441406250e+01 -6.699822545051574707e-01 6.644748210906982422e+00 1.792429804801940918e+00 1.607701778411865234e+00
1.107000000000000000e+03 5.131906127929687500e+01 2.010166740417480469e+01 -1.631252408027648926e+00 6.848525524139404297e+00 1.565181970596313477e+00 -8.538547754287719727e-01
1.108000000000000000e+03 4.591398620605468750e+01 1.793497085571289062e+01 -8.507144451141357422e-01 1.004878401756286621e+00 4.624917358160018921e-02 -9.789084792137145996e-01
1.109000000000000000e+03 4.077896499633789062e+01 2.135379600524902344e+01 -5.157156586647033691e-01 7.441758513450622559e-01 6.853804737329483032e-02 -4.877577126026153564e-01
1.110000000000000000e+03 4.165039825439453125e+01 1.966638565063476562e+01 -9.547662138938903809e-01 7.732214331626892090e-01 -5.446343123912811279e-02 -3.981690108776092529e-01
1.111000000000000000e+03 3.674960327148437500e+01 1.761442756652832031e+01 -1.611055850982666016e+00 -1.944739520549774170e-01 -5.416589379310607910e-01 -4.265343248844146729e-01
1.112000000000000000e+03 2.037071800231933594e+01 1.974781227111816406e+01 -1.223836183547973633e+00 -2.529556155204772949e-01 -4.430375397205352783e-01 -2.779582738876342773e-01
1.113000000000000000e+03 1.867940139770507812e+01 1.955179786682128906e+01 -1.120791435241699219e+00 -1.788315773010253906e-01 -3.898868858814239502e-01 -1.545546501874923706e-01
1.114000000000000000e+03 1.537976837158203125e+01 1.879651260375976562e+01 -9.504939913749694824e-01 -1.809533312916755676e-02 -2.905767858028411865e-01 -8.761946111917495728e-02
1.115000000000000000e+03 1.321041202545166016e+01 1.602359008789062500e+01 -1.077764987945556641e+00 1.646639406681060791e-01 -2.739303112030029297e-01 -2.567339241504669189e-01
1.116000000000000000e+03 9.045216560363769531e+00 1.597651863098144531e+01 -8.383193016052246094e-01 9.839205741882324219e-01 4.368038102984428406e-02 -3.413892686367034912e-01
1.117000000000000000e+03 8.243658065795898438e+00 2.153308105468750000e+01 -3.320571482181549072e-01 8.368885517120361328e-01 1.514494270086288452e-01 1.668582670390605927e-02
1.118000000000000000e+03 1.502440643310546875e+01 2.029901123046875000e+01 -7.257828116416931152e-01 1.153015121817588806e-01 -1.831443756818771362e-01 1.060633733868598938e-02
1.119000000000000000e+03 4.794611930847167969e+00 1.789978981018066406e+01 -2.892998456954956055e-01 1.225659489631652832e+00 2.809078991413116455e-01 -2.570815682411193848e-01
1.120000000000000000e+03 5.728178501129150391e+00 1.535288715362548828e+01 -5.140889286994934082e-01 1.221799254417419434e+00 2.123131006956100464e-01 -5.483352541923522949e-01
1.121000000000000000e+03 1.240903568267822266e+01 1.205198192596435547e+01 -1.033972620964050293e+00 4.517163708806037903e-02 -2.966402769088745117e-01 -4.447615146636962891e-01
1.122000000000000000e+03 7.574653148651123047e+00 1.350790023803710938e+01 -7.337251305580139160e-01 1.251101493835449219e+00 1.552129238843917847e-01 -7.104063034057617188e-01
1.123000000000000000e+03 1.987212371826171875e+01 1.885554695129394531e+01 -1.361783623695373535e+00 -3.428610861301422119e-01 -5.113934278488159180e-01 -3.852159380912780762e-01
1.124000000000000000e+03 7.470191717147827148e-01 1.627038574218750000e+01 3.150247409939765930e-02 1.469384193420410156e+00 4.502660036087036133e-01 -1.239873245358467102e-01
1.125000000000000000e+03 7.937922668457031250e+01 1.679257965087890625e+01 1.113991835154592991e-03 6.758130073547363281e+00 2.027773141860961914e+00 -6.480072438716888428e-02
1.126000000000000000e+03 8.174635887145996094e+00 2.034652709960937500e+00 -8.377345800399780273e-01 5.007194876670837402e-01 -1.011045202612876892e-01 1.314642548561096191e+00
1.127000000000000000e+03 3.988685607910156250e+00 6.541009902954101562e+00 9.146422147750854492e-01 -2.422171533107757568e-01 2.017275243997573853e-01 -5.536618828773498535e-01
1.128000000000000000e+03 5.676997303962707520e-01 6.383802890777587891e+00 1.547610014677047729e-02 -1.138161778450012207e+00 -3.368057012557983398e-01 -8.017169311642646790e-03
1.129000000000000000e+03 8.215867996215820312e+00 1.009043025970458984e+01 -6.639546751976013184e-01 2.146826744079589844e+00 4.448616206645965576e-01 -1.310682654380798340e+00
1.130000000000000000e+03 6.430342793464660645e-01 1.061716270446777344e+01 6.602676957845687866e-02 -2.932277508080005646e-02 1.101119909435510635e-02 -2.412510514259338379e-01
1.131000000000000000e+03 7.294231653213500977e-01 1.341984844207763672e+01 5.142195150256156921e-02 8.728920817375183105e-01 2.772942185401916504e-01 -2.089612334966659546e-01
1.132000000000000000e+03 5.130474853515625000e+01 4.070072174072265625e+00 3.202922582626342773e+00 1.042306327819824219e+01 4.087795734405517578e+00 3.462864756584167480e-01
1.133000000000000000e+03 4.717119979858398438e+01 5.932852268218994141e+00 2.880207777023315430e+00 3.973109245300292969e+00 2.055995225906372070e+00 3.203665971755981445e+00
1.134000000000000000e+03 8.800088882446289062e+00 -1.832416653633117676e+00 -5.260550603270530701e-02 8.674773387610912323e-03 -1.317922025918960571e-02 -1.125431619584560394e-02
1.135000000000000000e+03 4.909514427185058594e+00 -5.979634284973144531e+00 -3.709547221660614014e-02 -2.690022252500057220e-02 -1.919870823621749878e-02 -5.470582097768783569e-02
1.136000000000000000e+03 9.036753654479980469e+00 -5.585511207580566406e+00 -1.040998175740242004e-01 2.459231391549110413e-02 -2.385224960744380951e-02 -5.912762880325317383e-02
1.137000000000000000e+03 1.648666381835937500e+01 -7.198182106018066406e+00 -3.523082435131072998e-01 8.923445641994476318e-02 -7.892213761806488037e-02 3.536595404148101807e-02
1.138000000000000000e+03 1.310550975799560547e+01 -5.481354236602783203e+00 -1.985703110694885254e-01 5.624911934137344360e-02 -4.269635677337646484e-02 -2.943260828033089638e-03
1.139000000000000000e+03 2.765086412429809570e+00 -2.676660060882568359e+00 -1.319277752190828323e-02 -7.756802253425121307e-03 -6.284873932600021362e-03 -9.337852708995342255e-03
1.140000000000000000e+03 4.383810043334960938e+00 -1.050534057617187500e+01 -1.822381466627120972e-02 -8.088500797748565674e-02 -2.973264828324317932e-02 -1.041345819830894470e-01
1.141000000000000000e+03 6.828254699707031250e+00 -8.896975517272949219e+00 -6.983114033937454224e-02 -1.800453104078769684e-02 -2.635070122778415680e-02 -1.067872419953346252e-01
1.142000000000000000e+03 1.717444419860839844e+00 -7.962473392486572266e+00 -1.592044485732913017e-03 -6.528120487928390503e-02 -2.006197534501552582e-02 -3.617087379097938538e-02
1.143000000000000000e+03 4.836041450500488281e+00 -2.201264190673828125e+01 2.307241782546043396e-02 -2.827277183532714844e-01 -7.789658755064010620e-02 -1.232846975326538086e-01
1.144000000000000000e+03 1.290318584442138672e+01 -2.501966476440429688e+01 8.390022814273834229e-02 1.938350498676300049e-01 8.332058042287826538e-02 -1.195869520306587219e-01
1.145000000000000000e+03 7.676741600036621094e+00 -2.364519309997558594e+01 3.723094612360000610e-02 -1.392430514097213745e-01 -3.060363046824932098e-02 -1.442255973815917969e-01
1.146000000000000000e+03 1.642440605163574219e+01 -2.151804161071777344e+01 7.925841212272644043e-02 3.835504055023193359e-01 1.388426423072814941e-01 -1.245195865631103516e-01
1.147000000000000000e+03 2.055752563476562500e+01 -2.186722183227539062e+01 1.021428257226943970e-01 8.028450012207031250e-01 2.714963555335998535e-01 -4.717355966567993164e-02
1.148000000000000000e+03 3.022428894042968750e+01 -2.243303298950195312e+01 2.109179794788360596e-01 1.529187679290771484e+00 5.220316648483276367e-01 -1.308064460754394531e-01
1.149000000000000000e+03 3.246402359008789062e+01 -2.236801528930664062e+01 3.423480987548828125e-01 1.836021780967712402e+00 6.535109877586364746e-01 -5.167660862207412720e-02
1.150000000000000000e+03 4.024544525146484375e+01 -2.372464370727539062e+01 6.794056296348571777e-02 3.237285852432250977e+00 9.915679097175598145e-01 2.158971726894378662e-01
1.151000000000000000e+03 4.898986434936523438e+01 -2.460965156555175781e+01 3.754853010177612305e-01 2.160416603088378906e+00 7.607706189155578613e-01 -2.106045782566070557e-01
1.152000000000000000e+03 5.501627349853515625e+01 -2.135327911376953125e+01 -8.522162586450576782e-02 5.202075958251953125e+00 1.535056233406066895e+00 2.943034172058105469e+00
1.153000000000000000e+03 6.745225524902343750e+01 -2.383941841125488281e+01 5.860763788223266602e-01 4.894590854644775391e+00 1.644200205802917480e+00 -1.802291572093963623e-01
1.154000000000000000e+03 7.548070526123046875e+01 -2.067419815063476562e+01 -4.246966838836669922e-01 7.306000232696533203e+00 2.064391136169433594e+00 9.820533543825149536e-02
1.155000000000000000e+03 5.809267997741699219e+00 -2.537283706665039062e+01 1.286055799573659897e-02 -2.693965435028076172e-01 -7.696079462766647339e-02 -1.083112359046936035e-01
1.156000000000000000e+03 1.547424411773681641e+01 -2.840476608276367188e+01 1.037121117115020752e-01 4.013064801692962646e-01 1.515055745840072632e-01 -8.917350322008132935e-02
1.157000000000000000e+03 1.077710247039794922e+01 -2.738869667053222656e+01 7.107016444206237793e-02 6.186416745185852051e-02 3.988029807806015015e-02 -1.054620370268821716e-01
1.158000000000000000e+03 1.735259628295898438e+01 -2.938964843750000000e+01 1.013128310441970825e-01 5.414590835571289062e-01 1.928315758705139160e-01 -7.341343909502029419e-02
1.159000000000000000e+03 2.096987915039062500e+01 -2.709122467041015625e+01 1.100762486457824707e-01 8.292945623397827148e-01 2.818112373352050781e-01 -6.596530973911285400e-02
1.160000000000000000e+03 2.658990669250488281e+01 -2.600363731384277344e+01 1.820980459451675415e-01 1.362344264984130859e+00 4.633327126502990723e-01 -2.449303865432739258e-02
1.161000000000000000e+03 4.654034423828125000e+01 -2.674966239929199219e+01 2.343783378601074219e-01 2.712730407714843750e+00 8.841326236724853516e-01 -3.646897375583648682e-01
1.162000000000000000e+03 5.163368606567382812e+01 -2.449563026428222656e+01 4.689810872077941895e-01 2.244275808334350586e+00 8.139770627021789551e-01 5.844107866287231445e-01
1.163000000000000000e+03 5.457886505126953125e+01 -2.494080352783203125e+01 -1.614834964275360107e-01 4.372657775878906250e+00 1.263352274894714355e+00 1.311898112297058105e+00
1.164000000000000000e+03 5.748276519775390625e+01 -2.207309150695800781e+01 -5.873871445655822754e-01 6.528046607971191406e+00 1.782197833061218262e+00 6.495136022567749023e-01
1.165000000000000000e+03 6.084078216552734375e+01 -2.360180282592773438e+01 -4.870642721652984619e-01 6.106791496276855469e+00 1.685918211936950684e+00 -6.126239895820617676e-01
1.166000000000000000e+03 6.969677734375000000e+01 -2.816330337524414062e+01 2.675336897373199463e-01 5.665404796600341797e+00 1.779881477355957031e+00 7.293987274169921875e-02
1.167000000000000000e+03 7.482085418701171875e+01 -2.653097724914550781e+01 5.579556524753570557e-02 6.574397563934326172e+00 1.989057898521423340e+00 2.400366663932800293e-01
1.168000000000000000e+03 8.695403099060058594e+00 -3.129483985900878906e+01 6.706581264734268188e-02 -8.455274999141693115e-02 -5.246080923825502396e-03 -8.491794019937515259e-02
1.169000000000000000e+03 1.202534294128417969e+01 -3.287271881103515625e+01 8.493504673242568970e-02 1.613824814558029175e-01 7.389526069164276123e-02 -7.062233239412307739e-02
1.170000000000000000e+03 2.611901855468750000e+01 -2.848812866210937500e+01 1.153803914785385132e-01 1.321458578109741211e+00 4.310516715049743652e-01 -1.801041141152381897e-02
1.171000000000000000e+03 5.211243057250976562e+01 -2.911289405822753906e+01 2.980467379093170166e-01 3.364438533782958984e+00 1.098745584487915039e+00 3.440922498703002930e-01
1.172000000000000000e+03 5.498675155639648438e+01 -2.978887939453125000e+01 4.258401691913604736e-02 4.029210090637207031e+00 1.221538186073303223e+00 4.010187983512878418e-01
1.173000000000000000e+03 5.786570358276367188e+01 -2.788892173767089844e+01 -3.071327805519104004e-01 4.882650375366210938e+00 1.372655272483825684e+00 2.654218375682830811e-01
1.174000000000000000e+03 7.198490905761718750e+01 -3.217453384399414062e+01 1.066300570964813232e-01 6.072111606597900391e+00 1.853622555732727051e+00 7.020214945077896118e-02
1.175000000000000000e+03 7.502073669433593750e+01 -2.800998115539550781e+01 5.993264541029930115e-02 6.566430568695068359e+00 1.987908959388732910e+00 1.992086917161941528e-01
1.176000000000000000e+03 2.578811407089233398e+00 -2.893693733215332031e+01 1.730938325636088848e-03 -5.549236536026000977e-01 -1.659578084945678711e-01 -4.562535881996154785e-02
1.177000000000000000e+03 7.798125457763671875e+01 -2.924004554748535156e+01 2.018454979406669736e-04 7.069065570831298828e+00 2.120780229568481445e+00 9.572327136993408203e-02
1.178000000000000000e+03 6.692440986633300781e+00 -3.369021606445312500e+01 3.410740196704864502e-02 -2.657077014446258545e-01 -6.948009133338928223e-02 -5.691351369023323059e-02
1.179000000000000000e+03 6.143699645996093750e+01 -3.314490890502929688e+01 -1.568283041706308722e-04 5.072227478027343750e+00 1.521621108055114746e+00 3.643773123621940613e-02
1.180000000000000000e+03 6.507071685791015625e+01 -3.124253463745117188e+01 9.135602414608001709e-02 5.397982597351074219e+00 1.646801590919494629e+00 -8.053277432918548584e-02
1.181000000000000000e+03 7.264030456542968750e+01 -3.422498321533203125e+01 7.706413418054580688e-02 6.231783866882324219e+00 1.892654418945312500e+00 4.908407852053642273e-02
1.182000000000000000e+03 2.672409772872924805e+00 -3.043648910522460938e+01 1.260583288967609406e-02 -5.717398524284362793e-01 -1.677402108907699585e-01 -4.343941807746887207e-02
1.183000000000000000e+03 6.657105922698974609e+00 -3.586470413208007812e+01 2.427968382835388184e-02 -2.877261340618133545e-01 -7.903393357992172241e-02 -4.581518843770027161e-02
1.184000000000000000e+03 7.526691436767578125e+01 -3.471850967407226562e+01 3.555399179458618164e-02 6.571119308471679688e+00 1.982002019882202148e+00 4.528218135237693787e-02
1.185000000000000000e+03 2.229626178741455078e+00 -3.544351577758789062e+01 2.473763376474380493e-02 -6.538028120994567871e-01 -1.887195557355880737e-01 -9.373134002089500427e-03
1.186000000000000000e+03 7.199099731445312500e+01 2.391240310668945312e+01 -5.441924184560775757e-02 6.667016029357910156e+00 1.983779072761535645e+00 2.986031174659729004e-01
1.187000000000000000e+03 7.341417694091796875e+01 2.415044784545898438e+01 -3.254852816462516785e-02 6.711910247802734375e+00 2.003808498382568359e+00 3.126784861087799072e-01
1.188000000000000000e+03 5.889355850219726562e+01 2.005665588378906250e+01 5.053969621658325195e-01 4.757942199707031250e+00 1.579001784324645996e+00 1.296821355819702148e+00
1.189000000000000000e+03 4.871074676513671875e+01 2.391483116149902344e+01 -7.088003754615783691e-01 3.668547868728637695e+00 8.879242539405822754e-01 -1.065728664398193359e+00
1.190000000000000000e+03 4.539691162109375000e+01 2.352310752868652344e+01 -4.233788847923278809e-01 2.250081300735473633e+00 5.480107069015502930e-01 -9.997406601905822754e-01
1.191000000000000000e+03 4.377291107177734375e+01 2.284469413757324219e+01 -3.083330392837524414e-01 1.626692175865173340e+00 3.955077230930328369e-01 -7.936716079711914062e-01
1.192000000000000000e+03 3.639160156250000000e+01 2.091814804077148438e+01 -6.357069611549377441e-01 -4.751112684607505798e-02 -2.049654275178909302e-01 -1.624594181776046753e-01
1.193000000000000000e+03 3.371975708007812500e+01 2.057903861999511719e+01 -6.402317881584167480e-01 -4.307936728000640869e-01 -3.213076293468475342e-01 2.619894742965698242e-01
1.194000000000000000e+03 3.083603858947753906e+01 2.031462860107421875e+01 -8.590795993804931641e-01 4.136895015835762024e-02 -2.453131973743438721e-01 8.092569708824157715e-01
1.195000000000000000e+03 2.753849983215332031e+01 2.214517402648925781e+01 -1.116010308265686035e+00 7.562873363494873047e-01 -1.079168766736984253e-01 4.471240341663360596e-01
1.196000000000000000e+03 2.276069641113281250e+01 2.369075393676757812e+01 -7.848334312438964844e-01 3.461400568485260010e-01 -1.316080093383789062e-01 -1.183360219001770020e-01
1.197000000000000000e+03 1.596505069732666016e+01 2.204977416992187500e+01 -5.482846498489379883e-01 7.624808698892593384e-02 -1.416109800338745117e-01 1.210366189479827881e-02
1.198000000000000000e+03 9.200665473937988281e+00 2.512400436401367188e+01 -1.752325594425201416e-01 7.456153631210327148e-01 1.711148470640182495e-01 1.570355743169784546e-01
1.199000000000000000e+03 1.072112751007080078e+01 2.402328300476074219e+01 -2.440017908811569214e-01 5.448476672172546387e-01 9.025376290082931519e-02 1.616392135620117188e-01
1.200000000000000000e+03 6.668648123741149902e-01 2.056719017028808594e+01 -4.232490062713623047e-02 1.836228132247924805e+00 5.381709933280944824e-01 -1.738489605486392975e-02
1.201000000000000000e+03 7.764493560791015625e+01 2.102054023742675781e+01 3.271947056055068970e-02 6.739615440368652344e+00 2.031700611114501953e+00 1.416562199592590332e-01
1.202000000000000000e+03 6.893129730224609375e+01 2.907028579711914062e+01 -1.321466118097305298e-01 6.338366985321044922e+00 1.861866116523742676e+00 2.181896865367889404e-01
1.203000000000000000e+03 7.322058105468750000e+01 2.570408248901367188e+01 -6.462509930133819580e-02 6.740448951721191406e+00 2.002747058868408203e+00 2.861718833446502686e-01
1.204000000000000000e+03 6.686439514160156250e+01 2.496404457092285156e+01 -7.572278380393981934e-02 6.131335258483886719e+00 1.816683769226074219e+00 1.319721490144729614e-01
1.205000000000000000e+03 6.474539184570312500e+01 2.568059539794921875e+01 -2.276105247437953949e-02 5.818473339080810547e+00 1.738713622093200684e+00 1.931622028350830078e-01
1.206000000000000000e+03 5.733578109741210938e+01 2.585556030273437500e+01 -3.763577044010162354e-01 5.240851402282714844e+00 1.459348082542419434e+00 3.367659449577331543e-01
1.207000000000000000e+03 5.477505493164062500e+01 2.555653381347656250e+01 -6.858738660812377930e-01 5.179832458496093750e+00 1.348187565803527832e+00 1.300331652164459229e-01
1.208000000000000000e+03 3.819586944580078125e+01 2.837712860107421875e+01 4.368565604090690613e-02 9.051677584648132324e-01 2.846560180187225342e-01 -2.653448283672332764e-01
1.209000000000000000e+03 4.033373641967773438e+01 2.776871299743652344e+01 -1.011479087173938751e-02 1.193543434143066406e+00 3.550285995006561279e-01 -4.629822671413421631e-01
1.210000000000000000e+03 3.499922943115234375e+01 2.588708877563476562e+01 -9.684652835130691528e-02 3.527063429355621338e-01 7.675794512033462524e-02 8.876265957951545715e-03
1.211000000000000000e+03 3.298977279663085938e+01 2.385677909851074219e+01 -3.778644502162933350e-01 2.431645244359970093e-01 -4.040997475385665894e-02 3.040030300617218018e-01
1.212000000000000000e+03 3.039858055114746094e+01 2.471240425109863281e+01 -3.851566910743713379e-01 3.257955312728881836e-01 -1.780834794044494629e-02 3.029263615608215332e-01
1.213000000000000000e+03 1.743120193481445312e+01 2.586677742004394531e+01 -2.463483810424804688e-01 1.248661875724792480e-01 -3.644466027617454529e-02 9.239953756332397461e-02
1.214000000000000000e+03 8.017710685729980469e+00 2.739655685424804688e+01 -5.861859768629074097e-02 8.393594026565551758e-01 2.342222481966018677e-01 1.821346133947372437e-01
1.215000000000000000e+03 4.692276000976562500e+00 2.468848037719726562e+01 -8.148056268692016602e-02 1.212176084518432617e+00 3.392086327075958252e-01 1.052840352058410645e-01
1.216000000000000000e+03 6.666060090065002441e-01 2.340369224548339844e+01 -2.639398723840713501e-02 1.817213416099548340e+00 5.372458696365356445e-01 1.592910662293434143e-02
1.217000000000000000e+03 7.930539703369140625e+01 2.372342681884765625e+01 1.299040764570236206e-02 6.914710998535156250e+00 2.078310489654541016e+00 5.605101212859153748e-02
1.218000000000000000e+03 6.999638366699218750e+01 3.150824165344238281e+01 -1.282047927379608154e-01 6.448350906372070312e+00 1.896043777465820312e+00 2.100558578968048096e-01
1.219000000000000000e+03 6.273152923583984375e+01 2.862780570983886719e+01 -1.647581011056900024e-01 5.603132724761962891e+00 1.631512403488159180e+00 2.211350500583648682e-01
1.220000000000000000e+03 5.973321151733398438e+01 2.910574340820312500e+01 -2.817859649658203125e-01 5.325118541717529297e+00 1.512999773025512695e+00 1.773776561021804810e-01
1.221000000000000000e+03 5.282942199707031250e+01 2.780468750000000000e+01 -6.036854982376098633e-01 4.566411018371582031e+00 1.188817620277404785e+00 -2.891440093517303467e-01
1.222000000000000000e+03 2.480398178100585938e+01 2.940210914611816406e+01 -7.936263084411621094e-02 2.763640880584716797e-01 5.910043790936470032e-02 5.907006189227104187e-02
1.223000000000000000e+03 2.207905578613281250e+01 3.067678070068359375e+01 1.941779628396034241e-02 2.175691127777099609e-01 7.109607756137847900e-02 7.519634813070297241e-02
1.224000000000000000e+03 1.762618637084960938e+01 3.070826530456542969e+01 6.545861065387725830e-02 2.143904566764831543e-01 8.395472168922424316e-02 1.214553937315940857e-01
1.225000000000000000e+03 1.590403938293457031e+01 2.914789581298828125e+01 -1.885278709232807159e-02 2.878228425979614258e-01 8.069101721048355103e-02 1.214901581406593323e-01
1.226000000000000000e+03 1.148070144653320312e+01 2.911258125305175781e+01 -8.963524363934993744e-03 5.293401479721069336e-01 1.561129838228225708e-01 2.218190431594848633e-01
1.227000000000000000e+03 5.002391815185546875e+00 2.916238021850585938e+01 6.744591053575277328e-03 1.110641717910766602e+00 3.352158963680267334e-01 1.831294298171997070e-01
1.228000000000000000e+03 6.936730742454528809e-01 2.763891983032226562e+01 6.105471402406692505e-03 1.631236314773559570e+00 4.912025332450866699e-01 3.771398589015007019e-02
1.229000000000000000e+03 7.930741119384765625e+01 2.785671997070312500e+01 -1.185294240713119507e-02 7.205536365509033203e+00 2.158104896545410156e+00 4.525597020983695984e-02
1.230000000000000000e+03 7.373342132568359375e+01 3.520919036865234375e+01 -7.609008997678756714e-02 6.843982219696044922e+00 2.030367612838745117e+00 1.119015216827392578e-01
1.231000000000000000e+03 5.715712738037109375e+01 3.251050949096679688e+01 -3.408385217189788818e-01 4.913402557373046875e+00 1.371769189834594727e+00 -2.802325785160064697e-02
1.232000000000000000e+03 4.386341857910156250e+01 3.478182601928710938e+01 5.519224330782890320e-02 2.270652055740356445e+00 6.977532505989074707e-01 -3.336073160171508789e-01
1.233000000000000000e+03 7.409961223602294922e+00 3.386876678466796875e+01 7.517179846763610840e-02 8.586143851280212402e-01 2.801358401775360107e-01 1.767790317535400391e-01
1.234000000000000000e+03 4.390842437744140625e+00 3.214006805419921875e+01 1.871805451810359955e-02 1.128021240234375000e+00 3.440217971801757812e-01 1.530957818031311035e-01
1.235000000000000000e+03 6.704366803169250488e-01 3.044742774963378906e+01 1.949367928318679333e-03 1.488312125205993652e+00 4.470784664154052734e-01 3.389257565140724182e-02
1.236000000000000000e+03 7.911020660400390625e+01 3.205408477783203125e+01 7.403026334941387177e-03 7.419400691986083984e+00 2.228041172027587891e+00 4.271837696433067322e-02
1.237000000000000000e+03 3.483664512634277344e+00 3.413948059082031250e+01 1.716537028551101685e-02 1.135369062423706055e+00 3.457603156566619873e-01 1.143393293023109436e-01
1.238000000000000000e+03 6.770663261413574219e-01 3.461153030395507812e+01 1.488082809373736382e-03 1.299739360809326172e+00 3.903682529926300049e-01 2.585926651954650879e-02
1.239000000000000000e+03 5.772487640380859375e+01 3.828150177001953125e+01 -2.731685936450958252e-01 4.797258853912353516e+00 1.357227087020874023e+00 -1.967470906674861908e-02
1.240000000000000000e+03 3.752875137329101562e+01 3.732112884521484375e+01 3.156013488769531250e-01 1.183789491653442383e+00 4.498172700405120850e-01 -1.194818690419197083e-01
1.241000000000000000e+03 7.841319441795349121e-01 3.734448623657226562e+01 -3.437122213654220104e-04 1.194887399673461914e+00 3.583631217479705811e-01 2.644641883671283722e-02
1.242000000000000000e+03 7.917742156982421875e+01 3.758224868774414062e+01 1.323197409510612488e-02 7.568331241607666016e+00 2.274468898773193359e+00 -2.943014726042747498e-03
1.243000000000000000e+03 3.865450668334960938e+01 4.867114067077636719e+00 2.366193197667598724e-02 -2.081548273563385010e-01 -5.534787103533744812e-02 4.288908466696739197e-02
1.244000000000000000e+03 3.919089126586914062e+01 6.025851249694824219e+00 -1.872718334197998047e-02 -2.481322921812534332e-02 -1.306212414056062698e-02 2.175507694482803345e-02
1.245000000000000000e+03 6.540217590332031250e+01 -1.266276454925537109e+01 7.322672009468078613e-02 2.551306724548339844e+00 7.873600125312805176e-01 -7.259883880615234375e-01
1.246000000000000000e+03 6.980118560791015625e+01 7.075518131256103516e+00 1.257753521203994751e-01 8.209044456481933594e+00 2.500446081161499023e+00 1.139397740364074707e+00
1.247000000000000000e+03 6.998875427246093750e+01 -6.418488025665283203e+00 6.038057208061218262e-01 2.606865644454956055e+00 9.632014036178588867e-01 -1.433735251426696777e+00
1.248000000000000000e+03 7.087678527832031250e+01 -7.503460407257080078e+00 1.350025415420532227e+00 4.972359180450439453e+00 1.896715402603149414e+00 -2.391417503356933594e+00
1.249000000000000000e+03 7.211642456054687500e+01 -1.003268623352050781e+01 1.127235770225524902e+00 1.305960178375244141e+01 4.256051063537597656e+00 -1.548441529273986816e+00
1.250000000000000000e+03 6.419058227539062500e+01 -1.238776206970214844e+01 1.018947139382362366e-01 4.631334781646728516e+00 1.419968962669372559e+00 -9.246267676353454590e-01
1.251000000000000000e+03 6.416048431396484375e+01 -1.087377929687500000e+01 2.857179343700408936e-01 5.604339122772216797e+00 1.767017126083374023e+00 -1.541514158248901367e+00
1.252000000000000000e+03 6.339677047729492188e+01 -8.272091865539550781e+00 4.759245514869689941e-01 1.099596500396728516e+01 3.441566944122314453e+00 -1.244243860244750977e+00
1.253000000000000000e+03 5.411946105957031250e+01 -9.043717384338378906e+00 9.411104917526245117e-01 5.253046512603759766e+00 1.858247160911560059e+00 -2.126249074935913086e+00
1.254000000000000000e+03 5.615802001953125000e+01 -1.591229248046875000e+01 1.159619688987731934e-01 1.480258560180664062e+01 4.475564002990722656e+00 -4.662643969058990479e-01
1.255000000000000000e+03 5.091751861572265625e+01 -1.651694679260253906e+01 -2.009418725967407227e+00 -1.542193412780761719e+00 -1.065483570098876953e+00 1.275356054306030273e+00
1.256000000000000000e+03 4.633975601196289062e+01 -1.092932987213134766e+01 -1.357385218143463135e-01 2.827178955078125000e+00 8.074321150779724121e-01 -9.808465838432312012e-02
1.257000000000000000e+03 4.491700363159179688e+01 -6.975678443908691406e+00 -4.862654581665992737e-02 1.270795631408691406e+01 3.797798871994018555e+00 -2.341417312622070312e+00
1.258000000000000000e+03 3.796467208862304688e+01 -6.353250026702880859e+00 -8.956959247589111328e-01 -3.069443464279174805e+00 -1.189541816711425781e+00 1.819469571113586426e+00
1.259000000000000000e+03 3.996262741088867188e+01 -1.005547237396240234e+01 -8.738287687301635742e-01 5.918999314308166504e-01 -8.457865566015243530e-02 1.218331813812255859e+00
1.260000000000000000e+03 3.577279281616210938e+01 -1.361821365356445312e+01 1.603363603353500366e-01 6.069900989532470703e-01 2.301979362964630127e-01 -4.197997748851776123e-01
1.261000000000000000e+03 3.311611557006835938e+01 -1.044056987762451172e+01 5.568363070487976074e-01 1.112418055534362793e+00 5.007762908935546875e-01 -8.598664999008178711e-01
1.262000000000000000e+03 3.166145706176757812e+01 -8.006554603576660156e+00 3.216442763805389404e-01 2.619028091430664062e-01 1.750641167163848877e-01 -6.177021265029907227e-01
1.263000000000000000e+03 3.022711944580078125e+01 -3.978724479675292969e+00 4.727813601493835449e-01 -7.189706563949584961e-01 -7.385678589344024658e-02 5.558745265007019043e-01
1.264000000000000000e+03 2.142104148864746094e+01 1.065368080139160156e+01 3.489222824573516846e-01 1.186332941055297852e+00 4.605765640735626221e-01 8.571878075599670410e-01
1.265000000000000000e+03 2.037068557739257812e+01 9.827279090881347656e+00 -1.369757294654846191e+00 5.157762169837951660e-01 -2.561943233013153076e-01 1.783537678420543671e-02
1.266000000000000000e+03 1.440841579437255859e+01 1.194293594360351562e+01 -1.255209326744079590e+00 -7.023427486419677734e-01 -5.872656106948852539e-01 -8.623403310775756836e-01
1.267000000000000000e+03 1.784302330017089844e+01 1.426454162597656250e+01 -1.946952104568481445e+00 -5.596128106117248535e-01 -7.519694566726684570e-01 -1.006483078002929688e+00
1.268000000000000000e+03 1.902646064758300781e+01 1.492954540252685547e+01 -2.076134920120239258e+00 -5.564823150634765625e-01 -7.897851467132568359e-01 -1.106636285781860352e+00
1.269000000000000000e+03 2.320046615600585938e+01 1.796262359619140625e+01 -2.249338150024414062e+00 -3.698894679546356201e-01 -7.857682704925537109e-01 -7.325628995895385742e-01
1.270000000000000000e+03 6.511368560791015625e+01 8.460029602050781250e+00 1.896761059761047363e+00 1.174013805389404297e+01 4.091069698333740234e+00 3.369027853012084961e+00
1.271000000000000000e+03 6.358748626708984375e+01 6.344837188720703125e+00 1.010674476623535156e+00 4.054239749908447266e+00 1.519474267959594727e+00 1.792396306991577148e+00
1.272000000000000000e+03 6.085909271240234375e+01 3.224570035934448242e+00 -1.788838148117065430e+00 6.486320495605468750e-01 -3.420618474483489990e-01 -4.569122567772865295e-02
1.273000000000000000e+03 5.523087310791015625e+01 7.443951606750488281e+00 8.815150856971740723e-01 7.632703781127929688e+00 2.554265499114990234e+00 2.568907976150512695e+00
1.274000000000000000e+03 1.336293506622314453e+01 -2.005423545837402344e+00 -6.490295380353927612e-02 1.322056725621223450e-02 -1.550471596419811249e-02 2.346636168658733368e-02
1.275000000000000000e+03 1.257445526123046875e+01 -1.985515236854553223e+00 -7.255353778600692749e-02 4.088652785867452621e-03 -2.053946442902088165e-02 1.530261058360338211e-02
1.276000000000000000e+03 1.030437374114990234e+01 -1.854746341705322266e+00 -6.206423416733741760e-02 1.305199787020683289e-02 -1.470367144793272018e-02 -3.336774650961160660e-03
1.277000000000000000e+03 1.166585350036621094e+01 -2.661905765533447266e+00 -8.656423538923263550e-02 1.081318221986293793e-02 -2.272531576454639435e-02 5.245994776487350464e-03
1.278000000000000000e+03 8.045029640197753906e+00 -1.839000344276428223e+00 -4.898908734321594238e-02 -3.076396242249757051e-04 -1.478901784867048264e-02 -1.492079347372055054e-02
1.279000000000000000e+03 6.528222084045410156e+00 -1.870355844497680664e+00 -3.640534728765487671e-02 -2.333022654056549072e-03 -1.162151154130697250e-02 -1.721744984388351440e-02
1.280000000000000000e+03 5.762802124023437500e+00 -1.892777442932128906e+00 -2.756251022219657898e-02 1.053226078511215746e-04 -8.237156085669994354e-03 -1.538193505257368088e-02
1.281000000000000000e+03 4.994520664215087891e+00 -1.911700248718261719e+00 -2.418967708945274353e-02 -3.320751246064901352e-03 -8.253128267824649811e-03 -1.433117408305406570e-02
1.282000000000000000e+03 3.474106550216674805e+00 -2.742507934570312500e+00 -1.174672599881887436e-02 -7.256438490003347397e-03 -5.700949113816022873e-03 -1.636384427547454834e-02
1.283000000000000000e+03 1.960219264030456543e+00 -1.962855100631713867e+00 -4.960230551660060883e-03 -5.644715856760740280e-03 -3.181483829393982887e-03 -2.593714743852615356e-03
1.284000000000000000e+03 1.790452361106872559e+00 -5.251323223114013672e+00 -1.896609552204608917e-03 -2.463898435235023499e-02 -7.960678078234195709e-03 -2.074068784713745117e-02
1.285000000000000000e+03 1.201357841491699219e+00 -2.082386970520019531e+00 -1.023659366182982922e-03 -1.996971201151609421e-03 -9.061891469173133373e-04 -1.984033733606338501e-03
1.286000000000000000e+03 4.075323641300201416e-01 -2.178227424621582031e+00 -3.423664253205060959e-03 5.679622991010546684e-04 -8.567105978727340698e-04 -5.173898534849286079e-04
1.287000000000000000e+03 4.988064765930175781e+00 -4.038721084594726562e+01 7.498422171920537949e-03 -4.602470695972442627e-01 -1.358245909214019775e-01 -3.555111587047576904e-02
1.288000000000000000e+03 1.034366369247436523e+00 -3.869601058959960938e+01 -6.842034868896007538e-03 -7.550814747810363770e-01 -2.285770475864410400e-01 9.413653053343296051e-03
1.289000000000000000e+03 7.145187854766845703e-01 -3.339471054077148438e+01 -3.629127517342567444e-03 -7.658425569534301758e-01 -2.308415025472640991e-01 -1.168635953217744827e-02
1.290000000000000000e+03 9.092251062393188477e-01 -3.199274635314941406e+01 1.385531621053814888e-03 -7.478724122047424316e-01 -2.239460647106170654e-01 -1.123022567480802536e-02
1.291000000000000000e+03 8.575313687324523926e-01 -2.903854560852050781e+01 3.797399811446666718e-03 -7.052176594734191895e-01 -2.104260772466659546e-01 -1.645410433411598206e-02
1.292000000000000000e+03 7.817820310592651367e-01 -2.619427871704101562e+01 5.797178484499454498e-03 -6.457649469375610352e-01 -1.919903308153152466e-01 -1.861947402358055115e-02
1.293000000000000000e+03 2.084471702575683594e+00 -2.196110916137695312e+01 7.328964769840240479e-03 -4.424982666969299316e-01 -1.305507868528366089e-01 -5.898227170109748840e-02
1.294000000000000000e+03 7.099491357803344727e-01 -1.916568946838378906e+01 -2.023051725700497627e-03 -4.333660602569580078e-01 -1.306167244911193848e-01 -2.528492547571659088e-02
1.295000000000000000e+03 7.061834335327148438e-01 -1.633573150634765625e+01 -1.127954688854515553e-03 -3.303062021732330322e-01 -9.943024814128875732e-02 -2.620416879653930664e-02
1.296000000000000000e+03 2.079632043838500977e+00 -1.488476276397705078e+01 -4.219613503664731979e-03 -2.377918660640716553e-01 -7.260344177484512329e-02 -7.134247571229934692e-02
1.297000000000000000e+03 1.941069245338439941e+00 -1.206028366088867188e+01 -7.287157699465751648e-03 -1.594885289669036865e-01 -5.003270506858825684e-02 -5.904750525951385498e-02
1.298000000000000000e+03 5.898821353912353516e-01 -9.291208267211914062e+00 1.314677763730287552e-03 -9.441791474819183350e-02 -2.793097123503684998e-02 -1.581835560500621796e-02
1.299000000000000000e+03 7.890000152587890625e+01 3.882299041748046875e+01 -2.945052459836006165e-02 7.540569305419921875e+00 2.253335714340209961e+00 -2.257542125880718231e-02
1.300000000000000000e+03 7.760233306884765625e+01 3.787197494506835938e+01 -4.985772445797920227e-02 7.397511482238769531e+00 2.204296112060546875e+00 4.050135239958763123e-02
1.301000000000000000e+03 7.906931304931640625e+01 3.488615417480468750e+01 4.858111031353473663e-03 7.525682449340820312e+00 2.259162187576293945e+00 3.415882959961891174e-02
1.302000000000000000e+03 7.925837707519531250e+01 2.923661613464355469e+01 9.474231861531734467e-03 7.282658576965332031e+00 2.187639951705932617e+00 4.314809292554855347e-02
1.303000000000000000e+03 7.792257690429687500e+01 2.779805755615234375e+01 -1.793428673408925533e-03 7.094426155090332031e+00 2.127789735794067383e+00 1.200234368443489075e-01
1.304000000000000000e+03 7.800720214843750000e+01 2.515416908264160156e+01 7.135760388337075710e-04 6.958741188049316406e+00 2.087836503982543945e+00 1.344060599803924561e-01
1.305000000000000000e+03 7.777527618408203125e+01 2.246022987365722656e+01 1.271301228553056717e-02 6.816657543182373047e+00 2.048811197280883789e+00 1.480042636394500732e-01
1.306000000000000000e+03 7.928439331054687500e+01 1.957223510742187500e+01 -1.722737774252891541e-02 6.663709163665771484e+00 1.993944525718688965e+00 3.057449497282505035e-02
1.307000000000000000e+03 7.809329223632812500e+01 1.825307846069335938e+01 6.120111420750617981e-02 6.675028800964355469e+00 2.020869016647338867e+00 -3.769892081618309021e-02
1.308000000000000000e+03 7.812870788574218750e+01 1.553083515167236328e+01 7.435717433691024780e-02 6.830858230590820312e+00 2.071564435958862305e+00 -3.059080243110656738e-01
1.309000000000000000e+03 7.943460845947265625e+01 9.788885116577148438e+00 -3.313288986682891846e-01 7.015796661376953125e+00 2.005340337753295898e+00 3.169062435626983643e-01
1.310000000000000000e+03 7.809840393066406250e+01 8.712995529174804688e+00 -2.392968684434890747e-01 9.011823654174804688e+00 2.631757974624633789e+00 5.200536847114562988e-01
1.311000000000000000e+03 7.947927093505859375e+01 5.630608081817626953e+00 1.891126781702041626e-01 7.131079196929931641e+00 2.196057558059692383e+00 -6.716985702514648438e-01
1.312000000000000000e+03 7.819709014892578125e+01 2.668836116790771484e+00 -5.170318484306335449e-01 1.083725643157958984e+01 3.096067428588867188e+00 -1.880276203155517578e+00
1.313000000000000000e+03 7.943321990966796875e+01 5.118064582347869873e-02 -2.673338651657104492e-01 1.364110755920410156e+01 4.012132167816162109e+00 -5.518034100532531738e-03
1.314000000000000000e+03 7.829664611816406250e+01 2.446534335613250732e-01 -1.093419909477233887e+00 1.118903160095214844e+01 3.028683662414550781e+00 1.649566181004047394e-02
1.315000000000000000e+03 7.808158874511718750e+01 -5.068106174468994141e+00 -5.628063157200813293e-02 9.532795906066894531e+00 2.842954635620117188e+00 1.312813282012939453e+00
1.316000000000000000e+03 7.932240295410156250e+01 -6.816470623016357422e+00 -1.771944947540760040e-02 9.057733535766601562e+00 2.712004184722900391e+00 5.521128773689270020e-01
1.317000000000000000e+03 7.799890899658203125e+01 -8.035367012023925781e+00 1.461443901062011719e-01 8.309142112731933594e+00 2.536586046218872070e+00 1.246731638908386230e+00
1.318000000000000000e+03 7.822409820556640625e+01 -1.228008365631103516e+01 2.915085852146148682e-01 7.015418052673339844e+00 2.192077875137329102e+00 3.381962478160858154e-01
1.319000000000000000e+03 7.551186370849609375e+01 -1.368731212615966797e+01 1.158360123634338379e+00 8.690890312194824219e+00 2.954775094985961914e+00 2.441128492355346680e-01
1.320000000000000000e+03 7.937439727783203125e+01 -1.662931632995605469e+01 -4.756499081850051880e-02 6.662912368774414062e+00 1.984604239463806152e+00 -2.082727998495101929e-01
1.321000000000000000e+03 7.795276641845703125e+01 -1.780379676818847656e+01 -1.534759998321533203e-01 7.362063884735107422e+00 2.162576436996459961e+00 -4.398395121097564697e-01
1.322000000000000000e+03 7.800170898437500000e+01 -2.223295402526855469e+01 -5.707373842597007751e-02 7.393808364868164062e+00 2.201020479202270508e+00 1.059089880436658859e-02
1.323000000000000000e+03 7.796176147460937500e+01 -2.364634132385253906e+01 -6.008046492934226990e-02 7.322004795074462891e+00 2.178577423095703125e+00 7.773952186107635498e-02
1.324000000000000000e+03 7.931750488281250000e+01 -2.646414947509765625e+01 1.051030773669481277e-02 7.426264762878417969e+00 2.231032371520996094e+00 3.474897891283035278e-02
1.325000000000000000e+03 7.794043731689453125e+01 -2.784804725646972656e+01 1.961638778448104858e-02 7.113486289978027344e+00 2.139930725097656250e+00 1.040058583021163940e-01
1.326000000000000000e+03 7.803665161132812500e+01 -3.060582542419433594e+01 2.772095240652561188e-02 7.019283771514892578e+00 2.114101409912109375e+00 8.015678822994232178e-02
1.327000000000000000e+03 7.929732513427734375e+01 -3.608116912841796875e+01 -1.566585851833224297e-03 7.029407024383544922e+00 2.108352184295654297e+00 1.558858621865510941e-02
1.328000000000000000e+03 7.865589141845703125e+01 -4.006964492797851562e+01 -8.355651050806045532e-03 6.897917747497558594e+00 2.066868543624877930e+00 3.666608780622482300e-02
1.329000000000000000e+03 3.906966447830200195e-01 2.184451341629028320e+00 -2.290521003305912018e-02 -3.255715966224670410e-01 -1.045430451631546021e-01 1.110333129763603210e-01
1.330000000000000000e+03 5.049114823341369629e-01 4.961969852447509766e+00 4.195991158485412598e-02 -1.080734133720397949e+00 -3.116322755813598633e-01 6.020173430442810059e-02
1.331000000000000000e+03 1.722430348396301270e+00 6.230854034423828125e+00 2.634367644786834717e-01 -6.902914643287658691e-01 -1.280564069747924805e-01 -8.919013291597366333e-02
1.332000000000000000e+03 6.096718311309814453e-01 9.215708732604980469e+00 -3.542215004563331604e-02 -5.292391180992126465e-01 -1.693983823060989380e-01 -1.954455971717834473e-01
1.333000000000000000e+03 6.863273978233337402e-01 1.201682758331298828e+01 -7.377333194017410278e-02 4.541278779506683350e-01 1.141063645482063293e-01 -2.148213684558868408e-01
1.334000000000000000e+03 2.206012248992919922e+00 1.319745254516601562e+01 -1.502535641193389893e-01 8.691563606262207031e-01 2.156708389520645142e-01 -5.431590080261230469e-01
1.335000000000000000e+03 2.241213798522949219e+00 1.615542030334472656e+01 -1.501192450523376465e-01 1.294945716857910156e+00 3.434479236602783203e-01 -3.345040380954742432e-01
1.336000000000000000e+03 6.863847970962524414e-01 1.914289855957031250e+01 2.256760746240615845e-02 1.777723670005798340e+00 5.400874018669128418e-01 -3.985574841499328613e-02
1.337000000000000000e+03 6.610151529312133789e-01 2.198657417297363281e+01 1.839173771440982819e-02 1.842589497566223145e+00 5.582943558692932129e-01 7.289450615644454956e-03
1.338000000000000000e+03 6.782069802284240723e-01 2.481678771972656250e+01 1.275381539016962051e-02 1.765389561653137207e+00 5.334430336952209473e-01 3.037949465215206146e-02
1.339000000000000000e+03 6.892931461334228516e-01 2.622924613952636719e+01 -1.298156566917896271e-02 1.702706456184387207e+00 5.069174766540527344e-01 3.033264726400375366e-02
1.340000000000000000e+03 6.870358586311340332e-01 2.904502868652343750e+01 -2.119266893714666367e-03 1.559415459632873535e+00 4.671888649463653564e-01 3.311807662248611450e-02
1.341000000000000000e+03 2.026558637619018555e+00 3.040951919555664062e+01 1.842242898419499397e-03 1.368104577064514160e+00 4.109840393066406250e-01 8.989034593105316162e-02
1.342000000000000000e+03 6.591666936874389648e-01 3.322962951660156250e+01 3.015754045918583870e-04 1.356749176979064941e+00 4.071152210235595703e-01 2.874374017119407654e-02
1.343000000000000000e+03 7.106063961982727051e-01 3.598381805419921875e+01 -7.196413353085517883e-04 1.245246171951293945e+00 3.733579516410827637e-01 2.627804130315780640e-02
1.344000000000000000e+03 1.354047417640686035e+00 4.003266906738281250e+01 -6.509041879326105118e-03 1.110616803169250488e+00 3.312323093414306641e-01 3.210180625319480896e-02
1.345000000000000000e+03 7.681719303131103516e+00 4.447527408599853516e+00 3.657208442687988281e+00 1.907477155327796936e-02 1.102885007858276367e+00 -1.587579846382141113e-01
1.346000000000000000e+03 4.248349666595458984e+00 1.920315265655517578e+00 -4.685236811637878418e-01 -3.225440979003906250e-01 -2.373203337192535400e-01 9.155669212341308594e-01
1.347000000000000000e+03 4.261972427368164062e+00 2.742006063461303711e+00 8.758536726236343384e-02 -3.414876461029052734e-01 -7.617068290710449219e-02 8.468335866928100586e-01
1.348000000000000000e+03 1.943567276000976562e+00 2.056653976440429688e+00 -1.501398831605911255e-01 -2.477925121784210205e-01 -1.193797141313552856e-01 4.343923330307006836e-01
1.349000000000000000e+03 1.170148730278015137e+00 2.128968477249145508e+00 -9.795771539211273193e-02 -3.428144156932830811e-01 -1.322316378355026245e-01 3.245368003845214844e-01
1.350000000000000000e+03 1.201413822174072266e+01 2.554323911666870117e+00 2.065120935440063477e+00 1.003174662590026855e+00 9.204886555671691895e-01 -3.013043403625488281e+00
1.351000000000000000e+03 1.261346244812011719e+01 1.775824904441833496e+00 -9.131409227848052979e-02 1.159108653664588928e-01 7.379033137112855911e-03 -2.444828510284423828e+00
1.352000000000000000e+03 1.425133705139160156e+01 2.545579910278320312e+00 2.376358985900878906e+00 -2.733246564865112305e+00 -1.070662587881088257e-01 -1.413146138191223145e+00
1.353000000000000000e+03 1.541685295104980469e+01 3.104138374328613281e+00 8.136882781982421875e+00 -1.067854285240173340e+00 2.120708703994750977e+00 8.036221861839294434e-01
1.354000000000000000e+03 2.203032493591308594e+01 1.459700107574462891e+00 1.102432489395141602e+00 2.935574293136596680e+00 1.211401939392089844e+00 -2.562265157699584961e+00
1.355000000000000000e+03 2.300913238525390625e+01 -2.486389398574829102e+00 5.014631271362304688e+00 6.890706062316894531e+00 3.571601152420043945e+00 -5.504797935485839844e+00
1.356000000000000000e+03 2.524437522888183594e+01 -6.121439933776855469e+00 1.440301656723022461e+00 9.321621894836425781e+00 3.228576898574829102e+00 -2.893139600753784180e+00
1.357000000000000000e+03 1.747065925598144531e+01 -4.621003150939941406e+00 -1.467224061489105225e-01 -6.871113926172256470e-02 -6.463006138801574707e-02 1.341716796159744263e-01
1.358000000000000000e+03 2.332747459411621094e+01 1.996281743049621582e+00 -2.650388002395629883e+00 2.165708392858505249e-01 -7.301451563835144043e-01 3.987050056457519531e-01
1.359000000000000000e+03 2.165943527221679688e+01 2.046938657760620117e+00 1.235314965248107910e+00 3.217056751251220703e+00 1.335711479187011719e+00 -1.843724727630615234e+00
1.360000000000000000e+03 2.017115020751953125e+01 2.592602252960205078e+00 2.669148921966552734e+00 4.407434463500976562e+00 2.122975111007690430e+00 -4.317099571228027344e+00
1.361000000000000000e+03 1.977298355102539062e+01 2.566231012344360352e+00 3.027816534042358398e+00 5.724402427673339844e+00 2.625665664672851562e+00 -5.226068496704101562e+00
1.362000000000000000e+03 1.998227500915527344e+01 2.577094078063964844e+00 2.630641937255859375e+00 4.937283039093017578e+00 2.270377397537231445e+00 -4.815468311309814453e+00
1.363000000000000000e+03 1.933534240722656250e+01 2.614734172821044922e+00 2.106673240661621094e+00 7.010837554931640625e+00 2.735253334045410156e+00 -6.277507305145263672e+00
1.364000000000000000e+03 1.914943504333496094e+01 2.678620338439941406e+00 2.400058507919311523e+00 8.627186775207519531e+00 3.308173656463623047e+00 -7.689965248107910156e+00
1.365000000000000000e+03 1.761297798156738281e+01 2.990314483642578125e+00 2.417686700820922852e+00 3.805568218231201172e+00 1.866976499557495117e+00 -3.518874347209930420e-01
1.366000000000000000e+03 1.689166831970214844e+01 3.067856788635253906e+00 6.368431568145751953e+00 -1.820767074823379517e-01 1.855906486511230469e+00 1.910944581031799316e+00
1.367000000000000000e+03 1.701481819152832031e+01 3.532339334487915039e+00 9.215652465820312500e+00 -5.748041272163391113e-01 2.592254400253295898e+00 1.974331855773925781e+00
1.368000000000000000e+03 1.711748886108398438e+01 5.317184448242187500e+00 4.493413448333740234e+00 2.744456768035888672e+00 2.171360969543457031e+00 -3.654155969619750977e+00
1.369000000000000000e+03 1.721716308593750000e+01 5.467423915863037109e+00 3.126697778701782227e+00 3.806224346160888672e+00 2.079876661300659180e+00 -2.974001884460449219e+00
1.370000000000000000e+03 1.774230957031250000e+01 5.832427024841308594e+00 -2.858870029449462891e-01 6.811565399169921875e+00 1.957703471183776855e+00 -1.997606754302978516e+00
1.371000000000000000e+03 1.916828155517578125e+01 5.967207908630371094e+00 9.200513362884521484e-01 4.667069435119628906e+00 1.676136255264282227e+00 4.388594150543212891e+00
1.372000000000000000e+03 1.900570106506347656e+01 6.279541969299316406e+00 -1.240445494651794434e+00 5.148542404174804688e+00 1.172428965568542480e+00 3.353826045989990234e+00
1.373000000000000000e+03 1.982886886596679688e+01 5.974112510681152344e+00 1.407718658447265625e+00 2.511766195297241211e+00 1.175845384597778320e+00 3.632787704467773438e+00
1.374000000000000000e+03 2.027765655517578125e+01 5.892174243927001953e+00 1.561441779136657715e+00 1.485326647758483887e+00 9.140305519104003906e-01 3.007198810577392578e+00
1.375000000000000000e+03 2.099017333984375000e+01 5.762840747833251953e+00 1.282719254493713379e+00 7.884962558746337891e-01 6.213646531105041504e-01 2.110796213150024414e+00
1.376000000000000000e+03 2.141090965270996094e+01 5.851617813110351562e+00 9.589860439300537109e-01 6.891675591468811035e-01 4.944460690021514893e-01 1.810120701789855957e+00
1.377000000000000000e+03 2.246876525878906250e+01 5.844890594482421875e+00 4.210189580917358398e-01 5.124931335449218750e-01 2.800536155700683594e-01 9.909712076187133789e-01
1.378000000000000000e+03 2.360864639282226562e+01 5.891953945159912109e+00 8.639488369226455688e-02 6.365634202957153320e-01 2.168874889612197876e-01 3.796451985836029053e-01
1.379000000000000000e+03 2.499385833740234375e+01 7.279579162597656250e+00 -8.906432390213012695e-01 1.363177970051765442e-02 -2.631034255027770996e-01 -3.942290544509887695e-01
1.380000000000000000e+03 2.585198020935058594e+01 8.260837554931640625e+00 -1.700021743774414062e+00 -7.184004783630371094e-01 -7.255266904830932617e-01 -1.244028329849243164e+00
1.381000000000000000e+03 3.090674591064453125e+01 1.311656475067138672e+01 -3.162044048309326172e+00 -2.130815744400024414e+00 -1.587857961654663086e+00 -2.222215890884399414e+00
1.382000000000000000e+03 3.777132797241210938e+01 1.314487361907958984e+01 -1.569593071937561035e+00 3.784814476966857910e-02 -4.595234692096710205e-01 5.741527676582336426e-01
1.383000000000000000e+03 3.988898849487304688e+01 1.278017330169677734e+01 -1.347674250602722168e+00 2.565750777721405029e-01 -3.273297548294067383e-01 2.395936250686645508e-01
1.384000000000000000e+03 4.066300201416015625e+01 1.264325523376464844e+01 -1.352155089378356934e+00 2.558165192604064941e-01 -3.289015591144561768e-01 5.643875151872634888e-02
1.385000000000000000e+03 4.224758911132812500e+01 1.238984489440917969e+01 -1.262907981872558594e+00 2.619723975658416748e-01 -3.002806603908538818e-01 -1.961737871170043945e-01
1.386000000000000000e+03 4.308986282348632812e+01 1.224843883514404297e+01 -1.221273660659790039e+00 1.884428858757019043e-01 -3.098492324352264404e-01 -3.545309007167816162e-01
1.387000000000000000e+03 4.532937240600585938e+01 1.368977165222167969e+01 -1.787027120590209961e+00 -4.523850083351135254e-01 -6.718236207962036133e-01 -1.090350627899169922e+00
1.388000000000000000e+03 4.621257781982421875e+01 4.915651321411132812e+00 2.888155698776245117e+00 3.302363872528076172e+00 1.857155799865722656e+00 3.027540683746337891e+00
1.389000000000000000e+03 4.442250061035156250e+01 2.745249986648559570e+00 2.420131921768188477e+00 4.142526626586914062e+00 1.968797564506530762e+00 3.345517635345458984e+00
1.390000000000000000e+03 4.103429794311523438e+01 -9.969284385442733765e-02 7.950583100318908691e-01 1.038932442665100098e+00 5.501971840858459473e-01 2.308014035224914551e-01
1.391000000000000000e+03 4.033940124511718750e+01 7.563319683074951172e+00 -2.102019207086414099e-04 -1.176928728818893433e-02 -3.593846922740340233e-03 1.173164695501327515e-02
1.392000000000000000e+03 4.109732055664062500e+01 8.473851203918457031e+00 -9.543513879179954529e-04 1.135852653533220291e-02 3.121252637356519699e-03 -4.698391072452068329e-03
1.393000000000000000e+03 3.988159179687500000e+01 8.949634552001953125e+00 -2.394280768930912018e-02 8.527765981853008270e-03 -4.624512512236833572e-03 -2.089176513254642487e-02
1.394000000000000000e+03 3.910292053222656250e+01 9.018440246582031250e+00 6.806976161897182465e-03 -5.949068348854780197e-03 2.573723031673580408e-04 3.061552532017230988e-03
1.395000000000000000e+03 3.836405944824218750e+01 9.251718521118164062e+00 -1.672045141458511353e-02 5.138752050697803497e-03 -3.474510041996836662e-03 -9.873306378722190857e-03
1.396000000000000000e+03 3.235642242431640625e+01 6.220591068267822266e+00 -9.388287067413330078e-01 -1.162827014923095703e-01 -3.165334165096282959e-01 -3.602752983570098877e-01
1.397000000000000000e+03 2.940744590759277344e+01 2.838158607482910156e+00 -2.757739067077636719e+00 3.860973715782165527e-01 -7.114924788475036621e-01 -7.675954103469848633e-01
1.398000000000000000e+03 2.518915748596191406e+01 2.398446798324584961e+00 -8.220215797424316406e+00 -6.453487873077392578e-01 -2.659669399261474609e+00 -1.773190617561340332e+00
1.399000000000000000e+03 2.470957565307617188e+01 1.805354356765747070e+00 -6.823750972747802734e+00 -9.175535440444946289e-01 -2.322391510009765625e+00 -2.812620997428894043e-01
1.400000000000000000e+03 2.648335838317871094e+01 2.184735298156738281e+00 -4.979538440704345703e+00 -8.665876984596252441e-01 -1.753837823867797852e+00 -1.494769573211669922e+00
1.401000000000000000e+03 2.573543930053710938e+01 2.306730985641479492e+00 -6.498206615447998047e+00 -6.311320066452026367e-01 -2.138801574707031250e+00 -1.485587239265441895e+00
1.402000000000000000e+03 3.706031036376953125e+01 1.431301498413085938e+01 -2.608979225158691406e+00 1.045486256480216980e-01 -7.513291835784912109e-01 6.195392608642578125e-01
1.403000000000000000e+03 1.656531143188476562e+01 5.496873378753662109e+00 3.024757862091064453e+00 -8.552774786949157715e-01 6.508440971374511719e-01 -3.241430044174194336e+00
1.404000000000000000e+03 1.753068923950195312e+01 5.756119728088378906e+00 6.665450334548950195e-01 6.304995059967041016e+00 2.091461896896362305e+00 -2.844526767730712891e+00
1.405000000000000000e+03 1.666571044921875000e+01 4.580836296081542969e+00 9.747637748718261719e+00 -1.713204741477966309e+00 2.410330057144165039e+00 -8.496231436729431152e-01
1.406000000000000000e+03 1.677962493896484375e+01 4.800430774688720703e+00 9.138323783874511719e+00 -6.430190205574035645e-01 2.548591375350952148e+00 -1.685574293136596680e+00
1.407000000000000000e+03 1.688395690917968750e+01 4.988902091979980469e+00 7.389563083648681641e+00 -3.632252290844917297e-02 2.205972194671630859e+00 -2.571376085281372070e+00
1.408000000000000000e+03 1.714952087402343750e+01 3.282210588455200195e+00 6.778340339660644531e+00 7.240769267082214355e-01 2.250725269317626953e+00 3.083338737487792969e+00
1.409000000000000000e+03 1.695345878601074219e+01 3.369462251663208008e+00 7.270869255065917969e+00 -1.579687595367431641e+00 1.707354545593261719e+00 2.818973064422607422e+00
1.410000000000000000e+03 1.791737365722656250e+01 5.896358489990234375e+00 -6.311612129211425781e-01 6.706868648529052734e+00 1.822712302207946777e+00 -6.344995498657226562e-01
1.411000000000000000e+03 1.733728027343750000e+01 5.625241279602050781e+00 1.291230797767639160e+00 4.809480190277099609e+00 1.830213308334350586e+00 -3.246650934219360352e+00
1.412000000000000000e+03 1.685227584838867188e+01 3.660149335861206055e+00 1.150052165985107422e+01 -7.713458538055419922e-01 3.218752622604370117e+00 3.028718233108520508e+00
1.413000000000000000e+03 1.569214248657226562e+01 3.971358060836791992e+00 7.378251552581787109e+00 -3.398182392120361328e+00 1.194020748138427734e+00 -4.596404731273651123e-01
1.414000000000000000e+03 1.699239921569824219e+01 5.165434360504150391e+00 6.983440399169921875e+00 1.654864311218261719e+00 2.591491460800170898e+00 -3.070971727371215820e+00
1.415000000000000000e+03 1.705776405334472656e+01 5.824871063232421875e+00 -3.417116403579711914e-02 2.213034152984619141e+00 6.536589264869689941e-01 -2.760748147964477539e+00
1.416000000000000000e+03 1.809036064147949219e+01 5.970412731170654297e+00 -1.166428685188293457e+00 7.026542186737060547e+00 1.758033990859985352e+00 4.387553930282592773e-01
1.417000000000000000e+03 2.101599121093750000e+01 1.797761440277099609e+00 2.873615264892578125e+00 5.613390922546386719e+00 2.546101808547973633e+00 -3.256768703460693359e+00
1.418000000000000000e+03 2.128989601135253906e+01 2.108331680297851562e+00 1.750172138214111328e+00 3.334729433059692383e+00 1.525470495223999023e+00 -1.989355564117431641e+00
1.419000000000000000e+03 2.059948730468750000e+01 2.182509183883666992e+00 2.650117397308349609e+00 4.329157829284667969e+00 2.093782663345336914e+00 -4.190536499023437500e+00
1.420000000000000000e+03 1.955139732360839844e+01 2.571825265884399414e+00 2.820000648498535156e+00 6.523105144500732422e+00 2.802931785583496094e+00 -6.157338619232177734e+00
1.421000000000000000e+03 1.922998619079589844e+01 1.551254391670227051e+00 7.341325283050537109e+00 8.742674827575683594e+00 4.825200080871582031e+00 -7.896244049072265625e+00
1.422000000000000000e+03 1.879144668579101562e+01 2.696270465850830078e+00 2.147784233093261719e+00 8.417992591857910156e+00 3.169733047485351562e+00 -7.393721580505371094e+00
1.423000000000000000e+03 2.102428054809570312e+01 2.145453929901123047e+00 1.724775075912475586e+00 3.677866458892822266e+00 1.620792508125305176e+00 -2.852225303649902344e+00
1.424000000000000000e+03 2.076877975463867188e+01 2.507629156112670898e+00 1.707729339599609375e+00 3.284121513366699219e+00 1.497555255889892578e+00 -2.945372343063354492e+00
1.425000000000000000e+03 1.884719848632812500e+01 2.150114297866821289e+00 4.405553340911865234e+00 7.097557544708251953e+00 3.450933218002319336e+00 -6.194434165954589844e+00
1.426000000000000000e+03 1.897865676879882812e+01 2.700835466384887695e+00 2.134681701660156250e+00 7.399176597595214844e+00 2.860157489776611328e+00 -7.242783069610595703e+00
1.427000000000000000e+03 1.821084022521972656e+01 2.708445072174072266e+00 4.587316811084747314e-01 5.615239620208740234e+00 1.822191357612609863e+00 -3.435893058776855469e+00
1.428000000000000000e+03 1.714426040649414062e+01 7.473537921905517578e+00 -9.031271934509277344e+00 -3.515032529830932617e+00 -3.763891458511352539e+00 -6.014295101165771484e+00
1.429000000000000000e+03 1.936904335021972656e+01 6.004147052764892578e+00 9.734368920326232910e-01 3.961243629455566406e+00 1.480404138565063477e+00 4.208467006683349609e+00
1.430000000000000000e+03 2.129771614074707031e+01 6.275483131408691406e+00 3.611714541912078857e-01 1.089108228683471680e+00 4.350838959217071533e-01 2.033375501632690430e+00
1.431000000000000000e+03 2.047097015380859375e+01 5.833188056945800781e+00 1.539813280105590820e+00 1.151380419731140137e+00 8.073580861091613770e-01 2.671816110610961914e+00
1.432000000000000000e+03 2.005086135864257812e+01 5.929010391235351562e+00 1.442127823829650879e+00 1.838801264762878418e+00 9.842787384986877441e-01 3.321368217468261719e+00
1.433000000000000000e+03 1.959846687316894531e+01 6.006499290466308594e+00 1.175681948661804199e+00 3.251230478286743164e+00 1.328073740005493164e+00 3.850518703460693359e+00
1.434000000000000000e+03 2.185208892822265625e+01 5.855053901672363281e+00 6.020849943161010742e-01 5.891283750534057617e-01 3.573639988899230957e-01 1.383840680122375488e+00
1.435000000000000000e+03 3.604366302490234375e+01 6.794060230255126953e+00 -2.074526250362396240e-01 -1.960260234773159027e-02 -6.811656802892684937e-02 1.304903477430343628e-01
1.436000000000000000e+03 2.229346275329589844e+01 6.513126373291015625e+00 -2.786622345447540283e-01 1.033613801002502441e+00 2.264854758977890015e-01 1.247164607048034668e+00
1.437000000000000000e+03 2.379610061645507812e+01 1.922067046165466309e+00 -5.598733901977539062e+00 -3.054548501968383789e+00 -2.595984697341918945e+00 8.831776976585388184e-01
1.438000000000000000e+03 2.208299827575683594e+01 2.068866491317749023e+00 6.847890466451644897e-02 2.280755043029785156e+00 7.047702074050903320e-01 -1.255059838294982910e+00
1.439000000000000000e+03 1.328402805328369141e+01 1.841783285140991211e+00 8.457616567611694336e-01 -2.286229282617568970e-01 1.851416230201721191e-01 -2.407387733459472656e+00
1.440000000000000000e+03 1.513460445404052734e+01 2.154626369476318359e+00 1.364675998687744141e+00 -1.490960836410522461e+00 -3.788544237613677979e-02 -1.841867268085479736e-01
1.441000000000000000e+03 1.441700363159179688e+01 1.921870112419128418e+00 1.715341687202453613e+00 -1.794917583465576172e+00 -2.387275174260139465e-02 -4.262121915817260742e-01
1.442000000000000000e+03 1.431197738647460938e+01 3.532855510711669922e+00 6.650183677673339844e+00 -4.966002464294433594e+00 5.052543282508850098e-01 -1.699450612068176270e+00
1.443000000000000000e+03 2.100446510314941406e+01 6.105215549468994141e+00 6.524698734283447266e-01 1.117261052131652832e+00 5.309192538261413574e-01 2.306178569793701172e+00
1.444000000000000000e+03 2.308807945251464844e+01 5.846830844879150391e+00 1.313086301088333130e-01 4.654651880264282227e-01 1.790321469306945801e-01 6.429412364959716797e-01
1.445000000000000000e+03 2.440791320800781250e+01 7.889618873596191406e+00 -1.417337059974670410e+00 9.556719064712524414e-01 -1.384995579719543457e-01 -2.231979668140411377e-01
1.446000000000000000e+03 3.793287658691406250e+01 1.376331996917724609e+01 -1.992263793945312500e+00 2.394036352634429932e-01 -5.258580446243286133e-01 5.821480154991149902e-01
1.447000000000000000e+03 3.912977981567382812e+01 1.292257976531982422e+01 -1.444748282432556152e+00 1.573550999164581299e-01 -3.862179219722747803e-01 3.608160018920898438e-01
1.448000000000000000e+03 1.000810813903808594e+01 2.907550573348999023e+00 1.885249137878417969e+00 1.973228931427001953e+00 1.157543420791625977e+00 -1.440602988004684448e-01
1.449000000000000000e+03 1.324387359619140625e+01 2.613250970840454102e+00 1.452443957328796387e+00 -6.870793700218200684e-01 2.296093702316284180e-01 -2.014288663864135742e+00
1.450000000000000000e+03 1.398839282989501953e+01 -2.907283544540405273e+00 -8.973942697048187256e-02 1.713291741907596588e-02 -2.178195305168628693e-02 3.447081521153450012e-02
1.451000000000000000e+03 9.552917480468750000e+00 -1.833635568618774414e+00 -5.984063819050788879e-02 1.668867189437150955e-03 -1.745153218507766724e-02 -8.240319788455963135e-03
1.452000000000000000e+03 1.093396759033203125e+01 -2.589536190032958984e+00 -7.573276013135910034e-02 2.112988382577896118e-02 -1.638086326420307159e-02 -1.556066446937620640e-03
1.453000000000000000e+03 1.105624961853027344e+01 -1.894543409347534180e+00 -6.815636157989501953e-02 3.230958012863993645e-03 -1.947762072086334229e-02 2.456821734085679054e-03
1.454000000000000000e+03 4.245400905609130859e+00 -2.787597656250000000e+00 -2.388958260416984558e-02 -6.769672036170959473e-03 -9.197776205837726593e-03 -1.837127655744552612e-02
1.455000000000000000e+03 3.465862274169921875e+00 -1.908822894096374512e+00 -1.447968278080224991e-02 -3.892111359164118767e-03 -5.511538125574588776e-03 -8.972036652266979218e-03
1.456000000000000000e+03 2.709475278854370117e+00 -1.906061649322509766e+00 -6.967045366764068604e-03 -4.468970000743865967e-03 -3.430804703384637833e-03 -8.952194824814796448e-03
1.457000000000000000e+03 7.288181304931640625e+00 -1.851426959037780762e+00 -4.018596187233924866e-02 4.076609853655099869e-03 -1.083280518651008606e-02 -1.532427314668893814e-02
1.458000000000000000e+03 5.314522981643676758e-01 -3.575752735137939453e+00 1.719199586659669876e-03 -5.713119171559810638e-03 -1.198175945319235325e-03 -3.303027478978037834e-03
1.459000000000000000e+03 6.012148857116699219e-01 -5.039908885955810547e+00 -4.261416383087635040e-03 -1.660410873591899872e-02 -6.259657442569732666e-03 -6.075417622923851013e-03
1.460000000000000000e+03 8.773319244384765625e+00 -2.503568172454833984e+00 -6.113139912486076355e-02 3.687201533466577530e-03 -1.723325997591018677e-02 -1.803681068122386932e-02
1.461000000000000000e+03 8.046585083007812500e+00 -2.526421308517456055e+00 -5.153859406709671021e-02 8.043777197599411011e-03 -1.304844487458467484e-02 -1.943964697420597076e-02
1.462000000000000000e+03 6.572381973266601562e+00 -2.618507862091064453e+00 -3.841843456029891968e-02 1.966311829164624214e-03 -1.093563623726367950e-02 -2.273330092430114746e-02
1.463000000000000000e+03 5.811093807220458984e+00 -2.688197135925292969e+00 -3.508459404110908508e-02 -4.517764784395694733e-03 -1.188070699572563171e-02 -2.373466081917285919e-02
1.464000000000000000e+03 8.964599609375000000e+00 2.018997192382812500e+00 -8.550108075141906738e-01 3.979976475238800049e-01 -1.371039450168609619e-01 9.575097560882568359e-01
1.465000000000000000e+03 8.301446914672851562e+00 3.141342878341674805e+00 2.281096696853637695e+00 4.000518620014190674e-01 8.043445944786071777e-01 1.209410309791564941e+00
1.466000000000000000e+03 7.249137401580810547e+00 3.803693532943725586e+00 2.922618150711059570e+00 -7.655058056116104126e-02 8.538202643394470215e-01 7.430362105369567871e-01
1.467000000000000000e+03 5.013592720031738281e+00 2.748730659484863281e+00 1.920326352119445801e-01 -4.833019077777862549e-01 -8.738078176975250244e-02 1.062334060668945312e+00
1.468000000000000000e+03 2.053708553314208984e+00 3.170640707015991211e+00 1.078687515109777451e-02 -5.273831486701965332e-01 -1.549788713455200195e-01 5.539587140083312988e-01
1.469000000000000000e+03 2.712121486663818359e+00 1.985871791839599609e+00 -2.672815024852752686e-01 -2.900359928607940674e-01 -1.671952456235885620e-01 6.443212032318115234e-01
1.470000000000000000e+03 5.016880035400390625e+00 1.920930624008178711e+00 -5.712524056434631348e-01 -1.993000060319900513e-01 -2.311657220125198364e-01 9.834154844284057617e-01
1.471000000000000000e+03 3.605237960815429688e+00 3.530702590942382812e+00 3.681432902812957764e-01 -4.318614602088928223e-01 -1.911545731127262115e-02 6.475561857223510742e-01
1.472000000000000000e+03 3.991865158081054688e+01 1.354957103729248047e+01 -1.688078403472900391e+00 3.739787340164184570e-01 -3.942298889160156250e-01 1.922224462032318115e-01
1.473000000000000000e+03 4.146561431884765625e+01 1.344341087341308594e+01 -1.592867851257324219e+00 4.443174898624420166e-01 -3.445651233196258545e-01 -7.129772752523422241e-02
1.474000000000000000e+03 4.144765090942382812e+01 1.251485633850097656e+01 -1.310899496078491211e+00 3.434768021106719971e-01 -2.902268171310424805e-01 -6.754313409328460693e-02
1.475000000000000000e+03 4.068003463745117188e+01 1.347661876678466797e+01 -1.594004631042480469e+00 4.543727338314056396e-01 -3.418895602226257324e-01 6.932528316974639893e-02
1.476000000000000000e+03 4.317932128906250000e+01 1.342956542968750000e+01 -1.595863461494445801e+00 3.512727320194244385e-01 -3.733772039413452148e-01 -3.371171653270721436e-01
1.477000000000000000e+03 4.063195419311523438e+01 1.427195358276367188e+01 -1.806353330612182617e+00 5.384382009506225586e-01 -3.803745210170745850e-01 1.720027998089790344e-02
1.478000000000000000e+03 1.417448139190673828e+01 -2.005896329879760742e+00 -6.475344300270080566e-02 -4.568034783005714417e-03 -2.079644240438938141e-02 2.618874236941337585e-02
1.479000000000000000e+03 1.446169471740722656e+01 -3.973525047302246094e+00 -1.298981606960296631e-01 2.703475207090377808e-02 -3.085902146995067596e-02 4.749450087547302246e-02
1.480000000000000000e+03 1.241967391967773438e+01 -2.737159013748168945e+00 -8.408175408840179443e-02 2.351322770118713379e-02 -1.817055791616439819e-02 1.431428361684083939e-02
1.481000000000000000e+03 6.315962982177734375e+01 -2.716836929321289062e+00 1.130046606063842773e+00 1.215413570404052734e+01 3.985254764556884766e+00 2.536524534225463867e+00
1.482000000000000000e+03 3.777920532226562500e+01 8.797171592712402344e+00 -4.372492432594299316e-02 -2.344015054404735565e-02 -2.014952339231967926e-02 -8.053445257246494293e-03
1.483000000000000000e+03 2.529899024963378906e+01 -1.139236450195312500e+01 -5.854806303977966309e-01 3.531919956207275391e+00 8.839317560195922852e-01 6.481582522392272949e-01
1.484000000000000000e+03 2.613633728027343750e+01 -1.040267848968505859e+01 -1.016942024230957031e+00 4.168004035949707031e+00 9.453186392784118652e-01 -5.805237889289855957e-01
1.485000000000000000e+03 2.556901550292968750e+01 1.515565013885498047e+01 1.637626409530639648e+00 8.375753402709960938e+00 3.004014015197753906e+00 1.759063005447387695e+00
1.486000000000000000e+03 2.625536155700683594e+01 1.881162452697753906e+01 -2.472804784774780273e+00 1.843982458114624023e+00 -1.886467039585113525e-01 3.991404175758361816e-01
1.487000000000000000e+03 6.630860137939453125e+01 1.389491558074951172e+01 1.676448248326778412e-02 1.166846275329589844e+01 3.505568265914916992e+00 1.982468962669372559e-01
1.488000000000000000e+03 6.530947113037109375e+01 1.492692852020263672e+01 -2.858684659004211426e-01 8.903038024902343750e+00 2.585150957107543945e+00 -2.639105081558227539e+00
1.489000000000000000e+03 6.831846618652343750e+01 -1.529313373565673828e+01 -2.024638414382934570e+00 -6.934934258460998535e-01 -8.154395222663879395e-01 8.245361447334289551e-01
1.490000000000000000e+03 6.689859771728515625e+01 -1.751537704467773438e+01 2.705402076244354248e-01 2.319304704666137695e+00 7.769534587860107422e-01 -9.523215293884277344e-01
1.491000000000000000e+03 1.085009956359863281e+01 4.694599628448486328e+00 1.241353511810302734e+01 8.464595794677734375e+00 6.263439178466796875e+00 -6.305455207824707031e+00
1.492000000000000000e+03 4.565626525878906250e+01 -2.286300659179687500e+00 6.201608777046203613e-01 6.591906070709228516e+00 2.163620233535766602e+00 5.842051506042480469e+00
1.493000000000000000e+03 4.385351943969726562e+01 -2.473485946655273438e+00 -1.242887694388628006e-02 7.938178062438964844e+00 2.377724885940551758e+00 7.190356850624084473e-01
1.494000000000000000e+03 5.384381866455078125e+01 1.070285797119140625e+01 1.919171333312988281e+00 1.073869037628173828e+01 3.797358274459838867e+00 1.340779662132263184e+00
1.495000000000000000e+03 5.560938262939453125e+01 8.612117767333984375e-01 8.010209202766418457e-01 4.172419548034667969e+00 1.492032170295715332e+00 -5.616549015045166016e+00
1.496000000000000000e+03 5.460557174682617188e+01 1.521167278289794922e+00 5.722169399261474609e+00 1.622138977050781250e+01 6.583067893981933594e+00 -6.573762893676757812e+00
1.497000000000000000e+03 3.992718887329101562e+01 8.284902572631835938e+00 -5.681869573891162872e-03 3.892476856708526611e-02 9.972870349884033203e-03 8.098959922790527344e-03
1.498000000000000000e+03 5.390930175781250000e+01 3.577292561531066895e-01 -1.774050235748291016e+00 1.136323928833007812e+01 2.876756668090820312e+00 -1.950947403907775879e+00
1.499000000000000000e+03 6.597936248779296875e+01 7.555953025817871094e+00 -4.348971545696258545e-01 1.105796527862548828e+01 3.186920642852783203e+00 -7.230447977781295776e-02
1.500000000000000000e+03 3.307636642456054688e+01 8.447094559669494629e-01 3.483121395111083984e+00 1.707221120595932007e-01 1.096153020858764648e+00 1.848549365997314453e+00
1.501000000000000000e+03 7.179618835449218750e+01 -1.110738590359687805e-01 -2.065953731536865234e+00 3.616458415985107422e+00 4.651513695716857910e-01 -4.602060794830322266e+00
1.502000000000000000e+03 3.080311965942382812e+01 1.427117228507995605e+00 -8.884434588253498077e-03 2.387929677963256836e+00 7.137135267257690430e-01 9.572873115539550781e-01
1.503000000000000000e+03 2.707346153259277344e+01 3.844208419322967529e-01 7.273773550987243652e-01 -1.037851929664611816e+00 -9.314237534999847412e-02 4.606100618839263916e-01
1.504000000000000000e+03 3.692115020751953125e+01 8.711146354675292969e+00 -2.518552727997303009e-02 -5.091705243103206158e-04 -7.708409335464239120e-03 2.392685506492853165e-03
1.505000000000000000e+03 6.125588989257812500e+01 1.542365455627441406e+01 1.482453703880310059e+00 1.698601484298706055e+00 9.543165564537048340e-01 6.083853244781494141e-01
1.506000000000000000e+03 6.329551315307617188e+01 1.489920997619628906e+01 7.694938778877258301e-01 2.184229612350463867e+00 8.861170411109924316e-01 -1.261771917343139648e+00
1.507000000000000000e+03 7.201029968261718750e+01 1.139035129547119141e+01 2.071863174438476562e+00 2.508065223693847656e+00 1.373978495597839355e+00 4.169904440641403198e-02
1.508000000000000000e+03 7.322205352783203125e+01 9.799765586853027344e+00 -1.284233093261718750e+00 1.360910177230834961e+00 2.300313301384449005e-02 -1.779132723808288574e+00
1.509000000000000000e+03 6.788112640380859375e+01 3.285382032394409180e+00 2.489844083786010742e+00 8.016658782958984375e+00 3.151950836181640625e+00 -1.983290910720825195e-01
1.510000000000000000e+03 5.871863937377929688e+01 1.628809928894042969e+00 -5.791281223297119141e+00 -1.327750563621520996e+00 -2.135709524154663086e+00 -2.372836589813232422e+00
1.511000000000000000e+03 5.756871032714843750e+01 -9.539996385574340820e-01 -7.116411328315734863e-01 1.969066739082336426e+00 3.772276937961578369e-01 -3.493915557861328125e+00
1.512000000000000000e+03 7.511389160156250000e+01 8.934673309326171875e+00 1.384234428405761719e+00 7.640627384185791016e+00 2.707458734512329102e+00 -3.808832645416259766e+00
1.513000000000000000e+03 7.743833160400390625e+01 1.062481880187988281e+01 -3.382138609886169434e-01 8.160722732543945312e+00 2.346752643585205078e+00 -4.569770023226737976e-02
1.514000000000000000e+03 7.548941802978515625e+01 5.337671637535095215e-01 -3.364211082458496094e+00 6.669297695159912109e+00 9.915260076522827148e-01 1.075917363166809082e+00
1.515000000000000000e+03 5.686611557006835938e+01 1.169503211975097656e+01 1.390824675559997559e+00 3.404685735702514648e+00 1.438653111457824707e+00 1.962289929389953613e+00
1.516000000000000000e+03 6.317469787597656250e+01 2.224984645843505859e+00 -1.181231856346130371e+00 4.566221714019775391e+00 1.015496969223022461e+00 2.111605405807495117e+00
1.517000000000000000e+03 5.187308883666992188e+01 6.011491775512695312e+00 1.624989271163940430e+00 1.254368495941162109e+01 4.250602245330810547e+00 -3.463754653930664062e-01
1.518000000000000000e+03 5.408915328979492188e+01 8.215010643005371094e+00 3.006170392036437988e-01 1.106671905517578125e+01 3.410200834274291992e+00 1.003099322319030762e+00
1.519000000000000000e+03 5.900905990600585938e+01 1.368737506866455078e+01 7.439209222793579102e-01 1.863687634468078613e+00 7.822825908660888672e-01 1.607142090797424316e+00
1.520000000000000000e+03 6.144682312011718750e+01 2.214430332183837891e+00 -2.618915081024169922e+00 3.155059814453125000e+00 1.608434021472930908e-01 8.529671430587768555e-01
1.521000000000000000e+03 6.453121185302734375e+01 5.514146804809570312e+00 4.726588129997253418e-01 5.804732322692871094e+00 1.883217334747314453e+00 1.663496375083923340e+00
1.522000000000000000e+03 6.013163375854492188e+01 1.459378242492675781e+01 6.589459776878356934e-01 1.638039350509643555e+00 6.890956163406372070e-01 1.352458596229553223e+00
1.523000000000000000e+03 6.531381225585937500e+01 6.603070259094238281e+00 1.365860700607299805e-01 9.274668693542480469e+00 2.823376417160034180e+00 1.314717173576354980e+00
1.524000000000000000e+03 7.016320800781250000e+01 -7.280480116605758667e-02 -3.260545492172241211e+00 6.126053810119628906e+00 8.596524596214294434e-01 -2.726095199584960938e+00
1.525000000000000000e+03 7.150796508789062500e+01 9.078956604003906250e+00 -3.016298770904541016e+00 2.925834953784942627e-01 -8.171145915985107422e-01 -7.025063633918762207e-01
1.526000000000000000e+03 1.207054519653320312e+01 4.539052009582519531e+00 1.236894130706787109e+01 1.299188494682312012e+00 4.100439071655273438e+00 -9.856554865837097168e-01
1.527000000000000000e+03 8.935350418090820312e+00 6.922103404998779297e+00 1.810681819915771484e+00 3.090243339538574219e+00 1.470277547836303711e+00 -2.791802883148193359e+00
1.528000000000000000e+03 6.745973205566406250e+01 4.353819370269775391e+00 2.554318904876708984e+00 9.965140342712402344e+00 3.755837917327880859e+00 -1.219125151634216309e+00
1.529000000000000000e+03 6.875926971435546875e+01 7.782897472381591797e+00 -1.210723876953125000e+00 1.040369224548339844e+01 2.757890701293945312e+00 -1.034646630287170410e+00
1.530000000000000000e+03 6.549713134765625000e+01 -1.471171379089355469e+00 -3.627070188522338867e+00 2.111095786094665527e-01 -1.024788141250610352e+00 3.719071865081787109e+00
1.531000000000000000e+03 6.365806579589843750e+01 2.458376735448837280e-01 -2.221068859100341797e+00 5.628781318664550781e+00 1.022313714027404785e+00 3.469767093658447266e+00
1.532000000000000000e+03 3.925393676757812500e+01 -2.119711112976074219e+01 -2.186063081026077271e-01 3.587493896484375000e+00 1.010666251182556152e+00 5.769719481468200684e-01
1.533000000000000000e+03 3.974628448486328125e+01 -1.696430587768554688e+01 2.344461202621459961e+00 3.591271877288818359e+00 1.780719876289367676e+00 2.152925252914428711e+00
1.534000000000000000e+03 4.987875747680664062e+01 1.522998905181884766e+01 2.924122810363769531e-01 8.676442146301269531e+00 2.690656185150146484e+00 -4.160438537597656250e+00
1.535000000000000000e+03 5.121151351928710938e+01 1.635318565368652344e+01 -2.459897041320800781e+00 1.186285781860351562e+01 2.820888280868530273e+00 -3.635334372520446777e-01
1.536000000000000000e+03 5.815689086914062500e+01 -1.781849670410156250e+01 1.101364493370056152e+00 9.020831108093261719e+00 3.036658525466918945e+00 -5.721790790557861328e-01
1.537000000000000000e+03 2.588437843322753906e+01 1.210595417022705078e+01 -3.754555583000183105e-01 2.850829839706420898e+00 7.426122426986694336e-01 -3.680508434772491455e-01
1.538000000000000000e+03 2.779585838317871094e+01 1.354240989685058594e+01 6.697834134101867676e-01 7.191014289855957031e-01 4.166654646396636963e-01 -1.698059588670730591e-01
1.539000000000000000e+03 3.009338378906250000e+01 -2.563451051712036133e+00 -4.472008049488067627e-01 9.339790940284729004e-01 1.460334956645965576e-01 7.781401276588439941e-01
1.540000000000000000e+03 2.908469009399414062e+01 -2.531900644302368164e+00 1.453414916992187500e+00 1.842412829399108887e+00 9.887483119964599609e-01 2.472127914428710938e+00
1.541000000000000000e+03 3.643339538574218750e+01 -1.773887872695922852e+00 1.626754522323608398e+00 -1.657426118850708008e+00 -9.201486594974994659e-03 -1.016629487276077271e-01
1.542000000000000000e+03 6.217829513549804688e+01 -8.582034111022949219e+00 7.329614758491516113e-01 9.563975334167480469e+00 3.089081048965454102e+00 1.234084144234657288e-01
1.543000000000000000e+03 6.272975540161132812e+01 -1.122148895263671875e+01 -9.142629057168960571e-02 7.706267833709716797e+00 2.284452438354492188e+00 -5.943140015006065369e-02
1.544000000000000000e+03 6.265950012207031250e+01 -1.399363231658935547e+01 -1.269624233245849609e-01 6.209328651428222656e+00 1.824709773063659668e+00 -5.685121417045593262e-01
1.545000000000000000e+03 2.110350608825683594e+01 1.801633453369140625e+01 -1.590971469879150391e+00 -2.911806702613830566e-01 -5.646456480026245117e-01 -2.797278165817260742e-01
1.546000000000000000e+03 3.282185363769531250e+01 -1.228977489471435547e+01 3.405560851097106934e-01 1.209641575813293457e+00 4.650593101978302002e-01 -7.607967257499694824e-01
1.547000000000000000e+03 6.477488708496093750e+01 -1.435493659973144531e+01 -6.328009366989135742e-01 4.069542407989501953e+00 1.031022429466247559e+00 -9.426088333129882812e-01
1.548000000000000000e+03 6.829463195800781250e+01 -2.382472276687622070e+00 -4.412051677703857422e+00 3.445884227752685547e+00 -2.898502945899963379e-01 -5.877633690834045410e-01
1.549000000000000000e+03 6.572868347167968750e+01 -1.482307338714599609e+01 -4.308522045612335205e-01 2.884624242782592773e+00 7.361316084861755371e-01 -7.783765196800231934e-01
1.550000000000000000e+03 1.133862590789794922e+01 1.101096343994140625e+01 -9.694269895553588867e-01 7.492824196815490723e-01 -6.604336947202682495e-02 -3.956825733184814453e-01
1.551000000000000000e+03 1.030997562408447266e+01 9.805766105651855469e+00 -7.672799825668334961e-01 1.295611977577209473e+00 1.584995985031127930e-01 -3.717286586761474609e-01
1.552000000000000000e+03 6.061855697631835938e+01 -7.541309833526611328e+00 1.133103132247924805e+00 8.673892974853515625e+00 2.942098855972290039e+00 9.414380192756652832e-01
1.553000000000000000e+03 6.999776458740234375e+01 -4.622037410736083984e+00 -1.533619046211242676e+00 3.247934818267822266e+00 5.142946839332580566e-01 -9.996605515480041504e-01
1.554000000000000000e+03 3.509561920166015625e+01 -1.866397410631179810e-01 1.801369547843933105e+00 -1.131037950515747070e+00 2.010994851589202881e-01 1.768527776002883911e-01
1.555000000000000000e+03 3.407954025268554688e+01 7.575060129165649414e-01 2.146925210952758789e+00 -6.238226890563964844e-01 4.569307267665863037e-01 5.113930702209472656e-01
1.556000000000000000e+03 3.669368743896484375e+01 -1.825306129455566406e+01 9.392353892326354980e-01 1.535782098770141602e+00 7.425052523612976074e-01 6.128776073455810547e-02
1.557000000000000000e+03 1.823048973083496094e+01 1.597690486907958984e+01 -1.898770451545715332e+00 -3.580524623394012451e-01 -6.770468354225158691e-01 -6.798422932624816895e-01
1.558000000000000000e+03 9.489265441894531250e+00 8.398459434509277344e+00 -7.229875922203063965e-01 3.419180154800415039e+00 8.088577389717102051e-01 -1.070001959800720215e+00
1.559000000000000000e+03 2.034513092041015625e+01 1.724701499938964844e+01 -2.316035270690917969e+00 -3.129050433635711670e-01 -7.886821031570434570e-01 -4.882926642894744873e-01
1.560000000000000000e+03 2.136551284790039062e+01 1.624024391174316406e+01 -2.761925697326660156e+00 -4.938247501850128174e-01 -9.767251610755920410e-01 -1.188610911369323730e+00
1.561000000000000000e+03 3.563483047485351562e+01 -1.006197452545166016e+00 1.666458964347839355e+00 -1.567592144012451172e+00 2.966006286442279816e-02 7.166486978530883789e-02
1.562000000000000000e+03 3.635234069824218750e+01 -3.937841892242431641e+00 -1.648468822240829468e-01 -2.209728956222534180e+00 -7.123727798461914062e-01 9.301084280014038086e-01
1.563000000000000000e+03 2.321072387695312500e+01 7.811264038085937500e+00 -1.403962373733520508e+00 1.813474655151367188e+00 1.228536665439605713e-01 6.689385771751403809e-01
1.564000000000000000e+03 2.243181228637695312e+01 8.325570106506347656e+00 -1.901334762573242188e+00 2.166967630386352539e+00 7.968988269567489624e-02 1.040760397911071777e+00
1.565000000000000000e+03 1.618610000610351562e+01 6.688352108001708984e+00 -8.758510589599609375e+00 -4.677960872650146484e+00 -4.030941486358642578e+00 -6.719473838806152344e+00
1.566000000000000000e+03 1.627387809753417969e+01 5.733457565307617188e+00 -6.893070340156555176e-01 -4.534986019134521484e+00 -1.567287921905517578e+00 -5.038474082946777344e+00
1.567000000000000000e+03 2.803708648681640625e+01 -6.036892414093017578e+00 1.681365728378295898e+00 2.833240270614624023e+00 1.354381799697875977e+00 -1.078206896781921387e+00
1.568000000000000000e+03 1.813923835754394531e+01 8.265489578247070312e+00 -6.383794307708740234e+00 -1.648508071899414062e+00 -2.409690618515014648e+00 -3.391273260116577148e+00
1.569000000000000000e+03 1.876190185546875000e+01 6.007106304168701172e+00 -2.460390925407409668e-01 6.321745872497558594e+00 1.822712063789367676e+00 3.679889440536499023e+00
1.570000000000000000e+03 4.163527297973632812e+01 -1.126426410675048828e+01 -1.274417757987976074e+00 6.162688732147216797e+00 1.466481208801269531e+00 2.010835409164428711e+00
1.571000000000000000e+03 3.523405838012695312e+01 -1.565144920349121094e+01 8.042135089635848999e-02 1.133166551589965820e+00 3.640763759613037109e-01 -5.411078333854675293e-01
1.572000000000000000e+03 3.119300651550292969e+01 -9.895545959472656250e+00 5.952975153923034668e-01 1.052085280418395996e+00 4.942148327827453613e-01 -1.202784657478332520e+00
1.573000000000000000e+03 3.362941741943359375e+01 -1.340858936309814453e+01 1.508454531431198120e-01 1.260927915573120117e+00 4.235320091247558594e-01 -6.404615044593811035e-01
1.574000000000000000e+03 3.443786239624023438e+01 -1.451843452453613281e+01 2.179338335990905762e-01 1.089636564254760742e+00 3.922711312770843506e-01 -5.853846669197082520e-01
1.575000000000000000e+03 3.791790390014648438e+01 -1.246631026268005371e+00 1.811013221740722656e+00 -1.464777350425720215e+00 1.038707345724105835e-01 -2.526050806045532227e-01
1.576000000000000000e+03 4.058402633666992188e+01 -8.370429039001464844e+00 -1.254595875740051270e+00 2.547588586807250977e+00 3.878978490829467773e-01 1.783560633659362793e+00
1.577000000000000000e+03 5.200170135498046875e+01 1.518029499053955078e+01 -1.303594261407852173e-01 1.159855651855468750e+01 3.440459012985229492e+00 2.684531450271606445e+00
1.578000000000000000e+03 1.711572837829589844e+01 3.413573026657104492e+00 8.977573394775390625e+00 1.679949998855590820e+00 3.197257041931152344e+00 2.907760858535766602e+00
1.579000000000000000e+03 3.643988418579101562e+01 1.640890121459960938e+01 -2.071878433227539062e+00 -4.628629386425018311e-01 -7.604224085807800293e-01 -2.426013350486755371e-01
1.580000000000000000e+03 3.219483947753906250e+01 1.574136352539062500e+01 -2.062221765518188477e+00 -1.339981555938720703e+00 -1.020660996437072754e+00 1.041993871331214905e-01
1.581000000000000000e+03 5.162905502319335938e+01 1.003925418853759766e+01 2.221445798873901367e+00 1.656530761718750000e+01 5.636026382446289062e+00 9.868809580802917480e-01
1.582000000000000000e+03 3.666824722290039062e+01 2.689476966857910156e+00 1.514248400926589966e-01 -6.187250614166259766e-01 -1.401900649070739746e-01 5.441100597381591797e-01
1.583000000000000000e+03 3.121344566345214844e+01 1.499475765228271484e+01 -2.270232439041137695e+00 -1.297711133956909180e+00 -1.070383071899414062e+00 -4.801054298877716064e-01
1.584000000000000000e+03 2.815660095214843750e+01 3.224524557590484619e-01 1.907853603363037109e+00 -2.315501272678375244e-01 5.028910636901855469e-01 1.033289074897766113e+00
1.585000000000000000e+03 2.697822761535644531e+01 1.545061469078063965e+00 -2.233003139495849609e+00 -8.584411144256591797e-01 -9.274333119392395020e-01 -6.644821763038635254e-01
1.586000000000000000e+03 5.152235794067382812e+01 -3.616958141326904297e+00 -4.240514755249023438e+00 3.352580308914184570e+00 -2.663803994655609131e-01 -4.218165874481201172e-01
1.587000000000000000e+03 4.755664825439453125e+01 -1.467354178428649902e+00 3.046868443489074707e-01 1.583364725112915039e+00 5.664154887199401855e-01 5.077701568603515625e+00
1.588000000000000000e+03 2.881777954101562500e+01 1.391044807434082031e+01 -4.497646391391754150e-01 -1.094711184501647949e+00 -4.633427560329437256e-01 -4.841145575046539307e-01
1.589000000000000000e+03 2.210008049011230469e+01 9.846669197082519531e+00 -1.165228486061096191e+00 2.139553546905517578e+00 2.922975122928619385e-01 1.066669464111328125e+00
1.590000000000000000e+03 2.977964591979980469e+01 1.219832420349121094e+01 -2.911135911941528320e+00 -2.358587026596069336e+00 -1.580916881561279297e+00 -2.676791667938232422e+00
1.591000000000000000e+03 2.559620475769042969e+01 1.105064105987548828e+01 -1.740277767181396484e+00 2.708609342575073242e+00 2.904994785785675049e-01 -3.194224536418914795e-01
1.592000000000000000e+03 2.668795585632324219e+01 9.320782661437988281e+00 -2.910356998443603516e+00 -1.407663106918334961e+00 -1.295405983924865723e+00 -1.956423044204711914e+00
1.593000000000000000e+03 2.504127311706542969e+01 8.785854339599609375e+00 -2.473810672760009766e+00 9.723063707351684570e-01 -4.504512846469879150e-01 -6.394647955894470215e-01
1.594000000000000000e+03 7.647207641601562500e+01 -3.897142791748046875e+01 9.216266334988176823e-05 6.804314613342285156e+00 2.041321992874145508e+00 1.953980699181556702e-02
1.595000000000000000e+03 7.903030395507812500e+01 -3.873327255249023438e+01 -1.990407938137650490e-03 6.941975593566894531e+00 2.081995487213134766e+00 2.769024670124053955e-02
1.596000000000000000e+03 7.935893249511718750e+01 -3.337160491943359375e+01 -1.221555564552545547e-02 7.105507850646972656e+00 2.127987623214721680e+00 1.252293307334184647e-02
1.597000000000000000e+03 7.789592742919921875e+01 -3.576861953735351562e+01 -4.142627876717597246e-04 6.902640819549560547e+00 2.070667982101440430e+00 5.033579468727111816e-02
1.598000000000000000e+03 7.936608123779296875e+01 -3.200470352172851562e+01 2.009149454534053802e-02 7.144723892211914062e+00 2.149444580078125000e+00 1.912440545856952667e-02
1.599000000000000000e+03 7.935418701171875000e+01 -3.062961387634277344e+01 -1.648129709064960480e-02 7.197792053222656250e+00 2.154393196105957031e+00 2.436040528118610382e-02
1.600000000000000000e+03 7.933644104003906250e+01 -2.924635505676269531e+01 2.295802533626556396e-02 7.262604236602783203e+00 2.185668706893920898e+00 3.073137253522872925e-02
1.601000000000000000e+03 7.932270050048828125e+01 -2.785620689392089844e+01 -1.496033929288387299e-02 7.342176437377929688e+00 2.198164701461791992e+00 3.930401802062988281e-02
1.602000000000000000e+03 7.931781768798828125e+01 -2.507203865051269531e+01 -8.876997977495193481e-03 7.507903099060058594e+00 2.249707698822021484e+00 3.635880723595619202e-02
1.603000000000000000e+03 7.932460784912109375e+01 -2.367610359191894531e+01 -9.425398893654346466e-03 7.575011730194091797e+00 2.269675970077514648e+00 1.798637397587299347e-02
1.604000000000000000e+03 7.933267974853515625e+01 -2.227518653869628906e+01 -1.716963760554790497e-02 7.595971584320068359e+00 2.273640632629394531e+00 -9.979009628295898438e-03
1.605000000000000000e+03 7.933406066894531250e+01 -2.086687850952148438e+01 -3.072392567992210388e-02 7.539341926574707031e+00 2.252585411071777344e+00 -5.953086167573928833e-02
1.606000000000000000e+03 7.912783813476562500e+01 3.626378631591796875e+01 -3.238430246710777283e-02 7.561780452728271484e+00 2.258818864822387695e+00 1.449747383594512939e-02
1.607000000000000000e+03 7.779239654541015625e+01 -3.697155380249023438e+01 9.725968120619654655e-04 6.874166011810302734e+00 2.062541484832763672e+00 3.991029784083366394e-02
1.608000000000000000e+03 7.936564636230468750e+01 1.253572463989257812e+01 -9.454258531332015991e-02 7.369148731231689453e+00 2.182381868362426758e+00 -1.785843446850776672e-02
1.609000000000000000e+03 7.687003326416015625e+01 1.192583656311035156e+01 -6.383920907974243164e-01 7.941713809967041016e+00 2.190996408462524414e+00 -5.229804515838623047e-01
1.610000000000000000e+03 7.933706665039062500e+01 1.396269416809082031e+01 -6.591572426259517670e-03 7.212317943572998047e+00 2.161717891693115234e+00 -1.238703951239585876e-01
1.611000000000000000e+03 7.799570465087890625e+01 1.401788616180419922e+01 -2.642594650387763977e-02 7.019783973693847656e+00 2.098007440567016602e+00 -3.121207356452941895e-01
1.612000000000000000e+03 7.924754333496093750e+01 2.094956779479980469e+01 3.428563475608825684e-02 6.721635818481445312e+00 2.026776552200317383e+00 4.258857294917106628e-02
1.613000000000000000e+03 7.926779937744140625e+01 2.233690643310546875e+01 -1.672347448766231537e-02 6.809212207794189453e+00 2.037746667861938477e+00 6.171825528144836426e-02
1.614000000000000000e+03 7.934992980957031250e+01 1.818630981445312500e+01 5.103377625346183777e-02 6.657194614410400391e+00 2.012468576431274414e+00 -1.153236906975507736e-02
1.615000000000000000e+03 7.933718109130859375e+01 2.509713363647460938e+01 -1.573512516915798187e-02 7.019410610198974609e+00 2.101102590560913086e+00 5.447854474186897278e-02
1.616000000000000000e+03 7.933992767333984375e+01 2.647440528869628906e+01 9.663053788244724274e-03 7.118071079254150391e+00 2.138320207595825195e+00 4.749056324362754822e-02
1.617000000000000000e+03 7.760306549072265625e+01 3.052884864807128906e+01 -1.003090757876634598e-03 7.175980567932128906e+00 2.152493238449096680e+00 1.139813438057899475e-01
1.618000000000000000e+03 7.776290893554687500e+01 2.914486503601074219e+01 -1.548546366393566132e-02 7.143679618835449219e+00 2.138458251953125000e+00 1.179944127798080444e-01
1.619000000000000000e+03 7.904058074951171875e+01 3.348569869995117188e+01 -1.168344914913177490e-02 7.476642608642578125e+00 2.239487648010253906e+00 4.037864133715629578e-02
1.620000000000000000e+03 7.826133728027343750e+01 4.667032241821289062e+00 3.638491034507751465e-01 9.667614936828613281e+00 3.009439229965209961e+00 -1.973530650138854980e+00
1.621000000000000000e+03 7.939885711669921875e+01 7.003929138183593750e+00 2.128121405839920044e-01 6.051454067230224609e+00 1.879279851913452148e+00 -1.312752962112426758e-01
1.622000000000000000e+03 7.548159027099609375e+01 3.817632293701171875e+01 -6.487146019935607910e-02 7.106997966766357422e+00 2.112637996673583984e+00 5.797158926725387573e-02
1.623000000000000000e+03 7.805755615234375000e+01 4.172351074218750000e+01 6.443810462951660156e-02 7.466754436492919922e+00 2.259357690811157227e+00 -1.789862290024757385e-02
1.624000000000000000e+03 7.939212036132812500e+01 -1.525128459930419922e+01 9.174782037734985352e-02 6.215037345886230469e+00 1.892035603523254395e+00 -1.751475334167480469e-01
1.625000000000000000e+03 7.940157318115234375e+01 -1.105938816070556641e+01 6.972222775220870972e-02 6.382507801055908203e+00 1.935669064521789551e+00 2.612337172031402588e-01
1.626000000000000000e+03 7.812509918212890625e+01 -1.371362018585205078e+01 2.946451902389526367e-01 6.990552902221679688e+00 2.185559511184692383e+00 -1.097713559865951538e-01
1.627000000000000000e+03 7.932669067382812500e+01 -1.944697761535644531e+01 -4.324112460017204285e-02 7.353744983673095703e+00 2.193150997161865234e+00 -1.368086338043212891e-01
1.628000000000000000e+03 7.932933807373046875e+01 -1.802394104003906250e+01 9.975834749639034271e-03 7.050295829772949219e+00 2.118081331253051758e+00 -1.770918071269989014e-01
1.629000000000000000e+03 7.933137512207031250e+01 -8.236486434936523438e+00 5.703527480363845825e-02 8.031503677368164062e+00 2.426561832427978516e+00 4.986423552036285400e-01
1.630000000000000000e+03 7.942066192626953125e+01 -4.064984321594238281e+00 3.127283602952957153e-02 1.129097270965576172e+01 3.396673679351806641e+00 4.904187321662902832e-01
1.631000000000000000e+03 7.937718963623046875e+01 -1.316579222679138184e+00 -1.608313061296939850e-02 1.323899078369140625e+01 3.966872453689575195e+00 2.853980958461761475e-01
1.632000000000000000e+03 7.675847625732421875e+01 -4.501643180847167969e+00 -8.896064013242721558e-02 8.401571273803710938e+00 2.493783235549926758e+00 1.470612406730651855e+00
1.633000000000000000e+03 7.945645141601562500e+01 1.405303955078125000e+00 -1.263037770986557007e-01 1.300755023956298828e+01 3.864373922348022461e+00 -5.426429510116577148e-01
1.634000000000000000e+03 7.937621307373046875e+01 2.826747179031372070e+00 -1.779799163341522217e-01 1.129605770111083984e+01 3.335423231124877930e+00 -9.252815246582031250e-01
1.635000000000000000e+03 7.939386749267578125e+01 4.260132789611816406e+00 1.039798781275749207e-01 9.372268676757812500e+00 2.842874526977539062e+00 -1.040993690490722656e+00
1.636000000000000000e+03 7.735517120361328125e+01 3.198725700378417969e+01 -2.325461991131305695e-02 7.184167385101318359e+00 2.148273944854736328e+00 1.056879311800003052e-01
1.637000000000000000e+03 7.716514587402343750e+01 3.509818649291992188e+01 -4.672302305698394775e-02 7.225323677062988281e+00 2.153580188751220703e+00 8.292034268379211426e-02
1.638000000000000000e+03 7.723097229003906250e+01 5.298426151275634766e+00 9.453418850898742676e-01 1.186283206939697266e+01 3.842452287673950195e+00 -2.379098176956176758e+00
1.639000000000000000e+03 7.819535064697265625e+01 -2.608827114105224609e+00 -2.606871128082275391e-01 1.036608314514160156e+01 3.031618833541870117e+00 1.031240940093994141e+00
1.640000000000000000e+03 7.816281890869140625e+01 -9.519374847412109375e+00 2.152214050292968750e-01 7.697196006774902344e+00 2.373725175857543945e+00 9.488008618354797363e-01
1.641000000000000000e+03 7.800170898437500000e+01 -1.934288597106933594e+01 -9.933678805828094482e-02 7.439624309539794922e+00 2.202086210250854492e+00 -2.421588748693466187e-01
1.642000000000000000e+03 4.269265365600585938e+01 -4.943026900291442871e-01 3.981828689575195312e-01 4.108583927154541016e+00 1.352029919624328613e+00 1.503856420516967773e+00
1.643000000000000000e+03 4.309146118164062500e+01 -7.077884197235107422e+00 7.967663407325744629e-01 7.458410263061523438e+00 2.476552963256835938e+00 1.590603351593017578e+00
1.644000000000000000e+03 5.161713409423828125e+01 8.810959815979003906e+00 8.776292800903320312e-01 1.532309246063232422e+01 4.860216617584228516e+00 7.139945030212402344e-01
1.645000000000000000e+03 4.986169433593750000e+01 9.251385688781738281e+00 3.399572372436523438e+00 1.497287368774414062e+01 5.511734008789062500e+00 5.514604568481445312e+00
1.646000000000000000e+03 4.440557479858398438e+01 6.558629274368286133e-01 3.398919403553009033e-01 5.284400463104248047e+00 1.687287688255310059e+00 3.145725488662719727e+00
1.647000000000000000e+03 4.529449462890625000e+01 1.864821195602416992e+00 2.105924844741821289e+00 3.866727590560913086e+00 1.791795730590820312e+00 3.763465881347656250e+00
1.648000000000000000e+03 4.158940887451171875e+01 -1.139517307281494141e+00 1.458843827247619629e+00 2.244118690490722656e+00 1.110888719558715820e+00 6.452227234840393066e-01
1.649000000000000000e+03 4.309651184082031250e+01 -1.524311542510986328e+00 8.233551979064941406e-01 5.702037334442138672e+00 1.957617759704589844e+00 1.543549180030822754e+00
1.650000000000000000e+03 3.741238021850585938e+01 5.225121021270751953e+00 -2.470101974904537201e-02 -2.448669970035552979e-01 -8.087040483951568604e-02 1.921292096376419067e-01
1.651000000000000000e+03 4.895735168457031250e+01 5.978570938110351562e+00 2.508849620819091797e+00 7.409963130950927734e+00 2.975643873214721680e+00 2.927059412002563477e+00
1.652000000000000000e+03 4.530827713012695312e+01 3.851753950119018555e+00 2.750178337097167969e+00 3.569360494613647461e+00 1.895861625671386719e+00 3.358730316162109375e+00
1.653000000000000000e+03 4.698602294921875000e+01 4.068310260772705078e+00 3.207442998886108398e+00 3.815052986145019531e+00 2.106748819351196289e+00 3.504359960556030273e+00
1.654000000000000000e+03 5.088160324096679688e+01 6.534096717834472656e+00 1.089226126670837402e+00 1.189512920379638672e+01 3.895306825637817383e+00 9.979799985885620117e-01
1.655000000000000000e+03 7.410546112060546875e+01 -1.327454185485839844e+01 1.573935627937316895e+00 1.006607437133789062e+01 3.492002964019775391e+00 5.221258401870727539e-01
1.656000000000000000e+03 5.064570617675781250e+01 8.343256950378417969e+00 7.457814812660217285e-01 1.480783081054687500e+01 4.666083335876464844e+00 2.164085149765014648e+00
1.657000000000000000e+03 5.694054412841796875e+01 -1.276015377044677734e+01 8.600196242332458496e-01 1.085773563385009766e+01 3.515326499938964844e+00 -5.094973444938659668e-01
1.658000000000000000e+03 5.599137878417968750e+01 -9.148795127868652344e+00 2.970076799392700195e-01 7.688789844512939453e+00 2.395739316940307617e+00 -8.580260276794433594e-01
1.659000000000000000e+03 5.599711227416992188e+01 -1.452899742126464844e+01 7.665590643882751465e-01 1.409078407287597656e+01 4.457202911376953125e+00 -1.141238570213317871e+00
1.660000000000000000e+03 5.804261779785156250e+01 -1.124165058135986328e+01 5.366754531860351562e-01 9.195083618164062500e+00 2.919527530670166016e+00 4.430228769779205322e-01
1.661000000000000000e+03 4.300194168090820312e+01 -1.138310432434082031e+01 -1.468662261962890625e+00 6.285256862640380859e+00 1.444978356361389160e+00 2.087425947189331055e+00
1.662000000000000000e+03 4.518378829956054688e+01 -1.132062149047851562e+01 -1.517691969871520996e+00 4.869498252868652344e+00 1.005541920661926270e+00 9.715238809585571289e-01
1.663000000000000000e+03 4.878273391723632812e+01 -2.008459568023681641e+00 -6.370875835418701172e-01 -5.328634008765220642e-02 -2.071121782064437866e-01 2.387125492095947266e+00
1.664000000000000000e+03 5.251494979858398438e+01 -4.821976661682128906e+00 -3.160393238067626953e+00 3.988693475723266602e+00 2.484900951385498047e-01 -7.489401102066040039e-01
1.665000000000000000e+03 4.414850997924804688e+01 -8.439173698425292969e+00 -8.471919894218444824e-01 8.838914871215820312e+00 2.397516727447509766e+00 5.599850416183471680e-01
1.666000000000000000e+03 5.739815902709960938e+01 -1.545582294464111328e+01 1.232640743255615234e+00 1.211865997314453125e+01 4.005390167236328125e+00 4.037308394908905029e-01
1.667000000000000000e+03 4.281957244873046875e+01 -8.285213470458984375e+00 -9.180292487144470215e-01 7.322018623352050781e+00 1.921196818351745605e+00 2.020072460174560547e+00
1.668000000000000000e+03 4.714152908325195312e+01 -1.216712760925292969e+01 -1.154924392700195312e+00 3.939492702484130859e-01 -2.282925546169281006e-01 4.928149878978729248e-01
1.669000000000000000e+03 4.696714401245117188e+01 -1.420324325561523438e+01 -9.453545212745666504e-01 1.111515879631042480e+00 4.984840750694274902e-02 1.867415308952331543e-01
1.670000000000000000e+03 5.503698348999023438e+01 -6.275380134582519531e+00 -7.310749292373657227e-01 5.692021369934082031e+00 1.488283991813659668e+00 -1.518383264541625977e+00
1.671000000000000000e+03 5.421532058715820312e+01 -7.089052677154541016e+00 -2.531527578830718994e-01 4.947580814361572266e+00 1.408328413963317871e+00 -1.351005554199218750e+00
1.672000000000000000e+03 5.064123153686523438e+01 -1.859270286560058594e+01 -1.779033899307250977e+00 -1.271198838949203491e-01 -5.718461275100708008e-01 2.633068263530731201e-01
1.673000000000000000e+03 4.526068115234375000e+01 -1.299977207183837891e+01 -9.724632501602172852e-01 3.490871906280517578e+00 7.555225491523742676e-01 7.176506519317626953e-01
1.674000000000000000e+03 5.506917953491210938e+01 -8.150237083435058594e+00 3.189616501331329346e-01 6.173470973968505859e+00 1.947729706764221191e+00 -1.502328753471374512e+00
1.675000000000000000e+03 2.617762184143066406e+01 -8.555262565612792969e+00 1.385858774185180664e+00 6.350537776947021484e+00 2.320919036865234375e+00 -6.901775598526000977e-01
1.676000000000000000e+03 2.735149383544921875e+01 -7.760614871978759766e+00 1.470844984054565430e+00 4.132084846496582031e+00 1.680878996849060059e+00 -1.654050707817077637e+00
1.677000000000000000e+03 2.332772827148437500e+01 -1.157759094238281250e+01 -9.559039026498794556e-02 9.115754365921020508e-01 2.447955161333084106e-01 5.033715963363647461e-01
1.678000000000000000e+03 2.733387374877929688e+01 -4.861046791076660156e+00 1.610784769058227539e+00 3.612265348434448242e+00 1.566915035247802734e+00 -7.189539074897766113e-01
1.679000000000000000e+03 2.009103393554687500e+01 6.957174539566040039e-01 7.349779605865478516e+00 8.856353759765625000e+00 4.861840248107910156e+00 -8.191134452819824219e+00
1.680000000000000000e+03 1.920772933959960938e+01 2.297879934310913086e+00 4.103904724121093750e+00 8.999630928039550781e+00 3.931060552597045898e+00 -6.950166702270507812e+00
1.681000000000000000e+03 1.518858051300048828e+01 -4.296509742736816406e+00 -1.762239634990692139e-01 -1.282214419916272163e-03 -5.325185507535934448e-02 4.790995642542839050e-02
1.682000000000000000e+03 2.479983901977539062e+01 -2.885599851608276367e+00 4.090030670166015625e+00 4.544684410095214844e+00 2.590414524078369141e+00 -2.798961639404296875e+00
1.683000000000000000e+03 2.388060569763183594e+01 -3.617534160614013672e+00 3.757611274719238281e+00 6.644273757934570312e+00 3.120565414428710938e+00 -4.901980400085449219e+00
1.684000000000000000e+03 2.005030632019042969e+01 2.283641338348388672e+00 3.314280748367309570e+00 5.595605373382568359e+00 2.672965764999389648e+00 -5.041850090026855469e+00
1.685000000000000000e+03 1.811462211608886719e+01 -7.690273284912109375e+00 -4.656561315059661865e-01 6.926670670509338379e-02 -1.189168244600296021e-01 9.635457396507263184e-02
1.686000000000000000e+03 2.081268072128295898e+00 2.902409934997558594e+01 5.601362325251102448e-03 1.416158437728881836e+00 4.265279173851013184e-01 1.028323471546173096e-01
1.687000000000000000e+03 1.992527604103088379e+00 3.307307434082031250e+01 5.179611034691333771e-03 1.272777199745178223e+00 3.833870291709899902e-01 7.806690782308578491e-02
1.688000000000000000e+03 6.561607718467712402e-01 3.184208488464355469e+01 1.333560212515294552e-03 1.421050667762756348e+00 4.267152547836303711e-01 2.959307283163070679e-02
1.689000000000000000e+03 2.125670194625854492e+00 3.565989685058593750e+01 3.727380419149994850e-03 1.190695881843566895e+00 3.583269715309143066e-01 6.874296069145202637e-02
1.690000000000000000e+03 3.560497760772705078e+00 3.890236663818359375e+01 1.684122160077095032e-02 1.087708592414855957e+00 3.313649594783782959e-01 6.296422332525253296e-02
1.691000000000000000e+03 9.758468270301818848e-01 3.867756652832031250e+01 5.183387547731399536e-04 1.149104237556457520e+00 3.448867797851562500e-01 2.678344398736953735e-02
1.692000000000000000e+03 2.842924833297729492e+00 -3.807642364501953125e+01 2.249903790652751923e-02 -6.397072672843933105e-01 -1.851624697446823120e-01 2.461209893226623535e-02
1.693000000000000000e+03 2.074159860610961914e+00 2.620712661743164062e+01 3.308033104985952377e-03 1.509455800056457520e+00 4.538291692733764648e-01 9.565446525812149048e-02
1.694000000000000000e+03 2.224809885025024414e+00 3.688356018066406250e+01 6.986625492572784424e-03 1.157388687133789062e+00 3.493125736713409424e-01 6.669773906469345093e-02
1.695000000000000000e+03 8.864051103591918945e-01 -3.048958969116210938e+01 7.195732323452830315e-04 -7.290181517601013184e-01 -2.184895724058151245e-01 -1.236737333238124847e-02
1.696000000000000000e+03 7.015409469604492188e-01 -2.339900588989257812e+01 9.338999167084693909e-03 -5.722112655639648438e-01 -1.688616722822189331e-01 -2.052441798150539398e-02
1.697000000000000000e+03 2.368330240249633789e+00 -2.603720283508300781e+01 -3.781725419685244560e-03 -5.209106206893920898e-01 -1.574077010154724121e-01 -5.352294817566871643e-02
1.698000000000000000e+03 1.713108420372009277e+00 -3.413785171508789062e+01 2.995772520080208778e-03 -6.936899423599243164e-01 -2.072082459926605225e-01 -1.193207129836082458e-02
1.699000000000000000e+03 2.600121259689331055e+00 -3.676148223876953125e+01 9.453868493437767029e-03 -6.649448871612548828e-01 -1.966473013162612915e-01 -9.838043712079524994e-03
1.700000000000000000e+03 5.673160552978515625e-01 -6.491363048553466797e+00 2.298517152667045593e-03 -3.538113459944725037e-02 -9.924785234034061432e-03 -9.514968842267990112e-03
1.701000000000000000e+03 6.171968579292297363e-01 -1.069083118438720703e+01 -3.290398744866251945e-03 -1.341234594583511353e-01 -4.122415930032730103e-02 -1.764175295829772949e-02
1.702000000000000000e+03 6.463577747344970703e-01 -1.209629535675048828e+01 -2.243176641059108078e-05 -1.782337427139282227e-01 -5.347685143351554871e-02 -2.181402407586574554e-02
1.703000000000000000e+03 6.725975275039672852e-01 -1.350701904296875000e+01 -1.723965164273977280e-03 -2.270787954330444336e-01 -6.864082813262939453e-02 -2.330211736261844635e-02
1.704000000000000000e+03 7.115346789360046387e-01 -1.775017166137695312e+01 2.072890289127826691e-03 -3.820819854736328125e-01 -1.140027344226837158e-01 -2.567458897829055786e-02
1.705000000000000000e+03 1.527431130409240723e+00 4.760086059570312500e+00 1.377199292182922363e-01 -7.663245201110839844e-01 -1.885813772678375244e-01 2.546330988407135010e-01
1.706000000000000000e+03 7.175474166870117188e-01 1.770993232727050781e+01 -6.767649203538894653e-02 1.662006139755249023e+00 4.782989025115966797e-01 -8.105545490980148315e-02
1.707000000000000000e+03 5.889660716056823730e-01 7.805808544158935547e+00 8.965165168046951294e-02 -9.382163286209106445e-01 -2.545694112777709961e-01 -1.444331407546997070e-01
1.708000000000000000e+03 2.064408063888549805e+00 1.180973911285400391e+01 -6.834826897829771042e-03 5.605360865592956543e-01 1.661103665828704834e-01 -6.339492201805114746e-01
1.709000000000000000e+03 7.538534402847290039e-01 1.483560180664062500e+01 -8.377508819103240967e-02 1.213179349899291992e+00 3.388212621212005615e-01 -1.594459563493728638e-01
1.710000000000000000e+03 1.967829465866088867e+00 2.196710586547851562e+01 -5.758677050471305847e-02 1.608327984809875488e+00 4.652223885059356689e-01 1.876972732134163380e-03
1.711000000000000000e+03 3.463605403900146484e+00 -3.920761489868164062e+01 5.866142455488443375e-03 -6.370460391044616699e-01 -1.893539726734161377e-01 -1.213547401130199432e-02
1.712000000000000000e+03 2.759714365005493164e+00 -3.198941421508789062e+01 3.403847804293036461e-03 -5.911905765533447266e-01 -1.763360202312469482e-01 -3.406526893377304077e-02
1.713000000000000000e+03 2.198760271072387695e+00 -2.468511199951171875e+01 1.413970161229372025e-02 -5.029908418655395508e-01 -1.466553360223770142e-01 -5.840809270739555359e-02
1.714000000000000000e+03 7.328016161918640137e-01 -2.479744720458984375e+01 -6.761871278285980225e-03 -6.111831068992614746e-01 -1.853834837675094604e-01 -1.790389604866504669e-02
1.715000000000000000e+03 2.133972406387329102e+00 -1.914688873291015625e+01 7.032315712422132492e-03 -3.617533743381500244e-01 -1.064163148403167725e-01 -6.988900899887084961e-02
1.716000000000000000e+03 6.928390860557556152e-01 -1.492093944549560547e+01 4.068221096531488001e-05 -2.775649130344390869e-01 -8.325727283954620361e-02 -2.547623589634895325e-02
1.717000000000000000e+03 2.832897663116455078e+00 -6.774391174316406250e+00 -9.122600778937339783e-03 -4.328392446041107178e-02 -1.572195813059806824e-02 -4.477223753929138184e-02
1.718000000000000000e+03 5.701773762702941895e-01 -7.895460605621337891e+00 -4.450874868780374527e-03 -6.166017055511474609e-02 -1.983331330120563507e-02 -1.122616790235042572e-02
1.719000000000000000e+03 2.153942108154296875e+00 -4.126826763153076172e+00 -1.135054137557744980e-02 -1.904586702585220337e-02 -9.118922054767608643e-03 -1.414439547806978226e-02
1.720000000000000000e+03 1.819793581962585449e+00 9.083106994628906250e+00 1.148038282990455627e-01 -1.469789743423461914e-01 -9.652541950345039368e-03 -5.619840025901794434e-01
1.721000000000000000e+03 2.036482334136962891e+00 1.911758995056152344e+01 -9.633228182792663574e-02 1.537431836128234863e+00 4.323298633098602295e-01 -1.188297048211097717e-01
1.722000000000000000e+03 1.989806175231933594e+00 2.338322448730468750e+01 -5.223126150667667389e-03 1.589696049690246582e+00 4.753418862819671631e-01 5.533869937062263489e-02
1.723000000000000000e+03 3.494340896606445312e+01 8.296127319335937500e+00 -1.200050786137580872e-01 2.651291899383068085e-02 -2.804764732718467712e-02 -2.142705023288726807e-02
1.724000000000000000e+03 3.716804504394531250e+01 6.927346706390380859e+00 -7.700959593057632446e-02 -7.102057803422212601e-03 -2.523349598050117493e-02 1.400025337934494019e-01
1.725000000000000000e+03 3.063377571105957031e+01 3.531136512756347656e+00 -2.457815885543823242e+00 8.388203382492065430e-01 -4.856986999511718750e-01 -1.200518906116485596e-01
1.726000000000000000e+03 3.169651222229003906e+01 4.368970394134521484e+00 -1.651355028152465820e+00 6.038131713867187500e-01 -3.142625391483306885e-01 -1.016746535897254944e-01
1.727000000000000000e+03 3.481909179687500000e+01 5.566772460937500000e+00 -5.970255136489868164e-01 2.591044306755065918e-01 -1.013763174414634705e-01 2.864376604557037354e-01
1.728000000000000000e+03 3.126325988769531250e+01 5.425155162811279297e+00 -1.760253906250000000e+00 -3.021642863750457764e-01 -6.187254786491394043e-01 -8.108468055725097656e-01
1.729000000000000000e+03 3.373516464233398438e+01 5.441283226013183594e+00 -8.842623829841613770e-01 4.173131883144378662e-01 -1.400847733020782471e-01 2.694514691829681396e-01
1.730000000000000000e+03 5.189035034179687500e+01 -1.755951881408691406e+01 -2.045731782913208008e+00 -1.293328762054443359e+00 -1.001718163490295410e+00 1.952193140983581543e+00
1.731000000000000000e+03 4.569925308227539062e+01 1.593485641479492188e+01 -2.001224040985107422e+00 2.327476441860198975e-01 -5.305429100990295410e-01 -3.849618732929229736e-01
1.732000000000000000e+03 4.896241378784179688e+01 1.659025573730468750e+01 -1.137238502502441406e+00 3.491229534149169922e+00 7.061973214149475098e-01 -3.130161762237548828e+00
1.733000000000000000e+03 4.384696197509765625e+01 1.489232254028320312e+01 -2.041350603103637695e+00 5.029382705688476562e-01 -4.615237414836883545e-01 -4.775569736957550049e-01
1.734000000000000000e+03 2.806554222106933594e+01 2.529422044754028320e+00 -2.956568241119384766e+00 -8.675755262374877930e-01 -1.147243142127990723e+00 -1.463155388832092285e+00
1.735000000000000000e+03 4.325806808471679688e+01 -1.714856147766113281e+01 5.735740065574645996e-01 4.621644973754882812e+00 1.558565735816955566e+00 -5.575708746910095215e-01
1.736000000000000000e+03 6.551908111572265625e+01 4.727686882019042969e+00 1.013636589050292969e+00 7.270061492919921875e+00 2.485109329223632812e+00 8.149719834327697754e-01
1.737000000000000000e+03 6.763623809814453125e+01 2.240560054779052734e+00 1.130623102188110352e+00 7.225179672241210938e+00 2.506740808486938477e+00 8.517669439315795898e-01
1.738000000000000000e+03 6.979766845703125000e+01 1.001973819732666016e+01 2.346658706665039062e-01 6.066900730133056641e+00 1.890470027923583984e+00 1.248811721801757812e+00
1.739000000000000000e+03 1.471912002563476562e+01 1.379252147674560547e+01 -1.363798975944519043e+00 -3.892150521278381348e-01 -5.259041786193847656e-01 -6.073799133300781250e-01
1.740000000000000000e+03 3.656750869750976562e+01 1.473809337615966797e+01 -3.592709779739379883e+00 -2.109718322753906250e-01 -1.141104459762573242e+00 8.064264804124832153e-02
1.741000000000000000e+03 3.580242538452148438e+01 1.533363056182861328e+01 -3.012577295303344727e+00 -6.470786333084106445e-01 -1.097896814346313477e+00 -4.498532712459564209e-01
1.742000000000000000e+03 5.163610076904296875e+01 -1.973217964172363281e+01 -4.972676038742065430e-01 1.679060906171798706e-01 -9.880845248699188232e-02 3.654401898384094238e-01
1.743000000000000000e+03 5.371919631958007812e+01 -2.211167144775390625e+01 4.186721742153167725e-01 1.488283872604370117e+00 5.720868110656738281e-01 1.973191976547241211e+00
1.744000000000000000e+03 1.903619766235351562e+01 2.511393547058105469e+00 2.077079772949218750e+00 7.382288932800292969e+00 2.837810516357421875e+00 -7.130849838256835938e+00
1.745000000000000000e+03 2.035282325744628906e+01 2.559644937515258789e+00 2.460257053375244141e+00 4.000184535980224609e+00 1.938132405281066895e+00 -4.126405239105224609e+00
1.746000000000000000e+03 1.981043624877929688e+01 2.216777324676513672e+00 3.797539949417114258e+00 6.202339172363281250e+00 2.999963760375976562e+00 -5.736821174621582031e+00
1.747000000000000000e+03 1.859517860412597656e+01 2.707608699798583984e+00 1.170350790023803711e+00 7.846249103546142578e+00 2.704979896545410156e+00 -6.402693748474121094e+00
1.748000000000000000e+03 1.882228469848632812e+01 2.450623750686645508e+00 1.441004872322082520e+00 7.925701618194580078e+00 2.810011863708496094e+00 -6.826070785522460938e+00
1.749000000000000000e+03 2.040040397644042969e+01 2.086432218551635742e+00 3.277498960494995117e+00 5.167148590087890625e+00 2.533394336700439453e+00 -4.587553977966308594e+00
1.750000000000000000e+03 2.009453392028808594e+01 7.582779884338378906e+00 -2.909619092941284180e+00 2.614297628402709961e+00 -8.859641104936599731e-02 1.823707342147827148e+00
1.751000000000000000e+03 2.063900947570800781e+01 5.782433509826660156e+00 1.681019425392150879e+00 9.450920820236206055e-01 7.878334522247314453e-01 2.476289749145507812e+00
1.752000000000000000e+03 1.808905792236328125e+01 6.379827499389648438e+00 -3.985269069671630859e+00 4.394814491271972656e+00 1.228635907173156738e-01 4.460051953792572021e-01
1.753000000000000000e+03 1.661914443969726562e+01 4.323207855224609375e+00 1.037763404846191406e+01 -1.545607924461364746e+00 2.649607896804809570e+00 2.979388535022735596e-01
1.754000000000000000e+03 1.595575046539306641e+01 4.504045009613037109e+00 7.460469245910644531e+00 -3.436937570571899414e+00 1.207059502601623535e+00 -1.227527379989624023e+00
1.755000000000000000e+03 1.763216018676757812e+01 6.575958251953125000e+00 -4.634974002838134766e+00 3.083184480667114258e+00 -4.655368328094482422e-01 -1.398472070693969727e+00
1.756000000000000000e+03 1.616307449340820312e+01 3.506265163421630859e+00 9.890293121337890625e+00 -2.126104831695556641e-01 2.903304815292358398e+00 1.872949242591857910e+00
1.757000000000000000e+03 1.611158752441406250e+01 4.211078643798828125e+00 8.907835006713867188e+00 -2.685547113418579102e+00 1.866686463356018066e+00 -2.941653132438659668e-01
1.758000000000000000e+03 1.422422504425048828e+01 4.191278934478759766e+00 5.884235382080078125e+00 -4.786613464355468750e+00 3.292866051197052002e-01 -1.766785740852355957e+00
1.759000000000000000e+03 1.323152065277099609e+01 3.291911363601684570e+00 6.211109638214111328e+00 -1.564290761947631836e+00 1.394045710563659668e+00 -3.779343843460083008e+00
1.760000000000000000e+03 3.746432876586914062e+01 1.394607353210449219e+01 -2.227175474166870117e+00 9.516353160142898560e-02 -6.396036148071289062e-01 5.236283540725708008e-01
1.761000000000000000e+03 2.196472930908203125e+01 7.054445743560791016e+00 -9.706960916519165039e-01 1.517462372779846191e+00 1.640298962593078613e-01 1.527636647224426270e+00
1.762000000000000000e+03 1.077903079986572266e+01 -3.297282695770263672e+00 -9.312034398317337036e-02 1.629084348678588867e-02 -2.304884977638721466e-02 -9.510444477200508118e-03
1.763000000000000000e+03 9.493123054504394531e+00 -2.500295639038085938e+00 -6.467422097921371460e-02 1.491745747625827789e-02 -1.492702774703502655e-02 -1.266891509294509888e-02
1.764000000000000000e+03 1.044863128662109375e+01 3.825564384460449219e+00 5.931156158447265625e+00 4.658171176910400391e+00 3.176798105239868164e+00 -7.971313595771789551e-01
1.765000000000000000e+03 1.136759281158447266e+01 2.616770505905151367e+00 1.658136367797851562e+00 2.932222127914428711e+00 1.377107501029968262e+00 -2.672501325607299805e+00
1.766000000000000000e+03 9.173516273498535156e+00 3.071813821792602539e+00 2.193097352981567383e+00 1.896720886230468750e+00 1.226945519447326660e+00 7.887256145477294922e-01
1.767000000000000000e+03 1.246448135375976562e+01 3.099808931350708008e+00 3.110898017883300781e+00 2.848691940307617188e-01 1.018730163574218750e+00 -3.305974721908569336e+00
1.768000000000000000e+03 1.218492126464843750e+01 3.795664548873901367e+00 7.166275501251220703e+00 1.949582934379577637e+00 2.734757661819458008e+00 -3.969485044479370117e+00
1.769000000000000000e+03 2.251724052429199219e+01 3.356503546237945557e-01 2.994016408920288086e+00 3.745599746704101562e+00 2.021884918212890625e+00 -4.190532207489013672e+00
1.770000000000000000e+03 1.296188926696777344e+01 -3.632841348648071289e+00 -1.097618639469146729e-01 3.326694667339324951e-02 -2.294847555458545685e-02 1.837039366364479065e-02
1.771000000000000000e+03 6.113276958465576172e+00 -4.269996643066406250e+00 -4.613198339939117432e-02 -5.830017384141683578e-03 -1.558860018849372864e-02 -4.075204208493232727e-02
1.772000000000000000e+03 4.244787216186523438e+00 -3.751571893692016602e+00 -1.926013641059398651e-02 -1.108917500823736191e-02 -9.104792959988117218e-03 -2.793256565928459167e-02
1.773000000000000000e+03 2.139086484909057617e+00 -2.816204786300659180e+00 -5.792439915239810944e-03 -1.088239438831806183e-02 -5.002450197935104370e-03 -1.046571135520935059e-02
1.774000000000000000e+03 3.377309083938598633e+00 -3.614907979965209961e+00 -1.922809891402721405e-02 -1.416108012199401855e-02 -1.001675333827733994e-02 -1.971830986440181732e-02
1.775000000000000000e+03 9.970979690551757812e+00 -3.837018728256225586e+00 -9.258344769477844238e-02 1.777574606239795685e-02 -2.244230918586254120e-02 -2.326166257262229919e-02
1.776000000000000000e+03 7.314124107360839844e+00 -2.564023256301879883e+00 -4.879043996334075928e-02 1.200212955154711381e-05 -1.463353168219327927e-02 -2.290194481611251831e-02
1.777000000000000000e+03 5.404435157775878906e+00 -4.481339454650878906e+00 -3.575018420815467834e-02 -1.031104661524295807e-02 -1.381836924701929092e-02 -3.758490830659866333e-02
1.778000000000000000e+03 8.077354431152343750e+00 -3.236417055130004883e+00 -6.250800192356109619e-02 5.145418923348188400e-03 -1.720877364277839661e-02 -2.788362279534339905e-02
1.779000000000000000e+03 8.769228935241699219e+00 -3.189027547836303711e+00 -6.452751904726028442e-02 1.407087035477161407e-02 -1.513699628412723541e-02 -2.247303538024425507e-02
1.780000000000000000e+03 6.577210903167724609e+00 2.836343050003051758e+00 7.247291207313537598e-01 -4.089413285255432129e-01 9.473633021116256714e-02 1.258737802505493164e+00
1.781000000000000000e+03 5.885564327239990234e+00 4.241056442260742188e+00 1.780998587608337402e+00 -3.921788334846496582e-01 4.166459441184997559e-01 2.988490164279937744e-01
1.782000000000000000e+03 2.402246952056884766e+00 4.289940357208251953e+00 3.031581938266754150e-01 -4.747936725616455078e-01 -5.149064585566520691e-02 3.578470349311828613e-01
1.783000000000000000e+03 7.422662734985351562e+00 3.023332118988037109e+00 1.550515770912170410e+00 5.143076926469802856e-02 4.805839359760284424e-01 1.084747314453125000e+00
1.784000000000000000e+03 2.795618057250976562e+00 2.927412033081054688e+00 2.487022057175636292e-02 -3.129416108131408691e-01 -8.642142266035079956e-02 5.980666279792785645e-01
1.785000000000000000e+03 3.028255939483642578e+00 3.743393898010253906e+00 3.616632521152496338e-01 -5.724233984947204590e-01 -6.322804093360900879e-02 5.640360116958618164e-01
1.786000000000000000e+03 6.512658119201660156e+00 3.585968255996704102e+00 1.774283885955810547e+00 -4.286192655563354492e-01 4.036993980407714844e-01 7.599729895591735840e-01
1.787000000000000000e+03 4.897976875305175781e+00 4.920044422149658203e+00 1.407530546188354492e+00 -3.752101659774780273e-01 3.096961379051208496e-01 6.519402377307415009e-03
1.788000000000000000e+03 8.483652114868164062e+00 4.308237552642822266e+00 4.846070289611816406e+00 1.294128775596618652e+00 1.842059731483459473e+00 -3.461252152919769287e-01
1.789000000000000000e+03 3.523986101150512695e+00 2.783441781997680664e+00 5.669406801462173462e-02 -4.360514581203460693e-01 -1.138072162866592407e-01 7.938281297683715820e-01
1.790000000000000000e+03 4.263793945312500000e+00 3.526954889297485352e+00 5.148234963417053223e-01 -5.120195150375366211e-01 8.411910966970026493e-04 7.681043744087219238e-01
1.791000000000000000e+03 8.646572113037109375e+00 5.559511184692382812e+00 4.205993652343750000e+00 1.969540119171142578e+00 1.852660179138183594e+00 -1.931910872459411621e+00
1.792000000000000000e+03 9.446327209472656250e+00 4.142861843109130859e+00 6.354221820831298828e+00 2.342442750930786133e+00 2.608999490737915039e+00 -3.361986577510833740e-01
1.793000000000000000e+03 4.136899566650390625e+01 1.434195232391357422e+01 -1.765426039695739746e+00 5.888070464134216309e-01 -3.529857099056243896e-01 -5.993957072496414185e-02
1.794000000000000000e+03 3.852676773071289062e+01 1.445449352264404297e+01 -2.220775127410888672e+00 4.356169700622558594e-01 -5.355474352836608887e-01 3.569567203521728516e-01
1.795000000000000000e+03 4.113401794433593750e+01 1.517052459716796875e+01 -1.880751729011535645e+00 6.453045606613159180e-01 -3.706341683864593506e-01 -8.240924030542373657e-02
1.796000000000000000e+03 4.228589248657226562e+01 1.343818092346191406e+01 -1.599850893020629883e+00 4.548142254352569580e-01 -3.435110151767730713e-01 -1.989563554525375366e-01
1.797000000000000000e+03 4.214491271972656250e+01 1.448516178131103516e+01 -1.793898105621337891e+00 5.866979956626892090e-01 -3.621600270271301270e-01 -1.605363786220550537e-01
1.798000000000000000e+03 4.021672439575195312e+01 1.551784896850585938e+01 -1.934234738349914551e+00 6.312683224678039551e-01 -3.908899426460266113e-01 -5.308930948376655579e-02
1.799000000000000000e+03 3.919054412841796875e+01 1.364546680450439453e+01 -1.728229761123657227e+00 3.491638600826263428e-01 -4.137197732925415039e-01 3.580243885517120361e-01
1.800000000000000000e+03 3.991412734985351562e+01 1.430830097198486328e+01 -1.866135597229003906e+00 5.353761911392211914e-01 -3.992278277873992920e-01 1.260910630226135254e-01
1.801000000000000000e+03 1.319598388671875000e+01 -2.814640045166015625e+00 -9.591370075941085815e-02 9.649825282394886017e-03 -2.587916329503059387e-02 2.073309756815433502e-02
1.802000000000000000e+03 1.471193122863769531e+01 4.846897602081298828e+00 3.564636230468750000e+00 -4.180286884307861328e+00 -1.846952140331268311e-01 -2.602846622467041016e+00
1.803000000000000000e+03 1.521495628356933594e+01 3.600817918777465820e+00 8.119475364685058594e+00 -2.762092351913452148e+00 1.607214808464050293e+00 -1.092329740524291992e+00
1.804000000000000000e+03 2.439425468444824219e+01 3.301256299018859863e-01 1.517408847808837891e+00 -2.032902091741561890e-01 3.942356109619140625e-01 -1.954224705696105957e+00
1.805000000000000000e+03 1.221229362487792969e+01 -3.515615463256835938e+00 -1.122753322124481201e-01 2.100849151611328125e-02 -2.738005295395851135e-02 6.152754649519920349e-03
1.806000000000000000e+03 1.268797397613525391e+01 -4.458639621734619141e+00 -1.483370661735534668e-01 3.498140349984169006e-02 -3.400669991970062256e-02 4.504503216594457626e-03
1.807000000000000000e+03 7.087135314941406250e+01 1.142090129852294922e+01 1.296715497970581055e+00 3.742503643035888672e+00 1.511765718460083008e+00 1.291916012763977051e+00
1.808000000000000000e+03 6.966683197021484375e+01 1.135784244537353516e+01 1.744816780090332031e+00 6.289036273956298828e+00 2.410155773162841797e+00 1.539130568504333496e+00
1.809000000000000000e+03 3.813385009765625000e+01 7.103064537048339844e+00 -2.082251757383346558e-02 -1.023652106523513794e-01 -3.695631772279739380e-02 2.226432412862777710e-02
1.810000000000000000e+03 2.163735771179199219e+01 1.219472169876098633e+00 1.790196299552917480e+00 3.934137344360351562e+00 1.717300057411193848e+00 -3.384156465530395508e+00
1.811000000000000000e+03 2.025949859619140625e+01 1.206336021423339844e+00 5.839830875396728516e+00 7.367945194244384766e+00 3.962332963943481445e+00 -6.467871665954589844e+00
1.812000000000000000e+03 7.803236389160156250e+01 -1.134977102279663086e+00 -4.074769318103790283e-01 1.048027610778808594e+01 3.021839618682861328e+00 6.708690524101257324e-01
1.813000000000000000e+03 7.650412750244140625e+01 6.839298605918884277e-01 -2.561270236968994141e+00 8.343478202819824219e+00 1.734662413597106934e+00 -9.939662367105484009e-02
1.814000000000000000e+03 6.035260009765625000e+01 1.681524276733398438e+01 1.160358428955078125e+00 2.930135726928710938e+00 1.227148175239562988e+00 1.064908146858215332e+00
1.815000000000000000e+03 2.553787994384765625e+01 9.848810195922851562e+00 -2.305860519409179688e+00 1.353500366210937500e+00 -2.857080399990081787e-01 -6.402279734611511230e-01
1.816000000000000000e+03 2.443450546264648438e+01 1.000393009185791016e+01 -2.051960468292236328e+00 2.762013435363769531e+00 2.130158692598342896e-01 1.824090778827667236e-01
1.817000000000000000e+03 2.284189796447753906e+01 6.604742527008056641e+00 -2.827948331832885742e-01 1.007763385772705078e+00 2.174905538558959961e-01 8.881188035011291504e-01
1.818000000000000000e+03 2.379023551940917969e+01 7.182424068450927734e+00 -1.102974891662597656e+00 1.002463459968566895e+00 -3.015342727303504944e-02 1.652339100837707520e-01
1.819000000000000000e+03 7.047071075439453125e+01 -1.185792684555053711e+00 -2.723449230194091797e+00 4.850247859954833984e+00 6.380395889282226562e-01 -3.212913036346435547e+00
1.820000000000000000e+03 6.896121215820312500e+01 6.570170521736145020e-01 -1.738248586654663086e+00 8.594963073730468750e+00 2.057014226913452148e+00 -1.501953125000000000e+00
1.821000000000000000e+03 3.291546630859375000e+01 1.878981971740722656e+01 -8.356563448905944824e-01 -6.608299612998962402e-01 -4.489458799362182617e-01 3.491879701614379883e-01
1.822000000000000000e+03 3.301278305053710938e+01 1.659480285644531250e+01 -1.641145467758178711e+00 -1.175920009613037109e+00 -8.451196551322937012e-01 -7.435125112533569336e-02
1.823000000000000000e+03 6.186085891723632812e+01 1.147347927093505859e+00 -2.725571870803833008e+00 4.107473850250244141e+00 4.145706295967102051e-01 2.201706886291503906e+00
1.824000000000000000e+03 6.283182907104492188e+01 -1.293322920799255371e+00 -3.739472389221191406e+00 7.876829624176025391e+00 1.241207122802734375e+00 2.364614963531494141e+00
1.825000000000000000e+03 4.926755905151367188e+01 -1.954400825500488281e+01 -3.313433825969696045e-01 9.425189495086669922e-01 1.833526641130447388e-01 -4.091435074806213379e-01
1.826000000000000000e+03 7.471899414062500000e+01 -1.422298526763916016e+01 1.251388549804687500e+00 9.490983009338378906e+00 3.222711324691772461e+00 8.703477680683135986e-02
1.827000000000000000e+03 5.283902359008789062e+01 8.672484397888183594e+00 6.537333726882934570e-01 1.343631649017333984e+01 4.227015018463134766e+00 5.213379859924316406e-01
1.828000000000000000e+03 5.487636947631835938e+01 9.540535926818847656e+00 7.863043546676635742e-01 8.177219390869140625e+00 2.689057111740112305e+00 1.648215055465698242e+00
1.829000000000000000e+03 6.839646911621093750e+01 1.581717967987060547e+00 -1.693293452262878418e-01 8.605085372924804688e+00 2.530726909637451172e+00 4.946776926517486572e-01
1.830000000000000000e+03 4.666281890869140625e+01 -1.740514183044433594e+01 -3.766183555126190186e-01 1.937669515609741211e+00 4.683153331279754639e-01 -5.827624201774597168e-01
1.831000000000000000e+03 4.780340957641601562e+01 -1.709218788146972656e+01 -5.568127036094665527e-01 1.120135068893432617e+00 1.689967215061187744e-01 8.598710596561431885e-02
1.832000000000000000e+03 3.006222724914550781e+01 -1.062040233612060547e+01 3.682288229465484619e-01 1.828472733497619629e+00 6.590104699134826660e-01 -1.159804821014404297e+00
1.833000000000000000e+03 2.950315284729003906e+01 1.602391600608825684e+00 3.100109994411468506e-01 1.577627778053283691e+00 5.662916302680969238e-01 -6.390199065208435059e-02
1.834000000000000000e+03 3.722058105468750000e+01 1.084041714668273926e+00 4.701196253299713135e-01 -1.502297520637512207e+00 -3.096533715724945068e-01 -1.315452009439468384e-01
1.835000000000000000e+03 4.473326110839843750e+01 -1.386887836456298828e+01 -5.026947855949401855e-01 4.382748603820800781e+00 1.164016127586364746e+00 9.088727831840515137e-01
1.836000000000000000e+03 4.320157241821289062e+01 -1.372232151031494141e+01 7.231471538543701172e-01 5.547135353088378906e+00 1.881084680557250977e+00 1.877779364585876465e+00
1.837000000000000000e+03 4.771881484985351562e+01 3.301042556762695312e+00 3.136028766632080078e+00 4.203157901763916016e+00 2.201756000518798828e+00 3.319664239883422852e+00
1.838000000000000000e+03 7.045592784881591797e+00 4.416186332702636719e+00 2.690584421157836914e+00 -4.546976089477539062e-02 7.935343980789184570e-01 -3.006247580051422119e-01
1.839000000000000000e+03 9.758437156677246094e+00 5.239339351654052734e+00 6.580086708068847656e+00 6.284852981567382812e+00 3.859482049942016602e+00 -3.724702835083007812e+00
1.840000000000000000e+03 2.584291076660156250e+01 1.683831214904785156e+01 -1.020042300224304199e+00 5.058207511901855469e+00 1.211449623107910156e+00 7.459644079208374023e-01
1.841000000000000000e+03 3.307781600952148438e+01 -1.532641601562500000e+01 5.863537639379501343e-02 1.486409544944763184e+00 4.635134935379028320e-01 -6.430473327636718750e-01
1.842000000000000000e+03 7.460135650634765625e+01 1.305201721191406250e+01 8.204174637794494629e-01 5.169914245605468750e+00 1.797099590301513672e+00 -1.358021378517150879e+00
1.843000000000000000e+03 4.095492172241210938e+01 -2.231086492538452148e+00 1.683620214462280273e+00 2.095170974731445312e+00 1.133637309074401855e+00 -5.400216579437255859e-01
1.844000000000000000e+03 6.871550750732421875e+01 -1.748393440246582031e+01 4.004582166671752930e-01 1.465725183486938477e+00 5.598550438880920410e-01 4.434536099433898926e-01
1.845000000000000000e+03 7.073261260986328125e+01 -1.820810127258300781e+01 -1.029802262783050537e-01 4.030282974243164062e+00 1.178190827369689941e+00 2.185736656188964844e+00
1.846000000000000000e+03 6.742195129394531250e+01 -1.357940912246704102e+00 -2.640984058380126953e+00 3.511610269546508789e+00 2.611879110336303711e-01 -3.168581426143646240e-01
1.847000000000000000e+03 6.597306060791015625e+01 4.072651863098144531e-01 -1.047382473945617676e+00 3.175138950347900391e+00 6.383269429206848145e-01 2.920374393463134766e+00
1.848000000000000000e+03 6.458164215087890625e+01 3.593501567840576172e+00 -2.744771242141723633e-01 5.202704906463623047e+00 1.478468298912048340e+00 2.022275447845458984e+00
1.849000000000000000e+03 7.330361175537109375e+01 -1.552459812164306641e+01 6.194626688957214355e-01 8.909227371215820312e+00 2.858607053756713867e+00 -2.333635389804840088e-01
1.850000000000000000e+03 3.589207077026367188e+01 4.191293239593505859e+00 -2.828151881694793701e-01 2.472478896379470825e-02 -7.742711901664733887e-02 6.490836739540100098e-01
1.851000000000000000e+03 6.376339721679687500e+01 -1.407677173614501953e+01 -4.971751868724822998e-01 5.181797027587890625e+00 1.405386567115783691e+00 -6.268115639686584473e-01
1.852000000000000000e+03 6.431081390380859375e+01 -1.588059234619140625e+01 -1.926536560058593750e-01 4.527232646942138672e+00 1.300373673439025879e+00 -1.077252864837646484e+00
1.853000000000000000e+03 5.699511718750000000e+01 1.381822681427001953e+01 1.519947648048400879e+00 4.086695671081542969e+00 1.681993007659912109e+00 2.745360374450683594e+00
1.854000000000000000e+03 5.630885314941406250e+01 -2.066458129882812500e+01 -1.789966821670532227e+00 7.990990638732910156e+00 1.860307097434997559e+00 1.700063943862915039e+00
1.855000000000000000e+03 5.966772460937500000e+01 -2.238453292846679688e+01 -5.034402608871459961e-01 6.354749679565429688e+00 1.755392909049987793e+00 -5.127230882644653320e-01
1.856000000000000000e+03 1.477059555053710938e+01 3.962079048156738281e+00 6.150590419769287109e+00 -4.333564758300781250e+00 5.451077222824096680e-01 -2.002166032791137695e+00
1.857000000000000000e+03 1.931461143493652344e+01 1.808030509948730469e+01 -1.383113384246826172e+00 -3.247950077056884766e-01 -5.123724937438964844e-01 -2.684984505176544189e-01
1.858000000000000000e+03 1.939508247375488281e+01 1.654693222045898438e+01 -2.030372142791748047e+00 -3.431772589683532715e-01 -7.120648026466369629e-01 -7.317792177200317383e-01
1.859000000000000000e+03 2.089822387695312500e+01 -9.983321189880371094e+00 -6.514078378677368164e-01 2.028917707502841949e-02 -1.893355995416641235e-01 -2.435994567349553108e-03
1.860000000000000000e+03 6.840484619140625000e+01 1.149682331085205078e+01 1.953546404838562012e+00 8.645198822021484375e+00 3.179623603820800781e+00 1.480469107627868652e+00
1.861000000000000000e+03 6.188616561889648438e+01 4.858847707509994507e-02 -3.369668006896972656e+00 5.805861473083496094e+00 7.308580279350280762e-01 2.405993461608886719e+00
1.862000000000000000e+03 3.870499420166015625e+01 -1.596299171447753906e+00 1.648208856582641602e+00 -6.070498228073120117e-01 3.123477399349212646e-01 -6.536487936973571777e-01
1.863000000000000000e+03 7.657089996337890625e+01 -2.929287719726562500e+01 3.734074160456657410e-02 6.825596332550048828e+00 2.058881044387817383e+00 1.332502216100692749e-01
1.864000000000000000e+03 7.647406768798828125e+01 -2.502754592895507812e+01 -4.226201027631759644e-02 6.980889797210693359e+00 2.081588268280029297e+00 1.933829635381698608e-01
1.865000000000000000e+03 7.643960571289062500e+01 -2.646265411376953125e+01 2.478458173573017120e-02 6.907721042633056641e+00 2.079751729965209961e+00 1.854247748851776123e-01
1.866000000000000000e+03 7.665216064453125000e+01 -3.067306327819824219e+01 3.329328447580337524e-02 6.834477424621582031e+00 2.060331344604492188e+00 1.035354062914848328e-01
1.867000000000000000e+03 7.681694793701171875e+01 -3.192770195007324219e+01 3.096322901546955109e-02 6.820112228393554688e+00 2.055322647094726562e+00 9.736441075801849365e-02
1.868000000000000000e+03 7.668646240234375000e+01 -3.306827545166015625e+01 1.641113683581352234e-02 6.782461166381835938e+00 2.039661645889282227e+00 6.548257917165756226e-02
1.869000000000000000e+03 7.657408142089843750e+01 -2.358971214294433594e+01 -6.866345554590225220e-02 7.110577583312988281e+00 2.112574100494384766e+00 1.707585453987121582e-01
1.870000000000000000e+03 7.650216674804687500e+01 -2.788190460205078125e+01 2.080351673066616058e-02 6.862213134765625000e+00 2.064904928207397461e+00 1.650060713291168213e-01
1.871000000000000000e+03 7.648889160156250000e+01 -3.681037521362304688e+01 -4.298373125493526459e-03 6.758966445922851562e+00 2.026400327682495117e+00 4.454685375094413757e-02
1.872000000000000000e+03 7.668199157714843750e+01 2.532506370544433594e+01 -2.218927629292011261e-02 6.908359527587890625e+00 2.065851211547851562e+00 2.038240730762481689e-01
1.873000000000000000e+03 7.641178131103515625e+01 2.409459495544433594e+01 -5.538901314139366150e-03 6.854003429412841797e+00 2.054539442062377930e+00 2.120263725519180298e-01
1.874000000000000000e+03 7.702791595458984375e+01 1.703993988037109375e+01 1.926511377096176147e-01 6.622246742248535156e+00 2.044469356536865234e+00 -1.745750159025192261e-01
1.875000000000000000e+03 7.693501281738281250e+01 1.576441478729248047e+01 2.602472901344299316e-01 6.549277782440185547e+00 2.042857646942138672e+00 -3.096988201141357422e-01
1.876000000000000000e+03 7.523200988769531250e+01 2.727757644653320312e+01 -3.663910552859306335e-02 6.890427112579345703e+00 2.056136369705200195e+00 2.238701134920120239e-01
1.877000000000000000e+03 7.680350494384765625e+01 2.642728614807128906e+01 -1.581748016178607941e-02 6.965585708618164062e+00 2.084930419921875000e+00 1.778290569782257080e-01
1.878000000000000000e+03 7.671301269531250000e+01 1.435774707794189453e+01 5.056283995509147644e-02 6.856114387512207031e+00 2.072003126144409180e+00 -6.319016218185424805e-01
1.879000000000000000e+03 7.575590515136718750e+01 3.167786788940429688e+01 -2.776236645877361298e-02 7.021428585052490234e+00 2.098099946975708008e+00 1.468728333711624146e-01
1.880000000000000000e+03 7.830030822753906250e+01 9.931509971618652344e+00 -1.380034387111663818e-01 8.051930427551269531e+00 2.374178171157836914e+00 2.202328890562057495e-01
1.881000000000000000e+03 7.693859863281250000e+01 8.641715049743652344e+00 5.070149302482604980e-01 9.613391876220703125e+00 3.036122083663940430e+00 4.415095448493957520e-01
1.882000000000000000e+03 7.660191345214843750e+01 -1.779006958007812500e+01 -1.427781879901885986e-01 7.784844875335693359e+00 2.292619943618774414e+00 -3.482407331466674805e-01
1.883000000000000000e+03 7.612000274658203125e+01 -1.633902931213378906e+01 -9.094714373350143433e-02 8.113409042358398438e+00 2.406738519668579102e+00 -5.807744264602661133e-01
1.884000000000000000e+03 7.634352874755859375e+01 -1.446279525756835938e+01 6.552861928939819336e-01 8.075359344482421875e+00 2.619193792343139648e+00 -3.090025186538696289e-01
1.885000000000000000e+03 7.715787506103515625e+01 -1.558919048309326172e+01 2.320466637611389160e-01 7.643751144409179688e+00 2.362739324569702148e+00 -4.473555982112884521e-01
1.886000000000000000e+03 7.618084716796875000e+01 -7.230218887329101562e+00 1.858154386281967163e-01 8.446767807006835938e+00 2.589775085449218750e+00 1.590916633605957031e+00
1.887000000000000000e+03 7.583743286132812500e+01 -8.248024940490722656e+00 4.284334778785705566e-01 8.485917091369628906e+00 2.674305200576782227e+00 1.503817915916442871e+00
1.888000000000000000e+03 7.650277709960937500e+01 -5.983657836914062500e+00 -8.648192882537841797e-02 8.296832084655761719e+00 2.463104963302612305e+00 1.580991744995117188e+00
1.889000000000000000e+03 7.750007629394531250e+01 1.048500061035156250e+00 -1.522292613983154297e+00 1.027373218536376953e+01 2.625432014465332031e+00 -6.296449899673461914e-01
1.890000000000000000e+03 7.657495880126953125e+01 1.922143936157226562e+01 1.176555901765823364e-01 6.624620914459228516e+00 2.022682905197143555e+00 8.583460748195648193e-02
1.891000000000000000e+03 7.779264068603515625e+01 1.960671424865722656e+01 1.006296575069427490e-01 6.682647228240966797e+00 2.034983158111572266e+00 6.744956970214843750e-02
1.892000000000000000e+03 7.629421234130859375e+01 2.269297409057617188e+01 1.088481117039918900e-02 6.791506290435791016e+00 2.040717363357543945e+00 2.189980596303939819e-01
1.893000000000000000e+03 7.760556030273437500e+01 7.711541175842285156e+00 1.708318710327148438e+00 9.331565856933593750e+00 3.311965465545654297e+00 -2.336073368787765503e-01
1.894000000000000000e+03 7.685337066650390625e+01 3.457434654235839844e+00 -5.682256221771240234e-01 1.085735034942626953e+01 3.086737394332885742e+00 -1.766670584678649902e+00
1.895000000000000000e+03 7.729147338867187500e+01 -3.209432125091552734e+00 -2.501857876777648926e-01 8.912007331848144531e+00 2.598546504974365234e+00 1.373760104179382324e+00
1.896000000000000000e+03 7.701059722900390625e+01 -9.485619544982910156e+00 4.219102263450622559e-01 8.182815551757812500e+00 2.581417798995971680e+00 1.240169048309326172e+00
1.897000000000000000e+03 7.582393646240234375e+01 -9.458218574523925781e+00 6.737815141677856445e-01 8.409424781799316406e+00 2.724961996078491211e+00 1.288585424423217773e+00
1.898000000000000000e+03 7.673802185058593750e+01 -1.931100082397460938e+01 -3.772727549076080322e-01 7.522819519042968750e+00 2.143664121627807617e+00 -2.605118453502655029e-01
1.899000000000000000e+03 7.674337005615234375e+01 -2.075265502929687500e+01 -1.937620788812637329e-01 7.420511245727539062e+00 2.168024778366088867e+00 -3.458644496276974678e-03
1.900000000000000000e+03 7.691017913818359375e+01 4.392208099365234375e+00 5.211949348449707031e-01 1.177570247650146484e+01 3.689069271087646484e+00 -1.918311595916748047e+00
1.901000000000000000e+03 7.550149536132812500e+01 -3.602739334106445312e+00 -4.693865180015563965e-01 7.051103115081787109e+00 1.974515080451965332e+00 1.172902464866638184e+00
1.902000000000000000e+03 5.090567779541015625e+01 5.294111728668212891e+00 2.337534189224243164e+00 1.072124004364013672e+01 3.917632102966308594e+00 7.300591468811035156e-01
1.903000000000000000e+03 3.751709365844726562e+01 -3.261320352554321289e+00 1.052254557609558105e+00 -1.822106599807739258e+00 -2.309556156396865845e-01 1.025938149541616440e-02
1.904000000000000000e+03 3.720888900756835938e+01 -6.496744751930236816e-01 1.741386532783508301e+00 -1.663626909255981445e+00 2.332786843180656433e-02 -2.841953635215759277e-01
1.905000000000000000e+03 5.932328796386718750e+01 6.173647642135620117e-01 -3.542500257492065430e+00 1.641490578651428223e+00 -5.703028440475463867e-01 -1.426930427551269531e-01
1.906000000000000000e+03 6.126513290405273438e+01 -2.512042284011840820e+00 3.080932796001434326e-01 7.311637878417968750e+00 2.285919427871704102e+00 3.490946590900421143e-01
1.907000000000000000e+03 4.546575927734375000e+01 -1.442998051643371582e-01 4.041542708873748779e-01 5.145919799804687500e+00 1.665022253990173340e+00 4.940399646759033203e+00
1.908000000000000000e+03 2.381204032897949219e+01 -1.825359225273132324e+00 4.757871150970458984e+00 3.717893838882446289e+00 2.542729616165161133e+00 -4.330352783203125000e+00
1.909000000000000000e+03 1.669199180603027344e+01 -5.536599636077880859e+00 -2.585969567298889160e-01 -1.247646566480398178e-02 -8.132202178239822388e-02 9.206512570381164551e-02
1.910000000000000000e+03 3.250111818313598633e+00 3.174220085144042969e+01 1.000575534999370575e-02 1.218920230865478516e+00 3.686777949333190918e-01 1.262908428907394409e-01
1.911000000000000000e+03 3.375102281570434570e+00 3.290276718139648438e+01 1.746167615056037903e-02 1.168501496315002441e+00 3.557889461517333984e-01 1.252893954515457153e-01
1.912000000000000000e+03 3.374969720840454102e+00 2.475692367553710938e+01 -2.436915040016174316e-02 1.367619276046752930e+00 4.029750227928161621e-01 1.115675345063209534e-01
1.913000000000000000e+03 3.469549894332885742e+00 2.617683601379394531e+01 -3.332533687353134155e-02 1.335736155509948730e+00 3.907232284545898438e-01 1.131142675876617432e-01
1.914000000000000000e+03 3.541255235671997070e+00 3.670718383789062500e+01 1.644059643149375916e-02 1.091431260108947754e+00 3.323615491390228271e-01 8.230186253786087036e-02
1.915000000000000000e+03 3.530062675476074219e+00 2.761935997009277344e+01 2.470910549163818359e-04 1.294323682785034180e+00 3.883712291717529297e-01 1.472995132207870483e-01
1.916000000000000000e+03 3.522094249725341797e+00 2.906489944458007812e+01 -4.386811517179012299e-03 1.262230873107910156e+00 3.773532211780548096e-01 1.301540881395339966e-01
1.917000000000000000e+03 3.422809362411499023e+00 3.046736335754394531e+01 9.255097247660160065e-03 1.245987772941589355e+00 3.765728473663330078e-01 1.429834216833114624e-01
1.918000000000000000e+03 4.186306953430175781e+00 -2.722803306579589844e+01 5.199687555432319641e-03 -3.997057676315307617e-01 -1.183518245816230774e-01 -7.941757887601852417e-02
1.919000000000000000e+03 4.482863903045654297e+00 -3.029245567321777344e+01 1.185017544776201248e-02 -4.170613884925842285e-01 -1.215633675456047058e-01 -6.482934206724166870e-02
1.920000000000000000e+03 3.285940647125244141e+00 2.335445404052734375e+01 -7.434058189392089844e-02 1.404857635498046875e+00 3.991551101207733154e-01 5.122005939483642578e-02
1.921000000000000000e+03 3.532808542251586914e+00 -2.054981613159179688e+01 1.366335619240999222e-02 -3.273964226245880127e-01 -9.411992132663726807e-02 -1.025127694010734558e-01
1.922000000000000000e+03 3.572829008102416992e+00 -1.912117958068847656e+01 3.204101463779807091e-03 -2.941236793994903564e-01 -8.727587014436721802e-02 -1.108391061425209045e-01
1.923000000000000000e+03 3.394375801086425781e+00 -2.323970222473144531e+01 1.184259727597236633e-02 -3.965659141540527344e-01 -1.154169961810112000e-01 -8.317381143569946289e-02
1.924000000000000000e+03 3.468199014663696289e+00 -2.194502067565917969e+01 5.445413757115602493e-03 -3.663821220397949219e-01 -1.082810163497924805e-01 -9.624800086021423340e-02
1.925000000000000000e+03 1.857700347900390625e+00 -1.067338848114013672e+01 -2.010130789130926132e-03 -1.231247708201408386e-01 -3.754047304391860962e-02 -5.387320742011070251e-02
1.926000000000000000e+03 1.704260587692260742e+00 -6.617253303527832031e+00 -9.520381689071655273e-03 -4.362468048930168152e-02 -1.594351790845394135e-02 -2.502042241394519806e-02
1.927000000000000000e+03 2.138334035873413086e+00 -1.772437095642089844e+01 -1.426122034899890423e-03 -3.207299113273620605e-01 -9.664680808782577515e-02 -7.442579418420791626e-02
1.928000000000000000e+03 3.361941576004028320e+00 -1.338414955139160156e+01 -1.188904605805873871e-02 -1.634308248758316040e-01 -5.259596183896064758e-02 -1.007722169160842896e-01
1.929000000000000000e+03 3.239474773406982422e+00 -1.197878551483154297e+01 -6.841839291155338287e-03 -1.310548037290573120e-01 -4.136899486184120178e-02 -9.392569959163665771e-02
1.930000000000000000e+03 3.492044210433959961e+00 1.770765495300292969e+01 -2.142299413681030273e-01 1.313691139221191406e+00 3.298383653163909912e-01 -2.901354432106018066e-01
1.931000000000000000e+03 3.337177753448486328e+00 1.916076278686523438e+01 -1.180274635553359985e-01 1.369460225105285645e+00 3.754298388957977295e-01 -1.301658898591995239e-01
1.932000000000000000e+03 3.879177808761596680e+00 1.445418357849121094e+01 -3.245650827884674072e-01 1.148458838462829590e+00 2.471681237220764160e-01 -6.472077965736389160e-01
1.933000000000000000e+03 3.731557846069335938e+00 1.613942527770996094e+01 -2.222040891647338867e-01 1.212671041488647461e+00 2.971400618553161621e-01 -4.196570217609405518e-01
1.934000000000000000e+03 2.900461673736572266e+00 7.634540557861328125e+00 3.740614354610443115e-01 -1.685793697834014893e-01 6.164461746811866760e-02 -6.146115064620971680e-01
1.935000000000000000e+03 3.012838602066040039e+00 8.926959037780761719e+00 1.854663044214248657e-01 1.350807398557662964e-01 9.616411477327346802e-02 -7.581739425659179688e-01
1.936000000000000000e+03 2.917596578598022461e+00 -5.587249755859375000e+00 -1.858305931091308594e-02 -3.153124079108238220e-02 -1.503429003059864044e-02 -3.288101032376289368e-02
1.937000000000000000e+03 3.111823797225952148e+00 -1.061282634735107422e+01 -1.759204640984535217e-02 -1.068980321288108826e-01 -3.734702244400978088e-02 -7.768837362527847290e-02
1.938000000000000000e+03 3.772563934326171875e+00 -3.475439453125000000e+01 1.098188478499650955e-02 -5.198757052421569824e-01 -1.526681482791900635e-01 -3.212895616888999939e-02
1.939000000000000000e+03 3.142820119857788086e+00 -4.539866447448730469e+00 -1.032615546137094498e-02 -1.902631483972072601e-02 -8.805740624666213989e-03 -2.706365473568439484e-02
1.940000000000000000e+03 3.657728433609008789e+00 -2.438173484802246094e+01 1.653821673244237900e-03 -3.920157849788665771e-01 -1.171085909008979797e-01 -8.813120424747467041e-02
1.941000000000000000e+03 3.472352743148803711e+00 -1.481326293945312500e+01 -7.213540957309305668e-04 -1.911477744579315186e-01 -5.756073817610740662e-02 -1.100172773003578186e-01
1.942000000000000000e+03 2.874845266342163086e+00 -8.013954162597656250e+00 -1.889519579708576202e-02 -6.166239455342292786e-02 -2.416727691888809204e-02 -5.254960432648658752e-02
1.943000000000000000e+03 3.914660930633544922e+00 -6.884107589721679688e+00 -3.017243184149265289e-02 -3.824538737535476685e-02 -2.052534557878971100e-02 -5.586328357458114624e-02
1.944000000000000000e+03 2.927935361862182617e+00 6.265703678131103516e+00 5.527622699737548828e-01 -4.036268889904022217e-01 4.474062472581863403e-02 -1.766585111618041992e-01
1.945000000000000000e+03 3.725546598434448242e+00 1.288590431213378906e+01 -1.963894367218017578e-01 9.638760089874267578e-01 2.302459627389907837e-01 -8.248299360275268555e-01
1.946000000000000000e+03 3.580366373062133789e+00 -1.768155670166015625e+01 7.000121753662824631e-03 -2.566092014312744141e-01 -7.488271594047546387e-02 -1.121079251170158386e-01
1.947000000000000000e+03 3.255156993865966797e+00 2.056640625000000000e+01 -1.272861361503601074e-01 1.406945347785949707e+00 3.838977515697479248e-01 -7.494070380926132202e-02
1.948000000000000000e+03 3.239490747451782227e+00 2.195794677734375000e+01 -6.227419152855873108e-02 1.414974093437194824e+00 4.058099687099456787e-01 2.514231018722057343e-02
1.949000000000000000e+03 3.197905778884887695e+00 1.020831966400146484e+01 7.103737443685531616e-02 4.517139792442321777e-01 1.568254083395004272e-01 -9.349508285522460938e-01
1.950000000000000000e+03 3.435921430587768555e+00 1.151382446289062500e+01 -1.549573838710784912e-01 7.532777786254882812e-01 1.794961243867874146e-01 -8.838080167770385742e-01
1.951000000000000000e+03 3.431206512451171875e+01 1.989735007286071777e+00 1.199484467506408691e+00 5.301178898662328720e-03 3.614356815814971924e-01 1.505644679069519043e+00
1.952000000000000000e+03 5.351974487304687500e+01 6.765383243560791016e+00 6.489565968513488770e-02 1.367757987976074219e+01 4.122742652893066406e+00 7.814113497734069824e-01
1.953000000000000000e+03 5.046112823486328125e+01 1.767987632751464844e+01 -1.706650853157043457e+00 8.446125030517578125e+00 2.021842241287231445e+00 -2.326361179351806641e+00
1.954000000000000000e+03 4.701045989990234375e+01 1.819958114624023438e+01 -2.958004176616668701e-01 1.747427105903625488e+00 4.354880154132843018e-01 -1.711765646934509277e+00
1.955000000000000000e+03 5.912416076660156250e+01 -1.118504905700683594e+01 4.233798384666442871e-01 8.805683135986328125e+00 2.768718957901000977e+00 6.386922001838684082e-01
1.956000000000000000e+03 6.420745086669921875e+01 1.584557652473449707e+00 -1.239701271057128906e+00 5.208224773406982422e+00 1.190557003021240234e+00 3.066605567932128906e+00
1.957000000000000000e+03 5.338453292846679688e+01 -5.974830627441406250e+00 -1.271363377571105957e+00 4.074419498443603516e+00 8.409168124198913574e-01 -1.086233019828796387e+00
1.958000000000000000e+03 4.542484664916992188e+01 -1.571001338958740234e+01 1.299641579389572144e-01 3.214195489883422852e+00 1.003247857093811035e+00 1.402045339345932007e-01
1.959000000000000000e+03 4.023914718627929688e+01 -1.912862014770507812e+01 -1.137897148728370667e-01 4.872594833374023438e+00 1.427641510963439941e+00 1.219422698020935059e+00
1.960000000000000000e+03 9.269042968750000000e+00 1.083350753784179688e+01 -1.001464486122131348e+00 1.830934047698974609e+00 2.488408535718917847e-01 -6.576821804046630859e-01
1.961000000000000000e+03 2.697334098815917969e+01 -8.931958675384521484e-01 2.869216918945312500e+00 -1.262618452310562134e-01 8.228865265846252441e-01 9.857445955276489258e-01
1.962000000000000000e+03 4.445222473144531250e+01 -9.888241767883300781e+00 -9.675002098083496094e-01 7.064422130584716797e+00 1.829076647758483887e+00 1.150183320045471191e+00
1.963000000000000000e+03 6.661447143554687500e+01 -4.870042800903320312e-01 -1.636602282524108887e+00 3.069171190261840820e+00 4.297707080841064453e-01 1.649020671844482422e+00
1.964000000000000000e+03 5.426938247680664062e+01 -5.252388477325439453e+00 -1.918615460395812988e+00 5.504149913787841797e+00 1.075660347938537598e+00 -1.622024416923522949e+00
1.965000000000000000e+03 2.329368209838867188e+01 5.475903153419494629e-01 2.624763727188110352e+00 1.156738877296447754e+00 1.134450793266296387e+00 -3.026969432830810547e+00
1.966000000000000000e+03 2.377718162536621094e+01 -2.193467020988464355e-01 2.882202863693237305e+00 9.215947389602661133e-01 1.141139268875122070e+00 -2.739789724349975586e+00
1.967000000000000000e+03 3.217468643188476562e+01 3.385142326354980469e+00 -1.696070790290832520e+00 1.121709942817687988e+00 -1.723082512617111206e-01 8.330690860748291016e-01
1.968000000000000000e+03 5.927994918823242188e+01 -1.708006668090820312e+01 1.283397078514099121e+00 8.746002197265625000e+00 3.008819818496704102e+00 -5.658524036407470703e-01
1.969000000000000000e+03 5.886871719360351562e+01 -1.613506507873535156e+01 1.115813136100769043e+00 9.418412208557128906e+00 3.160267591476440430e+00 -4.017783701419830322e-01
1.970000000000000000e+03 6.957517242431640625e+01 8.856032371520996094e+00 -1.223955988883972168e+00 7.351370334625244141e+00 1.838224291801452637e+00 5.308669209480285645e-01
1.971000000000000000e+03 6.711596679687500000e+01 1.178041267395019531e+01 3.849231243133544922e+00 1.224692153930664062e+01 4.828845977783203125e+00 6.170580983161926270e-01
1.972000000000000000e+03 5.143497848510742188e+01 7.685596466064453125e+00 6.398958563804626465e-01 1.333994483947753906e+01 4.193952083587646484e+00 9.291395545005798340e-01
1.973000000000000000e+03 7.093047332763671875e+01 -3.907746553421020508e+00 -1.708362460136413574e+00 4.471849918365478516e+00 8.290461897850036621e-01 -1.336266160011291504e+00
1.974000000000000000e+03 7.012454986572265625e+01 -2.824406147003173828e+00 -3.113286495208740234e+00 4.309609413146972656e+00 3.588968813419342041e-01 -1.862978577613830566e+00
1.975000000000000000e+03 5.810429382324218750e+01 1.488249683380126953e+01 1.053815722465515137e+00 3.452293634414672852e+00 1.351832866668701172e+00 2.434370279312133789e+00
1.976000000000000000e+03 3.801629257202148438e+01 7.997339248657226562e+00 -1.382700633257627487e-02 2.789943944662809372e-03 -3.311118809506297112e-03 2.297512441873550415e-02
1.977000000000000000e+03 1.675411605834960938e+01 1.722277832031250000e+01 -1.342974662780761719e+00 -2.464914619922637939e-01 -4.768398404121398926e-01 -3.257932960987091064e-01
1.978000000000000000e+03 5.861126708984375000e+01 -1.496795463562011719e+01 1.237688899040222168e+00 9.253777503967285156e+00 3.147439718246459961e+00 1.886382997035980225e-01
1.979000000000000000e+03 5.829139709472656250e+01 -1.374531841278076172e+01 8.813250064849853516e-01 1.017528915405273438e+01 3.316984176635742188e+00 3.002535104751586914e-01
1.980000000000000000e+03 6.634558105468750000e+01 5.888513088226318359e+00 2.704821527004241943e-01 9.305538177490234375e+00 2.872806072235107422e+00 -6.101479530334472656e-01
1.981000000000000000e+03 1.702512741088867188e+01 1.534699249267578125e+01 -1.636505961418151855e+00 -4.405023753643035889e-01 -6.231024861335754395e-01 -7.522159814834594727e-01
1.982000000000000000e+03 1.393058490753173828e+01 1.485833358764648438e+01 -1.283559918403625488e+00 2.532358840107917786e-02 -3.774708807468414307e-01 -3.794008195400238037e-01
1.983000000000000000e+03 2.358487892150878906e+01 9.732704162597656250e+00 -1.915529847145080566e+00 3.102495431900024414e+00 3.560897111892700195e-01 8.257250785827636719e-01
1.984000000000000000e+03 2.309328651428222656e+01 1.053608798980712891e+01 -3.200617730617523193e-01 2.889623403549194336e+00 7.708684802055358887e-01 1.557038903236389160e+00
1.985000000000000000e+03 7.639598083496093750e+01 9.805671691894531250e+00 -1.187237143516540527e+00 1.045005321502685547e+01 2.778844833374023438e+00 -7.931554913520812988e-01
1.986000000000000000e+03 2.814640998840332031e+01 -8.540552139282226562e+00 1.187007427215576172e+00 3.154088973999023438e+00 1.302328824996948242e+00 -1.691130876541137695e+00
1.987000000000000000e+03 1.141719722747802734e+01 1.324080562591552734e+01 -1.136044740676879883e+00 7.019935250282287598e-01 -1.302153617143630981e-01 -3.323785960674285889e-01
1.988000000000000000e+03 5.778285980224609375e+01 -8.469600677490234375e+00 3.309761881828308105e-01 7.784845352172851562e+00 2.434746503829956055e+00 9.362009912729263306e-02
1.989000000000000000e+03 5.680503082275390625e+01 -1.127517986297607422e+01 5.878602862358093262e-01 9.314463615417480469e+00 2.970697164535522461e+00 -6.021238565444946289e-01
1.990000000000000000e+03 6.749356079101562500e+01 5.442234992980957031e+00 1.134452342987060547e+00 1.018531703948974609e+01 3.395930767059326172e+00 -9.014301896095275879e-01
1.991000000000000000e+03 8.216761589050292969e+00 8.813436508178710938e+00 1.033164281398057938e-02 2.077303409576416016e+00 6.262905001640319824e-01 -1.753055334091186523e+00
1.992000000000000000e+03 3.331044769287109375e+01 2.190716743469238281e+00 6.395733356475830078e-02 1.105792999267578125e+00 3.509251177310943604e-01 1.694578528404235840e+00
1.993000000000000000e+03 2.846971321105957031e+01 -7.397751808166503906e+00 1.201261281967163086e+00 2.616057395935058594e+00 1.145195603370666504e+00 -1.394689917564392090e+00
1.994000000000000000e+03 4.585165023803710938e+01 -1.447690582275390625e+01 -5.662178993225097656e-01 2.358070373535156250e+00 5.375557541847229004e-01 3.264906406402587891e-01
1.995000000000000000e+03 4.615032577514648438e+01 -1.351125335693359375e+01 -8.590168952941894531e-01 2.440454721450805664e+00 4.744313657283782959e-01 7.061864733695983887e-01
1.996000000000000000e+03 7.324892425537109375e+01 -9.576392173767089844e+00 1.199827313423156738e+00 9.903765678405761719e+00 3.331078052520751953e+00 -8.509990759193897247e-03
1.997000000000000000e+03 5.450358581542968750e+01 -2.315001678466796875e+01 -1.028878763318061829e-01 4.439633369445800781e+00 1.301023721694946289e+00 2.302149295806884766e+00
1.998000000000000000e+03 5.842906570434570312e+01 -8.215970546007156372e-02 -1.286741137504577637e+00 8.766710758209228516e-01 -1.230210214853286743e-01 -1.497468948364257812e+00
1.999000000000000000e+03 2.788689613342285156e+01 -3.839967489242553711e+00 1.907711982727050781e+00 2.300686597824096680e+00 1.262519598007202148e+00 6.062747836112976074e-01
2.000000000000000000e+03 6.701677703857421875e+01 1.055974102020263672e+01 2.553421258926391602e+00 1.364832973480224609e+01 4.860525131225585938e+00 -4.291691482067108154e-01
2.001000000000000000e+03 6.802124023437500000e+01 1.035241794586181641e+01 2.112853050231933594e+00 1.022398471832275391e+01 3.701051473617553711e+00 4.562098532915115356e-02
2.002000000000000000e+03 4.252292633056640625e+01 1.591663742065429688e+01 -1.831289291381835938e+00 6.931374073028564453e-01 -3.414455950260162354e-01 -1.386398673057556152e-01
2.003000000000000000e+03 1.335519409179687500e+01 4.131029605865478516e+00 6.600978851318359375e+00 -3.660534620285034180e+00 8.821332454681396484e-01 -2.968007802963256836e+00
2.004000000000000000e+03 5.590562438964843750e+01 -7.160178184509277344e+00 -2.096908092498779297e-01 6.537645816802978516e+00 1.898386478424072266e+00 -9.195473194122314453e-01
2.005000000000000000e+03 4.364270782470703125e+01 -6.260508537292480469e+00 1.670627117156982422e+00 1.012910652160644531e+01 3.539920091629028320e+00 1.825846672058105469e+00
2.006000000000000000e+03 4.210802841186523438e+01 -6.420144557952880859e+00 9.536941051483154297e-01 6.007301807403564453e+00 2.088298797607421875e+00 1.529352784156799316e+00
2.007000000000000000e+03 6.378421783447265625e+01 -1.720740318298339844e+01 -1.009594127535820007e-01 4.983775615692138672e+00 1.464844822883605957e+00 -1.483646035194396973e+00
2.008000000000000000e+03 6.773335266113281250e+01 -1.870198822021484375e+01 6.864407658576965332e-01 2.930152177810668945e+00 1.084977865219116211e+00 -2.034056335687637329e-01
2.009000000000000000e+03 5.276845169067382812e+01 1.004284381866455078e+01 1.646762609481811523e+00 1.260603427886962891e+01 4.275839328765869141e+00 8.515558242797851562e-01
2.010000000000000000e+03 5.235397338867187500e+01 -2.879658341407775879e-01 -8.414894938468933105e-01 8.305398941040039062e+00 2.239172935485839844e+00 -9.650025367736816406e-01
2.011000000000000000e+03 5.021635818481445312e+01 -2.640014886856079102e+00 -3.467598199844360352e+00 1.547560811042785645e+00 -5.760112404823303223e-01 2.970629837363958359e-03
2.012000000000000000e+03 3.703673553466796875e+01 3.948025941848754883e+00 3.181125968694686890e-02 -5.947751998901367188e-01 -1.688891798257827759e-01 5.609250068664550781e-01
2.013000000000000000e+03 7.746513843536376953e+00 7.452936172485351562e+00 1.278187274932861328e+00 1.785288095474243164e+00 9.190425872802734375e-01 -1.889533996582031250e+00
2.014000000000000000e+03 2.723588180541992188e+01 1.442237758636474609e+01 1.440742969512939453e+00 1.235789895057678223e+00 8.029598593711853027e-01 3.478914797306060791e-01
2.015000000000000000e+03 3.733243179321289062e+01 -1.991357612609863281e+01 1.040176749229431152e+00 1.595250129699707031e+00 7.906280755996704102e-01 5.308430194854736328e-01
2.016000000000000000e+03 7.106575012207031250e+01 -2.198438405990600586e+00 -2.100945472717285156e+00 4.558445930480957031e+00 7.372501492500305176e-01 -2.489726781845092773e+00
2.017000000000000000e+03 3.481262969970703125e+01 4.302103042602539062e+00 -4.597863256931304932e-01 2.705270648002624512e-01 -5.677778646349906921e-02 6.914435625076293945e-01
2.018000000000000000e+03 1.589395236968994141e+01 -6.351602077484130859e+00 -2.803797125816345215e-01 6.062399595975875854e-02 -6.592671573162078857e-02 5.116439610719680786e-02
2.019000000000000000e+03 1.591705799102783203e+01 -4.794966697692871094e+00 -1.691159158945083618e-01 7.586224935948848724e-03 -4.845890402793884277e-02 8.039604872465133667e-02
2.020000000000000000e+03 3.452212905883789062e+01 -1.772933959960937500e+01 5.190156698226928711e-01 1.430742621421813965e+00 5.849274992942810059e-01 -3.238426446914672852e-01
2.021000000000000000e+03 3.517468261718750000e+01 -1.912377738952636719e+01 7.300805449485778809e-01 1.374800324440002441e+00 6.314642429351806641e-01 -6.636095792055130005e-02
2.022000000000000000e+03 7.486537170410156250e+01 -1.193761920928955078e+01 1.303280115127563477e+00 9.572548866271972656e+00 3.262748718261718750e+00 4.601744115352630615e-01
2.023000000000000000e+03 7.707587432861328125e+01 -1.079344081878662109e+01 5.429396629333496094e-01 7.858952999114990234e+00 2.520567893981933594e+00 9.168093800544738770e-01
2.024000000000000000e+03 7.488738250732421875e+01 -1.676228141784667969e+01 -3.525415435433387756e-02 8.631033897399902344e+00 2.578733921051025391e+00 4.310634732246398926e-02
2.025000000000000000e+03 7.283087921142578125e+01 -1.648960304260253906e+01 -1.187545180320739746e+00 9.998083114624023438e+00 2.643161296844482422e+00 6.433566212654113770e-01
2.026000000000000000e+03 2.682839584350585938e+01 1.289481258392333984e+01 6.949315071105957031e-01 1.424432158470153809e+00 6.358090639114379883e-01 -1.051897481083869934e-01
2.027000000000000000e+03 5.663337326049804688e+01 -1.820664525032043457e+00 -5.999094843864440918e-01 3.958414077758789062e+00 1.007551431655883789e+00 -4.316275119781494141e+00
2.028000000000000000e+03 5.122233200073242188e+01 3.969905525445938110e-02 6.905866265296936035e-01 6.629292964935302734e+00 2.195963859558105469e+00 1.032226443290710449e+00
2.029000000000000000e+03 6.029410171508789062e+01 -5.007668018341064453e+00 1.494554519653320312e+00 7.632543087005615234e+00 2.738129377365112305e+00 2.723794877529144287e-01
2.030000000000000000e+03 5.940841293334960938e+01 -5.042593955993652344e+00 1.211501598358154297e+00 6.708464145660400391e+00 2.375989675521850586e+00 -2.802885472774505615e-01
2.031000000000000000e+03 5.577830123901367188e+01 -5.504106998443603516e+00 -9.094145298004150391e-01 6.102280139923095703e+00 1.557859659194946289e+00 -1.534890532493591309e+00
2.032000000000000000e+03 4.047426605224609375e+01 -3.638122320175170898e+00 2.167980670928955078e+00 1.356839537620544434e+00 1.057446002960205078e+00 -2.852422297000885010e-01
2.033000000000000000e+03 6.916222381591796875e+01 -4.322142004966735840e-01 -2.592288255691528320e+00 6.137965202331542969e+00 1.063703179359436035e+00 -1.873443603515625000e+00
2.034000000000000000e+03 1.964533615112304688e+01 -9.328384399414062500e+00 -5.578602552413940430e-01 1.274414360523223877e-01 -1.291256397962570190e-01 4.666261002421379089e-02
2.035000000000000000e+03 7.258046722412109375e+01 -7.480800747871398926e-01 -9.459137916564941406e-01 2.151847124099731445e+00 3.617799580097198486e-01 -2.774374723434448242e+00
2.036000000000000000e+03 7.506213378906250000e+01 -1.577647089958190918e+00 -1.101185917854309082e+00 5.641942977905273438e+00 1.362227082252502441e+00 8.785180449485778809e-01
2.037000000000000000e+03 6.710702514648437500e+01 1.495877933502197266e+01 1.935179531574249268e-01 8.916894912719726562e+00 2.733124017715454102e+00 4.801784753799438477e-01
2.038000000000000000e+03 5.029791259765625000e+01 3.541364908218383789e+00 3.563270807266235352e+00 7.512882709503173828e+00 3.322846174240112305e+00 1.486901164054870605e+00
2.039000000000000000e+03 5.222819137573242188e+01 2.603452682495117188e+00 4.308333396911621094e+00 1.080124282836914062e+01 4.532872676849365234e+00 4.565537571907043457e-01
2.040000000000000000e+03 4.151265716552734375e+01 -7.554254055023193359e+00 -3.624797463417053223e-01 4.260202884674072266e+00 1.169317007064819336e+00 1.652126669883728027e+00
2.041000000000000000e+03 4.044956207275390625e+01 -6.599701404571533203e+00 1.030022203922271729e-01 2.144308328628540039e+00 6.741931438446044922e-01 1.019824385643005371e+00
2.042000000000000000e+03 6.746229553222656250e+01 1.313058567047119141e+01 1.907041907310485840e+00 1.033921146392822266e+01 3.673876047134399414e+00 1.980088949203491211e+00
2.043000000000000000e+03 1.853661346435546875e+01 2.264713048934936523e+00 2.485294103622436523e+00 5.040209293365478516e+00 2.257650852203369141e+00 -5.493604183197021484e+00
2.044000000000000000e+03 1.872914695739746094e+01 6.392763614654541016e+00 -2.190591812133789062e+00 5.316886901855468750e+00 9.378885030746459961e-01 2.708270311355590820e+00
2.045000000000000000e+03 2.081087875366210938e+01 7.808040142059326172e+00 -2.491006135940551758e+00 2.278458833694458008e+00 -6.376416981220245361e-02 1.684420108795166016e+00
2.046000000000000000e+03 1.792088127136230469e+01 7.111159324645996094e+00 -6.491491794586181641e+00 2.192712545394897461e+00 -1.289633750915527344e+00 -1.657998085021972656e+00
2.047000000000000000e+03 1.838673210144042969e+01 6.417755126953125000e+00 -3.266014575958251953e+00 5.301671981811523438e+00 6.106971502304077148e-01 1.237426280975341797e+00
2.048000000000000000e+03 1.665432548522949219e+01 5.134584426879882812e+00 6.091626167297363281e+00 -4.711916446685791016e-01 1.686130404472351074e+00 -2.985588312149047852e+00
2.049000000000000000e+03 1.626201438903808594e+01 4.765756607055664062e+00 7.862163543701171875e+00 -2.886224031448364258e+00 1.492781877517700195e+00 -1.724219202995300293e+00
2.050000000000000000e+03 1.612041473388671875e+01 3.884222030639648438e+00 8.771789550781250000e+00 -1.285639882087707520e+00 2.245844841003417969e+00 1.195605754852294922e+00
2.051000000000000000e+03 1.765713691711425781e+01 6.060822486877441406e+00 -1.403662681579589844e+00 5.453943252563476562e+00 1.215084195137023926e+00 -2.334910392761230469e+00
2.052000000000000000e+03 1.682990646362304688e+01 5.670379161834716797e+00 1.067599177360534668e+00 -1.731948852539062500e-01 2.683213055133819580e-01 -3.489516735076904297e+00
2.053000000000000000e+03 2.415908622741699219e+01 1.020219445228576660e+00 5.012747049331665039e-01 -1.909549236297607422e+00 -4.224823415279388428e-01 -1.150615453720092773e+00
2.054000000000000000e+03 2.317931938171386719e+01 1.233345031738281250e+00 -1.345929145812988281e+00 1.209538817405700684e+00 -4.091707244515419006e-02 -2.330333709716796875e+00
2.055000000000000000e+03 2.256753730773925781e+01 1.269872188568115234e+00 8.283285498619079590e-01 2.650558471679687500e+00 1.043666124343872070e+00 -2.505434513092041016e+00
2.056000000000000000e+03 9.442965507507324219e+00 -3.161091566085815430e+00 -7.499928027391433716e-02 9.569050744175910950e-03 -1.962906867265701294e-02 -2.094952575862407684e-02
2.057000000000000000e+03 1.123970127105712891e+01 -4.172685146331787109e+00 -1.169691458344459534e-01 2.873678877949714661e-02 -2.646970748901367188e-02 -1.651358418166637421e-02
2.058000000000000000e+03 6.959277629852294922e+00 -4.983436107635498047e+00 -6.434010714292526245e-02 -6.983646890148520470e-04 -1.951154135167598724e-02 -5.050548538565635681e-02
2.059000000000000000e+03 3.920846939086914062e+01 1.441521930694580078e+01 -2.087818145751953125e+00 4.615347683429718018e-01 -4.878849983215332031e-01 1.914092600345611572e-01
2.060000000000000000e+03 3.791188049316406250e+01 1.433099746704101562e+01 -2.217320442199707031e+00 2.365051060914993286e-01 -5.942445993423461914e-01 4.121683537960052490e-01
2.061000000000000000e+03 3.764627456665039062e+01 1.495161342620849609e+01 -2.807182788848876953e+00 3.842740058898925781e-01 -7.268726229667663574e-01 1.410957723855972290e-01
2.062000000000000000e+03 1.095720100402832031e+01 -4.942712306976318359e+00 -1.154344454407691956e-01 4.543407633900642395e-02 -2.100011147558689117e-02 -2.768554165959358215e-02
2.063000000000000000e+03 1.196132850646972656e+01 -4.311754226684570312e+00 -1.215243265032768250e-01 4.619535058736801147e-02 -2.259869314730167389e-02 -4.462704062461853027e-03
2.064000000000000000e+03 3.844272994995117188e+01 1.531490135192871094e+01 -2.388785123825073242e+00 4.138266146183013916e-01 -5.924875736236572266e-01 -1.069548353552818298e-01
2.065000000000000000e+03 1.055799484252929688e+01 -4.017837524414062500e+00 -9.423108398914337158e-02 3.194433078169822693e-02 -1.868602633476257324e-02 -1.880794204771518707e-02
2.066000000000000000e+03 4.117401123046875000e+00 -4.777348518371582031e+00 -2.832977287471294403e-02 -2.098035998642444611e-02 -1.479304023087024689e-02 -3.612406924366950989e-02
2.067000000000000000e+03 3.948216199874877930e+00 -5.810076236724853516e+00 -1.926070451736450195e-02 -2.679895982146263123e-02 -1.381789892911911011e-02 -4.594381898641586304e-02
2.068000000000000000e+03 5.118074893951416016e+00 -3.679887056350708008e+00 -3.339544311165809631e-02 -9.086311794817447662e-03 -1.274452637881040573e-02 -3.152879327535629272e-02
2.069000000000000000e+03 9.634225845336914062e+00 -4.384348392486572266e+00 -8.802864700555801392e-02 2.304372563958168030e-02 -1.949547603726387024e-02 -3.578840941190719604e-02
2.070000000000000000e+03 6.664142608642578125e+00 -3.378885984420776367e+00 -4.843235760927200317e-02 -1.580098178237676620e-03 -1.500373706221580505e-02 -3.114555776119232178e-02
2.071000000000000000e+03 7.473197937011718750e+00 -4.062142372131347656e+00 -6.303431093692779541e-02 4.066528286784887314e-03 -1.769033446907997131e-02 -3.853450715541839600e-02
2.072000000000000000e+03 5.921871185302734375e+00 -3.492382287979125977e+00 -3.663645684719085693e-02 -2.239758381620049477e-03 -1.166286412626504898e-02 -3.089748509228229523e-02
2.073000000000000000e+03 6.801836490631103516e+00 -4.153677463531494141e+00 -4.881921410560607910e-02 2.320841653272509575e-03 -1.394951157271862030e-02 -3.994497284293174744e-02
2.074000000000000000e+03 3.511647701263427734e+00 4.198904037475585938e+00 6.098530888557434082e-01 -4.970292150974273682e-01 3.384716063737869263e-02 5.019699335098266602e-01
2.075000000000000000e+03 4.193336963653564453e+00 4.287440776824951172e+00 8.460680246353149414e-01 -5.679963231086730957e-01 8.342150598764419556e-02 4.784534573554992676e-01
2.076000000000000000e+03 5.000695705413818359e+00 3.561094522476196289e+00 8.425273895263671875e-01 -5.001277327537536621e-01 1.027198955416679382e-01 7.108415961265563965e-01
2.077000000000000000e+03 5.822447776794433594e+00 5.157787322998046875e+00 1.896295905113220215e+00 -1.149458363652229309e-01 5.344049930572509766e-01 -2.964662909507751465e-01
2.078000000000000000e+03 5.766538619995117188e+00 3.559232473373413086e+00 1.161527276039123535e+00 -5.272253155708312988e-01 1.902905702590942383e-01 8.751299977302551270e-01
2.079000000000000000e+03 6.257884025573730469e+00 4.725633144378662109e+00 2.188363075256347656e+00 -3.516478538513183594e-01 5.510145425796508789e-01 -2.266930341720581055e-01
2.080000000000000000e+03 7.637664794921875000e+00 5.500627517700195312e+00 3.364445924758911133e+00 5.741629004478454590e-01 1.181582689285278320e+00 -1.547598719596862793e+00
2.081000000000000000e+03 1.475327014923095703e+01 3.100094556808471680e+00 6.272171020507812500e+00 -3.828098773956298828e+00 7.332216501235961914e-01 -6.064045429229736328e-01
2.082000000000000000e+03 4.181393814086914062e+01 1.546232700347900391e+01 -1.858244180679321289e+00 6.951428055763244629e-01 -3.489303886890411377e-01 -1.350180506706237793e-01
2.083000000000000000e+03 4.297025299072265625e+01 1.467405319213867188e+01 -1.891052722930908203e+00 5.608218312263488770e-01 -3.990692496299743652e-01 -2.714286148548126221e-01
2.084000000000000000e+03 4.052343750000000000e+01 1.497372817993164062e+01 -1.886330842971801758e+00 6.410427093505859375e-01 -3.735864162445068359e-01 -7.456973544321954250e-04
2.085000000000000000e+03 3.925983047485351562e+01 1.525996494293212891e+01 -2.062597036361694336e+00 5.262970924377441406e-01 -4.608899950981140137e-01 -1.506866049021482468e-02
2.086000000000000000e+03 1.339382934570312500e+01 -4.615622043609619141e+00 -1.415937691926956177e-01 4.595182463526725769e-02 -2.869258448481559753e-02 1.907861605286598206e-02
2.087000000000000000e+03 2.595817184448242188e+01 -6.278727054595947266e-01 2.494292020797729492e+00 -1.944211274385452271e-01 6.899612545967102051e-01 2.079401537775993347e-02
2.088000000000000000e+03 2.285566902160644531e+01 7.225041866302490234e+00 -1.201651930809020996e+00 1.436065673828125000e+00 7.032411545515060425e-02 8.749069571495056152e-01
2.089000000000000000e+03 1.406368637084960938e+01 -4.791053295135498047e+00 -1.842766553163528442e-01 3.822738304734230042e-02 -4.381478205323219299e-02 1.765160448849201202e-02
2.090000000000000000e+03 1.371128654479980469e+01 -3.771008253097534180e+00 -1.329493820667266846e-01 1.861515454947948456e-02 -3.430026769638061523e-02 2.342180348932743073e-02
2.091000000000000000e+03 1.460214900970458984e+01 -5.178525447845458984e+00 -1.813256293535232544e-01 4.459404945373535156e-02 -4.101947322487831116e-02 3.311733901500701904e-02
2.092000000000000000e+03 2.421372604370117188e+01 9.195091247558593750e+00 -2.130455493927001953e+00 2.181302785873413086e+00 1.525423489511013031e-02 1.538054049015045166e-01
2.093000000000000000e+03 6.027409362792968750e+01 -1.945148468017578125e+00 -3.161203265190124512e-01 5.146566867828369141e+00 1.449133992195129395e+00 -3.692362308502197266e-01
2.094000000000000000e+03 5.927617263793945312e+01 -1.805374145507812500e+00 -5.708570480346679688e-01 4.121597766876220703e+00 1.065222144126892090e+00 -1.283296465873718262e+00
2.095000000000000000e+03 6.610071563720703125e+01 -1.659508323669433594e+01 -4.448024630546569824e-01 2.925199031829833984e+00 7.441189885139465332e-01 -1.282211542129516602e+00
2.096000000000000000e+03 6.650992584228515625e+01 -1.953322601318359375e+01 5.476770401000976562e-01 3.606977701187133789e+00 1.246396422386169434e+00 -8.714455962181091309e-01
2.097000000000000000e+03 2.153076553344726562e+01 7.802105903625488281e+00 -1.880087614059448242e+00 2.086102962493896484e+00 6.180461123585700989e-02 1.473525047302246094e+00
2.098000000000000000e+03 1.272265625000000000e+01 1.408320808410644531e+01 -1.125377178192138672e+00 1.445790827274322510e-01 -2.942394316196441650e-01 -3.661850988864898682e-01
2.099000000000000000e+03 2.942774200439453125e+01 -1.579268264770507812e+01 -1.833457127213478088e-02 1.810330152511596680e+00 5.375986695289611816e-01 -5.609545111656188965e-01
2.100000000000000000e+03 3.086360549926757812e+01 -1.182813549041748047e+01 3.418510556221008301e-01 1.449468255043029785e+00 5.373957753181457520e-01 -1.058134317398071289e+00
2.101000000000000000e+03 1.554643630981445312e+01 4.360871315002441406e+00 6.727409839630126953e+00 -3.924434423446655273e+00 8.408926129341125488e-01 -1.544103503227233887e+00
2.102000000000000000e+03 7.432791900634765625e+01 -6.287334918975830078e+00 -1.230036690831184387e-01 7.556392192840576172e+00 2.230016469955444336e+00 9.984305500984191895e-01
2.103000000000000000e+03 7.266211700439453125e+01 -6.102610588073730469e+00 -4.226920008659362793e-01 6.883580684661865234e+00 1.938266634941101074e+00 -2.104925811290740967e-01
2.104000000000000000e+03 2.796334266662597656e+01 -2.420982122421264648e+00 2.732038974761962891e+00 1.199488997459411621e+00 1.179458379745483398e+00 1.796401381492614746e+00
2.105000000000000000e+03 2.025676918029785156e+01 -1.136136245727539062e+01 -1.368600130081176758e-01 1.599733382463455200e-01 6.933995056897401810e-03 -3.858936950564384460e-02
2.106000000000000000e+03 4.469500350952148438e+01 -1.386511683464050293e+00 -7.641504406929016113e-01 8.371805191040039062e+00 2.282296419143676758e+00 3.668261528015136719e+00
2.107000000000000000e+03 6.049517440795898438e+01 -1.299604415893554688e+01 3.056690394878387451e-01 8.329874038696289062e+00 2.590662956237792969e+00 2.833338379859924316e-01
2.108000000000000000e+03 6.276574707031250000e+01 5.278040468692779541e-02 -2.259947538375854492e+00 5.847196578979492188e+00 1.076174736022949219e+00 3.489907979965209961e+00
2.109000000000000000e+03 7.552476501464843750e+01 -1.932962417602539062e+01 -3.914150297641754150e-01 7.736555576324462891e+00 2.203542232513427734e+00 8.571801334619522095e-02
2.110000000000000000e+03 3.501028823852539062e+01 7.601972222328186035e-01 1.401646018028259277e+00 -5.669240951538085938e-01 2.504165768623352051e-01 5.208839774131774902e-01
2.111000000000000000e+03 1.744801330566406250e+01 -6.506132125854492188e+00 -3.307467699050903320e-01 -5.143805872648954391e-03 -1.007671728730201721e-01 1.268430799245834351e-01
2.112000000000000000e+03 1.706865501403808594e+01 -9.372947692871093750e+00 -3.472372293472290039e-01 1.859764456748962402e-01 -4.837824031710624695e-02 -6.336984038352966309e-02
2.113000000000000000e+03 4.536999702453613281e+00 2.331097984313964844e+01 -8.879516273736953735e-02 1.238589406013488770e+00 3.449382483959197998e-01 8.924636244773864746e-02
2.114000000000000000e+03 7.195626068115234375e+01 1.276160335540771484e+01 1.752867341041564941e+00 4.208929538726806641e+00 1.788539052009582520e+00 1.314981281757354736e-01
2.115000000000000000e+03 3.969893264770507812e+01 -4.927716732025146484e+00 1.179434061050415039e+00 3.544062674045562744e-01 4.601520895957946777e-01 3.438687026500701904e-01
2.116000000000000000e+03 7.453053283691406250e+01 -9.374720573425292969e+00 8.873330354690551758e-01 9.145730972290039062e+00 3.009919166564941406e+00 1.047495365142822266e+00
2.117000000000000000e+03 4.210425186157226562e+01 -2.200494289398193359e+00 9.411216974258422852e-01 4.819246292114257812e+00 1.728110432624816895e+00 3.261883258819580078e-01
2.118000000000000000e+03 4.279839706420898438e+01 -3.374333381652832031e+00 2.664152860641479492e+00 5.843465328216552734e+00 2.552285432815551758e+00 1.046059355139732361e-01
2.119000000000000000e+03 3.172834205627441406e+01 -1.610820770263671875e+01 2.106004059314727783e-01 1.550547599792480469e+00 5.283443927764892578e-01 -6.847229003906250000e-01
2.120000000000000000e+03 6.058181762695312500e+01 -1.405202388763427734e+01 3.567160367965698242e-01 7.843257904052734375e+00 2.459992170333862305e+00 1.300276964902877808e-01
2.121000000000000000e+03 5.966441726684570312e+01 -1.440848445892333984e+01 7.466907501220703125e-01 8.705054283142089844e+00 2.835523366928100586e+00 -7.029923051595687866e-02
2.122000000000000000e+03 5.607465362548828125e+01 1.491087722778320312e+01 1.030683755874633789e+00 5.957651615142822266e+00 2.096500635147094727e+00 3.214051008224487305e+00
2.123000000000000000e+03 5.287589263916015625e+01 1.402951240539550781e+01 2.929323434829711914e+00 1.097498893737792969e+01 4.171293735504150391e+00 2.290962457656860352e+00
2.124000000000000000e+03 7.610724639892578125e+01 1.309342288970947266e+01 2.808704040944576263e-02 6.734712600708007812e+00 2.028839826583862305e+00 -1.227288126945495605e+00
2.125000000000000000e+03 7.429457092285156250e+01 1.434561252593994141e+01 1.078100919723510742e+00 5.338065147399902344e+00 1.924849748611450195e+00 -6.483289003372192383e-01
2.126000000000000000e+03 6.912899017333984375e+01 1.372524261474609375e+01 1.770183205604553223e+00 7.393006801605224609e+00 2.748956918716430664e+00 2.112758159637451172e+00
2.127000000000000000e+03 6.810212707519531250e+01 1.429824256896972656e+01 5.672351121902465820e-01 8.892901420593261719e+00 2.838040828704833984e+00 1.338953614234924316e+00
2.128000000000000000e+03 2.453540420532226562e+01 -1.068959474563598633e+00 4.080596923828125000e+00 1.790034770965576172e+00 1.761189460754394531e+00 -2.448099613189697266e+00
2.129000000000000000e+03 7.505115509033203125e+01 -1.291380310058593750e+01 1.117658734321594238e+00 9.397830009460449219e+00 3.154646635055541992e+00 4.924417436122894287e-01
2.130000000000000000e+03 4.176313781738281250e+01 -4.418838500976562500e+00 2.513755083084106445e+00 4.672291755676269531e+00 2.155814170837402344e+00 3.246102631092071533e-01
2.131000000000000000e+03 3.025285148620605469e+01 1.711833572387695312e+01 -1.029570579528808594e+00 -3.867539465427398682e-01 -4.248973727226257324e-01 9.281758069992065430e-01
2.132000000000000000e+03 5.251110076904296875e+01 1.730372619628906250e+01 -1.028810381889343262e+00 8.830081939697265625e+00 2.340381383895874023e+00 1.143212676048278809e+00
2.133000000000000000e+03 7.590132141113281250e+01 1.727477455139160156e+01 3.952360749244689941e-01 6.389290809631347656e+00 2.035357952117919922e+00 -6.589060276746749878e-02
2.134000000000000000e+03 4.322412014007568359e+00 -2.875663757324218750e+01 2.374140173196792603e-02 -4.121462702751159668e-01 -1.165214627981185913e-01 -7.713150233030319214e-02
2.135000000000000000e+03 2.807248687744140625e+01 -1.018310308456420898e+00 2.947284698486328125e+00 2.271197885274887085e-01 9.523213505744934082e-01 1.615098834037780762e+00
2.136000000000000000e+03 2.615674972534179688e+01 5.185640454292297363e-01 -1.561946719884872437e-01 -8.103545904159545898e-01 -2.899647951126098633e-01 2.656560838222503662e-01
2.137000000000000000e+03 4.333346557617187500e+01 1.624055290222167969e+01 -1.884648203849792480e+00 7.915334105491638184e-01 -3.279344439506530762e-01 -1.172109693288803101e-01
2.138000000000000000e+03 4.451201915740966797e+00 5.874929904937744141e+00 1.258581042289733887e+00 -2.557818293571472168e-01 3.008397519588470459e-01 -3.637259900569915771e-01
2.139000000000000000e+03 7.270848083496093750e+01 -4.224458694458007812e+00 -8.809682726860046387e-01 5.637633800506591797e+00 1.426999688148498535e+00 -6.245876550674438477e-01
2.140000000000000000e+03 7.469618988037109375e+01 -1.076627349853515625e+01 1.263001680374145508e+00 9.290058135986328125e+00 3.165917873382568359e+00 8.021093010902404785e-01
2.141000000000000000e+03 4.835064315795898438e+01 1.849423027038574219e+01 -8.084156513214111328e-01 3.067829608917236328e+00 6.778241395950317383e-01 -2.250996828079223633e+00
2.142000000000000000e+03 1.917164993286132812e+01 2.034416198730468750e+01 -9.161100387573242188e-01 -1.898453533649444580e-01 -3.317866325378417969e-01 -1.890375763177871704e-01
2.143000000000000000e+03 4.654008483886718750e+01 1.992667007446289062e+01 -6.347716450691223145e-01 2.216452836990356445e+00 4.745043516159057617e-01 -1.458019614219665527e+00
2.144000000000000000e+03 4.496838378906250000e+01 1.727639389038085938e+01 -7.833132743835449219e-01 7.767071127891540527e-01 -1.981842564418911934e-03 -5.479788184165954590e-01
2.145000000000000000e+03 6.750462341308593750e+01 5.144910812377929688e-01 -1.252219915390014648e+00 5.368732452392578125e+00 1.234953761100769043e+00 4.987289309501647949e-01
2.146000000000000000e+03 1.959493827819824219e+01 6.508271694183349609e+00 -8.760095834732055664e-01 3.447725772857666016e+00 7.715148925781250000e-01 3.373062610626220703e+00
2.147000000000000000e+03 1.972649765014648438e+01 8.273867607116699219e+00 -3.794217586517333984e+00 1.877350330352783203e+00 -5.750601291656494141e-01 3.998098969459533691e-01
2.148000000000000000e+03 6.682849884033203125e+01 8.125483512878417969e+00 -4.720366001129150391e-01 1.165684604644775391e+01 3.355442762374877930e+00 -6.686401367187500000e-01
2.149000000000000000e+03 2.642745590209960938e+01 -1.230427646636962891e+01 -6.898358464241027832e-01 2.585542678833007812e+00 5.687119960784912109e-01 -4.621171355247497559e-01
2.150000000000000000e+03 2.717881584167480469e+01 -1.129821109771728516e+01 -1.630025207996368408e-01 2.989316940307617188e+00 8.478943705558776855e-01 -7.713997364044189453e-01
2.151000000000000000e+03 7.189443206787109375e+01 -1.540788292884826660e+00 -2.130468845367431641e+00 4.096543788909912109e+00 5.898224115371704102e-01 -2.891353130340576172e+00
2.152000000000000000e+03 4.186888122558593750e+01 -1.265767097473144531e+01 -5.627586245536804199e-01 6.857156753540039062e+00 1.888319492340087891e+00 1.423343300819396973e+00
2.153000000000000000e+03 4.430761337280273438e+01 -1.205721092224121094e+01 -1.088066577911376953e+00 5.640725612640380859e+00 1.365797758102416992e+00 1.739239931106567383e+00
2.154000000000000000e+03 2.763669204711914062e+01 1.858938598632812500e+01 -1.461400032043457031e+00 2.108128786087036133e+00 1.940185874700546265e-01 1.217353105545043945e+00
2.155000000000000000e+03 6.259389877319335938e+01 3.169956922531127930e+00 -1.356921911239624023e+00 3.312247991561889648e+00 5.865978598594665527e-01 1.733757972717285156e+00
2.156000000000000000e+03 6.271884918212890625e+01 1.264698982238769531e+00 -3.053375244140625000e+00 4.893827438354492188e+00 5.521356463432312012e-01 2.582200765609741211e+00
2.157000000000000000e+03 4.871916770935058594e+00 -1.469070243835449219e+01 -1.315317023545503616e-02 -1.498129665851593018e-01 -4.888984188437461853e-02 -1.379164308309555054e-01
2.158000000000000000e+03 6.547009277343750000e+01 2.908804893493652344e+00 1.103411093354225159e-01 6.461038589477539062e+00 1.971413969993591309e+00 2.219986915588378906e+00
2.159000000000000000e+03 6.682967376708984375e+01 1.284703373908996582e+00 -3.464056551456451416e-01 6.139751434326171875e+00 1.738003849983215332e+00 1.651594281196594238e+00
2.160000000000000000e+03 5.081854629516601562e+01 -1.335849404335021973e+00 -1.117055535316467285e+00 4.319396018981933594e+00 9.607021808624267578e-01 -2.000578120350837708e-02
2.161000000000000000e+03 4.793815994262695312e+01 1.623845338821411133e+00 2.604549646377563477e+00 3.772335529327392578e+00 1.913065552711486816e+00 3.411972045898437500e+00
2.162000000000000000e+03 3.489397811889648438e+01 1.840653800964355469e+01 -1.134168624877929688e+00 -6.690770983695983887e-01 -5.409737229347229004e-01 -1.723887771368026733e-01
2.163000000000000000e+03 3.568568038940429688e+01 1.727738380432128906e+01 -1.829222083091735840e+00 -6.717290878295898438e-01 -7.502853274345397949e-01 -2.523762881755828857e-01
2.164000000000000000e+03 4.623854827880859375e+01 1.085098505020141602e+00 1.626860976219177246e+00 3.615953922271728516e+00 1.572844505310058594e+00 4.152532577514648438e+00
2.165000000000000000e+03 4.857209777832031250e+01 2.846372842788696289e+00 3.402314424514770508e+00 4.984968662261962891e+00 2.516184806823730469e+00 3.030444145202636719e+00
2.166000000000000000e+03 3.924040985107421875e+01 -3.084010124206542969e+00 1.661392331123352051e+00 -6.640221178531646729e-02 4.784970283508300781e-01 -5.528521537780761719e-01
2.167000000000000000e+03 7.495661926269531250e+01 -2.495505905151367188e+01 6.906287744641304016e-03 6.672476768493652344e+00 2.003814935684204102e+00 3.014637827873229980e-01
2.168000000000000000e+03 7.534569549560546875e+01 -2.204846382141113281e+01 -2.166898548603057861e-01 7.113144874572753906e+00 2.068936347961425781e+00 2.877354025840759277e-01
2.169000000000000000e+03 5.179480075836181641e+00 1.229247283935546875e+01 -4.241842925548553467e-01 1.168377280235290527e+00 2.232578992843627930e-01 -9.643832445144653320e-01
2.170000000000000000e+03 7.513249206542968750e+01 -2.939232444763183594e+01 6.966833025217056274e-02 6.589387893676757812e+00 1.997716903686523438e+00 1.455717533826828003e-01
2.171000000000000000e+03 7.849853515625000000e+01 5.764035224914550781e+00 2.007157951593399048e-01 9.149497985839843750e+00 2.805064201354980469e+00 -1.638003230094909668e+00
2.172000000000000000e+03 3.880931854248046875e+01 -1.938030242919921875e+01 1.310597896575927734e+00 3.350526571273803711e+00 1.398337364196777344e+00 1.560640573501586914e+00
2.173000000000000000e+03 4.648347473144531250e+01 -8.698865771293640137e-01 -2.076968699693679810e-01 3.111528158187866211e+00 8.711493611335754395e-01 5.201472759246826172e+00
2.174000000000000000e+03 4.893911361694335938e+01 1.071375846862792969e+00 2.797921180725097656e+00 3.782799720764160156e+00 1.974216222763061523e+00 3.115201711654663086e+00
2.175000000000000000e+03 7.656438446044921875e+01 -3.428329467773437500e+01 1.927472092211246490e-02 6.745425701141357422e+00 2.029410123825073242e+00 6.615600734949111938e-02
2.176000000000000000e+03 7.685291290283203125e+01 -8.153602600097656250e+00 2.667931914329528809e-01 8.224733352661132812e+00 2.547457933425903320e+00 1.453783750534057617e+00
2.177000000000000000e+03 7.440312194824218750e+01 -1.565884876251220703e+01 -3.446710705757141113e-01 9.364893913269042969e+00 2.706066846847534180e+00 -5.058597326278686523e-01
2.178000000000000000e+03 7.488531494140625000e+01 2.424345207214355469e+01 -2.077072858810424805e-02 6.803406715393066406e+00 2.034790754318237305e+00 2.590694129467010498e-01
2.179000000000000000e+03 7.575708007812500000e+01 2.606445693969726562e+01 -3.346980363130569458e-02 6.882484912872314453e+00 2.054704427719116211e+00 2.240310907363891602e-01
2.180000000000000000e+03 5.943000030517578125e+01 -5.358783006668090820e-01 -1.117022514343261719e+00 2.801683425903320312e+00 5.053982138633728027e-01 -7.596144676208496094e-01
2.181000000000000000e+03 4.788152217864990234e+00 3.455102920532226562e+01 3.154183179140090942e-02 1.054988980293273926e+00 3.259592354297637939e-01 1.321853697299957275e-01
2.182000000000000000e+03 3.571896314620971680e+00 3.538744735717773438e+01 2.233098074793815613e-02 1.096540927886962891e+00 3.356615900993347168e-01 9.831958264112472534e-02
2.183000000000000000e+03 4.606512546539306641e+00 1.928448486328125000e+01 -2.434272766113281250e-01 1.244852662086486816e+00 3.004276156425476074e-01 -1.812102049589157104e-01
2.184000000000000000e+03 6.002511501312255859e+00 1.057972335815429688e+01 -2.479047924280166626e-01 1.300581693649291992e+00 3.158030807971954346e-01 -1.272985219955444336e+00
2.185000000000000000e+03 3.131650924682617188e+01 2.649927377700805664e+00 -7.144916057586669922e-01 1.599767088890075684e+00 2.655826508998870850e-01 8.557220101356506348e-01
2.186000000000000000e+03 1.025323390960693359e+01 1.211246967315673828e+01 -9.832575321197509766e-01 9.808489680290222168e-01 -7.225719164125621319e-04 -4.377712607383728027e-01
2.187000000000000000e+03 5.253503036499023438e+01 3.944612979888916016e+00 4.100257396697998047e+00 1.223179054260253906e+01 4.899614334106445312e+00 -9.567941427230834961e-01
2.188000000000000000e+03 1.779204940795898438e+01 1.701065254211425781e+01 -1.617843151092529297e+00 -2.554716467857360840e-01 -5.619944334030151367e-01 -5.259743332862854004e-01
2.189000000000000000e+03 1.608913612365722656e+01 1.636846542358398438e+01 -1.467223882675170898e+00 -1.782928556203842163e-01 -4.936550259590148926e-01 -4.193371832370758057e-01
2.190000000000000000e+03 2.929618453979492188e+01 1.558797264099121094e+01 -6.192732453346252441e-01 -2.100304514169692993e-01 -2.487911134958267212e-01 6.451016068458557129e-01
2.191000000000000000e+03 6.616599273681640625e+01 2.085065126419067383e+00 4.772894084453582764e-01 5.350444316864013672e+00 1.748320102691650391e+00 2.167846918106079102e+00
2.192000000000000000e+03 7.127428436279296875e+01 -7.462227344512939453e-01 -2.054755210876464844e+00 4.191779136657714844e+00 6.411071419715881348e-01 -2.978644371032714844e+00
2.193000000000000000e+03 5.591392135620117188e+01 1.276838874816894531e+01 1.958774209022521973e+00 5.780639648437500000e+00 2.321824073791503906e+00 2.565301895141601562e+00
2.194000000000000000e+03 2.930566406250000000e+01 -5.620253562927246094e+00 9.560096263885498047e-01 1.272590279579162598e+00 6.685799956321716309e-01 -4.405138790607452393e-01
2.195000000000000000e+03 6.878389739990234375e+01 -1.976846122741699219e+01 7.598031759262084961e-01 3.261123657226562500e+00 1.206278085708618164e+00 3.166757822036743164e-01
2.196000000000000000e+03 5.173329544067382812e+01 1.333218812942504883e+00 3.177512168884277344e+00 9.062057495117187500e+00 3.671870946884155273e+00 5.032778978347778320e-01
2.197000000000000000e+03 4.202554702758789062e+01 1.797880363464355469e+01 -1.251831054687500000e+00 7.883670926094055176e-01 -1.390391886234283447e-01 -2.936814427375793457e-01
2.198000000000000000e+03 4.136149978637695312e+01 1.622016334533691406e+01 -1.859865307807922363e+00 7.236459255218505859e-01 -3.408658206462860107e-01 -1.193982735276222229e-01
2.199000000000000000e+03 7.340898895263671875e+01 -1.801741600036621094e+01 -9.253583550453186035e-01 8.034021377563476562e+00 2.132598876953125000e+00 3.303296267986297607e-01
2.200000000000000000e+03 4.635773181915283203e+00 -3.187948799133300781e+01 2.678839676082134247e-02 -4.118199944496154785e-01 -1.155094802379608154e-01 -5.955689027905464172e-02
2.201000000000000000e+03 4.827285766601562500e+01 -1.916574239730834961e-01 1.305135011672973633e+00 2.516196250915527344e+00 1.146399378776550293e+00 3.498407363891601562e+00
2.202000000000000000e+03 2.916375160217285156e+01 -9.425262451171875000e+00 6.622020006179809570e-01 2.003596067428588867e+00 7.997394204139709473e-01 -1.692075610160827637e+00
2.203000000000000000e+03 2.712127876281738281e+01 -9.489336013793945312e+00 7.133492082357406616e-02 3.667028665542602539e+00 1.121509075164794922e+00 -1.612374782562255859e+00
2.204000000000000000e+03 5.682857894897460938e+01 -7.895668029785156250e+00 2.851029038429260254e-01 7.069978237152099609e+00 2.206524372100830078e+00 -4.488315880298614502e-01
2.205000000000000000e+03 2.507243347167968750e+01 -1.971009373664855957e-01 2.094544649124145508e+00 -3.263356983661651611e-01 5.304626822471618652e-01 -6.430525183677673340e-01
2.206000000000000000e+03 2.554096412658691406e+01 -1.851469755172729492e+00 3.826354980468750000e+00 1.678793907165527344e+00 1.651544690132141113e+00 -1.209375381469726562e+00
2.207000000000000000e+03 6.860946655273437500e+01 1.273079299926757812e+01 2.442018270492553711e+00 8.288444519042968750e+00 3.219138860702514648e+00 1.876497268676757812e+00
2.208000000000000000e+03 2.675060844421386719e+01 -3.699827432632446289e+00 3.149437665939331055e+00 3.291718482971191406e+00 1.932346820831298828e+00 -1.884891390800476074e-01
2.209000000000000000e+03 2.215098190307617188e+01 2.029886817932128906e+01 -1.161835432052612305e+00 -2.574080526828765869e-01 -4.257730543613433838e-01 -3.908160030841827393e-01
2.210000000000000000e+03 6.636079406738281250e+01 3.818324327468872070e+00 1.130543947219848633e+00 7.009973049163818359e+00 2.442155122756958008e+00 9.647722244262695312e-01
2.211000000000000000e+03 3.387677764892578125e+01 1.748521041870117188e+01 -1.708727598190307617e+00 -1.209474444389343262e+00 -8.754606246948242188e-01 5.201775580644607544e-02
2.212000000000000000e+03 4.100736999511718750e+01 -5.595796108245849609e+00 1.304156541824340820e+00 2.669987916946411133e+00 1.192243337631225586e+00 8.187175989151000977e-01
2.213000000000000000e+03 3.932727813720703125e+01 -6.122101783752441406e+00 4.767333343625068665e-02 -6.294335722923278809e-01 -1.745280772447586060e-01 1.050142049789428711e+00
2.214000000000000000e+03 5.469168090820312500e+01 -3.518893241882324219e+00 -2.489524841308593750e+00 6.542780876159667969e+00 1.215976715087890625e+00 -2.970324039459228516e+00
2.215000000000000000e+03 5.522429656982421875e+01 -4.624490737915039062e+00 -1.635186672210693359e+00 5.988805294036865234e+00 1.306085586547851562e+00 -2.544252872467041016e+00
2.216000000000000000e+03 6.334003067016601562e+01 -1.554435062408447266e+01 -1.380753610283136368e-02 5.332357406616210938e+00 1.595564961433410645e+00 -1.091073393821716309e+00
2.217000000000000000e+03 5.417160415649414062e+01 -1.315236687660217285e+00 -2.429633617401123047e+00 8.128890991210937500e+00 1.709777355194091797e+00 -3.225964546203613281e+00
2.218000000000000000e+03 5.326485443115234375e+01 -7.821965813636779785e-01 -1.698721766471862793e+00 8.679394721984863281e+00 2.094201803207397461e+00 -3.102272033691406250e+00
2.219000000000000000e+03 4.824332237243652344e+00 3.719982910156250000e+01 2.942279726266860962e-02 1.059240221977233887e+00 3.265989124774932861e-01 8.057175576686859131e-02
2.220000000000000000e+03 8.227539062500000000e+00 1.181061840057373047e+01 -8.143477439880371094e-01 1.468865871429443359e+00 1.963554173707962036e-01 -8.997396826744079590e-01
2.221000000000000000e+03 7.130865097045898438e+00 1.013380050659179688e+01 -2.181387245655059814e-01 1.619964122772216797e+00 4.205476343631744385e-01 -1.517766475677490234e+00
2.222000000000000000e+03 3.227994155883789062e+01 2.324817419052124023e+00 7.906458526849746704e-02 1.325766682624816895e+00 4.214493930339813232e-01 1.166893243789672852e+00
2.223000000000000000e+03 3.199127388000488281e+01 1.070605278015136719e+00 1.654557824134826660e+00 2.255739688873291016e+00 1.173089265823364258e+00 2.448802709579467773e+00
2.224000000000000000e+03 6.053985977172851562e+01 -3.495383501052856445e+00 1.070193409919738770e+00 6.786360740661621094e+00 2.356966257095336914e+00 -3.640332520008087158e-01
2.225000000000000000e+03 5.716403961181640625e+01 -5.156897544860839844e+00 -3.027132526040077209e-02 6.058563232421875000e+00 1.808487534523010254e+00 -1.497012972831726074e+00
2.226000000000000000e+03 5.826642608642578125e+01 -1.002906131744384766e+01 4.389219880104064941e-01 8.657256126403808594e+00 2.728853464126586914e+00 4.322255253791809082e-01
2.227000000000000000e+03 7.522205352783203125e+01 -3.732438659667968750e+01 1.411877386271953583e-02 6.612315177917480469e+00 1.987930178642272949e+00 -6.475520785897970200e-03
2.228000000000000000e+03 6.148100280761718750e+01 -1.153225040435791016e+01 5.511917918920516968e-02 8.139105796813964844e+00 2.458267450332641602e+00 3.945512175559997559e-01
2.229000000000000000e+03 5.936752319335937500e+01 -1.020904636383056641e+01 5.080894231796264648e-01 8.652011871337890625e+00 2.748030424118041992e+00 8.953078389167785645e-01
2.230000000000000000e+03 2.258710670471191406e+01 -1.284106349945068359e+01 -1.552546918392181396e-01 6.962051987648010254e-01 1.622851639986038208e-01 3.412280976772308350e-01
2.231000000000000000e+03 4.027135372161865234e+00 -8.007792472839355469e+00 -1.868717744946479797e-02 -5.141168087720870972e-02 -2.102965675294399261e-02 -7.320379465818405151e-02
2.232000000000000000e+03 5.860638618469238281e+00 -7.139307498931884766e+00 -5.340361222624778748e-02 -2.361814118921756744e-02 -2.310652658343315125e-02 -7.642672210931777954e-02
2.233000000000000000e+03 4.010432243347167969e+00 7.596024513244628906e+00 6.175226569175720215e-01 6.865238398313522339e-02 2.058525234460830688e-01 -7.542753815650939941e-01
2.234000000000000000e+03 3.529402160644531250e+01 1.818456768989562988e+00 9.146053194999694824e-01 -5.690220594406127930e-01 1.036749631166458130e-01 7.066904306411743164e-01
2.235000000000000000e+03 3.368185043334960938e+01 3.318182706832885742e+00 -4.817683994770050049e-01 6.759691834449768066e-01 5.826024338603019714e-02 9.213135242462158203e-01
2.236000000000000000e+03 4.041307449340820312e+00 -2.568573760986328125e+01 1.976873166859149933e-02 -3.912468552589416504e-01 -1.114434376358985901e-01 -8.810097724199295044e-02
2.237000000000000000e+03 6.089467620849609375e+01 -8.937178611755371094e+00 5.331909656524658203e-01 8.971805572509765625e+00 2.851498842239379883e+00 9.885159134864807129e-01
2.238000000000000000e+03 6.041631317138671875e+01 -6.173293113708496094e+00 1.416898965835571289e+00 8.074055671691894531e+00 2.847286462783813477e+00 5.959876179695129395e-01
2.239000000000000000e+03 5.025639724731445312e+01 -2.331522941589355469e+01 4.068286120891571045e-01 1.803270697593688965e+00 6.630297899246215820e-01 -6.151940301060676575e-02
2.240000000000000000e+03 2.426164817810058594e+01 1.103343963623046875e+01 -8.486551046371459961e-01 3.813824415206909180e+00 8.895508050918579102e-01 1.294369816780090332e+00
2.241000000000000000e+03 4.403226470947265625e+01 -1.485918903350830078e+01 2.940510213375091553e-01 4.101552963256835938e+00 1.318681120872497559e+00 4.820925593376159668e-01
2.242000000000000000e+03 5.810902404785156250e+01 -5.688178539276123047e+00 5.479208230972290039e-01 6.425164222717285156e+00 2.091925621032714844e+00 -7.517080903053283691e-01
2.243000000000000000e+03 7.621437072753906250e+01 -2.349056720733642578e+00 -3.299363255500793457e-01 7.640565395355224609e+00 2.193188667297363281e+00 1.078541994094848633e+00
2.244000000000000000e+03 7.592230987548828125e+01 -1.294299125671386719e+01 1.026606202125549316e+00 8.551609039306640625e+00 2.873464822769165039e+00 1.937704682350158691e-01
2.245000000000000000e+03 4.967292785644531250e+01 4.712893486022949219e+00 2.838181257247924805e+00 8.016883850097656250e+00 3.256519317626953125e+00 2.023195743560791016e+00
2.246000000000000000e+03 3.046705245971679688e+01 1.603657722473144531e+01 -9.025574922561645508e-01 -1.078723907470703125e+00 -5.943844318389892578e-01 6.604262590408325195e-01
2.247000000000000000e+03 7.409062957763671875e+01 -7.182648181915283203e-01 -1.040801525115966797e+00 2.541902303695678711e+00 4.503301978111267090e-01 -4.635032638907432556e-02
2.248000000000000000e+03 7.342900085449218750e+01 -1.602856397628784180e+00 -1.163624048233032227e+00 2.911878347396850586e+00 5.244762897491455078e-01 -1.006526112556457520e+00
2.249000000000000000e+03 5.225087738037109375e+01 -1.481297612190246582e+00 -2.106068372726440430e+00 6.093099594116210938e+00 1.196109414100646973e+00 -1.375022172927856445e+00
2.250000000000000000e+03 5.487099838256835938e+01 1.173208141326904297e+01 2.117556810379028320e+00 7.489975929260253906e+00 2.882259845733642578e+00 2.299309968948364258e+00
2.251000000000000000e+03 5.030030727386474609e+00 -1.908862686157226562e+01 1.586604863405227661e-02 -2.212033867835998535e-01 -6.160120293498039246e-02 -1.397380083799362183e-01
2.252000000000000000e+03 5.101619243621826172e+00 1.645361137390136719e+01 -3.928140401840209961e-01 1.210262179374694824e+00 2.452344447374343872e-01 -4.771888554096221924e-01
2.253000000000000000e+03 1.775658607482910156e+01 2.904345035552978516e+00 -1.265996456146240234e+00 5.806092739105224609e+00 1.362028837203979492e+00 -4.318062305450439453e+00
2.254000000000000000e+03 2.014744377136230469e+01 6.277042388916015625e+00 3.706461191177368164e-01 2.201965570449829102e+00 7.717835307121276855e-01 3.255995750427246094e+00
2.255000000000000000e+03 1.923969650268554688e+01 6.483849525451660156e+00 -1.189991235733032227e+00 4.486049652099609375e+00 9.888175129890441895e-01 3.270497083663940430e+00
2.256000000000000000e+03 1.021314430236816406e+01 -4.750700473785400391e+00 -1.130597740411758423e-01 3.017503395676612854e-02 -2.486542053520679474e-02 -3.692044317722320557e-02
2.257000000000000000e+03 9.430350303649902344e+00 -3.802318096160888672e+00 -7.991924136877059937e-02 2.209798432886600494e-02 -1.734637655317783356e-02 -2.466628327965736389e-02
2.258000000000000000e+03 2.222553062438964844e+01 7.569328784942626953e+00 -1.244037389755249023e+00 1.832761287689208984e+00 1.766171604394912720e-01 1.250584483146667480e+00
2.259000000000000000e+03 8.819673538208007812e+00 -3.907568693161010742e+00 -7.829144597053527832e-02 1.358562055975198746e-02 -1.941174827516078949e-02 -3.294690698385238647e-02
2.260000000000000000e+03 8.975626945495605469e+00 -4.688333034515380859e+00 -7.980827242136001587e-02 2.028254047036170959e-02 -1.785772107541561127e-02 -3.657058998942375183e-02
2.261000000000000000e+03 1.168108654022216797e+01 -5.110626697540283203e+00 -1.445224583148956299e-01 4.279828444123268127e-02 -3.051725216209888458e-02 -2.887169457972049713e-02
2.262000000000000000e+03 6.320586681365966797e+00 -5.030954837799072266e+00 -4.867034405469894409e-02 -3.390691243112087250e-03 -1.561831124126911163e-02 -5.022320523858070374e-02
2.263000000000000000e+03 7.605787754058837891e+00 -4.885787010192871094e+00 -6.566903740167617798e-02 9.366084821522235870e-03 -1.689088530838489532e-02 -5.074834823608398438e-02
2.264000000000000000e+03 8.146611213684082031e+00 -3.980689764022827148e+00 -6.429807841777801514e-02 1.193063799291849136e-02 -1.571023091673851013e-02 -3.522060811519622803e-02
2.265000000000000000e+03 3.814834594726562500e+01 1.634858322143554688e+01 -1.964455962181091309e+00 2.121731787919998169e-01 -5.256848335266113281e-01 -2.490028887987136841e-01
2.266000000000000000e+03 6.845436096191406250e+00 5.115739345550537109e+00 2.455761909484863281e+00 1.283438354730606079e-01 7.752317190170288086e-01 -4.344135224819183350e-01
2.267000000000000000e+03 5.083262443542480469e+00 7.429041385650634766e+00 9.668821096420288086e-01 3.570920228958129883e-01 3.971922397613525391e-01 -1.166197657585144043e+00
2.268000000000000000e+03 4.890533447265625000e+00 4.291244506835937500e+00 1.110341906547546387e+00 -4.230503141880035400e-01 2.061874568462371826e-01 4.448512792587280273e-01
2.269000000000000000e+03 5.217009544372558594e+00 5.542722225189208984e+00 1.543533682823181152e+00 -3.659698367118835449e-01 3.532691597938537598e-01 -2.464914768934249878e-01
2.270000000000000000e+03 4.146186351776123047e+00 5.117142677307128906e+00 9.721032977104187012e-01 -4.423439204692840576e-01 1.589278131723403931e-01 8.433029055595397949e-02
2.271000000000000000e+03 4.183890151977539062e+01 1.677814292907714844e+01 -1.585551261901855469e+00 7.142540812492370605e-01 -2.613891363143920898e-01 -1.142848581075668335e-01
2.272000000000000000e+03 2.115596389770507812e+01 9.171896934509277344e+00 -1.843673825263977051e+00 1.865478277206420898e+00 6.541319657117128372e-03 8.233818411827087402e-01
2.273000000000000000e+03 2.367347526550292969e+01 1.103688001632690430e+00 -8.289917111396789551e-01 -3.448529541492462158e-01 -3.521533906459808350e-01 -2.106173753738403320e+00
2.274000000000000000e+03 2.369499397277832031e+01 8.478454589843750000e+00 -2.178464651107788086e+00 2.046153306961059570e+00 -3.969344869256019592e-02 2.278947830200195312e-01
2.275000000000000000e+03 2.070850372314453125e+01 8.494023323059082031e+00 -2.541011333465576172e+00 1.817126154899597168e+00 -2.171655744314193726e-01 9.316934347152709961e-01
2.276000000000000000e+03 5.153950691223144531e+00 -7.849438190460205078e+00 -4.797735065221786499e-02 -3.029630891978740692e-02 -2.348209731280803680e-02 -8.424900472164154053e-02
2.277000000000000000e+03 4.973866939544677734e+00 -5.061998367309570312e+00 -3.060884773731231689e-02 -1.246843393892049789e-02 -1.292318478226661682e-02 -4.603687301278114319e-02
2.278000000000000000e+03 5.652666091918945312e+00 6.239840030670166016e+00 1.795466542243957520e+00 1.175996512174606323e-01 5.739198327064514160e-01 -9.784970879554748535e-01
2.279000000000000000e+03 3.994102478027343750e+01 1.500154876708984375e+01 -1.968847393989562988e+00 5.779851078987121582e-01 -4.172587096691131592e-01 2.159375883638858795e-02
2.280000000000000000e+03 1.386912536621093750e+01 -5.575176715850830078e+00 -1.810272037982940674e-01 6.305369734764099121e-02 -3.539205342531204224e-02 1.601305231451988220e-02
2.281000000000000000e+03 6.539517211914062500e+01 1.296564340591430664e+00 -7.822779417037963867e-01 5.720427036285400391e+00 1.481444716453552246e+00 3.612271785736083984e+00
2.282000000000000000e+03 3.094296836853027344e+01 -1.495316886901855469e+01 -1.546355895698070526e-02 1.745449662208557129e+00 5.189958214759826660e-01 -7.035670876502990723e-01
2.283000000000000000e+03 5.940009689331054688e+01 -1.334325695037841797e+01 7.347305417060852051e-01 8.705997467041015625e+00 2.832218408584594727e+00 4.774450361728668213e-01
2.284000000000000000e+03 6.291516876220703125e+01 -1.683034324645996094e+01 1.669509559869766235e-01 5.535376071929931641e+00 1.710698127746582031e+00 -1.254986286163330078e+00
2.285000000000000000e+03 1.824357795715332031e+01 1.872662925720214844e+01 -1.284837841987609863e+00 -2.123066633939743042e-01 -4.491433501243591309e-01 -3.078868687152862549e-01
2.286000000000000000e+03 7.184035491943359375e+01 -3.195300817489624023e+00 -1.903055191040039062e+00 4.772880077362060547e+00 8.609474897384643555e-01 -1.663807988166809082e+00
2.287000000000000000e+03 1.277037620544433594e+01 -6.450703144073486328e+00 -1.818068623542785645e-01 8.958567678928375244e-02 -2.766635455191135406e-02 -4.491536319255828857e-02
2.288000000000000000e+03 1.518201446533203125e+01 -7.034343242645263672e+00 -2.874494791030883789e-01 9.861952066421508789e-02 -5.664899200201034546e-02 -7.164042443037033081e-03
2.289000000000000000e+03 8.947360992431640625e+00 1.299037361145019531e+01 -1.024033069610595703e+00 1.389751315116882324e+00 1.097154691815376282e-01 -5.979228019714355469e-01
2.290000000000000000e+03 5.502626037597656250e+01 -1.874927997589111328e+00 -2.559127330780029297e+00 7.768866062164306641e+00 1.562921643257141113e+00 -4.449796199798583984e+00
2.291000000000000000e+03 6.694664001464843750e+01 2.870409011840820312e+00 1.086415052413940430e+00 7.746391296386718750e+00 2.649841785430908203e+00 9.831295013427734375e-01
2.292000000000000000e+03 5.990224456787109375e+01 -1.612273597717285156e+01 9.532388448715209961e-01 7.705262660980224609e+00 2.597550392150878906e+00 -3.759490847587585449e-01
2.293000000000000000e+03 6.034313964843750000e+01 -1.189302062988281250e+01 2.942838966846466064e-01 8.435236930847167969e+00 2.618856191635131836e+00 6.556242704391479492e-01
2.294000000000000000e+03 6.878137207031250000e+01 9.583943367004394531e+00 3.124949932098388672e-01 9.326847076416015625e+00 2.891802549362182617e+00 2.493058890104293823e-01
2.295000000000000000e+03 3.601398849487304688e+01 7.910695075988769531e+00 -1.370276957750320435e-01 1.671258732676506042e-02 -3.609453514218330383e-02 4.925948008894920349e-02
2.296000000000000000e+03 1.429021930694580078e+01 1.667002868652343750e+01 -1.197766423225402832e+00 1.001631692051887512e-01 -3.292809724807739258e-01 -2.042425423860549927e-01
2.297000000000000000e+03 1.691203880310058594e+01 -8.210684776306152344e+00 -3.950158357620239258e-01 1.078766956925392151e-01 -8.614174276590347290e-02 -1.190295629203319550e-02
2.298000000000000000e+03 6.456021118164062500e+01 6.624046564102172852e-01 -2.289460659027099609e+00 5.443854331970214844e+00 9.463180899620056152e-01 3.730960130691528320e+00
2.299000000000000000e+03 2.935011482238769531e+01 2.510494291782379150e-01 2.962179422378540039e+00 4.552439749240875244e-01 1.025227069854736328e+00 6.979906558990478516e-01
2.300000000000000000e+03 6.169546508789062500e+01 -1.216524004936218262e+00 -1.736934423446655273e+00 7.394154548645019531e+00 1.697165966033935547e+00 1.054242014884948730e+00
2.301000000000000000e+03 7.400183868408203125e+01 -2.183313369750976562e+01 -3.162366449832916260e-01 6.771011352539062500e+00 1.936432361602783203e+00 5.163704752922058105e-01
2.302000000000000000e+03 4.689904212951660156e+00 -1.325089931488037109e+01 -9.433896280825138092e-03 -1.215279325842857361e-01 -3.928854689002037048e-02 -1.318325698375701904e-01
2.303000000000000000e+03 5.676766395568847656e+00 -1.036652278900146484e+01 -4.654944315552711487e-02 -5.633692815899848938e-02 -3.086591139435768127e-02 -1.184947118163108826e-01
2.304000000000000000e+03 7.537876129150390625e+01 -1.800984954833984375e+01 -5.418304800987243652e-01 7.957024097442626953e+00 2.224558115005493164e+00 -2.996622920036315918e-01
2.305000000000000000e+03 3.625902175903320312e+01 1.529070734977722168e+00 6.418454051017761230e-01 -8.371749520301818848e-01 -5.859886109828948975e-02 3.162002563476562500e-01
2.306000000000000000e+03 5.904755783081054688e+01 -3.607230901718139648e+00 8.523166775703430176e-01 5.582929611206054688e+00 1.930573821067810059e+00 -1.357879996299743652e+00
2.307000000000000000e+03 7.096192932128906250e+01 1.445916748046875000e+01 1.445034384727478027e+00 5.897725582122802734e+00 2.202827930450439453e+00 1.153768181800842285e+00
2.308000000000000000e+03 4.465259075164794922e+00 2.196300506591796875e+01 -1.504753828048706055e-01 1.260598421096801758e+00 3.330368995666503906e-01 -4.368684720247983932e-03
2.309000000000000000e+03 5.718794822692871094e+00 2.323814964294433594e+01 -1.607025712728500366e-01 1.107937455177307129e+00 2.841704487800598145e-01 6.977755576372146606e-02
2.310000000000000000e+03 5.703934192657470703e+00 3.292724990844726562e+01 4.178423807024955750e-02 9.776951670646667480e-01 3.058438301086425781e-01 1.544042080640792847e-01
2.311000000000000000e+03 2.970793914794921875e+01 -1.251077079772949219e+01 -6.218474358320236206e-02 2.096698522567749023e+00 6.103541851043701172e-01 -9.051790237426757812e-01
2.312000000000000000e+03 2.858676528930664062e+01 -1.303349590301513672e+01 -1.100288555026054382e-01 2.040344715118408203e+00 5.790947079658508301e-01 -9.048631787300109863e-01
2.313000000000000000e+03 6.008076858520507812e+01 -1.081584644317626953e+01 3.116490244865417480e-01 8.728744506835937500e+00 2.712118148803710938e+00 8.852522969245910645e-01
2.314000000000000000e+03 7.589946746826171875e+01 -1.072423839569091797e+01 8.812096118927001953e-01 8.581636428833007812e+00 2.838853836059570312e+00 9.762453436851501465e-01
2.315000000000000000e+03 7.573912811279296875e+01 1.609895706176757812e+01 4.147284030914306641e-01 6.393379688262939453e+00 2.042432308197021484e+00 -2.981246113777160645e-01
2.316000000000000000e+03 7.353353881835937500e+01 1.488404846191406250e+01 1.224383831024169922e+00 5.526703357696533203e+00 2.025326251983642578e+00 2.380207367241382599e-02
2.317000000000000000e+03 4.290154647827148438e+01 -1.263392353057861328e+01 -6.066047549247741699e-01 6.640360355377197266e+00 1.810126662254333496e+00 2.341562747955322266e+00
2.318000000000000000e+03 4.382397079467773438e+01 -1.305184841156005859e+01 -3.504582345485687256e-01 4.880467891693115234e+00 1.359002947807312012e+00 1.692078590393066406e+00
2.319000000000000000e+03 5.114213562011718750e+01 2.945009231567382812e+00 3.917675971984863281e+00 8.766160011291503906e+00 3.805150985717773438e+00 3.804995417594909668e-01
2.320000000000000000e+03 7.646399688720703125e+01 -3.551192092895507812e+01 -1.290930341929197311e-02 6.733874797821044922e+00 2.016289710998535156e+00 2.650763466954231262e-02
2.321000000000000000e+03 7.434102630615234375e+01 -1.818283843994140625e+01 -5.821154713630676270e-01 8.349737167358398438e+00 2.330286741256713867e+00 4.589275717735290527e-01
2.322000000000000000e+03 6.918120861053466797e+00 9.093380928039550781e+00 2.148196399211883545e-01 1.499027729034423828e+00 5.141541957855224609e-01 -1.527899026870727539e+00
2.323000000000000000e+03 4.194836616516113281e+00 8.724049568176269531e+00 3.848929405212402344e-01 3.996253907680511475e-01 2.353554964065551758e-01 -1.098969340324401855e+00
2.324000000000000000e+03 7.701254272460937500e+01 1.819371032714843750e+01 2.124465405941009521e-01 6.589724540710449219e+00 2.040651321411132812e+00 -9.852798655629158020e-03
2.325000000000000000e+03 7.200502777099609375e+01 -1.861771202087402344e+01 -7.947778701782226562e-01 6.320250511169433594e+00 1.657641887664794922e+00 2.018887996673583984e+00
2.326000000000000000e+03 5.387028503417968750e+01 1.288431644439697266e+01 2.773895263671875000e+00 1.040046787261962891e+01 3.952308893203735352e+00 2.368708372116088867e+00
2.327000000000000000e+03 5.519501495361328125e+01 1.598097038269042969e+01 7.361981272697448730e-01 6.878142356872558594e+00 2.284302234649658203e+00 2.748404264450073242e+00
2.328000000000000000e+03 6.441182708740234375e+01 1.600543212890625000e+01 7.579098939895629883e-01 4.986136436462402344e+00 1.723213911056518555e+00 -2.160721063613891602e+00
2.329000000000000000e+03 6.153762435913085938e+01 1.763981437683105469e+01 1.253566026687622070e+00 3.444215536117553711e+00 1.409334540367126465e+00 4.064018130302429199e-01
2.330000000000000000e+03 4.511547470092773438e+01 -1.724364280700683594e+01 1.152017563581466675e-01 3.196166276931762695e+00 9.934103488922119141e-01 -4.853970110416412354e-01
2.331000000000000000e+03 3.461341857910156250e+01 3.135669469833374023e+00 -2.240084558725357056e-01 4.307866990566253662e-01 6.203346699476242065e-02 1.119670033454895020e+00
2.332000000000000000e+03 3.387717056274414062e+01 4.300874233245849609e+00 -8.317944407463073730e-01 5.111278295516967773e-01 -9.619997441768646240e-02 6.675700545310974121e-01
2.333000000000000000e+03 1.941366577148437500e+01 2.127083969116210938e+01 -8.197243213653564453e-01 -1.823625862598419189e-01 -3.006260693073272705e-01 -1.173940822482109070e-01
2.334000000000000000e+03 7.526483535766601562e+00 1.096370410919189453e+01 -7.485120296478271484e-01 1.680081248283386230e+00 2.794707417488098145e-01 -1.063710331916809082e+00
2.335000000000000000e+03 5.633697509765625000e+01 -2.426361274719238281e+01 -4.596278965473175049e-01 5.223997592926025391e+00 1.429310917854309082e+00 9.859423041343688965e-01
2.336000000000000000e+03 5.980450820922851562e+01 -2.007623100280761719e+01 -4.315980970859527588e-01 7.314463615417480469e+00 2.064859628677368164e+00 -1.235646724700927734e+00
2.337000000000000000e+03 4.956855392456054688e+01 2.402972221374511719e+00 3.252327680587768555e+00 5.887153625488281250e+00 2.741844415664672852e+00 2.010725736618041992e+00
2.338000000000000000e+03 7.515312957763671875e+01 -2.346863174438476562e+01 -1.399371027946472168e-01 6.832588195800781250e+00 2.007795333862304688e+00 2.958022356033325195e-01
2.339000000000000000e+03 5.285031318664550781e+00 1.429266643524169922e+01 -4.211471080780029297e-01 1.159881591796875000e+00 2.216203361749649048e-01 -7.091319561004638672e-01
2.340000000000000000e+03 6.472629547119140625e+01 1.816128540039062500e+01 3.698344528675079346e-01 5.622097015380859375e+00 1.797579526901245117e+00 -9.434735774993896484e-01
2.341000000000000000e+03 6.624723815917968750e+01 1.586507511138916016e+01 -3.652108907699584961e-01 8.417582511901855469e+00 2.415711641311645508e+00 -2.763122618198394775e-01
2.342000000000000000e+03 6.280858993530273438e+00 -1.448026847839355469e+01 -7.524955086410045624e-03 -9.395601600408554077e-02 -3.044429235160350800e-02 -1.650392562150955200e-01
2.343000000000000000e+03 5.808101654052734375e+00 -1.169738769531250000e+01 -2.458072640001773834e-02 -6.836818903684616089e-02 -2.788467332720756531e-02 -1.379308551549911499e-01
2.344000000000000000e+03 5.943098449707031250e+01 -8.070297241210937500e+00 7.566282749176025391e-01 8.089533805847167969e+00 2.653848648071289062e+00 7.256907820701599121e-01
2.345000000000000000e+03 8.044978141784667969e+00 -1.901743507385253906e+01 2.840110659599304199e-02 -8.309325575828552246e-02 -1.640764437615871429e-02 -1.793161481618881226e-01
2.346000000000000000e+03 7.517019653320312500e+01 1.217967891693115234e+01 1.023157034069299698e-02 5.992640495300292969e+00 1.800861597061157227e+00 -1.781280040740966797e+00
2.347000000000000000e+03 7.517114257812500000e+01 1.386202812194824219e+01 5.901200771331787109e-01 5.834461212158203125e+00 1.927374362945556641e+00 -9.312602877616882324e-01
2.348000000000000000e+03 2.578276252746582031e+01 -1.351018619537353516e+01 -5.060895681381225586e-01 2.573038578033447266e+00 6.200847029685974121e-01 8.504395931959152222e-02
2.349000000000000000e+03 7.268372344970703125e+01 -2.436772346496582031e+00 -9.389858841896057129e-01 4.221404552459716797e+00 9.847255349159240723e-01 -1.704128623008728027e+00
2.350000000000000000e+03 4.857574844360351562e+01 4.015947818756103516e+00 3.336823225021362305e+00 5.377433776855468750e+00 2.614277124404907227e+00 2.772602319717407227e+00
2.351000000000000000e+03 6.323637485504150391e+00 3.111082267761230469e+01 2.876406535506248474e-02 9.652469158172607422e-01 2.982032895088195801e-01 2.000420242547988892e-01
2.352000000000000000e+03 7.495675659179687500e+01 2.293962860107421875e+01 7.785750553011894226e-03 6.760151386260986328e+00 2.030381202697753906e+00 2.724356651306152344e-01
2.353000000000000000e+03 5.757993698120117188e+01 -1.982507896423339844e+01 -1.186477422714233398e+00 8.413233757019042969e+00 2.168026924133300781e+00 -3.739588856697082520e-01
2.354000000000000000e+03 6.080769062042236328e+00 -2.849848175048828125e+01 1.471489295363426208e-02 -2.746203839778900146e-01 -7.797164469957351685e-02 -8.927939832210540771e-02
2.355000000000000000e+03 7.517771148681640625e+01 -3.089770698547363281e+01 5.952546000480651855e-02 6.579706668853759766e+00 1.991769671440124512e+00 1.210017874836921692e-01
2.356000000000000000e+03 3.794688415527343750e+01 -2.150014114379882812e+01 4.397352933883666992e-01 3.070466756820678711e+00 1.053060650825500488e+00 9.535799026489257812e-01
2.357000000000000000e+03 5.621215438842773438e+01 -4.611002445220947266e+00 -8.001490235328674316e-01 5.881436347961425781e+00 1.524386286735534668e+00 -2.422847509384155273e+00
2.358000000000000000e+03 5.574921798706054688e+01 -2.768903255462646484e+00 -1.246197462081909180e+00 5.955338478088378906e+00 1.412742376327514648e+00 -4.334428310394287109e+00
2.359000000000000000e+03 5.961090564727783203e+00 -1.305609130859375000e+01 -3.244191408157348633e-02 -8.770364522933959961e-02 -3.604367002844810486e-02 -1.473661661148071289e-01
2.360000000000000000e+03 5.006102561950683594e+00 -1.614533615112304688e+01 2.774866297841072083e-03 -1.672444194555282593e-01 -4.934086650609970093e-02 -1.440686285495758057e-01
2.361000000000000000e+03 5.809383392333984375e+01 -1.250151634216308594e+01 6.620806455612182617e-01 9.509482383728027344e+00 3.051468849182128906e+00 1.958079338073730469e-01
2.362000000000000000e+03 5.969966411590576172e+00 -2.371744918823242188e+01 3.126779571175575256e-02 -2.492389976978302002e-01 -6.539136171340942383e-02 -1.236382201313972473e-01
2.363000000000000000e+03 7.037553787231445312e+00 1.250573062896728516e+01 -7.562517523765563965e-01 1.423830509185791016e+00 2.002736479043960571e-01 -8.680242896080017090e-01
2.364000000000000000e+03 7.172535705566406250e+01 -1.981142234802246094e+01 -3.209419921040534973e-02 5.679679393768310547e+00 1.694275617599487305e+00 1.483373403549194336e+00
2.365000000000000000e+03 5.376420497894287109e+00 8.427116394042968750e+00 5.504572391510009766e-01 7.019893527030944824e-01 3.757339715957641602e-01 -1.231754899024963379e+00
2.366000000000000000e+03 7.074165821075439453e+00 6.440112113952636719e+00 2.297396659851074219e+00 1.051981568336486816e+00 1.004813432693481445e+00 -1.772682785987854004e+00
2.367000000000000000e+03 5.668231582641601562e+01 -2.307875442504882812e+01 -1.142029285430908203e+00 5.748579025268554688e+00 1.381964921951293945e+00 8.798366189002990723e-01
2.368000000000000000e+03 5.552041625976562500e+01 -2.270117378234863281e+01 -8.779754638671875000e-01 5.701699733734130859e+00 1.447117328643798828e+00 1.687336444854736328e+00
2.369000000000000000e+03 2.807317161560058594e+01 -1.209729194641113281e+01 -4.558633267879486084e-01 2.748781919479370117e+00 6.878755688667297363e-01 -8.842946290969848633e-01
2.370000000000000000e+03 2.899749183654785156e+01 -1.138490295410156250e+01 1.822614818811416626e-01 2.124254226684570312e+00 6.919547319412231445e-01 -1.273482799530029297e+00
2.371000000000000000e+03 5.883560180664062500e+00 1.949943351745605469e+01 -3.162252008914947510e-01 1.134850859642028809e+00 2.455876916646957397e-01 -1.125381067395210266e-01
2.372000000000000000e+03 7.264230346679687500e+01 -2.796312522888183594e+01 1.510241776704788208e-01 6.100016593933105469e+00 1.875312328338623047e+00 1.843641102313995361e-01
2.373000000000000000e+03 6.676283359527587891e+00 1.580043315887451172e+01 -5.993465781211853027e-01 1.201723217964172363e+00 1.807130128145217896e-01 -5.130953192710876465e-01
2.374000000000000000e+03 7.300145721435546875e+01 -3.004408454895019531e+01 1.169262900948524475e-01 6.192277431488037109e+00 1.892761111259460449e+00 1.378174424171447754e-01
2.375000000000000000e+03 6.197349548339843750e+01 -1.673679924011230469e+01 5.002469420433044434e-01 6.264154434204101562e+00 2.029320478439331055e+00 -1.037685751914978027e+00
2.376000000000000000e+03 1.146472167968750000e+01 1.671831130981445312e+01 -9.209126234054565430e-01 5.658561587333679199e-01 -1.065169498324394226e-01 -1.893371194601058960e-01
2.377000000000000000e+03 1.201645946502685547e+01 1.535441780090332031e+01 -1.103925943374633789e+00 4.903643131256103516e-01 -1.840685009956359863e-01 -2.020225822925567627e-01
2.378000000000000000e+03 4.846661376953125000e+01 -1.824654197692871094e+01 -9.249915480613708496e-01 7.824754714965820312e-01 -4.275483638048171997e-02 -3.717334270477294922e-01
2.379000000000000000e+03 1.809786987304687500e+01 -1.051404380798339844e+01 -3.163904845714569092e-01 1.962357610464096069e-01 -3.604641929268836975e-02 -1.066238284111022949e-01
2.380000000000000000e+03 5.067369461059570312e+01 2.168719100952148438e+01 -1.195600628852844238e+00 5.177556514739990234e+00 1.194586753845214844e+00 -1.025640964508056641e+00
2.381000000000000000e+03 7.468359375000000000e+01 -7.982321739196777344e+00 4.029298126697540283e-01 8.566036224365234375e+00 2.690689802169799805e+00 1.198263168334960938e+00
2.382000000000000000e+03 3.059856033325195312e+01 1.849773597717285156e+01 -7.116078734397888184e-01 -2.073192298412322998e-01 -2.756781280040740967e-01 9.743184447288513184e-01
2.383000000000000000e+03 2.910969352722167969e+01 1.855397224426269531e+01 -8.471119403839111328e-01 6.159225106239318848e-01 -6.935684382915496826e-02 1.435287117958068848e+00
2.384000000000000000e+03 4.739382934570312500e+01 2.209770774841308594e+01 -6.455252170562744141e-01 3.055244207382202148e+00 7.229156494140625000e-01 -1.344074130058288574e+00
2.385000000000000000e+03 4.595656967163085938e+01 2.167271995544433594e+01 -3.941429555416107178e-01 2.283787965774536133e+00 5.668935179710388184e-01 -1.118246674537658691e+00
2.386000000000000000e+03 6.511291503906250000e+00 -1.905294799804687500e+01 1.103224698454141617e-02 -1.558349728584289551e-01 -4.344081878662109375e-02 -1.633052974939346313e-01
2.387000000000000000e+03 7.514315795898437500e+01 -6.858884334564208984e+00 8.074529469013214111e-02 8.022137641906738281e+00 2.430865049362182617e+00 1.336162567138671875e+00
2.388000000000000000e+03 7.524062347412109375e+01 -5.759847164154052734e+00 -2.313365489244461060e-01 7.624324321746826172e+00 2.217896223068237305e+00 1.318024516105651855e+00
2.389000000000000000e+03 4.495543479919433594e+00 2.063081359863281250e+01 -1.649720817804336548e-01 1.261745691299438477e+00 3.290320634841918945e-01 -4.252599924802780151e-02
2.390000000000000000e+03 2.533869934082031250e+01 2.101668167114257812e+01 -1.408902883529663086e+00 9.098775982856750488e-01 -1.497075706720352173e-01 2.785637043416500092e-02
2.391000000000000000e+03 4.645805358886718750e+00 -3.353258895874023438e+01 2.114206552505493164e-02 -4.390179812908172607e-01 -1.253627836704254150e-01 -4.878597334027290344e-02
2.392000000000000000e+03 6.596969127655029297e+00 -3.174929428100585938e+01 3.189551085233688354e-02 -2.609604597091674805e-01 -6.871948391199111938e-02 -6.451778858900070190e-02
2.393000000000000000e+03 6.869258117675781250e+01 1.542635250091552734e+01 5.558790564537048340e-01 7.728075504302978516e+00 2.485186338424682617e+00 1.201383948326110840e+00
2.394000000000000000e+03 7.018047332763671875e+01 1.646967124938964844e+01 5.951103568077087402e-01 6.732311248779296875e+00 2.198226451873779297e+00 9.661130309104919434e-01
2.395000000000000000e+03 2.076256179809570312e+01 -1.323406314849853516e+01 -6.704230606555938721e-02 4.222097992897033691e-01 1.065502464771270752e-01 6.598648428916931152e-02
2.396000000000000000e+03 2.181923484802246094e+01 -1.403555393218994141e+01 4.671460017561912537e-02 7.621936202049255371e-01 2.426724582910537720e-01 1.609104424715042114e-01
2.397000000000000000e+03 6.670373535156250000e+01 -2.119048118591308594e+01 7.905496358871459961e-01 4.136717796325683594e+00 1.478180170059204102e+00 -5.420454144477844238e-01
2.398000000000000000e+03 2.751202011108398438e+01 -1.297452735900878906e+01 -3.090910315513610840e-01 2.687245130538940430e+00 7.134461998939514160e-01 -4.917006194591522217e-01
2.399000000000000000e+03 2.111170196533203125e+01 6.732388496398925781e+00 -3.869170248508453369e-01 1.608669281005859375e+00 3.665256500244140625e-01 2.300148963928222656e+00
2.400000000000000000e+03 2.033263587951660156e+01 6.510056972503662109e+00 -2.876002490520477295e-01 2.145013093948364258e+00 5.572238564491271973e-01 2.979388952255249023e+00
2.401000000000000000e+03 2.067067527770996094e+01 6.630650043487548828e+00 -3.258466124534606934e-01 1.811901926994323730e+00 4.458165764808654785e-01 2.574999332427978516e+00
2.402000000000000000e+03 1.871087265014648438e+01 7.709652900695800781e+00 -5.778625011444091797e+00 1.795965313911437988e+00 -1.194797992706298828e+00 -6.128278374671936035e-01
2.403000000000000000e+03 1.851638793945312500e+01 6.773624897003173828e+00 -3.491806268692016602e+00 4.521043777465820312e+00 3.087713420391082764e-01 1.204900264739990234e+00
2.404000000000000000e+03 8.241887092590332031e+00 -4.739894390106201172e+00 -8.500538021326065063e-02 1.642335392534732819e-02 -2.057460881769657135e-02 -4.318784549832344055e-02
2.405000000000000000e+03 1.013149070739746094e+01 -6.306997299194335938e+00 -1.235612034797668457e-01 4.151089489459991455e-02 -2.461509220302104950e-02 -7.183329761028289795e-02
2.406000000000000000e+03 1.213593673706054688e+01 -7.384890556335449219e+00 -1.821962743997573853e-01 8.011677116155624390e-02 -3.062385134398937225e-02 -7.089335471391677856e-02
2.407000000000000000e+03 6.364030838012695312e+00 5.755617141723632812e+00 2.310234546661376953e+00 -1.074222698807716370e-01 6.608436703681945801e-01 -7.591373324394226074e-01
2.408000000000000000e+03 4.842829227447509766e+00 6.567226409912109375e+00 1.201337337493896484e+00 -3.795648738741874695e-02 3.490142524242401123e-01 -7.484587430953979492e-01
2.409000000000000000e+03 4.104918670654296875e+01 1.690242767333984375e+01 -1.527420520782470703e+00 6.921856403350830078e-01 -2.505704462528228760e-01 -1.383273452520370483e-01
2.410000000000000000e+03 3.905610275268554688e+01 1.766726303100585938e+01 -1.532063961029052734e+00 4.073386490345001221e-01 -3.374175727367401123e-01 -2.750646770000457764e-01
2.411000000000000000e+03 1.283299541473388672e+01 -8.218215942382812500e+00 -2.049921900033950806e-01 1.080332398414611816e-01 -2.908768504858016968e-02 -9.578006714582443237e-02
2.412000000000000000e+03 3.985879898071289062e+01 1.731750869750976562e+01 -1.577933788299560547e+00 5.645046830177307129e-01 -3.040287196636199951e-01 -2.290402799844741821e-01
2.413000000000000000e+03 6.409875488281250000e+01 2.510143041610717773e+00 -8.924686908721923828e-01 5.091475963592529297e+00 1.259702205657958984e+00 2.569722175598144531e+00
2.414000000000000000e+03 9.953631401062011719e+00 -5.527054786682128906e+00 -1.006963327527046204e-01 3.650109469890594482e-02 -1.925857178866863251e-02 -4.450040310621261597e-02
2.415000000000000000e+03 4.076181030273437500e+01 1.786777496337890625e+01 -1.438442707061767578e+00 6.381101608276367188e-01 -2.400997728109359741e-01 -2.731688618659973145e-01
2.416000000000000000e+03 1.505970001220703125e+01 -9.200991630554199219e+00 -2.724977433681488037e-01 1.377738118171691895e-01 -4.041717574000358582e-02 -1.013825014233589172e-01
2.417000000000000000e+03 6.450747489929199219e+00 1.158114242553710938e+01 -5.060762166976928711e-01 1.400020122528076172e+00 2.681831717491149902e-01 -1.157161951065063477e+00
2.418000000000000000e+03 6.536511993408203125e+01 -1.731445884704589844e+01 8.953253179788589478e-02 3.538392543792724609e+00 1.088377475738525391e+00 -1.246261596679687500e+00
2.419000000000000000e+03 6.603573608398437500e+01 -1.831300544738769531e+01 5.804641842842102051e-01 3.362714290618896484e+00 1.182953596115112305e+00 -1.090680003166198730e+00
2.420000000000000000e+03 1.449027729034423828e+01 -7.420983314514160156e+00 -2.867091298103332520e-01 1.104871779680252075e-01 -5.286658182740211487e-02 -4.440886899828910828e-02
2.421000000000000000e+03 1.369699573516845703e+01 -6.557816505432128906e+00 -2.422891855239868164e-01 8.141174912452697754e-02 -4.826322942972183228e-02 -2.735788933932781219e-02
2.422000000000000000e+03 7.459680938720703125e+01 -4.549188613891601562e+00 -2.876419425010681152e-01 6.867081165313720703e+00 1.973831892013549805e+00 8.482276201248168945e-01
2.423000000000000000e+03 4.903832912445068359e+00 -6.917319297790527344e+00 -3.091694042086601257e-02 -2.784764394164085388e-02 -1.762937568128108978e-02 -6.291174888610839844e-02
2.424000000000000000e+03 6.968944549560546875e+00 -7.549540042877197266e+00 -5.805087089538574219e-02 -2.675897907465696335e-03 -1.821803115308284760e-02 -9.480043500661849976e-02
2.425000000000000000e+03 7.434627532958984375e+01 -1.928265380859375000e+01 -6.482092142105102539e-01 7.550980091094970703e+00 2.070831298828125000e+00 2.152795493602752686e-01
2.426000000000000000e+03 4.761767864227294922e+00 1.108598327636718750e+01 -1.288870424032211304e-01 9.599410295486450195e-01 2.493162006139755249e-01 -1.154701113700866699e+00
2.427000000000000000e+03 5.837562084197998047e+00 1.321287918090820312e+01 -4.917130470275878906e-01 1.246040821075439453e+00 2.262983322143554688e-01 -8.864156007766723633e-01
2.428000000000000000e+03 5.923147583007812500e+01 -1.223519420623779297e+01 4.921849668025970459e-01 9.093151092529296875e+00 2.875600814819335938e+00 6.580314636230468750e-01
2.429000000000000000e+03 1.459770774841308594e+01 -6.592175006866455078e+00 -2.287692427635192871e-01 8.954738080501556396e-02 -4.176655784249305725e-02 -3.384483046829700470e-03
2.430000000000000000e+03 5.716562271118164062e+01 1.602717399597167969e+01 1.106141090393066406e+00 4.681016921997070312e+00 1.736147403717041016e+00 2.659802675247192383e+00
2.431000000000000000e+03 4.700151062011718750e+01 2.246975898742675781e+00 2.959033012390136719e+00 3.681006908416748047e+00 1.992012023925781250e+00 3.739442586898803711e+00
2.432000000000000000e+03 2.376699066162109375e+01 -1.380696868896484375e+01 -1.113240495324134827e-01 1.391151309013366699e+00 3.839481770992279053e-01 2.959751188755035400e-01
2.433000000000000000e+03 4.541540908813476562e+01 -1.895900726318359375e+01 -3.563436493277549744e-02 2.829193592071533203e+00 8.380677700042724609e-01 -8.863305449485778809e-01
2.434000000000000000e+03 5.407109069824218750e+01 -2.400861024856567383e+00 -2.305011987686157227e+00 6.999781608581542969e+00 1.408430933952331543e+00 -3.359136819839477539e+00
2.435000000000000000e+03 6.525072479248046875e+01 -1.922922325134277344e+01 4.473729133605957031e-01 4.077607631683349609e+00 1.357494115829467773e+00 -1.174162507057189941e+00
2.436000000000000000e+03 3.693221664428710938e+01 1.901509284973144531e+01 -1.136293053627014160e+00 -1.829199790954589844e-01 -3.957639038562774658e-01 -2.593512833118438721e-01
2.437000000000000000e+03 1.068524265289306641e+01 1.470127487182617188e+01 -1.012860178947448730e+00 7.754341363906860352e-01 -7.122781127691268921e-02 -3.528559803962707520e-01
2.438000000000000000e+03 1.921776008605957031e+01 -1.387229824066162109e+01 2.796049416065216064e-02 3.363021314144134521e-01 1.092787906527519226e-01 -7.790448516607284546e-02
2.439000000000000000e+03 1.844405174255371094e+01 -1.228077030181884766e+01 -7.033773511648178101e-02 1.874144226312637329e-01 3.512300923466682434e-02 -1.489134728908538818e-01
2.440000000000000000e+03 5.061296844482421875e+01 1.799295067787170410e+00 3.449360847473144531e+00 6.801773071289062500e+00 3.075340270996093750e+00 1.662165641784667969e+00
2.441000000000000000e+03 5.858602523803710938e+01 -7.319211483001708984e+00 7.179473042488098145e-01 7.419082164764404297e+00 2.441108703613281250e+00 1.962843388319015503e-01
2.442000000000000000e+03 5.821970367431640625e+01 -2.056679248809814453e+00 2.165509313344955444e-01 3.561975479125976562e+00 1.133557915687561035e+00 -2.141187191009521484e+00
2.443000000000000000e+03 7.211252593994140625e+01 1.415380764007568359e+01 1.767367959022521973e+00 5.160583972930908203e+00 2.078385591506958008e+00 5.535628199577331543e-01
2.444000000000000000e+03 1.602517700195312500e+01 1.796515846252441406e+01 -1.216474294662475586e+00 -7.835491746664047241e-02 -3.884487450122833252e-01 -2.021714597940444946e-01
2.445000000000000000e+03 1.523284912109375000e+01 1.730054664611816406e+01 -1.096203088760375977e+00 -6.777416169643402100e-02 -3.491931855678558350e-01 -2.360323965549468994e-01
2.446000000000000000e+03 6.233180999755859375e+01 -1.537447071075439453e+01 1.055308133363723755e-01 6.420766353607177734e+00 1.957889080047607422e+00 -7.572162151336669922e-01
2.447000000000000000e+03 6.157677841186523438e+01 -1.400335788726806641e+01 1.321440190076828003e-01 7.474282741546630859e+00 2.281928062438964844e+00 -2.152405530214309692e-01
2.448000000000000000e+03 5.916993331909179688e+01 -6.140228748321533203e+00 1.004434466361999512e+00 7.247659206390380859e+00 2.475628137588500977e+00 7.913606613874435425e-02
2.449000000000000000e+03 5.854454421997070312e+01 -4.642783641815185547e+00 8.477404117584228516e-01 6.126626014709472656e+00 2.092309951782226562e+00 -9.020159840583801270e-01
2.450000000000000000e+03 6.105207824707031250e+01 4.195584654808044434e-01 -3.164317131042480469e+00 4.703692436218261719e+00 4.618125557899475098e-01 1.201601505279541016e+00
2.451000000000000000e+03 5.976286411285400391e+00 2.454461097717285156e+01 -9.191593527793884277e-02 1.053744196891784668e+00 2.885484993457794189e-01 1.414090096950531006e-01
2.452000000000000000e+03 3.314606094360351562e+01 -1.846233558654785156e+01 4.509884417057037354e-01 1.402172207832336426e+00 5.559481978416442871e-01 -4.005866050720214844e-01
2.453000000000000000e+03 5.405839157104492188e+01 1.500156307220458984e+01 5.971397161483764648e-01 9.063153266906738281e+00 2.898087978363037109e+00 3.410653591156005859e+00
2.454000000000000000e+03 7.421725463867187500e+01 -2.051382637023925781e+01 -4.617076218128204346e-01 7.332574844360351562e+00 2.061260223388671875e+00 5.331649780273437500e-01
2.455000000000000000e+03 7.319302368164062500e+01 -1.904275512695312500e+01 -7.892519831657409668e-01 7.874393939971923828e+00 2.125542640686035156e+00 1.036763072013854980e+00
2.456000000000000000e+03 5.736100006103515625e+01 -2.644708871841430664e+00 -1.085463818162679672e-02 3.962174415588378906e+00 1.185395956039428711e+00 -3.263014316558837891e+00
2.457000000000000000e+03 4.326423263549804688e+01 1.756970787048339844e+01 -1.048454523086547852e+00 7.285535335540771484e-01 -9.597028046846389771e-02 -3.048169612884521484e-01
2.458000000000000000e+03 7.605257511138916016e+00 1.716120338439941406e+01 -6.286767125129699707e-01 1.062093019485473633e+00 1.300248950719833374e-01 -3.092956244945526123e-01
2.459000000000000000e+03 6.522328853607177734e+00 -1.598972606658935547e+01 -8.903661742806434631e-03 -1.154520660638809204e-01 -3.730671852827072144e-02 -1.687058359384536743e-01
2.460000000000000000e+03 6.091400909423828125e+01 -1.659713363647460938e+01 7.390120625495910645e-01 7.330234050750732422e+00 2.420773983001708984e+00 -9.120811223983764648e-01
2.461000000000000000e+03 6.549806976318359375e+01 1.696508789062500000e+01 -2.422109991312026978e-01 7.222838401794433594e+00 2.094188213348388672e+00 -1.183969378471374512e+00
2.462000000000000000e+03 1.748800086975097656e+01 2.027657127380371094e+01 -8.635400533676147461e-01 -7.949155569076538086e-02 -2.829094827175140381e-01 -1.116543039679527283e-01
2.463000000000000000e+03 1.261033725738525391e+01 1.730388641357421875e+01 -9.880989789962768555e-01 3.892407417297363281e-01 -1.796574890613555908e-01 -8.642970025539398193e-02
2.464000000000000000e+03 6.960553741455078125e+01 -2.182666778564453125e+01 5.439723134040832520e-01 4.577362060546875000e+00 1.536400198936462402e+00 4.712236523628234863e-01
2.465000000000000000e+03 5.324234771728515625e+01 1.612936782836914062e+01 -3.963702321052551270e-01 9.812306404113769531e+00 2.824780941009521484e+00 1.867500185966491699e+00
2.466000000000000000e+03 4.991517066955566406e+00 2.761004447937011719e+01 -2.654507011175155640e-02 1.136796951293945312e+00 3.330755829811096191e-01 1.507759094238281250e-01
2.467000000000000000e+03 7.368151855468750000e+01 2.074600219726562500e+01 1.238654330372810364e-01 6.636568546295166016e+00 2.028130054473876953e+00 3.208535313606262207e-01
2.468000000000000000e+03 7.531812286376953125e+01 1.994978523254394531e+01 2.114382237195968628e-01 6.632835388183593750e+00 2.053282260894775391e+00 2.221636921167373657e-01
2.469000000000000000e+03 4.071518325805664062e+01 -2.109800910949707031e+01 1.053758058696985245e-02 3.638024330139160156e+00 1.094568490982055664e+00 6.987024843692779541e-02
2.470000000000000000e+03 4.402550125122070312e+01 -2.075081443786621094e+01 -4.684180617332458496e-01 3.604018926620483398e+00 9.406802058219909668e-01 -6.772611737251281738e-01
2.471000000000000000e+03 7.310289764404296875e+01 -2.638288307189941406e+01 1.391515880823135376e-01 6.211553096771240234e+00 1.905211448669433594e+00 2.760849297046661377e-01
2.472000000000000000e+03 7.309629821777343750e+01 1.382587337493896484e+01 1.432235717773437500e+00 4.902540683746337891e+00 1.900432825088500977e+00 -2.791418433189392090e-01
2.473000000000000000e+03 2.654745674133300781e+01 -1.587995910644531250e+01 -2.075455933809280396e-01 1.971672534942626953e+00 5.292381048202514648e-01 -1.558790951967239380e-01
2.474000000000000000e+03 7.490947723388671875e+01 1.871742248535156250e+01 3.050327599048614502e-01 6.504065513610839844e+00 2.042729616165161133e+00 1.745187789201736450e-01
2.475000000000000000e+03 2.095882034301757812e+01 -1.510131931304931641e+01 -6.700173765420913696e-02 6.110919117927551270e-01 1.632270514965057373e-01 9.391625225543975830e-02
2.476000000000000000e+03 1.964793395996093750e+01 -1.267278385162353516e+01 -1.042082235217094421e-01 3.247777223587036133e-01 6.617084890604019165e-02 -8.157645934261381626e-04
2.477000000000000000e+03 6.070718002319335938e+01 -2.126738548278808594e+01 -1.351511180400848389e-01 6.728873252868652344e+00 1.978116631507873535e+00 -9.246904253959655762e-01
2.478000000000000000e+03 2.928684616088867188e+01 2.017576408386230469e+01 -1.181116938591003418e+00 8.538191318511962891e-01 -9.818932414054870605e-02 9.560894966125488281e-01
2.479000000000000000e+03 2.661563682556152344e+01 2.312011528015136719e+01 -1.097831368446350098e+00 7.086317539215087891e-01 -1.167598739266395569e-01 1.706969887018203735e-01
2.480000000000000000e+03 7.041522216796875000e+01 1.821055984497070312e+01 3.117384314537048340e-01 6.814869880676269531e+00 2.137982368469238281e+00 5.909108519554138184e-01
2.481000000000000000e+03 6.977692413330078125e+01 1.490538692474365234e+01 1.191473722457885742e+00 6.992864131927490234e+00 2.455301284790039062e+00 1.340153932571411133e+00
2.482000000000000000e+03 5.750561141967773438e+01 -2.419870758056640625e+01 -5.690516829490661621e-01 5.659042835235595703e+00 1.526997327804565430e+00 6.571748852729797363e-01
2.483000000000000000e+03 5.289738464355468750e+01 2.093581008911132812e+01 -1.342865467071533203e+00 6.474951744079589844e+00 1.539626002311706543e+00 2.368984520435333252e-01
2.484000000000000000e+03 7.654252624511718750e+01 2.763829803466796875e+01 -2.611771970987319946e-02 6.987126827239990234e+00 2.088302850723266602e+00 1.771546304225921631e-01
2.485000000000000000e+03 7.474966430664062500e+01 2.853310012817382812e+01 -4.514431208372116089e-02 6.894698143005371094e+00 2.054866075515747070e+00 2.196643799543380737e-01
2.486000000000000000e+03 7.868345737457275391e+00 -2.808819770812988281e+01 4.967657104134559631e-02 -1.498521119356155396e-01 -3.005266189575195312e-02 -9.782321006059646606e-02
2.487000000000000000e+03 3.895629501342773438e+01 -2.268749237060546875e+01 -1.016874983906745911e-01 3.043207406997680664e+00 8.824559450149536133e-01 7.244829833507537842e-02
2.488000000000000000e+03 3.367435455322265625e+01 -1.989685630798339844e+01 4.864822328090667725e-01 1.733635544776916504e+00 6.660353541374206543e-01 -1.408667564392089844e-01
2.489000000000000000e+03 3.429605484008789062e+01 -2.155257225036621094e+01 4.981959164142608643e-01 1.681242465972900391e+00 6.538315415382385254e-01 4.857750609517097473e-02
2.490000000000000000e+03 3.241764068603515625e+01 2.038782119750976562e+01 -6.902580857276916504e-01 -3.104054629802703857e-01 -3.001990616321563721e-01 5.305011868476867676e-01
2.491000000000000000e+03 3.259822845458984375e+01 2.215856552124023438e+01 -5.189021825790405273e-01 -6.956426054239273071e-02 -1.765399426221847534e-01 4.068814814090728760e-01
2.492000000000000000e+03 5.593315124511718750e+01 -2.572119712829589844e+01 -2.734695374965667725e-01 4.430688381195068359e+00 1.247165679931640625e+00 8.494796156883239746e-01
2.493000000000000000e+03 4.787421417236328125e+01 2.034552001953125000e+01 -6.351064443588256836e-01 3.212469339370727539e+00 7.732089161872863770e-01 -1.534658908843994141e+00
2.494000000000000000e+03 5.678873062133789062e+00 9.498088836669921875e+00 2.068493664264678955e-01 9.955068230628967285e-01 3.607068359851837158e-01 -1.429476380348205566e+00
2.495000000000000000e+03 5.968796539306640625e+01 -9.139226913452148438e+00 6.233415007591247559e-01 8.563210487365722656e+00 2.755965471267700195e+00 9.117931723594665527e-01
2.496000000000000000e+03 1.590464782714843750e+01 -8.619285583496093750e+00 -3.010855019092559814e-01 1.402202248573303223e-01 -4.825958237051963806e-02 -6.869088113307952881e-02
2.497000000000000000e+03 7.435360717773437500e+01 -3.318221282958984375e+01 5.352148041129112244e-02 6.469634056091308594e+00 1.956946730613708496e+00 8.901573717594146729e-02
2.498000000000000000e+03 7.037344360351562500e+01 -3.484072875976562500e+01 8.079000562429428101e-02 5.933060646057128906e+00 1.804155230522155762e+00 3.905239701271057129e-02
2.499000000000000000e+03 5.144942474365234375e+01 -2.207306861877441406e+01 3.441213369369506836e-01 1.264320731163024902e+00 4.825326502323150635e-01 4.935346841812133789e-01
2.500000000000000000e+03 5.326179504394531250e+01 -2.527025222778320312e+01 2.910990715026855469e-01 3.100238800048828125e+00 1.017401337623596191e+00 8.297414183616638184e-01
2.501000000000000000e+03 6.248068809509277344e+00 -2.209941291809082031e+01 2.456174604594707489e-02 -2.061309516429901123e-01 -5.447076261043548584e-02 -1.411184072494506836e-01
2.502000000000000000e+03 4.592179107666015625e+01 -2.075577735900878906e+01 -1.021350100636482239e-01 2.823555231094360352e+00 8.164260983467102051e-01 -9.957522749900817871e-01
2.503000000000000000e+03 6.692983627319335938e+00 1.487765407562255859e+01 -6.162187457084655762e-01 1.186847686767578125e+00 1.711886823177337646e-01 -6.132439970970153809e-01
2.504000000000000000e+03 5.506557941436767578e+00 -9.007931709289550781e+00 -3.394133970141410828e-02 -4.098268970847129822e-02 -2.247720956802368164e-02 -1.027051806449890137e-01
2.505000000000000000e+03 9.198551177978515625e+00 -7.232421398162841797e+00 -1.268854588270187378e-01 4.040241241455078125e-02 -2.594491466879844666e-02 -8.838375657796859741e-02
2.506000000000000000e+03 1.068477535247802734e+01 -5.733675003051757812e+00 -1.357494294643402100e-01 4.185325279831886292e-02 -2.816885150969028473e-02 -5.077324807643890381e-02
2.507000000000000000e+03 1.188341999053955078e+01 -9.127682685852050781e+00 -1.568555384874343872e-01 9.255716949701309204e-02 -1.928951218724250793e-02 -1.239395365118980408e-01
2.508000000000000000e+03 1.364642524719238281e+01 -7.592267513275146484e+00 -2.037282139062881470e-01 9.720601886510848999e-02 -3.195665776729583740e-02 -5.895823985338211060e-02
2.509000000000000000e+03 6.117033481597900391e+00 7.051372051239013672e+00 1.376605749130249023e+00 5.439766049385070801e-01 5.761746764183044434e-01 -1.373765826225280762e+00
2.510000000000000000e+03 8.429722785949707031e+00 -6.920812129974365234e+00 -8.346386253833770752e-02 1.958892308175563812e-02 -1.916248165071010590e-02 -8.550877869129180908e-02
2.511000000000000000e+03 3.792912673950195312e+01 1.754124832153320312e+01 -1.694561958312988281e+00 6.732192635536193848e-02 -4.881720244884490967e-01 -3.159953951835632324e-01
2.512000000000000000e+03 3.912688446044921875e+01 1.672224998474121094e+01 -1.884028196334838867e+00 4.324952960014343262e-01 -4.354598522186279297e-01 -2.157621085643768311e-01
2.513000000000000000e+03 5.876003265380859375e+00 -6.073829650878906250e+00 -4.414610192179679871e-02 -1.007221546024084091e-02 -1.626549474895000458e-02 -6.421227753162384033e-02
2.514000000000000000e+03 8.090692520141601562e+00 -7.844677448272705078e+00 -9.761355817317962646e-02 1.301803253591060638e-02 -2.537865936756134033e-02 -9.687929600477218628e-02
2.515000000000000000e+03 1.150771236419677734e+01 -6.682381153106689453e+00 -1.543378829956054688e-01 6.256864219903945923e-02 -2.753077074885368347e-02 -6.683988869190216064e-02
2.516000000000000000e+03 5.764303970336914062e+01 -4.151359081268310547e+00 4.445995688438415527e-01 5.337989330291748047e+00 1.734776735305786133e+00 -1.926920533180236816e+00
2.517000000000000000e+03 6.244218444824218750e+01 -2.154862213134765625e+01 3.512533307075500488e-01 5.661284446716308594e+00 1.803761243820190430e+00 -1.103785634040832520e+00
2.518000000000000000e+03 3.474945068359375000e+01 2.029955101013183594e+01 -7.070215344429016113e-01 -3.816273212432861328e-01 -3.265946805477142334e-01 3.439237480051815510e-04
2.519000000000000000e+03 5.820500946044921875e+01 1.728787994384765625e+01 7.837563157081604004e-01 4.278982639312744141e+00 1.518821716308593750e+00 2.046453475952148438e+00
2.520000000000000000e+03 5.623981094360351562e+01 1.697673225402832031e+01 3.661193251609802246e-01 5.855945110321044922e+00 1.866619348526000977e+00 2.759262800216674805e+00
2.521000000000000000e+03 4.404793548583984375e+01 1.866969871520996094e+01 -9.956268668174743652e-01 1.002057790756225586e+00 1.929287915118038654e-03 -5.844941139221191406e-01
2.522000000000000000e+03 7.135345458984375000e+01 -2.105725860595703125e+01 7.530131191015243530e-02 5.468674659729003906e+00 1.663192749023437500e+00 8.882148861885070801e-01
2.523000000000000000e+03 6.483054351806640625e+01 2.082946777343750000e+00 -6.891109943389892578e-01 5.049485683441162109e+00 1.308112502098083496e+00 2.862016201019287109e+00
2.524000000000000000e+03 1.100038528442382812e+01 1.804754829406738281e+01 -8.051867485046386719e-01 6.469197869300842285e-01 -4.748009145259857178e-02 -6.008085981011390686e-02
2.525000000000000000e+03 6.785746574401855469e+00 2.307818794250488281e+01 -1.864298433065414429e-01 9.784984588623046875e-01 2.376205772161483765e-01 1.002044528722763062e-01
2.526000000000000000e+03 1.557840251922607422e+01 -7.780359268188476562e+00 -3.236440420150756836e-01 1.162571907043457031e-01 -6.221605092287063599e-02 -2.696369215846061707e-02
2.527000000000000000e+03 6.690198516845703125e+01 -2.277141761779785156e+01 4.676828980445861816e-01 4.633804321289062500e+00 1.530446171760559082e+00 -4.350268542766571045e-01
2.528000000000000000e+03 1.584958457946777344e+01 -1.090750885009765625e+01 -2.128815501928329468e-01 1.795137822628021240e-01 -1.001033373177051544e-02 -1.426388621330261230e-01
2.529000000000000000e+03 2.504478836059570312e+01 -1.484645080566406250e+01 -3.194528818130493164e-01 1.540019392967224121e+00 3.661699295043945312e-01 1.405861377716064453e-01
2.530000000000000000e+03 1.813548278808593750e+01 -1.536744117736816406e+01 8.981414139270782471e-02 3.626838922500610352e-01 1.357494145631790161e-01 -1.126223206520080566e-01
2.531000000000000000e+03 2.106293296813964844e+01 2.403495597839355469e+01 -4.693407416343688965e-01 1.081520691514015198e-01 -1.083566024899482727e-01 -1.952981501817703247e-01
2.532000000000000000e+03 2.389747047424316406e+01 2.138070297241210938e+01 -1.402614593505859375e+00 7.797662615776062012e-01 -1.868545114994049072e-01 -2.632162272930145264e-01
2.533000000000000000e+03 2.672615051269531250e+01 2.062041854858398438e+01 -1.254695773124694824e+00 1.342656254768371582e+00 2.638814970850944519e-02 1.967171281576156616e-01
2.534000000000000000e+03 3.136330223083496094e+01 -1.794815826416015625e+01 2.798563241958618164e-01 1.557314038276672363e+00 5.511510968208312988e-01 -5.010201930999755859e-01
2.535000000000000000e+03 7.359844207763671875e+01 -3.431020736694335938e+00 -8.622357845306396484e-01 5.240331172943115234e+00 1.313428521156311035e+00 -1.906156539916992188e-01
2.536000000000000000e+03 3.402923583984375000e+01 1.942958641052246094e+01 -9.302965402603149414e-01 -6.728396415710449219e-01 -4.809408485889434814e-01 1.870834082365036011e-01
2.537000000000000000e+03 3.400443267822265625e+01 2.200447654724121094e+01 -4.716536700725555420e-01 -1.562031656503677368e-01 -1.883570551872253418e-01 2.156390100717544556e-01
2.538000000000000000e+03 7.092682838439941406e+00 -1.157594203948974609e+01 -5.711907893419265747e-02 -3.647037595510482788e-02 -2.807683683931827545e-02 -1.485867351293563843e-01
2.539000000000000000e+03 3.208903884887695312e+01 -2.043256378173828125e+01 3.351614475250244141e-01 1.487893462181091309e+00 5.469164848327636719e-01 -2.378269135951995850e-01
2.540000000000000000e+03 5.333989334106445312e+01 1.936376762390136719e+01 -1.144394159317016602e+00 7.276792049407958984e+00 1.839719295501708984e+00 7.484826445579528809e-01
2.541000000000000000e+03 6.956501960754394531e+00 2.103214836120605469e+01 -3.154090046882629395e-01 1.019327163696289062e+00 2.111754566431045532e-01 4.399565514177083969e-03
2.542000000000000000e+03 1.931158828735351562e+01 -1.496019458770751953e+01 -4.617338255047798157e-02 4.371004700660705566e-01 1.172781214118003845e-01 -3.184200730174779892e-03
2.543000000000000000e+03 5.558855438232421875e+01 1.804454994201660156e+01 -1.155682504177093506e-01 6.387042999267578125e+00 1.881442427635192871e+00 2.045316696166992188e+00
2.544000000000000000e+03 7.174000549316406250e+01 -3.055102539062500000e+01 1.480774432420730591e-01 6.056338310241699219e+00 1.861324787139892578e+00 8.401512354612350464e-02
2.545000000000000000e+03 3.670734405517578125e+01 -2.234783172607421875e+01 4.603916704654693604e-01 2.148264884948730469e+00 7.825969457626342773e-01 3.528004884719848633e-01
2.546000000000000000e+03 9.192221641540527344e+00 -6.490097045898437500e+00 -9.414092451333999634e-02 2.814590372145175934e-02 -1.979850791394710541e-02 -6.581224501132965088e-02
2.547000000000000000e+03 1.064800357818603516e+01 -7.152390003204345703e+00 -1.386769115924835205e-01 5.839898809790611267e-02 -2.408337593078613281e-02 -7.203518599271774292e-02
2.548000000000000000e+03 8.232314109802246094e+00 -1.003876876831054688e+01 -8.366048336029052734e-02 -1.535053743282333016e-04 -2.514419518411159515e-02 -1.381707042455673218e-01
2.549000000000000000e+03 7.539771080017089844e+00 -6.376548290252685547e+00 -8.088359236717224121e-02 6.505507044494152069e-03 -2.231342718005180359e-02 -6.737535446882247925e-02
2.550000000000000000e+03 1.123138523101806641e+01 -8.098937034606933594e+00 -1.603569537401199341e-01 7.109832018613815308e-02 -2.677758969366550446e-02 -1.095778346061706543e-01
2.551000000000000000e+03 7.232399463653564453e+00 2.423397254943847656e+01 -1.669494509696960449e-01 9.467223882675170898e-01 2.339318841695785522e-01 1.207805201411247253e-01
2.552000000000000000e+03 7.611885547637939453e+00 2.256063652038574219e+01 -2.803592681884765625e-01 9.320764541625976562e-01 1.955151557922363281e-01 7.698791474103927612e-02
2.553000000000000000e+03 1.394387626647949219e+01 -9.826626777648925781e+00 -1.968641132116317749e-01 1.396922618150711060e-01 -1.715155690908432007e-02 -1.332707852125167847e-01
2.554000000000000000e+03 1.623475456237792969e+01 -1.238973617553710938e+01 -1.739572882652282715e-01 1.750154346227645874e-01 3.174452285747975111e-04 -1.960409432649612427e-01
2.555000000000000000e+03 6.705338001251220703e+00 -5.756169795989990234e+00 -5.638575181365013123e-02 -1.203999738208949566e-03 -1.727692596614360809e-02 -6.359717249870300293e-02
2.556000000000000000e+03 1.930218315124511719e+01 2.416415023803710938e+01 -4.682217240333557129e-01 2.057572640478610992e-02 -1.342938095331192017e-01 -2.136437967419624329e-02
2.557000000000000000e+03 1.742847824096679688e+01 2.409631538391113281e+01 -3.694443702697753906e-01 7.284466922283172607e-02 -8.897990733385086060e-02 7.454175036400556564e-03
2.558000000000000000e+03 1.330707931518554688e+01 1.921616172790527344e+01 -8.311492800712585449e-01 3.039311766624450684e-01 -1.581654399633407593e-01 1.997362636029720306e-02
2.559000000000000000e+03 1.469488620758056641e+01 -8.270709991455078125e+00 -2.457012385129928589e-01 1.331117600202560425e-01 -3.377684578299522400e-02 -7.849495112895965576e-02
2.560000000000000000e+03 9.861311912536621094e+00 3.169158744812011719e+01 6.806814670562744141e-02 6.590505242347717285e-01 2.181356102228164673e-01 2.131497114896774292e-01
2.561000000000000000e+03 9.679514884948730469e+00 3.441032028198242188e+01 1.084426119923591614e-01 6.832666993141174316e-01 2.375127822160720825e-01 1.575211137533187866e-01
2.562000000000000000e+03 5.941085433959960938e+01 1.830530929565429688e+01 1.008828878402709961e+00 4.012491226196289062e+00 1.506396055221557617e+00 1.398999452590942383e+00
2.563000000000000000e+03 1.823330307006835938e+01 2.111367797851562500e+01 -7.577799558639526367e-01 -7.539238035678863525e-02 -2.499517053365707397e-01 -9.422408789396286011e-02
2.564000000000000000e+03 3.543579101562500000e+01 -2.619153404235839844e+01 1.476628780364990234e-01 2.280285835266113281e+00 7.283846139907836914e-01 6.469669193029403687e-02
2.565000000000000000e+03 3.670376205444335938e+01 -2.509566879272460938e+01 9.205479174852371216e-02 2.435860872268676758e+00 7.583746910095214844e-01 1.354407221078872681e-01
2.566000000000000000e+03 1.508594322204589844e+01 -1.449644470214843750e+01 -5.803348496556282043e-02 1.752645671367645264e-01 3.516932576894760132e-02 -1.908888369798660278e-01
2.567000000000000000e+03 1.370418930053710938e+01 -8.595761299133300781e+00 -2.483863979578018188e-01 1.099362224340438843e-01 -4.153505340218544006e-02 -1.043430939316749573e-01
2.568000000000000000e+03 2.805438613891601562e+01 -1.704542922973632812e+01 -1.529172062873840332e-01 1.681396245956420898e+00 4.585437178611755371e-01 -3.768587708473205566e-01
2.569000000000000000e+03 2.939698982238769531e+01 -1.818042755126953125e+01 1.228321641683578491e-01 1.710661530494689941e+00 5.500481128692626953e-01 -3.572795987129211426e-01
2.570000000000000000e+03 5.691558456420898438e+01 1.826741790771484375e+01 4.532807469367980957e-01 5.319688796997070312e+00 1.731890916824340820e+00 2.076417684555053711e+00
2.571000000000000000e+03 4.026687622070312500e+01 1.917265510559082031e+01 -1.126850605010986328e+00 6.075045466423034668e-01 -1.558038145303726196e-01 -3.349117934703826904e-01
2.572000000000000000e+03 7.064505004882812500e+01 2.345246315002441406e+01 -5.072439089417457581e-02 6.592463493347167969e+00 1.962521672248840332e+00 2.928610742092132568e-01
2.573000000000000000e+03 8.246169090270996094e+00 -2.960236740112304688e+01 2.910017967224121094e-02 -1.259345561265945435e-01 -2.905031293630599976e-02 -8.987859636545181274e-02
2.574000000000000000e+03 1.851558113098144531e+01 -1.916602706909179688e+01 6.542255729436874390e-02 5.096780061721801758e-01 1.725301742553710938e-01 -5.742535367608070374e-02
2.575000000000000000e+03 1.942497444152832031e+01 -1.801509475708007812e+01 1.237044185400009155e-01 6.067769527435302734e-01 2.191444039344787598e-01 -7.462484389543533325e-02
2.576000000000000000e+03 4.117549896240234375e+01 -2.510589218139648438e+01 -2.951056063175201416e-01 3.142529964447021484e+00 8.542273044586181641e-01 -2.813937366008758545e-01
2.577000000000000000e+03 2.873750305175781250e+01 2.139557456970214844e+01 -8.866884708404541016e-01 6.831601858139038086e-01 -6.105849519371986389e-02 5.352245569229125977e-01
2.578000000000000000e+03 2.245073318481445312e+01 2.189325141906738281e+01 -7.793585062026977539e-01 2.728212773799896240e-01 -1.519611775875091553e-01 -5.066087841987609863e-01
2.579000000000000000e+03 2.094392585754394531e+01 2.232654953002929688e+01 -7.467748522758483887e-01 -6.516948342323303223e-02 -2.435833066701889038e-01 -1.490554660558700562e-01
2.580000000000000000e+03 4.447975635528564453e+00 9.891158103942871094e+00 6.526306271553039551e-02 7.225123643875122070e-01 2.363326251506805420e-01 -1.099057674407958984e+00
2.581000000000000000e+03 2.497267532348632812e+01 1.914219856262207031e+01 -1.983539104461669922e+00 1.980459451675415039e+00 -9.238990605808794498e-04 -5.211604237556457520e-01
2.582000000000000000e+03 5.028925704956054688e+01 -2.084329986572265625e+01 -1.085263639688491821e-01 7.875812053680419922e-01 2.037164568901062012e-01 -1.512227207422256470e-01
2.583000000000000000e+03 4.888206481933593750e+01 -2.195253372192382812e+01 2.228350490331649780e-01 1.712156295776367188e+00 5.804973840713500977e-01 -5.420525074005126953e-01
2.584000000000000000e+03 9.905683517456054688e+00 1.760833168029785156e+01 -7.543089985847473145e-01 7.947254776954650879e-01 1.212495099753141403e-02 -1.855588257312774658e-01
2.585000000000000000e+03 1.027053928375244141e+01 1.623606872558593750e+01 -9.041611552238464355e-01 8.125244975090026855e-01 -2.749098651111125946e-02 -1.935270875692367554e-01
2.586000000000000000e+03 9.466575622558593750e+00 -2.057091522216796875e+01 5.466753989458084106e-02 -2.623010613024234772e-02 8.531230501830577850e-03 -1.827529221773147583e-01
2.587000000000000000e+03 7.768021583557128906e+00 -2.207858467102050781e+01 4.500268399715423584e-02 -1.221466287970542908e-01 -2.314318343997001648e-02 -1.578645557165145874e-01
2.588000000000000000e+03 6.479967117309570312e+00 2.755130004882812500e+01 -2.214555442333221436e-02 9.741164445877075195e-01 2.855912744998931885e-01 1.974410563707351685e-01
2.589000000000000000e+03 1.062037372589111328e+01 -9.753898620605468750e+00 -1.425415575504302979e-01 6.299574673175811768e-02 -2.386374212801456451e-02 -1.448029726743698120e-01
2.590000000000000000e+03 1.211182403564453125e+01 1.864945220947265625e+01 -7.684254646301269531e-01 4.393561184406280518e-01 -9.872079640626907349e-02 -5.950588732957839966e-02
2.591000000000000000e+03 8.782255172729492188e+00 1.735446929931640625e+01 -7.027060389518737793e-01 9.375742673873901367e-01 7.046046853065490723e-02 -1.799596250057220459e-01
2.592000000000000000e+03 1.152062606811523438e+01 2.000799942016601562e+01 -6.655339598655700684e-01 5.490530133247375488e-01 -3.494427353143692017e-02 3.944975510239601135e-02
2.593000000000000000e+03 6.268149375915527344e+00 2.596743774414062500e+01 -7.793831825256347656e-02 1.026289463043212891e+00 2.845053374767303467e-01 1.480055153369903564e-01
2.594000000000000000e+03 1.770178222656250000e+01 2.240810966491699219e+01 -6.116988658905029297e-01 -3.975383192300796509e-02 -1.954358071088790894e-01 3.583671525120735168e-03
2.595000000000000000e+03 8.253484725952148438e+00 -1.174719047546386719e+01 -5.858836323022842407e-02 -1.442015520296990871e-03 -1.800911314785480499e-02 -1.742599904537200928e-01
2.596000000000000000e+03 7.854574680328369141e+00 1.465826606750488281e+01 -8.320443034172058105e-01 1.291131258010864258e+00 1.377260684967041016e-01 -5.767059922218322754e-01
2.597000000000000000e+03 8.055616378784179688e+00 -8.915397644042968750e+00 -7.076358795166015625e-02 1.120120659470558167e-02 -1.786871440708637238e-02 -1.259214431047439575e-01
2.598000000000000000e+03 7.701578617095947266e+00 2.567137908935546875e+01 -9.345033764839172363e-02 8.612912893295288086e-01 2.303522974252700806e-01 1.819598823785781860e-01
2.599000000000000000e+03 2.419902038574218750e+01 2.306843376159667969e+01 -7.456971406936645508e-01 4.791405200958251953e-01 -7.996698468923568726e-02 -1.823577880859375000e-01
2.600000000000000000e+03 1.051610946655273438e+01 1.924274063110351562e+01 -6.210943460464477539e-01 6.421589851379394531e-01 6.319389678537845612e-03 -5.201547592878341675e-02
2.601000000000000000e+03 8.512701034545898438e+00 2.014894866943359375e+01 -4.607720375061035156e-01 8.583679199218750000e-01 1.192787587642669678e-01 -1.632572384551167488e-03
2.602000000000000000e+03 9.502346992492675781e+00 2.254482078552246094e+01 -3.600829541683197021e-01 7.492961287498474121e-01 1.167639419436454773e-01 9.856050461530685425e-02
2.603000000000000000e+03 6.324674224853515625e+01 -1.985838890075683594e+01 5.441669821739196777e-01 5.306296825408935547e+00 1.755139112472534180e+00 -1.535393238067626953e+00
2.604000000000000000e+03 6.263606643676757812e+01 -2.277999687194824219e+01 -2.485711127519607544e-01 5.687235832214355469e+00 1.631599426269531250e+00 -9.405487179756164551e-01
2.605000000000000000e+03 1.443551921844482422e+01 -1.129831027984619141e+01 -2.026637047529220581e-01 1.392907053232192993e-01 -1.901189610362052917e-02 -1.810801327228546143e-01
2.606000000000000000e+03 1.479788208007812500e+01 -1.287510871887207031e+01 -6.942026317119598389e-02 1.754691451787948608e-01 3.181466460227966309e-02 -1.955412179231643677e-01
2.607000000000000000e+03 4.432791137695312500e+01 -2.241210365295410156e+01 -8.126763999462127686e-02 3.208111763000488281e+00 9.380531907081604004e-01 -6.709361076354980469e-01
2.608000000000000000e+03 4.525225448608398438e+01 1.941114616394042969e+01 -4.317094385623931885e-01 1.400693297386169434e+00 2.906951606273651123e-01 -9.724782109260559082e-01
2.609000000000000000e+03 4.308565902709960938e+01 2.029480552673339844e+01 -5.664900541305541992e-01 1.096529364585876465e+00 1.590117812156677246e-01 -6.167309284210205078e-01
2.610000000000000000e+03 9.183932304382324219e+00 -8.860810279846191406e+00 -1.185657158493995667e-01 3.469845652580261230e-02 -2.516017854213714600e-02 -1.203737407922744751e-01
2.611000000000000000e+03 2.164101028442382812e+01 -1.834185218811035156e+01 7.954540848731994629e-02 8.841152787208557129e-01 2.890982031822204590e-01 -1.477413903921842575e-02
2.612000000000000000e+03 2.290278244018554688e+01 -1.503014850616455078e+01 -1.378825455904006958e-01 9.487289786338806152e-01 2.432539165019989014e-01 2.000318765640258789e-01
2.613000000000000000e+03 9.777876853942871094e+00 2.932572555541992188e+01 -6.988139648456126451e-05 6.707484126091003418e-01 2.012035548686981201e-01 2.020291984081268311e-01
2.614000000000000000e+03 7.107466125488281250e+01 -2.758385086059570312e+01 2.010447233915328979e-01 5.806727409362792969e+00 1.802331686019897461e+00 1.621389240026473999e-01
2.615000000000000000e+03 3.714822769165039062e+01 2.341407775878906250e+01 -3.229497075080871582e-01 2.444159537553787231e-01 -2.356012910604476929e-02 -1.454554051160812378e-01
2.616000000000000000e+03 3.853832626342773438e+01 1.966876602172851562e+01 -9.881634712219238281e-01 2.075475156307220459e-01 -2.341847866773605347e-01 -3.127016723155975342e-01
2.617000000000000000e+03 1.463197612762451172e+01 1.825112724304199219e+01 -1.049116969108581543e+00 1.237374693155288696e-01 -2.776138782501220703e-01 -9.220315515995025635e-02
2.618000000000000000e+03 4.225480270385742188e+01 2.206772232055664062e+01 -5.165503621101379395e-01 1.123270988464355469e+00 1.820161789655685425e-01 -6.294750571250915527e-01
2.619000000000000000e+03 8.954020500183105469e+00 -1.088421726226806641e+01 -7.623270899057388306e-02 1.502441521733999252e-02 -1.836248859763145447e-02 -1.504653394222259521e-01
2.620000000000000000e+03 9.834369659423828125e+00 -7.692351818084716797e+00 -1.242724508047103882e-01 4.393719881772994995e-02 -2.410057559609413147e-02 -1.032737866044044495e-01
2.621000000000000000e+03 9.041597366333007812e+00 -7.959057331085205078e+00 -9.469455480575561523e-02 3.296160325407981873e-02 -1.851988583803176880e-02 -1.063488721847534180e-01
2.622000000000000000e+03 9.365649223327636719e+00 -9.927167892456054688e+00 -8.888159692287445068e-02 4.289588332176208496e-02 -1.379571482539176941e-02 -1.550990194082260132e-01
2.623000000000000000e+03 8.991197586059570312e+00 -1.240623188018798828e+01 -4.629249870777130127e-02 1.171987224370241165e-02 -1.037178747355937958e-02 -1.848523616790771484e-01
2.624000000000000000e+03 7.823729991912841797e+00 1.589151096343994141e+01 -7.338576316833496094e-01 1.109302639961242676e+00 1.126334890723228455e-01 -3.592900335788726807e-01
2.625000000000000000e+03 1.429510021209716797e+01 2.149412918090820312e+01 -6.170005798339843750e-01 2.293932139873504639e-01 -1.162822172045707703e-01 8.281805366277694702e-02
2.626000000000000000e+03 8.563207626342773438e+00 1.870467376708984375e+01 -5.887560248374938965e-01 9.044814705848693848e-01 9.471762925386428833e-02 -1.534335315227508545e-01
2.627000000000000000e+03 7.180837631225585938e+00 1.980038070678710938e+01 -3.946473300457000732e-01 1.007440567016601562e+00 1.838379651308059692e-01 -1.125681623816490173e-01
2.628000000000000000e+03 2.082115173339843750e+01 -2.025831985473632812e+01 7.798121869564056396e-02 7.750085592269897461e-01 2.558969259262084961e-01 -2.999275550246238708e-02
2.629000000000000000e+03 2.544614601135253906e+01 -1.746384239196777344e+01 -1.384606212377548218e-01 1.393373370170593262e+00 3.764738142490386963e-01 -4.978789389133453369e-02
2.630000000000000000e+03 2.544228935241699219e+01 2.269373893737792969e+01 -9.204137325286865234e-01 8.009191155433654785e-01 -3.584838658571243286e-02 -7.854377478361129761e-02
2.631000000000000000e+03 2.466159629821777344e+01 2.590003776550292969e+01 -4.455139935016632080e-01 4.367781579494476318e-01 -2.620752202346920967e-03 9.121592738665640354e-04
2.632000000000000000e+03 4.139023208618164062e+01 2.369557762145996094e+01 -2.292443364858627319e-01 1.056443929672241211e+00 2.481598705053329468e-01 -5.597855448722839355e-01
2.633000000000000000e+03 3.867793655395507812e+01 2.288100433349609375e+01 -4.248675405979156494e-01 5.349252820014953613e-01 3.301732987165451050e-02 -3.699400126934051514e-01
2.634000000000000000e+03 1.112686538696289062e+01 -1.105243110656738281e+01 -9.444894641637802124e-02 7.275024801492691040e-02 -6.509609520435333252e-03 -1.749025881290435791e-01
2.635000000000000000e+03 5.766553878784179688e+01 2.201100921630859375e+01 -1.115099117159843445e-01 5.349772930145263672e+00 1.571478962898254395e+00 8.961337208747863770e-01
2.636000000000000000e+03 1.488137912750244141e+01 2.521022987365722656e+01 -2.222723215818405151e-01 2.040450572967529297e-01 -5.468180403113365173e-03 1.185150742530822754e-01
2.637000000000000000e+03 2.189159774780273438e+01 -1.613124275207519531e+01 7.289995253086090088e-02 8.837200403213500977e-01 2.869859933853149414e-01 6.810148060321807861e-02
2.638000000000000000e+03 7.382055664062500000e+01 1.827369689941406250e+01 4.049464464187622070e-01 6.400409698486328125e+00 2.041606903076171875e+00 2.457420825958251953e-01
2.639000000000000000e+03 7.134551239013671875e+01 -2.602787780761718750e+01 2.537811696529388428e-01 5.756293296813964844e+00 1.803022384643554688e+00 2.193360924720764160e-01
2.640000000000000000e+03 1.168481636047363281e+01 -1.241152572631835938e+01 -1.043936535716056824e-01 7.509063184261322021e-02 -8.790907450020313263e-03 -1.919157058000564575e-01
2.641000000000000000e+03 1.302382659912109375e+01 -1.184715270996093750e+01 -1.042293161153793335e-01 1.271607130765914917e-01 6.879419088363647461e-03 -1.906312853097915649e-01
2.642000000000000000e+03 6.408885002136230469e+00 -2.056330108642578125e+01 2.868728525936603546e-02 -1.764702498912811279e-01 -4.433488845825195312e-02 -1.546449512243270874e-01
2.643000000000000000e+03 9.902888298034667969e+00 -1.174734210968017578e+01 -9.292582422494888306e-02 3.685121238231658936e-02 -1.682238467037677765e-02 -1.765163242816925049e-01
2.644000000000000000e+03 1.255126094818115234e+01 2.683395004272460938e+01 -1.258287578821182251e-01 4.062675535678863525e-01 8.413163572549819946e-02 2.056073993444442749e-01
2.645000000000000000e+03 8.271573066711425781e+00 -1.465353775024414062e+01 -2.222929522395133972e-02 -4.354530945420265198e-02 -1.973238028585910797e-02 -1.828076839447021484e-01
2.646000000000000000e+03 9.521739006042480469e+00 -1.457280158996582031e+01 -1.918613538146018982e-02 1.459347363561391830e-02 -1.377798267640173435e-03 -2.005892843008041382e-01
2.647000000000000000e+03 9.721386909484863281e+00 2.006175804138183594e+01 -5.519518852233886719e-01 7.743637561798095703e-01 6.672355532646179199e-02 -2.374582365155220032e-02
2.648000000000000000e+03 1.058938407897949219e+01 2.128624343872070312e+01 -4.370551705360412598e-01 5.975314378738403320e-01 4.814289137721061707e-02 6.126864999532699585e-02
2.649000000000000000e+03 4.186208343505859375e+01 2.632537841796875000e+01 -8.407334238290786743e-02 1.377200126647949219e+00 3.879380524158477783e-01 -5.593809485435485840e-01
2.650000000000000000e+03 4.028031158447265625e+01 2.515390396118164062e+01 -2.142816036939620972e-01 9.230985641479492188e-01 2.126450985670089722e-01 -4.918704032897949219e-01
2.651000000000000000e+03 3.743764877319335938e+01 2.512951660156250000e+01 -1.729710102081298828e-01 5.082433819770812988e-01 1.005817055702209473e-01 -2.512131929397583008e-01
2.652000000000000000e+03 2.629179191589355469e+01 2.444759178161621094e+01 -6.516612768173217773e-01 5.947323441505432129e-01 -1.707867905497550964e-02 6.296257674694061279e-02
2.653000000000000000e+03 9.559884071350097656e+00 -1.588480281829833984e+01 -9.735059924423694611e-03 -8.897539228200912476e-03 -5.589779932051897049e-03 -2.010388374328613281e-01
2.654000000000000000e+03 8.079239845275878906e+00 -1.593687725067138672e+01 -3.655889013316482306e-04 -5.028082430362701416e-02 -1.519392430782318115e-02 -1.883240044116973877e-01
2.655000000000000000e+03 2.579879951477050781e+01 -2.055079460144042969e+01 5.759906489402055740e-03 1.277616620063781738e+00 3.850129544734954834e-01 -9.471935033798217773e-02
2.656000000000000000e+03 1.335954856872558594e+01 2.479625320434570312e+01 -2.764658927917480469e-01 3.486932814121246338e-01 2.166821435093879700e-02 1.856302618980407715e-01
2.657000000000000000e+03 6.119282150268554688e+01 2.093927383422851562e+01 5.864802002906799316e-01 4.646731376647949219e+00 1.569963455200195312e+00 4.701830148696899414e-01
2.658000000000000000e+03 6.704120159149169922e+00 2.208964538574218750e+01 -2.454430013895034790e-01 1.002435803413391113e+00 2.270978540182113647e-01 2.131351828575134277e-02
2.659000000000000000e+03 6.701472473144531250e+01 2.007786941528320312e+01 -6.021994352340698242e-02 6.560717582702636719e+00 1.950149297714233398e+00 2.563238702714443207e-02
2.660000000000000000e+03 2.257818984985351562e+01 -2.220068740844726562e+01 7.220077514648437500e-02 9.608874917030334473e-01 3.099264800548553467e-01 -4.805469512939453125e-02
2.661000000000000000e+03 9.355443000793457031e+00 -1.340856933593750000e+01 -5.416307225823402405e-02 1.856857561506330967e-03 -1.569186337292194366e-02 -1.821091175079345703e-01
2.662000000000000000e+03 2.860038757324218750e+01 -1.975429725646972656e+01 4.918636754155158997e-02 1.497664928436279297e+00 4.640553891658782959e-01 -2.505701184272766113e-01
2.663000000000000000e+03 1.362526130676269531e+01 2.316350746154785156e+01 -3.671150505542755127e-01 2.973856031894683838e-01 -2.091883495450019836e-02 1.002855896949768066e-01
2.664000000000000000e+03 1.117857742309570312e+01 -1.867475128173828125e+01 4.539402946829795837e-02 6.061603128910064697e-02 3.180301934480667114e-02 -1.854334622621536255e-01
2.665000000000000000e+03 1.094480228424072266e+01 -1.563196849822998047e+01 -1.144362147897481918e-03 6.161398068070411682e-02 1.814088597893714905e-02 -2.064215093851089478e-01
2.666000000000000000e+03 6.743383789062500000e+01 2.144322967529296875e+01 -3.619232028722763062e-02 6.395872592926025391e+00 1.907904028892517090e+00 9.371883422136306763e-02
2.667000000000000000e+03 4.709471893310546875e+01 2.392685890197753906e+01 -4.662840962409973145e-01 3.013493537902832031e+00 7.641628384590148926e-01 -1.003937363624572754e+00
2.668000000000000000e+03 1.959044837951660156e+01 -1.992676925659179688e+01 1.083037629723548889e-01 6.742381453514099121e-01 2.347625792026519775e-01 -7.466637343168258667e-02
2.669000000000000000e+03 8.340379714965820312e+00 -1.365171146392822266e+01 -2.824304997920989990e-02 -1.350652053952217102e-02 -1.252487115561962128e-02 -1.930336505174636841e-01
2.670000000000000000e+03 7.420982360839843750e+00 -1.402851963043212891e+01 -2.864943258464336395e-02 -6.274192035198211670e-02 -2.741740457713603973e-02 -1.722633838653564453e-01
2.671000000000000000e+03 1.077589511871337891e+01 -1.425138664245605469e+01 -4.637739807367324829e-02 3.814939036965370178e-02 -2.468402963131666183e-03 -2.014170736074447632e-01
2.672000000000000000e+03 1.383516693115234375e+01 2.618826103210449219e+01 -1.438829302787780762e-01 3.667283952236175537e-01 6.685364246368408203e-02 1.509816944599151611e-01
2.673000000000000000e+03 6.390800476074218750e+01 1.940624237060546875e+01 5.244790911674499512e-01 5.175230026245117188e+00 1.709912776947021484e+00 -4.162019193172454834e-01
2.674000000000000000e+03 6.213047409057617188e+01 2.190846824645996094e+01 4.246631562709808350e-01 5.079506874084472656e+00 1.651250958442687988e+00 3.111432492733001709e-01
2.675000000000000000e+03 2.039741516113281250e+01 -1.902670097351074219e+01 6.898300349712371826e-02 6.992998719215393066e-01 2.304848581552505493e-01 -9.890861809253692627e-03
2.676000000000000000e+03 1.894395256042480469e+01 -2.121396827697753906e+01 8.672907203435897827e-02 5.724050998687744141e-01 1.977402567863464355e-01 -7.256859540939331055e-02
2.677000000000000000e+03 1.247225093841552734e+01 -1.838315963745117188e+01 5.182940140366554260e-02 1.248309314250946045e-01 5.299809947609901428e-02 -1.902789175510406494e-01
2.678000000000000000e+03 2.790753364562988281e+01 -2.163171768188476562e+01 1.318706274032592773e-01 1.556647419929504395e+00 5.065553784370422363e-01 -1.179951727390289307e-01
2.679000000000000000e+03 1.383835506439208984e+01 -1.834061622619628906e+01 7.504620403051376343e-02 1.868194788694381714e-01 7.855970412492752075e-02 -1.770509332418441772e-01
2.680000000000000000e+03 1.230530834197998047e+01 -1.529400348663330078e+01 -2.385039255023002625e-02 8.695812523365020752e-02 1.893232017755508423e-02 -2.070987224578857422e-01
2.681000000000000000e+03 6.506816864013671875e+01 2.030626106262207031e+01 2.226687371730804443e-01 5.734058856964111328e+00 1.787018179893493652e+00 -3.054683506488800049e-01
2.682000000000000000e+03 2.880602073669433594e+01 -1.435671615600585938e+01 -2.362981140613555908e-01 2.180706739425659180e+00 5.833225846290588379e-01 -6.317145228385925293e-01
2.683000000000000000e+03 3.036371040344238281e+01 -2.041278076171875000e+01 2.523189485073089600e-01 1.689447879791259766e+00 5.825300216674804688e-01 -2.206597179174423218e-01
2.684000000000000000e+03 6.103022003173828125e+01 2.316161727905273438e+01 1.852273046970367432e-01 5.133192062377929688e+00 1.595525860786437988e+00 4.715374410152435303e-01
2.685000000000000000e+03 1.103852558135986328e+01 -1.711297035217285156e+01 1.355218514800071716e-02 4.071160033345222473e-02 1.627913676202297211e-02 -2.081005424261093140e-01
2.686000000000000000e+03 1.365000724792480469e+01 -2.039721107482910156e+01 6.505756825208663940e-02 2.024050503969192505e-01 8.023878931999206543e-02 -1.553927212953567505e-01
2.687000000000000000e+03 1.525871467590332031e+01 -1.621280670166015625e+01 5.974649265408515930e-02 2.306164056062698364e-01 8.710886538028717041e-02 -1.741207838058471680e-01
2.688000000000000000e+03 1.367692756652832031e+01 -1.491597080230712891e+01 -7.574365008622407913e-04 1.597616970539093018e-01 4.770127683877944946e-02 -2.055370807647705078e-01
2.689000000000000000e+03 6.273324584960937500e+01 1.850278282165527344e+01 9.496118426322937012e-01 4.098536014556884766e+00 1.514444231986999512e+00 -2.675831019878387451e-01
2.690000000000000000e+03 5.949373245239257812e+01 2.390802764892578125e+01 -4.081238433718681335e-02 5.284312248229980469e+00 1.573050022125244141e+00 5.479680299758911133e-01
2.691000000000000000e+03 5.781298065185546875e+01 2.386232757568359375e+01 -2.306064367294311523e-01 5.291608333587646484e+00 1.518300533294677734e+00 6.219601631164550781e-01
2.692000000000000000e+03 1.801640129089355469e+01 -2.271311950683593750e+01 1.218106970191001892e-01 5.615070462226867676e-01 2.049953192472457886e-01 -8.311800658702850342e-02
2.693000000000000000e+03 1.522802543640136719e+01 -2.322906684875488281e+01 1.079928576946258545e-01 3.453389108180999756e-01 1.359995305538177490e-01 -1.170269697904586792e-01
2.694000000000000000e+03 1.696165275573730469e+01 -2.434612464904785156e+01 1.005268469452857971e-01 4.727096557617187500e-01 1.719709485769271851e-01 -1.051460802555084229e-01
2.695000000000000000e+03 1.111203479766845703e+01 -2.512556457519531250e+01 8.463700115680694580e-02 7.760071754455566406e-02 4.867131635546684265e-02 -1.373712718486785889e-01
2.696000000000000000e+03 9.421924591064453125e+00 -2.343928146362304688e+01 5.432318896055221558e-02 -3.310190141201019287e-02 6.366387475281953812e-03 -1.562386751174926758e-01
2.697000000000000000e+03 9.017477989196777344e+00 -2.694693756103515625e+01 5.035882443189620972e-02 -7.300756126642227173e-02 -6.794621236622333527e-03 -1.223902925848960876e-01
2.698000000000000000e+03 1.673379707336425781e+01 -1.578980636596679688e+01 -6.177767179906368256e-03 2.864075005054473877e-01 8.406892418861389160e-02 -1.368944197893142700e-01
2.699000000000000000e+03 6.828367614746093750e+01 1.933976936340332031e+01 -2.681545726954936981e-02 6.847551345825195312e+00 2.046220779418945312e+00 2.047653347253799438e-01
2.700000000000000000e+03 7.259644317626953125e+01 1.554475593566894531e+01 1.086373090744018555e+00 5.775933742523193359e+00 2.058691978454589844e+00 4.091882705688476562e-01
2.701000000000000000e+03 7.316275024414062500e+01 1.696138381958007812e+01 7.536810636520385742e-01 6.212877750396728516e+00 2.089967489242553711e+00 3.545792996883392334e-01
2.702000000000000000e+03 7.230516815185546875e+01 -2.287855148315429688e+01 4.455488547682762146e-02 5.971048831939697266e+00 1.804681181907653809e+00 5.686479806900024414e-01
2.703000000000000000e+03 7.340555572509765625e+01 -2.474914169311523438e+01 5.229793861508369446e-02 6.289818763732910156e+00 1.902634978294372559e+00 3.567226529121398926e-01
2.704000000000000000e+03 1.982974624633789062e+01 -2.374764442443847656e+01 1.069927588105201721e-01 7.063413262367248535e-01 2.440002113580703735e-01 -7.389540970325469971e-02
2.705000000000000000e+03 6.915996551513671875e+01 -2.325152206420898438e+01 5.747156143188476562e-01 4.879109382629394531e+00 1.636147499084472656e+00 1.756596565246582031e-01
2.706000000000000000e+03 7.266477966308593750e+01 -2.150111198425292969e+01 -7.876288890838623047e-02 6.258474826812744141e+00 1.853913545608520508e+00 8.798133134841918945e-01
2.707000000000000000e+03 7.369947910308837891e+00 1.847385597229003906e+01 -5.158829689025878906e-01 1.026938557624816895e+00 1.533166617155075073e-01 -1.596594154834747314e-01
2.708000000000000000e+03 6.363584995269775391e+00 1.690340042114257812e+01 -5.345057845115661621e-01 1.162660956382751465e+00 1.884465515613555908e-01 -3.403910100460052490e-01
2.709000000000000000e+03 7.260729980468750000e+01 1.930636787414550781e+01 3.189488053321838379e-01 6.591485977172851562e+00 2.073130369186401367e+00 4.152575433254241943e-01
2.710000000000000000e+03 3.697205352783203125e+01 2.212505722045898438e+01 -5.335061550140380859e-01 1.116977483034133911e-01 -1.265425235033035278e-01 -2.139269560575485229e-01
2.711000000000000000e+03 6.800490570068359375e+01 -2.273716735839843750e+01 5.987308621406555176e-01 4.632454395294189453e+00 1.569355607032775879e+00 -1.803798228502273560e-01
2.712000000000000000e+03 4.866997241973876953e+00 2.611230087280273438e+01 -2.894948236644268036e-02 1.163837790489196777e+00 3.404664993286132812e-01 1.596104055643081665e-01
2.713000000000000000e+03 7.495967102050781250e+01 3.321962356567382812e+01 -3.904794156551361084e-02 6.964145183563232422e+00 2.077529191970825195e+00 1.317458152770996094e-01
2.714000000000000000e+03 4.218478775024414062e+01 -2.438977622985839844e+01 -2.362748980522155762e-02 3.105978965759277344e+00 9.247054457664489746e-01 -2.760476768016815186e-01
2.715000000000000000e+03 7.093678283691406250e+01 -2.239570045471191406e+01 3.064389824867248535e-01 5.391835212707519531e+00 1.709482312202453613e+00 6.969395875930786133e-01
2.716000000000000000e+03 6.975942230224609375e+01 -2.546468544006347656e+01 3.732055425643920898e-01 5.425374984741210938e+00 1.739574074745178223e+00 1.419655233621597290e-01
2.717000000000000000e+03 7.580720520019531250e+01 3.617238998413085938e+01 -5.058155953884124756e-02 7.083528041839599609e+00 2.109884023666381836e+00 7.767530530691146851e-02
2.718000000000000000e+03 1.701402664184570312e+01 -1.749845504760742188e+01 9.793055057525634766e-02 3.750664889812469482e-01 1.418991088867187500e-01 -1.290083229541778564e-01
2.719000000000000000e+03 1.895897102355957031e+01 2.832764434814453125e+01 -9.099677950143814087e-02 2.053992599248886108e-01 3.432074189186096191e-02 7.567419111728668213e-02
2.720000000000000000e+03 6.189154052734375000e+01 -2.030052375793457031e+01 -1.484784632921218872e-01 6.067762851715087891e+00 1.775785326957702637e+00 -1.472082972526550293e+00
2.721000000000000000e+03 4.777281951904296875e+01 -2.324828910827636719e+01 1.404951512813568115e-01 2.129056930541992188e+00 6.808655858039855957e-01 -6.171023249626159668e-01
2.722000000000000000e+03 2.736833763122558594e+01 2.416379165649414062e+01 -6.973403692245483398e-01 4.986166059970855713e-01 -5.961712077260017395e-02 2.093466371297836304e-01
2.723000000000000000e+03 2.844490623474121094e+01 2.352945709228515625e+01 -7.258815169334411621e-01 6.122363209724426270e-01 -3.409354761242866516e-02 3.274789452552795410e-01
2.724000000000000000e+03 6.565878295898437500e+01 -2.344371223449707031e+01 5.376387238502502441e-01 4.896882057189941406e+00 1.630356192588806152e+00 -5.312966108322143555e-01
2.725000000000000000e+03 3.223096084594726562e+01 -2.614288902282714844e+01 1.945107430219650269e-01 1.849960565567016602e+00 6.133413910865783691e-01 -1.841566711664199829e-02
2.726000000000000000e+03 6.413812255859375000e+01 2.390303993225097656e+01 5.444271862506866455e-02 5.690472602844238281e+00 1.723474621772766113e+00 1.172522976994514465e-01
2.727000000000000000e+03 4.989429473876953125e+01 2.314034080505371094e+01 -8.391804695129394531e-01 4.335819721221923828e+00 1.048991799354553223e+00 -9.777064919471740723e-01
2.728000000000000000e+03 5.109447479248046875e+01 2.448550987243652344e+01 -8.693420886993408203e-01 4.629938125610351562e+00 1.128178834915161133e+00 -6.308543086051940918e-01
2.729000000000000000e+03 5.597960662841796875e+01 2.481505775451660156e+01 -5.393713116645812988e-01 5.301262855529785156e+00 1.428567409515380859e+00 4.346587657928466797e-01
2.730000000000000000e+03 1.407762622833251953e+01 3.052293777465820312e+01 4.514368250966072083e-02 3.711381852626800537e-01 1.248845607042312622e-01 1.899526119232177734e-01
2.731000000000000000e+03 4.385755920410156250e+01 2.771807670593261719e+01 -1.423790752887725830e-01 2.014211177825927734e+00 5.615496039390563965e-01 -6.557573080062866211e-01
2.732000000000000000e+03 4.694546890258789062e+01 2.599169349670410156e+01 -4.063281714916229248e-01 2.881614923477172852e+00 7.425860166549682617e-01 -8.733124136924743652e-01
2.733000000000000000e+03 1.285249710083007812e+01 -2.725789070129394531e+01 9.635417908430099487e-02 1.914159059524536133e-01 8.633102476596832275e-02 -1.171383634209632874e-01
2.734000000000000000e+03 1.363235378265380859e+01 -2.935877609252929688e+01 7.457210123538970947e-02 2.679387032985687256e-01 1.027532443404197693e-01 -9.397727996110916138e-02
2.735000000000000000e+03 2.191413116455078125e+01 -2.459101295471191406e+01 1.463371962308883667e-01 9.523828625679016113e-01 3.296160399913787842e-01 -4.296533018350601196e-02
2.736000000000000000e+03 2.897368621826171875e+01 -2.687806892395019531e+01 1.358527392148971558e-01 1.559556961059570312e+00 5.086228847503662109e-01 -3.054132498800754547e-02
2.737000000000000000e+03 4.926724624633789062e+01 -2.803935813903808594e+01 3.385371565818786621e-01 2.769701480865478516e+00 9.324715733528137207e-01 -1.699559949338436127e-02
2.738000000000000000e+03 2.739173698425292969e+01 2.817370605468750000e+01 -2.108113318681716919e-01 3.759651184082031250e-01 4.954614117741584778e-02 1.094262003898620605e-01
2.739000000000000000e+03 4.983368301391601562e+01 2.815481376647949219e+01 -4.974899590015411377e-01 3.798576831817626953e+00 9.903260469436645508e-01 -5.723422765731811523e-01
2.740000000000000000e+03 4.391421318054199219e+00 -3.781765747070312500e+01 2.640132233500480652e-02 -5.185635089874267578e-01 -1.476486474275588989e-01 -5.238318070769309998e-02
2.741000000000000000e+03 2.018325614929199219e+01 -2.987804222106933594e+01 1.371978223323822021e-01 7.943500280380249023e-01 2.794643342494964600e-01 -4.913026466965675354e-02
2.742000000000000000e+03 4.236370086669921875e+01 -2.692912292480468750e+01 4.264703020453453064e-02 2.940142393112182617e+00 8.948368430137634277e-01 -2.475542873144149780e-01
2.743000000000000000e+03 6.548529815673828125e+01 -2.889704322814941406e+01 7.829086482524871826e-02 5.350366592407226562e+00 1.628597259521484375e+00 -1.736277043819427490e-01
2.744000000000000000e+03 4.606433486938476562e+01 -2.256535148620605469e+01 -6.092894449830055237e-02 2.670824050903320312e+00 7.829685211181640625e-01 -7.467167377471923828e-01
2.745000000000000000e+03 5.971358871459960938e+01 -2.506013107299804688e+01 -3.565447032451629639e-01 5.628026008605957031e+00 1.581444382667541504e+00 -6.538429856300354004e-02
2.746000000000000000e+03 1.712748527526855469e+01 2.755037879943847656e+01 -7.714626938104629517e-02 1.595941632986068726e-01 2.473437041044235229e-02 1.012163758277893066e-01
2.747000000000000000e+03 6.488080596923828125e+01 -2.604636764526367188e+01 1.768384724855422974e-01 5.311773300170898438e+00 1.646583557128906250e+00 -3.485080897808074951e-01
2.748000000000000000e+03 6.387802505493164062e+01 -2.252882766723632812e+01 3.395247757434844971e-01 5.340928554534912109e+00 1.704135894775390625e+00 -9.426279664039611816e-01
2.749000000000000000e+03 7.333926391601562500e+01 2.809395790100097656e+01 -6.466300785541534424e-02 6.754659652709960938e+00 2.006999015808105469e+00 2.357134670019149780e-01
2.750000000000000000e+03 7.618714141845703125e+01 2.898554229736328125e+01 -1.664599590003490448e-02 7.000817298889160156e+00 2.095251321792602539e+00 1.731806844472885132e-01
2.751000000000000000e+03 3.592352294921875000e+01 2.292412185668945312e+01 -3.304577767848968506e-01 1.098214760422706604e-01 -6.619089096784591675e-02 -6.654933840036392212e-02
2.752000000000000000e+03 3.524058151245117188e+01 2.155278205871582031e+01 -5.824974775314331055e-01 -2.066982090473175049e-01 -2.367587089538574219e-01 1.874144189059734344e-02
2.753000000000000000e+03 6.847776031494140625e+01 -2.464536476135253906e+01 3.985411524772644043e-01 5.098627567291259766e+00 1.649150729179382324e+00 -1.151452809572219849e-01
2.754000000000000000e+03 1.537332344055175781e+01 -1.801591682434082031e+01 4.325397685170173645e-02 2.498090118169784546e-01 8.791889995336532593e-02 -1.605217158794403076e-01
2.755000000000000000e+03 7.326092529296875000e+01 3.203732299804687500e+01 -7.229070365428924561e-02 6.763828754425048828e+00 2.007461309432983398e+00 1.711645424365997314e-01
2.756000000000000000e+03 5.639424896240234375e+01 2.221376037597656250e+01 -3.578824996948242188e-01 5.426006317138671875e+00 1.520437121391296387e+00 8.921368718147277832e-01
2.757000000000000000e+03 5.563536071777343750e+01 2.070421600341796875e+01 -5.105671286582946777e-01 6.039834499359130859e+00 1.658780217170715332e+00 1.231888890266418457e+00
2.758000000000000000e+03 4.772587585449218750e+01 -2.038332939147949219e+01 -1.785691380500793457e-01 1.681873559951782227e+00 4.509913027286529541e-01 -7.960596084594726562e-01
2.759000000000000000e+03 6.617459106445312500e+01 2.113007926940917969e+01 -2.262963727116584778e-02 6.265084743499755859e+00 1.872736573219299316e+00 -1.049216836690902710e-01
2.760000000000000000e+03 6.420093536376953125e+01 2.160918617248535156e+01 2.642969489097595215e-01 5.512712478637695312e+00 1.733102917671203613e+00 -5.405002087354660034e-02
2.761000000000000000e+03 1.317335605621337891e+01 2.855864715576171875e+01 -3.271522372961044312e-02 4.232666790485382080e-01 1.171654388308525085e-01 1.634316742420196533e-01
2.762000000000000000e+03 4.874827957153320312e+01 2.242425155639648438e+01 -7.774574160575866699e-01 3.826498746871948242e+00 9.147123694419860840e-01 -1.207252383232116699e+00
2.763000000000000000e+03 6.595037841796875000e+01 1.906594848632812500e+01 -4.165431857109069824e-02 6.569578647613525391e+00 1.958377361297607422e+00 -3.921819925308227539e-01
2.764000000000000000e+03 6.849757385253906250e+01 -2.975749778747558594e+01 1.914653331041336060e-01 5.578568935394287109e+00 1.731010317802429199e+00 -2.241715788841247559e-02
2.765000000000000000e+03 4.576168441772460938e+01 -2.418392944335937500e+01 4.837215319275856018e-02 2.759334325790405273e+00 8.423119187355041504e-01 -6.035722494125366211e-01
2.766000000000000000e+03 4.819583892822265625e+01 -3.032539367675781250e+01 3.116931915283203125e-01 2.980777025222778320e+00 9.877410531044006348e-01 -4.800145700573921204e-02
2.767000000000000000e+03 6.542070007324218750e+01 2.788547325134277344e+01 -1.223940104246139526e-01 5.927585601806640625e+00 1.741557478904724121e+00 1.934559345245361328e-01
2.768000000000000000e+03 3.528468704223632812e+01 2.860153388977050781e+01 4.123450443148612976e-02 5.700656771659851074e-01 1.833900511264801025e-01 -8.771656453609466553e-02
2.769000000000000000e+03 3.192766761779785156e+01 2.935048103332519531e+01 4.616457223892211914e-02 4.341550469398498535e-01 1.440958827733993530e-01 6.740418076515197754e-02
2.770000000000000000e+03 1.470598602294921875e+01 2.759910202026367188e+01 -8.309914171695709229e-02 2.809504866600036621e-01 5.935540795326232910e-02 1.766529083251953125e-01
2.771000000000000000e+03 6.621335601806640625e+01 -2.724553489685058594e+01 2.109511196613311768e-01 5.276345729827880859e+00 1.646188974380493164e+00 -2.712012529373168945e-01
2.772000000000000000e+03 6.724665832519531250e+01 -2.849881553649902344e+01 1.947459578514099121e-01 5.481111526489257812e+00 1.702757239341735840e+00 -9.201950579881668091e-02
2.773000000000000000e+03 6.636218261718750000e+01 -2.483297157287597656e+01 3.003252744674682617e-01 5.039500713348388672e+00 1.601947903633117676e+00 -4.484151005744934082e-01
2.774000000000000000e+03 7.375701141357421875e+01 2.953011131286621094e+01 -6.757674366235733032e-02 6.807125091552734375e+00 2.021864414215087891e+00 2.145159393548965454e-01
2.775000000000000000e+03 5.796056747436523438e+01 -2.587534141540527344e+01 -5.302081108093261719e-01 5.504296302795410156e+00 1.492226481437683105e+00 3.876365125179290771e-01
2.776000000000000000e+03 5.995250320434570312e+01 -2.882650947570800781e+01 -1.718142330646514893e-01 5.203552246093750000e+00 1.509521365165710449e+00 1.006281226873397827e-01
2.777000000000000000e+03 6.235825729370117188e+01 -2.446456527709960938e+01 2.436746470630168915e-02 5.584467411041259766e+00 1.682650446891784668e+00 -6.104891300201416016e-01
2.778000000000000000e+03 7.143280792236328125e+01 2.591713142395019531e+01 -8.404487371444702148e-02 6.587079048156738281e+00 1.950910210609436035e+00 2.680572867393493652e-01
2.779000000000000000e+03 6.695800781250000000e+01 2.315799331665039062e+01 -6.293559074401855469e-02 6.260876655578613281e+00 1.859382390975952148e+00 1.160762533545494080e-01
2.780000000000000000e+03 7.136386108398437500e+01 2.822105789184570312e+01 -1.031594127416610718e-01 6.600835323333740234e+00 1.949302792549133301e+00 2.557871043682098389e-01
2.781000000000000000e+03 2.621515464782714844e+01 2.650997400283813477e+00 -6.507075309753417969e+00 -5.716617703437805176e-01 -2.123621225357055664e+00 -2.217152833938598633e+00
2.782000000000000000e+03 1.570883274078369141e+01 -2.027029752731323242e+00 -3.080782294273376465e-02 -3.801642358303070068e-02 -2.064727433025836945e-02 4.083530604839324951e-02
2.783000000000000000e+03 3.678514480590820312e+01 9.525000572204589844e+00 -4.010449629276990891e-03 -6.619410589337348938e-03 -3.188958158716559410e-03 -3.920766524970531464e-03
2.784000000000000000e+03 3.563925933837890625e+01 9.188045501708984375e+00 6.817312911152839661e-03 -1.130848657339811325e-02 -1.347352284938097000e-03 3.160416707396507263e-02
2.785000000000000000e+03 3.483815765380859375e+01 1.628919410705566406e+01 -2.078578710556030273e+00 -1.032287716865539551e+00 -9.332599639892578125e-01 -2.476880848407745361e-01
2.786000000000000000e+03 2.117382621765136719e+01 5.809762954711914062e+00 1.115657806396484375e+00 6.955796480178833008e-01 5.433712601661682129e-01 1.927859544754028320e+00
2.787000000000000000e+03 2.082033729553222656e+01 5.760260105133056641e+00 1.528480291366577148e+00 8.384692072868347168e-01 7.100848555564880371e-01 2.297092199325561523e+00
2.788000000000000000e+03 2.065218544006347656e+01 5.963467121124267578e+00 1.258828759193420410e+00 1.145256996154785156e+00 7.212257385253906250e-01 2.589273691177368164e+00
2.789000000000000000e+03 2.069383621215820312e+01 6.233161449432373047e+00 6.411362886428833008e-01 1.441655397415161133e+00 6.248375177383422852e-01 2.670783281326293945e+00
2.790000000000000000e+03 2.037852287292480469e+01 6.219837665557861328e+00 5.983049869537353516e-01 1.682428002357482910e+00 6.842198967933654785e-01 2.904941082000732422e+00
2.791000000000000000e+03 1.990677261352539062e+01 6.405785560607910156e+00 -3.300640285015106201e-01 2.554302930831909180e+00 6.672716736793518066e-01 3.345344305038452148e+00
2.792000000000000000e+03 1.897657012939453125e+01 5.970009803771972656e+00 1.800394356250762939e-01 5.732791900634765625e+00 1.773849368095397949e+00 4.191554069519042969e+00
2.793000000000000000e+03 1.698300552368164062e+01 5.467513084411621094e+00 3.863507986068725586e+00 1.220114231109619141e+00 1.525086641311645508e+00 -3.100372076034545898e+00
2.794000000000000000e+03 1.649076652526855469e+01 4.976492881774902344e+00 6.260948181152343750e+00 -2.775444507598876953e+00 1.045651078224182129e+00 -1.837094664573669434e+00
2.795000000000000000e+03 1.656072998046875000e+01 3.328384637832641602e+00 8.522665023803710938e+00 -3.980425000190734863e-01 2.437386751174926758e+00 2.174152374267578125e+00
2.796000000000000000e+03 1.755803680419921875e+01 2.866724491119384766e+00 -8.610129356384277344e-01 9.547581672668457031e-01 2.812355570495128632e-02 -1.688366055488586426e+00
2.797000000000000000e+03 1.845680046081542969e+01 2.475741147994995117e+00 1.289616823196411133e+00 6.385291099548339844e+00 2.302472352981567383e+00 -5.248262405395507812e+00
2.798000000000000000e+03 1.861273384094238281e+01 2.473995447158813477e+00 2.502303838729858398e+00 8.081480979919433594e+00 3.175135612487792969e+00 -7.450699329376220703e+00
2.799000000000000000e+03 2.025421714782714844e+01 2.365895986557006836e+00 2.589355230331420898e+00 4.425025939941406250e+00 2.104314327239990234e+00 -4.429228782653808594e+00
2.800000000000000000e+03 2.080102539062500000e+01 2.187374353408813477e+00 1.892555713653564453e+00 4.586742401123046875e+00 1.943789482116699219e+00 -3.246547222137451172e+00
2.801000000000000000e+03 2.120893287658691406e+01 2.470747709274291992e+00 9.256253838539123535e-01 2.289742469787597656e+00 9.646103978157043457e-01 -1.983240723609924316e+00
2.802000000000000000e+03 2.168575096130371094e+01 2.416558027267456055e+00 1.009931862354278564e-01 2.599659681320190430e+00 8.101958632469177246e-01 -9.020339250564575195e-01
2.803000000000000000e+03 1.566767883300781250e+01 -3.212208986282348633e+00 -9.081532061100006104e-02 -6.599972024559974670e-03 -2.922458760440349579e-02 6.005075201392173767e-02
2.804000000000000000e+03 1.950217628479003906e+01 2.178851127624511719e+00 4.222352027893066406e+00 7.769751071929931641e+00 3.597630977630615234e+00 -6.091005802154541016e+00
2.805000000000000000e+03 7.472320556640625000e+01 8.367848396301269531e-02 -2.125252723693847656e+00 3.938011646270751953e+00 5.438276529312133789e-01 1.527313232421875000e+00
2.806000000000000000e+03 3.843304824829101562e+01 -4.207275867462158203e+00 1.010683536529541016e+00 -1.533794879913330078e+00 -1.569333970546722412e-01 1.011290475726127625e-01
2.807000000000000000e+03 1.696541595458984375e+01 6.346045017242431641e+00 -2.330424308776855469e+00 -1.104120090603828430e-01 -7.322508692741394043e-01 -3.730825901031494141e+00
2.808000000000000000e+03 2.116644096374511719e+01 1.452747106552124023e+00 2.670405864715576172e+00 5.397026538848876953e+00 2.420229911804199219e+00 -3.544541120529174805e+00
2.809000000000000000e+03 5.270835494995117188e+01 -2.091284370422363281e+01 1.106660142540931702e-01 7.554935216903686523e-01 2.598478496074676514e-01 9.470614790916442871e-01
2.810000000000000000e+03 1.834268569946289062e+01 2.362795829772949219e+00 1.999944686889648438e+00 4.054254531860351562e+00 1.816259741783142090e+00 -4.639906406402587891e+00
2.811000000000000000e+03 1.966904067993164062e+01 7.078417778015136719e+00 -2.756547927856445312e+00 2.979297399520874023e+00 6.682485342025756836e-02 2.383089303970336914e+00
2.812000000000000000e+03 1.791512107849121094e+01 2.537974834442138672e+00 3.977879583835601807e-01 4.441287040710449219e+00 1.451722502708435059e+00 -2.051305532455444336e+00
2.813000000000000000e+03 1.995343399047851562e+01 1.878321409225463867e+00 4.049940109252929688e+00 7.031680107116699219e+00 3.324486017227172852e+00 -5.952080249786376953e+00
2.814000000000000000e+03 2.017503166198730469e+01 1.993973612785339355e+00 3.539024591445922852e+00 5.361340999603271484e+00 2.670109510421752930e+00 -4.994787693023681641e+00
2.815000000000000000e+03 2.086873626708984375e+01 5.914097309112548828e+00 1.245212674140930176e+00 9.888059496879577637e-01 6.702055931091308594e-01 2.387438297271728516e+00
2.816000000000000000e+03 1.453407645225524902e+00 -3.258854389190673828e+00 -4.074173048138618469e-03 -7.677287328988313675e-03 -3.525438252836465836e-03 -6.574187893420457840e-03
2.817000000000000000e+03 1.730909156799316406e+01 6.022823810577392578e+00 -1.193605780601501465e+00 4.316118240356445312e+00 9.367536902427673340e-01 -3.278361082077026367e+00
2.818000000000000000e+03 1.782012367248535156e+01 6.239662647247314453e+00 -2.281475305557250977e+00 4.658494949340820312e+00 7.131059169769287109e-01 -1.335992336273193359e+00
2.819000000000000000e+03 1.668244743347167969e+01 5.942921638488769531e+00 -1.219737768173217773e+00 -2.247203826904296875e+00 -1.040082454681396484e+00 -4.295865058898925781e+00
2.820000000000000000e+03 1.678844070434570312e+01 5.318089485168457031e+00 4.526329994201660156e+00 -6.073527336120605469e-01 1.175693154335021973e+00 -3.530574798583984375e+00
2.821000000000000000e+03 1.560001850128173828e+01 5.901801109313964844e+00 -3.097803592681884766e+00 -4.291167736053466797e+00 -2.216691493988037109e+00 -5.237698554992675781e+00
2.822000000000000000e+03 1.608685874938964844e+01 5.329841613769531250e+00 2.225618362426757812e+00 -4.296432971954345703e+00 -6.212444305419921875e-01 -3.534661293029785156e+00
2.823000000000000000e+03 1.641342163085937500e+01 5.233148097991943359e+00 4.300172328948974609e+00 -2.892966747283935547e+00 4.221617281436920166e-01 -2.706465959548950195e+00
2.824000000000000000e+03 1.967846488952636719e+01 1.698084712028503418e+00 4.970117568969726562e+00 7.554743766784667969e+00 3.757458448410034180e+00 -6.581235408782958984e+00
2.825000000000000000e+03 1.528266525268554688e+01 4.946723461151123047e+00 3.058280467987060547e+00 -4.548635959625244141e+00 -4.471066594123840332e-01 -2.482912302017211914e+00
2.826000000000000000e+03 1.592282009124755859e+01 5.014982223510742188e+00 4.791231632232666016e+00 -4.061354160308837891e+00 2.189632356166839600e-01 -2.790026664733886719e+00
2.827000000000000000e+03 1.567005538940429688e+01 4.727348327636718750e+00 6.345804691314697266e+00 -4.240489959716796875e+00 6.315945386886596680e-01 -2.196577310562133789e+00
2.828000000000000000e+03 1.562148189544677734e+01 5.302216529846191406e+00 1.631176948547363281e+00 -4.013235092163085938e+00 -7.146174311637878418e-01 -3.571161270141601562e+00
2.829000000000000000e+03 3.025921106338500977e+00 -3.349783325195312500e+01 1.418603211641311646e-02 -5.815159678459167480e-01 -1.701989769935607910e-01 -2.194780856370925903e-02
2.830000000000000000e+03 1.508884620666503906e+01 4.460467815399169922e+00 6.924633026123046875e+00 -4.078401565551757812e+00 8.538693785667419434e-01 -2.170164346694946289e+00
2.831000000000000000e+03 3.739146804809570312e+01 -2.233426570892333984e+00 1.431032896041870117e+00 -1.843048453330993652e+00 -1.236046701669692993e-01 -2.726376354694366455e-01
2.832000000000000000e+03 3.607475662231445312e+01 5.494693279266357422e+00 -2.217319756746292114e-01 -5.642342567443847656e-02 -8.344662189483642578e-02 4.054735600948333740e-01
2.833000000000000000e+03 7.833267974853515625e+01 6.818037033081054688e+00 1.162124633789062500e+00 9.308298110961914062e+00 3.141126871109008789e+00 -7.523151040077209473e-01
2.834000000000000000e+03 6.012795639038085938e+01 -1.788964462280273438e+01 5.414628982543945312e-01 7.287228584289550781e+00 2.348607540130615234e+00 -1.032275438308715820e+00
2.835000000000000000e+03 2.866604042053222656e+01 1.290080642700195312e+01 -1.051221728324890137e+00 -1.310596704483032227e+00 -7.085455656051635742e-01 -1.425848245620727539e+00
2.836000000000000000e+03 5.188795089721679688e+01 1.861377143859863281e+01 -1.883005738258361816e+00 8.027940750122070312e+00 1.843480467796325684e+00 8.649636059999465942e-02
2.837000000000000000e+03 4.374020004272460938e+01 -5.745909810066223145e-01 2.019241601228713989e-01 5.271415710449218750e+00 1.642001986503601074e+00 2.410124063491821289e+00
2.838000000000000000e+03 5.972764968872070312e+01 -2.775320053100585938e+00 8.043100237846374512e-01 5.368872642517089844e+00 1.851954817771911621e+00 -7.244188785552978516e-01
2.839000000000000000e+03 4.097960281372070312e+01 3.600455474853515625e+01 2.173369526863098145e-01 1.639993071556091309e+00 5.571990013122558594e-01 -2.097449302673339844e-01
2.840000000000000000e+03 3.083790779113769531e+01 3.607173538208007812e+01 3.565448820590972900e-01 4.857434034347534180e-01 2.526864707469940186e-01 1.227561011910438538e-02
2.841000000000000000e+03 2.058217239379882812e+01 1.696549534797668457e+00 3.202976942062377930e+00 5.457743644714355469e+00 2.598216295242309570e+00 -4.870151042938232422e+00
2.842000000000000000e+03 1.905964851379394531e+01 7.074364662170410156e+00 -3.630212545394897461e+00 3.794669389724731445e+00 4.933711141347885132e-02 1.887586712837219238e+00
2.843000000000000000e+03 2.076753616333007812e+01 1.902176856994628906e+00 2.992435693740844727e+00 5.514001846313476562e+00 2.551931142807006836e+00 -4.289817810058593750e+00
2.844000000000000000e+03 2.025605010986328125e+01 1.667708516120910645e+00 3.734574079513549805e+00 6.210548400878906250e+00 2.983536720275878906e+00 -5.513597488403320312e+00
2.845000000000000000e+03 3.904943084716796875e+01 8.104932785034179688e+00 -3.458405658602714539e-02 -2.437668293714523315e-02 -1.768822222948074341e-02 -1.054909173399209976e-02
2.846000000000000000e+03 2.164304161071777344e+01 1.647253155708312988e+00 1.759573936462402344e+00 3.396228790283203125e+00 1.546740770339965820e+00 -2.416981220245361328e+00
2.847000000000000000e+03 2.129185485839843750e+01 1.749817609786987305e+00 2.134192705154418945e+00 3.813045978546142578e+00 1.784171581268310547e+00 -2.577684402465820312e+00
2.848000000000000000e+03 4.401025772094726562e+01 -7.219053745269775391e+00 4.424250870943069458e-02 1.141978359222412109e+01 3.439208030700683594e+00 1.031406998634338379e+00
2.849000000000000000e+03 2.009475898742675781e+01 6.790308475494384766e+00 -1.061231136322021484e+00 2.538917779922485352e+00 4.433059990406036377e-01 2.890273809432983398e+00
2.850000000000000000e+03 2.157403373718261719e+01 6.836703300476074219e+00 -6.046243309974670410e-01 1.447977304458618164e+00 2.530058920383453369e-01 1.806809663772583008e+00
2.851000000000000000e+03 2.148725891113281250e+01 7.272988796234130859e+00 -1.261575102806091309e+00 1.848135471343994141e+00 1.759680956602096558e-01 1.857831716537475586e+00
2.852000000000000000e+03 2.095552253723144531e+01 7.241299629211425781e+00 -1.519940257072448730e+00 2.081583261489868164e+00 1.684928983449935913e-01 2.098389625549316406e+00
2.853000000000000000e+03 6.966638946533203125e+01 1.273898696899414062e+01 1.992142081260681152e+00 6.296574115753173828e+00 2.486614942550659180e+00 1.696691751480102539e+00
2.854000000000000000e+03 2.674114227294921875e+01 -2.285919427871704102e+00 3.090670824050903320e+00 1.782454609870910645e+00 1.461937665939331055e+00 1.732007563114166260e-01
2.855000000000000000e+03 3.799047851562500000e+01 -2.402652168273925781e+01 8.146794885396957397e-02 2.909246921539306641e+00 8.972144722938537598e-01 2.924632132053375244e-01
2.856000000000000000e+03 1.261461830139160156e+01 2.492642879486083984e+00 2.291103601455688477e+00 -1.275743097066879272e-01 6.490588188171386719e-01 -2.821498394012451172e+00
2.857000000000000000e+03 1.120929622650146484e+01 3.320554018020629883e+00 3.862056255340576172e+00 4.730279922485351562e+00 2.577700853347778320e+00 -2.348952531814575195e+00
2.858000000000000000e+03 1.789066886901855469e+01 1.790582847595214844e+01 -1.289534449577331543e+00 -2.359556853771209717e-01 -4.576470553874969482e-01 -2.006329894065856934e-01
2.859000000000000000e+03 1.690573310852050781e+01 1.818027114868164062e+01 -1.248720526695251465e+00 -1.491354107856750488e-01 -4.193567931652069092e-01 -2.796634137630462646e-01
2.860000000000000000e+03 5.528459548950195312e+01 -2.383752632141113281e+01 -4.966963231563568115e-01 4.489175319671630859e+00 1.197743654251098633e+00 1.004761457443237305e+00
2.861000000000000000e+03 7.386956024169921875e+01 1.266440963745117188e+01 1.340972542762756348e+00 4.557917118072509766e+00 1.769667029380798340e+00 -1.081661581993103027e+00
2.862000000000000000e+03 6.347092437744140625e+01 1.308630704879760742e+00 -2.355974674224853516e+00 5.584809780120849609e+00 9.686506390571594238e-01 3.304659843444824219e+00
2.863000000000000000e+03 5.208475875854492188e+01 2.265809631347656250e+01 -1.143570542335510254e+00 5.658194065093994141e+00 1.354387164115905762e+00 -3.730059862136840820e-01
2.864000000000000000e+03 1.239805507659912109e+01 -5.288477420806884766e+00 -1.552012115716934204e-01 6.801612675189971924e-02 -2.615552581846714020e-02 -1.637825742363929749e-02
2.865000000000000000e+03 2.045571327209472656e+01 7.080980777740478516e+00 -1.479831814765930176e+00 2.404471874237060547e+00 2.773919999599456787e-01 2.547322511672973633e+00
2.866000000000000000e+03 7.554570770263671875e+01 1.491643428802490234e+01 5.625798106193542480e-01 6.105923652648925781e+00 2.000550985336303711e+00 -6.515730023384094238e-01
2.867000000000000000e+03 2.084661674499511719e+01 1.159862756729125977e+00 5.058040142059326172e+00 7.472863197326660156e+00 3.759271144866943359e+00 -5.285914421081542969e+00
2.868000000000000000e+03 2.287899208068847656e+01 9.097394943237304688e+00 -1.729831814765930176e+00 2.631809949874877930e+00 2.705934643745422363e-01 1.105564951896667480e+00
2.869000000000000000e+03 7.006303405761718750e+01 -2.049356269836425781e+01 4.560999870300292969e-01 4.611680030822753906e+00 1.520334124565124512e+00 1.033892154693603516e+00
2.870000000000000000e+03 3.017765808105468750e+01 -3.000140380859375000e+01 1.449473947286605835e-01 1.739591717720031738e+00 5.653617382049560547e-01 3.036234062165021896e-03
2.871000000000000000e+03 1.745720481872558594e+01 -1.163982868194580078e+01 -1.976034045219421387e-01 2.067807018756866455e-01 2.753188833594322205e-03 -1.393697708845138550e-01
2.872000000000000000e+03 7.692304229736328125e+01 -1.337844371795654297e+01 6.520227193832397461e-01 7.765879154205322266e+00 2.525370597839355469e+00 1.037030890583992004e-01
2.873000000000000000e+03 3.907902145385742188e+01 1.874051094055175781e+01 -1.337715744972229004e+00 3.344348371028900146e-01 -3.009842634201049805e-01 -3.447854518890380859e-01
2.874000000000000000e+03 4.276576614379882812e+01 -2.252342987060546875e+01 -3.753875195980072021e-01 3.493822336196899414e+00 9.355304241180419922e-01 -4.910944104194641113e-01
2.875000000000000000e+03 4.448099899291992188e+01 -2.391475486755371094e+01 -1.918572485446929932e-01 3.012960433959960938e+00 8.463309407234191895e-01 -6.255185604095458984e-01
2.876000000000000000e+03 1.708200454711914062e+01 1.919896507263183594e+01 -1.044483304023742676e+00 -1.078710258007049561e-01 -3.457062840461730957e-01 -8.429511636495590210e-02
2.877000000000000000e+03 5.869979095458984375e+01 -8.934033393859863281e+00 5.721217393875122070e-01 8.069222450256347656e+00 2.592403411865234375e+00 5.082378983497619629e-01
2.878000000000000000e+03 7.708059692382812500e+01 -1.208079147338867188e+01 5.926805734634399414e-01 7.779501438140869141e+00 2.511654615402221680e+00 4.579574167728424072e-01
2.879000000000000000e+03 2.294886207580566406e+01 -1.741654014587402344e+01 -6.847968697547912598e-02 9.979908466339111328e-01 2.788533568382263184e-01 6.209987029433250427e-02
2.880000000000000000e+03 7.044505310058593750e+01 -2.386050415039062500e+01 3.473860025405883789e-01 5.329704284667968750e+00 1.703127145767211914e+00 3.230348527431488037e-01
2.881000000000000000e+03 3.170171546936035156e+01 2.412395668029785156e+01 -4.860105812549591064e-01 2.109180241823196411e-01 -8.252777159214019775e-02 3.551947176456451416e-01
2.882000000000000000e+03 6.787712097167968750e+01 1.808670234680175781e+01 -1.159684583544731140e-01 7.270835876464843750e+00 2.146460294723510742e+00 2.364352345466613770e-01
2.883000000000000000e+03 7.604056549072265625e+01 3.036209297180175781e+01 -3.550572693347930908e-02 7.017774581909179688e+00 2.094680547714233398e+00 1.605228781700134277e-01
2.884000000000000000e+03 3.125847244262695312e+01 1.671181488037109375e+01 -1.134117245674133301e+00 -9.662363529205322266e-01 -6.301060914993286133e-01 2.994754314422607422e-01
2.885000000000000000e+03 3.965305709838867188e+01 1.601384162902832031e+01 -1.955151677131652832e+00 5.592182278633117676e-01 -4.187800586223602295e-01 -1.072655692696571350e-01
2.886000000000000000e+03 4.033136367797851562e+01 1.655394172668457031e+01 -1.755720973014831543e+00 6.352484822273254395e-01 -3.361417651176452637e-01 -1.619452089071273804e-01
2.887000000000000000e+03 2.903486633300781250e+01 2.506665611267089844e+01 -5.559954047203063965e-01 3.945561051368713379e-01 -4.843178763985633850e-02 2.979333102703094482e-01
2.888000000000000000e+03 2.641022491455078125e+01 2.616460609436035156e+01 -4.676972627639770508e-01 3.646481335163116455e-01 -3.091473691165447235e-02 1.321841180324554443e-01
2.889000000000000000e+03 6.711070251464843750e+01 1.660809707641601562e+01 -1.785961240530014038e-01 7.963931083679199219e+00 2.335600376129150391e+00 1.253015641123056412e-02
2.890000000000000000e+03 5.373314666748046875e+01 1.813015174865722656e+01 -1.103010773658752441e+00 8.090957641601562500e+00 2.096384286880493164e+00 1.542933225631713867e+00
2.891000000000000000e+03 6.800629425048828125e+01 1.686204338073730469e+01 6.741397082805633545e-02 7.451190948486328125e+00 2.255581617355346680e+00 5.226714015007019043e-01
2.892000000000000000e+03 4.735335922241210938e+01 -2.489476013183593750e+01 2.205014675855636597e-01 2.566165447235107422e+00 8.360000848770141602e-01 -4.672972857952117920e-01
2.893000000000000000e+03 6.336731719970703125e+01 -1.846804237365722656e+01 4.787116348743438721e-01 5.266537666320800781e+00 1.723574757575988770e+00 -1.358913183212280273e+00
2.894000000000000000e+03 2.298142814636230469e+01 2.564146804809570312e+01 -3.912205100059509277e-01 2.311558276414871216e-01 -4.801940545439720154e-02 -6.401327997446060181e-02
2.895000000000000000e+03 6.453367710113525391e+00 4.215345859527587891e+00 2.338156223297119141e+00 -4.033667445182800293e-01 5.804368257522583008e-01 2.862253189086914062e-01
2.896000000000000000e+03 6.906317138671875000e+01 1.821418380737304688e+01 1.161209344863891602e-01 6.911562442779541016e+00 2.108304977416992188e+00 5.631249547004699707e-01
2.897000000000000000e+03 6.903638458251953125e+01 1.672809410095214844e+01 2.975839376449584961e-01 7.319602012634277344e+00 2.285155773162841797e+00 7.786599397659301758e-01
2.898000000000000000e+03 4.294990539550781250e+01 2.462857627868652344e+01 -2.792585492134094238e-01 1.551682114601135254e+00 3.817270696163177490e-01 -7.025026679039001465e-01
2.899000000000000000e+03 5.352476119995117188e+01 2.353829383850097656e+01 -1.013934969902038574e+00 5.559511184692382812e+00 1.363672733306884766e+00 2.196825668215751648e-02
2.900000000000000000e+03 3.110382080078125000e+01 2.679022598266601562e+01 -2.581158280372619629e-01 3.237168490886688232e-01 1.968030631542205811e-02 1.991358995437622070e-01
2.901000000000000000e+03 2.897422981262207031e+01 2.673621749877929688e+01 -2.398351877927780151e-01 4.045326411724090576e-01 4.940924048423767090e-02 1.976481676101684570e-01
2.902000000000000000e+03 3.804264450073242188e+01 1.872336769104003906e+01 -1.300042033195495605e+00 1.062685772776603699e-01 -3.581320345401763916e-01 -3.671337962150573730e-01
2.903000000000000000e+03 1.444898033142089844e+01 1.931073188781738281e+01 -8.400381207466125488e-01 1.595527827739715576e-01 -2.041455954313278198e-01 -6.001218780875205994e-02
2.904000000000000000e+03 1.139307785034179688e+01 -5.920249462127685547e+00 -1.375233530998229980e-01 6.144012510776519775e-02 -2.282496728003025055e-02 -4.037539660930633545e-02
2.905000000000000000e+03 4.336669540405273438e+01 -2.544671249389648438e+01 -1.217559128999710083e-01 2.971782922744750977e+00 8.550081253051757812e-01 -4.603739976882934570e-01
2.906000000000000000e+03 5.786796569824218750e+01 -3.003344345092773438e+01 -7.946085184812545776e-02 4.725249767303466797e+00 1.393736600875854492e+00 2.650419175624847412e-01
2.907000000000000000e+03 4.003977203369140625e+01 2.289758491516113281e+01 -4.544679224491119385e-01 6.967909336090087891e-01 7.269690930843353271e-02 -4.631819128990173340e-01
2.908000000000000000e+03 7.605961608886718750e+01 1.835807800292968750e+01 2.683534026145935059e-01 6.572618007659912109e+00 2.052291393280029297e+00 5.748005583882331848e-02
2.909000000000000000e+03 6.241641998291015625e+01 2.416294479370117188e+01 1.027945280075073242e-01 5.402446746826171875e+00 1.651572346687316895e+00 3.283407390117645264e-01
2.910000000000000000e+03 3.279611968994140625e+01 2.553700256347656250e+01 -1.689074486494064331e-01 3.185169398784637451e-01 4.488284140825271606e-02 1.615682691335678101e-01
2.911000000000000000e+03 7.478170776367187500e+01 1.760230064392089844e+01 5.052961707115173340e-01 6.373630523681640625e+00 2.063678026199340820e+00 1.234804615378379822e-01
2.912000000000000000e+03 1.595327854156494141e+01 1.964348983764648438e+01 -9.413238763809204102e-01 -4.034787043929100037e-02 -2.945015132427215576e-01 -1.067451611161231995e-01
2.913000000000000000e+03 3.181536197662353516e+00 5.037681579589843750e+00 6.242679357528686523e-01 -5.844276547431945801e-01 1.195208076387643814e-02 1.775794476270675659e-01
2.914000000000000000e+03 5.407906532287597656e+00 4.588561534881591797e+00 1.590432286262512207e+00 -6.238436102867126465e-01 2.899765968322753906e-01 2.342439591884613037e-01
2.915000000000000000e+03 7.461501312255859375e+01 2.559593009948730469e+01 -3.013249672949314117e-02 6.821463108062744141e+00 2.037399291992187500e+00 2.594242691993713379e-01
2.916000000000000000e+03 4.488317871093750000e+01 -2.537200355529785156e+01 2.064094319939613342e-02 2.866875886917114258e+00 8.662550449371337891e-01 -4.292356073856353760e-01
2.917000000000000000e+03 1.017024993896484375e+01 -2.977392768859863281e+01 4.654882475733757019e-02 1.891804300248622894e-02 1.964006014168262482e-02 -9.840890020132064819e-02
2.918000000000000000e+03 6.321180725097656250e+01 2.281462669372558594e+01 2.540297806262969971e-01 5.326763629913330078e+00 1.674238085746765137e+00 1.657739728689193726e-01
2.919000000000000000e+03 7.200736999511718750e+01 -2.927305412292480469e+01 1.487999260425567627e-01 6.040105819702148438e+00 1.856671690940856934e+00 1.310693174600601196e-01
2.920000000000000000e+03 1.280963325500488281e+01 2.076426887512207031e+01 -5.789417028427124023e-01 3.430165648460388184e-01 -7.077753543853759766e-02 3.721240907907485962e-02
2.921000000000000000e+03 3.828001022338867188e+01 2.154224014282226562e+01 -5.549710392951965332e-01 2.773789465427398682e-01 -8.327762782573699951e-02 -2.733980715274810791e-01
2.922000000000000000e+03 7.566927337646484375e+01 -3.233240890502929688e+01 5.064224079251289368e-02 6.649421215057373047e+00 2.010019063949584961e+00 8.152510970830917358e-02
2.923000000000000000e+03 5.651466751098632812e+01 2.354678535461425781e+01 -3.956050872802734375e-01 5.344412803649902344e+00 1.484642267227172852e+00 5.501343607902526855e-01
2.924000000000000000e+03 7.527674674987792969e+00 -2.674168968200683594e+01 2.713415585458278656e-02 -1.690875887870788574e-01 -4.258602857589721680e-02 -1.090461164712905884e-01
2.925000000000000000e+03 1.385473251342773438e+01 -3.151239013671875000e+01 8.305016905069351196e-02 2.953756749629974365e-01 1.135277599096298218e-01 -8.202423900365829468e-02
2.926000000000000000e+03 1.590117073059082031e+01 -2.580871391296386719e+01 1.248534545302391052e-01 4.375584721565246582e-01 1.687235683202743530e-01 -9.986285120248794556e-02
2.927000000000000000e+03 7.112268066406250000e+01 2.185507202148437500e+01 1.173384394496679306e-02 6.685950756072998047e+00 2.009305477142333984e+00 3.430854380130767822e-01
2.928000000000000000e+03 2.356092643737792969e+01 2.966694831848144531e+00 -2.332846403121948242e+00 -2.904844999313354492e+00 -1.571307420730590820e+00 2.127784013748168945e+00
2.929000000000000000e+03 2.319855117797851562e+01 2.827989101409912109e+00 -3.442173242568969727e+00 -7.044354081153869629e-01 -1.243982553482055664e+00 1.861326694488525391e+00
2.930000000000000000e+03 2.259842681884765625e+01 2.841018199920654297e+00 -1.725027918815612793e+00 5.294377207756042480e-01 -3.586770594120025635e-01 1.006279110908508301e+00
2.931000000000000000e+03 2.159950447082519531e+01 3.124685764312744141e+00 -9.590240120887756348e-01 6.983827352523803711e-01 -7.819239050149917603e-02 -6.638434529304504395e-02
2.932000000000000000e+03 2.188306617736816406e+01 3.423527479171752930e+00 -2.261134386062622070e+00 3.571759164333343506e-01 -5.711875557899475098e-01 9.835820794105529785e-01
2.933000000000000000e+03 2.151508331298828125e+01 3.502344608306884766e+00 -2.144670248031616211e+00 9.794666171073913574e-01 -3.495610654354095459e-01 4.595509469509124756e-01
2.934000000000000000e+03 2.160527992248535156e+01 2.741018295288085938e+00 -3.849205672740936279e-01 1.652060747146606445e+00 3.801420629024505615e-01 -4.958035945892333984e-01
2.935000000000000000e+03 2.143492698669433594e+01 2.982443809509277344e+00 -7.481123805046081543e-01 1.004552841186523438e+00 7.693214714527130127e-02 -1.873688697814941406e-01
2.936000000000000000e+03 2.145999336242675781e+01 3.311265945434570312e+00 -1.147520542144775391e+00 9.291406273841857910e-01 -6.551396846771240234e-02 5.951873026788234711e-03
2.937000000000000000e+03 2.175715255737304688e+01 3.928951978683471680e+00 -3.851341724395751953e+00 2.310975193977355957e-01 -1.086073279380798340e+00 8.109833002090454102e-01
2.938000000000000000e+03 2.231310844421386719e+01 3.527040243148803711e+00 -2.505565881729125977e+00 4.970456063747406006e-01 -6.025561094284057617e-01 1.041543602943420410e+00
2.939000000000000000e+03 2.195449447631835938e+01 2.981773376464843750e+00 -1.451167464256286621e+00 1.348501205444335938e+00 -3.079989366233348846e-02 3.791651427745819092e-01
2.940000000000000000e+03 2.290975570678710938e+01 3.605974912643432617e+00 -1.066944837570190430e+00 -7.362490892410278320e-01 -5.409581661224365234e-01 1.453581809997558594e+00
2.941000000000000000e+03 2.140190124511718750e+01 3.154346704483032227e+00 -8.150460124015808105e-01 1.119656920433044434e+00 9.138327091932296753e-02 -7.037265598773956299e-02
2.942000000000000000e+03 2.158227539062500000e+01 3.709255933761596680e+00 -2.738258361816406250e+00 3.743870854377746582e-01 -7.091614007949829102e-01 7.655709981918334961e-01
2.943000000000000000e+03 4.037366485595703125e+01 1.113951778411865234e+01 -8.907683491706848145e-01 -4.589394479990005493e-02 -2.809986770153045654e-01 1.209272071719169617e-01
2.944000000000000000e+03 3.962160873413085938e+01 1.131359195709228516e+01 -9.534574151039123535e-01 4.823851212859153748e-02 -2.715656757354736328e-01 2.273122966289520264e-01
2.945000000000000000e+03 4.275807952880859375e+01 1.133976268768310547e+01 -7.323465347290039062e-01 -2.864570356905460358e-02 -2.282976657152175903e-01 -2.922047674655914307e-01
2.946000000000000000e+03 3.886851119995117188e+01 1.148583889007568359e+01 -9.442690014839172363e-01 -1.237920224666595459e-01 -3.204182982444763184e-01 2.216554582118988037e-01
2.947000000000000000e+03 4.112229919433593750e+01 1.096372222900390625e+01 -7.137516736984252930e-01 9.189405292272567749e-02 -1.865572929382324219e-01 6.334388256072998047e-02
2.948000000000000000e+03 4.054919052124023438e+01 1.186267280578613281e+01 -1.069680571556091309e+00 1.816109120845794678e-01 -2.664209008216857910e-01 8.651012182235717773e-02
2.949000000000000000e+03 4.185790634155273438e+01 1.078891849517822266e+01 -4.662896990776062012e-01 -9.418863803148269653e-03 -1.427125781774520874e-01 -5.077521130442619324e-02
2.950000000000000000e+03 4.253778457641601562e+01 1.062180137634277344e+01 -1.924906671047210693e-01 6.294075399637222290e-02 -3.886497393250465393e-02 -6.445720046758651733e-02
2.951000000000000000e+03 4.325923919677734375e+01 1.099616241455078125e+01 -2.562084197998046875e-01 -1.135682910680770874e-01 -1.109330132603645325e-01 -1.397345513105392456e-01
2.952000000000000000e+03 3.901419448852539062e+01 1.221245574951171875e+01 -1.069350361824035645e+00 8.441608399152755737e-02 -2.954802811145782471e-01 3.817501664161682129e-01
2.953000000000000000e+03 4.131274795532226562e+01 1.168514633178710938e+01 -1.003416299819946289e+00 1.314221620559692383e-01 -2.615982294082641602e-01 -6.988970935344696045e-02
2.954000000000000000e+03 4.206327819824218750e+01 1.150861167907714844e+01 -8.951579332351684570e-01 2.077649384737014771e-01 -2.062178999185562134e-01 -1.550038456916809082e-01
2.955000000000000000e+03 3.978221511840820312e+01 1.203847694396972656e+01 -1.133853197097778320e+00 3.576839715242385864e-02 -3.294254541397094727e-01 1.737167686223983765e-01
2.956000000000000000e+03 3.674169540405273438e+01 1.212182044982910156e+01 -1.718695159070193768e-03 -5.115479230880737305e-01 -1.539799869060516357e-01 2.838025093078613281e-01
2.957000000000000000e+03 3.698434829711914062e+01 1.262278556823730469e+01 -1.069410324096679688e+00 -2.414763867855072021e-01 -3.932659924030303955e-01 6.798651218414306641e-01
2.958000000000000000e+03 3.825864791870117188e+01 1.234777259826660156e+01 -1.090764999389648438e+00 -3.803380578756332397e-02 -3.386396467685699463e-01 4.713401198387145996e-01
2.959000000000000000e+03 3.804425811767578125e+01 1.163198184967041016e+01 -6.299157142639160156e-01 5.330585688352584839e-02 -1.729829609394073486e-01 3.188545703887939453e-01
2.960000000000000000e+03 3.756306838989257812e+01 1.246899890899658203e+01 -1.093755960464477539e+00 -5.379396677017211914e-02 -3.442649841308593750e-01 6.897755265235900879e-01
2.961000000000000000e+03 3.719634628295898438e+01 1.177657890319824219e+01 -2.383837103843688965e-01 -1.762438565492630005e-01 -1.243882700800895691e-01 1.375644803047180176e-01
2.962000000000000000e+03 3.663000488281250000e+01 1.268585968017578125e+01 -9.117421507835388184e-01 -6.195432543754577637e-01 -4.593856036663055420e-01 9.273636341094970703e-01
2.963000000000000000e+03 3.645061874389648438e+01 1.246910285949707031e+01 -2.009326368570327759e-01 -5.729838013648986816e-01 -2.321749329566955566e-01 5.084716081619262695e-01
2.964000000000000000e+03 3.871810150146484375e+01 1.072134113311767578e+01 1.367632858455181122e-02 -1.266997656784951687e-03 3.722799243405461311e-03 -5.772237200289964676e-03
2.965000000000000000e+03 3.946144485473632812e+01 1.055411434173583984e+01 1.365117169916629791e-02 2.013690973399206996e-04 4.155762493610382080e-03 -3.393027000129222870e-03
2.966000000000000000e+03 4.214028167724609375e+01 9.757813453674316406e+00 4.468830593395978212e-04 -4.868991207331418991e-03 -1.326632453128695488e-03 -1.643976866034790874e-04
2.967000000000000000e+03 3.857750320434570312e+01 9.993584632873535156e+00 8.676778525114059448e-03 -3.273105714470148087e-03 1.621101982891559601e-03 -7.774125551804900169e-04
2.968000000000000000e+03 4.160499191284179688e+01 1.006451320648193359e+01 -2.302612876519560814e-03 4.452174995094537735e-03 6.448686472140252590e-04 -2.690652618184685707e-04
2.969000000000000000e+03 4.144534683227539062e+01 9.334435462951660156e+00 2.256614156067371368e-03 1.283575035631656647e-02 4.527709446847438812e-03 6.305708084255456924e-03
2.970000000000000000e+03 4.092973709106445312e+01 1.022012138366699219e+01 1.453876029700040817e-03 -2.683565253391861916e-04 3.556558513082563877e-04 -9.524533525109291077e-04
2.971000000000000000e+03 4.020204162597656250e+01 1.038670063018798828e+01 3.978642635047435760e-03 3.293328918516635895e-03 2.181591466069221497e-03 -6.646609399467706680e-03
2.972000000000000000e+03 4.077485275268554688e+01 9.490621566772460938e+00 -2.508328761905431747e-03 2.448515500873327255e-03 -1.794396848708856851e-05 -1.433362718671560287e-02
2.973000000000000000e+03 4.005191802978515625e+01 9.657777786254882812e+00 5.855525843799114227e-03 1.047261524945497513e-03 2.070836024358868599e-03 3.277589334174990654e-03
2.974000000000000000e+03 3.931608200073242188e+01 9.825769424438476562e+00 -8.390287868678569794e-03 3.264629049226641655e-03 -1.537697738967835903e-03 -1.200332492589950562e-02
2.975000000000000000e+03 1.463219356536865234e+01 1.208772420883178711e+00 -2.979715585708618164e+00 -2.653499126434326172e+00 -1.689964413642883301e+00 -1.732695460319519043e+00
2.976000000000000000e+03 1.413865852355957031e+01 3.089686632156372070e-01 -1.004979729652404785e+00 3.523672521114349365e-01 -1.957837343215942383e-01 -6.905598640441894531e-01
2.977000000000000000e+03 1.413591098785400391e+01 8.441513180732727051e-01 -4.833322763442993164e-01 -8.951872587203979492e-02 -1.718553006649017334e-01 -2.416523933410644531e+00
2.978000000000000000e+03 1.324289608001708984e+01 1.113969683647155762e+00 -2.001986742019653320e+00 -3.447481989860534668e-01 -7.040205001831054688e-01 -1.879436850547790527e+00
2.979000000000000000e+03 1.484628582000732422e+01 5.796153545379638672e-01 -1.322348266839981079e-01 -7.665547728538513184e-01 -2.696368992328643799e-01 -3.145292103290557861e-01
2.980000000000000000e+03 1.338759136199951172e+01 2.497024983167648315e-01 -2.565746545791625977e+00 -3.962936699390411377e-01 -8.886120915412902832e-01 -7.425732612609863281e-01
2.981000000000000000e+03 1.422421169281005859e+01 1.250681281089782715e+00 -1.930848479270935059e+00 -1.055022031068801880e-01 -6.109052300453186035e-01 -6.919030547142028809e-01
2.982000000000000000e+03 1.355335903167724609e+01 8.086416125297546387e-01 -9.341537952423095703e-01 2.783575057983398438e-01 -1.967388838529586792e-01 -1.009045362472534180e+00
2.983000000000000000e+03 1.374464988708496094e+01 1.230049014091491699e+00 -8.296616673469543457e-01 4.367615878582000732e-01 -1.178700178861618042e-01 -2.072933673858642578e+00
2.984000000000000000e+03 1.038163661956787109e+01 3.719484806060791016e-01 -6.904370307922363281e+00 -2.572400271892547607e-01 -2.148483037948608398e+00 1.811932027339935303e-01
2.985000000000000000e+03 1.112833786010742188e+01 3.352923989295959473e-01 -6.322141170501708984e+00 5.572656989097595215e-01 -1.729462623596191406e+00 -1.015915200114250183e-01
2.986000000000000000e+03 1.187404060363769531e+01 3.023687005043029785e-01 -5.278684139251708984e+00 -3.329436182975769043e-01 -1.683488249778747559e+00 -3.348861336708068848e-01
2.987000000000000000e+03 1.187335777282714844e+01 1.043116807937622070e+00 -2.845487594604492188e+00 6.962164044380187988e-01 -6.447813510894775391e-01 -1.473381876945495605e+00
2.988000000000000000e+03 1.261872673034667969e+01 2.733090519905090332e-01 -3.908919334411621094e+00 5.877652764320373535e-01 -9.963461756706237793e-01 -5.324707031250000000e-01
2.989000000000000000e+03 1.261125278472900391e+01 1.014356493949890137e+00 -1.983860492706298828e+00 1.834391355514526367e-01 -5.401263833045959473e-01 -1.816369295120239258e+00
2.990000000000000000e+03 1.039453697204589844e+01 1.112098097801208496e+00 -3.693297624588012695e+00 8.533625602722167969e-01 -8.519805073738098145e-01 -2.209378182888031006e-01
2.991000000000000000e+03 1.113444709777832031e+01 1.075741291046142578e+00 -3.460805416107177734e+00 4.608265161514282227e-01 -8.999936580657958984e-01 -8.887081146240234375e-01
2.992000000000000000e+03 9.623786926269531250e+00 3.900898993015289307e-01 -6.785403251647949219e+00 3.174268007278442383e-01 -1.940392971038818359e+00 2.843931615352630615e-01
2.993000000000000000e+03 8.869092941284179688e+00 1.130121707916259766e+00 -3.566539287567138672e+00 4.353022873401641846e-01 -9.393711090087890625e-01 8.995789289474487305e-01
2.994000000000000000e+03 9.639455795288085938e+00 1.130089879035949707e+00 -3.745645523071289062e+00 1.083070933818817139e-01 -1.091201543807983398e+00 5.274253487586975098e-01
2.995000000000000000e+03 6.556201934814453125e+00 1.130103111267089844e+00 -2.217585563659667969e+00 -2.254025936126708984e-01 -7.328964471817016602e-01 1.127307772636413574e+00
2.996000000000000000e+03 7.314821243286132812e+00 3.901119828224182129e-01 -4.421372413635253906e+00 -2.304807603359222412e-01 -1.395555973052978516e+00 4.420571923255920410e-01
2.997000000000000000e+03 4.234930038452148438e+00 3.901281952857971191e-01 -1.414834380149841309e+00 -1.237294077873229980e-01 -4.615691304206848145e-01 2.695504724979400635e-01
2.998000000000000000e+03 5.005080699920654297e+00 3.903138041496276855e-01 -2.013265848159790039e+00 9.449575096368789673e-02 -5.756310224533081055e-01 3.063115775585174561e-01
2.999000000000000000e+03 2.698928356170654297e+00 1.130043506622314453e+00 -4.729118347167968750e-01 -4.260994493961334229e-02 -1.546565294265747070e-01 3.973921239376068115e-01
3.000000000000000000e+03 2.694541215896606445e+00 3.900435268878936768e-01 -5.446382761001586914e-01 -6.124245002865791321e-02 -1.817642152309417725e-01 1.770217269659042358e-01
3.001000000000000000e+03 1.927357912063598633e+00 1.130177497863769531e+00 -2.892034053802490234e-01 -1.507061272859573364e-01 -1.319728642702102661e-01 3.376576006412506104e-01
3.002000000000000000e+03 1.924224138259887695e+00 3.901774585247039795e-01 -2.536095678806304932e-01 -1.151489838957786560e-02 -7.953734695911407471e-02 1.047694981098175049e-01
3.003000000000000000e+03 1.154332518577575684e+00 3.901924192905426025e-01 -8.494753390550613403e-02 -3.246729448437690735e-02 -3.522444888949394226e-02 5.589612573385238647e-02
3.004000000000000000e+03 3.854947686195373535e-01 1.130104899406433105e+00 -2.147044613957405090e-02 -7.583437114953994751e-02 -2.919144555926322937e-02 5.080943182110786438e-02
3.005000000000000000e+03 3.848679959774017334e-01 3.901049494743347168e-01 -1.510129589587450027e-02 -1.140636950731277466e-02 -7.952299900352954865e-03 1.339473389089107513e-02
3.006000000000000000e+03 3.464860916137695312e+00 3.899480998516082764e-01 -9.332641959190368652e-01 4.743113368749618530e-02 -2.657499313354492188e-01 1.955110430717468262e-01
3.007000000000000000e+03 4.241824626922607422e+00 1.130128264427185059e+00 -1.019170403480529785e+00 -1.807406544685363770e-02 -3.111733198165893555e-01 6.362711191177368164e-01
3.008000000000000000e+03 5.775665760040283203e+00 3.902668058872222900e-01 -2.731812477111816406e+00 -1.824266612529754639e-01 -8.742717504501342773e-01 3.888847529888153076e-01
3.009000000000000000e+03 5.785067081451416016e+00 1.130266785621643066e+00 -1.735428094863891602e+00 2.683998784050345421e-03 -5.198232531547546387e-01 9.194571375846862793e-01
3.010000000000000000e+03 6.545547008514404297e+00 3.901031017303466797e-01 -3.551392078399658203e+00 1.795168519020080566e-01 -1.011562585830688477e+00 4.033514559268951416e-01
3.011000000000000000e+03 8.084894180297851562e+00 3.901273906230926514e-01 -5.318700313568115234e+00 2.495045214891433716e-01 -1.520758748054504395e+00 4.370793402194976807e-01
3.012000000000000000e+03 7.326729297637939453e+00 1.130111932754516602e+00 -2.760846138000488281e+00 1.934965401887893677e-01 -7.702048420906066895e-01 1.076308369636535645e+00
3.013000000000000000e+03 8.854677200317382812e+00 3.901217579841613770e-01 -6.140596866607666016e+00 -2.104381024837493896e-01 -1.905310392379760742e+00 3.762716948986053467e-01
3.014000000000000000e+03 8.098055839538574219e+00 1.130127429962158203e+00 -3.179611206054687500e+00 -1.661402583122253418e-01 -1.003725409507751465e+00 1.064329862594604492e+00
3.015000000000000000e+03 5.013228416442871094e+00 1.130313754081726074e+00 -1.348797440528869629e+00 -2.437950968742370605e-01 -4.777777493000030518e-01 8.359652757644653320e-01
3.016000000000000000e+03 3.470501661300659180e+00 1.129948139190673828e+00 -7.140240669250488281e-01 -1.733793914318084717e-01 -2.662210464477539062e-01 5.833506584167480469e-01
3.017000000000000000e+03 1.156212806701660156e+00 1.130192399024963379e+00 -1.069843173027038574e-01 -1.123990640044212341e-01 -6.581501662731170654e-02 1.641411334276199341e-01
3.018000000000000000e+03 7.947788715362548828e+00 -3.796155154705047607e-01 -3.872304037213325500e-02 -2.657219069078564644e-03 -1.241407822817564011e-02 -2.771205967292189598e-03
3.019000000000000000e+03 8.799200057983398438e+00 -1.121476769447326660e+00 -4.866028204560279846e-02 -9.177832980640232563e-04 -1.487341988831758499e-02 -6.528287660330533981e-03
3.020000000000000000e+03 9.582886695861816406e+00 -3.863955438137054443e-01 -4.816161468625068665e-02 -2.553055295720696449e-03 -1.521440129727125168e-02 -6.579734035767614841e-04
3.021000000000000000e+03 7.128690242767333984e+00 -3.785993754863739014e-01 -3.090027533471584320e-02 2.459954004734754562e-03 -8.532096631824970245e-03 -3.456128528341650963e-03
3.022000000000000000e+03 6.303002834320068359e+00 -3.777079284191131592e-01 -2.372908219695091248e-02 -1.788950408808887005e-03 -7.655410096049308777e-03 -3.277827752754092216e-03
3.023000000000000000e+03 5.439651966094970703e+00 -3.838033080101013184e-01 -1.544164493680000305e-02 1.115471124649047852e-03 -4.297852050513029099e-03 -3.295243717730045319e-03
3.024000000000000000e+03 4.550192832946777344e+00 -3.404171466827392578e-01 -9.503932669758796692e-03 -1.562133897095918655e-03 -3.319820156320929527e-03 -2.528347307816147804e-03
3.025000000000000000e+03 4.366222858428955078e+00 -8.724825382232666016e-01 -9.983613155782222748e-03 -2.313964614586438984e-05 -3.002025652676820755e-03 -5.540219601243734360e-03
3.026000000000000000e+03 2.784379720687866211e+00 -7.812200784683227539e-01 -1.556514878757297993e-03 -1.941256225109100342e-03 -1.049331389367580414e-03 -1.477382145822048187e-03
3.027000000000000000e+03 1.180937051773071289e+00 -3.614223301410675049e-01 1.113725884351879358e-04 9.519833110971376300e-05 6.197127368068322539e-05 7.146188290789723396e-04
3.028000000000000000e+03 4.100893437862396240e-01 -5.529974699020385742e-01 1.141915781772695482e-04 1.026234094751998782e-04 6.504449265776202083e-05 3.837166786979651079e-06
3.029000000000000000e+03 7.476370930671691895e-01 -1.101422309875488281e+00 4.415958188474178314e-03 1.838204800151288509e-03 1.876248861663043499e-03 1.870783395133912563e-03
3.030000000000000000e+03 9.583242416381835938e+00 -1.126395583152770996e+00 -5.210432410240173340e-02 6.559745408594608307e-03 -1.366337295621633530e-02 -4.238926339894533157e-03
3.031000000000000000e+03 8.014751434326171875e+00 -1.119615554809570312e+00 -4.185148701071739197e-02 3.752345917746424675e-03 -1.142974197864532471e-02 -8.738396689295768738e-03
3.032000000000000000e+03 7.228956699371337891e+00 -1.118599414825439453e+00 -3.692492470145225525e-02 -1.428845338523387909e-03 -1.150613091886043549e-02 -9.942556731402873993e-03
3.033000000000000000e+03 6.436572551727294922e+00 -1.117707967758178711e+00 -2.870231680572032928e-02 1.199284102767705917e-03 -8.250909857451915741e-03 -9.742084890604019165e-03
3.034000000000000000e+03 5.606524944305419922e+00 -1.123803257942199707e+00 -2.307473495602607727e-02 -1.163998385891318321e-03 -7.271619979292154312e-03 -9.515143930912017822e-03
3.035000000000000000e+03 4.871310234069824219e+00 -1.221886396408081055e+00 -1.687416993081569672e-02 -2.238951623439788818e-03 -5.733936559408903122e-03 -9.563320316374301910e-03
3.036000000000000000e+03 4.215992450714111328e+00 -1.292065382003784180e+00 -1.657835952937602997e-02 -8.631368400529026985e-04 -5.232449155300855637e-03 -7.716057356446981430e-03
3.037000000000000000e+03 3.483979225158691406e+00 -1.264481186866760254e+00 -6.954437121748924255e-03 -2.460003364831209183e-03 -2.824332099407911301e-03 -6.930476985871791840e-03
3.038000000000000000e+03 2.720374822616577148e+00 -1.259622693061828613e+00 -6.183306686580181122e-03 -3.377861576154828072e-03 -2.868350362405180931e-03 -4.175227601081132889e-03
3.039000000000000000e+03 1.356143712997436523e+00 -1.203356504440307617e+00 -4.061776679009199142e-03 -4.303405992686748505e-03 -2.509554848074913025e-03 -1.671573991188779473e-04
3.040000000000000000e+03 3.578934192657470703e+00 -7.873688340187072754e-01 -7.959925569593906403e-03 -1.036630361340939999e-03 -2.698966767638921738e-03 -4.166235215961933136e-03
3.041000000000000000e+03 3.694924592971801758e+00 -2.828876674175262451e-01 -2.372619695961475372e-03 7.570345187559723854e-04 -4.846755473408848047e-04 -1.300079049542546272e-03
3.042000000000000000e+03 2.863981246948242188e+00 -2.815973162651062012e-01 1.023018121486529708e-04 -9.680199436843395233e-04 -2.597154525574296713e-04 -7.872111746110022068e-04
3.043000000000000000e+03 1.994186639785766602e+00 -3.323911726474761963e-01 1.970051787793636322e-03 -3.651743463706225157e-05 5.800603539682924747e-04 4.299301945138722658e-04
3.044000000000000000e+03 1.979022502899169922e+00 -1.275412678718566895e+00 -2.710769185796380043e-03 5.719601758755743504e-04 -6.416427204385399818e-04 -1.477179001085460186e-03
3.045000000000000000e+03 8.765540122985839844e+00 -3.814768195152282715e-01 -4.412449151277542114e-02 3.635776229202747345e-03 -1.214661449193954468e-02 -2.409580396488308907e-03
3.046000000000000000e+03 1.973226070404052734e+00 -8.478038311004638672e-01 6.053439574316143990e-04 6.652458687312901020e-04 3.811769420281052589e-04 -2.252109581604599953e-03
3.047000000000000000e+03 1.112103080749511719e+01 -4.428110718727111816e-01 -5.073061957955360413e-02 -2.443533390760421753e-03 -1.595224626362323761e-02 3.161336062476038933e-03
3.048000000000000000e+03 1.187371921539306641e+01 -4.752737879753112793e-01 -4.688195884227752686e-02 3.733145305886864662e-03 -1.294464431703090668e-02 4.409941844642162323e-03
3.049000000000000000e+03 1.111492252349853516e+01 -1.183259963989257812e+00 -5.579442530870437622e-02 8.171696215867996216e-03 -1.428681891411542892e-02 2.909062197431921959e-03
3.050000000000000000e+03 1.262644767761230469e+01 -5.069373250007629395e-01 -4.023354873061180115e-02 -2.600612351670861244e-03 -1.285024825483560562e-02 6.469176616519689560e-03
3.051000000000000000e+03 1.035515594482421875e+01 -1.148333072662353516e+00 -5.637409910559654236e-02 -3.025497717317193747e-04 -1.700299605727195740e-02 8.901392720872536302e-05
3.052000000000000000e+03 1.036805534362792969e+01 -4.081833958625793457e-01 -4.976943880319595337e-02 4.393079783767461777e-03 -1.361290737986564636e-02 7.291676593013107777e-04
3.053000000000000000e+03 1.263392257690429688e+01 -1.248021602630615234e+00 -5.050275474786758423e-02 8.766333572566509247e-03 -1.252092700451612473e-02 1.410224102437496185e-02
3.054000000000000000e+03 1.187440204620361328e+01 -1.216021895408630371e+00 -5.665029957890510559e-02 -4.877115716226398945e-04 -1.714140363037586212e-02 9.199340827763080597e-03
3.055000000000000000e+03 3.787689590454101562e+01 1.088152790069580078e+01 1.659540459513664246e-02 1.703667221590876579e-03 5.489721894264221191e-03 2.499475667718797922e-04
3.056000000000000000e+03 3.687048339843750000e+01 1.029800510406494141e+01 3.276862204074859619e-02 -3.896962385624647141e-03 8.661498315632343292e-03 7.005695253610610962e-03
3.057000000000000000e+03 3.774330520629882812e+01 1.015336227416992188e+01 3.269238630309700966e-03 -1.003005448728799820e-02 -2.028244780376553535e-03 -2.555851591750979424e-03
3.058000000000000000e+03 3.632341003417968750e+01 1.056402301788330078e+01 1.041914615780115128e-02 2.516041696071624756e-02 1.067386846989393234e-02 1.216856064274907112e-03
3.059000000000000000e+03 3.699481582641601562e+01 1.102758884429931641e+01 -1.409394550137221813e-03 -1.431116275489330292e-02 -4.716167226433753967e-03 9.352649562060832977e-03
3.060000000000000000e+03 1.483313274383544922e+01 -3.616165518760681152e-01 2.332651056349277496e-03 1.093695964664220810e-02 3.980883397161960602e-03 5.901244003325700760e-03
3.061000000000000000e+03 1.534506702423095703e+01 -8.866766691207885742e-01 -1.349144498817622662e-03 -9.661025367677211761e-03 -3.303050994873046875e-03 -5.988151766359806061e-03
3.062000000000000000e+03 1.413932895660400391e+01 -4.292643368244171143e-01 -9.339083917438983917e-03 -8.459209464490413666e-03 -5.339487921446561813e-03 4.476737696677446365e-03
3.063000000000000000e+03 1.338562393188476562e+01 -4.926638007164001465e-01 -2.465884573757648468e-02 5.064382217824459076e-03 -5.878339055925607681e-03 8.084293454885482788e-03
3.064000000000000000e+03 1.341033267974853516e+01 -1.234521746635437012e+00 -4.796120151877403259e-02 -1.589218503795564175e-03 -1.486512646079063416e-02 1.759919524192810059e-02
3.065000000000000000e+03 1.419171237945556641e+01 -1.172296047210693359e+00 -3.246721252799034119e-02 1.330605125986039639e-03 -9.340981952846050262e-03 2.090377360582351685e-02
3.066000000000000000e+03 1.491319084167480469e+01 -1.105822205543518066e+00 -1.848601363599300385e-02 -1.558123249560594559e-02 -1.022017374634742737e-02 1.228706911206245422e-02
3.067000000000000000e+03 1.849104499816894531e+01 4.347579956054687500e+00 3.174705505371093750e+01 2.949933528900146484e+00 1.040909671783447266e+01 6.195532321929931641e+00
3.068000000000000000e+03 1.848845481872558594e+01 4.366875648498535156e+00 3.115277290344238281e+01 1.013031768798828125e+01 1.238492679595947266e+01 1.439603042602539062e+01
3.069000000000000000e+03 1.848215866088867188e+01 4.385297298431396484e+00 2.993005180358886719e+01 1.771878242492675781e+01 1.429465007781982422e+01 1.776620674133300781e+01
3.070000000000000000e+03 1.847239685058593750e+01 4.402141094207763672e+00 2.731129074096679688e+01 2.614137077331542969e+01 1.603579902648925781e+01 1.943176651000976562e+01
3.071000000000000000e+03 1.845954322814941406e+01 4.416762351989746094e+00 2.457516288757324219e+01 3.400325012207031250e+01 1.757352256774902344e+01 1.896973037719726562e+01
3.072000000000000000e+03 1.844408607482910156e+01 4.428601264953613281e+00 2.169642448425292969e+01 4.143482589721679688e+01 1.893937492370605469e+01 1.653018379211425781e+01
3.073000000000000000e+03 1.842662239074707031e+01 4.437204837799072266e+00 1.942797660827636719e+01 4.672749710083007812e+01 1.984664154052734375e+01 1.276137733459472656e+01
3.074000000000000000e+03 1.840781784057617188e+01 4.442243576049804688e+00 1.899815559387207031e+01 5.062289810180664062e+01 2.088631629943847656e+01 7.495979309082031250e+00
3.075000000000000000e+03 1.838839340209960938e+01 4.443524837493896484e+00 1.878406715393066406e+01 5.143290710449218750e+01 2.106509208679199219e+01 2.376523256301879883e+00
3.076000000000000000e+03 1.836908912658691406e+01 4.440999984741210938e+00 2.202470397949218750e+01 5.084999847412109375e+01 2.186240959167480469e+01 -2.612229824066162109e+00
3.077000000000000000e+03 1.835064506530761719e+01 4.434765338897705078e+00 2.407090377807617188e+01 4.753664016723632812e+01 2.148226356506347656e+01 -6.510928630828857422e+00
3.078000000000000000e+03 1.833376884460449219e+01 4.425059318542480469e+00 2.926677322387695312e+01 4.420782089233398438e+01 2.204237747192382812e+01 -8.549783706665039062e+00
3.079000000000000000e+03 1.831910514831542969e+01 4.412253379821777344e+00 3.225965881347656250e+01 3.916015625000000000e+01 2.142594528198242188e+01 -9.511358261108398438e+00
3.080000000000000000e+03 1.830721664428710938e+01 4.396838188171386719e+00 3.671223068237304688e+01 3.600744628906250000e+01 2.181590461730957031e+01 -8.251014709472656250e+00
3.081000000000000000e+03 1.829855346679687500e+01 4.379403114318847656e+00 3.910652923583984375e+01 3.204703521728515625e+01 2.134606933593750000e+01 -6.249254226684570312e+00
3.082000000000000000e+03 1.829345321655273438e+01 4.360614776611328125e+00 4.086037445068359375e+01 3.052488708496093750e+01 2.141557884216308594e+01 -3.390575170516967773e+00
3.083000000000000000e+03 1.829210662841796875e+01 4.341193199157714844e+00 4.162052917480468750e+01 3.049579048156738281e+01 2.163489723205566406e+01 3.620723783969879150e-01
3.084000000000000000e+03 1.829456710815429688e+01 4.321881294250488281e+00 4.036048507690429688e+01 3.019271469116210938e+01 2.116596031188964844e+01 3.533256053924560547e+00
3.085000000000000000e+03 1.830074119567871094e+01 4.303417682647705078e+00 3.904494094848632812e+01 3.441593933105468750e+01 2.203826522827148438e+01 6.290580749511718750e+00
3.086000000000000000e+03 1.831039047241210938e+01 4.286509513854980469e+00 3.482757568359375000e+01 3.659033584594726562e+01 2.142537307739257812e+01 8.690841674804687500e+00
3.087000000000000000e+03 1.832314682006835938e+01 4.271802902221679688e+00 3.177917861938476562e+01 4.141506958007812500e+01 2.195827484130859375e+01 8.931390762329101562e+00
3.088000000000000000e+03 1.833852195739746094e+01 4.259861469268798828e+00 2.710036468505859375e+01 4.644562149047851562e+01 2.206379508972167969e+01 7.675665855407714844e+00
3.089000000000000000e+03 1.835592842102050781e+01 4.251142024993896484e+00 2.186956596374511719e+01 4.907152938842773438e+01 2.128232765197753906e+01 5.461303710937500000e+00
3.090000000000000000e+03 1.837470054626464844e+01 4.245977878570556641e+00 2.074712181091308594e+01 5.265269470214843750e+01 2.201994514465332031e+01 7.064349055290222168e-01
3.091000000000000000e+03 1.839411735534667969e+01 4.244567394256591797e+00 1.622035789489746094e+01 5.195199203491210938e+01 2.045170593261718750e+01 -4.488011360168457031e+00
3.092000000000000000e+03 1.841343688964843750e+01 4.246963500976562500e+00 1.771770286560058594e+01 5.092178726196289062e+01 2.059184646606445312e+01 -9.568508148193359375e+00
3.093000000000000000e+03 1.843192100524902344e+01 4.253075122833251953e+00 1.780397415161132812e+01 4.594740295410156250e+01 1.912541389465332031e+01 -1.484889698028564453e+01
3.094000000000000000e+03 1.844886207580566406e+01 4.262668609619140625e+00 2.039820098876953125e+01 4.000442886352539062e+01 1.812079048156738281e+01 -1.836586570739746094e+01
3.095000000000000000e+03 1.846360969543457031e+01 4.275376319885253906e+00 2.353175544738769531e+01 3.244980621337890625e+01 1.679446792602539062e+01 -2.023347282409667969e+01
3.096000000000000000e+03 1.847560310363769531e+01 4.290712356567382812e+00 2.649184036254882812e+01 2.309646797180175781e+01 1.487649250030517578e+01 -2.023406791687011719e+01
3.097000000000000000e+03 1.848438072204589844e+01 4.308089256286621094e+00 2.945919036865234375e+01 1.551253795623779297e+01 1.349151897430419922e+01 -1.775916671752929688e+01
3.098000000000000000e+03 1.848960685729980469e+01 4.326842784881591797e+00 3.199173164367675781e+01 4.523823738098144531e+00 1.095466613769531250e+01 -1.059861946105957031e+01
