# el_label, x, y, sXX, sYY, sZZ, sXY
1.000000000000000000e+00 3.067409038543701172e+00 3.866619467735290527e-01 3.381739836186170578e-03 3.600276308134198189e-03 2.094604773446917534e-03 4.966429551132023335e-04
2.000000000000000000e+00 3.886924505233764648e+00 3.862253725528717041e-01 3.073656698688864708e-03 -4.156954586505889893e-03 -3.249894361943006516e-04 -5.880389944650232792e-04
3.000000000000000000e+00 4.027791976928710938e+00 1.126225352287292480e+00 1.260035904124379158e-03 -6.656225887127220631e-04 1.783239858923479915e-04 2.109679160639643669e-03
4.000000000000000000e+00 1.147633671760559082e+00 2.663516700267791748e-01 -1.521065831184387207e-03 -1.555459806695580482e-03 -9.229577262885868549e-04 1.840297598391771317e-03
5.000000000000000000e+00 1.098013877868652344e+00 1.245591640472412109e+00 5.796537880087271333e-05 2.256406471133232117e-03 6.943115731701254845e-04 -3.345687408000230789e-03
6.000000000000000000e+00 1.623235106468200684e+00 5.853629708290100098e-01 4.148765932768583298e-03 4.992942791432142258e-03 2.742512617260217667e-03 -1.583594246767461300e-03
7.000000000000000000e+00 3.690199553966522217e-01 1.254073500633239746e+00 2.334011020138859749e-03 4.440059128683060408e-04 8.334050653502345085e-04 1.181963671115227044e-04
8.000000000000000000e+00 3.974101841449737549e-01 2.644996345043182373e-01 1.059675007127225399e-03 3.744738642126321793e-04 4.302446614019572735e-04 -6.347345188260078430e-04
9.000000000000000000e+00 3.680504858493804932e-01 7.585731744766235352e-01 -2.214319072663784027e-03 6.222702795639634132e-04 -4.776146379299461842e-04 2.146617043763399124e-04
1.000000000000000000e+01 1.804582595825195312e+00 1.200177669525146484e+00 -2.147578488802537322e-04 -2.419675933197140694e-03 -7.903301739133894444e-04 6.670645088888704777e-04
1.100000000000000000e+01 2.270694971084594727e+00 4.074294567108154297e-01 1.774012343958020210e-03 -3.319231560453772545e-03 -4.635658115148544312e-04 -1.309727667830884457e-03
1.200000000000000000e+01 3.259778976440429688e+00 1.126661896705627441e+00 2.193727064877748489e-03 -2.635754179209470749e-03 -1.326081983279436827e-04 -4.423923383001238108e-04
1.300000000000000000e+01 2.514567136764526367e+00 1.147429466247558594e+00 1.640591886825859547e-03 1.488904468715190887e-03 9.388488833792507648e-04 -1.772719784639775753e-03
1.400000000000000000e+01 1.050508618354797363e+00 7.519432902336120605e-01 2.577850362285971642e-03 -1.884332275949418545e-03 2.080553967971354723e-04 -1.766922418028116226e-03
1.500000000000000000e+01 8.019037246704101562e+00 -5.698001384735107422e-01 -2.225242787972092628e-03 4.051706055179238319e-04 -5.460216780193150043e-04 -6.210942519828677177e-04
1.600000000000000000e+01 8.802864074707031250e+00 -1.147397160530090332e+00 -6.280591245740652084e-03 3.062760806642472744e-04 -1.792294555343687534e-03 -1.304047065787017345e-03
1.700000000000000000e+01 7.366508960723876953e+00 -1.208535552024841309e+00 -4.235756117850542068e-03 -1.334249973297119141e-04 -1.310754334554076195e-03 -1.567103317938745022e-03
1.800000000000000000e+01 9.578845977783203125e+00 -1.131019115447998047e+00 -6.911364383995532990e-03 2.907261368818581104e-04 -1.986191375181078911e-03 -7.547072600573301315e-04
1.900000000000000000e+01 8.711921691894531250e+00 -4.073971211910247803e-01 -2.785885008051991463e-03 -8.130932837957516313e-05 -8.601583540439605713e-04 -3.310277243144810200e-04
2.000000000000000000e+01 8.069246292114257812e+00 -1.189969897270202637e+00 -5.873485933989286423e-03 1.395155704813078046e-04 -1.720191095955669880e-03 -1.520103542134165764e-03
2.100000000000000000e+01 9.559395790100097656e+00 -3.910191655158996582e-01 -3.484713379293680191e-03 1.585391582921147346e-04 -9.978521848097443581e-04 -2.663826162461191416e-04
2.200000000000000000e+01 7.455066680908203125e+00 -6.983375549316406250e-01 -2.610786817967891693e-03 -4.907952388748526573e-04 -9.304746636189520359e-04 -8.398902718909084797e-04
2.300000000000000000e+01 7.593650817871093750e+00 -2.498020380735397339e-01 -1.299860072322189808e-03 -1.568218140164390206e-04 -4.370045789983123541e-04 -4.696481337305158377e-04
2.400000000000000000e+01 5.390463352203369141e+00 -3.320255577564239502e-01 4.277485713828355074e-04 4.232653300277888775e-04 2.553041558712720871e-04 -4.301821754779666662e-04
2.500000000000000000e+01 4.449990272521972656e+00 -4.279270172119140625e-01 1.485725166276097298e-03 -3.336718073114752769e-04 3.456159902270883322e-04 -4.663926083594560623e-04
2.600000000000000000e+01 5.060887336730957031e+00 -9.703351855278015137e-01 -2.568349300418049097e-04 -5.351332365535199642e-04 -2.375904587097465992e-04 -6.150272092781960964e-04
2.700000000000000000e+01 6.791380405426025391e+00 -7.130020260810852051e-01 -1.928234705701470375e-03 -6.067456342861987650e-05 -5.966728203929960728e-04 -8.003283874131739140e-04
2.800000000000000000e+01 6.677109241485595703e+00 -1.216864943504333496e+00 -3.105215029790997505e-03 -4.384379426483064890e-04 -1.063095871359109879e-03 -1.613697852008044720e-03
2.900000000000000000e+01 6.855002403259277344e+00 -2.561371028423309326e-01 -2.051258779829367995e-04 -2.531056816224008799e-05 -6.913093238836154342e-05 -6.927012145752087235e-05
3.000000000000000000e+01 6.011948108673095703e+00 -1.253028869628906250e+00 -2.270226133987307549e-03 -5.920106195844709873e-05 -6.988281384110450745e-04 -1.755087287165224552e-03
3.100000000000000000e+01 6.050796031951904297e+00 -8.014951348304748535e-01 -2.716943272389471531e-04 -2.870277967303991318e-04 -1.676166284596547484e-04 -6.035252590663731098e-04
3.200000000000000000e+01 4.527920246124267578e+00 -1.508321762084960938e-01 1.928118639625608921e-03 -8.080375846475362778e-05 5.541944410651922226e-04 -2.400306693743914366e-04
3.300000000000000000e+01 4.586606025695800781e+00 -1.037094831466674805e+00 9.300863894168287516e-05 -3.352294152136892080e-04 -7.266623288160189986e-05 -6.581761990673840046e-04
3.400000000000000000e+01 6.088826656341552734e+00 -3.084662854671478271e-01 -1.220742979057831690e-05 -1.302740656683454290e-05 -7.570451089122798294e-06 -2.071244671242311597e-05
3.500000000000000000e+01 5.461256027221679688e+00 -8.463071584701538086e-01 8.838860085234045982e-04 1.457025296986103058e-03 7.022733916528522968e-04 -1.034270389936864376e-03
3.600000000000000000e+01 5.426088333129882812e+00 -1.274281620979309082e+00 -1.728125847876071930e-03 4.300059808883816004e-04 -3.894359688274562359e-04 -1.165936933830380440e-03
3.700000000000000000e+01 4.896994113922119141e+00 -4.206640124320983887e-01 1.321455463767051697e-03 -3.920337476301938295e-04 2.788265119306743145e-04 -7.116731139831244946e-04
3.800000000000000000e+01 6.431427001953125000e+00 1.820162296295166016e+00 -1.704202149994671345e-04 -2.384625258855521679e-05 -5.827994027640670538e-05 6.362794374581426382e-05
3.900000000000000000e+01 7.159246444702148438e+00 1.673283696174621582e+00 2.359213540330529213e-04 7.263978477567434311e-05 9.256834164261817932e-05 -9.977853915188461542e-05
4.000000000000000000e+01 1.486083126068115234e+01 1.910661458969116211e+00 2.583114255685359240e-04 1.628752943361178041e-04 1.263560116058215499e-04 2.149207575712352991e-04
4.100000000000000000e+01 1.441791820526123047e+01 2.632187604904174805e+00 1.917981426231563091e-03 8.338405168615281582e-04 8.255465654656291008e-04 1.636859262362122536e-03
4.200000000000000000e+01 1.515290832519531250e+01 2.633690834045410156e+00 -1.904658158309757710e-03 -1.400870969519019127e-04 -6.134235882200300694e-04 -7.521014777012169361e-04
4.300000000000000000e+01 9.320051193237304688e+00 2.530618906021118164e+00 2.630553499329835176e-04 2.771397121250629425e-04 1.620585098862648010e-04 3.281098615843802691e-04
4.400000000000000000e+01 7.954456329345703125e+00 1.631025195121765137e+00 -1.403312344336882234e-04 -7.234179793158546090e-05 -6.380191189236938953e-05 -2.639661943248938769e-05
4.500000000000000000e+01 1.361968803405761719e+01 2.622767448425292969e+00 -8.490582113154232502e-04 -1.356176682747900486e-03 -6.615704623982310295e-04 -1.475749770179390907e-03
4.600000000000000000e+01 1.213305759429931641e+01 2.841513872146606445e+00 -4.613058263203129172e-05 -1.065428019501268864e-03 -3.334675857331603765e-04 -6.074494449421763420e-04
4.700000000000000000e+01 1.246205234527587891e+01 2.230782270431518555e+00 -1.153597608208656311e-03 2.520981652196496725e-04 -2.704498183447867632e-04 -1.435102458344772458e-04
4.800000000000000000e+01 1.121730422973632812e+01 1.682812094688415527e+00 -2.407224819762632251e-04 -5.224931519478559494e-04 -2.289646799908950925e-04 -4.602025728672742844e-04
4.900000000000000000e+01 1.091978168487548828e+01 2.322612047195434570e+00 -8.195322589017450809e-04 1.399742177454754710e-04 -2.038674138020724058e-04 -5.001845420338213444e-05
5.000000000000000000e+01 1.054293537139892578e+01 1.827096104621887207e+00 4.299557476770132780e-04 5.136119434610009193e-04 2.830703160725533962e-04 3.808255423791706562e-04
5.100000000000000000e+01 9.875226020812988281e+00 2.119815349578857422e+00 -3.690535668283700943e-04 -4.098468052688986063e-04 -2.336701145395636559e-04 -3.239955112803727388e-04
5.200000000000000000e+01 8.908290863037109375e+00 2.015291929244995117e+00 -5.102284485474228859e-04 -1.188219539471901953e-04 -1.887151156552135944e-04 -3.154143632855266333e-04
5.300000000000000000e+01 9.933198928833007812e+00 2.792418003082275391e+00 1.106556519516743720e-04 9.050033986568450928e-05 6.034679609001614153e-05 7.132644896046258509e-06
5.400000000000000000e+01 8.757272720336914062e+00 1.653222799301147461e+00 1.857351162470877171e-04 -3.554719296516850591e-05 4.505637480178847909e-05 -8.890237222658470273e-05
5.500000000000000000e+01 1.192528820037841797e+01 2.063076496124267578e+00 -2.067984605673700571e-04 -5.354809400159865618e-05 -7.810396346030756831e-05 -4.721640725620090961e-04
5.600000000000000000e+01 1.416244125366210938e+01 1.869152307510375977e+00 -8.200908196158707142e-04 -4.161660035606473684e-04 -3.708770382218062878e-04 -5.145018221810460091e-04
5.700000000000000000e+01 1.285039234161376953e+01 2.713908910751342773e+00 6.057150312699377537e-04 1.204674714244902134e-03 5.431169411167502403e-04 9.396919631399214268e-04
5.800000000000000000e+01 1.340081119537353516e+01 1.819726228713989258e+00 3.939980524592101574e-04 6.425254978239536285e-04 3.109570534434169531e-04 6.674509495496749878e-04
5.900000000000000000e+01 1.140880393981933594e+01 2.873075962066650391e+00 -3.615858440753072500e-04 7.427119417116045952e-04 1.143378249253146350e-04 1.621480914764106274e-04
6.000000000000000000e+01 1.190408706665039062e+01 1.648286223411560059e+00 -3.912889224011451006e-05 6.130581605248153210e-04 1.721787848509848118e-04 3.655857872217893600e-04
6.100000000000000000e+01 1.067175102233886719e+01 2.809747695922851562e+00 3.456988488323986530e-04 -3.027700877282768488e-04 1.287862505705561489e-05 8.266783697763457894e-05
6.200000000000000000e+01 1.262930583953857422e+01 1.723191618919372559e+00 2.706697850953787565e-04 -8.278876775875687599e-04 -1.671653735684230924e-04 -4.717411356978118420e-04
6.300000000000000000e+01 8.728892326354980469e+00 2.783323049545288086e+00 -2.577714913059026003e-04 -2.301562926732003689e-04 -1.463783264625817537e-04 -2.893683558795601130e-04
6.400000000000000000e+01 9.416337966918945312e+00 1.719183564186096191e+00 4.052757285535335541e-04 1.360770784231135622e-05 1.256650284631177783e-04 1.141680477303452790e-04
6.500000000000000000e+01 8.204321861267089844e+00 2.081028461456298828e+00 1.682966685621067882e-04 1.631377526791766286e-04 9.943032637238502502e-05 2.178584545617923141e-04
6.600000000000000000e+01 1.199478149414062500e+01 2.437086343765258789e+00 5.053825443610548973e-04 6.466566264862194657e-05 1.710144570097327232e-04 6.885967450216412544e-04
6.700000000000000000e+01 1.143562221527099609e+01 2.473625183105468750e+00 -2.044071152340620756e-04 -5.876020441064611077e-05 -7.895019371062517166e-05 -5.291701527312397957e-04
6.800000000000000000e+01 1.137620067596435547e+01 2.100027799606323242e+00 4.571446042973548174e-04 7.384711352642625570e-05 1.592975168023258448e-04 5.066957673989236355e-04
6.900000000000000000e+01 7.861133575439453125e+00 4.031277179718017578e+00 -9.082871838472783566e-05 -1.194622236653231084e-04 -6.308728188741952181e-05 1.344930751656647772e-05
7.000000000000000000e+01 7.410462379455566406e+00 3.546055316925048828e+00 2.266219962621107697e-04 8.854646875988692045e-05 9.455053805140778422e-05 -1.436672173440456390e-04
7.100000000000000000e+01 7.613649845123291016e+00 2.915391683578491211e+00 -8.373188757104799151e-05 8.250407699961215258e-05 -3.683435920720512513e-07 4.117350545129738748e-05
7.200000000000000000e+01 6.688477516174316406e+00 2.444559097290039062e+00 1.909739803522825241e-04 1.220260674017481506e-04 9.390001650899648666e-05 -5.763445005868561566e-05
7.300000000000000000e+01 8.198487281799316406e+00 3.243148326873779297e+00 1.707028131932020187e-04 1.069231147994287312e-04 8.328777767019346356e-05 9.620327182346954942e-05
7.400000000000000000e+01 7.040536880493164062e+00 3.044068336486816406e+00 -1.993612822843715549e-04 -1.582322292961180210e-04 -1.072780578397214413e-04 1.713572855805978179e-04
7.500000000000000000e+01 7.417679786682128906e+00 2.185935020446777344e+00 -1.271662622457370162e-04 -1.360382157145068049e-04 -7.896134047769010067e-05 -7.563261897303164005e-05
7.600000000000000000e+01 2.034901237487792969e+01 5.342971324920654297e+00 -1.680182218551635742e-01 1.788352243602275848e-02 -4.504041001200675964e-02 -3.480820730328559875e-02
7.700000000000000000e+01 2.110828781127929688e+01 5.289262771606445312e+00 -1.459657549858093262e-01 1.174222026020288467e-02 -4.026706144213676453e-02 -5.032706633210182190e-02
7.800000000000000000e+01 1.883009910583496094e+01 5.447298526763916016e+00 -1.974434554576873779e-01 1.129373256117105484e-02 -5.584491789340972900e-02 -2.532925084233283997e-02
7.900000000000000000e+01 1.954028892517089844e+01 4.657379150390625000e+00 -2.434591054916381836e-01 9.113563224673271179e-03 -7.030366361141204834e-02 5.666097058565355837e-05
8.000000000000000000e+01 2.104417419433593750e+01 4.551930904388427734e+00 -1.629716306924819946e-01 6.885617040097713470e-03 -4.682580381631851196e-02 -1.029032375663518906e-02
8.100000000000000000e+01 1.878804969787597656e+01 4.708437442779541016e+00 -2.834861874580383301e-01 -1.158849149942398071e-02 -8.852240443229675293e-02 -3.355184104293584824e-03
8.200000000000000000e+01 2.029225349426269531e+01 4.605130195617675781e+00 -2.054963260889053345e-01 -2.075428608804941177e-03 -6.227152794599533081e-02 -6.790650542825460434e-03
8.300000000000000000e+01 1.958969306945800781e+01 5.395730018615722656e+00 -1.877169162034988403e-01 -1.303871860727667809e-03 -5.670623853802680969e-02 -3.584322333335876465e-02
8.400000000000000000e+01 1.637947654724121094e+01 4.803587436676025391e+00 -4.103844165802001953e-01 2.872414700686931610e-02 -1.144980788230895996e-01 -6.099081598222255707e-03
8.500000000000000000e+01 1.397352027893066406e+01 5.439821243286132812e+00 6.357755511999130249e-02 -4.741670191287994385e-02 4.848257172852754593e-03 4.997356235980987549e-02
8.600000000000000000e+01 1.010554122924804688e+01 5.775067329406738281e+00 6.448458135128021240e-02 3.154305517673492432e-01 1.139745414257049561e-01 -5.331278219819068909e-02
8.700000000000000000e+01 9.268301010131835938e+00 5.873460769653320312e+00 -7.740105036646127701e-03 -1.585614383220672607e-01 -4.989046603441238403e-02 1.253834515810012817e-01
8.800000000000000000e+01 9.962054252624511719e+00 4.842161655426025391e+00 -1.137101411819458008e+00 2.758250944316387177e-02 -3.328556716442108154e-01 2.922751009464263916e-01
8.900000000000000000e+01 1.803855323791503906e+01 5.487751483917236328e+00 -2.124695926904678345e-01 -1.523935981094837189e-02 -6.831268221139907837e-02 -3.691979870200157166e-02
9.000000000000000000e+01 1.639236259460449219e+01 5.543583869934082031e+00 -2.242371439933776855e-01 -2.833507955074310303e-02 -7.577166706323623657e-02 -5.853694677352905273e-02
9.100000000000000000e+01 1.475934505462646484e+01 5.574888706207275391e+00 -4.183638468384742737e-02 5.667627230286598206e-02 4.451965913176536560e-03 -2.553477510809898376e-02
9.200000000000000000e+01 1.397391319274902344e+01 4.807001590728759766e+00 -8.190448880195617676e-01 -1.326713711023330688e-01 -2.855148613452911377e-01 -8.670920878648757935e-02
9.300000000000000000e+01 1.317943286895751953e+01 4.738107681274414062e+00 -1.122379541397094727e+00 1.448073685169219971e-01 -2.932716608047485352e-01 -3.937630727887153625e-02
9.400000000000000000e+01 1.238088989257812500e+01 4.660449504852294922e+00 -1.285999059677124023e+00 -8.990398794412612915e-02 -4.127709269523620605e-01 5.631738528609275818e-02
9.500000000000000000e+01 8.494726181030273438e+00 5.880547523498535156e+00 -1.424406766891479492e-01 -7.545119524002075195e-02 -6.536756455898284912e-02 1.029109060764312744e-01
9.600000000000000000e+01 9.217915534973144531e+00 4.906166076660156250e+00 -5.854344367980957031e-01 -1.239963471889495850e-01 -2.128292471170425415e-01 9.185919165611267090e-02
9.700000000000000000e+01 7.731140136718750000e+00 5.860728263854980469e+00 -1.025747209787368774e-01 -6.194740533828735352e-02 -4.935663565993309021e-02 1.099371016025543213e-01
9.800000000000000000e+01 8.089073181152343750e+00 5.107919692993164062e+00 -2.951629757881164551e-01 -2.441424317657947540e-02 -9.587316215038299561e-02 4.094365611672401428e-02
9.900000000000000000e+01 1.085972213745117188e+01 4.910424232482910156e+00 -4.598513245582580566e-02 2.109688371419906616e-01 4.949511215090751648e-02 -1.769481301307678223e-01
1.000000000000000000e+02 1.008084201812744141e+01 5.222314834594726562e+00 7.001522928476333618e-03 1.198988184332847595e-01 3.807010129094123840e-02 1.023347973823547363e-01
1.010000000000000000e+02 1.244511699676513672e+01 4.836139202117919922e+00 -1.125545501708984375e+00 -9.767837822437286377e-02 -3.669671714305877686e-01 -1.877840608358383179e-01
1.020000000000000000e+02 1.556862068176269531e+01 4.825209617614746094e+00 -5.037328600883483887e-01 -6.450936198234558105e-02 -1.704726666212081909e-01 -4.767335206270217896e-02
1.030000000000000000e+02 1.557131195068359375e+01 5.565557956695556641e+00 -1.570424437522888184e-01 -1.062075607478618622e-02 -5.029896274209022522e-02 -2.530560642480850220e-02
1.040000000000000000e+02 1.719220733642578125e+01 4.777179718017578125e+00 -3.606404066085815430e-01 -2.239764481782913208e-02 -1.149114146828651428e-01 -1.275078300386667252e-02
1.050000000000000000e+02 1.800527954101562500e+01 4.748459815979003906e+00 -3.201637268066406250e-01 1.261802669614553452e-02 -9.226370602846145630e-02 -9.659455390647053719e-04
1.060000000000000000e+02 9.318349838256835938e+00 5.356418132781982422e+00 -3.051638603210449219e-01 -2.048207670450210571e-01 -1.529953777790069580e-01 2.250771522521972656e-01
1.070000000000000000e+02 8.727807044982910156e+00 5.248929023742675781e+00 -3.155765235424041748e-01 3.337888047099113464e-03 -9.367159754037857056e-02 1.344120055437088013e-01
1.080000000000000000e+02 1.476684761047363281e+01 4.834187984466552734e+00 -6.243382096290588379e-01 9.055234491825103760e-02 -1.601357460021972656e-01 -2.063355967402458191e-02
1.090000000000000000e+02 1.721528816223144531e+01 5.516823768615722656e+00 -2.150401026010513306e-01 9.674321860074996948e-03 -6.160973384976387024e-02 -2.412103861570358276e-02
1.100000000000000000e+02 1.075677967071533203e+01 4.723136901855468750e+00 -2.224690198898315430e+00 -3.491823747754096985e-02 -6.778824925422668457e-01 2.391636520624160767e-01
1.110000000000000000e+02 1.156710433959960938e+01 4.636063575744628906e+00 -2.736580848693847656e+00 6.293489038944244385e-02 -8.020937442779541016e-01 -3.700436651706695557e-02
1.120000000000000000e+02 1.163449478149414062e+01 4.698029041290283203e+00 -4.427805900573730469e+00 -1.146221905946731567e-02 -1.331780433654785156e+00 -7.730583101511001587e-02
1.130000000000000000e+02 1.321089267730712891e+01 5.142216682434082031e+00 1.292962301522493362e-02 1.015084907412528992e-01 3.433143347501754761e-02 3.139865025877952576e-02
1.140000000000000000e+02 5.616716384887695312e+00 2.920150041580200195e+00 -6.968989968299865723e-03 -5.048498976975679398e-03 -3.605246776714920998e-03 -1.564428326673805714e-03
1.150000000000000000e+02 6.481155395507812500e+00 4.280267238616943359e+00 -2.979910373687744141e-02 6.862441543489694595e-03 -6.880999077111482620e-03 -1.130362041294574738e-02
1.160000000000000000e+02 6.529135227203369141e+00 3.343321800231933594e+00 -1.458074059337377548e-02 2.731932559981942177e-03 -3.554642433300614357e-03 8.353721350431442261e-03
1.170000000000000000e+02 6.083950042724609375e+00 2.712398290634155273e+00 1.532755978405475616e-02 1.341790240257978439e-02 8.623638190329074860e-03 -8.382124360650777817e-04
1.180000000000000000e+02 6.081230640411376953e+00 4.429358959197998047e+00 -2.884888090193271637e-02 5.507953930646181107e-03 -7.002278231084346771e-03 -9.602712467312812805e-03
1.190000000000000000e+02 7.072127342224121094e+00 5.498886585235595703e+00 -1.287605911493301392e-01 3.440497675910592079e-03 -3.759602829813957214e-02 4.643733799457550049e-02
1.200000000000000000e+02 5.160166740417480469e+00 3.122973203659057617e+00 2.686060033738613129e-03 -1.651241793297231197e-03 3.104454663116484880e-04 5.765553563833236694e-03
1.210000000000000000e+02 5.633822441101074219e+00 3.782831668853759766e+00 -2.297276630997657776e-02 -1.244530547410249710e-03 -7.265189196914434433e-03 -6.073045078665018082e-03
1.220000000000000000e+02 6.546886920928955078e+00 4.943883895874023438e+00 -1.165948882699012756e-01 3.305475227534770966e-03 -3.398682177066802979e-02 1.033946964889764786e-02
1.230000000000000000e+02 6.969904899597167969e+00 4.040812969207763672e+00 2.049663802608847618e-03 4.010704346001148224e-03 1.818110467866063118e-03 -1.361166033893823624e-02
1.240000000000000000e+02 7.447043418884277344e+00 4.761515140533447266e+00 -1.343247741460800171e-01 -1.740583591163158417e-02 -4.551918432116508484e-02 9.204476955346763134e-04
1.250000000000000000e+02 6.064543247222900391e+00 3.573476314544677734e+00 -4.493670712690800428e-04 4.033288918435573578e-03 1.075176638551056385e-03 -1.029427745379507542e-03
1.260000000000000000e+02 5.466835975646972656e+00 1.780064940452575684e+00 4.507976118475198746e-03 1.527408137917518616e-02 5.934617482125759125e-03 -7.933667860925197601e-03
1.270000000000000000e+02 5.362783908843994141e+00 2.328254699707031250e+00 1.597005757503211498e-03 -2.749428618699312210e-03 -3.457268467172980309e-04 5.275113508105278015e-03
1.280000000000000000e+02 4.886854648590087891e+00 2.462563276290893555e+00 -1.170850940980017185e-03 5.327996797859668732e-03 1.247143838554620743e-03 -5.537242628633975983e-03
1.290000000000000000e+02 5.811068058013916016e+00 2.087705373764038086e+00 -1.171405985951423645e-02 -4.755351692438125610e-03 -4.940823651850223541e-03 1.413494814187288284e-02
1.300000000000000000e+02 4.849430561065673828e+00 1.816301584243774414e+00 9.216024191118776798e-04 -8.466399274766445160e-03 -2.263438887894153595e-03 6.683129351586103439e-03
1.310000000000000000e+02 6.422852039337158203e+00 -1.690387964248657227e+00 -5.133260972797870636e-03 -5.756435566581785679e-04 -1.712671364657580853e-03 -2.806243719533085823e-03
1.320000000000000000e+02 5.933526992797851562e+00 -1.645968675613403320e+00 -3.506826236844062805e-03 8.306806194013915956e-07 -1.051798695698380470e-03 -1.904638949781656265e-03
1.330000000000000000e+02 5.349874019622802734e+00 -1.936112761497497559e+00 -3.846422303467988968e-03 -5.034024943597614765e-04 -1.304947421886026859e-03 -1.811856403946876526e-03
1.340000000000000000e+02 5.370872974395751953e+00 -1.645971775054931641e+00 -2.464751712977886200e-03 -5.854473420185968280e-05 -7.569889421574771404e-04 -1.808940549381077290e-03
1.350000000000000000e+02 4.881517410278320312e+00 -1.690391063690185547e+00 -2.777012065052986145e-03 -7.735822000540792942e-04 -1.065178308635950089e-03 -1.297254930250346661e-03
1.360000000000000000e+02 5.954525947570800781e+00 -1.936109781265258789e+00 -4.248154349625110626e-03 -4.522377857938408852e-04 -1.410117605701088905e-03 -2.884333487600088120e-03
1.370000000000000000e+02 1.782813072204589844e+01 3.230243206024169922e+00 -2.506818855181336403e-03 2.925876295194029808e-03 1.257172407349571586e-04 1.580158481374382973e-03
1.380000000000000000e+02 1.714116096496582031e+01 3.993293046951293945e+00 3.927979851141571999e-04 5.217623547650873661e-04 2.743680961430072784e-04 1.364313997328281403e-03
1.390000000000000000e+02 1.640153312683105469e+01 3.835260152816772461e+00 3.272956004366278648e-03 1.969521865248680115e-03 1.572743407450616360e-03 7.215827936306595802e-04
1.400000000000000000e+02 1.699337387084960938e+01 3.295589685440063477e+00 -1.398502150550484657e-03 -5.646936129778623581e-03 -2.113631460815668106e-03 -3.369973739609122276e-03
1.410000000000000000e+02 1.504697036743164062e+01 3.567740201950073242e+00 -4.654449639929225668e-06 5.884171114303171635e-04 1.751288073137402534e-04 3.821574791800230742e-04
1.420000000000000000e+02 1.561089420318603516e+01 3.856454133987426758e+00 7.029239204712212086e-04 3.330675186589360237e-03 1.210079761222004890e-03 -9.771180339157581329e-04
1.430000000000000000e+02 1.794592475891113281e+01 3.966614723205566406e+00 7.599653326906263828e-04 -2.276086946949362755e-03 -4.548364959191530943e-04 -8.731788839213550091e-04
1.440000000000000000e+02 1.581922817230224609e+01 3.549530982971191406e+00 2.421512035652995110e-04 -4.606945440173149109e-03 -1.309438259340822697e-03 1.560280332341790199e-03
1.450000000000000000e+02 1.634235382080078125e+01 3.297840595245361328e+00 -8.965083980001509190e-04 8.076783269643783569e-03 2.154082525521516800e-03 2.382772741839289665e-03
1.460000000000000000e+02 1.438146591186523438e+01 3.381093740463256836e+00 -9.270883747376501560e-04 -2.142720622941851616e-03 -9.209427516907453537e-04 -3.961858747061342001e-04
1.470000000000000000e+02 1.329724788665771484e+01 4.140674114227294922e+00 7.235512020997703075e-05 -2.211313840234652162e-04 -4.463288132683373988e-05 1.116371786338277161e-04
1.480000000000000000e+02 1.248905467987060547e+01 4.164461135864257812e+00 4.088477362529374659e-05 1.793680130504071712e-04 6.607583782169967890e-05 -6.751847104169428349e-05
1.490000000000000000e+02 1.165108394622802734e+01 4.189624786376953125e+00 9.228822455042973161e-05 -1.102616151911206543e-04 -5.392018010752508417e-06 2.669838067959062755e-05
1.500000000000000000e+02 1.078305053710937500e+01 4.266128063201904297e+00 3.520262907841242850e-05 5.775325917056761682e-05 2.788676647469401360e-05 -8.096753845165949315e-06
1.510000000000000000e+02 9.957069396972656250e+00 4.345382690429687500e+00 2.224604395451024175e-05 -4.257813270669430494e-05 -6.099626716604689136e-06 5.128922566655091941e-05
1.520000000000000000e+02 9.924817085266113281e+00 3.370098114013671875e+00 -3.363905125297605991e-04 -2.635494165588170290e-04 -1.799819874577224255e-04 -2.713676367420703173e-04
1.530000000000000000e+02 9.205478668212890625e+00 4.340355396270751953e+00 -1.049733982654288411e-04 1.611851075722370297e-05 -2.665646752575412393e-05 8.814494321995880455e-06
1.540000000000000000e+02 8.465488433837890625e+00 4.315529346466064453e+00 -2.380985932859402965e-07 5.933967986493371427e-05 1.773047370079439133e-05 -4.632277341443113983e-05
1.550000000000000000e+02 8.824824333190917969e+00 3.562671899795532227e+00 2.000068343477323651e-05 3.897720671375282109e-05 1.769336631696205586e-05 5.135794708621688187e-05
1.560000000000000000e+02 1.547460079193115234e+01 3.192302942276000977e+00 2.526709577068686485e-03 5.666336044669151306e-03 2.457913709804415703e-03 2.873266639653593302e-04
1.570000000000000000e+02 1.360837554931640625e+01 3.389482259750366211e+00 -9.771329496288672090e-05 1.145596383139491081e-03 3.143649373669177294e-04 1.686301402514800429e-05
1.580000000000000000e+02 1.280821704864501953e+01 3.412991762161254883e+00 -1.540867970106774010e-06 -4.512617015279829502e-04 -1.358407753286883235e-04 9.563424828229472041e-05
1.590000000000000000e+02 1.197828102111816406e+01 3.437877893447875977e+00 -1.421665074303746223e-04 2.444576239213347435e-04 3.068732985411770642e-05 -7.427728996844962239e-05
1.600000000000000000e+02 1.125790977478027344e+01 3.370196819305419922e+00 4.755520785693079233e-04 4.383894520287867635e-06 1.439807965653017163e-04 3.017403651028871536e-04
1.610000000000000000e+02 9.442800521850585938e+00 3.711421728134155273e+00 2.301226486451923847e-04 1.491204893682152033e-04 1.137729414040222764e-04 1.099992441595532000e-04
1.620000000000000000e+02 1.482516002655029297e+01 4.167678833007812500e+00 -6.600112101295962930e-05 -3.096887608990073204e-03 -9.488666546531021595e-04 -1.195901189930737019e-03
1.630000000000000000e+02 1.407837200164794922e+01 4.132007598876953125e+00 4.357895522844046354e-04 8.369235438294708729e-04 3.818139375653117895e-04 3.287192957941442728e-04
1.640000000000000000e+02 1.072352790832519531e+01 3.738190412521362305e+00 -4.225195734761655331e-04 -1.753343676682561636e-04 -1.793561823433265090e-04 -2.634618722368031740e-04
1.650000000000000000e+02 1.001016712188720703e+01 3.837498903274536133e+00 1.339148147962987423e-04 -4.238606197759509087e-05 2.745862730080261827e-05 1.240051497006788850e-04
1.660000000000000000e+02 1.553310966491699219e+01 4.222949981689453125e+00 -6.073630647733807564e-04 5.035195965319871902e-03 1.328349928371608257e-03 1.132122473791241646e-03
1.670000000000000000e+02 1.613050460815429688e+01 4.176828861236572266e+00 -3.414172446355223656e-03 -4.062287043780088425e-03 -2.242937916889786720e-03 -1.599948853254318237e-03
1.680000000000000000e+02 1.588247585296630859e+01 3.192303419113159180e+00 -5.439379019662737846e-04 -1.896818913519382477e-02 -5.853638518601655960e-03 -2.943820552900433540e-03
1.690000000000000000e+02 1.061053848266601562e+01 3.322460174560546875e+00 5.750385753344744444e-05 2.886675974878016859e-05 2.591118573036510497e-05 5.394342224462889135e-06
1.700000000000000000e+02 1.948812866210937500e+01 3.877326726913452148e+00 2.309174509719014168e-03 -2.998826792463660240e-03 -2.068957110168412328e-04 1.043855445459485054e-03
1.710000000000000000e+02 2.017558670043945312e+01 3.088615179061889648e+00 6.904090987518429756e-04 4.608534218277782202e-04 3.453787649050354958e-04 5.753342993557453156e-03
1.720000000000000000e+02 2.097657775878906250e+01 3.774520874023437500e+00 1.194041687995195389e-02 -1.994562626350671053e-04 3.522288287058472633e-03 4.085586871951818466e-03
1.730000000000000000e+02 1.870165252685546875e+01 3.189713239669799805e+00 1.677506952546536922e-03 -2.500436967238783836e-03 -2.468790044076740742e-04 6.955183343961834908e-04
1.740000000000000000e+02 1.874370384216308594e+01 3.928573846817016602e+00 2.307649556314572692e-04 3.662455826997756958e-03 1.167966169305145741e-03 5.352949374355375767e-04
1.750000000000000000e+02 2.091246414184570312e+01 3.037189483642578125e+00 -2.348386682569980621e-03 4.452147521078586578e-03 6.311282631941139698e-04 5.423641763627529144e-03
1.760000000000000000e+02 1.943872451782226562e+01 3.138975620269775391e+00 -1.406541792675852776e-03 3.885485464707016945e-03 7.436830783262848854e-04 5.682166665792465210e-04
1.770000000000000000e+02 2.023234558105468750e+01 3.826456785202026367e+00 4.793197382241487503e-03 2.749076578766107559e-03 2.262682188302278519e-03 1.217760262079536915e-03
1.780000000000000000e+02 2.364089393615722656e+01 2.601082563400268555e+00 -1.245281752198934555e-02 1.968546211719512939e-02 2.169793238863348961e-03 -2.553418464958667755e-02
1.790000000000000000e+02 2.332264328002929688e+01 2.560712575912475586e+00 -4.284537211060523987e-02 -8.180663920938968658e-03 -1.530781108886003494e-02 -1.021943893283605576e-02
1.800000000000000000e+02 2.290981674194335938e+01 3.515486240386962891e+00 6.261564791202545166e-03 5.298978183418512344e-03 3.468162845820188522e-03 -5.661566276103258133e-03
1.810000000000000000e+02 2.310150527954101562e+01 2.904940843582153320e+00 3.338476642966270447e-02 6.926208268851041794e-03 1.209329254925251007e-02 -1.894833985716104507e-03
1.820000000000000000e+02 2.188722229003906250e+01 3.671722650527954102e+00 1.341833919286727905e-02 -4.864440299570560455e-03 2.566169714555144310e-03 -3.333627246320247650e-03
1.830000000000000000e+02 2.182034492492675781e+01 2.934541463851928711e+00 2.414952905382961035e-05 -1.469105947762727737e-02 -4.400073084980249405e-03 1.231637550517916679e-03
1.840000000000000000e+02 2.274585723876953125e+01 2.712561368942260742e+00 2.771063940599560738e-03 7.130244281142950058e-03 2.970392582938075066e-03 -2.462428295984864235e-03
1.850000000000000000e+02 2.352721786499023438e+01 5.054647922515869141e+00 -3.457856923341751099e-02 -4.813465848565101624e-02 -2.481396868824958801e-02 -5.057159811258316040e-02
1.860000000000000000e+02 2.308097648620605469e+01 4.360989093780517578e+00 -2.400430105626583099e-02 -6.506622768938541412e-03 -9.153276681900024414e-03 -1.259301695972681046e-02
1.870000000000000000e+02 2.183312416076660156e+01 5.238581657409667969e+00 -1.298656314611434937e-01 1.897936128079891205e-02 -3.326588124036788940e-02 -5.879268422722816467e-02
1.880000000000000000e+02 2.184036636352539062e+01 4.492896556854248047e+00 -1.018864139914512634e-01 3.650036174803972244e-03 -2.947091311216354370e-02 -1.835591532289981842e-02
1.890000000000000000e+02 2.258285140991210938e+01 4.687993049621582031e+00 -6.402339786291122437e-02 -1.232480164617300034e-03 -1.957676373422145844e-02 -3.280076757073402405e-02
1.900000000000000000e+02 2.305534362792968750e+01 5.176393508911132812e+00 -6.633546203374862671e-02 -1.932539604604244232e-02 -2.569825574755668640e-02 -6.064056977629661560e-02
1.910000000000000000e+02 2.249032783508300781e+01 5.236608028411865234e+00 -1.135121285915374756e-01 2.354317577555775642e-03 -3.334734216332435608e-02 -6.507917493581771851e-02
1.920000000000000000e+02 6.957012653350830078e+00 3.898485600948333740e-01 3.790001574088819325e-05 1.351949176751077175e-04 5.192848038859665394e-05 -2.596883678052108735e-05
1.930000000000000000e+02 7.073252201080322266e+00 1.129848599433898926e+00 -8.627343777334317565e-05 -1.136097707785665989e-04 -5.996496111038140953e-05 5.553166192839853466e-05
1.940000000000000000e+02 6.319694042205810547e+00 1.129848599433898926e+00 6.760013638995587826e-05 5.425715426099486649e-05 3.655718683148734272e-05 -2.953187686216551811e-05
1.950000000000000000e+02 6.201207637786865234e+00 3.898485600948333740e-01 -1.390240777254803106e-05 -3.112870399490930140e-05 -1.350933325738878921e-05 -2.229271558462642133e-07
1.960000000000000000e+02 8.670824050903320312e+00 3.840262591838836670e-01 -1.292915658268611878e-05 3.347691381350159645e-04 9.655199392000213265e-05 2.709374530240893364e-05
1.970000000000000000e+02 7.878619670867919922e+00 1.127028346061706543e+00 1.204207910632248968e-05 1.117024439736269414e-04 3.712335819727741182e-05 -7.151344470912590623e-05
1.980000000000000000e+02 7.779973506927490234e+00 3.870283365249633789e-01 1.498952860856661573e-05 -2.434171765344217420e-04 -6.852829392300918698e-05 2.176988527935463935e-05
1.990000000000000000e+02 9.562618255615234375e+00 3.869979083538055420e-01 -2.362082341278437525e-05 -3.540577308740466833e-04 -1.133035621023736894e-04 -5.019428863306529820e-05
2.000000000000000000e+02 9.595384597778320312e+00 1.126997947692871094e+00 -2.709531327127479017e-05 3.340959374327212572e-04 9.210018470184877515e-05 5.952236460871063173e-05
2.010000000000000000e+02 8.736529350280761719e+00 1.124026298522949219e+00 6.397569086402654648e-05 -2.029513125307857990e-04 -4.169268504483625293e-05 5.754989979322999716e-05
2.020000000000000000e+02 3.806173801422119141e+00 -1.691437363624572754e-01 2.488289494067430496e-03 5.866681021871045232e-06 7.482469081878662109e-04 5.101054557599127293e-05
2.030000000000000000e+02 3.109446048736572266e+00 -7.355411648750305176e-01 7.677633548155426979e-04 -2.178954746341332793e-04 1.649603655096143484e-04 2.787741250358521938e-04
2.040000000000000000e+02 2.093585491180419922e+00 -3.664842545986175537e-01 1.309557934291660786e-03 -1.897959191410336643e-05 3.871734952554106712e-04 3.259974182583391666e-04
2.050000000000000000e+02 1.239095687866210938e+00 -3.726015388965606689e-01 5.955661181360483170e-04 6.321195542113855481e-05 1.976334169739857316e-04 2.798530913423746824e-04
2.060000000000000000e+02 3.833374083042144775e-01 -1.123104810714721680e+00 1.032025465974584222e-04 4.464056401047855616e-04 1.648824545554816723e-04 2.759159833658486605e-04
2.070000000000000000e+02 4.116239845752716064e-01 -3.831048607826232910e-01 1.064472962752915919e-04 8.884285489330068231e-05 5.858704389538615942e-05 1.023959121084772050e-04
2.080000000000000000e+02 2.962885141372680664e+00 -2.888021171092987061e-01 1.983220456168055534e-03 -7.664013537578284740e-05 5.719740875065326691e-04 2.047274610958993435e-04
2.090000000000000000e+02 2.658626794815063477e+00 -1.181749701499938965e+00 3.006607876159250736e-04 -2.805909316521137953e-04 6.020956789143383503e-06 3.184971283189952374e-04
2.100000000000000000e+02 1.952152490615844727e+00 -1.106484293937683105e+00 3.464028122834861279e-04 -1.149392701336182654e-04 6.943906191736459732e-05 5.964306765235960484e-04
2.110000000000000000e+02 1.154235959053039551e+00 -1.112601518630981445e+00 2.280176850035786629e-04 2.454611822031438351e-04 1.420436601620167494e-04 6.480513839051127434e-04
2.120000000000000000e+02 3.828214883804321289e+00 -4.707790911197662354e-01 1.746019930578768253e-03 -1.079597677744459361e-05 5.205671768635511398e-04 -2.023280649154912680e-05
2.130000000000000000e+02 3.280050516128540039e+00 -1.206739068031311035e+00 4.206793164485134184e-05 -5.742373759858310223e-04 -1.596508227521553636e-04 -2.845619201252702624e-05
2.140000000000000000e+02 3.945974349975585938e+00 -1.061635375022888184e+00 6.034277612343430519e-05 -5.990531644783914089e-04 -1.616131194168701768e-04 -4.130651941522955894e-04
2.150000000000000000e+02 3.883062744140625000e+01 1.149925899505615234e+01 -7.096861004829406738e-01 -3.122826293110847473e-02 -2.222743183374404907e-01 2.198684960603713989e-01
2.160000000000000000e+02 3.900292968750000000e+01 1.221970939636230469e+01 -7.511726617813110352e-01 2.603922411799430847e-02 -2.175400257110595703e-01 2.981537580490112305e-01
2.170000000000000000e+02 4.270645523071289062e+01 1.137148189544677734e+01 -5.684082508087158203e-01 6.016705930233001709e-02 -1.524723619222640991e-01 -1.953186541795730591e-01
2.180000000000000000e+02 4.338527297973632812e+01 1.115065574645996094e+01 -3.574655055999755859e-01 -1.013747304677963257e-01 -1.376520693302154541e-01 -2.157394587993621826e-01
2.190000000000000000e+02 4.049100112915039062e+01 1.189076042175292969e+01 -8.016989827156066895e-01 1.072282493114471436e-01 -2.083412259817123413e-01 7.920222729444503784e-02
2.200000000000000000e+02 4.152891921997070312e+01 1.088550662994384766e+01 -5.491335988044738770e-01 2.963747456669807434e-02 -1.558488309383392334e-01 1.520803943276405334e-02
2.210000000000000000e+02 4.219334030151367188e+01 1.072134494781494141e+01 -3.642919957637786865e-01 2.684533968567848206e-02 -1.012339964509010315e-01 -3.678004816174507141e-02
2.220000000000000000e+02 4.197386932373046875e+01 1.154970645904541016e+01 -6.978614926338195801e-01 1.389857232570648193e-01 -1.676627248525619507e-01 -1.218768283724784851e-01
2.230000000000000000e+02 4.284118652343750000e+01 1.054783821105957031e+01 -1.637635678052902222e-01 -2.168334648013114929e-02 -5.563407391309738159e-02 -5.882918462157249451e-02
2.240000000000000000e+02 3.974774169921875000e+01 1.205864620208740234e+01 -8.015455007553100586e-01 6.384403258562088013e-02 -2.213104367256164551e-01 1.915352195501327515e-01
2.250000000000000000e+02 4.123329162597656250e+01 1.172112464904785156e+01 -7.634044885635375977e-01 1.330860704183578491e-01 -1.890955269336700439e-01 -1.898576691746711731e-02
2.260000000000000000e+02 3.950727844238281250e+01 1.135225868225097656e+01 -7.709936499595642090e-01 -1.814868301153182983e-02 -2.367426902055740356e-01 1.839933842420578003e-01
2.270000000000000000e+02 4.018237304687500000e+01 1.119843482971191406e+01 -7.598682641983032227e-01 3.150973003357648849e-03 -2.270151823759078979e-01 1.403001546859741211e-01
2.280000000000000000e+02 4.085649871826171875e+01 1.104286193847656250e+01 -6.851704716682434082e-01 2.388905733823776245e-02 -1.983844190835952759e-01 7.957752794027328491e-02
2.290000000000000000e+02 3.660844421386718750e+01 1.264014816284179688e+01 -3.356421887874603271e-01 -6.597293615341186523e-01 -2.986114621162414551e-01 4.884531497955322266e-01
2.300000000000000000e+02 3.708995437622070312e+01 1.262835311889648438e+01 -5.870119333267211914e-01 -2.411056160926818848e-01 -2.484352588653564453e-01 5.280606746673583984e-01
2.310000000000000000e+02 3.741391754150390625e+01 1.203295421600341797e+01 -3.493504822254180908e-01 -1.582440137863159180e-01 -1.522783488035202026e-01 3.072573244571685791e-01
2.320000000000000000e+02 3.807363891601562500e+01 1.165119171142578125e+01 -4.655665159225463867e-01 -4.562874883413314819e-02 -1.533585786819458008e-01 2.181389182806015015e-01
2.330000000000000000e+02 3.684595489501953125e+01 1.185508537292480469e+01 -6.211910396814346313e-02 -6.216804683208465576e-02 -3.728614374995231628e-02 6.221446394920349121e-02
2.340000000000000000e+02 3.828802871704101562e+01 1.236698246002197266e+01 -7.652988433837890625e-01 -2.181494235992431641e-02 -2.361341416835784912e-01 4.341524541378021240e-01
2.350000000000000000e+02 3.765207290649414062e+01 1.253643894195556641e+01 -7.488101720809936523e-01 -7.332012057304382324e-02 -2.466391026973724365e-01 4.620414674282073975e-01
2.360000000000000000e+02 2.346621513366699219e+01 7.212347030639648438e+00 -1.641696691513061523e-01 -2.134243026375770569e-02 -5.565362796187400818e-02 -8.933846652507781982e-02
2.370000000000000000e+02 2.324465751647949219e+01 7.760482788085937500e+00 -1.435557752847671509e-01 1.582317985594272614e-02 -3.831977769732475281e-02 -6.760076433420181274e-02
2.380000000000000000e+02 2.128883552551269531e+01 1.076338005065917969e+01 1.059201881289482117e-01 9.241077303886413574e-02 5.949928984045982361e-02 9.466777741909027100e-02
2.390000000000000000e+02 2.003521537780761719e+01 9.792102813720703125e+00 7.941558957099914551e-02 6.534184515476226807e-02 4.342722892761230469e-02 6.488424539566040039e-02
2.400000000000000000e+02 1.877994918823242188e+01 8.850076675415039062e+00 6.831017881631851196e-02 4.226855933666229248e-02 3.317362070083618164e-02 4.662562161684036255e-02
2.410000000000000000e+02 1.980583572387695312e+01 8.027852058410644531e+00 -1.131901890039443970e-02 3.910239785909652710e-02 8.335013873875141144e-03 2.502275630831718445e-03
2.420000000000000000e+02 1.659297943115234375e+01 6.616550922393798828e+00 4.531060811132192612e-03 6.896830745972692966e-04 1.566223101690411568e-03 -2.301304368302226067e-03
2.430000000000000000e+02 1.735633850097656250e+01 7.289945602416992188e+00 3.261471912264823914e-02 1.741638593375682831e-02 1.500933244824409485e-02 2.871813066303730011e-02
2.440000000000000000e+02 1.886183929443359375e+01 6.092812538146972656e+00 -1.365220695734024048e-01 -7.295649964362382889e-03 -4.314531385898590088e-02 -4.599815607070922852e-02
2.450000000000000000e+02 1.968628692626953125e+01 6.645065307617187500e+00 -9.894799441099166870e-02 7.795826066285371780e-03 -2.734564989805221558e-02 -4.161009192466735840e-02
2.460000000000000000e+02 1.872795867919921875e+01 7.192868232727050781e+00 -3.162591531872749329e-02 5.846863146871328354e-03 -7.733715698122978210e-03 -1.342514622956514359e-02
2.470000000000000000e+02 2.483162117004394531e+01 7.134159564971923828e+00 -1.818917095661163330e-01 -1.469179838895797729e-01 -9.864290803670883179e-02 -1.572287827730178833e-01
2.480000000000000000e+02 2.594578742980957031e+01 9.408429145812988281e+00 -1.856894195079803467e-01 -1.136594638228416443e-01 -8.980466425418853760e-02 -1.611941903829574585e-01
2.490000000000000000e+02 2.466724586486816406e+01 1.052470588684082031e+01 -9.829349815845489502e-02 7.357160747051239014e-02 -7.416567299515008926e-03 -4.129096865653991699e-02
2.500000000000000000e+02 2.317966079711914062e+01 1.223343658447265625e+01 1.877548992633819580e-01 1.790954619646072388e-01 1.100551113486289978e-01 1.840885579586029053e-01
2.510000000000000000e+02 2.192107582092285156e+01 1.124889183044433594e+01 1.264339238405227661e-01 1.074958369135856628e-01 7.017892599105834961e-02 1.218435391783714294e-01
2.520000000000000000e+02 2.176799201965332031e+01 1.025633621215820312e+01 3.630116581916809082e-02 9.777117520570755005e-02 4.022170230746269226e-02 7.471527904272079468e-02
2.530000000000000000e+02 2.390628051757812500e+01 9.508191108703613281e+00 -1.285611838102340698e-01 6.129477173089981079e-02 -2.017992176115512848e-02 -3.981565311551094055e-02
2.540000000000000000e+02 2.603421211242675781e+01 8.337952613830566406e+00 -2.198235541582107544e-01 -1.839971095323562622e-01 -1.211461946368217468e-01 -2.044718116521835327e-01
2.550000000000000000e+02 2.713696861267089844e+01 1.137398719787597656e+01 -1.657855510711669922e-01 -1.248652860522270203e-01 -8.719524741172790527e-02 -1.365025937557220459e-01
2.560000000000000000e+02 2.718368721008300781e+01 1.049156093597412109e+01 -1.831634938716888428e-01 -1.623196750879287720e-01 -1.036449521780014038e-01 -1.848270148038864136e-01
2.570000000000000000e+02 2.677929878234863281e+01 1.206403160095214844e+01 -1.170625388622283936e-01 -5.979952216148376465e-02 -5.305861681699752808e-02 -6.965336203575134277e-02
2.580000000000000000e+02 2.630961227416992188e+01 1.388601207733154297e+01 -5.004615336656570435e-02 -2.591100893914699554e-02 -2.278714813292026520e-02 1.566611081361770630e-01
2.590000000000000000e+02 2.710700988769531250e+01 1.550228118896484375e+01 -5.362502932548522949e-01 2.360023558139801025e-02 -1.537950038909912109e-01 4.223290681838989258e-01
2.600000000000000000e+02 2.699186325073242188e+01 1.712192153930664062e+01 -9.098962545394897461e-01 1.284201294183731079e-01 -2.344428300857543945e-01 3.724815249443054199e-01
2.610000000000000000e+02 2.714677810668945312e+01 1.951042175292968750e+01 -6.231210827827453613e-01 6.897207815200090408e-03 -1.848671585321426392e-01 2.731588780879974365e-01
2.620000000000000000e+02 2.637287712097167969e+01 2.314989662170410156e+01 -1.464684754610061646e-01 -6.357863545417785645e-02 -6.301413476467132568e-02 2.880228757858276367e-01
2.630000000000000000e+02 2.649565124511718750e+01 2.540739250183105469e+01 3.173074871301651001e-02 -2.337312512099742889e-02 2.507286844775080681e-03 2.705078125000000000e-01
2.640000000000000000e+02 2.708183288574218750e+01 2.678414535522460938e+01 1.335228532552719116e-01 3.326265886425971985e-02 5.003565549850463867e-02 2.353545874357223511e-01
2.650000000000000000e+02 2.772005462646484375e+01 2.828284835815429688e+01 2.215430736541748047e-01 9.327397495508193970e-02 9.444511681795120239e-02 1.966445893049240112e-01
2.660000000000000000e+02 2.856070137023925781e+01 2.990967369079589844e+01 3.143127560615539551e-01 2.021484524011611938e-01 1.549383550882339478e-01 1.377559453248977661e-01
2.670000000000000000e+02 2.990029907226562500e+01 3.096914100646972656e+01 3.672774434089660645e-01 2.981505692005157471e-01 1.996283978223800659e-01 7.459326833486557007e-02
2.680000000000000000e+02 2.525496864318847656e+01 3.390713882446289062e+01 3.574933707714080811e-01 6.727781891822814941e-02 1.274313628673553467e-01 1.498979777097702026e-01
2.690000000000000000e+02 2.622881317138671875e+01 3.586831665039062500e+01 4.190760850906372070e-01 1.784925460815429688e-01 1.792705953121185303e-01 9.784253686666488647e-02
2.700000000000000000e+02 2.304202270507812500e+01 4.063336181640625000e+01 4.162205159664154053e-01 6.155972927808761597e-02 1.433340758085250854e-01 3.167071193456649780e-02
2.710000000000000000e+02 2.726398658752441406e+01 3.339220428466796875e+01 3.994026780128479004e-01 2.246090322732925415e-01 1.872035115957260132e-01 1.281557232141494751e-01
2.720000000000000000e+02 2.619374084472656250e+01 2.923772430419921875e+01 2.422321289777755737e-01 5.474890395998954773e-02 8.909431099891662598e-02 2.159094959497451782e-01
2.730000000000000000e+02 2.565337944030761719e+01 2.762551879882812500e+01 1.528944820165634155e-01 -4.507440607994794846e-03 4.451611265540122986e-02 2.548319399356842041e-01
2.740000000000000000e+02 2.517428016662597656e+01 2.627018165588378906e+01 7.355692982673645020e-02 -4.027016460895538330e-02 9.986029937863349915e-03 2.836813628673553467e-01
2.750000000000000000e+02 2.496459960937500000e+01 2.377313232421875000e+01 -1.090449392795562744e-01 -1.006513983011245728e-01 -6.290890276432037354e-02 3.093511462211608887e-01
2.760000000000000000e+02 2.449921798706054688e+01 2.307768821716308594e+01 -1.722407191991806030e-01 -1.162886768579483032e-01 -8.655881881713867188e-02 3.124819099903106689e-01
2.770000000000000000e+02 2.512919616699218750e+01 1.958078193664550781e+01 -5.541646480560302734e-01 -1.897554099559783936e-01 -2.231760025024414062e-01 2.362541258335113525e-01
2.780000000000000000e+02 2.560807991027832031e+01 1.867660522460937500e+01 -7.444615364074707031e-01 -1.026881858706474304e-01 -2.541449069976806641e-01 1.834982484579086304e-01
2.790000000000000000e+02 2.505172729492187500e+01 1.611114120483398438e+01 -9.007114171981811523e-01 -2.970827519893646240e-01 -3.593382537364959717e-01 5.614039301872253418e-01
2.800000000000000000e+02 2.472960090637207031e+01 1.683996009826660156e+01 -1.453186154365539551e+00 -4.084065854549407959e-01 -5.584778189659118652e-01 4.020053744316101074e-01
2.810000000000000000e+02 2.639988327026367188e+01 1.554548358917236328e+01 -5.126586556434631348e-01 1.109409630298614502e-01 -1.205153092741966248e-01 5.155037045478820801e-01
2.820000000000000000e+02 2.777213096618652344e+01 1.568251991271972656e+01 -6.644232869148254395e-01 9.036471694707870483e-02 -1.722175776958465576e-01 3.775826096534729004e-01
2.830000000000000000e+02 2.898682022094726562e+01 1.124784374237060547e+01 -2.720845341682434082e-01 -1.988763064146041870e-01 -1.412882506847381592e-01 -2.055120766162872314e-01
2.840000000000000000e+02 2.819527626037597656e+01 1.172918796539306641e+01 -2.161297798156738281e-01 -1.677723079919815063e-01 -1.151706203818321228e-01 -1.612967103719711304e-01
2.850000000000000000e+02 2.903141975402832031e+01 1.389078235626220703e+01 -5.594722032546997070e-01 -3.890797495841979980e-02 -1.795140653848648071e-01 6.747940927743911743e-02
2.860000000000000000e+02 2.801492881774902344e+01 1.782868003845214844e+01 -8.079788088798522949e-01 1.170019134879112244e-01 -2.072930634021759033e-01 3.559056222438812256e-01
2.870000000000000000e+02 2.898756027221679688e+01 1.983481216430664062e+01 -5.501783490180969238e-01 4.107455164194107056e-02 -1.527311354875564575e-01 3.317325413227081299e-01
2.880000000000000000e+02 2.880865478515625000e+01 2.087492942810058594e+01 -4.138899445533752441e-01 2.291095629334449768e-02 -1.172937005758285522e-01 3.118802309036254883e-01
2.890000000000000000e+02 2.753788757324218750e+01 2.318225097656250000e+01 -1.501042097806930542e-01 -2.823077887296676636e-02 -5.350049585103988647e-02 2.749164998531341553e-01
2.900000000000000000e+02 2.783485031127929688e+01 2.455024147033691406e+01 -8.856114931404590607e-03 5.547421984374523163e-03 -9.926077909767627716e-04 2.501083314418792725e-01
2.910000000000000000e+02 2.910445404052734375e+01 2.714683723449707031e+01 1.901241540908813477e-01 1.377731561660766602e-01 9.836918860673904419e-02 1.724857389926910400e-01
2.920000000000000000e+02 2.987191009521484375e+01 2.841911315917968750e+01 2.738788723945617676e-01 2.078531384468078613e-01 1.445196121931076050e-01 1.129914224147796631e-01
2.930000000000000000e+02 2.975480651855468750e+01 3.345816040039062500e+01 4.362061321735382080e-01 3.718180358409881592e-01 2.424072474241256714e-01 5.155849829316139221e-02
2.940000000000000000e+02 2.787495803833007812e+01 4.062770843505859375e+01 4.833952784538269043e-01 3.304789066314697266e-01 2.441622614860534668e-01 1.980865746736526489e-02
2.950000000000000000e+02 2.838836288452148438e+01 1.254054641723632812e+01 -2.900334000587463379e-01 -1.378703713417053223e-01 -1.283711344003677368e-01 -1.068500280380249023e-01
2.960000000000000000e+02 3.002670288085937500e+01 1.291766929626464844e+01 -5.042025446891784668e-01 -1.047739982604980469e-01 -1.826929599046707153e-01 -1.971429139375686646e-01
2.970000000000000000e+02 3.238932037353515625e+01 1.365609645843505859e+01 -1.203292489051818848e+00 -1.907108873128890991e-01 -4.182009994983673096e-01 -4.528920948505401611e-01
2.980000000000000000e+02 3.187088584899902344e+01 1.425514030456542969e+01 -1.345191717147827148e+00 -3.127674013376235962e-02 -4.129405319690704346e-01 -9.401748329401016235e-02
2.990000000000000000e+02 3.257420730590820312e+01 1.636900138854980469e+01 -1.063033580780029297e+00 -1.083374992012977600e-01 -3.514113128185272217e-01 3.787918090820312500e-01
3.000000000000000000e+02 3.145635604858398438e+01 1.898564338684082031e+01 -5.909131169319152832e-01 -1.129344478249549866e-02 -1.806619614362716675e-01 3.861637413501739502e-01
3.010000000000000000e+02 3.079676628112792969e+01 2.168493843078613281e+01 -2.386046648025512695e-01 4.468545690178871155e-02 -5.817576125264167786e-02 2.773064672946929932e-01
3.020000000000000000e+02 3.081781005859375000e+01 2.377325248718261719e+01 -2.685305476188659668e-02 9.475623071193695068e-02 2.037095278501510620e-02 2.014019340276718140e-01
3.030000000000000000e+02 3.223638153076171875e+01 2.621182441711425781e+01 2.082192897796630859e-01 2.536599040031433105e-01 1.385637670755386353e-01 7.509174942970275879e-02
3.040000000000000000e+02 3.290185928344726562e+01 2.725730895996093750e+01 2.804918587207794189e-01 3.916164636611938477e-01 2.016324996948242188e-01 1.612284407019615173e-02
3.050000000000000000e+02 3.273749542236328125e+01 2.946802330017089844e+01 3.550955057144165039e-01 4.770410060882568359e-01 2.496409565210342407e-01 5.895493086427450180e-03
3.060000000000000000e+02 3.147135734558105469e+01 3.065977668762207031e+01 3.775707781314849854e-01 3.883936107158660889e-01 2.297893166542053223e-01 2.850025519728660583e-02
3.070000000000000000e+02 3.733219146728515625e+01 4.081514358520507812e+01 4.136523902416229248e-01 1.398004651069641113e+00 5.434970855712890625e-01 -3.435682132840156555e-02
3.080000000000000000e+02 3.314777755737304688e+01 3.728909683227539062e+01 4.815966188907623291e-01 7.794659733772277832e-01 3.783187568187713623e-01 -3.750754520297050476e-02
3.090000000000000000e+02 3.075755882263183594e+01 2.945375633239746094e+01 3.256582915782928467e-01 2.827889621257781982e-01 1.825341731309890747e-01 7.178957760334014893e-02
3.100000000000000000e+02 3.108893775939941406e+01 2.720148277282714844e+01 2.376058250665664673e-01 2.240213751792907715e-01 1.384881585836410522e-01 1.042206436395645142e-01
3.110000000000000000e+02 3.039148902893066406e+01 2.601115989685058594e+01 1.469167172908782959e-01 1.490664333105087280e-01 8.879494667053222656e-02 1.505817770957946777e-01
3.120000000000000000e+02 2.971653747558593750e+01 2.483600044250488281e+01 4.436467587947845459e-02 9.120229631662368774e-02 4.067009314894676208e-02 2.020525485277175903e-01
3.130000000000000000e+02 2.856716537475585938e+01 2.187692451477050781e+01 -2.950176298618316650e-01 5.398426204919815063e-03 -8.688576519489288330e-02 2.951419949531555176e-01
3.140000000000000000e+02 3.119497489929199219e+01 2.029998397827148438e+01 -4.010447263717651367e-01 8.409548550844192505e-03 -1.177905499935150146e-01 3.283909857273101807e-01
3.150000000000000000e+02 2.992405700683593750e+01 1.878059768676757812e+01 -6.592609286308288574e-01 5.177780985832214355e-02 -1.822449415922164917e-01 3.825107514858245850e-01
3.160000000000000000e+02 3.032361030578613281e+01 1.691243553161621094e+01 -8.489277958869934082e-01 7.862773537635803223e-02 -2.310900092124938965e-01 3.803355097770690918e-01
3.170000000000000000e+02 3.129006385803222656e+01 1.586763954162597656e+01 -1.038126826286315918e+00 2.745413035154342651e-02 -3.032018244266510010e-01 3.094537258148193359e-01
3.180000000000000000e+02 3.067977714538574219e+01 1.332054519653320312e+01 -7.233215570449829102e-01 -8.747397363185882568e-02 -2.432386577129364014e-01 -1.880157291889190674e-01
3.190000000000000000e+02 3.172580718994140625e+01 1.320749950408935547e+01 -8.183557987213134766e-01 -2.249344736337661743e-01 -3.129870891571044922e-01 -3.518485426902770996e-01
3.200000000000000000e+02 3.305016326904296875e+01 1.406078720092773438e+01 -1.895866632461547852e+00 -2.390515506267547607e-01 -6.404754519462585449e-01 -3.214622139930725098e-01
3.210000000000000000e+02 3.434077835083007812e+01 1.438620185852050781e+01 -2.702421188354492188e+00 -2.663337290287017822e-01 -8.906264901161193848e-01 6.526620686054229736e-02
3.220000000000000000e+02 3.470244598388671875e+01 1.536023902893066406e+01 -1.529272913932800293e+00 -5.927665233612060547e-01 -6.366118192672729492e-01 3.385116457939147949e-01
3.230000000000000000e+02 3.343362045288085938e+01 1.816452598571777344e+01 -6.362574100494384766e-01 -1.938191056251525879e-01 -2.490229457616806030e-01 3.242639899253845215e-01
3.240000000000000000e+02 3.424943542480468750e+01 1.925121688842773438e+01 -4.074795544147491455e-01 -1.029627025127410889e-01 -1.531326770782470703e-01 2.081290930509567261e-01
3.250000000000000000e+02 3.418032836914062500e+01 2.234925842285156250e+01 -3.136567398905754089e-02 1.672344654798507690e-01 4.076063632965087891e-02 8.218436688184738159e-02
3.260000000000000000e+02 3.263062286376953125e+01 2.387666320800781250e+01 5.544347688555717468e-02 1.865262389183044434e-01 7.259091734886169434e-02 1.190580427646636963e-01
3.270000000000000000e+02 3.371344375610351562e+01 2.822182273864746094e+01 3.188186287879943848e-01 5.209572911262512207e-01 2.519327700138092041e-01 -4.185628890991210938e-02
3.280000000000000000e+02 3.462008666992187500e+01 2.899900436401367188e+01 3.666927814483642578e-01 6.579085588455200195e-01 3.073803782463073730e-01 -1.213312670588493347e-01
3.290000000000000000e+02 3.422473526000976562e+01 3.400193405151367188e+01 4.511316418647766113e-01 8.237687945365905762e-01 3.824701309204101562e-01 -8.979709446430206299e-02
3.300000000000000000e+02 3.709003448486328125e+01 3.747053146362304688e+01 4.271477758884429932e-01 1.358372449874877930e+00 5.356560945510864258e-01 -1.245431602001190186e-01
3.310000000000000000e+02 3.505109024047851562e+01 1.427961349487304688e+01 -3.117214441299438477e+00 -4.656603336334228516e-01 -1.074862360954284668e+00 5.556642413139343262e-01
3.320000000000000000e+02 3.632011032104492188e+01 1.782693481445312500e+01 -6.410022377967834473e-01 -9.942572563886642456e-02 -2.221283912658691406e-01 2.992661669850349426e-02
3.330000000000000000e+02 3.600017929077148438e+01 1.960242652893066406e+01 -2.937132418155670166e-01 3.725583478808403015e-02 -7.693722099065780640e-02 3.663035854697227478e-02
3.340000000000000000e+02 3.585953521728515625e+01 2.155470085144042969e+01 -4.188386723399162292e-02 2.122102826833724976e-01 5.109792575240135193e-02 -3.086904250085353851e-02
3.350000000000000000e+02 3.431180572509765625e+01 2.377350044250488281e+01 9.845995157957077026e-02 2.690912485122680664e-01 1.102653592824935913e-01 2.322923950850963593e-02
3.360000000000000000e+02 3.579996490478515625e+01 2.621331405639648438e+01 2.905111312866210938e-01 6.019691824913024902e-01 2.677440941333770752e-01 -1.595821827650070190e-01
3.370000000000000000e+02 3.600502395629882812e+01 2.762398910522460938e+01 3.405498564243316650e-01 7.205378413200378418e-01 3.183262944221496582e-01 -2.034637629985809326e-01
3.380000000000000000e+02 3.590079116821289062e+01 2.930677604675292969e+01 3.842759132385253906e-01 8.263844847679138184e-01 3.631981015205383301e-01 -2.024110853672027588e-01
3.390000000000000000e+02 3.733827590942382812e+01 3.163119125366210938e+01 4.030114412307739258e-01 1.141990900039672852e+00 4.635007083415985107e-01 -2.617307007312774658e-01
3.400000000000000000e+02 3.712191009521484375e+01 3.433926773071289062e+01 4.051581025123596191e-01 1.250891447067260742e+00 4.968148469924926758e-01 -1.980099529027938843e-01
3.410000000000000000e+02 3.568829727172851562e+01 1.402580261230468750e+01 -2.740298271179199219e+00 -7.635138630867004395e-01 -1.051143646240234375e+00 1.028056859970092773e+00
3.420000000000000000e+02 3.656987380981445312e+01 1.435534095764160156e+01 -1.860362172126770020e+00 -1.997727155685424805e-01 -6.180405020713806152e-01 2.893075048923492432e-01
3.430000000000000000e+02 3.705171203613281250e+01 1.410295104980468750e+01 -1.683660984039306641e+00 -3.530572354793548584e-02 -5.156900286674499512e-01 4.447932243347167969e-01
3.440000000000000000e+02 3.850241470336914062e+01 1.301885986328125000e+01 -9.497318267822265625e-01 8.797190338373184204e-02 -2.585279643535614014e-01 3.888687193393707275e-01
3.450000000000000000e+02 3.922036361694335938e+01 1.288470077514648438e+01 -9.243286252021789551e-01 1.443268507719039917e-01 -2.340005338191986084e-01 3.190293014049530029e-01
3.460000000000000000e+02 4.076137924194335938e+01 1.257560157775878906e+01 -8.898448348045349121e-01 2.246837168931961060e-01 -1.995483487844467163e-01 6.360074132680892944e-02
3.470000000000000000e+02 4.154345703125000000e+01 1.241274642944335938e+01 -8.945611119270324707e-01 2.492209374904632568e-01 -1.936020404100418091e-01 -6.378278136253356934e-02
3.480000000000000000e+02 4.233773422241210938e+01 1.223748588562011719e+01 -8.734589219093322754e-01 2.325408011674880981e-01 -1.922754347324371338e-01 -1.722680330276489258e-01
3.490000000000000000e+02 4.205472564697265625e+01 1.390065288543701172e+01 -1.062981486320495605e+00 4.272462427616119385e-01 -1.907205581665039062e-01 -6.721074134111404419e-02
3.500000000000000000e+02 4.225701522827148438e+01 1.554463291168212891e+01 -8.353291749954223633e-01 5.328209400177001953e-01 -9.075246751308441162e-02 -4.928623139858245850e-02
3.510000000000000000e+02 4.289791107177734375e+01 1.701243972778320312e+01 -3.554487228393554688e-01 6.203640699386596680e-01 7.947461307048797607e-02 -2.098031491041183472e-01
3.520000000000000000e+02 4.258276367187500000e+01 1.875946426391601562e+01 -2.406203188002109528e-02 8.551110029220581055e-01 2.493146806955337524e-01 -4.562528133392333984e-01
3.530000000000000000e+02 4.204322433471679688e+01 2.054238319396972656e+01 1.947826147079467773e-01 1.025978326797485352e+00 3.662282824516296387e-01 -5.901231169700622559e-01
3.540000000000000000e+02 4.140626525878906250e+01 2.367959403991699219e+01 2.920599281787872314e-01 1.302046418190002441e+00 4.782319068908691406e-01 -6.438289880752563477e-01
3.550000000000000000e+02 4.193083190917968750e+01 2.484352111816406250e+01 3.012584447860717773e-01 1.551681756973266602e+00 5.558820366859436035e-01 -7.046509981155395508e-01
3.560000000000000000e+02 4.254203414916992188e+01 2.633366584777832031e+01 2.739951908588409424e-01 1.843422293663024902e+00 6.352252364158630371e-01 -7.187816500663757324e-01
3.570000000000000000e+02 4.285574340820312500e+01 2.808315849304199219e+01 2.568152248859405518e-01 2.062469720840454102e+00 6.957855224609375000e-01 -6.878033876419067383e-01
3.580000000000000000e+02 4.332438278198242188e+01 2.977380752563476562e+01 2.009366601705551147e-01 2.263537645339965820e+00 7.393423318862915039e-01 -5.923712849617004395e-01
3.590000000000000000e+02 4.536498260498046875e+01 3.864554977416992188e+01 9.964886307716369629e-02 2.832463026046752930e+00 8.796335458755493164e-01 -1.734910458326339722e-01
3.600000000000000000e+02 4.061778259277343750e+01 3.694107818603515625e+01 3.042318820953369141e-01 1.925392508506774902e+00 6.688873171806335449e-01 -2.219635844230651855e-01
3.610000000000000000e+02 4.357627487182617188e+01 3.557609939575195312e+01 1.946008503437042236e-01 2.409647703170776367e+00 7.812745571136474609e-01 -3.179166913032531738e-01
3.620000000000000000e+02 3.989590454101562500e+01 3.394918060302734375e+01 3.404008150100708008e-01 1.699452042579650879e+00 6.119558811187744141e-01 -3.191359341144561768e-01
3.630000000000000000e+02 4.105594635009765625e+01 2.867853736877441406e+01 3.123382329940795898e-01 1.636277675628662109e+00 5.845847725868225098e-01 -5.429632663726806641e-01
3.640000000000000000e+02 4.072070312500000000e+01 2.689480781555175781e+01 3.239600360393524170e-01 1.441958308219909668e+00 5.297755002975463867e-01 -5.525421500205993652e-01
3.650000000000000000e+02 4.034863662719726562e+01 2.535851097106933594e+01 3.073075711727142334e-01 1.246248602867126465e+00 4.660668671131134033e-01 -5.397039651870727539e-01
3.660000000000000000e+02 4.125335311889648438e+01 2.262646102905273438e+01 2.529773414134979248e-01 1.097119688987731934e+00 4.050291180610656738e-01 -6.121787428855895996e-01
3.670000000000000000e+02 4.180973434448242188e+01 1.673170852661132812e+01 -5.827363133430480957e-01 6.086345314979553223e-01 7.769454736262559891e-03 -1.301725059747695923e-01
3.680000000000000000e+02 4.053600692749023438e+01 1.474250888824462891e+01 -1.008198499679565430e+00 4.913503527641296387e-01 -1.550544500350952148e-01 8.974198997020721436e-02
3.690000000000000000e+02 3.947151565551757812e+01 1.352030467987060547e+01 -1.016182661056518555e+00 2.441276758909225464e-01 -2.316164970397949219e-01 2.392619997262954712e-01
3.700000000000000000e+02 3.969303894042968750e+01 1.418416309356689453e+01 -1.084308266639709473e+00 3.680583834648132324e-01 -2.148749679327011108e-01 2.025959491729736328e-01
3.710000000000000000e+02 4.179482269287109375e+01 1.314394378662109375e+01 -9.880220293998718262e-01 3.575359582901000977e-01 -1.891458183526992798e-01 -5.857089906930923462e-02
3.720000000000000000e+02 3.667736816406250000e+01 1.339627075195312500e+01 -1.205812931060791016e+00 -5.696337223052978516e-01 -5.326339602470397949e-01 6.974996924400329590e-01
3.730000000000000000e+02 3.719670867919921875e+01 1.326329326629638672e+01 -1.062600255012512207e+00 -1.546652019023895264e-01 -3.651796281337738037e-01 5.756431221961975098e-01
3.740000000000000000e+02 4.393006515502929688e+01 1.176620769500732422e+01 -6.234416365623474121e-01 -2.379315495491027832e-01 -2.584119737148284912e-01 -3.903141617774963379e-01
3.750000000000000000e+02 4.444614791870117188e+01 1.364986801147460938e+01 -1.256414651870727539e+00 6.526482850313186646e-02 -3.573449254035949707e-01 -4.982944130897521973e-01
3.760000000000000000e+02 4.577737045288085938e+01 1.360151195526123047e+01 -1.462013006210327148e+00 -7.264866828918457031e-01 -6.565498709678649902e-01 -1.088150978088378906e+00
3.770000000000000000e+02 4.478085708618164062e+01 1.504922962188720703e+01 -9.894094467163085938e-01 3.406321406364440918e-01 -1.946331858634948730e-01 -1.835333108901977539e-01
3.780000000000000000e+02 4.510300064086914062e+01 1.302953529357910156e+01 -1.171696782112121582e+00 -4.927593171596527100e-01 -4.993368387222290039e-01 -7.852374315261840820e-01
3.790000000000000000e+02 4.636664581298828125e+01 1.417812156677246094e+01 -1.903922080993652344e+00 -9.732718467712402344e-01 -8.631581664085388184e-01 -1.318917989730834961e+00
3.800000000000000000e+02 4.589725112915039062e+01 1.524509811401367188e+01 -1.037833213806152344e+00 2.254687696695327759e-01 -2.437093406915664673e-01 -3.306161463260650635e-01
3.810000000000000000e+02 4.611140441894531250e+01 1.764908790588378906e+01 7.009553909301757812e-01 9.292457699775695801e-01 4.890603721141815186e-01 -1.207913160324096680e+00
3.820000000000000000e+02 4.560120773315429688e+01 2.102286720275878906e+01 3.621374070644378662e-01 2.293774127960205078e+00 7.967734932899475098e-01 -1.387916803359985352e+00
3.830000000000000000e+02 4.595497131347656250e+01 2.212839698791503906e+01 2.118466198444366455e-01 2.667870759963989258e+00 8.639152646064758301e-01 -1.308424115180969238e+00
3.840000000000000000e+02 4.557294845581054688e+01 2.407337760925292969e+01 1.454816907644271851e-01 2.733631134033203125e+00 8.637338280677795410e-01 -1.082381367683410645e+00
3.850000000000000000e+02 4.663798141479492188e+01 2.500491714477539062e+01 1.242835167795419693e-02 3.240671396255493164e+00 9.759299159049987793e-01 -1.082244396209716797e+00
3.860000000000000000e+02 4.790373229980468750e+01 2.569821548461914062e+01 -1.340974271297454834e-01 3.695852994918823242e+00 1.068526744842529297e+00 -9.384421706199645996e-01
3.870000000000000000e+02 4.844009780883789062e+01 2.798001480102539062e+01 -1.487411558628082275e-01 3.744151830673217773e+00 1.078623175621032715e+00 -7.123942375183105469e-01
3.880000000000000000e+02 4.763362503051757812e+01 2.995920181274414062e+01 -7.145318388938903809e-02 3.451572656631469727e+00 1.014035820960998535e+00 -5.965849757194519043e-01
3.890000000000000000e+02 3.265527343750000000e+01 4.081303405761718750e+01 4.929710626602172852e-01 7.740248441696166992e-01 3.800987601280212402e-01 -1.742952130734920502e-02
3.900000000000000000e+02 4.178826522827148438e+01 4.052747344970703125e+01 2.547876238822937012e-01 2.213283061981201172e+00 7.404211759567260742e-01 -7.122409343719482422e-02
3.910000000000000000e+02 4.777692794799804688e+01 3.566095352172851562e+01 -2.525125257670879364e-02 3.415679931640625000e+00 1.017128586769104004e+00 -2.939650416374206543e-01
3.920000000000000000e+02 4.452123260498046875e+01 3.144505882263183594e+01 1.468713283538818359e-01 2.607014656066894531e+00 8.261657953262329102e-01 -5.435309410095214844e-01
3.930000000000000000e+02 4.598694229125976562e+01 2.942748069763183594e+01 3.761498630046844482e-02 3.008969545364379883e+00 9.139752984046936035e-01 -6.719381213188171387e-01
3.940000000000000000e+02 4.545880889892578125e+01 2.655594253540039062e+01 1.044436097145080566e-01 2.789406299591064453e+00 8.681550025939941406e-01 -8.639309406280517578e-01
3.950000000000000000e+02 4.423043823242187500e+01 2.533025932312011719e+01 2.152455747127532959e-01 2.312460660934448242e+00 7.583118677139282227e-01 -9.127390980720520020e-01
3.960000000000000000e+02 4.338102722167968750e+01 2.393399047851562500e+01 2.963789701461791992e-01 1.816598653793334961e+00 6.338933110237121582e-01 -8.779346942901611328e-01
3.970000000000000000e+02 4.474552917480468750e+01 2.291149711608886719e+01 2.653819620609283447e-01 2.246691942214965820e+00 7.536221742630004883e-01 -1.104917645454406738e+00
3.980000000000000000e+02 4.432151794433593750e+01 2.158156394958496094e+01 3.402220010757446289e-01 1.784245371818542480e+00 6.373401880264282227e-01 -1.023950219154357910e+00
3.990000000000000000e+02 4.390906906127929688e+01 1.919047927856445312e+01 2.437721043825149536e-01 1.082024335861206055e+00 3.977389335632324219e-01 -7.213618159294128418e-01
4.000000000000000000e+02 4.455317687988281250e+01 1.705938720703125000e+01 -1.186518594622612000e-01 6.809490323066711426e-01 1.686891466379165649e-01 -4.763536155223846436e-01
4.010000000000000000e+02 4.501434707641601562e+01 1.560141754150390625e+01 -6.921129226684570312e-01 2.250400632619857788e-01 -1.401218473911285400e-01 -3.794073164463043213e-01
4.020000000000000000e+02 4.690305328369140625e+01 1.473396301269531250e+01 -2.229696512222290039e+00 -1.015669465065002441e+00 -9.736098051071166992e-01 -1.446911096572875977e+00
4.030000000000000000e+02 4.611285400390625000e+01 1.590476417541503906e+01 -3.132429122924804688e-01 5.274771153926849365e-02 -7.814855873584747314e-02 -5.495286583900451660e-01
4.040000000000000000e+02 4.715092468261718750e+01 1.552432155609130859e+01 -1.286833047866821289e+00 -3.879975378513336182e-01 -5.024492144584655762e-01 -1.199060320854187012e+00
4.050000000000000000e+02 4.762731933593750000e+01 1.855125617980957031e+01 7.213248610496520996e-01 3.062446117401123047e+00 1.135131359100341797e+00 -2.333318948745727539e+00
4.060000000000000000e+02 4.830603790283203125e+01 1.947526359558105469e+01 1.793471723794937134e-01 4.227643013000488281e+00 1.322096943855285645e+00 -2.096755981445312500e+00
4.070000000000000000e+02 4.841711807250976562e+01 2.136176300048828125e+01 -1.033669188618659973e-01 4.283043384552001953e+00 1.253902912139892578e+00 -1.577215671539306641e+00
4.080000000000000000e+02 4.758283615112304688e+01 2.368055343627929688e+01 -7.378789037466049194e-02 3.651892662048339844e+00 1.073431372642517090e+00 -1.199297189712524414e+00
4.090000000000000000e+02 4.874571990966796875e+01 2.418157577514648438e+01 -2.279202342033386230e-01 4.207324028015136719e+00 1.193821072578430176e+00 -1.078577280044555664e+00
4.100000000000000000e+02 4.929202270507812500e+01 2.622677230834960938e+01 -2.431722581386566162e-01 4.194993495941162109e+00 1.185546398162841797e+00 -7.885589003562927246e-01
4.110000000000000000e+02 4.997790145874023438e+01 2.849915695190429688e+01 -2.402311265468597412e-01 4.186792850494384766e+00 1.183968544006347656e+00 -5.589129328727722168e-01
4.120000000000000000e+02 4.916296386718750000e+01 3.033621978759765625e+01 -1.573066115379333496e-01 3.877776861190795898e+00 1.116141080856323242e+00 -5.313521623611450195e-01
4.130000000000000000e+02 5.063142395019531250e+01 3.109865951538085938e+01 -2.000163048505783081e-01 4.151356220245361328e+00 1.185402035713195801e+00 -4.115209281444549561e-01
4.140000000000000000e+02 4.599679565429687500e+01 3.355070114135742188e+01 5.064609646797180176e-02 2.989122629165649414e+00 9.119306206703186035e-01 -3.974951803684234619e-01
4.150000000000000000e+02 5.018909072875976562e+01 3.701117706298828125e+01 -1.183167099952697754e-01 3.780215978622436523e+00 1.098569750785827637e+00 -2.208104431629180908e-01
4.160000000000000000e+02 4.889578247070312500e+01 1.542200660705566406e+01 2.585772037506103516e+00 3.691082954406738281e+00 1.883056521415710449e+00 -4.037171363830566406e+00
4.170000000000000000e+02 4.811513900756835938e+01 1.538423633575439453e+01 -1.130099773406982422e+00 -7.789695858955383301e-01 -5.727208256721496582e-01 -1.740090847015380859e+00
4.180000000000000000e+02 5.007428359985351562e+01 1.474051094055175781e+01 5.007329940795898438e+00 1.503551769256591797e+01 6.012854099273681641e+00 -6.788712978363037109e+00
4.190000000000000000e+02 5.047128295898437500e+01 1.407933139801025391e+01 4.708892345428466797e+00 2.385272979736328125e+01 8.568487167358398438e+00 -5.277896404266357422e+00
4.200000000000000000e+02 5.068058013916015625e+01 1.276765251159667969e+01 1.538313388824462891e+00 2.610603904724121094e+01 8.293305397033691406e+00 -8.847848773002624512e-01
4.210000000000000000e+02 5.044849777221679688e+01 1.130418205261230469e+01 2.363662004470825195e+00 2.874535560607910156e+01 9.332705497741699219e+00 3.357271671295166016e+00
4.220000000000000000e+02 5.024554824829101562e+01 1.054117774963378906e+01 3.271118879318237305e+00 2.499420356750488281e+01 8.479597091674804688e+00 6.839534282684326172e+00
4.230000000000000000e+02 5.432041168212890625e+01 9.216162681579589844e+00 -2.079177796840667725e-01 9.898344993591308594e+00 2.907128334045410156e+00 4.192543625831604004e-01
4.240000000000000000e+02 5.557602310180664062e+01 7.373609542846679688e+00 6.284726858139038086e-01 5.367441654205322266e+00 1.798774242401123047e+00 1.970418810844421387e+00
4.250000000000000000e+02 5.504138565063476562e+01 7.739103794097900391e+00 -3.591665923595428467e-01 8.320035934448242188e+00 2.388260841369628906e+00 1.179923176765441895e+00
4.260000000000000000e+02 5.698285675048828125e+01 9.299051284790039062e+00 -5.378584265708923340e-01 2.266664505004882812e-01 -9.335760027170181274e-02 -3.430115282535552979e-01
4.270000000000000000e+02 5.638501739501953125e+01 9.737448692321777344e+00 -1.788310110569000244e-01 2.806534290313720703e+00 7.883110046386718750e-01 6.145827770233154297e-01
4.280000000000000000e+02 5.658544158935546875e+01 1.159110736846923828e+01 9.869635105133056641e-01 3.259987115859985352e+00 1.274085164070129395e+00 1.275200605392456055e+00
4.290000000000000000e+02 5.360396194458007812e+01 1.363146591186523438e+01 3.205370187759399414e+00 1.043554401397705078e+01 4.092274188995361328e+00 2.191140651702880859e+00
4.300000000000000000e+02 5.275061798095703125e+01 1.509464168548583984e+01 1.899282932281494141e+00 1.116925334930419922e+01 3.920561075210571289e+00 2.059015750885009766e+00
4.310000000000000000e+02 5.217190933227539062e+01 1.697175979614257812e+01 -2.397969663143157959e-01 1.034722900390625000e+01 3.032229423522949219e+00 7.493839859962463379e-01
4.320000000000000000e+02 4.912400054931640625e+01 1.861157226562500000e+01 -2.479750066995620728e-01 5.548030376434326172e+00 1.590016603469848633e+00 -2.408211231231689453e+00
4.330000000000000000e+02 5.030072021484375000e+01 1.699921035766601562e+01 -5.104432106018066406e-01 9.614922523498535156e+00 2.731343984603881836e+00 -2.579684734344482422e+00
4.340000000000000000e+02 4.854983139038085938e+01 1.758326339721679688e+01 6.042788028717041016e-01 4.267127513885498047e+00 1.461421966552734375e+00 -2.865480184555053711e+00
4.350000000000000000e+02 5.106357955932617188e+01 1.100926208496093750e+01 3.356492996215820312e+00 2.074374771118164062e+01 7.230072498321533203e+00 2.400571107864379883e+00
4.360000000000000000e+02 5.096478652954101562e+01 8.245763778686523438e+00 -4.073180258274078369e-01 1.484753227233886719e+01 4.332064151763916016e+00 9.349409341812133789e-01
4.370000000000000000e+02 5.409276580810546875e+01 7.417415618896484375e+00 -8.296583294868469238e-01 1.226741313934326172e+01 3.431326389312744141e+00 3.537712991237640381e-01
4.380000000000000000e+02 5.451843643188476562e+01 5.233445644378662109e+00 1.491863608360290527e+00 1.715129661560058594e+01 5.592947959899902344e+00 3.685580730438232422e+00
4.390000000000000000e+02 5.427173233032226562e+01 6.321064472198486328e+00 5.392344295978546143e-02 1.368087387084960938e+01 4.120439052581787109e+00 1.342353940010070801e+00
4.400000000000000000e+02 4.992650985717773438e+01 9.776652336120605469e+00 3.276934862136840820e+00 1.702464675903320312e+01 6.090474605560302734e+00 6.670583724975585938e+00
4.410000000000000000e+02 4.895674133300781250e+01 8.434374809265136719e+00 2.404100894927978516e+00 7.467069149017333984e+00 2.961350917816162109e+00 4.095669746398925781e+00
4.420000000000000000e+02 4.947819900512695312e+01 6.790616035461425781e+00 9.321650862693786621e-01 9.122868537902832031e+00 3.016510248184204102e+00 2.262663841247558594e+00
4.430000000000000000e+02 4.947123336791992188e+01 5.757871627807617188e+00 1.619414329528808594e+00 8.283246040344238281e+00 2.970798015594482422e+00 1.560648918151855469e+00
4.440000000000000000e+02 4.897953796386718750e+01 2.789126634597778320e+00 3.114670991897583008e+00 4.898794651031494141e+00 2.404039621353149414e+00 2.125383138656616211e+00
4.450000000000000000e+02 4.879247665405273438e+01 1.399035692214965820e+00 2.360384941101074219e+00 3.715479135513305664e+00 1.822759270668029785e+00 2.676684141159057617e+00
4.460000000000000000e+02 4.613890838623046875e+01 3.154199719429016113e-01 6.306524276733398438e-01 3.232889175415039062e+00 1.159062504768371582e+00 4.003948688507080078e+00
4.470000000000000000e+02 4.597431182861328125e+01 -2.338547229766845703e+00 -1.153920173645019531e+00 4.522089958190917969e+00 1.010450959205627441e+00 5.777766704559326172e+00
4.480000000000000000e+02 4.603721237182617188e+01 -3.195572376251220703e+00 -3.119272589683532715e-01 2.813100099563598633e+00 7.503518462181091309e-01 4.015359401702880859e+00
4.490000000000000000e+02 4.682180023193359375e+01 -3.279205322265625000e+00 -5.019922733306884766e+00 -7.914541959762573242e-01 -1.743413090705871582e+00 1.954663276672363281e+00
4.500000000000000000e+02 4.820069503784179688e+01 -2.502670526504516602e+00 -2.549234390258789062e+00 -6.000103354454040527e-01 -9.447734355926513672e-01 2.972483634948730469e+00
4.510000000000000000e+02 4.794398880004882812e+01 -1.181763172149658203e+00 2.624508142471313477e-01 1.037965655326843262e+00 3.901249468326568604e-01 3.962579011917114258e+00
4.520000000000000000e+02 4.971179199218750000e+01 -3.624352812767028809e-01 6.562923789024353027e-01 3.215572834014892578e+00 1.161559581756591797e+00 1.712360024452209473e+00
4.530000000000000000e+02 5.061895751953125000e+01 1.478312969207763672e+00 2.796653747558593750e+00 6.514396667480468750e+00 2.793315172195434570e+00 1.311638832092285156e+00
4.540000000000000000e+02 5.215804672241210938e+01 4.074163913726806641e+00 3.415918111801147461e+00 1.280591773986816406e+01 4.866550922393798828e+00 -1.357395291328430176e+00
4.550000000000000000e+02 5.061672592163085938e+01 5.780559539794921875e+00 1.130359649658203125e+00 1.064694881439208984e+01 3.533192396163940430e+00 3.473306298255920410e-01
4.560000000000000000e+02 5.045713043212890625e+01 6.809860706329345703e+00 3.472165465354919434e-01 1.168754196166992188e+01 3.610427618026733398e+00 9.149758815765380859e-01
4.570000000000000000e+02 5.109517669677734375e+01 9.169504165649414062e+00 4.465925991535186768e-01 1.714255142211914062e+01 5.276743412017822266e+00 8.908061385154724121e-01
4.580000000000000000e+02 4.845943832397460938e+01 7.822238922119140625e+00 1.915883779525756836e+00 5.329124927520751953e+00 2.173502683639526367e+00 3.124454736709594727e+00
4.590000000000000000e+02 4.796807479858398438e+01 7.213517665863037109e+00 1.773068547248840332e+00 4.070959091186523438e+00 1.753208279609680176e+00 2.530781269073486328e+00
4.600000000000000000e+02 4.757320022583007812e+01 4.556433677673339844e+00 2.454667091369628906e+00 3.745483398437500000e+00 1.860045075416564941e+00 2.409184694290161133e+00
4.610000000000000000e+02 4.694029998779296875e+01 6.024082183837890625e+00 1.869033455848693848e+00 2.400759458541870117e+00 1.280937910079956055e+00 1.996313214302062988e+00
4.620000000000000000e+02 4.722699356079101562e+01 2.810909748077392578e+00 2.564951181411743164e+00 3.126250267028808594e+00 1.707360386848449707e+00 2.847795486450195312e+00
4.630000000000000000e+02 4.665580749511718750e+01 2.108578443527221680e+00 2.117575883865356445e+00 2.901772737503051758e+00 1.505804657936096191e+00 3.059220314025878906e+00
4.640000000000000000e+02 4.446970367431640625e+01 1.779651045799255371e-01 -4.031040072441101074e-01 4.210287570953369141e+00 1.142155051231384277e+00 2.815094947814941406e+00
4.650000000000000000e+02 4.431633758544921875e+01 -2.399657726287841797e+00 -5.021321177482604980e-01 8.510278701782226562e+00 2.402444124221801758e+00 2.144627094268798828e+00
4.660000000000000000e+02 4.424546432495117188e+01 -3.653296709060668945e+00 2.231608867645263672e+00 9.832991600036621094e+00 3.619380235671997070e+00 4.836897253990173340e-01
4.670000000000000000e+02 4.435897827148437500e+01 -5.840400218963623047e+00 1.437794089317321777e+00 1.316330432891845703e+01 4.380329608917236328e+00 1.211966648697853088e-01
4.680000000000000000e+02 4.508993530273437500e+01 -6.984088897705078125e+00 4.884595274925231934e-01 1.126865005493164062e+01 3.527132987976074219e+00 -2.459879636764526367e+00
4.690000000000000000e+02 4.527064514160156250e+01 -7.705643653869628906e+00 4.938219785690307617e-01 9.479249954223632812e+00 2.991921424865722656e+00 -2.046307325363159180e+00
4.700000000000000000e+02 4.541904449462890625e+01 -1.044184875488281250e+01 -4.646112322807312012e-01 4.994148254394531250e+00 1.358861088752746582e+00 -4.825545474886894226e-02
4.710000000000000000e+02 4.643865585327148438e+01 -1.072793674468994141e+01 1.339064538478851318e-01 2.780948162078857422e+00 8.744563460350036621e-01 -7.628929018974304199e-01
4.720000000000000000e+02 4.776167678833007812e+01 -1.393957328796386719e+01 -7.012421488761901855e-01 5.096603631973266602e-01 -5.747452378273010254e-02 3.328416943550109863e-01
4.730000000000000000e+02 5.004570007324218750e+01 -1.499900722503662109e+01 -1.069223761558532715e+00 -9.523611664772033691e-01 -6.064754724502563477e-01 1.088419795036315918e+00
4.740000000000000000e+02 5.061050796508789062e+01 -1.659451866149902344e+01 -1.657388806343078613e+00 -7.050801515579223633e-01 -7.087407112121582031e-01 1.004294633865356445e+00
4.750000000000000000e+02 5.269334030151367188e+01 -1.856660079956054688e+01 -3.194069385528564453e+00 -1.263536691665649414e+00 -1.337281823158264160e+00 1.442480206489562988e+00
4.760000000000000000e+02 5.510574722290039062e+01 -1.938506889343261719e+01 -2.128995180130004883e+00 3.657887697219848633e+00 4.586676955223083496e-01 3.331624269485473633e+00
4.770000000000000000e+02 5.626131439208984375e+01 -1.828244400024414062e+01 2.081140756607055664e+00 1.225022792816162109e+01 4.299410343170166016e+00 1.320745229721069336e+00
4.780000000000000000e+02 5.644605636596679688e+01 -1.944669723510742188e+01 -2.460085391998291016e+00 9.466721534729003906e+00 2.101990699768066406e+00 5.069237351417541504e-01
4.790000000000000000e+02 4.536727142333984375e+01 4.260646343231201172e+00 1.785404086112976074e+00 2.244210720062255859e+00 1.208884477615356445e+00 2.068684101104736328e+00
4.800000000000000000e+02 4.545684432983398438e+01 3.132816553115844727e+00 2.145208835601806641e+00 2.493298292160034180e+00 1.391552090644836426e+00 2.513872861862182617e+00
4.810000000000000000e+02 4.248406982421875000e+01 3.229859769344329834e-01 -5.695266723632812500e-01 2.420712947845458984e+00 5.553559064865112305e-01 9.958934187889099121e-01
4.820000000000000000e+02 4.206048965454101562e+01 -1.739863872528076172e+00 2.455809563398361206e-01 3.166414499282836914e+00 1.023598670959472656e+00 2.429554611444473267e-01
4.830000000000000000e+02 4.212555313110351562e+01 -3.283582448959350586e+00 1.715052366256713867e+00 3.666146993637084961e+00 1.614359736442565918e+00 2.553628385066986084e-02
4.840000000000000000e+02 4.257246398925781250e+01 -5.941626548767089844e+00 1.737913727760314941e+00 5.849370002746582031e+00 2.276185035705566406e+00 1.164196133613586426e+00
4.850000000000000000e+02 4.298302841186523438e+01 -6.793637752532958984e+00 8.000898957252502441e-01 6.897952079772949219e+00 2.309412717819213867e+00 1.239731431007385254e+00
4.860000000000000000e+02 4.310362243652343750e+01 -8.788905143737792969e+00 -7.149788141250610352e-01 6.406714439392089844e+00 1.707520723342895508e+00 1.297181487083435059e+00
4.870000000000000000e+02 4.230867004394531250e+01 -1.058334159851074219e+01 -1.230833411216735840e+00 5.296700954437255859e+00 1.219760298728942871e+00 1.703274607658386230e+00
4.880000000000000000e+02 4.214590835571289062e+01 -1.157764148712158203e+01 -8.438988327980041504e-01 5.286563873291015625e+00 1.332799434661865234e+00 1.664694905281066895e+00
4.890000000000000000e+02 4.289030075073242188e+01 -1.410692405700683594e+01 4.311764538288116455e-01 5.007523536682128906e+00 1.631610035896301270e+00 1.031154155731201172e+00
4.900000000000000000e+02 4.130709075927734375e+01 -1.552307415008544922e+01 1.918143987655639648e+00 8.597144126892089844e+00 3.154586315155029297e+00 1.377604603767395020e+00
4.910000000000000000e+02 4.032557678222656250e+01 -1.772456359863281250e+01 -9.680290222167968750e-01 3.711069345474243164e+00 8.229120969772338867e-01 2.141465663909912109e+00
4.920000000000000000e+02 4.110821914672851562e+01 -1.786320877075195312e+01 -7.196444272994995117e-01 5.139082908630371094e+00 1.325831651687622070e+00 1.192165851593017578e+00
4.930000000000000000e+02 3.962508773803710938e+01 -1.874946403503417969e+01 -3.308096528053283691e-01 2.323360919952392578e+00 5.977653264999389648e-01 1.466321349143981934e+00
4.940000000000000000e+02 3.877838897705078125e+01 -2.139395523071289062e+01 -2.735883891582489014e-01 1.789178729057312012e+00 4.546771049499511719e-01 8.555143475532531738e-01
4.950000000000000000e+02 3.914377212524414062e+01 -2.527008056640625000e+01 -2.998231351375579834e-01 1.781844496726989746e+00 4.446064233779907227e-01 2.779189646244049072e-01
4.960000000000000000e+02 3.894630050659179688e+01 -2.679542922973632812e+01 -1.911527365446090698e-01 1.715193033218383789e+00 4.572120904922485352e-01 2.031901627779006958e-01
4.970000000000000000e+02 3.875072860717773438e+01 -2.858260917663574219e+01 -9.206234663724899292e-02 1.610790133476257324e+00 4.556183218955993652e-01 1.134033352136611938e-01
4.980000000000000000e+02 3.836167144775390625e+01 -3.063727378845214844e+01 3.102894872426986694e-02 1.520179986953735352e+00 4.653626978397369385e-01 6.976110488176345825e-02
4.990000000000000000e+02 3.540620040893554688e+01 -3.142390441894531250e+01 1.116374284029006958e-01 1.204501032829284668e+00 3.948415219783782959e-01 6.370314955711364746e-02
5.000000000000000000e+02 4.009448623657226562e+01 -3.388684463500976562e+01 1.355026811361312866e-01 1.660909891128540039e+00 5.389237403869628906e-01 1.822328381240367889e-02
5.010000000000000000e+02 4.267094421386718750e+01 -4.081053161621093750e+01 2.538810372352600098e-01 1.900789737701416016e+00 6.464012265205383301e-01 -6.023865193128585815e-03
5.020000000000000000e+02 3.937725830078125000e+01 -3.690796661376953125e+01 2.006457149982452393e-01 1.567398667335510254e+00 5.304133296012878418e-01 -4.062678199261426926e-03
5.030000000000000000e+02 4.294993209838867188e+01 -3.430293655395507812e+01 1.456158906221389771e-01 1.936371684074401855e+00 6.245962381362915039e-01 -1.653164252638816833e-02
5.040000000000000000e+02 4.047489929199218750e+01 -3.127553367614746094e+01 1.476159878075122833e-02 1.735880732536315918e+00 5.251926779747009277e-01 1.123190298676490784e-02
5.050000000000000000e+02 4.063763427734375000e+01 -2.903473663330078125e+01 -1.100857108831405640e-01 1.826221466064453125e+00 5.148407220840454102e-01 5.272306129336357117e-02
5.060000000000000000e+02 4.071050262451171875e+01 -2.713366699218750000e+01 -2.595488727092742920e-01 1.907662034034729004e+00 4.944339394569396973e-01 8.093031495809555054e-02
5.070000000000000000e+02 4.100782394409179688e+01 -2.127661705017089844e+01 -8.322376608848571777e-01 2.718571901321411133e+00 5.659002661705017090e-01 5.015505552291870117e-01
5.080000000000000000e+02 4.215559768676757812e+01 -1.957097434997558594e+01 -1.120355486869812012e+00 3.782761096954345703e+00 7.987217307090759277e-01 2.632898092269897461e-01
5.090000000000000000e+02 4.297966003417968750e+01 -1.764990234375000000e+01 -3.766961693763732910e-01 4.173739910125732422e+00 1.139113187789916992e+00 -2.485751211643218994e-01
5.100000000000000000e+02 4.379981231689453125e+01 -1.550322055816650391e+01 4.124256968498229980e-01 4.023962497711181641e+00 1.330916523933410645e+00 3.371795415878295898e-01
5.110000000000000000e+02 4.333535385131835938e+01 -1.368924522399902344e+01 -2.543073380365967751e-03 4.763819217681884766e+00 1.428382754325866699e+00 1.134219527244567871e+00
5.120000000000000000e+02 4.383312988281250000e+01 -1.185964584350585938e+01 -8.766910433769226074e-01 5.125474452972412109e+00 1.274634957313537598e+00 1.336112499237060547e+00
5.130000000000000000e+02 4.407992935180664062e+01 -9.829731941223144531e+00 -9.246320128440856934e-01 6.188099384307861328e+00 1.579040288925170898e+00 9.509605169296264648e-01
5.140000000000000000e+02 4.463412475585937500e+01 -7.804399013519287109e+00 7.038880884647369385e-02 9.062770843505859375e+00 2.739947795867919922e+00 -7.561583518981933594e-01
5.150000000000000000e+02 4.487212753295898438e+01 -6.321326255798339844e+00 9.424915909767150879e-01 1.414321422576904297e+01 4.525712013244628906e+00 -1.482035279273986816e+00
5.160000000000000000e+02 4.597613525390625000e+01 3.762863159179687500e+00 2.281681060791015625e+00 2.423240661621093750e+00 1.411476492881774902e+00 2.478931427001953125e+00
5.170000000000000000e+02 4.435328292846679688e+01 3.023742675781250000e+00 1.977024435997009277e+00 2.846241950988769531e+00 1.446979880332946777e+00 2.384722471237182617e+00
5.180000000000000000e+02 4.373104095458984375e+01 1.354620814323425293e+00 5.324550271034240723e-01 3.069141387939453125e+00 1.080478906631469727e+00 2.015841245651245117e+00
5.190000000000000000e+02 4.200041961669921875e+01 8.657770156860351562e-01 -3.205045461654663086e-01 7.566275596618652344e-01 1.308369040489196777e-01 3.942743837833404541e-01
5.200000000000000000e+02 4.035619354248046875e+01 -6.548701524734497070e-01 -6.468164324760437012e-01 -1.948940157890319824e-01 -2.525131404399871826e-01 -6.321259737014770508e-01
5.210000000000000000e+02 3.961539840698242188e+01 -3.267323672771453857e-01 -8.709321022033691406e-01 -9.523838013410568237e-02 -2.898511290550231934e-01 -5.170338749885559082e-01
5.220000000000000000e+02 3.890438079833984375e+01 -4.997732117772102356e-02 7.135754823684692383e-02 1.487344652414321899e-01 6.602760404348373413e-02 -2.770268321037292480e-01
5.230000000000000000e+02 3.911153793334960938e+01 -1.963538289070129395e+00 7.356117367744445801e-01 -2.135061323642730713e-01 1.566316783428192139e-01 -7.042928934097290039e-01
5.240000000000000000e+02 4.022666549682617188e+01 -3.574789524078369141e+00 1.462353110313415527e+00 8.690221905708312988e-01 6.994125843048095703e-01 -3.921093344688415527e-01
5.250000000000000000e+02 3.846958541870117188e+01 -5.000669956207275391e+00 6.041544675827026367e-01 -1.123553395271301270e+00 -1.558196544647216797e-01 1.956971734762191772e-01
5.260000000000000000e+02 3.903511047363281250e+01 -8.703791618347167969e+00 -9.691446423530578613e-01 -1.900396227836608887e+00 -8.608622550964355469e-01 1.467733383178710938e+00
5.270000000000000000e+02 3.937605285644531250e+01 -7.484561443328857422e+00 -5.340342521667480469e-01 -4.105576574802398682e-01 -2.833775877952575684e-01 1.021848201751708984e+00
5.280000000000000000e+02 4.010297775268554688e+01 -9.086154937744140625e+00 -1.075923919677734375e+00 1.210178613662719727e+00 4.027640074491500854e-02 1.137408137321472168e+00
5.290000000000000000e+02 3.940325927734375000e+01 -9.438547134399414062e+00 -8.437554240226745605e-01 -1.047535777091979980e+00 -5.673873424530029297e-01 1.186847925186157227e+00
5.300000000000000000e+02 3.975481796264648438e+01 -1.017690467834472656e+01 -6.864371895790100098e-01 1.526063382625579834e-01 -1.601492613554000854e-01 6.901584267616271973e-01
5.310000000000000000e+02 4.069721984863281250e+01 -1.246909236907958984e+01 2.031251639127731323e-01 6.234502315521240234e+00 1.931288242340087891e+00 -1.689827591180801392e-01
5.320000000000000000e+02 4.074051666259765625e+01 -1.060793209075927734e+01 -1.046044349670410156e+00 3.376264810562133789e+00 6.990661025047302246e-01 9.584785699844360352e-01
5.330000000000000000e+02 4.080490112304687500e+01 -8.825636863708496094e+00 -1.068940520286560059e+00 2.764200210571289062e+00 5.085778832435607910e-01 1.265150070190429688e+00
5.340000000000000000e+02 4.072867584228515625e+01 -6.443560600280761719e+00 7.463191151618957520e-01 2.126385688781738281e+00 8.618114590644836426e-01 7.336367368698120117e-01
5.350000000000000000e+02 4.123861312866210938e+01 -5.297245979309082031e+00 1.657942175865173340e+00 2.615471363067626953e+00 1.282024145126342773e+00 3.967682123184204102e-01
5.360000000000000000e+02 4.039820480346679688e+01 -3.037426710128784180e+00 1.300743937492370605e+00 8.809477090835571289e-01 6.545074582099914551e-01 -5.606887936592102051e-01
5.370000000000000000e+02 4.009265899658203125e+01 -1.415036559104919434e+00 5.463430881500244141e-01 1.494202911853790283e-01 2.087290138006210327e-01 -6.573772430419921875e-01
5.380000000000000000e+02 3.767178344726562500e+01 6.945353746414184570e-01 1.969381570816040039e-01 -4.244092106819152832e-01 -6.824132055044174194e-02 -1.242891773581504822e-01
5.390000000000000000e+02 3.785025024414062500e+01 2.296286821365356445e+00 -4.338839277625083923e-02 -5.113526582717895508e-01 -1.664223074913024902e-01 -1.372091565281152725e-02
5.400000000000000000e+02 3.704222106933593750e+01 1.542965650558471680e+00 9.525942057371139526e-02 -3.291526734828948975e-01 -7.016797363758087158e-02 -2.898711897432804108e-02
5.410000000000000000e+02 3.797494888305664062e+01 2.999912261962890625e+00 3.884454071521759033e-02 -3.091309070587158203e-01 -8.108591288328170776e-02 -5.272226873785257339e-03
5.420000000000000000e+02 3.763823318481445312e+01 5.570599555969238281e+00 4.923836793750524521e-03 -5.788439884781837463e-02 -1.588816940784454346e-02 5.922307446599006653e-02
5.430000000000000000e+02 3.489852905273437500e+01 6.697273254394531250e+00 -1.305985450744628906e-01 3.038757108151912689e-02 -3.006329387426376343e-02 4.024647921323776245e-02
5.440000000000000000e+02 3.470410537719726562e+01 8.427617073059082031e+00 -2.556330896914005280e-02 7.184125017374753952e-03 -5.513755138963460922e-03 -8.180730044841766357e-03
5.450000000000000000e+02 3.346985244750976562e+01 7.414121150970458984e+00 -1.152972280979156494e-01 -1.384806353598833084e-02 -3.874358534812927246e-02 -4.746511578559875488e-02
5.460000000000000000e+02 3.324590301513671875e+01 6.312082290649414062e+00 -2.498613446950912476e-01 5.669854208827018738e-02 -5.794883891940116882e-02 -3.275115042924880981e-02
5.470000000000000000e+02 3.284278488159179688e+01 6.930040359497070312e+00 -1.895920336246490479e-01 -3.602460771799087524e-02 -6.768499314785003662e-02 -8.713228255510330200e-02
5.480000000000000000e+02 3.202443695068359375e+01 5.329090595245361328e+00 -4.668778181076049805e-01 7.999549061059951782e-02 -1.160646975040435791e-01 -1.102115660905838013e-01
5.490000000000000000e+02 3.254607009887695312e+01 3.422190189361572266e+00 -2.936469018459320068e-01 3.401002287864685059e-01 1.393599621951580048e-02 3.255460560321807861e-01
5.500000000000000000e+02 3.300260925292968750e+01 1.841378927230834961e+00 3.277944922447204590e-01 2.589386999607086182e-01 1.760199517011642456e-01 5.206198096275329590e-01
5.510000000000000000e+02 3.188606452941894531e+01 4.560858607292175293e-01 1.208745002746582031e+00 7.077262401580810547e-01 5.749413967132568359e-01 8.115948438644409180e-01
5.520000000000000000e+02 3.265269851684570312e+01 -1.181260123848915100e-02 1.603158235549926758e+00 -6.831476837396621704e-02 4.604530632495880127e-01 2.691998779773712158e-01
5.530000000000000000e+02 3.295934677124023438e+01 -1.137470006942749023e+00 7.868381738662719727e-01 1.892743557691574097e-01 2.928337752819061279e-01 -1.759159862995147705e-01
5.540000000000000000e+02 3.423353958129882812e+01 -2.168859958648681641e+00 2.066144645214080811e-01 -1.178919896483421326e-01 2.661674283444881439e-02 4.180618003010749817e-02
5.550000000000000000e+02 3.700598907470703125e+01 -4.078991889953613281e+00 2.113977819681167603e-01 -1.470642328262329102e+00 -3.777733445167541504e-01 2.284486442804336548e-01
5.560000000000000000e+02 3.727477264404296875e+01 -5.969981193542480469e+00 -6.480236053466796875e-01 -2.278022766113281250e+00 -8.778138756752014160e-01 1.317211508750915527e+00
5.570000000000000000e+02 3.684048843383789062e+01 -5.288337707519531250e+00 -5.641092061996459961e-01 -2.088036298751831055e+00 -7.956436872482299805e-01 1.068668484687805176e+00
5.580000000000000000e+02 3.764755249023437500e+01 -3.571797609329223633e+00 6.798105835914611816e-01 -1.188770651817321777e+00 -1.526880115270614624e-01 -1.521003544330596924e-01
5.590000000000000000e+02 3.695476913452148438e+01 -1.518972873687744141e+00 5.226526856422424316e-01 -6.386805176734924316e-01 -3.480834141373634338e-02 -3.085848689079284668e-01
5.600000000000000000e+02 3.502567291259765625e+01 3.106214106082916260e-01 6.470372080802917480e-01 -3.819339573383331299e-01 7.953096926212310791e-02 9.614606201648712158e-02
5.610000000000000000e+02 3.189754295349121094e+01 1.881174802780151367e+00 2.619142830371856689e-01 6.583205461502075195e-01 2.760704457759857178e-01 5.374134182929992676e-01
5.620000000000000000e+02 3.882246017456054688e+01 4.727498054504394531e+00 8.321066386997699738e-03 -3.893934935331344604e-02 -9.185484610497951508e-03 -6.073770578950643539e-03
5.630000000000000000e+02 3.859744262695312500e+01 5.769064426422119141e+00 8.460907265543937683e-03 -3.172942623496055603e-02 -6.980555597692728043e-03 9.647565893828868866e-03
5.640000000000000000e+02 3.735903167724609375e+01 6.500311374664306641e+00 -1.626638695597648621e-02 -2.271431311964988708e-02 -1.169420965015888214e-02 3.902442008256912231e-02
5.650000000000000000e+02 3.617203521728515625e+01 7.251202106475830078e+00 -5.306507647037506104e-02 2.840330358594655991e-03 -1.506742369383573532e-02 3.348327055573463440e-02
5.660000000000000000e+02 3.452957916259765625e+01 7.329468250274658203e+00 -1.003243178129196167e-01 2.673919498920440674e-02 -2.207553759217262268e-02 -1.021942473016679287e-03
5.670000000000000000e+02 3.996712112426757812e+01 6.744832515716552734e+00 -3.010542597621679306e-03 6.394727621227502823e-03 1.015255460515618324e-03 7.165410555899143219e-03
5.680000000000000000e+02 4.022649002075195312e+01 8.245520591735839844e+00 -4.100413934793323278e-04 6.205089390277862549e-03 1.738514401949942112e-03 -2.655102638527750969e-03
5.690000000000000000e+02 3.915556335449218750e+01 9.155908584594726562e+00 -5.915102083235979080e-03 -2.707738196477293968e-03 -2.586852060630917549e-03 -3.349736332893371582e-03
5.700000000000000000e+02 3.601268768310546875e+01 9.106328964233398438e+00 -5.193399731069803238e-03 3.490409348160028458e-03 -5.108970799483358860e-04 3.776848607230931520e-04
5.710000000000000000e+02 3.611722946166992188e+01 9.695340156555175781e+00 6.278715096414089203e-03 -1.428405847400426865e-02 -2.401603152975440025e-03 8.535391651093959808e-03
5.720000000000000000e+02 3.573846817016601562e+01 9.491784095764160156e+00 6.806211546063423157e-03 1.836942136287689209e-02 7.552689872682094574e-03 2.586038084700703621e-03
5.730000000000000000e+02 3.811333465576171875e+01 7.811388969421386719e+00 -4.897980019450187683e-03 -6.862591952085494995e-03 -3.528171684592962265e-03 2.231587190181016922e-03
5.740000000000000000e+02 3.939299774169921875e+01 7.055763244628906250e+00 1.861559692770242691e-03 2.233979612356051803e-04 6.254873005673289299e-04 -6.850440986454486847e-04
5.750000000000000000e+02 3.898192977905273438e+01 6.412304401397705078e+00 -4.652583505958318710e-03 -1.474308967590332031e-02 -5.818701814860105515e-03 7.565130013972520828e-03
5.760000000000000000e+02 4.082650375366210938e+01 8.027326583862304688e+00 -2.913638018071651459e-03 2.872290322557091713e-03 -1.240428900928236544e-05 3.165376605466008186e-03
5.770000000000000000e+02 4.125033950805664062e+01 8.651816368103027344e+00 1.965597504749894142e-03 2.513643587008118629e-03 1.343772280961275101e-03 -7.569544832222163677e-04
5.780000000000000000e+02 2.980373954772949219e+01 4.517515182495117188e+00 -9.544684290885925293e-01 -3.775853812694549561e-01 -3.996161520481109619e-01 -6.193081736564636230e-01
5.790000000000000000e+02 2.973726272583007812e+01 3.492832183837890625e+00 -8.638636469841003418e-01 2.360346168279647827e-02 -2.520780563354492188e-01 -3.508132994174957275e-01
5.800000000000000000e+02 3.026740646362304688e+01 2.434263706207275391e+00 -3.450209200382232666e-01 4.612594246864318848e-01 3.487155586481094360e-02 4.117263481020927429e-02
5.810000000000000000e+02 3.020993232727050781e+01 9.066812396049499512e-01 7.288299798965454102e-01 1.221340656280517578e+00 5.850511789321899414e-01 3.024630062282085419e-02
5.820000000000000000e+02 3.152916145324707031e+01 -3.478007912635803223e-01 3.060817003250122070e+00 6.799333691596984863e-01 1.122225165367126465e+00 3.820815682411193848e-01
5.830000000000000000e+02 3.025194740295410156e+01 4.020982265472412109e+00 -8.971195816993713379e-01 -1.444247923791408539e-02 -2.734686136245727539e-01 -2.790712416172027588e-01
5.840000000000000000e+02 2.859985542297363281e+01 3.565414905548095703e+00 -1.312746047973632812e+00 -5.199877023696899414e-01 -5.498201251029968262e-01 -8.654085397720336914e-01
5.850000000000000000e+02 2.800119209289550781e+01 3.137523889541625977e+00 -1.389295101165771484e+00 -5.496352910995483398e-01 -5.816791057586669922e-01 -8.127315640449523926e-01
5.860000000000000000e+02 2.546165275573730469e+01 2.269188642501831055e+00 -6.788399219512939453e-01 -1.441071629524230957e-01 -2.468841224908828735e-01 -2.958261370658874512e-01
5.870000000000000000e+02 2.691624641418457031e+01 2.730260610580444336e+00 -1.377784132957458496e+00 -4.245517551898956299e-01 -5.407007932662963867e-01 -6.740584969520568848e-01
5.880000000000000000e+02 2.681591796875000000e+01 2.156081676483154297e+00 -5.697650313377380371e-01 -4.567389786243438721e-01 -3.079512119293212891e-01 -5.801056027412414551e-01
5.890000000000000000e+02 2.663632774353027344e+01 1.569478154182434082e+00 -2.489916533231735229e-01 -4.187531769275665283e-01 -2.003234475851058960e-01 -4.946820139884948730e-01
5.900000000000000000e+02 2.536138343811035156e+01 1.866234898567199707e+00 -4.921901524066925049e-01 -2.194212675094604492e-01 -2.134834229946136475e-01 -3.745129108428955078e-01
5.910000000000000000e+02 2.585553932189941406e+01 1.079313039779663086e+00 -3.976395726203918457e-02 -3.797498941421508789e-01 -1.258541494607925415e-01 -4.134834706783294678e-01
5.920000000000000000e+02 2.525781631469726562e+01 -1.006636142730712891e+00 3.302106857299804688e-01 -3.725827634334564209e-01 -1.271161716431379318e-02 -1.231656521558761597e-01
5.930000000000000000e+02 2.521795272827148438e+01 -2.085740089416503906e+00 3.208291828632354736e-01 -3.748784661293029785e-01 -1.621478982269763947e-02 2.670103125274181366e-02
5.940000000000000000e+02 2.495816421508789062e+01 -5.624038696289062500e+00 -2.081759870052337646e-01 -4.951994121074676514e-01 -2.110126167535781860e-01 3.306310772895812988e-01
5.950000000000000000e+02 2.405540084838867188e+01 -4.221370697021484375e+00 -1.943224668502807617e-01 -5.564868450164794922e-01 -2.252427935600280762e-01 3.391750454902648926e-01
5.960000000000000000e+02 2.523071479797363281e+01 -6.458205699920654297e+00 -1.140653416514396667e-01 -2.438366860151290894e-01 -1.073706075549125671e-01 2.463338822126388550e-01
5.970000000000000000e+02 2.611817169189453125e+01 -7.331769943237304688e+00 -5.369758233428001404e-02 1.647934317588806152e-01 3.332875296473503113e-02 3.854049444198608398e-01
5.980000000000000000e+02 2.692260932922363281e+01 -7.273255348205566406e+00 -1.254512965679168701e-01 2.066752314567565918e-01 2.436717972159385681e-02 3.829701244831085205e-01
5.990000000000000000e+02 2.701580810546875000e+01 -1.071460914611816406e+01 -3.143147528171539307e-01 3.087007105350494385e-01 -1.684211194515228271e-03 1.565870046615600586e-01
6.000000000000000000e+02 2.868443679809570312e+01 -1.257441329956054688e+01 -4.549569487571716309e-01 2.994651198387145996e-01 -4.664754867553710938e-02 1.192608177661895752e-01
6.010000000000000000e+02 2.948814773559570312e+01 -1.330887985229492188e+01 -4.995196163654327393e-01 2.816146910190582275e-01 -6.537148356437683105e-02 1.028003394603729248e-01
6.020000000000000000e+02 3.161308097839355469e+01 -1.462048244476318359e+01 -5.511429905891418457e-01 2.055679857730865479e-01 -1.036724969744682312e-01 9.707985073328018188e-02
6.030000000000000000e+02 3.525173950195312500e+01 -1.914953422546386719e+01 -5.347501859068870544e-02 3.916926383972167969e-01 1.014652922749519348e-01 3.419221341609954834e-01
6.040000000000000000e+02 3.602319335937500000e+01 -2.142865180969238281e+01 -2.049172297120094299e-02 9.073058962821960449e-01 2.660442590713500977e-01 5.186899304389953613e-01
6.050000000000000000e+02 3.810353469848632812e+01 -2.201247215270996094e+01 -2.910012304782867432e-01 1.592538237571716309e+00 3.904610872268676758e-01 6.917859315872192383e-01
6.060000000000000000e+02 3.783523559570312500e+01 -1.929120826721191406e+01 1.559516489505767822e-01 9.121357798576354980e-01 3.204262256622314453e-01 1.111239790916442871e+00
6.070000000000000000e+02 3.770109176635742188e+01 -1.820337867736816406e+01 4.812395945191383362e-02 2.498007565736770630e-01 8.937741070985794067e-02 8.533380031585693359e-01
6.080000000000000000e+02 3.565671157836914062e+01 -1.571417999267578125e+01 -8.852447271347045898e-01 -3.440737724304199219e-02 -2.758956253528594971e-01 3.308662772178649902e-01
6.090000000000000000e+02 3.429199600219726562e+01 -1.398650836944580078e+01 -7.403217554092407227e-01 -1.223097592592239380e-01 -2.587894499301910400e-01 3.818978369235992432e-01
6.100000000000000000e+02 3.329809951782226562e+01 -1.279215240478515625e+01 -6.168972253799438477e-01 -1.175317168235778809e-01 -2.203286886215209961e-01 3.332901895046234131e-01
6.110000000000000000e+02 3.085513877868652344e+01 -1.094919300079345703e+01 -4.461727142333984375e-01 1.206382662057876587e-01 -9.766033291816711426e-02 2.107728570699691772e-01
6.120000000000000000e+02 2.916668510437011719e+01 -8.578362464904785156e+00 -2.341577261686325073e-01 2.622892558574676514e-01 8.439463563263416290e-03 2.612472772598266602e-01
6.130000000000000000e+02 2.846452522277832031e+01 -6.948769569396972656e+00 -1.900298446416854858e-01 3.441500067710876465e-01 4.623605310916900635e-02 3.417774438858032227e-01
6.140000000000000000e+02 2.702456092834472656e+01 -5.275041580200195312e+00 -1.203085929155349731e-01 2.407644838094711304e-01 3.613676875829696655e-02 4.026285707950592041e-01
6.150000000000000000e+02 2.682364463806152344e+01 -6.524343490600585938e+00 -1.358891129493713379e-01 2.349931001663208008e-01 2.973119355738162994e-02 4.386376738548278809e-01
6.160000000000000000e+02 2.605390739440917969e+01 -6.451045036315917969e+00 -1.948109418153762817e-01 7.270272821187973022e-02 -3.663246333599090576e-02 3.702669739723205566e-01
6.170000000000000000e+02 2.420401191711425781e+01 2.019740104675292969e+00 -2.792932391166687012e-01 -6.457018107175827026e-02 -1.031590253114700317e-01 -1.147904321551322937e-01
6.180000000000000000e+02 2.266382598876953125e+01 2.134569644927978516e+00 -3.262903913855552673e-02 -1.334961596876382828e-02 -1.379359699785709381e-02 -1.118106953799724579e-02
6.190000000000000000e+02 1.797471046447753906e+01 2.673690319061279297e+00 9.635648690164089203e-03 1.758825499564409256e-03 3.418342210352420807e-03 1.030355575494468212e-03
6.200000000000000000e+02 1.884668540954589844e+01 1.821862101554870605e+00 1.137901563197374344e-02 1.189005281776189804e-02 6.980720441788434982e-03 6.242397241294384003e-03
6.210000000000000000e+02 2.019197463989257812e+01 2.361385583877563477e+00 -5.228290800005197525e-03 1.903796452097594738e-03 -9.973483392968773842e-04 6.357621401548385620e-03
6.220000000000000000e+02 2.003674888610839844e+01 8.571837544441223145e-01 7.587732281535863876e-03 1.618958450853824615e-02 7.133195176720619202e-03 -2.300367923453450203e-03
6.230000000000000000e+02 2.164389610290527344e+01 -1.078576683998107910e+00 -2.132321242243051529e-03 -6.741169840097427368e-02 -2.086320705711841583e-02 1.122237183153629303e-02
6.240000000000000000e+02 2.310249710083007812e+01 -1.980523705482482910e+00 6.718043982982635498e-02 -3.242292404174804688e-01 -7.711464166641235352e-02 6.777821481227874756e-02
6.250000000000000000e+02 2.409386062622070312e+01 5.099964328110218048e-03 1.078684404492378235e-01 -2.998391091823577881e-01 -5.759119614958763123e-02 -2.080342024564743042e-01
6.260000000000000000e+02 2.347492980957031250e+01 2.678662538528442383e-01 6.923167966306209564e-03 -1.887204200029373169e-01 -5.453917384147644043e-02 -1.541739255189895630e-01
6.270000000000000000e+02 2.210826873779296875e+01 -7.133737206459045410e-01 3.522352874279022217e-02 -1.263675987720489502e-01 -2.734322287142276764e-02 4.340316634625196457e-03
6.280000000000000000e+02 2.213584709167480469e+01 -1.702395439147949219e+00 -9.056900627911090851e-03 -1.347837299108505249e-01 -4.315218701958656311e-02 6.092204526066780090e-02
6.290000000000000000e+02 2.358856391906738281e+01 -3.577248811721801758e+00 -1.621167212724685669e-01 -4.863549172878265381e-01 -1.945414841175079346e-01 2.813999056816101074e-01
6.300000000000000000e+02 2.261956787109375000e+01 -2.332361936569213867e+00 -5.849211290478706360e-02 -2.458462715148925781e-01 -9.130151569843292236e-02 1.171124950051307678e-01
6.310000000000000000e+02 2.451063728332519531e+01 -4.891423702239990234e+00 -2.273399531841278076e-01 -5.834484696388244629e-01 -2.432365119457244873e-01 3.713045418262481689e-01
6.320000000000000000e+02 2.531014633178710938e+01 -8.039928436279296875e+00 6.578338891267776489e-02 4.724213778972625732e-01 1.614614278078079224e-01 1.878986507654190063e-01
6.330000000000000000e+02 2.561356925964355469e+01 -8.638691902160644531e+00 9.408541023731231689e-02 4.293949902057647705e-01 1.570441275835037231e-01 1.665195375680923462e-01
6.340000000000000000e+02 2.506823539733886719e+01 -9.099937438964843750e+00 -3.911044448614120483e-02 4.574369192123413086e-01 1.254979372024536133e-01 2.167066782712936401e-01
6.350000000000000000e+02 2.315739631652832031e+01 -9.065849304199218750e+00 -4.279590845108032227e-01 -7.730641961097717285e-02 -1.515796482563018799e-01 1.610719859600067139e-01
6.360000000000000000e+02 2.244632720947265625e+01 -8.705975532531738281e+00 -3.547906875610351562e-01 -7.566685974597930908e-02 -1.291372627019882202e-01 1.561897695064544678e-01
6.370000000000000000e+02 2.213043785095214844e+01 -9.441649436950683594e+00 -3.051564097404479980e-01 -3.578819334506988525e-02 -1.022833809256553650e-01 9.348124265670776367e-02
6.380000000000000000e+02 2.174544906616210938e+01 -8.330230712890625000e+00 -3.145439922809600830e-01 -9.483101963996887207e-02 -1.228125020861625671e-01 1.540120542049407959e-01
6.390000000000000000e+02 1.981319618225097656e+01 -6.811039924621582031e+00 -1.161171495914459229e-01 -5.394962802529335022e-02 -5.102003365755081177e-02 7.195324450731277466e-02
6.400000000000000000e+02 1.778494644165039062e+01 -5.503843784332275391e+00 -6.416676193475723267e-02 -1.555601973086595535e-02 -2.391683310270309448e-02 3.337719291448593140e-02
6.410000000000000000e+02 1.767802810668945312e+01 -4.435258865356445312e+00 -3.370774164795875549e-02 -2.112325467169284821e-02 -1.644929870963096619e-02 2.449232153594493866e-02
6.420000000000000000e+02 1.606105613708496094e+01 -2.901782035827636719e+00 -1.173637807369232178e-02 -4.798113834112882614e-03 -4.960347432643175125e-03 9.823493659496307373e-03
6.430000000000000000e+02 1.441183185577392578e+01 -2.394344568252563477e+00 -1.539904624223709106e-02 -7.236198289319872856e-04 -4.836800042539834976e-03 5.869107320904731750e-03
6.440000000000000000e+02 1.500120449066162109e+01 -1.746628284454345703e+00 -5.436946637928485870e-03 -1.658680615946650505e-03 -2.128688152879476547e-03 3.382595255970954895e-03
6.450000000000000000e+02 1.184919452667236328e+01 -2.564975738525390625e+00 -1.825381629168987274e-02 2.478668699041008949e-03 -4.732544533908367157e-03 7.778170984238386154e-04
6.460000000000000000e+02 1.039998245239257812e+01 -1.921077489852905273e+00 -1.264344528317451477e-02 1.326346537098288536e-03 -3.395129693672060966e-03 -7.748960051685571671e-04
6.470000000000000000e+02 1.009786701202392578e+01 -3.525117158889770508e+00 -2.218358218669891357e-02 3.468209411948919296e-03 -5.614611785858869553e-03 -4.830843769013881683e-03
6.480000000000000000e+02 8.075237274169921875e+00 -2.472246885299682617e+00 -1.076696440577507019e-02 4.778936854563653469e-04 -3.086721291765570641e-03 -3.603110555559396744e-03
6.490000000000000000e+02 6.786525249481201172e+00 -2.088418960571289062e+00 -6.114420946687459946e-03 -1.125866838265210390e-04 -1.868102350272238255e-03 -3.129939781501889229e-03
6.500000000000000000e+02 6.227566242218017578e+00 -2.397526502609252930e+00 -7.146794814616441727e-03 -6.843255250714719296e-04 -2.349336165934801102e-03 -3.390481695532798767e-03
6.510000000000000000e+02 5.768203258514404297e+00 -2.835226535797119141e+00 -7.153744809329509735e-03 -1.044431002810597420e-03 -2.459452720358967781e-03 -4.237757530063390732e-03
6.520000000000000000e+02 6.354506969451904297e+00 -4.750384330749511719e+00 -1.490831747651100159e-02 -2.138404874131083488e-03 -5.114016588777303696e-03 -1.066300924867391586e-02
6.530000000000000000e+02 5.429488658905029297e+00 -7.354656219482421875e+00 -1.602296344935894012e-02 -9.524799883365631104e-03 -7.664328906685113907e-03 -2.090110443532466888e-02
6.540000000000000000e+02 6.083686351776123047e+00 -7.818727016448974609e+00 -2.141894958913326263e-02 -8.949671871960163116e-03 -9.110586717724800110e-03 -2.626983821392059326e-02
6.550000000000000000e+02 5.823574542999267578e+00 -1.006633472442626953e+01 -2.227072231471538544e-02 -1.787025853991508484e-02 -1.204229518771171570e-02 -3.987471386790275574e-02
6.560000000000000000e+02 5.959186077117919922e+00 -1.180343341827392578e+01 -2.324718609452247620e-02 -2.637580037117004395e-02 -1.488689519464969635e-02 -5.231371149420738220e-02
6.570000000000000000e+02 6.942094326019287109e+00 -1.355601596832275391e+01 -2.904929406940937042e-02 -2.905418165028095245e-02 -1.743104308843612671e-02 -6.987278163433074951e-02
6.580000000000000000e+02 6.713507175445556641e+00 -1.618172645568847656e+01 -2.220096439123153687e-02 -5.058193951845169067e-02 -2.183487080037593842e-02 -8.549044281244277954e-02
6.590000000000000000e+02 6.059904098510742188e+00 -1.784035682678222656e+01 -1.490426063537597656e-02 -7.423604279756546021e-02 -2.674209140241146088e-02 -8.860954642295837402e-02
6.600000000000000000e+02 4.573947906494140625e+00 -1.954431343078613281e+01 -6.695257965475320816e-03 -1.140985861420631409e-01 -3.623815253376960754e-02 -7.793901860713958740e-02
6.610000000000000000e+02 3.857403278350830078e+00 -2.112283325195312500e+01 -2.939066616818308830e-03 -1.465393155813217163e-01 -4.484351351857185364e-02 -7.097885012626647949e-02
6.620000000000000000e+02 4.082205772399902344e+00 -2.353702735900878906e+01 -3.342904092278331518e-04 -1.789666712284088135e-01 -5.379028618335723877e-02 -7.544215768575668335e-02
6.630000000000000000e+02 5.023871898651123047e+00 -2.444227409362792969e+01 1.398390508256852627e-03 -1.671232730150222778e-01 -4.971746355295181274e-02 -8.910797536373138428e-02
6.640000000000000000e+02 4.228672027587890625e+00 -2.720163536071777344e+01 4.395941738039255142e-03 -2.229097187519073486e-01 -6.555413454771041870e-02 -7.405137270689010620e-02
6.650000000000000000e+02 4.432666301727294922e+00 -2.909503746032714844e+01 8.078239858150482178e-03 -2.442545145750045776e-01 -7.085288316011428833e-02 -7.104513049125671387e-02
6.660000000000000000e+02 4.670371532440185547e+00 -3.103199195861816406e+01 1.167847309261560440e-02 -2.530273795127868652e-01 -7.240467518568038940e-02 -6.789526343345642090e-02
6.670000000000000000e+02 5.099722862243652344e+00 -3.235671997070312500e+01 1.653317175805568695e-02 -2.540482282638549805e-01 -7.125452160835266113e-02 -6.767509132623672485e-02
6.680000000000000000e+02 3.804822921752929688e+00 -3.393715286254882812e+01 1.030672807246446609e-02 -3.174510300159454346e-01 -9.214328974485397339e-02 -4.677056521177291870e-02
6.690000000000000000e+02 5.273878574371337891e+00 -3.581484985351562500e+01 2.182404696941375732e-02 -2.740280032157897949e-01 -7.566118240356445312e-02 -4.980614036321640015e-02
6.700000000000000000e+02 4.967288494110107422e+00 -3.755772781372070312e+01 1.880953274667263031e-02 -3.073993623256683350e-01 -8.657695353031158447e-02 -3.360774368047714233e-02
6.710000000000000000e+02 4.264262676239013672e+00 -3.914938354492187500e+01 9.212621487677097321e-03 -3.354441523551940918e-01 -9.786945581436157227e-02 -1.484808512032032013e-02
6.720000000000000000e+02 5.524293422698974609e+00 -4.030429840087890625e+01 1.663595624268054962e-02 -2.862533032894134521e-01 -8.088520169258117676e-02 -1.757508888840675354e-02
6.730000000000000000e+02 7.004183292388916016e+00 -3.602968215942382812e+01 3.218831866979598999e-02 -2.105856835842132568e-01 -5.351921170949935913e-02 -5.477991327643394470e-02
6.740000000000000000e+02 6.725714683532714844e+00 -3.217656707763671875e+01 2.193586155772209167e-02 -1.956722885370254517e-01 -5.212092772126197815e-02 -8.026154339313507080e-02
6.750000000000000000e+02 6.593655586242675781e+00 -3.050317001342773438e+01 2.003934793174266815e-02 -1.881918758153915405e-01 -5.044575780630111694e-02 -8.815421909093856812e-02
6.760000000000000000e+02 5.376859188079833984e+00 -2.803345870971679688e+01 8.395475335419178009e-03 -1.997691839933395386e-01 -5.741211399435997009e-02 -8.685154467821121216e-02
6.770000000000000000e+02 6.121383190155029297e+00 -2.574131584167480469e+01 4.100651014596223831e-03 -1.570075303316116333e-01 -4.587206616997718811e-02 -9.902386367321014404e-02
6.780000000000000000e+02 5.821347236633300781e+00 -2.256073951721191406e+01 -2.345823682844638824e-03 -1.267793923616409302e-01 -3.873756527900695801e-02 -9.775684028863906860e-02
6.790000000000000000e+02 5.518769264221191406e+00 -2.030744171142578125e+01 -7.600061595439910889e-03 -1.081194430589675903e-01 -3.471584990620613098e-02 -9.149266779422760010e-02
6.800000000000000000e+02 7.050687789916992188e+00 -1.864205551147460938e+01 -1.708007231354713440e-02 -6.691756844520568848e-02 -2.519929222762584686e-02 -1.015131250023841858e-01
6.810000000000000000e+02 6.857110977172851562e+00 -1.698729705810546875e+01 -2.088883705437183380e-02 -5.573353543877601624e-02 -2.298671193420886993e-02 -9.181767702102661133e-02
6.820000000000000000e+02 8.323459625244140625e+00 -1.508257675170898438e+01 -3.532524779438972473e-02 -2.340196445584297180e-02 -1.761816442012786865e-02 -9.043186157941818237e-02
6.830000000000000000e+02 8.070789337158203125e+00 -1.422902107238769531e+01 -3.645106777548789978e-02 -2.106672152876853943e-02 -1.725533604621887207e-02 -8.141049742698669434e-02
6.840000000000000000e+02 7.794339179992675781e+00 -1.169992637634277344e+01 -3.660852089524269104e-02 -1.226170454174280167e-02 -1.466106716543436050e-02 -6.050887703895568848e-02
6.850000000000000000e+02 7.639978885650634766e+00 -1.084687614440917969e+01 -3.653704375028610229e-02 -9.454688057303428650e-03 -1.379751972854137421e-02 -5.249566584825515747e-02
6.860000000000000000e+02 6.825456142425537109e+00 -8.190202713012695312e+00 -2.633849158883094788e-02 -6.547603290528059006e-03 -9.865828789770603180e-03 -2.989679388701915741e-02
6.870000000000000000e+02 7.844908237457275391e+00 -6.075308322906494141e+00 -2.652636915445327759e-02 7.481350912712514400e-04 -7.733470294624567032e-03 -1.705883443355560303e-02
6.880000000000000000e+02 8.272766113281250000e+00 -4.147807598114013672e+00 -1.985999941825866699e-02 1.391403377056121826e-03 -5.540579091757535934e-03 -9.125163778662681580e-03
6.890000000000000000e+02 7.509139060974121094e+00 -3.287244558334350586e+00 -1.298953499644994736e-02 3.994262078776955605e-05 -3.884877776727080345e-03 -5.912576802074909210e-03
6.900000000000000000e+02 8.081130981445312500e+00 -1.851180195808410645e+00 -8.342304266989231110e-03 4.176299844402819872e-04 -2.377402270212769508e-03 -2.667263848707079887e-03
6.910000000000000000e+02 2.108328437805175781e+01 -7.884729862213134766e+00 -2.233045846223831177e-01 -9.331515431404113770e-02 -9.498592466115951538e-02 1.310072690248489380e-01
6.920000000000000000e+02 1.558903694152832031e+01 -5.381709098815917969e+00 -6.165799871087074280e-02 8.833339437842369080e-03 -1.584739796817302704e-02 1.511873770505189896e-02
6.930000000000000000e+02 1.658001327514648438e+01 -3.377058267593383789e+00 -1.783712767064571381e-02 -1.161791291087865829e-02 -8.836512453854084015e-03 1.269581727683544159e-02
6.940000000000000000e+02 5.169374942779541016e+00 -2.447008848190307617e+00 -5.086745601147413254e-03 -1.122203189879655838e-03 -1.862684730440378189e-03 -2.871049568057060242e-03
6.950000000000000000e+02 4.566791534423828125e+00 -2.148703336715698242e+00 -3.061668714508414268e-03 -1.021444448269903660e-03 -1.224934007041156292e-03 -1.690011238679289818e-03
6.960000000000000000e+02 4.240949153900146484e+00 -3.599353313446044922e+00 -5.634689703583717346e-03 -2.863761968910694122e-03 -2.549535362049937248e-03 -4.224875010550022125e-03
6.970000000000000000e+02 3.649209022521972656e+00 -6.086764812469482422e+00 -7.189562078565359116e-03 -8.605288341641426086e-03 -4.738455172628164291e-03 -1.037889160215854645e-02
6.980000000000000000e+02 4.460110187530517578e+00 -7.634665489196777344e+00 -1.173127070069313049e-02 -1.270851586014032364e-02 -7.331935688853263855e-03 -1.924075372517108917e-02
6.990000000000000000e+02 4.180697917938232422e+00 -9.114235877990722656e+00 -1.161425281316041946e-02 -2.030201442539691925e-02 -9.574879892170429230e-03 -2.589419297873973846e-02
7.000000000000000000e+02 4.396784305572509766e+00 -1.120408344268798828e+01 -1.309670507907867432e-02 -3.237531706690788269e-02 -1.364160701632499695e-02 -3.921325877308845520e-02
7.010000000000000000e+02 4.785460948944091797e+00 -1.153743171691894531e+01 -1.568713970482349396e-02 -3.206574171781539917e-02 -1.432586368173360825e-02 -4.252186417579650879e-02
7.020000000000000000e+02 4.661386013031005859e+00 -1.317475509643554688e+01 -1.448689587414264679e-02 -4.425920918583869934e-02 -1.762383244931697845e-02 -5.056795477867126465e-02
7.030000000000000000e+02 4.741971492767333984e+00 -1.556569290161132812e+01 -1.245916262269020081e-02 -6.740994751453399658e-02 -2.396073378622531891e-02 -6.426278501749038696e-02
7.040000000000000000e+02 4.326731204986572266e+00 -1.800245475769042969e+01 -7.845762185752391815e-03 -9.887754172086715698e-02 -3.201699256896972656e-02 -7.033579051494598389e-02
7.050000000000000000e+02 2.035177230834960938e+00 -1.961130905151367188e+01 -1.618416630662977695e-03 -1.507557928562164307e-01 -4.571226239204406738e-02 -3.961062431335449219e-02
7.060000000000000000e+02 2.120148420333862305e+00 -2.116592597961425781e+01 -1.080913352780044079e-03 -1.769183725118637085e-01 -5.339978635311126709e-02 -4.290229082107543945e-02
7.070000000000000000e+02 2.193642616271972656e+00 -2.275807571411132812e+01 -7.493229350075125694e-04 -2.039610445499420166e-01 -6.141310930252075195e-02 -4.504599049687385559e-02
7.080000000000000000e+02 3.045852899551391602e+00 -2.516586494445800781e+01 1.606893376447260380e-03 -2.248636484146118164e-01 -6.697702407836914062e-02 -6.096281483769416809e-02
7.090000000000000000e+02 3.119101762771606445e+00 -2.656831550598144531e+01 2.049593254923820496e-03 -2.469844073057174683e-01 -7.348044216632843018e-02 -5.910332873463630676e-02
7.100000000000000000e+02 2.345078945159912109e+00 -2.830894660949707031e+01 1.293189008720219135e-03 -2.975629866123199463e-01 -8.888094127178192139e-02 -4.440322145819664001e-02
7.110000000000000000e+02 2.407258987426757812e+00 -3.001165580749511719e+01 4.519097041338682175e-03 -3.241994082927703857e-01 -9.590409696102142334e-02 -4.325581714510917664e-02
7.120000000000000000e+02 2.271628856658935547e+00 -3.156832122802734375e+01 4.765100311487913132e-03 -3.481667637825012207e-01 -1.030204966664314270e-01 -3.627689182758331299e-02
7.130000000000000000e+02 2.528517723083496094e+00 -3.299254989624023438e+01 4.145038779824972153e-03 -3.647426962852478027e-01 -1.081793010234832764e-01 -3.521101176738739014e-02
7.140000000000000000e+02 2.708733081817626953e+00 -3.693111419677734375e+01 2.462957287207245827e-03 -3.891710937023162842e-01 -1.160124391317367554e-01 -2.174265682697296143e-02
7.150000000000000000e+02 2.549536705017089844e+00 -3.980035400390625000e+01 6.763121578842401505e-03 -4.076235294342041016e-01 -1.202581226825714111e-01 -7.554864510893821716e-03
7.160000000000000000e+02 2.112836122512817383e+00 -4.071229171752929688e+01 4.055217374116182327e-03 -4.243554472923278809e-01 -1.260900646448135376e-01 -6.909703370183706284e-03
7.170000000000000000e+02 3.002781152725219727e+00 -4.106856155395507812e+01 -2.101342193782329559e-03 -4.011012017726898193e-01 -1.209607645869255066e-01 3.539151512086391449e-03
7.180000000000000000e+02 3.132999897003173828e+00 -4.201483917236328125e+01 1.028120331466197968e-02 -3.874905109405517578e-01 -1.131627932190895081e-01 8.422408718615770340e-04
7.190000000000000000e+02 3.951668977737426758e+00 -1.937793135643005371e+00 -1.664146082475781441e-03 -1.084567513316869736e-03 -8.246140787377953529e-04 -8.928729803301393986e-04
7.200000000000000000e+02 1.828289270401000977e+00 -2.715109348297119141e+00 -6.690720329061150551e-04 -6.935268174856901169e-04 -4.087796551175415516e-04 1.215927550219930708e-04
7.210000000000000000e+02 3.724468648433685303e-01 -2.711309671401977539e+00 -1.708436502667609602e-05 1.703037763945758343e-03 5.057860398665070534e-04 2.271258563268929720e-04
7.220000000000000000e+02 3.736833333969116211e-01 -3.521824121475219727e+00 -1.619251997908577323e-04 2.016192069277167320e-03 5.562800215557217598e-04 6.058604776626452804e-05
7.230000000000000000e+02 3.687990605831146240e-01 -4.331511497497558594e+00 -2.815899279084987938e-05 1.906201359815895557e-03 5.634127301163971424e-04 -1.727146009216085076e-04
7.240000000000000000e+02 3.616813421249389648e-01 -5.137395858764648438e+00 -2.532827202230691910e-04 1.237473567016422749e-03 2.952572540380060673e-04 -4.474790184758603573e-04
7.250000000000000000e+02 2.490301132202148438e+00 -6.795732021331787109e+00 -3.791064722463488579e-03 -1.010191440582275391e-02 -4.167893901467323303e-03 -8.964117616415023804e-03
7.260000000000000000e+02 2.433193445205688477e+00 -6.052862167358398438e+00 -3.607150632888078690e-03 -7.423003669828176498e-03 -3.309046151116490364e-03 -6.542463786900043488e-03
7.270000000000000000e+02 2.441106081008911133e+00 -4.609960079193115234e+00 -2.796591492369771004e-03 -3.916390240192413330e-03 -2.013894496485590935e-03 -3.243679646402597427e-03
7.280000000000000000e+02 2.540100336074829102e+00 -3.501582622528076172e+00 -1.998226856812834740e-03 -2.229184377938508987e-03 -1.268223393708467484e-03 -1.461588079109787941e-03
7.290000000000000000e+02 2.550043106079101562e+00 -1.895948171615600586e+00 -5.045845173299312592e-04 -6.804288714192807674e-04 -3.555040166247636080e-04 1.796185097191482782e-04
7.300000000000000000e+02 1.099135756492614746e+00 -4.374157428741455078e+00 -6.887803901918232441e-04 -7.100158836692571640e-04 -4.196388763375580311e-04 -7.815479184500873089e-04
7.310000000000000000e+02 3.601981997489929199e-01 -6.737461090087890625e+00 -3.026613558176904917e-04 -2.375386655330657959e-03 -8.034144411794841290e-04 -1.171273994259536266e-03
7.320000000000000000e+02 1.852601170539855957e+00 -8.303000450134277344e+00 -2.685200655832886696e-03 -1.572534628212451935e-02 -5.523164290934801102e-03 -1.010113116353750229e-02
7.330000000000000000e+02 1.829174399375915527e+00 -7.545800209045410156e+00 -2.208766061812639236e-03 -1.190595515072345734e-02 -4.234416410326957703e-03 -8.196896873414516449e-03
7.340000000000000000e+02 1.069651603698730469e+00 -5.979042053222656250e+00 -8.811171283014118671e-04 -3.700786503031849861e-03 -1.374571118503808975e-03 -2.552467864006757736e-03
7.350000000000000000e+02 3.664024472236633301e-01 -9.120710372924804688e+00 1.697061088634654880e-05 -1.425938308238983154e-02 -4.272723570466041565e-03 -2.433802001178264618e-03
7.360000000000000000e+02 1.839993238449096680e+00 -9.824475288391113281e+00 -2.862670458853244781e-03 -2.513406053185462952e-02 -8.399019949138164520e-03 -1.399354077875614166e-02
7.370000000000000000e+02 1.854269623756408691e+00 -9.062828063964843750e+00 -2.423937665298581123e-03 -2.007965371012687683e-02 -6.751077249646186829e-03 -1.206347905099391937e-02
7.380000000000000000e+02 1.105879664421081543e+00 -9.089184761047363281e+00 -1.202287734486162663e-03 -1.790200732648372650e-02 -5.731288809329271317e-03 -7.339584641158580780e-03
7.390000000000000000e+02 1.087803483009338379e+00 -1.064554691314697266e+01 -1.195229939185082912e-03 -2.980922348797321320e-02 -9.301336482167243958e-03 -9.799122810363769531e-03
7.400000000000000000e+02 1.820451021194458008e+00 -1.133398914337158203e+01 -2.745674690231680870e-03 -3.784780576825141907e-02 -1.217804476618766785e-02 -1.801773719489574432e-02
7.410000000000000000e+02 1.824592471122741699e+00 -1.058306598663330078e+01 -2.446264959871768951e-03 -3.104786388576030731e-02 -1.004823856055736542e-02 -1.606230996549129486e-02
7.420000000000000000e+02 3.607224822044372559e-01 -1.071130657196044922e+01 5.132942169439047575e-05 -2.699513547122478485e-02 -8.083142340183258057e-03 -3.267292864620685577e-03
7.430000000000000000e+02 1.081994533538818359e+00 -1.142004966735839844e+01 -7.518412312492728233e-04 -3.706223145127296448e-02 -1.134422235190868378e-02 -1.101289782673120499e-02
7.440000000000000000e+02 1.830433845520019531e+00 -1.206078815460205078e+01 -2.251217607408761978e-03 -4.512009024620056152e-02 -1.421139203011989594e-02 -2.001604437828063965e-02
7.450000000000000000e+02 3.796289265155792236e-01 -1.308983707427978516e+01 -5.770567804574966431e-04 -5.387900769710540771e-02 -1.633681915700435638e-02 -4.841221030801534653e-03
7.460000000000000000e+02 1.129417657852172852e+00 -1.293320274353027344e+01 -8.295511361211538315e-04 -5.411317944526672363e-02 -1.648281887173652649e-02 -1.416549924761056900e-02
7.470000000000000000e+02 2.632446765899658203e+00 -1.451050186157226562e+01 -4.853009246289730072e-03 -6.937731057405471802e-02 -2.226909436285495758e-02 -3.642780333757400513e-02
7.480000000000000000e+02 2.857404947280883789e+00 -1.361056613922119141e+01 -5.774205550551414490e-03 -5.823522433638572693e-02 -1.920282840728759766e-02 -3.574801608920097351e-02
7.490000000000000000e+02 5.263221859931945801e-01 -1.471208667755126953e+01 -1.758939702995121479e-03 -7.892440259456634521e-02 -2.420500107109546661e-02 -8.593769744038581848e-03
7.500000000000000000e+02 5.361875295639038086e-01 -1.556787300109863281e+01 4.956495831720530987e-04 -9.113772958517074585e-02 -2.719262428581714630e-02 -9.357430972158908844e-03
7.510000000000000000e+02 2.729808807373046875e+00 -1.750697326660156250e+01 -3.469191957265138626e-03 -1.101673394441604614e-01 -3.409095853567123413e-02 -4.677094891667366028e-02
7.520000000000000000e+02 2.895060062408447266e+00 -1.696636009216308594e+01 -4.305021371692419052e-03 -9.987483918666839600e-02 -3.125395625829696655e-02 -4.824171960353851318e-02
7.530000000000000000e+02 1.466190695762634277e+00 -1.442685413360595703e+01 -1.762152998708188534e-03 -7.344574481248855591e-02 -2.256236970424652100e-02 -2.153340354561805725e-02
7.540000000000000000e+02 4.125116467475891113e-01 -1.720567321777343750e+01 1.451958523830398917e-04 -1.217044368386268616e-01 -3.646777197718620300e-02 -7.806370500475168228e-03
7.550000000000000000e+02 1.997921824455261230e+00 -1.885234642028808594e+01 -1.569761196151375771e-03 -1.383810341358184814e-01 -4.198523983359336853e-02 -3.782937303185462952e-02
7.560000000000000000e+02 2.759901523590087891e+00 -1.814788055419921875e+01 -3.257636912167072296e-03 -1.186416894197463989e-01 -3.656979650259017944e-02 -4.841342940926551819e-02
7.570000000000000000e+02 1.319350242614746094e+00 -1.652334022521972656e+01 -4.146913124714046717e-04 -1.050382703542709351e-01 -3.163588792085647583e-02 -2.294665388762950897e-02
7.580000000000000000e+02 4.017243683338165283e-01 -1.959597778320312500e+01 -3.724120906554162502e-04 -1.702257841825485229e-01 -5.117946118116378784e-02 -8.366803638637065887e-03
7.590000000000000000e+02 1.211840033531188965e+00 -1.960731124877929688e+01 -4.715910472441464663e-04 -1.611675322055816650e-01 -4.849173501133918762e-02 -2.463293820619583130e-02
7.600000000000000000e+02 1.262160062789916992e+00 -2.118065452575683594e+01 -3.265758277848362923e-04 -1.911665648221969604e-01 -5.744794011116027832e-02 -2.675206027925014496e-02
7.610000000000000000e+02 1.303443670272827148e+00 -2.277125358581542969e+01 -6.305593706201761961e-05 -2.224445492029190063e-01 -6.675228476524353027e-02 -2.842207066714763641e-02
7.620000000000000000e+02 4.333703517913818359e-01 -2.439224052429199219e+01 8.950485062086954713e-05 -2.761168479919433594e-01 -8.280820399522781372e-02 -9.741042740643024445e-03
7.630000000000000000e+02 1.323781847953796387e+00 -2.675309181213378906e+01 1.413497957400977612e-04 -3.018483817577362061e-01 -9.051210433244705200e-02 -2.792985178530216217e-02
7.640000000000000000e+02 1.386202692985534668e+00 -2.836783599853515625e+01 6.992393173277378082e-04 -3.310226798057556152e-01 -9.909702837467193604e-02 -2.797662466764450073e-02
7.650000000000000000e+02 1.410251975059509277e+00 -3.000175666809082031e+01 6.211937870830297470e-04 -3.595822751522064209e-01 -1.076883226633071899e-01 -2.501213178038597107e-02
7.660000000000000000e+02 1.370474219322204590e+00 -3.157531166076660156e+01 3.029841231182217598e-03 -3.863268792629241943e-01 -1.149891093373298645e-01 -2.305043116211891174e-02
7.670000000000000000e+02 1.467151165008544922e+00 -3.312148284912109375e+01 6.015161634422838688e-04 -4.050490260124206543e-01 -1.213342547416687012e-01 -1.912060379981994629e-02
7.680000000000000000e+02 1.496242046356201172e+00 -3.468468475341796875e+01 4.441431257873773575e-03 -4.241319894790649414e-01 -1.259071677923202515e-01 -1.737214811146259308e-02
7.690000000000000000e+02 2.880644083023071289e+00 -3.776140975952148438e+01 7.628024555742740631e-03 -3.794366121292114258e-01 -1.115425750613212585e-01 -1.908626593649387360e-02
7.700000000000000000e+02 1.682964444160461426e+00 -3.790083312988281250e+01 3.416719380766153336e-03 -4.460922777652740479e-01 -1.328026652336120605e-01 -1.391657255589962006e-02
7.710000000000000000e+02 1.354468226432800293e+00 -4.045306396484375000e+01 3.198024351149797440e-03 -4.679127335548400879e-01 -1.394144147634506226e-01 -4.052381031215190887e-03
7.720000000000000000e+02 1.396624565124511719e+00 -4.203756713867187500e+01 1.684391754679381847e-03 -4.817833602428436279e-01 -1.440296918153762817e-01 -7.806187029927968979e-03
7.730000000000000000e+02 3.990756869316101074e-01 -4.208695983886718750e+01 -3.285428974777460098e-03 -5.243017673492431641e-01 -1.582761555910110474e-01 3.803170518949627876e-03
7.740000000000000000e+02 8.125545501708984375e+00 -4.116793441772460938e+01 4.297786951065063477e-02 -1.981763839721679688e-01 -4.655955359339714050e-02 -8.891031146049499512e-03
7.750000000000000000e+02 8.903315544128417969e+00 -3.857088851928710938e+01 5.354119464755058289e-02 -1.537387967109680176e-01 -3.005928173661231995e-02 -3.516339138150215149e-02
7.760000000000000000e+02 8.322519302368164062e+00 -3.205036544799804688e+01 3.377326205372810364e-02 -1.427756398916244507e-01 -3.270071744918823242e-02 -9.062495082616806030e-02
7.770000000000000000e+02 7.960921764373779297e+00 -3.037576103210449219e+01 2.508193813264369965e-02 -1.450168490409851074e-01 -3.598047047853469849e-02 -9.930450469255447388e-02
7.780000000000000000e+02 8.693118095397949219e+00 -2.861547279357910156e+01 2.313307859003543854e-02 -1.123348101973533630e-01 -2.676052041351795197e-02 -1.122950762510299683e-01
7.790000000000000000e+02 7.349220752716064453e+00 -2.574979782104492188e+01 7.238374091684818268e-03 -1.255539953708648682e-01 -3.549468889832496643e-02 -1.111563965678215027e-01
7.800000000000000000e+02 7.225314617156982422e+00 -2.455587196350097656e+01 3.308421000838279724e-03 -1.178294718265533447e-01 -3.435631468892097473e-02 -1.124129742383956909e-01
7.810000000000000000e+02 7.264286041259765625e+00 -2.223002815246582031e+01 -5.682772956788539886e-03 -9.474907070398330688e-02 -3.012955188751220703e-02 -1.122340112924575806e-01
7.820000000000000000e+02 8.022524833679199219e+00 -2.037338256835937500e+01 -1.276927534490823746e-02 -6.734847277402877808e-02 -2.403532341122627258e-02 -1.140264794230461121e-01
7.830000000000000000e+02 8.738986968994140625e+00 -1.879589653015136719e+01 -2.480259723961353302e-02 -4.095137864351272583e-02 -1.972619257867336273e-02 -1.156855076551437378e-01
7.840000000000000000e+02 9.541234016418457031e+00 -1.568049526214599609e+01 -4.081819579005241394e-02 -1.203558035194873810e-02 -1.585613377392292023e-02 -1.016697809100151062e-01
7.850000000000000000e+02 9.636386871337890625e+00 -1.329153347015380859e+01 -5.089220777153968811e-02 -6.409466732293367386e-04 -1.545994728803634644e-02 -8.244519680738449097e-02
7.860000000000000000e+02 9.833145141601562500e+00 -1.153501415252685547e+01 -5.547587200999259949e-02 6.899517960846424103e-03 -1.457290630787611008e-02 -6.553058326244354248e-02
7.870000000000000000e+02 8.721867561340332031e+00 -9.835563659667968750e+00 -4.436912387609481812e-02 1.424213638529181480e-03 -1.288347318768501282e-02 -4.706268385052680969e-02
7.880000000000000000e+02 9.301639556884765625e+00 -8.568948745727539062e+00 -4.651102051138877869e-02 6.376421544700860977e-03 -1.204037945717573166e-02 -3.680237382650375366e-02
7.890000000000000000e+02 9.278051376342773438e+00 -7.065165042877197266e+00 -4.032275825738906860e-02 6.055618170648813248e-03 -1.028014160692691803e-02 -2.447782456874847412e-02
7.900000000000000000e+02 8.984733581542968750e+00 -5.081220149993896484e+00 -2.848919853568077087e-02 3.501215483993291855e-03 -7.496395148336887360e-03 -1.260316465049982071e-02
7.910000000000000000e+02 9.292375564575195312e+00 -4.360249042510986328e+00 -2.485054731369018555e-02 3.773530712351202965e-03 -6.323105189949274063e-03 -8.513620123267173767e-03
7.920000000000000000e+02 9.625381469726562500e+00 -1.972368836402893066e+00 -1.151846162974834442e-02 1.075938693247735500e-03 -3.132756799459457397e-03 -1.999035244807600975e-03
7.930000000000000000e+02 8.709079742431640625e+00 -3.397486114501953125e+01 4.021457210183143616e-02 -1.384151875972747803e-01 -2.946018427610397339e-02 -7.887391746044158936e-02
7.940000000000000000e+02 9.797308921813964844e+00 -3.173307418823242188e+01 4.304237291216850281e-02 -9.744228422641754150e-02 -1.631997339427471161e-02 -9.992265701293945312e-02
7.950000000000000000e+02 9.212893486022949219e+00 -3.005316734313964844e+01 2.947533875703811646e-02 -1.066138297319412231e-01 -2.314154803752899170e-02 -1.078317314386367798e-01
7.960000000000000000e+02 9.700374603271484375e+00 -2.814977264404296875e+01 2.287554927170276642e-02 -8.434529602527618408e-02 -1.844092458486557007e-02 -1.221091970801353455e-01
7.970000000000000000e+02 1.015006542205810547e+01 -2.637359237670898438e+01 1.496768277138471603e-02 -6.399745494127273560e-02 -1.470893155783414841e-02 -1.307578086853027344e-01
7.980000000000000000e+02 8.528478622436523438e+00 -2.562550163269042969e+01 7.871461100876331329e-03 -9.876740723848342896e-02 -2.726878412067890167e-02 -1.209019944071769714e-01
7.990000000000000000e+02 8.913042068481445312e+00 -2.277413177490234375e+01 -3.672764636576175690e-03 -6.972449272871017456e-02 -2.201917581260204315e-02 -1.268052607774734497e-01
8.000000000000000000e+02 8.887560844421386719e+00 -2.043463325500488281e+01 -1.608202233910560608e-02 -5.108360573649406433e-02 -2.014968730509281158e-02 -1.228840872645378113e-01
8.010000000000000000e+02 1.067115783691406250e+01 -1.920382690429687500e+01 -3.013862669467926025e-02 -1.138633955270051956e-02 -1.245748996734619141e-02 -1.284976899623870850e-01
8.020000000000000000e+02 1.030170249938964844e+01 -1.636860847473144531e+01 -4.539839923381805420e-02 -4.469622392207384109e-03 -1.496040634810924530e-02 -1.099583059549331665e-01
8.030000000000000000e+02 1.118287754058837891e+01 -1.510831928253173828e+01 -5.887200683355331421e-02 1.270939782261848450e-02 -1.384878251701593399e-02 -1.030077114701271057e-01
8.040000000000000000e+02 1.039289093017578125e+01 -1.345941352844238281e+01 -5.756239593029022217e-02 8.538773283362388611e-03 -1.470708660781383514e-02 -8.510007709264755249e-02
8.050000000000000000e+02 1.239524364471435547e+01 -1.195958995819091797e+01 -8.344598859548568726e-02 3.067606873810291290e-02 -1.583097502589225769e-02 -7.245806604623794556e-02
8.060000000000000000e+02 1.092505836486816406e+01 -1.043928813934326172e+01 -6.603582948446273804e-02 1.674622483551502228e-02 -1.478688139468431473e-02 -5.589681863784790039e-02
8.070000000000000000e+02 1.062198066711425781e+01 -8.696310043334960938e+00 -5.886521190404891968e-02 1.494437176734209061e-02 -1.317625213414430618e-02 -3.721169009804725647e-02
8.080000000000000000e+02 1.076143264770507812e+01 -6.626696109771728516e+00 -4.940197244286537170e-02 1.231049466878175735e-02 -1.112744305282831192e-02 -1.962209492921829224e-02
8.090000000000000000e+02 1.114091682434082031e+01 -1.901828765869140625e+00 -1.266692392528057098e-02 1.401480869390070438e-03 -3.379632951691746712e-03 -2.918874452007003129e-05
8.100000000000000000e+02 1.457584381103515625e+01 -3.774007797241210938e+01 1.106552481651306152e-01 4.486582428216934204e-02 4.665632173418998718e-02 -5.736908316612243652e-02
8.110000000000000000e+02 1.115067100524902344e+01 -3.592789840698242188e+01 6.855315715074539185e-02 -6.745916604995727539e-02 3.281964745838195086e-04 -6.891636550426483154e-02
8.120000000000000000e+02 8.974845886230468750e+00 -3.615324020385742188e+01 5.343433842062950134e-02 -1.389371752738952637e-01 -2.565084956586360931e-02 -6.169041246175765991e-02
8.130000000000000000e+02 1.205616378784179688e+01 -3.307180404663085938e+01 6.788607686758041382e-02 -3.590460866689682007e-02 9.594439528882503510e-03 -9.584181755781173706e-02
8.140000000000000000e+02 1.112869167327880859e+01 -3.121837425231933594e+01 4.616970941424369812e-02 -5.791064351797103882e-02 -3.522279672324657440e-03 -1.095748767256736755e-01
8.150000000000000000e+02 1.035418033599853516e+01 -2.959294128417968750e+01 3.783235698938369751e-02 -7.265866547822952271e-02 -1.044789329171180725e-02 -1.152570098638534546e-01
8.160000000000000000e+02 1.175944805145263672e+01 -2.722834205627441406e+01 2.688987180590629578e-02 -2.725175395607948303e-02 -1.085643525584600866e-04 -1.368808597326278687e-01
8.170000000000000000e+02 1.058899879455566406e+01 -2.464497184753417969e+01 8.039333857595920563e-03 -4.329630732536315918e-02 -1.057709101587533951e-02 -1.372862160205841064e-01
8.180000000000000000e+02 1.056936836242675781e+01 -2.287305641174316406e+01 -3.731226781383156776e-03 -3.404107689857482910e-02 -1.133169140666723251e-02 -1.370469480752944946e-01
8.190000000000000000e+02 1.033247852325439453e+01 -2.117567634582519531e+01 -1.381094940006732941e-02 -2.980964444577693939e-02 -1.308617834001779556e-02 -1.329773515462875366e-01
8.200000000000000000e+02 1.260183906555175781e+01 -1.923169517517089844e+01 -3.763027489185333252e-02 2.460217848420143127e-02 -3.908429294824600220e-03 -1.359333992004394531e-01
8.210000000000000000e+02 1.301743412017822266e+01 -1.743201065063476562e+01 -5.567541345953941345e-02 3.499272465705871582e-02 -6.204806268215179443e-03 -1.251554936170578003e-01
8.220000000000000000e+02 1.348332977294921875e+01 -1.494988632202148438e+01 -8.368046581745147705e-02 4.387264698743820190e-02 -1.194234471768140793e-02 -1.054237112402915955e-01
8.230000000000000000e+02 1.217216777801513672e+01 -1.426346778869628906e+01 -7.390668243169784546e-02 2.768621221184730530e-02 -1.386614143848419189e-02 -9.700013697147369385e-02
8.240000000000000000e+02 1.332163715362548828e+01 -1.134891796112060547e+01 -9.539916366338729858e-02 3.804384544491767883e-02 -1.720659621059894562e-02 -6.426338106393814087e-02
8.250000000000000000e+02 1.273637866973876953e+01 -9.730600357055664062e+00 -8.597517013549804688e-02 3.113503009080886841e-02 -1.645204238593578339e-02 -4.482305794954299927e-02
8.260000000000000000e+02 1.300233364105224609e+01 -8.060667991638183594e+00 -7.975398749113082886e-02 2.661905623972415924e-02 -1.594047993421554565e-02 -2.382648549973964691e-02
8.270000000000000000e+02 1.314583206176757812e+01 -4.074103355407714844e+00 -3.549551963806152344e-02 6.119151599705219269e-03 -8.812909945845603943e-03 2.360340906307101250e-03
8.280000000000000000e+02 1.160411262512207031e+01 -3.088440418243408203e+00 -2.179360203444957733e-02 3.650103230029344559e-03 -5.443049594759941101e-03 1.940357833518646657e-05
8.290000000000000000e+02 1.252034473419189453e+01 -2.761881113052368164e+00 -2.023113705217838287e-02 2.879247302189469337e-03 -5.205566994845867157e-03 2.508060308173298836e-03
8.300000000000000000e+02 1.231196784973144531e+01 -3.051541519165039062e+01 5.521737039089202881e-02 -2.070386148989200592e-02 1.035405229777097702e-02 -1.161942109465599060e-01
8.310000000000000000e+02 1.232325744628906250e+01 -2.841222000122070312e+01 3.987416252493858337e-02 -1.389085035771131516e-02 7.794992998242378235e-03 -1.304381191730499268e-01
8.320000000000000000e+02 1.290054702758789062e+01 -2.747326469421386719e+01 3.520003706216812134e-02 2.851899247616529465e-03 1.141558121889829636e-02 -1.377140134572982788e-01
8.330000000000000000e+02 1.336285591125488281e+01 -2.634348869323730469e+01 2.675605751574039459e-02 1.826793327927589417e-02 1.350719761103391647e-02 -1.443655937910079956e-01
8.340000000000000000e+02 1.240634250640869141e+01 -2.526909828186035156e+01 1.650278083980083466e-02 -5.069329403340816498e-03 3.430035198107361794e-03 -1.441419869661331177e-01
8.350000000000000000e+02 1.236647605895996094e+01 -2.296447372436523438e+01 -2.346051158383488655e-03 5.521168000996112823e-03 9.525351342745125294e-04 -1.455806642770767212e-01
8.360000000000000000e+02 1.286218166351318359e+01 -2.179777336120605469e+01 -1.611402072012424469e-02 2.192525751888751984e-02 1.743370667099952698e-03 -1.464870274066925049e-01
8.370000000000000000e+02 1.463333225250244141e+01 -1.888171386718750000e+01 -5.661325901746749878e-02 6.140962615609169006e-02 1.438910025171935558e-03 -1.362639516592025757e-01
8.380000000000000000e+02 1.388960742950439453e+01 -1.767091560363769531e+01 -6.346005946397781372e-02 4.902977868914604187e-02 -4.329083487391471863e-03 -1.287182122468948364e-01
8.390000000000000000e+02 1.461212158203125000e+01 -1.559877586364746094e+01 -8.882444351911544800e-02 5.823367834091186523e-02 -9.177229367196559906e-03 -1.103167980909347534e-01
8.400000000000000000e+02 1.416465663909912109e+01 -1.342117595672607422e+01 -9.997772425413131714e-02 4.918806627392768860e-02 -1.523689832538366318e-02 -8.857827633619308472e-02
8.410000000000000000e+02 1.414500522613525391e+01 -1.149804878234863281e+01 -1.044532209634780884e-01 4.563218727707862854e-02 -1.764631085097789764e-02 -6.244457140564918518e-02
8.420000000000000000e+02 1.439958572387695312e+01 -9.827194213867187500e+00 -1.079838201403617859e-01 4.178589582443237305e-02 -1.985937543213367462e-02 -4.001303389668464661e-02
8.430000000000000000e+02 1.452301406860351562e+01 -8.227159500122070312e+00 -1.008371338248252869e-01 3.351862356066703796e-02 -2.019555307924747467e-02 -1.643927581608295441e-02
8.440000000000000000e+02 1.496998596191406250e+01 -6.368059635162353516e+00 -7.569620758295059204e-02 1.821703277528285980e-02 -1.724375225603580475e-02 4.406230524182319641e-03
8.450000000000000000e+02 1.459958362579345703e+01 -5.018754005432128906e+00 -5.301807820796966553e-02 9.851202368736267090e-03 -1.295006368309259415e-02 9.899186901748180389e-03
8.460000000000000000e+02 1.460984516143798828e+01 -3.372482299804687500e+00 -2.563143521547317505e-02 8.816709741950035095e-04 -7.424929179251194000e-03 8.201382122933864594e-03
8.470000000000000000e+02 1.317778873443603516e+01 -3.522141265869140625e+01 8.056732267141342163e-02 -7.884095422923564911e-03 2.180496789515018463e-02 -7.998535782098770142e-02
8.480000000000000000e+02 1.482167339324951172e+01 -3.409796142578125000e+01 9.722903370857238770e-02 5.012788996100425720e-02 4.420707747340202332e-02 -9.167782217264175415e-02
8.490000000000000000e+02 1.462564086914062500e+01 -3.102102088928222656e+01 7.415600121021270752e-02 4.658967629075050354e-02 3.622370213270187378e-02 -1.194147393107414246e-01
8.500000000000000000e+02 1.418747329711914062e+01 -2.844789123535156250e+01 5.032614246010780334e-02 3.715160861611366272e-02 2.624332532286643982e-02 -1.378823369741439819e-01
8.510000000000000000e+02 1.478195190429687500e+01 -2.708536529541015625e+01 4.060965776443481445e-02 5.295579880475997925e-02 2.806963585317134857e-02 -1.434998959302902222e-01
8.520000000000000000e+02 1.507645511627197266e+01 -2.557794952392578125e+01 2.484365738928318024e-02 6.292679160833358765e-02 2.633113414049148560e-02 -1.502566933631896973e-01
8.530000000000000000e+02 1.515493965148925781e+01 -2.405828285217285156e+01 1.055860053747892380e-02 7.234297692775726318e-02 2.487047389149665833e-02 -1.540553867816925049e-01
8.540000000000000000e+02 1.522225856781005859e+01 -2.265011596679687500e+01 -1.333429943770170212e-02 7.224623858928680420e-02 1.767358183860778809e-02 -1.515347212553024292e-01
8.550000000000000000e+02 1.425778198242187500e+01 -2.107918548583984375e+01 -2.917600050568580627e-02 5.285913869738578796e-02 7.104941643774509430e-03 -1.466135382652282715e-01
8.560000000000000000e+02 1.645991897583007812e+01 -1.928627586364746094e+01 -6.360352039337158203e-02 9.640462696552276611e-02 9.840331040322780609e-03 -1.371446251869201660e-01
8.570000000000000000e+02 1.677683067321777344e+01 -1.623219871520996094e+01 -1.068305894732475281e-01 9.197528660297393799e-02 -4.456590861082077026e-03 -1.083920449018478394e-01
8.580000000000000000e+02 1.601644706726074219e+01 -1.464280700683593750e+01 -1.067091375589370728e-01 7.151085138320922852e-02 -1.055948529392480850e-02 -9.478029608726501465e-02
8.590000000000000000e+02 1.643993759155273438e+01 -1.394452381134033203e+01 -1.235873326659202576e-01 7.218144088983535767e-02 -1.542176678776741028e-02 -8.702249825000762939e-02
8.600000000000000000e+02 1.574612236022949219e+01 -1.214184761047363281e+01 -1.221542879939079285e-01 5.910771340131759644e-02 -1.891397312283515930e-02 -6.618116050958633423e-02
8.610000000000000000e+02 1.608942222595214844e+01 -9.645629882812500000e+00 -1.340982019901275635e-01 4.648954793810844421e-02 -2.628259547054767609e-02 -2.658626437187194824e-02
8.620000000000000000e+02 1.596277809143066406e+01 -8.866006851196289062e+00 -1.235634982585906982e-01 4.000457748770713806e-02 -2.506767585873603821e-02 -1.670364476740360260e-02
8.630000000000000000e+02 1.608132934570312500e+01 -6.551558971405029297e+00 -9.129218012094497681e-02 1.617298834025859833e-02 -2.253575809299945831e-02 1.257571019232273102e-02
8.640000000000000000e+02 1.712576103210449219e+01 -3.895572185516357422e+00 -2.360812760889530182e-02 -1.342509314417839050e-02 -1.110996678471565247e-02 1.977727934718132019e-02
8.650000000000000000e+02 1.675461006164550781e+01 -4.486406326293945312e+00 -4.097023606300354004e-02 -8.939329534769058228e-03 -1.497286930680274963e-02 2.031869813799858093e-02
8.660000000000000000e+02 1.614130210876464844e+01 -3.264731216430664062e+01 9.925565868616104126e-02 8.653058856725692749e-02 5.573587492108345032e-02 -1.067056730389595032e-01
8.670000000000000000e+02 1.562270259857177734e+01 -2.959618377685546875e+01 7.233601808547973633e-02 7.621216028928756714e-02 4.456445202231407166e-02 -1.304233223199844360e-01
8.680000000000000000e+02 1.641911697387695312e+01 -2.791174125671386719e+01 5.793899297714233398e-02 1.011148393154144287e-01 4.771615192294120789e-02 -1.423473358154296875e-01
8.690000000000000000e+02 1.669259262084960938e+01 -2.603076744079589844e+01 3.780208155512809753e-02 1.123510822653770447e-01 4.504594951868057251e-02 -1.503031402826309204e-01
8.700000000000000000e+02 1.653247451782226562e+01 -2.426610946655273438e+01 7.758307736366987228e-03 1.037809029221534729e-01 3.346176072955131531e-02 -1.521871536970138550e-01
8.710000000000000000e+02 1.636242294311523438e+01 -2.149623298645019531e+01 -3.327428922057151794e-02 9.756367653608322144e-02 1.928681507706642151e-02 -1.486878097057342529e-01
8.720000000000000000e+02 1.637900733947753906e+01 -2.033990097045898438e+01 -4.303302988409996033e-02 9.486416727304458618e-02 1.554934121668338776e-02 -1.427190303802490234e-01
8.730000000000000000e+02 1.729914665222167969e+01 -1.944252777099609375e+01 -5.987758934497833252e-02 1.111150234937667847e-01 1.537123043090105057e-02 -1.362650692462921143e-01
8.740000000000000000e+02 1.883375549316406250e+01 -1.728827285766601562e+01 -1.123844459652900696e-01 1.309053301811218262e-01 5.556265357881784439e-03 -1.069377362728118896e-01
8.750000000000000000e+02 1.770677375793457031e+01 -1.485086536407470703e+01 -1.319788992404937744e-01 9.314446896314620972e-02 -1.165032759308815002e-02 -8.889420330524444580e-02
8.760000000000000000e+02 1.845650672912597656e+01 -1.327085494995117188e+01 -1.533166021108627319e-01 8.457667380571365356e-02 -2.062197588384151459e-02 -6.570320576429367065e-02
8.770000000000000000e+02 1.770605659484863281e+01 -1.172830104827880859e+01 -1.560686230659484863e-01 6.433424353599548340e-02 -2.752031385898590088e-02 -4.841468855738639832e-02
8.780000000000000000e+02 1.896733665466308594e+01 -1.020982742309570312e+01 -1.826096028089523315e-01 4.127316549420356750e-02 -4.240093380212783813e-02 -1.022790651768445969e-02
8.790000000000000000e+02 1.851010513305664062e+01 -8.624876022338867188e+00 -1.631053984165191650e-01 2.495278231799602509e-02 -4.144578427076339722e-02 1.941841654479503632e-02
8.800000000000000000e+02 1.868902587890625000e+01 -6.723304271697998047e+00 -1.108601689338684082e-01 -1.810098998248577118e-02 -3.868834674358367920e-02 4.892808571457862854e-02
8.810000000000000000e+02 1.642873001098632812e+01 -4.080032348632812500e+01 1.386625915765762329e-01 1.219738274812698364e-01 7.819092273712158203e-02 -1.705531589686870575e-02
8.820000000000000000e+02 1.662060737609863281e+01 -3.633108520507812500e+01 1.188895031809806824e-01 1.007983386516571045e-01 6.590635329484939575e-02 -7.105389237403869629e-02
8.830000000000000000e+02 1.722039604187011719e+01 -3.093768692016601562e+01 9.505148231983184814e-02 1.248570531606674194e-01 6.597255915403366089e-02 -1.241485998034477234e-01
8.840000000000000000e+02 1.815319252014160156e+01 -2.909481239318847656e+01 8.042086660861968994e-02 1.588294357061386108e-01 7.177509367465972900e-02 -1.341505944728851318e-01
8.850000000000000000e+02 1.931087303161621094e+01 -2.755769729614257812e+01 6.888853013515472412e-02 1.890848726034164429e-01 7.739201933145523071e-02 -1.365973055362701416e-01
8.860000000000000000e+02 1.967695999145507812e+01 -2.512508773803710938e+01 2.980575524270534515e-02 1.935438960790634155e-01 6.700489670038223267e-02 -1.453859806060791016e-01
8.870000000000000000e+02 1.739625549316406250e+01 -2.150415802001953125e+01 -3.293808177113533020e-02 1.191929280757904053e-01 2.587645314633846283e-02 -1.449777036905288696e-01
8.880000000000000000e+02 1.836859703063964844e+01 -2.029381942749023438e+01 -5.686439573764801025e-02 1.385161727666854858e-01 2.449553087353706360e-02 -1.362381726503372192e-01
8.890000000000000000e+02 2.069256210327148438e+01 -1.620131301879882812e+01 -1.462489813566207886e-01 1.543092280626296997e-01 2.418078016489744186e-03 -6.594508141279220581e-02
8.900000000000000000e+02 2.114707565307617188e+01 -1.559342956542968750e+01 -1.779211908578872681e-01 1.654929220676422119e-01 -3.728478448465466499e-03 -4.962803050875663757e-02
8.910000000000000000e+02 1.988617897033691406e+01 -1.325146389007568359e+01 -1.616718322038650513e-01 8.819873631000518799e-02 -2.204192802309989929e-02 -3.864123299717903137e-02
8.920000000000000000e+02 1.939259529113769531e+01 -1.100420188903808594e+01 -1.911484301090240479e-01 4.920350015163421631e-02 -4.258348047733306885e-02 -2.253233268857002258e-02
8.930000000000000000e+02 2.046850013732910156e+01 -9.505242347717285156e+00 -2.277791202068328857e-01 3.901282791048288345e-03 -6.716334819793701172e-02 2.800113148987293243e-02
8.940000000000000000e+02 2.005815315246582031e+01 -8.332637786865234375e+00 -2.081638127565383911e-01 -1.138785853981971741e-02 -6.586550176143646240e-02 6.220689043402671814e-02
8.950000000000000000e+02 1.989573097229003906e+01 -9.178956985473632812e+00 -2.146490812301635742e-01 1.855325512588024139e-02 -5.882874503731727600e-02 2.502746321260929108e-02
8.960000000000000000e+02 1.801332092285156250e+01 -3.443677902221679688e+01 1.313330233097076416e-01 1.580988168716430664e-01 8.682955056428909302e-02 -9.197253733873367310e-02
8.970000000000000000e+02 2.119066047668457031e+01 -3.365081787109375000e+01 1.555245071649551392e-01 2.833960652351379395e-01 1.316761672496795654e-01 -8.357355743646621704e-02
8.980000000000000000e+02 1.984216690063476562e+01 -3.048202705383300781e+01 1.106134131550788879e-01 2.174348682165145874e-01 9.841448813676834106e-02 -1.173200681805610657e-01
8.990000000000000000e+02 2.044668006896972656e+01 -2.634969520568847656e+01 5.477214604616165161e-02 2.269828319549560547e-01 8.452649414539337158e-02 -1.389760375022888184e-01
9.000000000000000000e+02 2.107198905944824219e+01 -2.503462982177734375e+01 2.633372507989406586e-02 2.328628450632095337e-01 7.775896787643432617e-02 -1.329509764909744263e-01
9.010000000000000000e+02 2.020646095275878906e+01 -2.282196235656738281e+01 -1.749522052705287933e-02 1.975447088479995728e-01 5.401484668254852295e-02 -1.418797075748443604e-01
9.020000000000000000e+02 2.005548095703125000e+01 -2.090006828308105469e+01 -5.886364355683326721e-02 1.834220439195632935e-01 3.736751899123191833e-02 -1.347491294145584106e-01
9.030000000000000000e+02 2.140250396728515625e+01 -1.872729110717773438e+01 -1.200945228338241577e-01 2.032566219568252563e-01 2.494862675666809082e-02 -1.056060492992401123e-01
9.040000000000000000e+02 2.235601997375488281e+01 -1.648409652709960938e+01 -1.775757521390914917e-01 2.035378366708755493e-01 7.788623683154582977e-03 -5.912071093916893005e-02
9.050000000000000000e+02 2.228495025634765625e+01 -1.554142189025878906e+01 -1.830564737319946289e-01 1.823849231004714966e-01 -2.014675410464406013e-04 -3.303822502493858337e-02
9.060000000000000000e+02 2.173892211914062500e+01 -1.367044734954833984e+01 -2.003295123577117920e-01 1.311375349760055542e-01 -2.075759135186672211e-02 -7.092090789228677750e-03
9.070000000000000000e+02 2.206421279907226562e+01 -1.204338169097900391e+01 -1.977709978818893433e-01 7.475312054157257080e-02 -3.690536320209503174e-02 5.922221019864082336e-02
9.080000000000000000e+02 2.179108810424804688e+01 -1.024376392364501953e+01 -2.319274693727493286e-01 -1.343681756407022476e-02 -7.360928505659103394e-02 3.310925886034965515e-02
9.090000000000000000e+02 2.144286918640136719e+01 -1.115822124481201172e+01 -1.985788047313690186e-01 3.801215067505836487e-02 -4.816999658942222595e-02 4.151244089007377625e-02
9.100000000000000000e+02 2.341620826721191406e+01 -3.728216934204101562e+01 1.989630609750747681e-01 3.894447684288024902e-01 1.765223443508148193e-01 -4.282984510064125061e-02
9.110000000000000000e+02 2.287089538574218750e+01 -4.066822814941406250e+01 2.009491473436355591e-01 3.670616149902343750e-01 1.704032272100448608e-01 -1.516730245202779770e-02
9.120000000000000000e+02 2.043665313720703125e+01 -3.616868209838867188e+01 1.703575700521469116e-01 2.688552141189575195e-01 1.317638307809829712e-01 -6.373997777700424194e-02
9.130000000000000000e+02 2.365503692626953125e+01 -3.441927337646484375e+01 1.866606324911117554e-01 3.995589017868041992e-01 1.758658587932586670e-01 -6.685638427734375000e-02
9.140000000000000000e+02 2.185687065124511719e+01 -2.835100364685058594e+01 9.368912130594253540e-02 2.739946246147155762e-01 1.103051230311393738e-01 -1.196660697460174561e-01
9.150000000000000000e+02 2.231771850585937500e+01 -2.578871726989746094e+01 4.263104498386383057e-02 2.690734565258026123e-01 9.351135790348052979e-02 -1.281311661005020142e-01
9.160000000000000000e+02 2.189853286743164062e+01 -2.232215690612792969e+01 -3.841017186641693115e-02 2.375187873840332031e-01 5.973258614540100098e-02 -1.289274692535400391e-01
9.170000000000000000e+02 2.154831695556640625e+01 -2.088583564758300781e+01 -7.031907141208648682e-02 2.172289639711380005e-01 4.407296702265739441e-02 -1.226392760872840881e-01
9.180000000000000000e+02 2.385864448547363281e+01 -1.710711288452148438e+01 -2.050141245126724243e-01 2.508559226989746094e-01 1.375253498554229736e-02 -5.048169568181037903e-02
9.190000000000000000e+02 2.394764900207519531e+01 -1.579786777496337891e+01 -2.442025393247604370e-01 2.439599335193634033e-01 -7.278099656105041504e-05 -1.363962702453136444e-02
9.200000000000000000e+02 2.367008399963378906e+01 -1.321492385864257812e+01 -2.628327906131744385e-01 1.843839287757873535e-01 -2.353465929627418518e-02 7.699410617351531982e-02
9.210000000000000000e+02 2.261001968383789062e+01 -1.224465560913085938e+01 -2.291846126317977905e-01 1.046444624662399292e-01 -3.736204653978347778e-02 6.674263626337051392e-02
9.220000000000000000e+02 2.283959388732910156e+01 -9.799329757690429688e+00 -2.773049175739288330e-01 -4.711377620697021484e-02 -9.732560813426971436e-02 7.965906709432601929e-02
9.230000000000000000e+02 2.388009071350097656e+01 -9.360010147094726562e+00 -3.734363615512847900e-01 -4.206232354044914246e-02 -1.246496066451072693e-01 1.631647944450378418e-01
9.240000000000000000e+02 2.371689414978027344e+01 -3.201255798339843750e+01 1.514865756034851074e-01 3.820445835590362549e-01 1.600593477487564087e-01 -7.787774503231048584e-02
9.250000000000000000e+02 2.362903022766113281e+01 -2.998855590820312500e+01 1.306544095277786255e-01 3.559625446796417236e-01 1.459850817918777466e-01 -9.160690754652023315e-02
9.260000000000000000e+02 2.334962654113769531e+01 -2.829730606079101562e+01 9.375906735658645630e-02 3.290985226631164551e-01 1.268572807312011719e-01 -1.032943502068519592e-01
9.270000000000000000e+02 2.424901962280273438e+01 -2.650514411926269531e+01 6.769564747810363770e-02 3.409297466278076172e-01 1.225876137614250183e-01 -1.053330227732658386e-01
9.280000000000000000e+02 2.497834014892578125e+01 -2.462387466430664062e+01 2.402460016310214996e-02 3.410273492336273193e-01 1.095155850052833557e-01 -1.049359664320945740e-01
9.290000000000000000e+02 2.438106727600097656e+01 -2.336133956909179688e+01 -3.968401812016963959e-03 3.134538531303405762e-01 9.284564107656478882e-02 -1.112973839044570923e-01
9.300000000000000000e+02 2.390093803405761719e+01 -2.081890296936035156e+01 -8.697750419378280640e-02 2.721058428287506104e-01 5.553850531578063965e-02 -1.126090809702873230e-01
9.310000000000000000e+02 2.490460777282714844e+01 -1.863547134399414062e+01 -1.781073063611984253e-01 2.880268394947052002e-01 3.297586366534233093e-02 -7.633592188358306885e-02
9.320000000000000000e+02 2.590140914916992188e+01 -1.657471847534179688e+01 -2.763500511646270752e-01 3.012129366397857666e-01 7.458864711225032806e-03 -2.927941828966140747e-02
9.330000000000000000e+02 2.584132957458496094e+01 -1.488848781585693359e+01 -3.154729306697845459e-01 2.966586649417877197e-01 -5.644281394779682159e-03 2.845214866101741791e-02
9.340000000000000000e+02 2.550610733032226562e+01 -1.350752639770507812e+01 -3.252060115337371826e-01 2.834471166133880615e-01 -1.252767629921436310e-02 8.569301664829254150e-02
9.350000000000000000e+02 2.454104804992675781e+01 -1.176112842559814453e+01 -2.951796352863311768e-01 2.036588191986083984e-01 -2.745624259114265442e-02 1.627943515777587891e-01
9.360000000000000000e+02 2.532489204406738281e+01 -1.034087657928466797e+01 -2.982502579689025879e-01 3.742544651031494141e-01 2.280127070844173431e-02 1.945794522762298584e-01
9.370000000000000000e+02 2.461875152587890625e+01 -9.766368865966796875e+00 -2.251579165458679199e-01 2.288244813680648804e-01 1.099970540963113308e-03 2.390995323657989502e-01
9.380000000000000000e+02 2.723523521423339844e+01 -4.080343246459960938e+01 2.333488315343856812e-01 6.090199351310729980e-01 2.527106106281280518e-01 -6.253634579479694366e-03
9.390000000000000000e+02 2.670817947387695312e+01 -3.751180648803710938e+01 2.256225198507308960e-01 5.753138661384582520e-01 2.402809113264083862e-01 -3.038323111832141876e-02
9.400000000000000000e+02 2.621073532104492188e+01 -3.457377243041992188e+01 1.922663152217864990e-01 5.243188738822937012e-01 2.149755656719207764e-01 -4.227777197957038879e-02
9.410000000000000000e+02 2.531544113159179688e+01 -2.991429328918457031e+01 1.311875879764556885e-01 4.270105063915252686e-01 1.674594283103942871e-01 -7.312876731157302856e-02
9.420000000000000000e+02 2.482764244079589844e+01 -2.808955955505371094e+01 1.057066917419433594e-01 3.816499114036560059e-01 1.462069749832153320e-01 -8.788213133811950684e-02
9.430000000000000000e+02 2.563691902160644531e+01 -2.608927345275878906e+01 7.012692838907241821e-02 3.819335103034973145e-01 1.356181353330612183e-01 -8.725422620773315430e-02
9.440000000000000000e+02 2.705939865112304688e+01 -2.565790939331054688e+01 6.155066564679145813e-02 4.332455694675445557e-01 1.484388709068298340e-01 -6.839860975742340088e-02
9.450000000000000000e+02 2.557655334472656250e+01 -2.274696540832519531e+01 -2.632851526141166687e-02 3.372707366943359375e-01 9.328266978263854980e-02 -1.033928170800209045e-01
9.460000000000000000e+02 2.602926063537597656e+01 -2.026069259643554688e+01 -1.283145397901535034e-01 3.262832164764404297e-01 5.939060077071189880e-02 -9.138445556163787842e-02
9.470000000000000000e+02 2.626251411437988281e+01 -1.891077423095703125e+01 -1.896189004182815552e-01 3.211931884288787842e-01 3.947228193283081055e-02 -7.106620818376541138e-02
9.480000000000000000e+02 2.714549064636230469e+01 -1.710043334960937500e+01 -2.891885936260223389e-01 3.246856629848480225e-01 1.064912043511867523e-02 -4.302310571074485779e-02
9.490000000000000000e+02 2.757672309875488281e+01 -1.538822746276855469e+01 -3.650357723236083984e-01 3.271566331386566162e-01 -1.136374101042747498e-02 1.509933359920978546e-02
9.500000000000000000e+02 2.664121437072753906e+01 -1.133385086059570312e+01 -3.536825478076934814e-01 3.269157707691192627e-01 -8.030028082430362701e-03 1.568562984466552734e-01
9.510000000000000000e+02 2.639860343933105469e+01 -1.024693107604980469e+01 -2.617099881172180176e-01 3.175927400588989258e-01 1.676482148468494415e-02 1.779401153326034546e-01
9.520000000000000000e+02 2.575891685485839844e+01 -3.206671524047851562e+01 1.694288402795791626e-01 4.734469056129455566e-01 1.928627192974090576e-01 -5.568775162100791931e-02
9.530000000000000000e+02 2.694384384155273438e+01 -2.961301422119140625e+01 1.376085430383682251e-01 4.965244233608245850e-01 1.902398914098739624e-01 -5.019718408584594727e-02
9.540000000000000000e+02 2.775505638122558594e+01 -2.733127975463867188e+01 1.089578047394752502e-01 4.944135248661041260e-01 1.810113936662673950e-01 -4.511325806379318237e-02
9.550000000000000000e+02 2.848431396484375000e+01 -2.525318336486816406e+01 6.802338361740112305e-02 4.821766614913940430e-01 1.650600135326385498e-01 -3.528924286365509033e-02
9.560000000000000000e+02 2.758287429809570312e+01 -2.221967124938964844e+01 -3.282595425844192505e-02 3.800147473812103271e-01 1.041566431522369385e-01 -7.138936221599578857e-02
9.570000000000000000e+02 2.896236991882324219e+01 -1.808939552307128906e+01 -2.781459689140319824e-01 3.430427312850952148e-01 1.946902833878993988e-02 -4.531544074416160583e-02
9.580000000000000000e+02 2.836398887634277344e+01 -1.748109817504882812e+01 -2.878598272800445557e-01 3.306011557579040527e-01 1.282239798456430435e-02 -4.533363506197929382e-02
9.590000000000000000e+02 2.850202369689941406e+01 -1.506757450103759766e+01 -4.049009978771209717e-01 3.205919265747070312e-01 -2.529271878302097321e-02 2.929718792438507080e-02
9.600000000000000000e+02 2.871212959289550781e+01 -1.317484092712402344e+01 -4.485211372375488281e-01 3.045930564403533936e-01 -4.317842051386833191e-02 1.093987375497817993e-01
9.610000000000000000e+02 2.924363517761230469e+01 -1.119178199768066406e+01 -4.021809101104736328e-01 2.580095827579498291e-01 -4.325139895081520081e-02 1.873539388179779053e-01
9.620000000000000000e+02 2.978515625000000000e+01 -3.699700927734375000e+01 2.219159007072448730e-01 7.679002285003662109e-01 2.969448268413543701e-01 -1.013651303946971893e-02
9.630000000000000000e+02 3.051172256469726562e+01 -3.324347686767578125e+01 1.863519102334976196e-01 7.809668183326721191e-01 2.901956140995025635e-01 -9.556666482239961624e-04
9.640000000000000000e+02 2.765918922424316406e+01 -3.173427581787109375e+01 1.677344441413879395e-01 5.676916837692260742e-01 2.206278443336486816e-01 -3.628363460302352905e-02
9.650000000000000000e+02 2.921610832214355469e+01 -2.687038612365722656e+01 9.471873193979263306e-02 5.674077272415161133e-01 1.986379474401473999e-01 -1.528277155011892319e-02
9.660000000000000000e+02 2.985502815246582031e+01 -2.483458328247070312e+01 5.150223895907402039e-02 5.405257940292358398e-01 1.776084005832672119e-01 9.228400449501350522e-05
9.670000000000000000e+02 2.880671501159667969e+01 -2.211772155761718750e+01 -4.676100611686706543e-02 4.147388339042663574e-01 1.103933528065681458e-01 -5.101709067821502686e-02
9.680000000000000000e+02 2.946019935607910156e+01 -2.080526542663574219e+01 -1.051674783229827881e-01 3.925462067127227783e-01 8.621361851692199707e-02 -4.761113226413726807e-02
9.690000000000000000e+02 2.941762351989746094e+01 -1.917678451538085938e+01 -2.117747366428375244e-01 3.574754595756530762e-01 4.371021687984466553e-02 -5.543165281414985657e-02
9.700000000000000000e+02 3.153211402893066406e+01 -1.800969314575195312e+01 -3.107393085956573486e-01 3.143618106842041016e-01 1.086754957213997841e-03 4.502197261899709702e-03
9.710000000000000000e+02 3.116764640808105469e+01 -1.568827724456787109e+01 -4.808971583843231201e-01 2.636219859123229980e-01 -6.518255174160003662e-02 3.123776242136955261e-02
9.720000000000000000e+02 3.128531837463378906e+01 -1.394281673431396484e+01 -5.709842443466186523e-01 2.087674736976623535e-01 -1.086650267243385315e-01 1.348410099744796753e-01
9.730000000000000000e+02 2.934260177612304688e+01 -3.113006019592285156e+01 1.604248434305191040e-01 6.532759666442871094e-01 2.441102415323257446e-01 -1.208052597939968109e-02
9.740000000000000000e+02 2.999592590332031250e+01 -2.859189605712890625e+01 1.348819285631179810e-01 6.525921821594238281e-01 2.362422347068786621e-01 2.305654808878898621e-03
9.750000000000000000e+02 3.064065551757812500e+01 -2.636971855163574219e+01 9.492063522338867188e-02 6.387984752655029297e-01 2.201157212257385254e-01 3.205487877130508423e-02
9.760000000000000000e+02 3.108460235595703125e+01 -2.434004020690917969e+01 5.680588260293006897e-02 5.863139629364013672e-01 1.929359436035156250e-01 5.692474171519279480e-02
9.770000000000000000e+02 3.072586441040039062e+01 -2.051725196838378906e+01 -9.307611733675003052e-02 4.038112461566925049e-01 9.322053939104080200e-02 -2.596080768853425980e-03
9.780000000000000000e+02 3.205329513549804688e+01 -1.722872352600097656e+01 -3.572483956813812256e-01 2.789381742477416992e-01 -2.349307015538215637e-02 1.106189005076885223e-02
9.790000000000000000e+02 3.320728683471679688e+01 -1.550650978088378906e+01 -6.233636140823364258e-01 1.477357894182205200e-01 -1.426883488893508911e-01 1.421048343181610107e-01
9.800000000000000000e+02 3.149818611145019531e+01 -4.052756118774414062e+01 2.523382604122161865e-01 9.166470170021057129e-01 3.506955802440643311e-01 -6.838143803179264069e-03
9.810000000000000000e+02 3.462019729614257812e+01 -3.863536071777343750e+01 2.340402156114578247e-01 1.139109969139099121e+00 4.119450449943542480e-01 4.447903949767351151e-03
9.820000000000000000e+02 3.395985031127929688e+01 -3.354283905029296875e+01 1.669519096612930298e-01 1.061173558235168457e+00 3.684376478195190430e-01 9.920651093125343323e-03
9.830000000000000000e+02 3.079516410827636719e+01 -3.037388801574707031e+01 1.414714157581329346e-01 7.376381158828735352e-01 2.637328505516052246e-01 1.095842476934194565e-02
9.840000000000000000e+02 3.149599647521972656e+01 -2.805339241027832031e+01 1.032253429293632507e-01 7.673704028129577637e-01 2.611787319183349609e-01 4.299514740705490112e-02
9.850000000000000000e+02 3.195631790161132812e+01 -2.578557395935058594e+01 6.388440728187561035e-02 7.258294224739074707e-01 2.369141578674316406e-01 7.950343191623687744e-02
9.860000000000000000e+02 3.214403152465820312e+01 -2.373308944702148438e+01 2.957147918641567230e-02 6.243047714233398438e-01 1.961628794670104980e-01 9.342992305755615234e-02
9.870000000000000000e+02 3.219832992553710938e+01 -2.205465698242187500e+01 4.255105275660753250e-03 5.049986243247985840e-01 1.527761220932006836e-01 8.346512168645858765e-02
9.880000000000000000e+02 3.249605560302734375e+01 -2.120941352844238281e+01 -4.502293467521667480e-02 4.821359217166900635e-01 1.311338990926742554e-01 9.366980940103530884e-02
9.890000000000000000e+02 3.320557403564453125e+01 -1.919312858581542969e+01 -1.483590602874755859e-01 3.674670159816741943e-01 6.573238223791122437e-02 1.117749512195587158e-01
9.900000000000000000e+02 3.230587005615234375e+01 -2.998784065246582031e+01 1.360874325037002563e-01 8.719850182533264160e-01 3.024217486381530762e-01 3.774308040738105774e-02
9.910000000000000000e+02 3.293270492553710938e+01 -2.744201469421386719e+01 8.895158767700195312e-02 8.590179085731506348e-01 2.843908369541168213e-01 9.876542538404464722e-02
9.920000000000000000e+02 3.312487411499023438e+01 -2.504368019104003906e+01 5.808465927839279175e-02 7.808319926261901855e-01 2.516750097274780273e-01 1.620730310678482056e-01
9.930000000000000000e+02 3.409191513061523438e+01 -2.412124252319335938e+01 2.462492696940898895e-02 8.164139389991760254e-01 2.523116767406463623e-01 2.071580737829208374e-01
9.940000000000000000e+02 3.385879135131835938e+01 -2.215828514099121094e+01 2.438420243561267853e-02 6.283119916915893555e-01 1.958088576793670654e-01 2.165906578302383423e-01
9.950000000000000000e+02 3.426208496093750000e+01 -2.123013877868652344e+01 -9.011222980916500092e-03 5.929102301597595215e-01 1.751696914434432983e-01 2.590986490249633789e-01
9.960000000000000000e+02 3.420801925659179688e+01 -1.917567634582519531e+01 -1.421136707067489624e-01 3.482055068016052246e-01 6.182754412293434143e-02 1.712992936372756958e-01
9.970000000000000000e+02 3.639747619628906250e+01 -3.555041503906250000e+01 1.986941695213317871e-01 1.315539479255676270e+00 4.542700946331024170e-01 1.712791994214057922e-02
9.980000000000000000e+02 3.392013549804687500e+01 -2.943871307373046875e+01 9.050509333610534668e-02 1.012606382369995117e+00 3.309334516525268555e-01 7.447551190853118896e-02
9.990000000000000000e+02 3.433592224121093750e+01 -2.657522201538085938e+01 2.707409299910068512e-02 9.992729425430297852e-01 3.079041242599487305e-01 1.530880331993103027e-01
1.000000000000000000e+03 3.543461227416992188e+01 -2.535896110534667969e+01 -1.662322878837585449e-02 1.118036985397338867e+00 3.304241299629211426e-01 2.589372992515563965e-01
1.001000000000000000e+03 3.611519241333007812e+01 -2.400164222717285156e+01 -6.341276317834854126e-02 1.137032270431518555e+00 3.220858573913574219e-01 3.566147983074188232e-01
1.002000000000000000e+03 3.647537612915039062e+01 -2.283748245239257812e+01 -7.610066980123519897e-02 1.142658114433288574e+00 3.199672400951385498e-01 4.647855758666992188e-01
1.003000000000000000e+03 3.820915603637695312e+01 -4.051699447631835938e+01 2.493894398212432861e-01 1.431400299072265625e+00 5.042369365692138672e-01 1.697328872978687286e-03
1.004000000000000000e+03 3.758175659179687500e+01 -3.292387771606445312e+01 1.095992475748062134e-01 1.424263954162597656e+00 4.601589441299438477e-01 2.372136712074279785e-02
1.005000000000000000e+03 3.655244445800781250e+01 -2.973152351379394531e+01 2.847514487802982330e-02 1.333455681800842285e+00 4.085792303085327148e-01 8.597590774297714233e-02
1.006000000000000000e+03 3.694235992431640625e+01 -2.803369140625000000e+01 -3.303746134042739868e-02 1.380138874053955078e+00 4.041304290294647217e-01 1.638222485780715942e-01
1.007000000000000000e+03 3.712966156005859375e+01 -2.628673934936523438e+01 -9.768334776163101196e-02 1.385273814201354980e+00 3.862771391868591309e-01 2.387745231389999390e-01
1.008000000000000000e+03 3.759117126464843750e+01 -2.475623512268066406e+01 -1.664932817220687866e-01 1.475651502609252930e+00 3.927474617958068848e-01 3.853655755519866943e-01
1.009000000000000000e+03 3.737943267822265625e+01 -2.271763420104980469e+01 -1.341249197721481323e-01 1.350313901901245117e+00 3.648567199707031250e-01 5.710343718528747559e-01
1.010000000000000000e+03 4.293556213378906250e+01 -3.745829772949218750e+01 2.089719474315643311e-01 1.915896058082580566e+00 6.374604105949401855e-01 1.541053759865462780e-03
1.011000000000000000e+03 4.256389999389648438e+01 -2.924396896362304688e+01 -1.266825795173645020e-01 1.970950245857238770e+00 5.532802939414978027e-01 -2.442915365099906921e-02
1.012000000000000000e+03 4.244169998168945312e+01 -2.731694793701171875e+01 -2.549924552440643311e-01 2.059485912322998047e+00 5.413479804992675781e-01 -5.779567174613475800e-03
1.013000000000000000e+03 4.242832565307617188e+01 -2.563378524780273438e+01 -4.506924450397491455e-01 2.182202100753784180e+00 5.194528698921203613e-01 -3.212180919945240021e-03
1.014000000000000000e+03 4.173720550537109375e+01 -2.346388053894042969e+01 -6.682014465332031250e-01 2.424502372741699219e+00 5.268902778625488281e-01 1.591191440820693970e-01
1.015000000000000000e+03 4.170949554443359375e+01 -2.129762458801269531e+01 -8.001329898834228516e-01 2.889427900314331055e+00 6.267884969711303711e-01 3.696769773960113525e-01
1.016000000000000000e+03 4.332653045654296875e+01 -1.837864685058593750e+01 -8.246304988861083984e-01 3.901746273040771484e+00 9.231346845626831055e-01 -3.050377666950225830e-01
1.017000000000000000e+03 4.609202957153320312e+01 -1.598434829711914062e+01 -5.287199020385742188e-01 2.275673866271972656e+00 5.240861773490905762e-01 -1.659070849418640137e-01
1.018000000000000000e+03 4.626103210449218750e+01 -1.179856681823730469e+01 -6.465057730674743652e-01 2.717998504638671875e+00 6.214478015899658203e-01 -2.254084218293428421e-03
1.019000000000000000e+03 4.601511383056640625e+01 -3.405492019653320312e+01 1.515271812677383423e-01 2.274558305740356445e+00 7.278256416320800781e-01 1.265295874327421188e-02
1.020000000000000000e+03 4.499535751342773438e+01 -3.134559631347656250e+01 3.015009686350822449e-02 2.108159780502319336e+00 6.414929628372192383e-01 -3.109983913600444794e-02
1.021000000000000000e+03 4.441940689086914062e+01 -2.914340209960937500e+01 -9.308007359504699707e-02 2.098147153854370117e+00 6.015201210975646973e-01 -6.029248237609863281e-02
1.022000000000000000e+03 4.409959030151367188e+01 -2.732767295837402344e+01 -2.560975849628448486e-01 2.124448776245117188e+00 5.605053305625915527e-01 -1.152645051479339600e-01
1.023000000000000000e+03 4.533279418945312500e+01 -2.570520019531250000e+01 -3.477763533592224121e-01 2.171313047409057617e+00 5.470610260963439941e-01 -2.517520487308502197e-01
1.024000000000000000e+03 4.411397552490234375e+01 -2.204392242431640625e+01 -8.444257974624633789e-01 2.718997955322265625e+00 5.623716711997985840e-01 -3.081446588039398193e-01
1.025000000000000000e+03 4.340370559692382812e+01 -2.115835571289062500e+01 -9.181267023086547852e-01 3.014574050903320312e+00 6.289341449737548828e-01 -1.433865576982498169e-01
1.026000000000000000e+03 4.549961090087890625e+01 -1.969016456604003906e+01 -8.957606554031372070e-01 2.658748388290405273e+00 5.288962721824645996e-01 -6.051156520843505859e-01
1.027000000000000000e+03 4.509566497802734375e+01 -1.662568664550781250e+01 -4.361192286014556885e-01 2.916432619094848633e+00 7.440940141677856445e-01 -3.361543118953704834e-01
1.028000000000000000e+03 4.801412582397460938e+01 -1.512251377105712891e+01 -7.961767315864562988e-01 5.337022542953491211e-01 -7.874233275651931763e-02 2.773452997207641602e-01
1.029000000000000000e+03 4.835617065429687500e+01 -1.332580566406250000e+01 -7.629488706588745117e-01 -5.048227906227111816e-01 -3.803314864635467529e-01 6.378376483917236328e-01
1.030000000000000000e+03 6.002749252319335938e+01 -3.736320495605468750e+01 3.483634814620018005e-02 4.549672126770019531e+00 1.375352621078491211e+00 3.915138915181159973e-02
1.031000000000000000e+03 4.735868453979492188e+01 -4.083117675781250000e+01 2.435706853866577148e-01 2.468391895294189453e+00 8.135887980461120605e-01 1.273027062416076660e-02
1.032000000000000000e+03 4.694308853149414062e+01 -3.735631561279296875e+01 2.091790884733200073e-01 2.404201507568359375e+00 7.840141654014587402e-01 1.317594572901725769e-02
1.033000000000000000e+03 4.689152908325195312e+01 -3.058963584899902344e+01 4.052666574716567993e-02 2.243681192398071289e+00 6.852623820304870605e-01 -2.882742881774902344e-02
1.034000000000000000e+03 4.611706924438476562e+01 -2.871551895141601562e+01 -6.839635223150253296e-02 2.161231040954589844e+00 6.278503537178039551e-01 -1.013002172112464905e-01
1.035000000000000000e+03 4.563045120239257812e+01 -2.709663772583007812e+01 -1.991467773914337158e-01 2.176877737045288086e+00 5.933192372322082520e-01 -1.624627560377120972e-01
1.036000000000000000e+03 4.656653976440429688e+01 -2.536877059936523438e+01 -2.793924212455749512e-01 2.155086517333984375e+00 5.627082586288452148e-01 -2.676214575767517090e-01
1.037000000000000000e+03 4.553836822509765625e+01 -2.181472778320312500e+01 -7.721123695373535156e-01 2.437382221221923828e+00 4.995809793472290039e-01 -5.270922780036926270e-01
1.038000000000000000e+03 4.525002670288085938e+01 -2.070776367187500000e+01 -8.953001499176025391e-01 2.656550407409667969e+00 5.283750295639038086e-01 -5.536717772483825684e-01
1.039000000000000000e+03 4.722653961181640625e+01 -1.792005729675292969e+01 -9.149549603462219238e-01 1.729179859161376953e+00 2.442674785852432251e-01 -4.301765859127044678e-01
1.040000000000000000e+03 4.734056091308593750e+01 -1.720390510559082031e+01 -9.550682306289672852e-01 1.557025551795959473e+00 1.805872023105621338e-01 -2.557098567485809326e-01
1.041000000000000000e+03 4.959860610961914062e+01 -1.550424385070800781e+01 -1.175525069236755371e+00 -5.309649705886840820e-01 -5.119469761848449707e-01 7.996951341629028320e-01
1.042000000000000000e+03 4.830326843261718750e+01 -3.269379806518554688e+01 1.311852037906646729e-01 2.493093013763427734e+00 7.872834801673889160e-01 4.559095576405525208e-02
1.043000000000000000e+03 4.843644332885742188e+01 -2.955094146728515625e+01 4.107318446040153503e-02 2.367710828781127930e+00 7.226352095603942871e-01 -5.002405494451522827e-03
1.044000000000000000e+03 4.768877029418945312e+01 -2.801703453063964844e+01 -3.545525297522544861e-02 2.236279726028442383e+00 6.602473258972167969e-01 -7.589571177959442139e-02
1.045000000000000000e+03 4.700146102905273438e+01 -2.663204765319824219e+01 -1.636215299367904663e-01 2.121909618377685547e+00 5.874864459037780762e-01 -1.931752562522888184e-01
1.046000000000000000e+03 4.774690628051757812e+01 -2.487674713134765625e+01 -2.483158260583877563e-01 2.035162210464477539e+00 5.360538959503173828e-01 -2.748978137969970703e-01
1.047000000000000000e+03 4.659968948364257812e+01 -2.117378234863281250e+01 -7.673257589340209961e-01 2.184306859970092773e+00 4.250943660736083984e-01 -6.127923727035522461e-01
1.048000000000000000e+03 4.654964447021484375e+01 -2.030595588684082031e+01 -8.724634051322937012e-01 2.217604398727416992e+00 4.035423398017883301e-01 -6.327842473983764648e-01
1.049000000000000000e+03 4.893637084960937500e+01 -1.809380912780761719e+01 -1.263962149620056152e+00 8.634781241416931152e-01 -1.201452240347862244e-01 -8.273795247077941895e-02
1.050000000000000000e+03 4.967387390136718750e+01 -1.648408889770507812e+01 -1.389995932579040527e+00 -1.411933451890945435e-01 -4.593567848205566406e-01 6.153828501701354980e-01
1.051000000000000000e+03 4.918476104736328125e+01 -1.600987625122070312e+01 -1.098589301109313965e+00 -3.256756067276000977e-02 -3.393470346927642822e-01 5.532924532890319824e-01
1.052000000000000000e+03 5.107209777832031250e+01 -3.707653427124023438e+01 1.790246814489364624e-01 2.999431848526000977e+00 9.535369873046875000e-01 7.636810839176177979e-02
1.053000000000000000e+03 5.065186691284179688e+01 -3.394013977050781250e+01 1.212672665715217590e-01 2.833376884460449219e+00 8.863932490348815918e-01 1.187986433506011963e-01
1.054000000000000000e+03 4.951511001586914062e+01 -3.085047149658203125e+01 8.895844966173171997e-02 2.600077629089355469e+00 8.067107796669006348e-01 1.118913367390632629e-01
1.055000000000000000e+03 4.997593307495117188e+01 -2.920572662353515625e+01 6.220129132270812988e-02 2.509724140167236328e+00 7.715775966644287109e-01 1.254073232412338257e-01
1.056000000000000000e+03 5.016881179809570312e+01 -2.759771728515625000e+01 2.149320952594280243e-02 2.390330076217651367e+00 7.235470414161682129e-01 1.035067439079284668e-01
1.057000000000000000e+03 4.928884506225585938e+01 -2.588190078735351562e+01 -6.219024211168289185e-02 2.102219343185424805e+00 6.120087504386901855e-01 -5.895609781146049500e-02
1.058000000000000000e+03 4.961123275756835938e+01 -2.467497253417968750e+01 -1.162034869194030762e-01 1.949280858039855957e+00 5.499232411384582520e-01 -6.857605278491973877e-02
1.059000000000000000e+03 4.939262390136718750e+01 -2.289319801330566406e+01 -3.224985301494598389e-01 1.602221369743347168e+00 3.839168548583984375e-01 -2.487432658672332764e-01
1.060000000000000000e+03 4.836068344116210938e+01 -2.008367156982421875e+01 -9.549766182899475098e-01 1.491831064224243164e+00 1.610563248395919800e-01 -5.227051377296447754e-01
1.061000000000000000e+03 5.124537658691406250e+01 -1.900932312011718750e+01 -1.835352540016174316e+00 5.971477180719375610e-02 -5.326913595199584961e-01 3.233473300933837891e-01
1.062000000000000000e+03 5.163893127441406250e+01 -1.669452476501464844e+01 -1.945183873176574707e+00 -1.452284932136535645e+00 -1.019240617752075195e+00 1.551896929740905762e+00
1.063000000000000000e+03 5.698584365844726562e+01 -4.069207382202148438e+01 1.119379997253417969e-01 3.972837448120117188e+00 1.225432634353637695e+00 3.141377493739128113e-02
1.064000000000000000e+03 5.300458908081054688e+01 -3.397473144531250000e+01 9.733777493238449097e-02 3.215575933456420898e+00 9.938740730285644531e-01 1.247553676366806030e-01
1.065000000000000000e+03 5.171333312988281250e+01 -2.947474861145019531e+01 3.016683645546436310e-02 2.832407236099243164e+00 8.587722182273864746e-01 2.477394044399261475e-01
1.066000000000000000e+03 5.163392639160156250e+01 -2.618438529968261719e+01 -2.002574689686298370e-02 2.408167123794555664e+00 7.164424061775207520e-01 3.437113165855407715e-01
1.067000000000000000e+03 5.167685699462890625e+01 -2.361958312988281250e+01 -8.236428350210189819e-02 1.834978342056274414e+00 5.257841944694519043e-01 4.332113564014434814e-01
1.068000000000000000e+03 5.170943832397460938e+01 -2.205303382873535156e+01 -2.519388198852539062e-01 1.210571885108947754e+00 2.875899076461791992e-01 4.305155575275421143e-01
1.069000000000000000e+03 5.107134246826171875e+01 -2.124523925781250000e+01 -5.649197697639465332e-01 7.300209403038024902e-01 4.953034594655036926e-02 2.733763493597507477e-02
1.070000000000000000e+03 5.329888916015625000e+01 -1.969946479797363281e+01 -1.099706053733825684e+00 -6.551683545112609863e-01 -5.264623165130615234e-01 8.372252583503723145e-01
1.071000000000000000e+03 5.158112335205078125e+01 -1.985444068908691406e+01 -1.486020684242248535e+00 1.478960514068603516e-01 -4.014374017715454102e-01 2.055063694715499878e-01
1.072000000000000000e+03 5.393305587768554688e+01 -3.615212631225585938e+01 1.231201440095901489e-01 3.463535785675048828e+00 1.075996756553649902e+00 9.026609361171722412e-02
1.073000000000000000e+03 5.488508605957031250e+01 -3.425638580322265625e+01 4.870823398232460022e-02 3.719822645187377930e+00 1.130559325218200684e+00 1.430938243865966797e-01
1.074000000000000000e+03 5.318837356567382812e+01 -3.185631752014160156e+01 2.685495279729366302e-02 3.241390705108642578e+00 9.804736971855163574e-01 1.904003918170928955e-01
1.075000000000000000e+03 5.354131698608398438e+01 -2.984148979187011719e+01 -3.717942535877227783e-02 3.268392086029052734e+00 9.693637490272521973e-01 3.259198665618896484e-01
1.076000000000000000e+03 5.321505355834960938e+01 -2.719426345825195312e+01 -9.946084022521972656e-02 3.010949611663818359e+00 8.734466433525085449e-01 4.776861071586608887e-01
1.077000000000000000e+03 5.440534210205078125e+01 -2.692599678039550781e+01 -2.303382903337478638e-01 3.452825307846069336e+00 9.667460918426513672e-01 6.404139399528503418e-01
1.078000000000000000e+03 5.311392974853515625e+01 -2.394546508789062500e+01 -1.751665174961090088e-01 2.529407501220703125e+00 7.062723040580749512e-01 8.588895201683044434e-01
1.079000000000000000e+03 5.315678024291992188e+01 -2.237282180786132812e+01 -2.082625180482864380e-01 1.909021735191345215e+00 5.102277398109436035e-01 1.164988756179809570e+00
1.080000000000000000e+03 5.315248870849609375e+01 -2.062972259521484375e+01 -4.538554549217224121e-01 6.227166056632995605e-01 5.065835267305374146e-02 1.426160931587219238e+00
1.081000000000000000e+03 5.409247207641601562e+01 -2.821943092346191406e+01 -1.457461863756179810e-01 3.382643699645996094e+00 9.710692763328552246e-01 4.587349891662597656e-01
1.082000000000000000e+03 5.465539932250976562e+01 -2.413506889343261719e+01 -4.696373641490936279e-01 3.537028312683105469e+00 9.202172756195068359e-01 1.173962235450744629e+00
1.083000000000000000e+03 5.608354949951171875e+01 -2.212860488891601562e+01 -1.341775655746459961e+00 5.116878032684326172e+00 1.132530689239501953e+00 1.592136025428771973e+00
1.084000000000000000e+03 5.569144439697265625e+01 -2.079667282104492188e+01 -1.681419730186462402e+00 5.247117519378662109e+00 1.069709300994873047e+00 2.574002504348754883e+00
1.085000000000000000e+03 5.485074234008789062e+01 -2.029558181762695312e+01 -1.383206009864807129e+00 3.056728124618530273e+00 5.020565986633300781e-01 3.001346588134765625e+00
1.086000000000000000e+03 5.701520538330078125e+01 -3.479222869873046875e+01 9.622650220990180969e-03 4.053513526916503906e+00 1.218940854072570801e+00 1.648742407560348511e-01
1.087000000000000000e+03 5.703298568725585938e+01 -3.251943969726562500e+01 -8.146955817937850952e-02 4.127734184265136719e+00 1.213879346847534180e+00 1.982187330722808838e-01
1.088000000000000000e+03 5.511943817138671875e+01 -3.221328353881835938e+01 -4.591225460171699524e-02 3.716103553771972656e+00 1.101057410240173340e+00 2.270616143941879272e-01
1.089000000000000000e+03 5.534816741943359375e+01 -3.028495216369628906e+01 -1.391203999519348145e-01 3.797914981842041016e+00 1.097638368606567383e+00 2.988640069961547852e-01
1.090000000000000000e+03 5.564369201660156250e+01 -2.853389549255371094e+01 -2.631375193595886230e-01 3.881752252578735352e+00 1.085584402084350586e+00 4.243052005767822266e-01
1.091000000000000000e+03 5.668886566162109375e+01 -2.660653686523437500e+01 -5.081954598426818848e-01 4.424399852752685547e+00 1.174861311912536621e+00 5.191370844841003418e-01
1.092000000000000000e+03 5.667468643188476562e+01 -2.367457771301269531e+01 -1.084318518638610840e+00 5.054762840270996094e+00 1.191133260726928711e+00 1.004024624824523926e+00
1.093000000000000000e+03 5.734682083129882812e+01 -2.196687698364257812e+01 -1.500783801078796387e+00 6.276704311370849609e+00 1.432776212692260742e+00 5.301994681358337402e-01
1.094000000000000000e+03 5.728799057006835938e+01 -2.001276588439941406e+01 -1.091207027435302734e+00 7.945726871490478516e+00 2.056355953216552734e+00 2.974523007869720459e-01
1.095000000000000000e+03 5.592442321777343750e+01 -1.764171218872070312e+01 1.938798546791076660e+00 1.636571121215820312e+01 5.491353034973144531e+00 2.214038372039794922e+00
1.096000000000000000e+03 5.588090133666992188e+01 -1.694007110595703125e+01 -2.254637777805328369e-01 1.557459354400634766e+01 4.604739189147949219e+00 -2.573367767035961151e-02
1.097000000000000000e+03 5.581533050537109375e+01 -1.543873405456542969e+01 2.367446422576904297e-01 1.467438220977783203e+01 4.473338127136230469e+00 -9.224578142166137695e-01
1.098000000000000000e+03 5.694268417358398438e+01 -1.375672912597656250e+01 8.616912364959716797e-01 1.105045413970947266e+01 3.573643684387207031e+00 -8.275443911552429199e-01
1.099000000000000000e+03 5.629769515991210938e+01 -1.225667667388916016e+01 1.056004166603088379e+00 1.025909709930419922e+01 3.394530534744262695e+00 -1.458009600639343262e+00
1.100000000000000000e+03 5.704466247558593750e+01 -9.638626098632812500e+00 7.210140228271484375e-01 8.070714950561523438e+00 2.637518644332885742e+00 -6.750349402427673340e-01
1.101000000000000000e+03 5.690839385986328125e+01 -8.680397033691406250e+00 5.882846713066101074e-01 7.528523921966552734e+00 2.435042619705200195e+00 -7.700536847114562988e-01
1.102000000000000000e+03 5.616857528686523438e+01 -7.213874340057373047e+00 1.527035832405090332e-01 6.649570941925048828e+00 2.040682315826416016e+00 -1.387535214424133301e+00
1.103000000000000000e+03 5.647894287109375000e+01 -5.334393978118896484e+00 -3.570458889007568359e-01 6.181047439575195312e+00 1.747200489044189453e+00 -2.097368240356445312e+00
1.104000000000000000e+03 5.590128326416015625e+01 -3.606168746948242188e+00 -1.319694280624389648e+00 6.099802970886230469e+00 1.434032559394836426e+00 -3.602343082427978516e+00
1.105000000000000000e+03 5.631778717041015625e+01 -9.132971763610839844e-01 -9.641134142875671387e-01 4.078398704528808594e+00 9.342855811119079590e-01 -5.876297473907470703e+00
1.106000000000000000e+03 5.771302032470703125e+01 8.216817975044250488e-01 -6.111932277679443359e+00 -1.587595343589782715e+00 -2.309858322143554688e+00 -2.992388248443603516e+00
1.107000000000000000e+03 5.932708740234375000e+01 2.284088850021362305e+00 -5.143301486968994141e+00 -1.656302332878112793e+00 -2.039881229400634766e+00 -2.856853723526000977e+00
1.108000000000000000e+03 6.118948745727539062e+01 3.763700008392333984e+00 -1.659976482391357422e+00 -1.667405962944030762e-01 -5.480151176452636719e-01 -8.139840960502624512e-01
1.109000000000000000e+03 6.270216369628906250e+01 5.587278842926025391e+00 1.976166069507598877e-01 1.300354003906250000e+00 4.493911862373352051e-01 6.412373781204223633e-01
1.110000000000000000e+03 6.173173904418945312e+01 4.347451686859130859e+00 -7.149693965911865234e-01 2.788446545600891113e-01 -1.308374255895614624e-01 -1.004186272621154785e-01
1.111000000000000000e+03 5.884481048583984375e+01 -3.250482177734375000e+01 -1.047763377428054810e-01 4.439801692962646484e+00 1.300507664680480957e+00 1.414903700351715088e-01
1.112000000000000000e+03 5.706427764892578125e+01 -3.055710220336914062e+01 -1.976132690906524658e-01 4.174133300781250000e+00 1.192956089973449707e+00 2.509938478469848633e-01
1.113000000000000000e+03 5.723839187622070312e+01 -2.879491043090820312e+01 -3.516204059123992920e-01 4.362443447113037109e+00 1.203246951103210449e+00 3.122117519378662109e-01
1.114000000000000000e+03 5.905688858032226562e+01 -2.772281074523925781e+01 -5.031111240386962891e-01 4.924559593200683594e+00 1.326434612274169922e+00 1.254299432039260864e-01
1.115000000000000000e+03 5.849033355712890625e+01 -2.481487464904785156e+01 -9.134455919265747070e-01 5.368769168853759766e+00 1.336596965789794922e+00 2.128354012966156006e-01
1.116000000000000000e+03 5.825103759765625000e+01 -2.250053215026855469e+01 -1.294164299964904785e+00 6.498153209686279297e+00 1.561196684837341309e+00 1.724535226821899414e-01
1.117000000000000000e+03 5.812149810791015625e+01 -2.051393508911132812e+01 -1.466537237167358398e+00 7.755725383758544922e+00 1.886756539344787598e+00 -5.244090557098388672e-01
1.118000000000000000e+03 5.823764801025390625e+01 -1.865861129760742188e+01 -5.309787765145301819e-02 8.309425354003906250e+00 2.476898193359375000e+00 -1.311609148979187012e+00
1.119000000000000000e+03 5.811616134643554688e+01 -1.461034870147705078e+01 1.020448565483093262e+00 9.777799606323242188e+00 3.239474296569824219e+00 -3.100443482398986816e-01
1.120000000000000000e+03 5.748453903198242188e+01 -1.346958732604980469e+01 9.408208131790161133e-01 1.023075771331787109e+01 3.351473569869995117e+00 -4.064781963825225830e-01
1.121000000000000000e+03 5.884939575195312500e+01 -1.242803859710693359e+01 8.708127737045288086e-01 8.873724937438964844e+00 2.923361301422119141e+00 1.101722009479999542e-02
1.122000000000000000e+03 5.777652359008789062e+01 -1.109534645080566406e+01 8.452031612396240234e-01 8.847826004028320312e+00 2.907908678054809570e+00 -2.722033858299255371e-01
1.123000000000000000e+03 5.804584121704101562e+01 -8.388418197631835938e+00 7.201077342033386230e-01 7.611752986907958984e+00 2.499558210372924805e+00 -3.188060224056243896e-01
1.124000000000000000e+03 5.802906036376953125e+01 -6.980448246002197266e+00 6.815514564514160156e-01 6.979977130889892578e+00 2.298458576202392578e+00 -7.072655558586120605e-01
1.125000000000000000e+03 5.887117767333984375e+01 -4.332200050354003906e+00 8.850572705268859863e-01 5.693304538726806641e+00 1.973508596420288086e+00 -1.391574740409851074e+00
1.126000000000000000e+03 5.785126876831054688e+01 -3.279556751251220703e+00 1.642531454563140869e-01 4.860462188720703125e+00 1.507414579391479492e+00 -2.629142522811889648e+00
1.127000000000000000e+03 5.742620468139648438e+01 -1.411236524581909180e+00 -6.227827072143554688e-01 2.966111421585083008e+00 7.029985785484313965e-01 -4.205031394958496094e+00
1.128000000000000000e+03 5.929058074951171875e+01 4.928106963634490967e-01 -3.480769157409667969e+00 8.903247714042663574e-01 -7.771332859992980957e-01 -8.817712068557739258e-01
1.129000000000000000e+03 6.089956665039062500e+01 1.442015886306762695e+00 -3.821566820144653320e+00 2.546196222305297852e+00 -3.826111853122711182e-01 3.963931202888488770e-01
1.130000000000000000e+03 6.288476943969726562e+01 3.533207893371582031e+00 -1.326130628585815430e+00 2.782888174057006836e+00 4.370272755622863770e-01 1.029442310333251953e+00
1.131000000000000000e+03 6.555698394775390625e+01 3.485178470611572266e+00 2.993461191654205322e-01 6.049209594726562500e+00 1.904566645622253418e+00 1.095324397087097168e+00
1.132000000000000000e+03 6.726676940917968750e+01 3.793486833572387695e+00 1.913691878318786621e+00 8.631303787231445312e+00 3.163498640060424805e+00 -4.620322883129119873e-01
1.133000000000000000e+03 6.949209594726562500e+01 3.716255426406860352e+00 3.409497737884521484e+00 2.047131156921386719e+01 7.164242744445800781e+00 -4.654796123504638672e+00
1.134000000000000000e+03 6.869596099853515625e+01 4.451796054840087891e+00 2.856489181518554688e+00 1.356725883483886719e+01 4.927124500274658203e+00 -2.616789579391479492e+00
1.135000000000000000e+03 6.944030761718750000e+01 4.434112071990966797e+00 1.081465005874633789e+00 2.044714736938476562e+01 6.458583831787109375e+00 -1.126963138580322266e+00
1.136000000000000000e+03 6.951472473144531250e+01 5.175248146057128906e+00 6.776262521743774414e-01 1.673090553283691406e+01 5.222559928894042969e+00 7.661932110786437988e-01
1.137000000000000000e+03 6.931228637695312500e+01 7.251467704772949219e+00 -1.485469102859497070e+00 9.519581794738769531e+00 2.410233736038208008e+00 -1.147551059722900391e+00
1.138000000000000000e+03 6.700594329833984375e+01 8.808718681335449219e+00 -1.082136034965515137e-01 1.291351318359375000e+01 3.841589927673339844e+00 -9.968883395195007324e-01
1.139000000000000000e+03 6.559355163574218750e+01 9.835691452026367188e+00 1.905655145645141602e+00 1.897960090637207031e+01 6.265576839447021484e+00 3.616943836212158203e+00
1.140000000000000000e+03 6.578323364257812500e+01 9.139927864074707031e+00 1.254226803779602051e+00 1.461019611358642578e+01 4.759326934814453125e+00 2.087528944015502930e+00
1.141000000000000000e+03 6.516757202148437500e+01 7.487165927886962891e+00 -3.267067372798919678e-01 9.481466293334960938e+00 2.746427774429321289e+00 1.492914915084838867e+00
1.142000000000000000e+03 6.587692260742187500e+01 5.664272785186767578e+00 -1.639732569456100464e-01 8.283749580383300781e+00 2.435932874679565430e+00 -4.542859196662902832e-01
1.143000000000000000e+03 6.683225250244140625e+01 4.393949985504150391e+00 1.261700153350830078e+00 8.339786529541015625e+00 2.880445957183837891e+00 -5.950245261192321777e-01
1.144000000000000000e+03 6.749886322021484375e+01 4.883396625518798828e+00 1.600230455398559570e+00 9.950396537780761719e+00 3.465188026428222656e+00 -1.658343315124511719e+00
1.145000000000000000e+03 5.672797775268554688e+01 -3.745227432250976562e+01 9.570924937725067139e-02 3.954633951187133789e+00 1.215102910995483398e+00 9.111116081476211548e-02
1.146000000000000000e+03 5.929212570190429688e+01 -3.471095657348632812e+01 -2.906065620481967926e-02 4.430062294006347656e+00 1.320300459861755371e+00 8.632174879312515259e-02
1.147000000000000000e+03 5.861945343017578125e+01 -3.067732620239257812e+01 -2.321936339139938354e-01 4.522974014282226562e+00 1.287234187126159668e+00 1.646168977022171021e-01
1.148000000000000000e+03 6.039573287963867188e+01 -2.824507522583007812e+01 -4.043419361114501953e-01 5.016977310180664062e+00 1.383790612220764160e+00 -5.751309916377067566e-02
1.149000000000000000e+03 6.089958572387695312e+01 -2.701221847534179688e+01 -5.093488097190856934e-01 5.315689086914062500e+00 1.441902041435241699e+00 -1.905938684940338135e-01
1.150000000000000000e+03 5.978111267089843750e+01 -2.429451179504394531e+01 -8.997726440429687500e-01 5.753833293914794922e+00 1.456218242645263672e+00 -3.140164613723754883e-01
1.151000000000000000e+03 5.948748016357421875e+01 -2.218710899353027344e+01 -1.009357571601867676e+00 6.545434474945068359e+00 1.660823106765747070e+00 -4.538735449314117432e-01
1.152000000000000000e+03 6.057519531250000000e+01 -1.985887145996093750e+01 -3.969689011573791504e-01 6.902783393859863281e+00 1.951744318008422852e+00 -1.393385291099548340e+00
1.153000000000000000e+03 6.021176147460937500e+01 -1.868380737304687500e+01 8.698155730962753296e-02 7.292879581451416016e+00 2.213958263397216797e+00 -1.370060801506042480e+00
1.154000000000000000e+03 6.041797256469726562e+01 -1.670966911315917969e+01 4.841555655002593994e-01 7.350464820861816406e+00 2.350386142730712891e+00 -1.147027015686035156e+00
1.155000000000000000e+03 5.971453475952148438e+01 -1.502045726776123047e+01 8.749832510948181152e-01 8.224472999572753906e+00 2.729836940765380859e+00 -4.867235124111175537e-01
1.156000000000000000e+03 5.961970901489257812e+01 -1.392289543151855469e+01 7.973781824111938477e-01 8.438174247741699219e+00 2.770665884017944336e+00 -2.194080948829650879e-01
1.157000000000000000e+03 5.973434066772460938e+01 -1.199891376495361328e+01 7.363477349281311035e-01 8.461587905883789062e+00 2.759380817413330078e+00 1.427006423473358154e-01
1.158000000000000000e+03 5.924831390380859375e+01 -1.008880138397216797e+01 8.325642943382263184e-01 8.329030036926269531e+00 2.748478412628173828e+00 2.276688218116760254e-01
1.159000000000000000e+03 5.962311172485351562e+01 -9.404616355895996094e+00 8.678815364837646484e-01 8.222082138061523438e+00 2.726989030838012695e+00 2.987957000732421875e-01
1.160000000000000000e+03 5.999513626098632812e+01 -6.781129360198974609e+00 1.240604043006896973e+00 7.804561614990234375e+00 2.713549613952636719e+00 1.432382315397262573e-01
1.161000000000000000e+03 6.058924102783203125e+01 -5.131925106048583984e+00 1.642526149749755859e+00 7.467319011688232422e+00 2.732953548431396484e+00 1.614838093519210815e-01
1.162000000000000000e+03 5.996129226684570312e+01 -3.666445970535278320e+00 1.081127166748046875e+00 5.840286731719970703e+00 2.076424121856689453e+00 -7.633709907531738281e-01
1.163000000000000000e+03 5.950928497314453125e+01 -1.155628919601440430e+00 -1.195436000823974609e+00 3.090654373168945312e+00 5.685654878616333008e-01 -8.271318078041076660e-01
1.164000000000000000e+03 6.269886779785156250e+01 1.913857698440551758e+00 -2.465755224227905273e+00 3.912371397018432617e+00 4.339848160743713379e-01 2.009916305541992188e+00
1.165000000000000000e+03 6.195030593872070312e+01 2.219472646713256836e+00 -3.056223630905151367e+00 2.911896944046020508e+00 -4.329805821180343628e-02 1.023443222045898438e+00
1.166000000000000000e+03 6.043801879882812500e+01 -3.212733840942382812e+01 -1.438913792371749878e-01 4.729722023010253906e+00 1.375749230384826660e+00 3.700397163629531860e-02
1.167000000000000000e+03 5.993438720703125000e+01 -3.060314369201660156e+01 -2.205470204353332520e-01 4.750293254852294922e+00 1.358923792839050293e+00 7.349761575460433960e-02
1.168000000000000000e+03 6.090707397460937500e+01 -3.009158325195312500e+01 -2.443756759166717529e-01 4.928228378295898438e+00 1.405155897140502930e+00 -3.986264020204544067e-02
1.169000000000000000e+03 6.237516403198242188e+01 -2.782151985168457031e+01 -2.764242589473724365e-01 5.254560470581054688e+00 1.493440866470336914e+00 -3.159315586090087891e-01
1.170000000000000000e+03 6.271096420288085938e+01 -2.648296928405761719e+01 -2.993372380733489990e-01 5.382204055786132812e+00 1.524860143661499023e+00 -4.222376942634582520e-01
1.171000000000000000e+03 6.110556793212890625e+01 -2.395667839050292969e+01 -6.428937911987304688e-01 5.721493721008300781e+00 1.523579955101013184e+00 -6.982781887054443359e-01
1.172000000000000000e+03 6.141730880737304688e+01 -2.204688835144042969e+01 -5.846811532974243164e-01 6.061658382415771484e+00 1.643093109130859375e+00 -1.188079357147216797e+00
1.173000000000000000e+03 6.206565093994140625e+01 -2.075975990295410156e+01 -3.405977487564086914e-01 6.092610836029052734e+00 1.725603938102722168e+00 -1.435140132904052734e+00
1.174000000000000000e+03 6.101780700683593750e+01 -1.908597183227539062e+01 -7.670890539884567261e-02 6.587726593017578125e+00 1.953305244445800781e+00 -1.606977820396423340e+00
1.175000000000000000e+03 6.112510681152343750e+01 -1.713601303100585938e+01 4.454934597015380859e-01 6.919172763824462891e+00 2.209399938583374023e+00 -1.288497328758239746e+00
1.176000000000000000e+03 6.145330047607421875e+01 -1.531682395935058594e+01 3.219330608844757080e-01 7.017880439758300781e+00 2.201944112777709961e+00 -8.942872881889343262e-01
1.177000000000000000e+03 6.225267791748046875e+01 -1.368411922454833984e+01 6.217813864350318909e-02 6.937778949737548828e+00 2.099987268447875977e+00 -6.924808621406555176e-01
1.178000000000000000e+03 6.175727081298828125e+01 -1.153319168090820312e+01 4.216714203357696533e-01 7.833350658416748047e+00 2.476506471633911133e+00 -1.055075675249099731e-01
1.179000000000000000e+03 6.190325546264648438e+01 -1.053300952911376953e+01 6.604282259941101074e-01 8.262884140014648438e+00 2.676993846893310547e+00 -5.964900553226470947e-02
1.180000000000000000e+03 6.137707901000976562e+01 -6.642431735992431641e+00 1.267091393470764160e+00 9.284157752990722656e+00 3.165374755859375000e+00 5.756126046180725098e-01
1.181000000000000000e+03 6.191299438476562500e+01 -5.075364112854003906e+00 2.047367811203002930e+00 9.450346946716308594e+00 3.449314355850219727e+00 1.150328278541564941e+00
1.182000000000000000e+03 6.067829132080078125e+01 -3.222598075866699219e+00 9.756060838699340820e-01 6.130687236785888672e+00 2.131887912750244141e+00 -5.261438488960266113e-01
1.183000000000000000e+03 6.132084655761718750e+01 -1.628900408744812012e+00 -1.481761097908020020e+00 6.099700927734375000e+00 1.385381937026977539e+00 3.064282238483428955e-01
1.184000000000000000e+03 6.358234024047851562e+01 -4.886256158351898193e-01 -3.437270879745483398e+00 5.890713214874267578e+00 7.360327243804931641e-01 4.088895320892333984e+00
1.185000000000000000e+03 6.530012512207031250e+01 2.401532649993896484e+00 -3.954941630363464355e-01 5.306083679199218750e+00 1.473176836967468262e+00 2.081187725067138672e+00
1.186000000000000000e+03 6.364975738525390625e+01 2.249892234802246094e+00 -1.621361494064331055e+00 4.166180610656738281e+00 7.634457349777221680e-01 2.279415845870971680e+00
1.187000000000000000e+03 6.122961044311523438e+01 -3.407131576538085938e+01 -4.444822296500205994e-02 4.811069488525390625e+00 1.429986357688903809e+00 2.929123491048812866e-02
1.188000000000000000e+03 6.414909362792968750e+01 -3.496257019042968750e+01 -3.227882320061326027e-03 5.311332702636718750e+00 1.592431426048278809e+00 -3.977601602673530579e-02
1.189000000000000000e+03 6.176354598999023438e+01 -3.137919807434082031e+01 -1.516415327787399292e-01 5.017925262451171875e+00 1.459885120391845703e+00 -3.477355092763900757e-02
1.190000000000000000e+03 6.286055374145507812e+01 -3.027146720886230469e+01 -1.511142402887344360e-01 5.172604084014892578e+00 1.506446957588195801e+00 -1.537128239870071411e-01
1.191000000000000000e+03 6.382002258300781250e+01 -2.892473030090332031e+01 -1.222048103809356689e-01 5.336519718170166016e+00 1.564294457435607910e+00 -2.558953166007995605e-01
1.192000000000000000e+03 6.400701141357421875e+01 -2.626441383361816406e+01 -1.393842250108718872e-01 5.353320598602294922e+00 1.564180850982666016e+00 -5.203891992568969727e-01
1.193000000000000000e+03 6.307929992675781250e+01 -2.409116744995117188e+01 -2.455147802829742432e-01 5.439922332763671875e+00 1.558322191238403320e+00 -8.762433528900146484e-01
1.194000000000000000e+03 6.318402099609375000e+01 -2.258333206176757812e+01 -2.509967982769012451e-01 5.494864940643310547e+00 1.573160409927368164e+00 -1.205507159233093262e+00
1.195000000000000000e+03 6.394371795654296875e+01 -2.032750892639160156e+01 1.769658178091049194e-02 5.128933429718017578e+00 1.543989062309265137e+00 -1.579783439636230469e+00
1.196000000000000000e+03 6.321119308471679688e+01 -1.887377166748046875e+01 -5.086820945143699646e-02 5.586800575256347656e+00 1.660779714584350586e+00 -1.691510438919067383e+00
1.197000000000000000e+03 6.295578765869140625e+01 -1.717403030395507812e+01 -1.871450431644916534e-02 5.707347869873046875e+00 1.706589937210083008e+00 -1.616792917251586914e+00
1.198000000000000000e+03 6.294629287719726562e+01 -1.480056095123291016e+01 -9.137468785047531128e-02 6.097312927246093750e+00 1.801781535148620605e+00 -1.116117835044860840e+00
1.199000000000000000e+03 6.385226440429687500e+01 -1.334514331817626953e+01 -3.132963553071022034e-02 5.538167953491210938e+00 1.652051448822021484e+00 -1.104976296424865723e+00
1.200000000000000000e+03 6.396869277954101562e+01 -1.230219554901123047e+01 2.197204679250717163e-01 5.759493350982666016e+00 1.793764114379882812e+00 -1.180019617080688477e+00
1.201000000000000000e+03 6.373063659667968750e+01 -8.714119911193847656e+00 8.061976432800292969e-01 1.073306846618652344e+01 3.461779594421386719e+00 -1.966626405715942383e+00
1.202000000000000000e+03 6.329553985595703125e+01 -9.754677772521972656e+00 9.205403327941894531e-01 8.740483283996582031e+00 2.898307085037231445e+00 -1.183544397354125977e+00
1.203000000000000000e+03 6.358447647094726562e+01 -7.923699378967285156e+00 3.935451507568359375e-01 1.152131557464599609e+01 3.574458360671997070e+00 -1.426733016967773438e+00
1.204000000000000000e+03 6.337969589233398438e+01 -5.546726226806640625e+00 4.145544171333312988e-01 1.392064952850341797e+01 4.300560951232910156e+00 1.670843362808227539e-01
1.205000000000000000e+03 6.268192672729492188e+01 -5.661060333251953125e+00 7.113322019577026367e-01 1.221437358856201172e+01 3.877711772918701172e+00 6.129491925239562988e-01
1.206000000000000000e+03 6.334311294555664062e+01 -3.906077384948730469e+00 2.407855033874511719e+00 1.578747844696044922e+01 5.458600044250488281e+00 3.066431999206542969e+00
1.207000000000000000e+03 6.360799407958984375e+01 -3.119110822677612305e+00 2.718073129653930664e+00 1.195914649963378906e+01 4.403165817260742188e+00 3.908516407012939453e+00
1.208000000000000000e+03 6.308013534545898438e+01 -1.953541040420532227e+00 -2.386246919631958008e+00 9.845160484313964844e+00 2.237673997879028320e+00 2.482648849487304688e+00
1.209000000000000000e+03 6.392397689819335938e+01 -2.305387496948242188e+00 -1.502977490425109863e+00 8.075749397277832031e+00 1.971831440925598145e+00 3.782961130142211914e+00
1.210000000000000000e+03 6.617661285400390625e+01 -2.239370107650756836e+00 -6.759602546691894531e+00 -1.309161305427551270e+00 -2.420629024505615234e+00 2.300709486007690430e+00
1.211000000000000000e+03 6.696340179443359375e+01 -3.530297756195068359e+00 -2.944474220275878906e+00 -1.036877274513244629e+00 -1.194405436515808105e+00 2.070795059204101562e+00
1.212000000000000000e+03 6.694250488281250000e+01 -1.879764199256896973e+00 -4.000655174255371094e+00 1.819497227668762207e+00 -6.543474197387695312e-01 1.068864539265632629e-01
1.213000000000000000e+03 6.827621459960937500e+01 2.313053905963897705e-01 -2.204416513442993164e+00 6.448283195495605469e+00 1.273159980773925781e+00 -5.742191672325134277e-01
1.214000000000000000e+03 6.943073272705078125e+01 2.045786619186401367e+00 6.927520036697387695e-01 1.106739234924316406e+01 3.528043270111083984e+00 -1.926219940185546875e+00
1.215000000000000000e+03 6.995587921142578125e+01 2.661638498306274414e+00 4.275316238403320312e+00 1.301556587219238281e+01 5.187264919281005859e+00 -6.331279754638671875e+00
1.216000000000000000e+03 6.786559295654296875e+01 -4.099837875366210938e+01 4.980234056711196899e-02 5.863663196563720703e+00 1.774039626121520996e+00 -1.548958593048155308e-03
1.217000000000000000e+03 6.149370193481445312e+01 -4.065209579467773438e+01 6.337525695562362671e-02 4.849477767944335938e+00 1.473855853080749512e+00 7.214214652776718140e-03
1.218000000000000000e+03 6.279242324829101562e+01 -3.304105377197265625e+01 -6.497884541749954224e-02 5.069783210754394531e+00 1.501441240310668945e+00 -5.125193670392036438e-02
1.219000000000000000e+03 6.407762908935546875e+01 -3.173128890991210938e+01 -5.831215158104896545e-02 5.329965114593505859e+00 1.581495881080627441e+00 -1.149893254041671753e-01
1.220000000000000000e+03 6.514809417724609375e+01 -3.032897186279296875e+01 -2.683950029313564301e-02 5.451187133789062500e+00 1.627304315567016602e+00 -1.814376413822174072e-01
1.221000000000000000e+03 6.612668609619140625e+01 -2.900598144531250000e+01 4.053970426321029663e-02 5.532124519348144531e+00 1.671799182891845703e+00 -2.187391519546508789e-01
1.222000000000000000e+03 6.513677978515625000e+01 -2.543437004089355469e+01 5.981083028018474579e-03 5.321102142333984375e+00 1.598124980926513672e+00 -6.006972789764404297e-01
1.223000000000000000e+03 6.438420867919921875e+01 -2.444688415527343750e+01 -3.131476417183876038e-02 5.266207695007324219e+00 1.570467829704284668e+00 -7.767798900604248047e-01
1.224000000000000000e+03 6.449615478515625000e+01 -2.237941741943359375e+01 1.102473866194486618e-02 5.167300224304199219e+00 1.553497433662414551e+00 -1.162354469299316406e+00
1.225000000000000000e+03 6.520796203613281250e+01 -2.035366630554199219e+01 2.060709893703460693e-01 4.569949150085449219e+00 1.432806015014648438e+00 -1.423687458038330078e+00
1.226000000000000000e+03 6.457893371582031250e+01 -1.852913093566894531e+01 1.180317904800176620e-02 4.740024089813232422e+00 1.425548076629638672e+00 -1.624735236167907715e+00
1.227000000000000000e+03 6.452362823486328125e+01 -1.738759040832519531e+01 -1.059678569436073303e-01 4.757629871368408203e+00 1.395498633384704590e+00 -1.650772929191589355e+00
1.228000000000000000e+03 6.529254913330078125e+01 -1.509484481811523438e+01 -5.335506200790405273e-01 3.779113531112670898e+00 9.736688733100891113e-01 -1.255426645278930664e+00
1.229000000000000000e+03 6.497910308837890625e+01 -1.353935718536376953e+01 -3.065014071762561798e-02 3.940926313400268555e+00 1.173082828521728516e+00 -1.231034159660339355e+00
1.230000000000000000e+03 6.674976348876953125e+01 -1.329541873931884766e+01 1.587945595383644104e-02 8.046628236770629883e-01 2.461626976728439331e-01 -4.550212919712066650e-01
1.231000000000000000e+03 6.568035888671875000e+01 -1.215828227996826172e+01 8.026033639907836914e-01 2.019507884979248047e+00 8.466333746910095215e-01 -1.344333410263061523e+00
1.232000000000000000e+03 6.515547943115234375e+01 -1.156805038452148438e+01 1.321468234062194824e+00 3.444531440734863281e+00 1.429799914360046387e+00 -1.933787703514099121e+00
1.233000000000000000e+03 6.449372100830078125e+01 -3.923998260498046875e+01 5.814922973513603210e-02 5.344923496246337891e+00 1.620921850204467773e+00 8.839584887027740479e-03
1.234000000000000000e+03 6.548107147216796875e+01 -3.331398773193359375e+01 1.355637330561876297e-03 5.525478363037109375e+00 1.658050179481506348e+00 -6.453270465135574341e-02
1.235000000000000000e+03 6.654131317138671875e+01 -3.169798088073730469e+01 3.567018732428550720e-02 5.669815540313720703e+00 1.711645722389221191e+00 -9.076628088951110840e-02
1.236000000000000000e+03 6.744255065917968750e+01 -3.021621704101562500e+01 7.087603956460952759e-02 5.735508441925048828e+00 1.741915345191955566e+00 -1.102223023772239685e-01
1.237000000000000000e+03 6.704795837402343750e+01 -2.556026840209960938e+01 2.119988054037094116e-01 5.313661098480224609e+00 1.657697916030883789e+00 -3.763246536254882812e-01
1.238000000000000000e+03 6.610899353027343750e+01 -2.437753677368164062e+01 2.019305080175399780e-01 5.132350444793701172e+00 1.600284218788146973e+00 -6.304095983505249023e-01
1.239000000000000000e+03 6.696657562255859375e+01 -2.326320266723632812e+01 3.499400913715362549e-01 4.895908355712890625e+00 1.573754549026489258e+00 -5.643571615219116211e-01
1.240000000000000000e+03 6.794984436035156250e+01 -2.081506538391113281e+01 5.696777701377868652e-01 4.109152317047119141e+00 1.403649091720581055e+00 -3.861653208732604980e-01
1.241000000000000000e+03 6.717536163330078125e+01 -1.897369003295898438e+01 3.281981945037841797e-01 3.418669700622558594e+00 1.124060392379760742e+00 -1.010671854019165039e+00
1.242000000000000000e+03 6.581681060791015625e+01 -1.713566589355468750e+01 -2.370977848768234253e-01 3.606751680374145508e+00 1.010896205902099609e+00 -1.527539849281311035e+00
1.243000000000000000e+03 6.643209075927734375e+01 -1.526018428802490234e+01 -8.606599569320678711e-01 2.540429830551147461e+00 5.039309859275817871e-01 -8.628629446029663086e-01
1.244000000000000000e+03 6.781610870361328125e+01 -1.442735862731933594e+01 -7.436661720275878906e-01 4.669924080371856689e-02 -2.090900838375091553e-01 1.956478953361511230e-01
1.245000000000000000e+03 6.728034973144531250e+01 -1.386689853668212891e+01 -1.667973548173904419e-01 4.553313553333282471e-01 8.656020462512969971e-02 -3.079034201800823212e-02
1.246000000000000000e+03 7.194359588623046875e+01 -4.120028686523437500e+01 3.263928741216659546e-02 6.705120086669921875e+00 2.021327733993530273e+00 9.997497312724590302e-03
1.247000000000000000e+03 6.915126800537109375e+01 -3.590744018554687500e+01 5.390755459666252136e-02 6.127378463745117188e+00 1.854385852813720703e+00 2.994635701179504395e-02
1.248000000000000000e+03 6.718162536621093750e+01 -3.479334259033203125e+01 4.501140490174293518e-02 5.814916133880615234e+00 1.757978200912475586e+00 -9.494220837950706482e-03
1.249000000000000000e+03 6.604257202148437500e+01 -3.688211059570312500e+01 4.542280361056327820e-02 5.635789871215820312e+00 1.704363703727722168e+00 -4.548960714600980282e-05
1.250000000000000000e+03 6.809038543701171875e+01 -3.292652893066406250e+01 5.955741927027702332e-02 5.916037559509277344e+00 1.792678475379943848e+00 -2.267148904502391815e-02
1.251000000000000000e+03 6.886106109619140625e+01 -3.126700019836425781e+01 9.727767109870910645e-02 5.999112129211425781e+00 1.828916907310485840e+00 -2.676432020962238312e-02
1.252000000000000000e+03 6.953896331787109375e+01 -2.979586029052734375e+01 1.227163597941398621e-01 6.039042472839355469e+00 1.848527669906616211e+00 -1.748545467853546143e-02
1.253000000000000000e+03 6.904939270019531250e+01 -2.765885353088378906e+01 1.715730279684066772e-01 5.820376396179199219e+00 1.797584891319274902e+00 -7.577672600746154785e-02
1.254000000000000000e+03 6.880688476562500000e+01 -2.575909423828125000e+01 2.497942149639129639e-01 5.555144309997558594e+00 1.741481542587280273e+00 -1.226188465952873230e-01
1.255000000000000000e+03 6.905876159667968750e+01 -2.228241920471191406e+01 4.548221230506896973e-01 4.884883880615234375e+00 1.601911783218383789e+00 1.216825004667043686e-02
1.256000000000000000e+03 6.872962951660156250e+01 -2.028662872314453125e+01 5.819934010505676270e-01 3.834539175033569336e+00 1.324959754943847656e+00 2.239556983113288879e-02
1.257000000000000000e+03 6.833089447021484375e+01 -1.673314666748046875e+01 -7.007651925086975098e-01 1.377654314041137695e+00 2.030667513608932495e-01 -6.781243681907653809e-01
1.258000000000000000e+03 6.916647338867187500e+01 -1.633067893981933594e+01 -2.236843109130859375e+00 -3.572345972061157227e-01 -7.782233357429504395e-01 5.210812687873840332e-01
1.259000000000000000e+03 6.832417297363281250e+01 -1.500626564025878906e+01 -8.310865163803100586e-01 -2.298132330179214478e-01 -3.182699382305145264e-01 7.212047576904296875e-01
1.260000000000000000e+03 6.880186462402343750e+01 -1.560025501251220703e+01 -2.651574134826660156e+00 -6.904212832450866699e-01 -1.002598643302917480e+00 9.802309870719909668e-01
1.261000000000000000e+03 6.854228210449218750e+01 -3.823500442504882812e+01 5.275191366672515869e-02 6.035991668701171875e+00 1.826623082160949707e+00 1.611869968473911285e-02
1.262000000000000000e+03 7.036288452148437500e+01 -3.211782073974609375e+01 9.118552505970001221e-02 6.266711711883544922e+00 1.907369256019592285e+00 2.634973265230655670e-02
1.263000000000000000e+03 7.088637542724609375e+01 -3.053256034851074219e+01 1.210335344076156616e-01 6.321928024291992188e+00 1.932888507843017578e+00 4.112286493182182312e-02
1.264000000000000000e+03 7.132321929931640625e+01 -2.911651992797851562e+01 1.335304230451583862e-01 6.358539581298828125e+00 1.947621107101440430e+00 7.032480835914611816e-02
1.265000000000000000e+03 7.080642700195312500e+01 -2.722463989257812500e+01 1.755075454711914062e-01 6.135839462280273438e+00 1.893404126167297363e+00 6.721624732017517090e-02
1.266000000000000000e+03 6.980017852783203125e+01 -2.648857879638671875e+01 2.350328266620635986e-01 5.859215259552001953e+00 1.828274488449096680e+00 -1.358827343210577965e-03
1.267000000000000000e+03 7.068592071533203125e+01 -2.420854187011718750e+01 2.545107305049896240e-01 5.832992076873779297e+00 1.826250910758972168e+00 1.981081068515777588e-01
1.268000000000000000e+03 7.009102630615234375e+01 -2.248894309997558594e+01 3.318608403205871582e-01 5.357894420623779297e+00 1.706926584243774414e+00 2.641224861145019531e-01
1.269000000000000000e+03 7.066139984130859375e+01 -2.069524765014648438e+01 2.135912179946899414e-01 5.202747344970703125e+00 1.624901533126831055e+00 7.459980845451354980e-01
1.270000000000000000e+03 7.075077056884765625e+01 -1.873586082458496094e+01 -8.708750456571578979e-02 4.794841289520263672e+00 1.412326097488403320e+00 1.528305053710937500e+00
1.271000000000000000e+03 7.021160125732421875e+01 -1.693544960021972656e+01 3.161164745688438416e-02 1.586982727050781250e+00 4.855783283710479736e-01 2.277294635772705078e+00
1.272000000000000000e+03 6.997728729248046875e+01 -1.609934616088867188e+01 -3.392777681350708008e+00 -5.303633585572242737e-02 -1.033744215965270996e+00 1.291356921195983887e+00
1.273000000000000000e+03 7.117352294921875000e+01 -3.649808502197265625e+01 5.842876806855201721e-02 6.457151889801025391e+00 1.954674124717712402e+00 3.123747929930686951e-02
1.274000000000000000e+03 7.140824890136718750e+01 -3.453576660156250000e+01 6.263533979654312134e-02 6.499094486236572266e+00 1.968518972396850586e+00 3.988620638847351074e-02
1.275000000000000000e+03 7.191522216796875000e+01 -3.275558090209960938e+01 9.311468154191970825e-02 6.586832523345947266e+00 2.003984212875366211e+00 6.254240125417709351e-02
1.276000000000000000e+03 7.231904602050781250e+01 -3.105147361755371094e+01 9.397064894437789917e-02 6.618654727935791016e+00 2.013787746429443359e+00 8.016235381364822388e-02
1.277000000000000000e+03 7.177395629882812500e+01 -2.789245605468750000e+01 1.611828655004501343e-01 6.411478519439697266e+00 1.971798419952392578e+00 1.106587350368499756e-01
1.278000000000000000e+03 7.150277709960937500e+01 -2.632320594787597656e+01 1.861913949251174927e-01 6.234886646270751953e+00 1.926323413848876953e+00 1.404042094945907593e-01
1.279000000000000000e+03 7.125566864013671875e+01 -2.545267295837402344e+01 2.012422084808349609e-01 6.127509593963623047e+00 1.898625493049621582e+00 1.643495112657546997e-01
1.280000000000000000e+03 7.201369476318359375e+01 -2.227166557312011719e+01 2.798552811145782471e-02 6.154982089996337891e+00 1.854890227317810059e+00 5.546532869338989258e-01
1.281000000000000000e+03 7.282846832275390625e+01 -2.071186637878417969e+01 -3.539204001426696777e-01 6.788138389587402344e+00 1.930265426635742188e+00 7.526965737342834473e-01
1.282000000000000000e+03 7.203830718994140625e+01 -1.723496437072753906e+01 -1.181280970573425293e+00 7.541171073913574219e+00 1.907967090606689453e+00 1.900107383728027344e+00
1.283000000000000000e+03 7.253122711181640625e+01 -1.609083366394042969e+01 -6.300629973411560059e-01 9.394354820251464844e+00 2.629287481307983398e+00 6.614071130752563477e-01
1.284000000000000000e+03 7.072401428222656250e+01 -1.591131019592285156e+01 -4.930651485919952393e-01 2.274708032608032227e+00 5.344928503036499023e-01 1.964227914810180664e+00
1.285000000000000000e+03 7.125421142578125000e+01 -3.871422195434570312e+01 2.820698171854019165e-02 6.485867500305175781e+00 1.954222321510314941e+00 2.502117678523063660e-02
1.286000000000000000e+03 7.339835357666015625e+01 -3.853336334228515625e+01 2.104702033102512360e-02 6.885581016540527344e+00 2.071988344192504883e+00 -6.255845539271831512e-03
1.287000000000000000e+03 7.292732238769531250e+01 -3.662424850463867188e+01 4.450120031833648682e-02 6.780614852905273438e+00 2.047534704208374023e+00 2.483748085796833038e-02
1.288000000000000000e+03 7.330171203613281250e+01 -3.355604553222656250e+01 5.791899561882019043e-02 6.856483936309814453e+00 2.074320793151855469e+00 5.530717596411705017e-02
1.289000000000000000e+03 7.428057861328125000e+01 -3.256333923339843750e+01 6.269695609807968140e-02 7.040094375610351562e+00 2.130837440490722656e+00 8.017548918724060059e-02
1.290000000000000000e+03 7.373948669433593750e+01 -3.104189300537109375e+01 7.616427540779113770e-02 6.924260139465332031e+00 2.100127458572387695e+00 9.792167693376541138e-02
1.291000000000000000e+03 7.362561035156250000e+01 -2.958716964721679688e+01 9.309877455234527588e-02 6.864061355590820312e+00 2.087147951126098633e+00 1.275706589221954346e-01
1.292000000000000000e+03 7.390692138671875000e+01 -2.564101982116699219e+01 6.733955442905426025e-02 6.937968730926513672e+00 2.101592540740966797e+00 2.448836117982864380e-01
1.293000000000000000e+03 7.360901641845703125e+01 -2.351518249511718750e+01 -4.580020532011985779e-02 6.906516551971435547e+00 2.058214902877807617e+00 3.721507191658020020e-01
1.294000000000000000e+03 7.457149505615234375e+01 -1.855815124511718750e+01 -7.609398961067199707e-01 8.392694473266601562e+00 2.289526224136352539e+00 1.802393496036529541e-01
1.295000000000000000e+03 7.370161437988281250e+01 -1.671759033203125000e+01 -7.744376659393310547e-01 9.229715347290039062e+00 2.536583423614501953e+00 2.578651346266269684e-02
1.296000000000000000e+03 7.490264129638671875e+01 -1.522221660614013672e+01 5.856068730354309082e-01 9.265972137451171875e+00 2.955473899841308594e+00 -3.889269530773162842e-01
1.297000000000000000e+03 7.525731658935546875e+01 -1.364105510711669922e+01 9.363158345222473145e-01 9.331804275512695312e+00 3.080435991287231445e+00 -1.101819574832916260e-01
1.298000000000000000e+03 7.509146118164062500e+01 -1.160446166992187500e+01 1.113331556320190430e+00 9.515680313110351562e+00 3.188703536987304688e+00 3.483924567699432373e-01
1.299000000000000000e+03 7.493077087402343750e+01 -1.028019046783447266e+01 1.106384992599487305e+00 9.394507408142089844e+00 3.150267601013183594e+00 5.891960859298706055e-01
1.300000000000000000e+03 7.525331115722656250e+01 -8.564263343811035156e+00 7.755031585693359375e-01 8.803339958190917969e+00 2.873652935028076172e+00 1.082799077033996582e+00
1.301000000000000000e+03 7.493820190429687500e+01 -4.271679878234863281e+00 -2.077890634536743164e-01 6.918562889099121094e+00 2.013231992721557617e+00 8.252807259559631348e-01
1.302000000000000000e+03 7.474353790283203125e+01 -3.269280910491943359e+00 -3.485847711563110352e-01 6.083898544311523438e+00 1.720594048500061035e+00 5.425113439559936523e-01
1.303000000000000000e+03 7.507147216796875000e+01 -1.529452681541442871e+00 -1.060436367988586426e+00 5.202835559844970703e+00 1.242719650268554688e+00 7.202988862991333008e-01
1.304000000000000000e+03 7.820912933349609375e+01 2.924140691757202148e-01 -8.524211645126342773e-01 1.144669342041015625e+01 3.178281545639038086e+00 -9.798797965049743652e-02
1.305000000000000000e+03 7.731251525878906250e+01 3.382337808609008789e+00 -4.733866155147552490e-01 1.061316299438476562e+01 3.041932821273803711e+00 -2.620526552200317383e+00
1.306000000000000000e+03 7.679360961914062500e+01 5.044037342071533203e+00 3.994124233722686768e-01 1.314791107177734375e+01 4.064197063446044922e+00 -1.649669051170349121e+00
1.307000000000000000e+03 7.729452514648437500e+01 7.867161273956298828e+00 2.152635335922241211e+00 1.113493537902832031e+01 3.986271142959594727e+00 -6.448448896408081055e-01
1.308000000000000000e+03 7.758821105957031250e+01 8.540544509887695312e+00 6.991351842880249023e-01 9.325249671936035156e+00 3.007315635681152344e+00 2.151145190000534058e-01
1.309000000000000000e+03 7.800536346435546875e+01 1.091702175140380859e+01 -4.642495512962341309e-01 7.586750984191894531e+00 2.136750459671020508e+00 3.025519475340843201e-02
1.310000000000000000e+03 7.794524383544921875e+01 1.261759662628173828e+01 -1.865578889846801758e-01 6.815807342529296875e+00 1.988774895668029785e+00 -4.618225097656250000e-01
1.311000000000000000e+03 7.744515991210937500e+01 1.434180927276611328e+01 2.913868613541126251e-02 6.286103725433349609e+00 1.894572734832763672e+00 -5.528576374053955078e-01
1.312000000000000000e+03 7.729723358154296875e+01 1.582547855377197266e+01 1.660744249820709229e-01 6.001232147216796875e+00 1.850191950798034668e+00 -4.197828471660614014e-01
1.313000000000000000e+03 7.735726165771484375e+01 1.730732345581054688e+01 1.949846148490905762e-01 5.859736442565917969e+00 1.816416263580322266e+00 -2.417809963226318359e-01
1.314000000000000000e+03 7.787880706787109375e+01 1.965592002868652344e+01 7.956646382808685303e-02 5.818668365478515625e+00 1.769470453262329102e+00 5.594026762992143631e-03
1.315000000000000000e+03 7.781529998779296875e+01 2.131176185607910156e+01 4.485800862312316895e-02 5.855838298797607422e+00 1.770208954811096191e+00 9.123171120882034302e-02
1.316000000000000000e+03 7.773258972167968750e+01 2.296706008911132812e+01 1.990150660276412964e-02 5.921847343444824219e+00 1.782524585723876953e+00 1.366223841905593872e-01
1.317000000000000000e+03 7.764910888671875000e+01 2.467854499816894531e+01 3.063982352614402771e-03 6.001101493835449219e+00 1.801249742507934570e+00 1.548918932676315308e-01
1.318000000000000000e+03 7.668232727050781250e+01 2.656995964050292969e+01 -1.203514169901609421e-02 6.101889133453369141e+00 1.826956272125244141e+00 1.871876567602157593e-01
1.319000000000000000e+03 7.685240936279296875e+01 2.802334594726562500e+01 -2.222466282546520233e-02 6.151206970214843750e+00 1.838694691658020020e+00 1.746966987848281860e-01
1.320000000000000000e+03 7.775536346435546875e+01 2.948392105102539062e+01 -6.570609752088785172e-03 6.210865974426269531e+00 1.861288547515869141e+00 1.224282011389732361e-01
1.321000000000000000e+03 7.750231933593750000e+01 3.102620506286621094e+01 -1.570775546133518219e-02 6.263904094696044922e+00 1.874458909034729004e+00 1.208214461803436279e-01
1.322000000000000000e+03 7.734918975830078125e+01 3.296051788330078125e+01 -1.854540221393108368e-02 6.329471588134765625e+00 1.893277764320373535e+00 1.074640974402427673e-01
1.323000000000000000e+03 7.672807312011718750e+01 3.478890228271484375e+01 -2.825237624347209930e-02 6.339780807495117188e+00 1.893458604812622070e+00 9.845224022865295410e-02
1.324000000000000000e+03 7.727132415771484375e+01 3.684034729003906250e+01 -1.427526585757732391e-02 6.408426761627197266e+00 1.918245434761047363e+00 5.265491455793380737e-02
1.325000000000000000e+03 7.771074676513671875e+01 3.871701812744140625e+01 -2.756460336968302727e-03 6.459448814392089844e+00 1.937007784843444824e+00 3.883297368884086609e-02
1.326000000000000000e+03 7.738315582275390625e+01 4.041921234130859375e+01 -2.275373041629791260e-02 6.436594963073730469e+00 1.924152374267578125e+00 2.177153900265693665e-02
1.327000000000000000e+03 7.679327392578125000e+01 4.169823837280273438e+01 -2.339677885174751282e-02 6.420331954956054688e+00 1.919080615043640137e+00 7.006535306572914124e-03
1.328000000000000000e+03 7.484892272949218750e+01 4.034049606323242188e+01 -4.294236749410629272e-02 6.273716449737548828e+00 1.869232296943664551e+00 4.084552824497222900e-02
1.329000000000000000e+03 7.638359832763671875e+01 3.916926574707031250e+01 -1.835593767464160919e-02 6.388076305389404297e+00 1.910916090011596680e+00 3.751331940293312073e-02
1.330000000000000000e+03 7.576484680175781250e+01 3.739264678955078125e+01 -3.788105770945549011e-02 6.328463077545166016e+00 1.887174725532531738e+00 7.788269221782684326e-02
1.331000000000000000e+03 7.527227020263671875e+01 3.564228820800781250e+01 -4.686908051371574402e-02 6.261337280273437500e+00 1.864340543746948242e+00 1.071756482124328613e-01
1.332000000000000000e+03 7.487915039062500000e+01 3.414571762084960938e+01 -5.642393603920936584e-02 6.223870277404785156e+00 1.850233912467956543e+00 1.368457227945327759e-01
1.333000000000000000e+03 7.455129241943359375e+01 3.292290878295898438e+01 -5.770486220717430115e-02 6.185889244079589844e+00 1.838455319404602051e+00 1.641881316900253296e-01
1.334000000000000000e+03 7.475547027587890625e+01 3.107717132568359375e+01 -4.743324965238571167e-02 6.173905849456787109e+00 1.837941884994506836e+00 1.835362166166305542e-01
1.335000000000000000e+03 7.559812927246093750e+01 2.889891433715820312e+01 -3.242662176489830017e-02 6.157727718353271484e+00 1.837590336799621582e+00 1.993256658315658569e-01
1.336000000000000000e+03 7.605222320556640625e+01 2.778868484497070312e+01 -2.413555048406124115e-02 6.141938209533691406e+00 1.835340738296508789e+00 2.003259211778640747e-01
1.337000000000000000e+03 7.560614013671875000e+01 2.580278015136718750e+01 -1.009561121463775635e-02 6.101788520812988281e+00 1.827507853507995605e+00 2.198270708322525024e-01
1.338000000000000000e+03 7.570755767822265625e+01 2.478034782409667969e+01 4.357649944722652435e-03 6.079532623291015625e+00 1.825167059898376465e+00 2.197388559579849243e-01
1.339000000000000000e+03 7.602990722656250000e+01 2.212388038635253906e+01 8.405767381191253662e-02 5.991172790527343750e+00 1.822569131851196289e+00 1.690718084573745728e-01
1.340000000000000000e+03 7.622734069824218750e+01 2.053050422668457031e+01 1.602958887815475464e-01 5.930981636047363281e+00 1.827383279800415039e+00 9.235913306474685669e-02
1.341000000000000000e+03 7.536927032470703125e+01 1.906670570373535156e+01 3.290290236473083496e-01 5.876770496368408203e+00 1.861739873886108398e+00 2.885198406875133514e-02
1.342000000000000000e+03 7.598023223876953125e+01 1.795182037353515625e+01 3.456166982650756836e-01 5.816665649414062500e+00 1.848684668540954590e+00 -1.360918581485748291e-01
1.343000000000000000e+03 7.563800048828125000e+01 1.561589336395263672e+01 5.373422503471374512e-01 5.724580287933349609e+00 1.878576755523681641e+00 -5.955565571784973145e-01
1.344000000000000000e+03 7.532730102539062500e+01 1.441388607025146484e+01 5.593003034591674805e-01 5.632725238800048828e+00 1.857607603073120117e+00 -1.009622454643249512e+00
1.345000000000000000e+03 7.528701782226562500e+01 1.117834854125976562e+01 -4.386934041976928711e-01 6.880118370056152344e+00 1.932427525520324707e+00 -2.647280454635620117e+00
1.346000000000000000e+03 7.548011779785156250e+01 9.798288345336914062e+00 -8.667600750923156738e-01 9.493757247924804688e+00 2.588099241256713867e+00 -2.995047092437744141e+00
1.347000000000000000e+03 7.461058044433593750e+01 8.803983688354492188e+00 3.835654497146606445e+00 5.692020416259765625e+00 2.858302593231201172e+00 -4.177374839782714844e+00
1.348000000000000000e+03 7.503301239013671875e+01 9.304988861083984375e+00 -1.278285980224609375e-01 8.327951431274414062e+00 2.460036754608154297e+00 -3.683584213256835938e+00
1.349000000000000000e+03 7.610062408447265625e+01 8.422227859497070312e+00 1.252094626426696777e+00 1.232387065887451172e+01 4.072789669036865234e+00 -1.303446769714355469e+00
1.350000000000000000e+03 7.557179260253906250e+01 8.830741882324218750e+00 9.810495972633361816e-01 1.191221046447753906e+01 3.867978096008300781e+00 -3.106084823608398438e+00
1.351000000000000000e+03 7.597518157958984375e+01 6.602018833160400391e+00 1.825966477394104004e+00 1.940151023864746094e+01 6.368243217468261719e+00 -2.452384471893310547e+00
1.352000000000000000e+03 7.595738983154296875e+01 5.046923637390136719e+00 3.145723342895507812e-01 1.471911716461181641e+01 4.510107040405273438e+00 -7.689197659492492676e-01
1.353000000000000000e+03 7.533078002929687500e+01 2.743937492370605469e+00 -7.421371936798095703e-01 4.835024356842041016e+00 1.227866053581237793e+00 4.568601548671722412e-01
1.354000000000000000e+03 7.428533935546875000e+01 1.593726515769958496e+00 -5.315233707427978516e+00 -1.138893604278564453e+00 -1.936238169670104980e+00 -2.626522064208984375e+00
1.355000000000000000e+03 7.299186706542968750e+01 -2.217728644609451294e-01 -1.793600559234619141e+00 6.733836531639099121e-01 -3.360650539398193359e-01 -2.196630954742431641e+00
1.356000000000000000e+03 7.472175598144531250e+01 -4.486601650714874268e-01 -1.963791847229003906e+00 3.689115047454833984e+00 5.175969600677490234e-01 5.260306596755981445e-01
1.357000000000000000e+03 7.248622894287109375e+01 8.803656101226806641e-01 -6.509943962097167969e+00 -4.631553888320922852e-01 -2.091929674148559570e+00 -2.162564516067504883e+00
1.358000000000000000e+03 7.170076751708984375e+01 1.057937622070312500e+00 -1.612539291381835938e+00 3.114476919174194336e+00 4.505812823772430420e-01 -2.460222721099853516e+00
1.359000000000000000e+03 7.099797058105468750e+01 1.500102162361145020e+00 1.754371047019958496e+00 5.894310951232910156e+00 2.294604539871215820e+00 -4.033835411071777344e+00
1.360000000000000000e+03 6.987133789062500000e+01 1.527514457702636719e+00 2.833933532238006592e-01 9.965631484985351562e+00 3.074707508087158203e+00 -3.315516948699951172e+00
1.361000000000000000e+03 7.002526092529296875e+01 -1.736770868301391602e-01 -2.906350135803222656e+00 7.003357887268066406e+00 1.229102373123168945e+00 -3.047268867492675781e+00
1.362000000000000000e+03 6.941748809814453125e+01 -5.023594498634338379e-01 -3.150386810302734375e+00 6.779572963714599609e+00 1.088755846023559570e+00 -2.367426395416259766e+00
1.363000000000000000e+03 6.855837249755859375e+01 -1.739729404449462891e+00 -3.854937076568603516e+00 4.836585044860839844e+00 2.944943904876708984e-01 -1.260560035705566406e+00
1.364000000000000000e+03 6.991561889648437500e+01 -3.267247915267944336e+00 -2.714930534362792969e+00 4.402300834655761719e+00 5.062111020088195801e-01 -1.652194261550903320e+00
1.365000000000000000e+03 7.195703887939453125e+01 -5.329734325408935547e+00 -6.923289299011230469e-01 5.948184967041015625e+00 1.576756715774536133e+00 -1.011259078979492188e+00
1.366000000000000000e+03 7.390993499755859375e+01 -6.541672706604003906e+00 5.097578838467597961e-02 7.875289440155029297e+00 2.377879619598388672e+00 5.181123018264770508e-01
1.367000000000000000e+03 7.595817565917968750e+01 -7.784367561340332031e+00 4.793764650821685791e-01 8.588618278503417969e+00 2.720398426055908203e+00 1.340194702148437500e+00
1.368000000000000000e+03 7.669373321533203125e+01 -4.178959274291992188e+01 -4.316254053264856339e-04 7.512963294982910156e+00 2.253759622573852539e+00 1.370949763804674149e-02
1.369000000000000000e+03 7.460871887207031250e+01 -4.058593368530273438e+01 3.729592636227607727e-02 7.169838428497314453e+00 2.162140369415283203e+00 -2.170112682506442070e-03
1.370000000000000000e+03 7.622779846191406250e+01 -3.750889587402343750e+01 1.125676929950714111e-02 7.474283218383789062e+00 2.245661973953247070e+00 4.114276170730590820e-02
1.371000000000000000e+03 7.557260894775390625e+01 -3.610649108886718750e+01 9.642902761697769165e-03 7.336649894714355469e+00 2.203887939453125000e+00 3.546403720974922180e-02
1.372000000000000000e+03 7.514642333984375000e+01 -3.468667221069335938e+01 3.226589784026145935e-02 7.230217933654785156e+00 2.178745269775390625e+00 3.813491761684417725e-02
1.373000000000000000e+03 7.524010467529296875e+01 -3.192175483703613281e+01 4.996737465262413025e-02 7.246881008148193359e+00 2.189054489135742188e+00 9.367445856332778931e-02
1.374000000000000000e+03 7.634108734130859375e+01 -3.034253692626953125e+01 4.183498024940490723e-02 7.519017696380615234e+00 2.268255949020385742e+00 1.047244369983673096e-01
1.375000000000000000e+03 7.518054199218750000e+01 -2.974590492248535156e+01 5.746944621205329895e-02 7.251677036285400391e+00 2.192744016647338867e+00 1.254517734050750732e-01
1.376000000000000000e+03 7.523256683349609375e+01 -2.707808494567871094e+01 4.024433717131614685e-02 7.275488376617431641e+00 2.194719791412353516e+00 1.741074025630950928e-01
1.377000000000000000e+03 7.554402923583984375e+01 -2.543684959411621094e+01 -7.469620555639266968e-03 7.401830673217773438e+00 2.218308448791503906e+00 2.068825960159301758e-01
1.378000000000000000e+03 7.547807312011718750e+01 -2.392002105712890625e+01 -8.097860962152481079e-02 7.471683979034423828e+00 2.217211723327636719e+00 2.290056645870208740e-01
1.379000000000000000e+03 7.527456665039062500e+01 -2.218049621582031250e+01 -2.435721158981323242e-01 7.581953525543212891e+00 2.201514482498168945e+00 2.435299754142761230e-01
1.380000000000000000e+03 7.532401275634765625e+01 -2.126661109924316406e+01 -3.015999495983123779e-01 7.722060203552246094e+00 2.226138114929199219e+00 2.239449769258499146e-01
1.381000000000000000e+03 7.526570892333984375e+01 -1.961957740783691406e+01 -5.294049978256225586e-01 8.130020141601562500e+00 2.280184507369995117e+00 1.002145260572433472e-01
1.382000000000000000e+03 7.572912597656250000e+01 -1.750973701477050781e+01 -3.755981326103210449e-01 8.630005836486816406e+00 2.476322174072265625e+00 -3.902593851089477539e-01
1.383000000000000000e+03 7.640183258056640625e+01 -1.509267711639404297e+01 3.295195400714874268e-01 8.535261154174804688e+00 2.659434318542480469e+00 -5.132502913475036621e-01
1.384000000000000000e+03 7.741070556640625000e+01 -1.333522319793701172e+01 3.987259268760681152e-01 8.059833526611328125e+00 2.537567853927612305e+00 -1.356548815965652466e-01
1.385000000000000000e+03 7.809280395507812500e+01 -1.176257801055908203e+01 3.090093135833740234e-01 7.761348247528076172e+00 2.421107292175292969e+00 2.577075362205505371e-01
1.386000000000000000e+03 7.803469085693359375e+01 -1.015315341949462891e+01 2.953860759735107422e-01 8.035572052001953125e+00 2.499287366867065430e+00 6.846579909324645996e-01
1.387000000000000000e+03 7.809265899658203125e+01 -8.489939689636230469e+00 2.079364061355590820e-01 8.468374252319335938e+00 2.602893114089965820e+00 1.021125316619873047e+00
1.388000000000000000e+03 7.751750946044921875e+01 -6.907214164733886719e+00 1.231398209929466248e-01 8.844991683959960938e+00 2.690439224243164062e+00 1.349003791809082031e+00
1.389000000000000000e+03 7.655677795410156250e+01 -4.708753585815429688e+00 -4.032645747065544128e-02 8.373941421508789062e+00 2.500084638595581055e+00 1.457049131393432617e+00
1.390000000000000000e+03 7.740713500976562500e+01 -3.385531663894653320e+00 -1.316733509302139282e-01 9.311010360717773438e+00 2.753801107406616211e+00 1.377651572227478027e+00
1.391000000000000000e+03 7.809838867187500000e+01 -1.550433039665222168e+00 -4.512449502944946289e-01 1.079949855804443359e+01 3.104476213455200195e+00 8.682155013084411621e-01
1.392000000000000000e+03 7.886293029785156250e+01 -1.325550675392150879e+00 -1.735973209142684937e-01 1.229952335357666016e+01 3.637777805328369141e+00 5.428001284599304199e-01
1.393000000000000000e+03 7.961750030517578125e+01 1.185562729835510254e+00 -1.124693006277084351e-01 1.397396564483642578e+01 4.158449172973632812e+00 -3.702079057693481445e-01
1.394000000000000000e+03 7.889471435546875000e+01 3.243528604507446289e-01 -3.840883970260620117e-01 1.270640373229980469e+01 3.696694612503051758e+00 -2.066254764795303345e-01
1.395000000000000000e+03 7.960406494140625000e+01 2.001238346099853516e+00 -8.129797875881195068e-02 1.310953044891357422e+01 3.908469915390014648e+00 -5.727363228797912598e-01
1.396000000000000000e+03 7.881920623779296875e+01 2.847668886184692383e+00 -3.054686784744262695e-01 1.122758388519287109e+01 3.276634693145751953e+00 -1.797429561614990234e+00
1.397000000000000000e+03 7.964551544189453125e+01 4.416749000549316406e+00 -4.852291569113731384e-02 8.689863204956054688e+00 2.592402219772338867e+00 -7.847198247909545898e-01
1.398000000000000000e+03 7.963588714599609375e+01 6.000062465667724609e+00 -6.393473595380783081e-02 5.995096206665039062e+00 1.779348492622375488e+00 -4.792979061603546143e-01
1.399000000000000000e+03 7.891682434082031250e+01 5.953499794006347656e+00 4.487721621990203857e-01 7.836131095886230469e+00 2.485471010208129883e+00 -1.294786930084228516e+00
1.400000000000000000e+03 7.884430694580078125e+01 8.378549575805664062e+00 3.360198736190795898e-01 6.987145900726318359e+00 2.196949720382690430e+00 3.506228625774383545e-01
1.401000000000000000e+03 7.877703094482421875e+01 1.004867076873779297e+01 -2.029090225696563721e-01 7.084584712982177734e+00 2.064502716064453125e+00 4.651378691196441650e-01
1.402000000000000000e+03 7.877243041992187500e+01 1.253409671783447266e+01 -1.574341207742691040e-01 6.760036468505859375e+00 1.980780720710754395e+00 -1.536169648170471191e-01
1.403000000000000000e+03 7.962158966064453125e+01 1.486780357360839844e+01 -2.265494130551815033e-02 6.201374053955078125e+00 1.853615760803222656e+00 -8.807514607906341553e-02
1.404000000000000000e+03 7.962220001220703125e+01 1.645858192443847656e+01 -6.950074341148138046e-03 5.861885547637939453e+00 1.756480693817138672e+00 -5.930170416831970215e-02
1.405000000000000000e+03 7.884582519531250000e+01 1.727600097656250000e+01 3.517498448491096497e-02 5.838680267333984375e+00 1.762156605720520020e+00 -1.246343404054641724e-01
1.406000000000000000e+03 7.876254272460937500e+01 1.885680007934570312e+01 3.464867547154426575e-02 5.750000953674316406e+00 1.735394835472106934e+00 -3.316761180758476257e-02
1.407000000000000000e+03 7.870040130615234375e+01 2.047450637817382812e+01 2.656902745366096497e-02 5.751284599304199219e+00 1.733356118202209473e+00 3.679552674293518066e-02
1.408000000000000000e+03 7.863685607910156250e+01 2.293109893798828125e+01 7.263830862939357758e-03 5.853091239929199219e+00 1.758106470108032227e+00 9.204920381307601929e-02
1.409000000000000000e+03 7.953517913818359375e+01 2.531148147583007812e+01 -3.799215191975235939e-03 5.958497524261474609e+00 1.786409497261047363e+00 3.909157961606979370e-02
1.410000000000000000e+03 7.953993225097656250e+01 2.611612510681152344e+01 2.590699354186654091e-03 6.021931171417236328e+00 1.807356595993041992e+00 3.734226152300834656e-02
1.411000000000000000e+03 7.864301300048828125e+01 2.783465003967285156e+01 -5.887266248464584351e-03 6.144935131072998047e+00 1.841714382171630859e+00 9.239549934864044189e-02
1.412000000000000000e+03 7.863559722900390625e+01 2.941611289978027344e+01 -5.601927638053894043e-03 6.230350494384765625e+00 1.867424488067626953e+00 8.652865886688232422e-02
1.413000000000000000e+03 7.852467346191406250e+01 3.102136993408203125e+01 -8.569268509745597839e-03 6.306546688079833984e+00 1.889393210411071777e+00 7.994458079338073730e-02
1.414000000000000000e+03 7.846530151367187500e+01 3.272576522827148438e+01 -3.111150581389665604e-03 6.378422260284423828e+00 1.912593245506286621e+00 6.236278638243675232e-02
1.415000000000000000e+03 7.849749755859375000e+01 3.427589416503906250e+01 -8.630094118416309357e-03 6.427348613739013672e+00 1.925615549087524414e+00 5.477568879723548889e-02
1.416000000000000000e+03 7.798712921142578125e+01 3.762773895263671875e+01 -1.866236701607704163e-02 6.466558456420898438e+00 1.934368848800659180e+00 3.784204274415969849e-02
1.417000000000000000e+03 7.892784881591796875e+01 3.792589569091796875e+01 -3.034370252862572670e-03 6.563675403594970703e+00 1.968192338943481445e+00 2.266168408095836639e-02
1.418000000000000000e+03 7.881971740722656250e+01 3.955818557739257812e+01 3.341891802847385406e-03 6.557723045349121094e+00 1.968319416046142578e+00 2.125603705644607544e-02
1.419000000000000000e+03 7.858249664306640625e+01 4.195487213134765625e+01 -5.862218677066266537e-04 6.584461688995361328e+00 1.975162744522094727e+00 5.433985497802495956e-03
1.420000000000000000e+03 7.958477020263671875e+01 4.042799377441406250e+01 -2.827606629580259323e-03 6.662381172180175781e+00 1.997866153717041016e+00 4.643594380468130112e-03
1.421000000000000000e+03 7.766001129150390625e+01 -3.980786895751953125e+01 1.468710973858833313e-02 7.676360607147216797e+00 2.307314395904541016e+00 1.658633910119533539e-02
1.422000000000000000e+03 7.665373992919921875e+01 -3.571688461303710938e+01 1.085499301552772522e-02 7.547829151153564453e+00 2.267605304718017578e+00 4.217517748475074768e-02
1.423000000000000000e+03 7.786621856689453125e+01 -3.391210937500000000e+01 5.121877416968345642e-03 7.795722961425781250e+00 2.340253353118896484e+00 5.032170936465263367e-02
1.424000000000000000e+03 7.791986083984375000e+01 -3.238725662231445312e+01 -5.053236149251461029e-03 7.822980403900146484e+00 2.345378160476684570e+00 4.133523628115653992e-02
1.425000000000000000e+03 7.799722290039062500e+01 -3.086114501953125000e+01 8.911178447306156158e-03 7.873842239379882812e+00 2.364825963973999023e+00 6.424369663000106812e-02
1.426000000000000000e+03 7.794863891601562500e+01 -2.936445808410644531e+01 7.330676540732383728e-03 7.913490295410156250e+00 2.376246213912963867e+00 8.356738090515136719e-02
1.427000000000000000e+03 7.704945373535156250e+01 -2.704715919494628906e+01 1.293723471462726593e-02 7.763701438903808594e+00 2.332991600036621094e+00 1.420363187789916992e-01
1.428000000000000000e+03 7.710491943359375000e+01 -2.542138671875000000e+01 -1.986696384847164154e-02 7.838749408721923828e+00 2.345664739608764648e+00 1.450646519660949707e-01
1.429000000000000000e+03 7.709143066406250000e+01 -2.378811836242675781e+01 -7.478187978267669678e-02 7.923927783966064453e+00 2.354743719100952148e+00 1.278731077909469604e-01
1.430000000000000000e+03 7.791273498535156250e+01 -2.210766410827636719e+01 -8.032424002885818481e-02 8.216859817504882812e+00 2.440960645675659180e+00 4.495286382734775543e-03
1.431000000000000000e+03 7.797368621826171875e+01 -2.048543548583984375e+01 -1.184812411665916443e-01 8.264103889465332031e+00 2.443686962127685547e+00 -1.468227058649063110e-01
1.432000000000000000e+03 7.813569641113281250e+01 -1.892854118347167969e+01 -1.230454370379447937e-01 8.228093147277832031e+00 2.431514501571655273e+00 -3.292022347450256348e-01
1.433000000000000000e+03 7.740464782714843750e+01 -1.741029739379882812e+01 -1.686528772115707397e-01 8.261728286743164062e+00 2.427922725677490234e+00 -5.411511063575744629e-01
1.434000000000000000e+03 7.887269592285156250e+01 -1.651527786254882812e+01 4.603383131325244904e-03 7.750619888305664062e+00 2.326566934585571289e+00 -3.974711894989013672e-01
1.435000000000000000e+03 7.961489868164062500e+01 -1.405177974700927734e+01 1.291851419955492020e-02 6.724912643432617188e+00 2.021349430084228516e+00 -8.965349197387695312e-02
1.436000000000000000e+03 7.883155822753906250e+01 -1.489645576477050781e+01 5.620156973600387573e-02 7.410932540893554688e+00 2.240140199661254883e+00 -3.139268755912780762e-01
1.437000000000000000e+03 7.961817932128906250e+01 -1.324903583526611328e+01 3.245309367775917053e-02 6.604835033416748047e+00 1.991186499595642090e+00 -4.096223413944244385e-02
1.438000000000000000e+03 7.886154937744140625e+01 -1.328243064880371094e+01 9.601033478975296021e-02 7.209669113159179688e+00 2.191703796386718750e+00 -9.773482382297515869e-02
1.439000000000000000e+03 7.885874176025390625e+01 -1.248941612243652344e+01 1.292772144079208374e-01 7.212214469909667969e+00 2.202447414398193359e+00 3.826137259602546692e-02
1.440000000000000000e+03 7.881839752197265625e+01 -1.009427070617675781e+01 1.048577427864074707e-01 7.679574489593505859e+00 2.335329771041870117e+00 4.841544926166534424e-01
1.441000000000000000e+03 7.962796783447265625e+01 -7.639749526977539062e+00 -6.505764089524745941e-03 8.702290534973144531e+00 2.608735322952270508e+00 2.843094766139984131e-01
1.442000000000000000e+03 7.891294860839843750e+01 -6.887193202972412109e+00 1.063942816108465195e-02 9.183255195617675781e+00 2.758168220520019531e+00 8.106780052185058594e-01
1.443000000000000000e+03 7.888156890869140625e+01 -5.306122779846191406e+00 -1.559172943234443665e-02 1.012233638763427734e+01 3.032023429870605469e+00 8.828573822975158691e-01
1.444000000000000000e+03 7.888989257812500000e+01 -3.665008783340454102e+00 -7.195836305618286133e-02 1.111708927154541016e+01 3.313539266586303711e+00 8.863504528999328613e-01
1.445000000000000000e+03 7.895604705810546875e+01 -2.104518175125122070e+00 -1.495377719402313232e-01 1.216519927978515625e+01 3.604698419570922852e+00 7.048456668853759766e-01
1.446000000000000000e+03 7.898576354980468750e+01 -2.872008323669433594e+00 3.623947501182556152e-03 1.178644371032714844e+01 3.537020444869995117e+00 7.961478233337402344e-01
1.447000000000000000e+03 7.957534790039062500e+01 -4.205945587158203125e+01 7.602163590490818024e-03 8.016172409057617188e+00 2.407132387161254883e+00 8.719496428966522217e-03
1.448000000000000000e+03 7.853608703613281250e+01 -4.197921371459960938e+01 -3.231453476473689079e-03 7.880446910858154297e+00 2.363164663314819336e+00 -2.172364108264446259e-02
1.449000000000000000e+03 7.839862823486328125e+01 -4.103420257568359375e+01 -7.338521070778369904e-03 7.801884174346923828e+00 2.338363647460937500e+00 -1.971612311899662018e-02
1.450000000000000000e+03 7.846624755859375000e+01 -3.952296447753906250e+01 1.443239767104387283e-02 7.804959774017333984e+00 2.345817804336547852e+00 1.472547068260610104e-03
1.451000000000000000e+03 7.826972198486328125e+01 -3.766669845581054688e+01 5.664103198796510696e-03 7.807430744171142578e+00 2.343928337097167969e+00 2.026252821087837219e-02
1.452000000000000000e+03 7.873711395263671875e+01 -3.628991699218750000e+01 1.016269205138087273e-03 7.912467479705810547e+00 2.374045133590698242e+00 2.133132331073284149e-02
1.453000000000000000e+03 7.872064971923828125e+01 -3.398163986206054688e+01 2.903533633798360825e-03 7.946745872497558594e+00 2.384894847869873047e+00 2.449674718081951141e-02
1.454000000000000000e+03 7.875782012939453125e+01 -3.243011856079101562e+01 6.183865945786237717e-03 7.996846675872802734e+00 2.400909185409545898e+00 3.362624719738960266e-02
1.455000000000000000e+03 7.879373931884765625e+01 -3.086633872985839844e+01 1.202565617859363556e-02 8.041543006896972656e+00 2.416070461273193359e+00 3.969169408082962036e-02
1.456000000000000000e+03 7.878156280517578125e+01 -2.931199836730957031e+01 1.216269377619028091e-02 8.102074623107910156e+00 2.434271335601806641e+00 5.314622074365615845e-02
1.457000000000000000e+03 7.876165771484375000e+01 -2.773359680175781250e+01 1.093049813061952591e-02 8.170756340026855469e+00 2.454505920410156250e+00 6.493292003870010376e-02
1.458000000000000000e+03 7.875974273681640625e+01 -2.613350677490234375e+01 5.744662135839462280e-03 8.253324508666992188e+00 2.477720975875854492e+00 7.065241783857345581e-02
1.459000000000000000e+03 7.875863647460937500e+01 -2.451875495910644531e+01 -3.744708374142646790e-03 8.337083816528320312e+00 2.500001907348632812e+00 6.021634116768836975e-02
1.460000000000000000e+03 7.875444030761718750e+01 -2.289896202087402344e+01 -2.045593224465847015e-02 8.400325775146484375e+00 2.513960838317871094e+00 1.913201250135898590e-02
1.461000000000000000e+03 7.880499267578125000e+01 -2.048945426940917969e+01 -6.391305476427078247e-02 8.384804725646972656e+00 2.496267557144165039e+00 -1.224993467330932617e-01
1.462000000000000000e+03 7.887452697753906250e+01 -1.890965652465820312e+01 -6.617102771997451782e-02 8.233984947204589844e+00 2.450344324111938477e+00 -2.484922707080841064e-01
1.463000000000000000e+03 7.889047241210937500e+01 -1.731250381469726562e+01 -4.074392467737197876e-02 7.931907176971435547e+00 2.367348909378051758e+00 -3.538979887962341309e-01
1.464000000000000000e+03 7.889208221435546875e+01 -1.810926437377929688e+01 -3.855906054377555847e-02 8.088495254516601562e+00 2.414980888366699219e+00 -3.176107108592987061e-01
1.465000000000000000e+03 7.347753906250000000e+01 3.610100555419921875e+01 -7.343874126672744751e-02 6.166761875152587891e+00 1.827996969223022461e+00 1.156741306185722351e-01
1.466000000000000000e+03 7.229366302490234375e+01 2.986010742187500000e+01 -7.132641971111297607e-02 6.102053642272949219e+00 1.809218168258666992e+00 2.045170813798904419e-01
1.467000000000000000e+03 7.322684478759765625e+01 2.694784355163574219e+01 -3.766889870166778564e-02 6.136726856231689453e+00 1.829717397689819336e+00 2.320798188447952271e-01
1.468000000000000000e+03 7.350724029541015625e+01 2.565112113952636719e+01 -1.196903176605701447e-02 6.137717247009277344e+00 1.837724447250366211e+00 2.383490502834320068e-01
1.469000000000000000e+03 7.379026031494140625e+01 2.454742431640625000e+01 1.137958839535713196e-02 6.131076335906982422e+00 1.842736721038818359e+00 2.417406141757965088e-01
1.470000000000000000e+03 7.411906433105468750e+01 2.209620857238769531e+01 1.289170682430267334e-01 6.096202373504638672e+00 1.867535829544067383e+00 2.206900566816329956e-01
1.471000000000000000e+03 7.482070159912109375e+01 2.081907463073730469e+01 1.993353515863418579e-01 6.026914596557617188e+00 1.867874979972839355e+00 1.636735349893569946e-01
1.472000000000000000e+03 7.322746276855468750e+01 1.866431427001953125e+01 5.612014532089233398e-01 5.960906505584716797e+00 1.956632375717163086e+00 2.169853895902633667e-01
1.473000000000000000e+03 7.347485351562500000e+01 1.720427703857421875e+01 8.390709757804870605e-01 5.716439723968505859e+00 1.966653227806091309e+00 7.232245802879333496e-02
1.474000000000000000e+03 7.397332763671875000e+01 1.536089801788330078e+01 1.081925511360168457e+00 5.258975982666015625e+00 1.902270436286926270e+00 -4.423305690288543701e-01
1.475000000000000000e+03 7.397694396972656250e+01 1.398472881317138672e+01 1.169171571731567383e+00 4.918392181396484375e+00 1.826269149780273438e+00 -9.865170717239379883e-01
1.476000000000000000e+03 7.436335754394531250e+01 1.154506778717041016e+01 3.003060221672058105e-01 5.060109615325927734e+00 1.608124613761901855e+00 -2.909343004226684570e+00
1.477000000000000000e+03 7.451619720458984375e+01 9.810529708862304688e+00 -4.984176456928253174e-01 6.081657886505126953e+00 1.674972057342529297e+00 -4.142467498779296875e+00
1.478000000000000000e+03 7.399746704101562500e+01 9.229643821716308594e+00 -1.980475634336471558e-01 1.973164319992065430e+00 5.325350165367126465e-01 -2.640754461288452148e+00
1.479000000000000000e+03 7.198509216308593750e+01 4.115449523925781250e+01 -9.755987673997879028e-02 6.107995510101318359e+00 1.803130626678466797e+00 1.810515858232975006e-02
1.480000000000000000e+03 7.199211120605468750e+01 3.421626663208007812e+01 -1.008511036634445190e-01 6.074265003204345703e+00 1.792024254798889160e+00 1.516607552766799927e-01
1.481000000000000000e+03 7.250611877441406250e+01 3.296451568603515625e+01 -7.630756497383117676e-02 6.109843254089355469e+00 1.810060739517211914e+00 1.655666083097457886e-01
1.482000000000000000e+03 7.290788269042968750e+01 3.165453529357910156e+01 -7.332663238048553467e-02 6.124361038208007812e+00 1.815310359001159668e+00 1.832777410745620728e-01
1.483000000000000000e+03 7.102192687988281250e+01 2.952143478393554688e+01 -7.703638076782226562e-02 6.060172557830810547e+00 1.794940829277038574e+00 1.945744603872299194e-01
1.484000000000000000e+03 7.049137878417968750e+01 2.767077255249023438e+01 -5.250683799386024475e-02 6.070746898651123047e+00 1.805472016334533691e+00 1.896942704916000366e-01
1.485000000000000000e+03 7.241490936279296875e+01 2.535943031311035156e+01 -1.239039469510316849e-02 6.152704715728759766e+00 1.842094182968139648e+00 2.324998378753662109e-01
1.486000000000000000e+03 7.279573059082031250e+01 2.415947532653808594e+01 2.855071797966957092e-02 6.158893108367919922e+00 1.856233119964599609e+00 2.363275736570358276e-01
1.487000000000000000e+03 7.194864654541015625e+01 2.257163429260253906e+01 9.502927213907241821e-02 6.215009212493896484e+00 1.893011569976806641e+00 2.322763502597808838e-01
1.488000000000000000e+03 7.086283874511718750e+01 2.081740570068359375e+01 2.031027376651763916e-01 6.333182334899902344e+00 1.960885524749755859e+00 2.459317445755004883e-01
1.489000000000000000e+03 7.269199371337890625e+01 1.836585044860839844e+01 6.184077858924865723e-01 5.990300655364990234e+00 1.982612609863281250e+00 2.585712373256683350e-01
1.490000000000000000e+03 7.233164215087890625e+01 1.700807952880859375e+01 9.699556827545166016e-01 5.783304691314697266e+00 2.025978088378906250e+00 2.733189761638641357e-01
1.491000000000000000e+03 7.252805328369140625e+01 1.553429126739501953e+01 1.385818719863891602e+00 5.283407688140869141e+00 2.000767946243286133e+00 8.318182826042175293e-02
1.492000000000000000e+03 7.258715820312500000e+01 1.313391780853271484e+01 1.857446789741516113e+00 3.948012828826904297e+00 1.741637825965881348e+00 -7.506603002548217773e-01
1.493000000000000000e+03 7.227727508544921875e+01 1.142512989044189453e+01 1.606761693954467773e+00 2.090440988540649414e+00 1.109160780906677246e+00 -1.035388350486755371e+00
1.494000000000000000e+03 7.291156768798828125e+01 1.076365566253662109e+01 7.008147835731506348e-01 1.325652003288269043e+00 6.079400181770324707e-01 -2.378329753875732422e+00
1.495000000000000000e+03 7.141770172119140625e+01 8.879698753356933594e+00 -4.308621883392333984e+00 -8.765440583229064941e-01 -1.555549740791320801e+00 -1.892542004585266113e+00
1.496000000000000000e+03 7.277259826660156250e+01 9.447732925415039062e+00 -3.812250375747680664e+00 -4.711555838584899902e-01 -1.285021781921386719e+00 -1.752812623977661133e+00
1.497000000000000000e+03 7.168087768554687500e+01 3.139697265625000000e+01 -9.000664204359054565e-02 6.068796157836914062e+00 1.793636918067932129e+00 1.865889579057693481e-01
1.498000000000000000e+03 7.034806823730468750e+01 3.117845535278320312e+01 -9.703588485717773438e-02 6.017727375030517578e+00 1.776207447052001953e+00 1.779219359159469604e-01
1.499000000000000000e+03 6.983315277099609375e+01 2.914717483520507812e+01 -7.981844246387481689e-02 6.021591663360595703e+00 1.782531976699829102e+00 1.787500679492950439e-01
1.500000000000000000e+03 6.945308685302734375e+01 2.732447242736816406e+01 -4.708325117826461792e-02 6.038245677947998047e+00 1.797348737716674805e+00 1.644041836261749268e-01
1.501000000000000000e+03 6.885747528076171875e+01 2.595298385620117188e+01 -1.136136613786220551e-02 6.054902076721191406e+00 1.813062191009521484e+00 1.324959248304367065e-01
1.502000000000000000e+03 7.004100036621093750e+01 2.473369598388671875e+01 1.891349907964468002e-03 6.156198978424072266e+00 1.847427129745483398e+00 1.563727706670761108e-01
1.503000000000000000e+03 7.087446594238281250e+01 2.240377998352050781e+01 8.717601746320724487e-02 6.263155937194824219e+00 1.905099511146545410e+00 2.091107964515686035e-01
1.504000000000000000e+03 6.982617187500000000e+01 2.072121047973632812e+01 1.444287300109863281e-01 6.456938266754150391e+00 1.980410218238830566e+00 1.781303286552429199e-01
1.505000000000000000e+03 7.052360534667968750e+01 1.885904502868652344e+01 4.132378399372100830e-01 6.444496631622314453e+00 2.057320356369018555e+00 3.537437021732330322e-01
1.506000000000000000e+03 7.174069213867187500e+01 1.622712516784667969e+01 1.246073603630065918e+00 5.687317848205566406e+00 2.080017566680908203e+00 4.087832868099212646e-01
1.507000000000000000e+03 7.034851837158203125e+01 1.478679752349853516e+01 1.781677246093750000e+00 5.972517013549804688e+00 2.326258182525634766e+00 1.015624046325683594e+00
1.508000000000000000e+03 7.112054443359375000e+01 1.337158584594726562e+01 2.254989385604858398e+00 4.610759735107421875e+00 2.059724569320678711e+00 5.188192725181579590e-01
1.509000000000000000e+03 7.067966461181640625e+01 1.143544101715087891e+01 1.758515477180480957e+00 3.733861446380615234e+00 1.647713065147399902e+00 5.624451637268066406e-01
1.510000000000000000e+03 7.169793701171875000e+01 9.911448478698730469e+00 -7.678191065788269043e-01 7.365351915359497070e-02 -2.082496732473373413e-01 -2.061777114868164062e-01
1.511000000000000000e+03 7.069365692138671875e+01 8.715556144714355469e+00 -2.973415374755859375e+00 1.226101994514465332e+00 -5.241940021514892578e-01 -7.706714272499084473e-01
1.512000000000000000e+03 6.993009185791015625e+01 6.862060070037841797e+00 5.583314970135688782e-02 7.824083805084228516e+00 2.363975048065185547e+00 9.892546534538269043e-01
1.513000000000000000e+03 7.062122344970703125e+01 8.063362121582031250e+00 -2.312267541885375977e+00 6.947223544120788574e-01 -4.852635562419891357e-01 -9.698597788810729980e-01
1.514000000000000000e+03 6.553017425537109375e+01 3.766539764404296875e+01 -2.064333111047744751e-01 5.667418003082275391e+00 1.638295292854309082e+00 6.888510286808013916e-02
1.515000000000000000e+03 6.913006591796875000e+01 3.565822219848632812e+01 -1.433366686105728149e-01 5.922188758850097656e+00 1.733655571937561035e+00 1.171734854578971863e-01
1.516000000000000000e+03 7.142012786865234375e+01 3.603808975219726562e+01 -1.142868921160697937e-01 6.039324760437011719e+00 1.777511358261108398e+00 1.218931376934051514e-01
1.517000000000000000e+03 6.810641479492187500e+01 3.275525665283203125e+01 -1.336253732442855835e-01 5.888590812683105469e+00 1.726489543914794922e+00 1.432217061519622803e-01
1.518000000000000000e+03 6.902554321289062500e+01 3.080396842956542969e+01 -9.571566432714462280e-02 5.959820747375488281e+00 1.759231448173522949e+00 1.672456711530685425e-01
1.519000000000000000e+03 6.873773956298828125e+01 2.868815803527832031e+01 -6.394114345312118530e-02 5.975419044494628906e+00 1.773443341255187988e+00 1.644779741764068604e-01
1.520000000000000000e+03 6.856331634521484375e+01 2.695747947692871094e+01 -2.436153031885623932e-02 6.003321170806884766e+00 1.793687939643859863e+00 1.424008458852767944e-01
1.521000000000000000e+03 6.794443511962890625e+01 2.634836959838867188e+01 -6.204807432368397713e-04 5.986543655395507812e+00 1.795776963233947754e+00 1.078223586082458496e-01
1.522000000000000000e+03 6.870091247558593750e+01 2.482482910156250000e+01 2.381891012191772461e-02 6.096374034881591797e+00 1.836057901382446289e+00 1.009995043277740479e-01
1.523000000000000000e+03 6.929159545898437500e+01 2.283783531188964844e+01 5.835151672363281250e-02 6.252299785614013672e+00 1.893195390701293945e+00 1.049376577138900757e-01
1.524000000000000000e+03 6.923883819580078125e+01 2.122842788696289062e+01 1.148012131452560425e-01 6.405225753784179688e+00 1.956008076667785645e+00 1.147884801030158997e-01
1.525000000000000000e+03 6.802759552001953125e+01 1.917041206359863281e+01 1.378343254327774048e-01 6.818758487701416016e+00 2.086977720260620117e+00 -7.428574562072753906e-02
1.526000000000000000e+03 6.948876190185546875e+01 1.721176528930664062e+01 6.105956435203552246e-01 6.875130176544189453e+00 2.245717763900756836e+00 5.684588551521301270e-01
1.527000000000000000e+03 6.777294158935546875e+01 1.500849533081054688e+01 8.715733289718627930e-01 8.827857971191406250e+00 2.909829378128051758e+00 8.497509956359863281e-01
1.528000000000000000e+03 6.903669738769531250e+01 1.272700214385986328e+01 2.655012607574462891e+00 7.225381374359130859e+00 2.964118242263793945e+00 1.346290588378906250e+00
1.529000000000000000e+03 6.854014587402343750e+01 1.190657997131347656e+01 2.842230558395385742e+00 8.150323867797851562e+00 3.297766447067260742e+00 1.044492483139038086e+00
1.530000000000000000e+03 6.922018432617187500e+01 1.010334396362304688e+01 3.712416589260101318e-01 7.296344280242919922e+00 2.300275802612304688e+00 2.511991560459136963e-01
1.531000000000000000e+03 6.938152313232421875e+01 8.153838157653808594e+00 -1.955349326133728027e+00 8.603603363037109375e+00 1.994476318359375000e+00 -8.155825734138488770e-01
1.532000000000000000e+03 6.792089843750000000e+01 6.539645671844482422e+00 -6.483034491539001465e-01 1.133821868896484375e+01 3.206974744796752930e+00 -2.428902387619018555e+00
1.533000000000000000e+03 6.947679901123046875e+01 6.364154338836669922e+00 -4.671422392129898071e-02 1.106967163085937500e+01 3.306887149810791016e+00 4.696756601333618164e-01
1.534000000000000000e+03 6.966782379150390625e+01 5.857622146606445312e+00 4.698258042335510254e-01 1.285639095306396484e+01 3.997864961624145508e+00 1.521432399749755859e+00
1.535000000000000000e+03 6.780260467529296875e+01 3.021514511108398438e+01 -9.560800343751907349e-02 5.898165702819824219e+00 1.740767240524291992e+00 1.509658992290496826e-01
1.536000000000000000e+03 6.776109313964843750e+01 2.807884979248046875e+01 -4.523271694779396057e-02 5.928104877471923828e+00 1.764861583709716797e+00 1.387688964605331421e-01
1.537000000000000000e+03 6.695167541503906250e+01 2.725657463073730469e+01 -2.170661697164177895e-03 5.884546756744384766e+00 1.764712810516357422e+00 1.049213558435440063e-01
1.538000000000000000e+03 6.629394531250000000e+01 2.626521492004394531e+01 5.697828158736228943e-02 5.831636428833007812e+00 1.766584396362304688e+00 6.223601102828979492e-02
1.539000000000000000e+03 6.816369628906250000e+01 2.360686492919921875e+01 6.315158307552337646e-02 6.129751682281494141e+00 1.857871055603027344e+00 3.047613427042961121e-02
1.540000000000000000e+03 6.671632385253906250e+01 2.144428253173828125e+01 2.105045914649963379e-01 6.141984462738037109e+00 1.905746698379516602e+00 -2.150127142667770386e-01
1.541000000000000000e+03 6.674838256835937500e+01 2.065059852600097656e+01 2.025401145219802856e-01 6.250499725341796875e+00 1.935912013053894043e+00 -3.142004609107971191e-01
1.542000000000000000e+03 6.745557403564453125e+01 1.691631126403808594e+01 1.952730864286422729e-01 7.750251770019531250e+00 2.383657455444335938e+00 -4.468793794512748718e-02
1.543000000000000000e+03 6.580608367919921875e+01 1.342668056488037109e+01 1.728475809097290039e+00 1.402827930450439453e+01 4.727026462554931641e+00 -1.029992580413818359e+00
1.544000000000000000e+03 6.635343170166015625e+01 1.153345775604248047e+01 3.179210662841796875e+00 1.818926620483398438e+01 6.410542964935302734e+00 -1.026033997535705566e+00
1.545000000000000000e+03 6.785786437988281250e+01 1.060061836242675781e+01 2.025351285934448242e+00 1.078311252593994141e+01 3.842539310455322266e+00 -4.921205043792724609e-01
1.546000000000000000e+03 6.626248168945312500e+01 8.466871261596679688e+00 -3.467751741409301758e-01 1.250018215179443359e+01 3.646022081375122070e+00 -4.728666245937347412e-01
1.547000000000000000e+03 6.698487091064453125e+01 3.504473114013671875e+01 -1.622023880481719971e-01 5.799381256103515625e+00 1.691153645515441895e+00 1.122683510184288025e-01
1.548000000000000000e+03 6.526892852783203125e+01 3.401098251342773438e+01 -1.758252531290054321e-01 5.688663959503173828e+00 1.653851509094238281e+00 1.078215762972831726e-01
1.549000000000000000e+03 6.541797637939453125e+01 3.095236015319824219e+01 -1.090717390179634094e-01 5.723964214324951172e+00 1.684467792510986328e+00 1.297141015529632568e-01
1.550000000000000000e+03 6.573786926269531250e+01 2.840254592895507812e+01 -2.455046214163303375e-02 5.763486862182617188e+00 1.721680879592895508e+00 1.194047331809997559e-01
1.551000000000000000e+03 6.495544433593750000e+01 2.722195625305175781e+01 5.292102321982383728e-02 5.690995693206787109e+00 1.723174929618835449e+00 9.357745945453643799e-02
1.552000000000000000e+03 6.437957000732421875e+01 2.594380569458007812e+01 1.468388885259628296e-01 5.613087654113769531e+00 1.727977991104125977e+00 6.446850299835205078e-02
1.553000000000000000e+03 6.520316314697265625e+01 2.425891685485839844e+01 2.051027119159698486e-01 5.708092689514160156e+00 1.773958563804626465e+00 -2.737384475767612457e-02
1.554000000000000000e+03 6.484395599365234375e+01 2.230945396423339844e+01 4.195574820041656494e-01 5.589369297027587891e+00 1.802677989006042480e+00 -2.602798938751220703e-01
1.555000000000000000e+03 6.535247039794921875e+01 2.033466529846191406e+01 4.375648498535156250e-01 5.855040550231933594e+00 1.887781620025634766e+00 -5.326868295669555664e-01
1.556000000000000000e+03 6.470601654052734375e+01 1.948761177062988281e+01 6.029388308525085449e-01 5.644626617431640625e+00 1.874269604682922363e+00 -8.353663682937622070e-01
1.557000000000000000e+03 6.482858276367187500e+01 1.696549797058105469e+01 5.972794294357299805e-01 6.162989139556884766e+00 2.028080463409423828e+00 -1.826850414276123047e+00
1.558000000000000000e+03 6.464348602294921875e+01 1.553443145751953125e+01 8.729742765426635742e-01 6.250781536102294922e+00 2.137126684188842773e+00 -2.821373701095581055e+00
1.559000000000000000e+03 6.423621368408203125e+01 1.416561889648437500e+01 2.144118547439575195e+00 4.407377719879150391e+00 1.965448856353759766e+00 -3.256461381912231445e+00
1.560000000000000000e+03 6.468122100830078125e+01 1.346913814544677734e+01 3.932400941848754883e+00 5.381533622741699219e+00 2.794180393218994141e+00 -4.909793853759765625e+00
1.561000000000000000e+03 6.540367889404296875e+01 1.405044364929199219e+01 5.316396355628967285e-01 1.217406368255615234e+01 3.811711072921752930e+00 -3.298146247863769531e+00
1.562000000000000000e+03 6.565471649169921875e+01 1.135119533538818359e+01 3.561405539512634277e-01 2.276717185974121094e+01 6.936994075775146484e+00 -5.022904872894287109e-01
1.563000000000000000e+03 6.775643157958984375e+01 4.114746856689453125e+01 -1.773369461297988892e-01 5.814572811126708984e+00 1.691170692443847656e+00 2.215922810137271881e-02
1.564000000000000000e+03 6.389339447021484375e+01 3.267113494873046875e+01 -1.610295325517654419e-01 5.606920719146728516e+00 1.633767366409301758e+00 1.116819158196449280e-01
1.565000000000000000e+03 6.432731628417968750e+01 2.969373703002929688e+01 -7.087870687246322632e-02 5.645081043243408203e+00 1.672260761260986328e+00 1.249245256185531616e-01
1.566000000000000000e+03 6.338737106323242188e+01 2.822274208068847656e+01 7.794838864356279373e-03 5.555766582489013672e+00 1.669068336486816406e+00 1.271168589591979980e-01
1.567000000000000000e+03 6.282955932617187500e+01 2.654819679260253906e+01 1.312498152256011963e-01 5.472652435302734375e+00 1.681170701980590820e+00 1.252430528402328491e-01
1.568000000000000000e+03 6.283386611938476562e+01 2.335940742492675781e+01 4.941399395465850830e-01 5.269212722778320312e+00 1.729005694389343262e+00 -5.715166684240102768e-03
1.569000000000000000e+03 6.373085021972656250e+01 2.251566123962402344e+01 5.435705184936523438e-01 5.327695846557617188e+00 1.761379957199096680e+00 -1.256636381149291992e-01
1.570000000000000000e+03 6.256214523315429688e+01 1.899310302734375000e+01 1.328779578208923340e+00 4.240207672119140625e+00 1.670696139335632324e+00 -6.446960568428039551e-01
1.571000000000000000e+03 6.358091354370117188e+01 1.680878448486328125e+01 1.354243516921997070e+00 4.246575355529785156e+00 1.680245757102966309e+00 -1.831271886825561523e+00
1.572000000000000000e+03 6.389339447021484375e+01 1.499986743927001953e+01 1.185670137405395508e+00 4.040822029113769531e+00 1.567947626113891602e+00 -3.097367048263549805e+00
1.573000000000000000e+03 6.345285797119140625e+01 1.383713531494140625e+01 1.339925408363342285e+00 1.223997235298156738e+00 7.691767811775207520e-01 -1.980551838874816895e+00
1.574000000000000000e+03 6.360596084594726562e+01 4.077955627441406250e+01 -2.427025735378265381e-01 5.466762065887451172e+00 1.567217826843261719e+00 1.707959920167922974e-02
1.575000000000000000e+03 6.343636322021484375e+01 3.631529235839843750e+01 -2.138963043689727783e-01 5.546674728393554688e+00 1.599833488464355469e+00 7.138849049806594849e-02
1.576000000000000000e+03 6.200141143798828125e+01 3.450644683837890625e+01 -2.180520445108413696e-01 5.427704334259033203e+00 1.562895655632019043e+00 8.439418673515319824e-02
1.577000000000000000e+03 6.275308990478515625e+01 3.111244583129882812e+01 -1.254720240831375122e-01 5.521646976470947266e+00 1.618852496147155762e+00 1.218640953302383423e-01
1.578000000000000000e+03 6.175204467773437500e+01 2.945649528503417969e+01 -6.081325188279151917e-02 5.428607940673828125e+00 1.610338330268859863e+00 1.353029012680053711e-01
1.579000000000000000e+03 6.062444686889648438e+01 2.813624572753906250e+01 -7.832044735550880432e-03 5.353832244873046875e+00 1.603800058364868164e+00 1.472332030534744263e-01
1.580000000000000000e+03 6.127115249633789062e+01 2.672777557373046875e+01 1.180276572704315186e-01 5.364696025848388672e+00 1.644816994667053223e+00 1.726054102182388306e-01
1.581000000000000000e+03 6.107474136352539062e+01 2.510848236083984375e+01 3.028740882873535156e-01 5.263005256652832031e+00 1.669763803482055664e+00 2.157119661569595337e-01
1.582000000000000000e+03 6.172379684448242188e+01 2.271326065063476562e+01 6.675101518630981445e-01 5.026015758514404297e+00 1.708057761192321777e+00 1.135700419545173645e-01
1.583000000000000000e+03 6.128276443481445312e+01 2.097171783447265625e+01 1.054006695747375488e+00 4.559398651123046875e+00 1.684021592140197754e+00 1.536234021186828613e-01
1.584000000000000000e+03 6.163226699829101562e+01 1.891220283508300781e+01 1.562210917472839355e+00 3.751702785491943359e+00 1.594174027442932129e+00 -1.962880045175552368e-01
1.585000000000000000e+03 6.138436889648437500e+01 1.758715248107910156e+01 1.854347944259643555e+00 2.993627548217773438e+00 1.454392671585083008e+00 -1.627020537853240967e-01
1.586000000000000000e+03 6.211336517333984375e+01 1.498521232604980469e+01 1.604934573173522949e+00 7.749522328376770020e-01 7.139660716056823730e-01 -1.111061334609985352e+00
1.587000000000000000e+03 6.126689529418945312e+01 1.297784996032714844e+01 -1.740988612174987793e+00 -6.659958958625793457e-01 -7.220953702926635742e-01 -9.405832290649414062e-01
1.588000000000000000e+03 5.991351699829101562e+01 1.212254333496093750e+01 -1.420167922973632812e+00 -6.945880651473999023e-01 -6.344267725944519043e-01 -8.538888692855834961e-01
1.589000000000000000e+03 5.877878570556640625e+01 3.378735351562500000e+01 -2.419671267271041870e-01 5.126423835754394531e+00 1.465336918830871582e+00 1.407087687402963638e-02
1.590000000000000000e+03 6.012058639526367188e+01 3.075921440124511719e+01 -1.475155055522918701e-01 5.308066368103027344e+00 1.548165321350097656e+00 9.730656445026397705e-02
1.591000000000000000e+03 5.985763549804687500e+01 2.693218803405761719e+01 5.506409704685211182e-02 5.277225494384765625e+00 1.599686861038208008e+00 2.041674405336380005e-01
1.592000000000000000e+03 5.948761749267578125e+01 2.554552841186523438e+01 1.751363724470138550e-01 5.234880447387695312e+00 1.623005151748657227e+00 2.928091883659362793e-01
1.593000000000000000e+03 5.985739898681640625e+01 2.279426383972167969e+01 6.454013586044311523e-01 4.971383094787597656e+00 1.685035347938537598e+00 4.436066746711730957e-01
1.594000000000000000e+03 6.042527389526367188e+01 2.062116432189941406e+01 1.130128383636474609e+00 4.445987701416015625e+00 1.672834873199462891e+00 3.897155225276947021e-01
1.595000000000000000e+03 5.966364288330078125e+01 1.860842132568359375e+01 1.649761080741882324e+00 3.624012470245361328e+00 1.582131981849670410e+00 8.656899333000183105e-01
1.596000000000000000e+03 6.104868316650390625e+01 1.532556056976318359e+01 1.666654825210571289e+00 9.881953597068786621e-01 7.964550256729125977e-01 9.354287758469581604e-03
1.597000000000000000e+03 6.065649414062500000e+01 1.424631500244140625e+01 5.178163647651672363e-01 3.450769782066345215e-01 2.588680088520050049e-01 3.293379545211791992e-01
1.598000000000000000e+03 5.804368209838867188e+01 1.180802822113037109e+01 1.549670100212097168e-01 7.799601554870605469e-01 2.804781496524810791e-01 4.350910186767578125e-01
1.599000000000000000e+03 5.802593612670898438e+01 1.054052639007568359e+01 -7.776037454605102539e-01 -6.299974322319030762e-01 -4.222803711891174316e-01 -7.792975306510925293e-01
1.600000000000000000e+03 5.860578536987304688e+01 1.112771511077880859e+01 -1.020997643470764160e+00 -8.063818812370300293e-01 -5.482138991355895996e-01 -8.002313971519470215e-01
1.601000000000000000e+03 5.656206512451171875e+01 3.733940124511718750e+01 -2.613040506839752197e-01 4.804165363311767578e+00 1.362858414649963379e+00 -4.797196760773658752e-02
1.602000000000000000e+03 5.712223434448242188e+01 4.068873977661132812e+01 -2.581641077995300293e-01 4.845092296600341797e+00 1.376078486442565918e+00 -1.332481950521469116e-02
1.603000000000000000e+03 5.955498886108398438e+01 3.624576187133789062e+01 -2.613857090473175049e-01 5.133570671081542969e+00 1.461655497550964355e+00 1.624464243650436401e-02
1.604000000000000000e+03 5.631456756591796875e+01 3.450253677368164062e+01 -2.628267705440521240e-01 4.820610046386718750e+00 1.367334961891174316e+00 -6.379460543394088745e-02
1.605000000000000000e+03 5.820024871826171875e+01 2.860522842407226562e+01 -1.045893356204032898e-01 5.225631237030029297e+00 1.536312460899353027e+00 1.232070997357368469e-01
1.606000000000000000e+03 5.724582290649414062e+01 2.706766700744628906e+01 -1.095155924558639526e-01 5.246971607208251953e+00 1.541236877441406250e+00 1.824712157249450684e-01
1.607000000000000000e+03 5.709020614624023438e+01 2.522402763366699219e+01 -7.351127918809652328e-03 5.321757793426513672e+00 1.594322085380554199e+00 3.364540934562683105e-01
1.608000000000000000e+03 5.883846282958984375e+01 2.338114929199218750e+01 4.303898811340332031e-01 5.150691509246826172e+00 1.674324393272399902e+00 5.244427323341369629e-01
1.609000000000000000e+03 5.922360229492187500e+01 2.102649307250976562e+01 9.853881597518920898e-01 4.653927803039550781e+00 1.691794753074645996e+00 7.681962847709655762e-01
1.610000000000000000e+03 5.924370956420898438e+01 1.732132911682128906e+01 1.864552378654479980e+00 3.076370000839233398e+00 1.482276678085327148e+00 1.212208271026611328e+00
1.611000000000000000e+03 5.781921005249023438e+01 1.656835174560546875e+01 1.762285947799682617e+00 3.742863178253173828e+00 1.651544690132141113e+00 2.077669382095336914e+00
1.612000000000000000e+03 5.923133850097656250e+01 1.343546867370605469e+01 4.454220235347747803e-01 6.444274783134460449e-01 3.269548416137695312e-01 7.111003398895263672e-01
1.613000000000000000e+03 5.924608993530273438e+01 1.165130233764648438e+01 -1.188488364219665527e+00 -7.074123024940490723e-01 -5.687701702117919922e-01 -9.122957587242126465e-01
1.614000000000000000e+03 5.626387786865234375e+01 3.210745239257812500e+01 -2.519470751285552979e-01 4.922583580017089844e+00 1.401190996170043945e+00 -6.785803288221359253e-02
1.615000000000000000e+03 5.639015197753906250e+01 3.008576011657714844e+01 -2.324739694595336914e-01 5.053309917449951172e+00 1.446250796318054199e+00 -1.161628309637308121e-02
1.616000000000000000e+03 5.674311065673828125e+01 2.841428947448730469e+01 -1.739641129970550537e-01 5.155284404754638672e+00 1.494396090507507324e+00 8.080699294805526733e-02
1.617000000000000000e+03 5.605176925659179688e+01 2.650141525268554688e+01 -1.759284883737564087e-01 5.256411552429199219e+00 1.524144887924194336e+00 1.572652459144592285e-01
1.618000000000000000e+03 5.588866806030273438e+01 2.439109992980957031e+01 -1.223346516489982605e-01 5.462155818939208984e+00 1.601946353912353516e+00 3.622173964977264404e-01
1.619000000000000000e+03 5.650391387939453125e+01 2.250257301330566406e+01 1.671350598335266113e-01 5.522722721099853516e+00 1.706957340240478516e+00 7.799862623214721680e-01
1.620000000000000000e+03 5.627476882934570312e+01 2.040745544433593750e+01 4.578318595886230469e-01 5.660811901092529297e+00 1.835593104362487793e+00 1.341725230216979980e+00
1.621000000000000000e+03 5.714612579345703125e+01 1.938701629638671875e+01 9.548001885414123535e-01 5.080371379852294922e+00 1.810551524162292480e+00 1.599742650985717773e+00
1.622000000000000000e+03 5.596721649169921875e+01 1.636389923095703125e+01 1.463889837265014648e+00 5.738852500915527344e+00 2.160822629928588867e+00 2.639421224594116211e+00
1.623000000000000000e+03 5.715386962890625000e+01 1.616967391967773438e+01 1.745856404304504395e+00 4.267943382263183594e+00 1.804139971733093262e+00 2.401329278945922852e+00
1.624000000000000000e+03 5.726289749145507812e+01 1.428962802886962891e+01 1.721120834350585938e+00 3.328924179077148438e+00 1.515013575553894043e+00 2.222513675689697266e+00
1.625000000000000000e+03 5.765414047241210938e+01 1.262202739715576172e+01 9.184799194335937500e-01 1.871431112289428711e+00 8.369733095169067383e-01 1.294008493423461914e+00
1.626000000000000000e+03 5.275470733642578125e+01 4.081562042236328125e+01 -1.828177720308303833e-01 4.188866615295410156e+00 1.201814651489257812e+00 -3.653478622436523438e-02
1.627000000000000000e+03 5.326647567749023438e+01 3.754269027709960938e+01 -2.051448374986648560e-01 4.296865463256835938e+00 1.227516174316406250e+00 -1.149113848805427551e-01
1.628000000000000000e+03 5.470752716064453125e+01 2.992873191833496094e+01 -2.801135778427124023e-01 4.892158985137939453e+00 1.383613586425781250e+00 -1.359730809926986694e-01
1.629000000000000000e+03 5.528890609741210938e+01 2.807725334167480469e+01 -2.591843903064727783e-01 5.126688480377197266e+00 1.460251212120056152e+00 -6.099748425185680389e-03
1.630000000000000000e+03 5.470504379272460938e+01 2.581888389587402344e+01 -2.818746566772460938e-01 5.350534439086914062e+00 1.520598053932189941e+00 7.975273579359054565e-02
1.631000000000000000e+03 5.313436889648437500e+01 2.529249382019042969e+01 -4.156638681888580322e-01 5.312013626098632812e+00 1.468904972076416016e+00 -1.611929237842559814e-01
1.632000000000000000e+03 5.377161026000976562e+01 2.237087440490722656e+01 -4.271209239959716797e-01 6.004270553588867188e+00 1.673144817352294922e+00 2.678999304771423340e-01
1.633000000000000000e+03 5.554684066772460938e+01 2.028989982604980469e+01 1.998176425695419312e-01 6.069628238677978516e+00 1.880833745002746582e+00 1.318062663078308105e+00
1.634000000000000000e+03 5.484667587280273438e+01 1.946845245361328125e+01 8.504842966794967651e-02 6.607810497283935547e+00 2.007857799530029297e+00 1.455450534820556641e+00
1.635000000000000000e+03 5.438434219360351562e+01 1.689380264282226562e+01 7.220042347908020020e-01 7.721647739410400391e+00 2.533095598220825195e+00 2.386991739273071289e+00
1.636000000000000000e+03 5.382179641723632812e+01 1.541579246520996094e+01 1.656080961227416992e+00 9.118535041809082031e+00 3.232384681701660156e+00 2.699295997619628906e+00
1.637000000000000000e+03 5.409892272949218750e+01 1.431311702728271484e+01 2.464714050292968750e+00 8.797565460205078125e+00 3.378684043884277344e+00 2.759419918060302734e+00
1.638000000000000000e+03 5.422425079345703125e+01 3.210113143920898438e+01 -2.598963081836700439e-01 4.679849624633789062e+00 1.325986027717590332e+00 -1.778769493103027344e-01
1.639000000000000000e+03 5.308022689819335938e+01 2.956054115295410156e+01 -2.799770236015319824e-01 4.712210178375244141e+00 1.329669952392578125e+00 -2.596133053302764893e-01
1.640000000000000000e+03 5.232773590087890625e+01 2.713801574707031250e+01 -3.453506529331207275e-01 4.863631248474121094e+00 1.355484127998352051e+00 -3.418553769588470459e-01
1.641000000000000000e+03 5.150991439819335938e+01 2.495724105834960938e+01 -4.346500933170318604e-01 5.090123653411865234e+00 1.396642088890075684e+00 -5.170457959175109863e-01
1.642000000000000000e+03 5.374044418334960938e+01 2.140665817260742188e+01 -4.357515871524810791e-01 6.495869636535644531e+00 1.818035364151000977e+00 4.401232302188873291e-01
1.643000000000000000e+03 5.373844528198242188e+01 2.040596199035644531e+01 -4.350499510765075684e-01 6.892087936401367188e+00 1.937111496925354004e+00 7.466928958892822266e-01
1.644000000000000000e+03 5.316092300415039062e+01 1.920895767211914062e+01 -5.134890079498291016e-01 7.681455612182617188e+00 2.150389909744262695e+00 8.471278548240661621e-01
1.645000000000000000e+03 5.361216354370117188e+01 1.759070396423339844e+01 1.185619533061981201e-01 8.308946609497070312e+00 2.528252601623535156e+00 1.812790989875793457e+00
1.646000000000000000e+03 5.310891342163085938e+01 1.576513576507568359e+01 1.193004965782165527e+00 1.028489875793457031e+01 3.443371057510375977e+00 2.324752807617187500e+00
1.647000000000000000e+03 5.232169342041015625e+01 3.172699928283691406e+01 -2.603670358657836914e-01 4.414250850677490234e+00 1.246165156364440918e+00 -3.045408427715301514e-01
1.648000000000000000e+03 5.078182983398437500e+01 2.668734741210937500e+01 -3.411178886890411377e-01 4.576462745666503906e+00 1.270603537559509277e+00 -5.715408325195312500e-01
1.649000000000000000e+03 5.006436920166015625e+01 2.458820915222167969e+01 -3.915215432643890381e-01 4.682251453399658203e+00 1.287219047546386719e+00 -8.204500675201416016e-01
1.650000000000000000e+03 5.062261199951171875e+01 2.043580818176269531e+01 -6.976022124290466309e-01 6.403872966766357422e+00 1.711881279945373535e+00 -1.211053729057312012e+00
1.651000000000000000e+03 5.083648300170898438e+01 1.825061416625976562e+01 -8.932410478591918945e-01 8.542223930358886719e+00 2.294694900512695312e+00 -1.413738965988159180e+00
1.652000000000000000e+03 5.110527420043945312e+01 1.736990356445312500e+01 -9.737478494644165039e-01 1.022577857971191406e+01 2.775609254837036133e+00 -1.022296309471130371e+00
1.653000000000000000e+03 4.849158859252929688e+01 4.053413009643554688e+01 -2.174485474824905396e-02 3.385253906250000000e+00 1.009052753448486328e+00 -6.816174834966659546e-02
1.654000000000000000e+03 5.140943527221679688e+01 3.416465759277343750e+01 -1.788876503705978394e-01 4.123778820037841797e+00 1.183467388153076172e+00 -2.745363116264343262e-01
1.655000000000000000e+03 4.901266479492187500e+01 2.027438735961914062e+01 -1.857280135154724121e-01 4.916039943695068359e+00 1.419093608856201172e+00 -1.747696638107299805e+00
1.656000000000000000e+03 4.983545684814453125e+01 1.877756118774414062e+01 -3.969379663467407227e-01 6.553219795227050781e+00 1.846884608268737793e+00 -2.175350666046142578e+00
1.657000000000000000e+03 3.948565292358398438e+01 3.137184906005859375e+01 3.539083003997802734e-01 1.502276897430419922e+00 5.568555593490600586e-01 -3.701436817646026611e-01
1.658000000000000000e+03 3.924018096923828125e+01 2.915490341186523438e+01 3.614858984947204590e-01 1.324054360389709473e+00 5.056620836257934570e-01 -4.087988436222076416e-01
1.659000000000000000e+03 3.901386642456054688e+01 2.727662467956542969e+01 3.373254239559173584e-01 1.140491724014282227e+00 4.433451592922210693e-01 -4.211699664592742920e-01
1.660000000000000000e+03 3.873760986328125000e+01 2.565889930725097656e+01 3.190404474735260010e-01 9.621466398239135742e-01 3.843561410903930664e-01 -4.006961286067962646e-01
1.661000000000000000e+03 3.842722702026367188e+01 2.291063880920410156e+01 1.664713174104690552e-01 6.502970457077026367e-01 2.450305074453353882e-01 -3.117157518863677979e-01
1.662000000000000000e+03 4.023273086547851562e+01 1.960381317138671875e+01 -1.188241466879844666e-01 6.189527511596679688e-01 1.500385850667953491e-01 -3.009378910064697266e-01
1.663000000000000000e+03 3.906605148315429688e+01 1.789592552185058594e+01 -5.449365377426147461e-01 3.562324047088623047e-01 -5.661123618483543396e-02 -1.120914071798324585e-01
1.664000000000000000e+03 4.052806091308593750e+01 1.695407867431640625e+01 -6.264973878860473633e-01 5.436233282089233398e-01 -2.486222796142101288e-02 -1.010401323437690735e-01
1.665000000000000000e+03 3.861552429199218750e+01 1.509326553344726562e+01 -1.197398066520690918e+00 2.809229791164398193e-01 -2.749425172805786133e-01 1.157686039805412292e-01
1.666000000000000000e+03 3.877767181396484375e+01 1.364044857025146484e+01 -1.088251471519470215e+00 2.078960686922073364e-01 -2.641066312789916992e-01 3.563634753227233887e-01
1.667000000000000000e+03 3.747562789916992188e+01 2.937272644042968750e+01 3.818871974945068359e-01 1.041690826416015625e+00 4.270733892917633057e-01 -3.010254204273223877e-01
1.668000000000000000e+03 3.741979980468750000e+01 2.750200843811035156e+01 3.496403098106384277e-01 9.172297120094299316e-01 3.800610005855560303e-01 -2.982423007488250732e-01
1.669000000000000000e+03 3.714162445068359375e+01 2.587345314025878906e+01 2.998083829879760742e-01 7.348501682281494141e-01 3.103975653648376465e-01 -2.598904669284820557e-01
1.670000000000000000e+03 3.660012054443359375e+01 2.328161811828613281e+01 1.402355432510375977e-01 4.488610923290252686e-01 1.767289936542510986e-01 -1.520844250917434692e-01
1.671000000000000000e+03 3.890132141113281250e+01 2.005265426635742188e+01 -1.438929438591003418e-01 4.712710678577423096e-01 9.821344166994094849e-02 -2.424534559249877930e-01
1.672000000000000000e+03 3.806084060668945312e+01 1.838423156738281250e+01 -4.859215021133422852e-01 2.300934642553329468e-01 -7.674840837717056274e-02 -9.937208145856857300e-02
1.673000000000000000e+03 3.848172378540039062e+01 1.674767112731933594e+01 -8.438262939453125000e-01 2.503547370433807373e-01 -1.780414730310440063e-01 -3.010040521621704102e-02
1.674000000000000000e+03 3.647229766845703125e+01 1.531276035308837891e+01 -1.474432945251464844e+00 -2.577915489673614502e-01 -5.196673274040222168e-01 7.126270234584808350e-02
1.675000000000000000e+03 2.305065345764160156e+01 3.461110687255859375e+01 3.336395621299743652e-01 1.721969060599803925e-02 1.052577719092369080e-01 1.564714163541793823e-01
1.676000000000000000e+03 2.297864723205566406e+01 3.233432388305664062e+01 2.846161127090454102e-01 -1.871540956199169159e-02 7.977021485567092896e-02 2.000918388366699219e-01
1.677000000000000000e+03 2.490612602233886719e+01 3.182502937316894531e+01 3.224123120307922363e-01 4.854594916105270386e-02 1.112874820828437805e-01 1.942763179540634155e-01
1.678000000000000000e+03 2.453242111206054688e+01 2.993753242492675781e+01 2.455127537250518799e-01 6.962329149246215820e-03 7.574252784252166748e-02 2.381807863712310791e-01
1.679000000000000000e+03 2.414747238159179688e+01 2.826099586486816406e+01 1.634053885936737061e-01 -3.040630929172039032e-02 3.989972174167633057e-02 2.720088064670562744e-01
1.680000000000000000e+03 2.380055999755859375e+01 2.679832458496093750e+01 8.246758580207824707e-02 -6.401326507329940796e-02 5.536296404898166656e-03 2.998811304569244385e-01
1.681000000000000000e+03 2.322947311401367188e+01 2.258179664611816406e+01 -2.151722311973571777e-01 -1.379637867212295532e-01 -1.059408113360404968e-01 3.423280417919158936e-01
1.682000000000000000e+03 2.252871513366699219e+01 2.060920143127441406e+01 -3.841614127159118652e-01 -1.515497416257858276e-01 -1.607133448123931885e-01 3.587950170040130615e-01
1.683000000000000000e+03 2.231928443908691406e+01 1.846306228637695312e+01 -6.511908769607543945e-01 -1.612786352634429932e-01 -2.437408566474914551e-01 3.209642469882965088e-01
1.684000000000000000e+03 2.145927047729492188e+01 1.685476493835449219e+01 -7.307471036911010742e-01 1.949620433151721954e-02 -2.133752703666687012e-01 -9.271478629671037197e-04
1.685000000000000000e+03 2.252943611145019531e+01 1.644341087341308594e+01 -9.760179519653320312e-01 -5.020642280578613281e-02 -3.078672885894775391e-01 -1.878130584955215454e-01
1.686000000000000000e+03 2.115706443786621094e+01 3.242316055297851562e+01 2.486102581024169922e-01 -4.527034610509872437e-02 6.100197136402130127e-02 2.178982496261596680e-01
1.687000000000000000e+03 2.287681388854980469e+01 3.039949607849121094e+01 2.352764457464218140e-01 -3.353008255362510681e-02 6.052391231060028076e-02 2.489632219076156616e-01
1.688000000000000000e+03 2.265706443786621094e+01 2.869285583496093750e+01 1.581872254610061646e-01 -5.438419803977012634e-02 3.114090673625469208e-02 2.848119735717773438e-01
1.689000000000000000e+03 2.091276359558105469e+01 2.758447265625000000e+01 7.755482196807861328e-02 -8.468432724475860596e-02 -2.138851210474967957e-03 3.186275959014892578e-01
1.690000000000000000e+03 2.247768402099609375e+01 2.411244773864746094e+01 -9.855345636606216431e-02 -1.080471053719520569e-01 -6.198016926646232605e-02 3.495706319808959961e-01
1.691000000000000000e+03 2.184199523925781250e+01 2.213081169128417969e+01 -2.480575442314147949e-01 -1.115469634532928467e-01 -1.078813523054122925e-01 3.661171197891235352e-01
1.692000000000000000e+03 2.121176719665527344e+01 2.037514877319335938e+01 -4.034376144409179688e-01 -8.280715346336364746e-02 -1.458734273910522461e-01 3.548646271228790283e-01
1.693000000000000000e+03 2.162465858459472656e+01 1.914071464538574219e+01 -5.722858905792236328e-01 -8.842726796865463257e-02 -1.982139497995376587e-01 3.361291587352752686e-01
1.694000000000000000e+03 1.962952232360839844e+01 1.507895755767822266e+01 -2.287787050008773804e-01 -1.649839803576469421e-02 -7.358313351869583130e-02 -7.183665037155151367e-02
1.695000000000000000e+03 2.179125213623046875e+01 1.611642646789550781e+01 -6.675149202346801758e-01 -7.074797898530960083e-02 -2.214788794517517090e-01 -1.570232659578323364e-01
1.696000000000000000e+03 1.999377822875976562e+01 3.728705215454101562e+01 3.221841156482696533e-01 -5.447526276111602783e-02 8.031266182661056519e-02 1.269947588443756104e-01
1.697000000000000000e+03 2.072647094726562500e+01 3.462310409545898438e+01 2.969639003276824951e-01 -4.075120761990547180e-02 7.686381042003631592e-02 1.799457520246505737e-01
1.698000000000000000e+03 1.874433517456054688e+01 3.402202987670898438e+01 2.406092882156372070e-01 -8.793189376592636108e-02 4.580321535468101501e-02 1.987821161746978760e-01
1.699000000000000000e+03 2.136086463928222656e+01 3.060698890686035156e+01 2.067532837390899658e-01 -6.371811777353286743e-02 4.291054978966712952e-02 2.521551549434661865e-01
1.700000000000000000e+03 1.961668586730957031e+01 2.829089164733886719e+01 8.730380982160568237e-02 -8.125297725200653076e-02 1.815249095670878887e-03 3.092400431632995605e-01
1.701000000000000000e+03 1.909139823913574219e+01 2.727884292602539062e+01 4.954208061099052429e-02 -8.373626321554183960e-02 -1.025825366377830505e-02 3.202034235000610352e-01
1.702000000000000000e+03 2.000844764709472656e+01 2.446405029296875000e+01 -8.792571723461151123e-02 -7.664373517036437988e-02 -4.937083646655082703e-02 3.548145890235900879e-01
1.703000000000000000e+03 2.076569366455078125e+01 2.247790336608886719e+01 -2.186189442873001099e-01 -8.656120300292968750e-02 -9.155404567718505859e-02 3.680671453475952148e-01
1.704000000000000000e+03 2.034267807006835938e+01 2.087743186950683594e+01 -3.339444398880004883e-01 -5.087382718920707703e-02 -1.154454797506332397e-01 3.452007174491882324e-01
1.705000000000000000e+03 2.063932228088378906e+01 1.825108909606933594e+01 -5.741670727729797363e-01 5.195117555558681488e-03 -1.706915795803070068e-01 2.597649991512298584e-01
1.706000000000000000e+03 2.046941947937011719e+01 1.725391006469726562e+01 -5.911980867385864258e-01 4.624044150114059448e-02 -1.634872853755950928e-01 9.183721989393234253e-02
1.707000000000000000e+03 1.777973747253417969e+01 1.492899608612060547e+01 -1.633425951004028320e-01 3.448361158370971680e-02 -3.865769505500793457e-02 1.899028313346207142e-03
1.708000000000000000e+03 1.759098434448242188e+01 1.382643985748291016e+01 -4.929825663566589355e-02 9.756966494023799896e-03 -1.186238694936037064e-02 -2.934636315330862999e-03
1.709000000000000000e+03 1.626030349731445312e+01 1.300292682647705078e+01 2.358572185039520264e-02 3.445371985435485840e-02 1.741183176636695862e-02 3.212921321392059326e-02
1.710000000000000000e+03 1.432671070098876953e+01 1.479247665405273438e+01 -1.006333082914352417e-01 6.585744023323059082e-02 -1.043276023119688034e-02 4.745181649923324585e-02
1.711000000000000000e+03 1.348001384735107422e+01 1.660978126525878906e+01 -1.483313292264938354e-01 6.410335749387741089e-02 -2.526839077472686768e-02 8.136902749538421631e-02
1.712000000000000000e+03 1.128901481628417969e+01 1.879612922668457031e+01 -1.227951571345329285e-01 1.802437566220760345e-02 -3.143123537302017212e-02 1.204240247607231140e-01
1.713000000000000000e+03 8.616689682006835938e+00 2.064651298522949219e+01 -7.474011182785034180e-02 -4.733652248978614807e-02 -3.662298992276191711e-02 1.214049085974693298e-01
1.714000000000000000e+03 7.277530193328857422e+00 2.298299789428710938e+01 -4.661907255649566650e-02 -9.938238561153411865e-02 -4.380043968558311462e-02 1.289741396903991699e-01
1.715000000000000000e+03 5.946996688842773438e+00 2.392446327209472656e+01 -2.702993340790271759e-02 -1.363833993673324585e-01 -4.902400076389312744e-02 1.172845661640167236e-01
1.716000000000000000e+03 5.040663719177246094e+00 2.543074035644531250e+01 -1.633428037166595459e-02 -1.740227490663528442e-01 -5.710710585117340088e-02 1.120535805821418762e-01
1.717000000000000000e+03 2.173012018203735352e+00 2.751465034484863281e+01 -1.795828226022422314e-03 -2.594125270843505859e-01 -7.836250960826873779e-02 5.830335244536399841e-02
1.718000000000000000e+03 4.308511018753051758e-01 2.760113334655761719e+01 -1.686434989096596837e-04 -2.879986166954040527e-01 -8.645017445087432861e-02 1.297591626644134521e-02
1.719000000000000000e+03 1.289309501647949219e+00 2.835389709472656250e+01 -4.226373566780239344e-04 -2.950694561004638672e-01 -8.864762634038925171e-02 3.695202618837356567e-02
1.720000000000000000e+03 4.372401535511016846e-01 2.679255485534667969e+01 1.736617196002043784e-05 -2.638773024082183838e-01 -7.915797829627990723e-02 1.285389903932809830e-02
1.721000000000000000e+03 1.298779606819152832e+00 2.675037956237792969e+01 -7.891277200542390347e-04 -2.546570301055908203e-01 -7.663384824991226196e-02 3.623016178607940674e-02
1.722000000000000000e+03 2.888861656188964844e+00 2.438999176025390625e+01 -8.434668183326721191e-03 -1.822402030229568481e-01 -5.720245838165283203e-02 6.671980768442153931e-02
1.723000000000000000e+03 4.577882289886474609e+00 2.370149803161621094e+01 -1.852168887853622437e-02 -1.489026844501495361e-01 -5.022731423377990723e-02 9.277869015932083130e-02
1.724000000000000000e+03 6.508224010467529297e+00 2.136886215209960938e+01 -4.248388484120368958e-02 -8.929133415222167969e-02 -3.953256458044052124e-02 9.986175596714019775e-02
1.725000000000000000e+03 8.276033401489257812e+00 1.877149009704589844e+01 -6.753961741924285889e-02 -3.130293637514114380e-02 -2.965276688337326050e-02 8.684112876653671265e-02
1.726000000000000000e+03 1.034567642211914062e+01 1.688977050781250000e+01 -8.649226278066635132e-02 1.953651942312717438e-02 -2.008672244846820831e-02 7.337455451488494873e-02
1.727000000000000000e+03 1.212870311737060547e+01 1.595075798034667969e+01 -1.043158322572708130e-01 4.698359593749046326e-02 -1.719967089593410492e-02 6.340496242046356201e-02
1.728000000000000000e+03 1.314623546600341797e+01 1.365543079376220703e+01 -3.976090252399444580e-02 6.119558960199356079e-02 6.430406589061021805e-03 3.875058889389038086e-02
1.729000000000000000e+03 1.307779026031494141e+01 1.252635860443115234e+01 7.988774217665195465e-03 6.700427085161209106e-02 2.249791286885738373e-02 4.387579858303070068e-02
1.730000000000000000e+03 1.500830745697021484e+01 1.207139301300048828e+01 6.167478486895561218e-02 6.014437228441238403e-02 3.654574975371360779e-02 5.915006250143051147e-02
1.731000000000000000e+03 1.692036819458007812e+01 1.342619037628173828e+01 -1.178339309990406036e-02 1.781116425991058350e-02 1.808331231586635113e-03 1.517639681696891785e-02
1.732000000000000000e+03 1.955369567871093750e+01 3.208961486816406250e+01 2.137513011693954468e-01 -7.710844278335571289e-02 4.099285975098609924e-02 2.391406893730163574e-01
1.733000000000000000e+03 2.006622314453125000e+01 3.057476997375488281e+01 1.777622997760772705e-01 -7.476389408111572266e-02 3.089952468872070312e-02 2.610171139240264893e-01
1.734000000000000000e+03 1.910034179687500000e+01 3.008592224121093750e+01 1.423833668231964111e-01 -8.565933257341384888e-02 1.701720990240573883e-02 2.791262865066528320e-01
1.735000000000000000e+03 1.775953865051269531e+01 2.793642616271972656e+01 4.937604069709777832e-02 -8.957683295011520386e-02 -1.206023711711168289e-02 3.080813884735107422e-01
1.736000000000000000e+03 1.742966651916503906e+01 2.660331153869628906e+01 -5.330628249794244766e-03 -8.175282180309295654e-02 -2.612503618001937866e-02 3.212594389915466309e-01
1.737000000000000000e+03 1.881417846679687500e+01 2.499141883850097656e+01 -7.019577175378799438e-02 -7.372319698333740234e-02 -4.317569360136985779e-02 3.439223766326904297e-01
1.738000000000000000e+03 1.970791816711425781e+01 2.355512046813964844e+01 -1.516470760107040405e-01 -7.008150219917297363e-02 -6.651857495307922363e-02 3.581489026546478271e-01
1.739000000000000000e+03 1.776042366027832031e+01 2.014613914489746094e+01 -3.052922785282135010e-01 3.269821777939796448e-02 -8.177821338176727295e-02 2.659453749656677246e-01
1.740000000000000000e+03 1.847608947753906250e+01 1.883418846130371094e+01 -3.892923593521118164e-01 5.607810243964195251e-02 -9.996428340673446655e-02 2.181677669286727905e-01
1.741000000000000000e+03 1.845131683349609375e+01 1.541556167602539062e+01 -2.295097708702087402e-01 3.454572707414627075e-02 -5.848921090364456177e-02 -5.429157055914402008e-03
1.742000000000000000e+03 2.334068107604980469e+01 3.730897521972656250e+01 3.898657858371734619e-01 5.524741858243942261e-02 1.335339546203613281e-01 1.007490232586860657e-01
1.743000000000000000e+03 1.574439334869384766e+01 3.489311218261718750e+01 1.930120736360549927e-01 -1.514869779348373413e-01 1.245753001421689987e-02 1.720320135354995728e-01
1.744000000000000000e+03 1.821588897705078125e+01 3.134537696838378906e+01 1.670475006103515625e-01 -9.949447214603424072e-02 2.026590704917907715e-02 2.509134411811828613e-01
1.745000000000000000e+03 1.712715530395507812e+01 3.021356773376464844e+01 1.154816821217536926e-01 -1.070249751210212708e-01 2.537012798711657524e-03 2.697778344154357910e-01
1.746000000000000000e+03 1.624115371704101562e+01 2.879025268554687500e+01 6.155469641089439392e-02 -1.070755496621131897e-01 -1.365625578910112381e-02 2.817175090312957764e-01
1.747000000000000000e+03 1.581217002868652344e+01 2.705707550048828125e+01 -2.452490385621786118e-03 -8.747650682926177979e-02 -2.697869949042797089e-02 2.951698005199432373e-01
1.748000000000000000e+03 1.627021408081054688e+01 2.390676689147949219e+01 -1.271691471338272095e-01 -3.284985199570655823e-02 -4.800570011138916016e-02 3.035351634025573730e-01
1.749000000000000000e+03 1.753662300109863281e+01 2.273966979980468750e+01 -1.941906958818435669e-01 -1.949522271752357483e-02 -6.410577893257141113e-02 3.213891983032226562e-01
1.750000000000000000e+03 1.679125595092773438e+01 2.031032371520996094e+01 -2.698946893215179443e-01 3.994094952940940857e-02 -6.898612529039382935e-02 2.503851354122161865e-01
1.751000000000000000e+03 1.662396430969238281e+01 1.873418235778808594e+01 -2.959265708923339844e-01 7.150245457887649536e-02 -6.732723861932754517e-02 1.848316937685012817e-01
1.752000000000000000e+03 1.669566154479980469e+01 1.722269439697265625e+01 -2.835324108600616455e-01 8.318104594945907593e-02 -6.010541319847106934e-02 1.063149124383926392e-01
1.753000000000000000e+03 1.660778999328613281e+01 1.510900402069091797e+01 -1.546355038881301880e-01 6.006353348493576050e-02 -2.837159298360347748e-02 3.019241243600845337e-02
1.754000000000000000e+03 1.729303550720214844e+01 1.670654678344726562e+01 -2.867513298988342285e-01 7.654631882905960083e-02 -6.306149810552597046e-02 7.884975522756576538e-02
1.755000000000000000e+03 1.209145736694335938e+01 4.098255157470703125e+01 1.644378900527954102e-01 -2.200302183628082275e-01 -1.667769998311996460e-02 2.982334420084953308e-02
1.756000000000000000e+03 1.851563644409179688e+01 4.061993408203125000e+01 2.996970415115356445e-01 -1.042406037449836731e-01 5.863693356513977051e-02 4.572185501456260681e-02
1.757000000000000000e+03 1.714021682739257812e+01 3.297710800170898438e+01 1.872005015611648560e-01 -1.169830560684204102e-01 2.106523327529430389e-02 2.227963209152221680e-01
1.758000000000000000e+03 1.582040977478027344e+01 3.160570335388183594e+01 1.318328976631164551e-01 -1.323721408843994141e-01 -1.617693487787619233e-04 2.384478151798248291e-01
1.759000000000000000e+03 1.470893955230712891e+01 3.007119178771972656e+01 7.393081486225128174e-02 -1.301641762256622314e-01 -1.687001064419746399e-02 2.541073560714721680e-01
1.760000000000000000e+03 1.353865528106689453e+01 2.884931182861328125e+01 3.278686478734016418e-02 -1.258596777915954590e-01 -2.792184613645076752e-02 2.513736486434936523e-01
1.761000000000000000e+03 1.466175270080566406e+01 2.493522453308105469e+01 -7.729396224021911621e-02 -5.560533702373504639e-02 -3.986978903412818909e-02 2.792172729969024658e-01
1.762000000000000000e+03 1.445047950744628906e+01 2.229310798645019531e+01 -1.545034050941467285e-01 -6.922958884388208389e-03 -4.842790588736534119e-02 2.491380721330642700e-01
1.763000000000000000e+03 1.511995029449462891e+01 2.007590293884277344e+01 -2.212681174278259277e-01 4.217655211687088013e-02 -5.372747033834457397e-02 2.069080471992492676e-01
1.764000000000000000e+03 1.561016082763671875e+01 1.792883491516113281e+01 -2.466872036457061768e-01 7.484433799982070923e-02 -5.155285820364952087e-02 1.360517740249633789e-01
1.765000000000000000e+03 1.511154842376708984e+01 1.457671070098876953e+01 -9.066267311573028564e-02 6.278503686189651489e-02 -8.363290689885616302e-03 3.597460314631462097e-02
1.766000000000000000e+03 1.546088123321533203e+01 3.920743179321289062e+01 2.248788475990295410e-01 -1.647306531667709351e-01 1.804445870220661163e-02 6.979918479919433594e-02
1.767000000000000000e+03 1.435092163085937500e+01 3.320451354980468750e+01 1.317131668329238892e-01 -1.625704169273376465e-01 -9.257175028324127197e-03 2.009776383638381958e-01
1.768000000000000000e+03 1.321931934356689453e+01 3.158008384704589844e+01 8.739552646875381470e-02 -1.633924096822738647e-01 -2.279906347393989563e-02 2.137816697359085083e-01
1.769000000000000000e+03 1.222575569152832031e+01 3.018914985656738281e+01 5.000919848680496216e-02 -1.573643386363983154e-01 -3.220654278993606567e-02 2.222350388765335083e-01
1.770000000000000000e+03 1.237696075439453125e+01 2.796314620971679688e+01 -7.442478672601282597e-04 -1.229612231254577637e-01 -3.711163997650146484e-02 2.384487092494964600e-01
1.771000000000000000e+03 1.388771152496337891e+01 2.597175407409667969e+01 -4.100006446242332458e-02 -7.866314053535461426e-02 -3.589896112680435181e-02 2.749935686588287354e-01
1.772000000000000000e+03 1.357968044281005859e+01 2.426325035095214844e+01 -8.959767967462539673e-02 -5.062653496861457825e-02 -4.206726327538490295e-02 2.553106844425201416e-01
1.773000000000000000e+03 1.348633480072021484e+01 2.193391036987304688e+01 -1.451902836561203003e-01 -3.475550329312682152e-03 -4.459974914789199829e-02 2.220646589994430542e-01
1.774000000000000000e+03 1.414178180694580078e+01 2.039207839965820312e+01 -1.881303936243057251e-01 3.191474452614784241e-02 -4.686469584703445435e-02 1.977524906396865845e-01
1.775000000000000000e+03 1.431286430358886719e+01 1.851448249816894531e+01 -2.019710391759872437e-01 5.594424158334732056e-02 -4.380803555250167847e-02 1.476798504590988159e-01
1.776000000000000000e+03 1.414391422271728516e+01 1.726893615722656250e+01 -1.844151914119720459e-01 6.551679223775863647e-02 -3.566952049732208252e-02 1.058865487575531006e-01
1.777000000000000000e+03 8.007408142089843750e+00 4.119795608520507812e+01 7.415562868118286133e-02 -3.154625892639160156e-01 -7.239208370447158813e-02 1.709281653165817261e-02
1.778000000000000000e+03 1.063817119598388672e+01 3.582479858398437500e+01 9.915203601121902466e-02 -2.302153408527374268e-01 -3.931898996233940125e-02 1.267688423395156860e-01
1.779000000000000000e+03 1.262030220031738281e+01 3.470609664916992188e+01 1.251863688230514526e-01 -1.983571797609329224e-01 -2.195124141871929169e-02 1.598381698131561279e-01
1.780000000000000000e+03 1.383406639099121094e+01 3.682191085815429688e+01 1.612255722284317017e-01 -1.879705637693405151e-01 -8.023495785892009735e-03 1.261530518531799316e-01
1.781000000000000000e+03 1.163178348541259766e+01 3.284454345703125000e+01 8.201760798692703247e-02 -1.931275725364685059e-01 -3.333299234509468079e-02 1.822535097599029541e-01
1.782000000000000000e+03 1.142686653137207031e+01 2.705887413024902344e+01 -1.526575908064842224e-02 -1.201235279440879822e-01 -4.061678797006607056e-02 2.226359397172927856e-01
1.783000000000000000e+03 1.133359909057617188e+01 2.538940429687500000e+01 -4.918959736824035645e-02 -9.064681082963943481e-02 -4.195092245936393738e-02 2.199383080005645752e-01
1.784000000000000000e+03 1.171011638641357422e+01 2.311183547973632812e+01 -9.517328441143035889e-02 -4.592338576912879944e-02 -4.232899844646453857e-02 2.076369374990463257e-01
1.785000000000000000e+03 1.177630329132080078e+01 2.106884765625000000e+01 -1.246049627661705017e-01 -7.565226405858993530e-03 -3.965105488896369934e-02 1.746472418308258057e-01
1.786000000000000000e+03 1.149622344970703125e+01 1.989941024780273438e+01 -1.273934841156005859e-01 6.797044072300195694e-03 -3.617893159389495850e-02 1.470779478549957275e-01
1.787000000000000000e+03 1.133173656463623047e+01 3.818857192993164062e+01 1.327249854803085327e-01 -2.347476184368133545e-01 -3.060678765177726746e-02 9.356183558702468872e-02
1.788000000000000000e+03 8.602659225463867188e+00 3.869720077514648438e+01 9.409642964601516724e-02 -2.859953641891479492e-01 -5.756967514753341675e-02 6.498625874519348145e-02
1.789000000000000000e+03 9.961447715759277344e+00 3.381288909912109375e+01 7.458511739969253540e-02 -2.257618606090545654e-01 -4.535302147269248962e-02 1.535100936889648438e-01
1.790000000000000000e+03 7.504422187805175781e+00 3.141818046569824219e+01 2.630092948675155640e-02 -2.370616644620895386e-01 -6.322821974754333496e-02 1.478379368782043457e-01
1.791000000000000000e+03 9.603470802307128906e+00 2.849907112121582031e+01 3.217217512428760529e-03 -1.615743339061737061e-01 -4.750713333487510681e-02 1.947849392890930176e-01
1.792000000000000000e+03 9.799156188964843750e+00 2.690767097473144531e+01 -1.836522109806537628e-02 -1.348279565572738647e-01 -4.595795273780822754e-02 1.968071460723876953e-01
1.793000000000000000e+03 1.058825111389160156e+01 2.619278717041015625e+01 -3.219327703118324280e-02 -1.146861538290977478e-01 -4.406382888555526733e-02 2.112827301025390625e-01
1.794000000000000000e+03 9.801325798034667969e+00 2.399821662902832031e+01 -6.040409579873085022e-02 -8.406613767147064209e-02 -4.334107041358947754e-02 1.822141110897064209e-01
1.795000000000000000e+03 9.685014724731445312e+00 2.281872940063476562e+01 -7.410845905542373657e-02 -6.395499408245086670e-02 -4.141903296113014221e-02 1.685269474983215332e-01
1.796000000000000000e+03 9.057922363281250000e+00 2.114539909362792969e+01 -7.737399637699127197e-02 -4.873387515544891357e-02 -3.783236071467399597e-02 1.347361057996749878e-01
1.797000000000000000e+03 8.276516914367675781e+00 3.443497467041015625e+01 5.711482465267181396e-02 -2.574835419654846191e-01 -6.011061370372772217e-02 1.281859427690505981e-01
1.798000000000000000e+03 7.883651733398437500e+00 3.274909973144531250e+01 4.102284461259841919e-02 -2.481306791305541992e-01 -6.213235110044479370e-02 1.432013213634490967e-01
1.799000000000000000e+03 7.456410408020019531e+00 3.031936264038085938e+01 1.293379254639148712e-02 -2.187105715274810791e-01 -6.173303350806236267e-02 1.554180234670639038e-01
1.800000000000000000e+03 7.917121887207031250e+00 2.942518806457519531e+01 1.077217608690261841e-02 -2.038830816745758057e-01 -5.793327465653419495e-02 1.620931923389434814e-01
1.801000000000000000e+03 8.165839195251464844e+00 2.804191970825195312e+01 -3.065712982788681984e-03 -1.731646507978439331e-01 -5.286911129951477051e-02 1.740794032812118530e-01
1.802000000000000000e+03 8.509546279907226562e+00 2.382451820373535156e+01 -5.088169500231742859e-02 -9.732688218355178833e-02 -4.446257278323173523e-02 1.590596288442611694e-01
1.803000000000000000e+03 6.431907653808593750e+00 3.857056427001953125e+01 5.498326569795608521e-02 -3.327139616012573242e-01 -8.331920951604843140e-02 5.769607052206993103e-02
1.804000000000000000e+03 6.769780158996582031e+00 3.660737609863281250e+01 5.445960909128189087e-02 -3.109890818595886230e-01 -7.695884257555007935e-02 8.782598376274108887e-02
1.805000000000000000e+03 6.667142391204833984e+00 3.472841644287109375e+01 4.263219609856605530e-02 -2.940354049205780029e-01 -7.542096823453903198e-02 1.103359833359718323e-01
1.806000000000000000e+03 6.498971939086914062e+00 3.300461196899414062e+01 3.075659647583961487e-02 -2.777668535709381104e-01 -7.410307973623275757e-02 1.222384348511695862e-01
1.807000000000000000e+03 6.282243728637695312e+00 3.013937568664550781e+01 9.246942587196826935e-03 -2.362568825483322144e-01 -6.810298562049865723e-02 1.376681029796600342e-01
1.808000000000000000e+03 6.089542865753173828e+00 2.775957298278808594e+01 -7.033668924123048782e-03 -2.004230618476867676e-01 -6.223702058196067810e-02 1.378811597824096680e-01
1.809000000000000000e+03 6.196846008300781250e+00 2.640784835815429688e+01 -1.597294583916664124e-02 -1.748621761798858643e-01 -5.725053697824478149e-02 1.374052762985229492e-01
1.810000000000000000e+03 6.997664451599121094e+00 2.453670692443847656e+01 -3.140287473797798157e-02 -1.328438818454742432e-01 -4.927402734756469727e-02 1.413046866655349731e-01
1.811000000000000000e+03 3.287337303161621094e+00 4.180504226684570312e+01 1.843949407339096069e-02 -4.459267258644104004e-01 -1.282461732625961304e-01 3.157948609441518784e-03
1.812000000000000000e+03 5.319749355316162109e+00 4.061560058593750000e+01 3.155963122844696045e-02 -3.786744475364685059e-01 -1.041344404220581055e-01 2.546706609427928925e-02
1.813000000000000000e+03 4.101427555084228516e+00 3.963238906860351562e+01 1.890473626554012299e-02 -4.140629172325134277e-01 -1.185474544763565063e-01 2.614865638315677643e-02
1.814000000000000000e+03 4.915893554687500000e+00 3.817757415771484375e+01 3.101094439625740051e-02 -3.814646303653717041e-01 -1.051361113786697388e-01 5.091908574104309082e-02
1.815000000000000000e+03 4.057941913604736328e+00 3.530960845947265625e+01 1.925352960824966431e-02 -3.709493875503540039e-01 -1.055087596178054810e-01 7.017337530851364136e-02
1.816000000000000000e+03 5.263665676116943359e+00 3.502362442016601562e+01 3.003982268273830414e-02 -3.309819698333740234e-01 -9.028264135122299194e-02 8.983299136161804199e-02
1.817000000000000000e+03 5.257858276367187500e+00 3.284685134887695312e+01 2.086271159350872040e-02 -3.018836379051208496e-01 -8.430627733469009399e-02 1.079384163022041321e-01
1.818000000000000000e+03 4.243874549865722656e+00 3.153699111938476562e+01 1.065063290297985077e-02 -3.043713271617889404e-01 -8.811620622873306274e-02 9.719061851501464844e-02
1.819000000000000000e+03 3.875621557235717773e+00 2.908170127868652344e+01 3.428214404266327620e-04 -2.609438896179199219e-01 -7.818032056093215942e-02 9.668532013893127441e-02
1.820000000000000000e+03 3.822883367538452148e+00 2.755320739746093750e+01 -3.901190590113401413e-03 -2.346819639205932617e-01 -7.157494872808456421e-02 9.584071487188339233e-02
1.821000000000000000e+03 4.454597949981689453e+00 2.594641113281250000e+01 -9.993224404752254486e-03 -1.939241737127304077e-01 -6.117521971464157104e-02 1.026311144232749939e-01
1.822000000000000000e+03 2.299529314041137695e+00 3.986180496215820312e+01 4.891121760010719299e-03 -4.725368320941925049e-01 -1.402937173843383789e-01 1.725916750729084015e-02
1.823000000000000000e+03 3.625908851623535156e+00 3.776887512207031250e+01 1.524709165096282959e-02 -4.160312116146087646e-01 -1.202352344989776611e-01 4.000588506460189819e-02
1.824000000000000000e+03 3.135700941085815430e+00 3.645501327514648438e+01 1.158607285469770432e-02 -4.127618670463562012e-01 -1.203527376055717468e-01 4.764880612492561340e-02
1.825000000000000000e+03 2.009490728378295898e+00 3.526147460937500000e+01 6.455235648900270462e-03 -4.376544952392578125e-01 -1.293597817420959473e-01 3.666785731911659241e-02
1.826000000000000000e+03 2.235099554061889648e+00 3.236052322387695312e+01 4.474200308322906494e-03 -3.705057501792907715e-01 -1.098094657063484192e-01 5.533421784639358521e-02
1.827000000000000000e+03 2.239537000656127930e+00 3.071053504943847656e+01 1.736153499223291874e-03 -3.340630531311035156e-01 -9.969807416200637817e-02 5.833984911441802979e-02
1.828000000000000000e+03 2.162880659103393555e+00 2.910425949096679688e+01 3.994470753241330385e-04 -2.977736890316009521e-01 -8.921227604150772095e-02 5.876395478844642639e-02
1.829000000000000000e+03 3.027741909027099609e+00 2.832016944885253906e+01 -2.083840779960155487e-03 -2.629492282867431641e-01 -7.950992137193679810e-02 7.723172754049301147e-02
1.830000000000000000e+03 4.214422702789306641e-01 4.206206893920898438e+01 -8.849804289638996124e-04 -5.716639161109924316e-01 -1.717646718025207520e-01 -1.054069143719971180e-03
1.831000000000000000e+03 1.454257130622863770e+00 4.198859786987304688e+01 2.994374372065067291e-03 -5.314306616783142090e-01 -1.585308909416198730e-01 5.331973545253276825e-03
1.832000000000000000e+03 1.580424904823303223e+00 4.105587005615234375e+01 8.625646121799945831e-03 -5.125818848609924316e-01 -1.511868834495544434e-01 9.232624433934688568e-03
1.833000000000000000e+03 1.504955053329467773e+00 3.956483840942382812e+01 9.332648478448390961e-04 -5.023974180221557617e-01 -1.504392325878143311e-01 1.521376427263021469e-02
1.834000000000000000e+03 1.747227549552917480e+00 3.777495574951171875e+01 2.609229646623134613e-03 -4.788660109043121338e-01 -1.428770273923873901e-01 2.283826842904090881e-02
1.835000000000000000e+03 4.068949222564697266e-01 3.480878448486328125e+01 4.566149145830422640e-04 -4.842710494995117188e-01 -1.451443284749984741e-01 7.999763824045658112e-03
1.836000000000000000e+03 1.207807779312133789e+00 3.470735549926757812e+01 3.384263953194022179e-03 -4.525656700134277344e-01 -1.347544193267822266e-01 2.432770282030105591e-02
1.837000000000000000e+03 1.317450165748596191e+00 3.236952209472656250e+01 2.021163236349821091e-03 -3.982883989810943604e-01 -1.188801676034927368e-01 3.387780487537384033e-02
1.838000000000000000e+03 1.328593373298645020e+00 3.075882720947265625e+01 8.119753911159932613e-04 -3.577114939689636230e-01 -1.070698574185371399e-01 3.688275441527366638e-02
1.839000000000000000e+03 1.312060236930847168e+00 2.995459365844726562e+01 2.547469921410083771e-04 -3.374838232994079590e-01 -1.011687219142913818e-01 3.682896122336387634e-02
1.840000000000000000e+03 4.430466592311859131e-01 2.516579818725585938e+01 3.068874066229909658e-04 -2.200750559568405151e-01 -6.593044847249984741e-02 1.158164534717798233e-02
1.841000000000000000e+03 1.351279020309448242e+00 2.505195999145507812e+01 -2.946321619674563408e-03 -2.098702639341354370e-01 -6.384497880935668945e-02 3.475666791200637817e-02
1.842000000000000000e+03 1.895670294761657715e+00 2.334251403808593750e+01 -3.683342365548014641e-03 -1.692954301834106445e-01 -5.189362913370132446e-02 4.030130431056022644e-02
1.843000000000000000e+03 4.386731624603271484e+00 2.097499084472656250e+01 -2.164983935654163361e-02 -1.110185831785202026e-01 -3.980052843689918518e-02 6.804658472537994385e-02
1.844000000000000000e+03 6.612828254699707031e+00 1.940270042419433594e+01 -4.562785103917121887e-02 -5.941480398178100586e-02 -3.151279687881469727e-02 7.862374931573867798e-02
1.845000000000000000e+03 8.172648429870605469e+00 1.688491821289062500e+01 -5.403602495789527893e-02 -1.704998128116130829e-02 -2.132580056786537170e-02 5.853863805532455444e-02
1.846000000000000000e+03 1.009796428680419922e+01 1.450517654418945312e+01 -4.414633661508560181e-02 2.672512456774711609e-02 -5.226363893598318100e-03 3.614719957113265991e-02
1.847000000000000000e+03 1.234714984893798828e+01 1.445124912261962891e+01 -6.196650117635726929e-02 5.317584797739982605e-02 -2.637195633724331856e-03 4.044336080551147461e-02
1.848000000000000000e+03 1.275867080688476562e+01 1.133587265014648438e+01 4.538803920149803162e-02 7.333399355411529541e-02 3.561661019921302795e-02 5.568839609622955322e-02
1.849000000000000000e+03 1.321906280517578125e+01 1.056320381164550781e+01 7.782933115959167480e-02 7.947516441345214844e-02 4.719135165214538574e-02 7.937331497669219971e-02
1.850000000000000000e+03 1.441190433502197266e+01 1.158285903930664062e+01 6.860246509313583374e-02 6.454169005155563354e-02 3.994324430823326111e-02 6.846246123313903809e-02
1.851000000000000000e+03 3.850985169410705566e-01 2.355976486206054688e+01 2.315445999556686729e-05 -1.788718998432159424e-01 -5.365462228655815125e-02 8.891562931239604950e-03
1.852000000000000000e+03 1.148195743560791016e+00 2.345388603210449219e+01 -2.664605388417840004e-03 -1.747982650995254517e-01 -5.323885753750801086e-02 2.570198476314544678e-02
1.853000000000000000e+03 1.873772978782653809e+00 2.189210700988769531e+01 -3.805208485573530197e-03 -1.426233351230621338e-01 -4.392855986952781677e-02 3.396927192807197571e-02
1.854000000000000000e+03 4.654418945312500000e+00 1.973233604431152344e+01 -2.480714768171310425e-02 -9.071800112724304199e-02 -3.465754538774490356e-02 5.928840488195419312e-02
1.855000000000000000e+03 5.736856937408447266e+00 1.759789085388183594e+01 -3.039383701980113983e-02 -5.730606615543365479e-02 -2.630997076630592346e-02 4.905198141932487488e-02
1.856000000000000000e+03 1.118208312988281250e+01 1.245009231567382812e+01 1.245297491550445557e-03 4.687764495611190796e-02 1.443688198924064636e-02 3.171093389391899109e-02
1.857000000000000000e+03 1.381433010101318359e+01 1.107980251312255859e+01 7.542932033538818359e-02 7.508166134357452393e-02 4.515329375863075256e-02 7.264458388090133667e-02
1.858000000000000000e+03 3.711067736148834229e-01 2.196903419494628906e+01 3.983938368037343025e-04 -1.445159912109375000e-01 -4.323527961969375610e-02 6.950911134481430054e-03
1.859000000000000000e+03 1.142350912094116211e+00 2.114189338684082031e+01 -1.154055586084723473e-03 -1.310971677303314209e-01 -3.967536985874176025e-02 1.918287947773933411e-02
1.860000000000000000e+03 2.116078853607177734e+00 1.962301063537597656e+01 -5.816527642309665680e-03 -1.068902611732482910e-01 -3.381203860044479370e-02 2.707462944090366364e-02
1.861000000000000000e+03 4.009679317474365234e+00 1.752265739440917969e+01 -1.432922761887311935e-02 -7.297916710376739502e-02 -2.619251981377601624e-02 3.371584415435791016e-02
1.862000000000000000e+03 5.393495082855224609e+00 1.575551509857177734e+01 -1.548381615430116653e-02 -4.794875159859657288e-02 -1.902977004647254944e-02 3.321471810340881348e-02
1.863000000000000000e+03 8.191916465759277344e+00 1.404199218750000000e+01 -2.123280987143516541e-02 -4.376940894871950150e-03 -7.682925090193748474e-03 2.714004740118980408e-02
1.864000000000000000e+03 9.783295631408691406e+00 1.240768241882324219e+01 -2.650063543114811182e-04 3.216352686285972595e-02 9.569556452333927155e-03 2.624123729765415192e-02
1.865000000000000000e+03 1.105111694335937500e+01 9.661878585815429688e+00 4.891436547040939331e-02 8.263904601335525513e-02 3.946602344512939453e-02 5.357719585299491882e-02
1.866000000000000000e+03 1.155861282348632812e+01 8.909649848937988281e+00 7.847096771001815796e-02 1.202127262949943542e-01 5.960510671138763428e-02 8.724389225244522095e-02
1.867000000000000000e+03 1.157662677764892578e+01 1.016313457489013672e+01 5.341732501983642578e-02 8.702736347913742065e-02 4.213340580463409424e-02 5.773492902517318726e-02
1.868000000000000000e+03 4.165892601013183594e-01 1.955967140197753906e+01 -1.469094189815223217e-03 -1.062876507639884949e-01 -3.232702240347862244e-02 5.109831690788269043e-03
1.869000000000000000e+03 1.281689763069152832e+00 1.951640510559082031e+01 -1.536314142867922783e-03 -1.077629178762435913e-01 -3.278977051377296448e-02 1.627979055047035217e-02
1.870000000000000000e+03 3.219134569168090820e+00 1.753956794738769531e+01 -9.163407608866691589e-03 -8.002218604087829590e-02 -2.675567753612995148e-02 2.805897593498229980e-02
1.871000000000000000e+03 3.956735610961914062e+00 1.489175891876220703e+01 -6.028420757502317429e-03 -5.549957230687141418e-02 -1.845839805901050568e-02 2.027132362127304077e-02
1.872000000000000000e+03 5.836924076080322266e+00 1.397566986083984375e+01 -4.985273350030183792e-03 -3.293023258447647095e-02 -1.137465238571166992e-02 2.483842335641384125e-02
1.873000000000000000e+03 8.438558578491210938e+00 1.250409507751464844e+01 2.113436581566929817e-03 -3.264101454988121986e-03 -3.451994853094220161e-04 1.958561316132545471e-02
1.874000000000000000e+03 1.007532501220703125e+01 1.090384578704833984e+01 2.685246616601943970e-02 3.830192610621452332e-02 1.954631693661212921e-02 2.600198611617088318e-02
1.875000000000000000e+03 1.208684825897216797e+01 9.449948310852050781e+00 7.960441708564758301e-02 9.756731986999511719e-02 5.315152183175086975e-02 8.751159906387329102e-02
1.876000000000000000e+03 3.826127946376800537e-01 1.795220565795898438e+01 -1.559515716508030891e-03 -8.958134800195693970e-02 -2.734225988388061523e-02 3.416035557165741920e-03
1.877000000000000000e+03 1.147216916084289551e+00 1.787289619445800781e+01 -5.866894498467445374e-04 -8.923620730638504028e-02 -2.694686874747276306e-02 1.001073885709047318e-02
1.878000000000000000e+03 2.487096309661865234e+00 1.625568008422851562e+01 -3.718800377100706100e-03 -7.306087762117385864e-02 -2.303390204906463623e-02 1.579268276691436768e-02
1.879000000000000000e+03 3.968233823776245117e+00 1.415984439849853516e+01 -8.834465988911688328e-04 -5.368724465370178223e-02 -1.637120731174945831e-02 1.860266737639904022e-02
1.880000000000000000e+03 5.749879837036132812e+00 1.294948005676269531e+01 6.932079326361417770e-03 -3.361345455050468445e-02 -8.004412055015563965e-03 2.224185131490230560e-02
1.881000000000000000e+03 8.572016716003417969e+00 1.079003524780273438e+01 3.321501240134239197e-02 1.125228498131036758e-02 1.334018912166357040e-02 2.029903419315814972e-02
1.882000000000000000e+03 9.992614746093750000e+00 8.883627891540527344e+00 4.469433426856994629e-02 6.929203122854232788e-02 3.419591113924980164e-02 3.122609481215476990e-02
1.883000000000000000e+03 9.913230895996093750e+00 7.819618225097656250e+00 4.132988303899765015e-02 9.014352411031723022e-02 3.944202139973640442e-02 2.550140954554080963e-02
1.884000000000000000e+03 1.052359771728515625e+01 9.265100479125976562e+00 5.736253783106803894e-02 9.257090836763381958e-02 4.498003423213958740e-02 4.532710835337638855e-02
1.885000000000000000e+03 3.509769439697265625e-01 1.635735893249511719e+01 -1.568380976095795631e-03 -7.788466662168502808e-02 -2.383591420948505402e-02 1.916308188810944557e-03
1.886000000000000000e+03 1.057723879814147949e+00 1.632385635375976562e+01 1.667132019065320492e-04 -7.751948386430740356e-02 -2.320583164691925049e-02 6.075118202716112137e-03
1.887000000000000000e+03 2.529337644577026367e+00 1.407484817504882812e+01 -3.496508288662880659e-04 -6.040693819522857666e-02 -1.822697557508945465e-02 1.177283097058534622e-02
1.888000000000000000e+03 4.686256408691406250e+00 1.211158752441406250e+01 1.064864639192819595e-02 -4.189616814255714417e-02 -9.374256245791912079e-03 2.036418206989765167e-02
1.889000000000000000e+03 6.923347949981689453e+00 1.079948520660400391e+01 2.260877005755901337e-02 -2.885234542191028595e-02 -1.873072818852961063e-03 2.204538136720657349e-02
1.890000000000000000e+03 8.395848274230957031e+00 7.956811904907226562e+00 6.168871745467185974e-02 -1.084237918257713318e-02 1.525390148162841797e-02 2.430244721472263336e-02
1.891000000000000000e+03 9.295445442199707031e+00 6.614849567413330078e+00 5.135165899991989136e-02 -7.979504298418760300e-04 1.516611315310001373e-02 -1.213754992932081223e-02
1.892000000000000000e+03 3.519645631313323975e-01 1.476751899719238281e+01 -1.478150836192071438e-03 -7.053996622562408447e-02 -2.160543575882911682e-02 1.350829843431711197e-03
1.893000000000000000e+03 1.062004327774047852e+00 1.477718448638916016e+01 8.527860627509653568e-04 -6.872207671403884888e-02 -2.036078646779060364e-02 4.610003437846899033e-03
1.894000000000000000e+03 2.569054126739501953e+00 1.253887844085693359e+01 2.803812036290764809e-03 -5.287145078182220459e-02 -1.502029225230216980e-02 1.297448202967643738e-02
1.895000000000000000e+03 4.508962631225585938e+00 1.039525890350341797e+01 1.217654068022966385e-02 -4.251316934823989868e-02 -9.100989438593387604e-03 2.827744372189044952e-02
1.896000000000000000e+03 6.350917816162109375e+00 7.845260620117187500e+00 7.126481737941503525e-03 -4.550570249557495117e-02 -1.151376683264970779e-02 6.093157455325126648e-02
1.897000000000000000e+03 7.636425018310546875e+00 6.642635822296142578e+00 -3.109001740813255310e-02 -3.193978965282440186e-02 -1.890894211828708649e-02 9.060325473546981812e-02
1.898000000000000000e+03 8.438148498535156250e+00 6.593603134155273438e+00 1.991882734000682831e-02 -1.126963868737220764e-01 -2.783326804637908936e-02 1.008267328143119812e-01
1.899000000000000000e+03 3.616935610771179199e-01 1.317334556579589844e+01 -1.319871633313596249e-03 -6.402251124382019043e-02 -1.960271410644054413e-02 1.536737661808729172e-03
1.900000000000000000e+03 1.088077425956726074e+00 1.321158504486083984e+01 1.669641467742621899e-03 -6.087454408407211304e-02 -1.776147074997425079e-02 5.067289806902408600e-03
1.901000000000000000e+03 1.875737786293029785e+00 1.088957309722900391e+01 4.197781439870595932e-03 -4.525067657232284546e-02 -1.231586840003728867e-02 1.389589812606573105e-02
1.902000000000000000e+03 5.108704090118408203e+00 7.997206687927246094e+00 -1.592896063812077045e-03 -3.566883131861686707e-02 -1.117851771414279938e-02 4.445818811655044556e-02
1.903000000000000000e+03 6.241670608520507812e+00 7.112198352813720703e+00 -1.815431006252765656e-02 -1.339453924447298050e-02 -9.464655071496963501e-03 6.680419296026229858e-02
1.904000000000000000e+03 5.921204090118408203e+00 6.563839912414550781e+00 -4.340897127985954285e-02 -1.614186912775039673e-02 -1.786525174975395203e-02 5.392471328377723694e-02
1.905000000000000000e+03 3.716233074665069580e-01 1.157190036773681641e+01 -1.137662562541663647e-03 -5.508319661021232605e-02 -1.686625741422176361e-02 2.461624797433614731e-03
1.906000000000000000e+03 1.114723086357116699e+00 1.162285137176513672e+01 2.398687181994318962e-03 -5.189191177487373352e-02 -1.484796777367591858e-02 7.359770126640796661e-03
1.907000000000000000e+03 1.950152635574340820e+00 9.283276557922363281e+00 3.696487983688712120e-03 -3.448206186294555664e-02 -9.235671721398830414e-03 1.833772659301757812e-02
1.908000000000000000e+03 4.906256198883056641e+00 7.247956275939941406e+00 -1.079117227345705032e-02 -1.277248002588748932e-02 -7.069095503538846970e-03 4.581789672374725342e-02
1.909000000000000000e+03 3.913580417633056641e+00 4.902191162109375000e+00 -3.213588893413543701e-02 3.805365122389048338e-04 -9.526605717837810516e-03 5.372112616896629333e-03
1.910000000000000000e+03 3.846853971481323242e-01 9.964598655700683594e+00 -8.708044770173728466e-04 -4.148168116807937622e-02 -1.270574610680341721e-02 3.876802977174520493e-03
1.911000000000000000e+03 1.149452209472656250e+00 1.001996707916259766e+01 2.528901444748044014e-03 -4.036232829093933105e-02 -1.135002728551626205e-02 1.044453121721744537e-02
1.912000000000000000e+03 2.002164125442504883e+00 7.592148303985595703e+00 -2.149471984012052417e-04 -1.920471526682376862e-02 -5.825898610055446625e-03 1.776717603206634521e-02
1.913000000000000000e+03 4.525010585784912109e+00 5.734986305236816406e+00 -2.386141568422317505e-02 -1.769893569871783257e-03 -7.689392659813165665e-03 2.933322452008724213e-02
1.914000000000000000e+03 5.176929950714111328e+00 4.194211483001708984e+00 -1.661296933889389038e-02 5.120850400999188423e-04 -4.830264952033758163e-03 -9.947925573214888573e-04
1.915000000000000000e+03 5.654814243316650391e+00 4.825909614562988281e+00 -5.503427609801292419e-02 9.549036622047424316e-03 -1.364557165652513504e-02 2.898275386542081833e-03
1.916000000000000000e+03 3.957819938659667969e-01 7.548754692077636719e+00 -5.353370797820389271e-04 -1.600252464413642883e-02 -4.961358383297920227e-03 3.813019953668117523e-03
1.917000000000000000e+03 1.190148711204528809e+00 7.582190036773681641e+00 -1.757131074555218220e-03 -1.945149712264537811e-02 -6.362588610500097275e-03 1.214696839451789856e-02
1.918000000000000000e+03 4.679906368255615234e+00 3.625522613525390625e+00 -1.843098737299442291e-02 -4.297464154660701752e-03 -6.818535737693309784e-03 -6.569562829099595547e-04
1.919000000000000000e+03 3.944083750247955322e-01 5.925409793853759766e+00 -1.713317236863076687e-03 -2.047639107331633568e-03 -1.128286938183009624e-03 2.301421947777271271e-03
1.920000000000000000e+03 1.164909482002258301e+00 5.938523292541503906e+00 -3.384867217391729355e-03 -6.704804487526416779e-03 -3.026901511475443840e-03 7.900408469140529633e-03
1.921000000000000000e+03 2.459621429443359375e+00 3.883711099624633789e+00 -1.002010423690080643e-02 -2.995922463014721870e-03 -3.904808079823851585e-03 2.425562357529997826e-03
1.922000000000000000e+03 3.330788135528564453e+00 2.545413255691528320e+00 1.327254693023860455e-03 1.346157165244221687e-03 8.020235691219568253e-04 -1.181917497888207436e-03
1.923000000000000000e+03 4.023946285247802734e+00 3.314152717590332031e+00 1.328928861767053604e-03 -8.080138941295444965e-04 1.562744728289544582e-04 -1.966021489351987839e-03
1.924000000000000000e+03 3.920994102954864502e-01 4.285634040832519531e+00 -1.946463598869740963e-03 3.937464207410812378e-03 5.973001243546605110e-04 6.143166101537644863e-04
1.925000000000000000e+03 1.175580620765686035e+00 4.211655139923095703e+00 -1.508476678282022476e-03 -6.187850376591086388e-04 -6.381784914992749691e-04 2.002776833251118660e-03
1.926000000000000000e+03 2.590829849243164062e+00 1.854658842086791992e+00 3.054542175959795713e-04 9.844701271504163742e-04 3.869772772304713726e-04 -1.172084448626264930e-04
1.927000000000000000e+03 3.632066547870635986e-01 2.681593894958496094e+00 -1.267284853383898735e-03 3.744760993868112564e-03 7.432428537867963314e-04 -1.344398333458229899e-04
1.928000000000000000e+03 1.104205489158630371e+00 1.875805377960205078e+00 -4.629400791600346565e-04 1.589040155522525311e-03 3.378300170879811049e-04 1.437947066733613610e-04
1.929000000000000000e+03 1.894000434875488281e+01 1.466319656372070312e+01 -1.560909450054168701e-01 -8.572938852012157440e-03 -4.939916357398033142e-02 -4.234339669346809387e-02
1.930000000000000000e+03 2.527198410034179688e+01 1.482596874237060547e+01 2.966718375682830811e-02 2.737451791763305664e-01 9.102370589971542358e-02 2.835752367973327637e-01
1.931000000000000000e+03 2.552308654785156250e+01 1.344927310943603516e+01 6.269118189811706543e-02 1.828950494527816772e-01 7.367587089538574219e-02 6.887977570295333862e-02
1.932000000000000000e+03 2.536773872375488281e+01 1.226851177215576172e+01 -1.982906460762023926e-02 1.346309483051300049e-01 3.444056585431098938e-02 -1.995524764060974121e-02
1.933000000000000000e+03 2.488100242614746094e+01 1.282616710662841797e+01 6.863759458065032959e-02 3.015846312046051025e-01 1.110666692256927490e-01 9.213956445455551147e-02
1.934000000000000000e+03 2.780497932434082031e+01 1.005025672912597656e+01 -2.529547810554504395e-01 -2.257954925298690796e-01 -1.436250805854797363e-01 -2.286649942398071289e-01
1.935000000000000000e+03 2.379411125183105469e+01 1.275676727294921875e+01 2.251031100749969482e-01 2.692992985248565674e-01 1.483207195997238159e-01 2.249884903430938721e-01
1.936000000000000000e+03 1.570807552337646484e+01 6.133904457092285156e+00 -9.817937389016151428e-03 2.483271993696689606e-03 -2.200399525463581085e-03 -2.341439248993992805e-03
1.937000000000000000e+03 2.116323471069335938e+01 5.953896045684814453e+00 -1.380688548088073730e-01 3.458189219236373901e-02 -3.104608692228794098e-02 -5.657034367322921753e-02
1.938000000000000000e+03 2.040633773803710938e+01 5.999501228332519531e+00 -1.395089179277420044e-01 1.279146689921617508e-02 -3.801523521542549133e-02 -5.526883527636528015e-02
1.939000000000000000e+03 2.267513847351074219e+01 7.104853153228759766e+00 -1.388280242681503296e-01 3.296615555882453918e-02 -3.175856173038482666e-02 -6.940325349569320679e-02
1.940000000000000000e+03 2.096081161499023438e+01 8.857735633850097656e+00 -1.961090601980686188e-02 6.686230748891830444e-02 1.417542062699794769e-02 1.822194829583168030e-02
1.941000000000000000e+03 2.035908317565917969e+01 8.455366134643554688e+00 -1.922351866960525513e-02 5.143073573708534241e-02 9.662165306508541107e-03 1.284404564648866653e-02
1.942000000000000000e+03 2.188796997070312500e+01 5.907945156097412109e+00 -1.367424875497817993e-01 1.876556873321533203e-02 -3.539307415485382080e-02 -7.143504172563552856e-02
1.943000000000000000e+03 2.392415809631347656e+01 5.741361141204833984e+00 -8.440788090229034424e-02 -1.058940961956977844e-01 -5.709059536457061768e-02 -8.939765393733978271e-02
1.944000000000000000e+03 2.267388343811035156e+01 6.520170211791992188e+00 -1.428958326578140259e-01 1.282185222953557968e-02 -3.902219235897064209e-02 -8.274869620800018311e-02
1.945000000000000000e+03 6.962831878662109375e+01 -6.327310562133789062e+00 9.525655508041381836e-01 2.337983369827270508e+00 9.871646761894226074e-01 -1.578804612159729004e+00
1.946000000000000000e+03 7.015469360351562500e+01 -6.899405956268310547e+00 1.433837175369262695e+00 3.283769130706787109e+00 1.415281891822814941e+00 -2.096962213516235352e+00
1.947000000000000000e+03 7.120133972167968750e+01 -8.121655464172363281e+00 2.176337003707885742e+00 7.479816436767578125e+00 2.896846055984497070e+00 -3.305955886840820312e+00
1.948000000000000000e+03 7.360834503173828125e+01 -1.053926372528076172e+01 1.272186756134033203e+00 1.068882179260253906e+01 3.588302612304687500e+00 -3.057632409036159515e-02
1.949000000000000000e+03 7.071881103515625000e+01 -6.390566825866699219e+00 4.655177295207977295e-01 4.569339752197265625e+00 1.510457277297973633e+00 -1.910436868667602539e+00
1.950000000000000000e+03 7.282757568359375000e+01 -8.343663215637207031e+00 9.774438738822937012e-01 9.513048171997070312e+00 3.147147417068481445e+00 -2.619805037975311279e-01
1.951000000000000000e+03 7.228270721435546875e+01 -8.613158226013183594e+00 1.372728586196899414e+00 9.983349800109863281e+00 3.406823635101318359e+00 -1.344313979148864746e+00
1.952000000000000000e+03 7.191603851318359375e+01 -9.637759208679199219e+00 1.433790326118469238e+00 1.340218067169189453e+01 4.450791358947753906e+00 -2.543719053268432617e+00
1.953000000000000000e+03 7.282368469238281250e+01 -1.197549152374267578e+01 5.367308855056762695e-01 1.291356945037841797e+01 4.035089969635009766e+00 3.405435383319854736e-02
1.954000000000000000e+03 7.288353729248046875e+01 -1.348461246490478516e+01 1.459698557853698730e+00 1.237978267669677734e+01 4.151844024658203125e+00 1.401025533676147461e+00
1.955000000000000000e+03 7.219091033935546875e+01 -1.520046997070312500e+01 1.708019971847534180e+00 1.165552997589111328e+01 4.009064674377441406e+00 1.988206744194030762e+00
1.956000000000000000e+03 7.336330413818359375e+01 -1.583370113372802734e+01 3.062954246997833252e-01 1.010749530792236328e+01 3.124137401580810547e+00 3.174985200166702271e-02
1.957000000000000000e+03 7.453684997558593750e+01 -1.635773277282714844e+01 -8.232437819242477417e-02 9.275222778320312500e+00 2.757869482040405273e+00 -3.959824144840240479e-01
1.958000000000000000e+03 4.833740997314453125e+01 -3.422453880310058594e+00 -8.767679214477539062e+00 -1.426287889480590820e+00 -3.058190107345581055e+00 2.571079254150390625e+00
1.959000000000000000e+03 4.909851837158203125e+01 -3.193093061447143555e+00 -6.978968620300292969e+00 -1.320837855339050293e+00 -2.489941835403442383e+00 2.179428815841674805e+00
1.960000000000000000e+03 4.952392578125000000e+01 -2.030340433120727539e+00 -2.539129018783569336e+00 7.794037461280822754e-01 -5.279175639152526855e-01 1.134864687919616699e+00
1.961000000000000000e+03 5.095278930664062500e+01 2.637067735195159912e-01 9.299820065498352051e-01 6.425116062164306641e+00 2.206529378890991211e+00 7.325618267059326172e-01
1.962000000000000000e+03 5.281134796142578125e+01 1.303244233131408691e+00 2.369595289230346680e+00 1.215254783630371094e+01 4.356643199920654297e+00 -5.217793583869934082e-01
1.963000000000000000e+03 5.391693496704101562e+01 5.600771903991699219e+00 4.184222221374511719e-01 1.604042243957519531e+01 4.937653064727783203e+00 9.129672646522521973e-01
1.964000000000000000e+03 5.371263885498046875e+01 6.712663173675537109e+00 -5.917228460311889648e-01 1.372761154174804688e+01 3.940766572952270508e+00 1.237436085939407349e-01
1.965000000000000000e+03 4.951832199096679688e+01 -3.879805564880371094e+00 -8.323068618774414062e+00 -1.964466452598571777e+00 -3.086260318756103516e+00 3.258996963500976562e+00
1.966000000000000000e+03 5.064353561401367188e+01 -4.905832290649414062e+00 -3.349493026733398438e+00 -8.115499019622802734e-01 -1.248312950134277344e+00 1.878844499588012695e+00
1.967000000000000000e+03 5.174521636962890625e+01 -6.029312610626220703e+00 -5.664877295494079590e-01 1.330558538436889648e+00 2.292212545871734619e-01 -3.507117033004760742e-01
1.968000000000000000e+03 5.275230026245117188e+01 -7.260600566864013672e+00 1.006761550903320312e+00 3.828605890274047852e+00 1.450610160827636719e+00 -1.926923632621765137e+00
1.969000000000000000e+03 5.462006759643554688e+01 -8.815340995788574219e+00 8.271374702453613281e-01 6.359367847442626953e+00 2.155951499938964844e+00 -2.205209255218505859e+00
1.970000000000000000e+03 5.750189590454101562e+01 -8.977938652038574219e+00 6.963303089141845703e-01 7.748176574707031250e+00 2.533352136611938477e+00 -4.656148552894592285e-01
1.971000000000000000e+03 5.328856277465820312e+01 -6.817739486694335938e+00 -7.243251428008079529e-03 4.459261417388916016e+00 1.335605502128601074e+00 -1.516077876091003418e+00
1.972000000000000000e+03 5.358165359497070312e+01 -8.608717918395996094e+00 1.207954406738281250e+00 5.035091400146484375e+00 1.872913718223571777e+00 -2.438006162643432617e+00
1.973000000000000000e+03 5.474372863769531250e+01 -1.069568443298339844e+01 1.439391255378723145e+00 8.178983688354492188e+00 2.885512351989746094e+00 -3.086974859237670898e+00
1.974000000000000000e+03 5.514013290405273438e+01 -1.144573974609375000e+01 1.354236125946044922e+00 9.759606361389160156e+00 3.334152698516845703e+00 -2.800344705581665039e+00
1.975000000000000000e+03 5.711818313598632812e+01 -1.250869083404541016e+01 8.677102923393249512e-01 1.000716495513916016e+01 3.262462615966796875e+00 -7.203779220581054688e-01
1.976000000000000000e+03 5.435995101928710938e+01 -9.984222412109375000e+00 1.513234496116638184e+00 6.801990509033203125e+00 2.494567632675170898e+00 -2.973703622817993164e+00
1.977000000000000000e+03 5.540468597412109375e+01 -1.226658916473388672e+01 9.452652335166931152e-01 1.097261047363281250e+01 3.575362920761108398e+00 -2.598534345626831055e+00
1.978000000000000000e+03 5.564153671264648438e+01 -1.388571739196777344e+01 4.199557006359100342e-01 1.300502109527587891e+01 4.027493000030517578e+00 -1.979011178016662598e+00
1.979000000000000000e+03 5.575453948974609375e+01 -1.466466331481933594e+01 5.362002849578857422e-01 1.390314865112304688e+01 4.331804752349853516e+00 -1.502037525177001953e+00
1.980000000000000000e+03 5.645668792724609375e+01 -1.539189815521240234e+01 9.203770756721496582e-01 1.264713382720947266e+01 4.070253372192382812e+00 -5.429944992065429688e-01
1.981000000000000000e+03 5.583757781982421875e+01 -1.619699668884277344e+01 4.134489297866821289e-01 1.454491806030273438e+01 4.487510204315185547e+00 -9.627536684274673462e-02
1.982000000000000000e+03 5.699956512451171875e+01 -1.776533699035644531e+01 1.326102256774902344e+00 1.029769515991210938e+01 3.487139225006103516e+00 -2.465443164110183716e-01
1.983000000000000000e+03 5.422719573974609375e+01 -1.890909385681152344e+01 -4.107672214508056641e+00 -5.978047847747802734e-01 -1.411643028259277344e+00 2.374681949615478516e+00
1.984000000000000000e+03 5.264200592041015625e+01 -1.777693367004394531e+01 -3.341053485870361328e+00 -1.901462078094482422e+00 -1.572754621505737305e+00 2.214961767196655273e+00
1.985000000000000000e+03 5.058155441284179688e+01 -1.556136417388916016e+01 -1.344183564186096191e+00 -1.203646779060363770e+00 -7.643491029739379883e-01 1.185055851936340332e+00
1.986000000000000000e+03 4.891668319702148438e+01 -1.390151214599609375e+01 -8.950100541114807129e-01 -7.062247991561889648e-01 -4.803704321384429932e-01 8.477596044540405273e-01
1.987000000000000000e+03 4.734192657470703125e+01 -1.205562019348144531e+01 -3.954719901084899902e-01 3.996100425720214844e-01 1.241409801878035069e-03 1.378013789653778076e-01
1.988000000000000000e+03 4.581583404541015625e+01 -1.112527561187744141e+01 -5.735726952552795410e-01 3.879155158996582031e+00 9.916747212409973145e-01 4.324151668697595596e-03
1.989000000000000000e+03 4.569933700561523438e+01 -9.283642768859863281e+00 3.561511039733886719e-01 6.193207263946533203e+00 1.964807510375976562e+00 -1.335685849189758301e+00
1.990000000000000000e+03 4.469066238403320312e+01 -5.184410095214843750e+00 9.503320455551147461e-01 1.621016502380371094e+01 5.148149013519287109e+00 6.915349960327148438e-01
1.991000000000000000e+03 4.480196380615234375e+01 -4.454935550689697266e+00 2.594968795776367188e+00 1.861120223999023438e+01 6.361851692199707031e+00 3.694920063018798828e+00
1.992000000000000000e+03 4.518279647827148438e+01 -3.116235494613647461e+00 1.374482512474060059e+00 9.422078132629394531e+00 3.238968133926391602e+00 4.564557552337646484e+00
1.993000000000000000e+03 3.577109146118164062e+01 -1.591567158699035645e+00 4.768965542316436768e-01 -6.977659463882446289e-01 -6.626082211732864380e-02 -9.012819081544876099e-02
1.994000000000000000e+03 3.789125442504882812e+01 -5.471884250640869141e+00 1.825693249702453613e-02 -1.709326267242431641e+00 -5.073208212852478027e-01 6.768891811370849609e-01
1.995000000000000000e+03 3.863334274291992188e+01 -7.991827487945556641e+00 -1.053502798080444336e+00 -2.395176410675048828e+00 -1.034603714942932129e+00 1.641348958015441895e+00
1.996000000000000000e+03 4.207675552368164062e+01 -1.268935203552246094e+01 -1.817552596330642700e-01 5.635385990142822266e+00 1.636089205741882324e+00 1.384428381919860840e+00
1.997000000000000000e+03 4.084340286254882812e+01 -1.484577751159667969e+01 7.401601076126098633e-01 9.900319099426269531e+00 3.192143917083740234e+00 8.460587263107299805e-01
1.998000000000000000e+03 3.811162567138671875e+01 -1.611724090576171875e+01 -1.620088696479797363e+00 -5.964679121971130371e-01 -6.649670004844665527e-01 9.601567983627319336e-01
1.999000000000000000e+03 3.787759399414062500e+01 -1.538398361206054688e+01 -1.282563447952270508e+00 -9.218243956565856934e-01 -6.613163948059082031e-01 1.146689891815185547e+00
2.000000000000000000e+03 3.649168777465820312e+01 -1.529126071929931641e+01 -1.019735932350158691e+00 -2.902977466583251953e-01 -3.930101096630096436e-01 6.378114223480224609e-01
2.001000000000000000e+03 3.554581832885742188e+01 -1.412398147583007812e+01 -8.511207103729248047e-01 -3.537498414516448975e-01 -3.614611625671386719e-01 5.736603140830993652e-01
2.002000000000000000e+03 3.577463531494140625e+01 -1.308662319183349609e+01 -7.630046010017395020e-01 -6.298608779907226562e-01 -4.178596436977386475e-01 7.037773728370666504e-01
2.003000000000000000e+03 3.344829559326171875e+01 -1.174172401428222656e+01 -5.199280381202697754e-01 -2.699060142040252686e-01 -2.369502186775207520e-01 3.718379139900207520e-01
2.004000000000000000e+03 3.246945190429687500e+01 -1.042684173583984375e+01 -3.907646238803863525e-01 -1.574643552303314209e-01 -1.644686907529830933e-01 2.851667106151580811e-01
2.005000000000000000e+03 3.055904769897460938e+01 -8.645589828491210938e+00 -2.385200411081314087e-01 1.583696901798248291e-01 -2.404510416090488434e-02 1.978071480989456177e-01
2.006000000000000000e+03 3.061282157897949219e+01 -6.875617504119873047e+00 -1.094853356480598450e-01 3.011495471000671387e-01 5.749926343560218811e-02 1.232510656118392944e-01
2.007000000000000000e+03 2.907690811157226562e+01 -5.382384777069091797e+00 -1.316197216510772705e-01 5.519600510597229004e-01 1.261020898818969727e-01 2.644156217575073242e-01
2.008000000000000000e+03 2.704102134704589844e+01 -3.342967033386230469e+00 2.218233644962310791e-01 1.481961905956268311e-01 1.110058650374412537e-01 3.250551521778106689e-01
2.009000000000000000e+03 2.522543334960937500e+01 -3.258910894393920898e+00 1.599653363227844238e-01 -3.277174830436706543e-01 -5.032563954591751099e-02 1.603732109069824219e-01
2.010000000000000000e+03 3.469413375854492188e+01 -1.191049194335937500e+01 -5.469503402709960938e-01 -4.783493578433990479e-01 -3.075899183750152588e-01 5.282056331634521484e-01
2.011000000000000000e+03 3.292323684692382812e+01 -1.110485267639160156e+01 -4.776298701763153076e-01 -2.038786560297012329e-01 -2.044525593519210815e-01 3.143315017223358154e-01
2.012000000000000000e+03 3.315322494506835938e+01 -1.006010055541992188e+01 -2.875101566314697266e-01 -3.743360936641693115e-01 -1.985538750886917114e-01 3.163616955280303955e-01
2.013000000000000000e+03 3.273836135864257812e+01 -9.367754936218261719e+00 -1.830886155366897583e-01 -2.691545486450195312e-01 -1.356729567050933838e-01 2.212642580270767212e-01
2.014000000000000000e+03 3.234362792968750000e+01 -8.662457466125488281e+00 -1.210001185536384583e-01 -1.584247946739196777e-01 -8.382747322320938110e-02 1.574000269174575806e-01
2.015000000000000000e+03 3.163467025756835938e+01 -7.232915401458740234e+00 -3.279496356844902039e-02 7.971766591072082520e-02 1.407681033015251160e-02 4.657164588570594788e-02
2.016000000000000000e+03 3.046855354309082031e+01 -4.221355438232421875e+00 5.004678294062614441e-02 9.081893563270568848e-01 2.874708473682403564e-01 -1.108773797750473022e-01
2.017000000000000000e+03 3.008837509155273438e+01 -2.420982360839843750e+00 3.017074465751647949e-01 1.753660440444946289e+00 6.166104078292846680e-01 2.113368958234786987e-01
2.018000000000000000e+03 3.042189788818359375e+01 -8.733386397361755371e-01 2.122164964675903320e+00 2.622877836227416992e+00 1.423512816429138184e+00 1.534559488296508789e+00
2.019000000000000000e+03 3.018327903747558594e+01 -1.637740135192871094e+00 2.089043706655502319e-01 2.355497837066650391e+00 7.693206667900085449e-01 6.741639375686645508e-01
2.020000000000000000e+03 2.911182022094726562e+01 2.073272466659545898e+00 -2.197878658771514893e-01 5.831082537770271301e-02 -4.844311252236366272e-02 -3.465080857276916504e-01
2.021000000000000000e+03 2.922287750244140625e+01 3.896790742874145508e-01 9.650623202323913574e-01 4.168871939182281494e-01 4.145848453044891357e-01 -3.417966142296791077e-02
2.022000000000000000e+03 2.963727378845214844e+01 -6.592063307762145996e-01 1.634661674499511719e+00 8.063872456550598145e-01 7.323146462440490723e-01 3.916745185852050781e-01
2.023000000000000000e+03 2.701822662353515625e+01 7.400944828987121582e-01 2.439455986022949219e-01 -3.822331428527832031e-01 -4.148626327514648438e-02 -3.569482862949371338e-01
2.024000000000000000e+03 2.627926635742187500e+01 2.209644168615341187e-01 3.053798973560333252e-01 -3.971863090991973877e-01 -2.754192426800727844e-02 -2.994467318058013916e-01
2.025000000000000000e+03 2.774887275695800781e+01 -2.098560810089111328e+00 6.418462395668029785e-01 1.268082857131958008e-01 2.305963635444641113e-01 2.843410670757293701e-01
2.026000000000000000e+03 2.970274162292480469e+01 -3.721968412399291992e+00 1.278440058231353760e-01 9.485189914703369141e-01 3.229089081287384033e-01 1.868626326322555542e-01
2.027000000000000000e+03 2.888749694824218750e+01 -6.235326290130615234e+00 -1.264587491750717163e-01 4.397144913673400879e-01 9.397672116756439209e-02 2.940614223480224609e-01
2.028000000000000000e+03 2.989417457580566406e+01 -5.289465427398681641e+00 -5.033087730407714844e-02 6.170876622200012207e-01 1.700270324945449829e-01 1.326072663068771362e-01
2.029000000000000000e+03 3.019033622741699219e+01 -6.133547306060791016e+00 -1.164766401052474976e-01 4.507948756217956543e-01 1.002954691648483276e-01 1.075738668441772461e-01
2.030000000000000000e+03 5.997247314453125000e+01 2.742797613143920898e+00 -3.779687643051147461e+00 -9.916700720787048340e-01 -1.431407332420349121e+00 -2.169994354248046875e+00
2.031000000000000000e+03 5.808790588378906250e+01 1.417638540267944336e+00 -8.075679779052734375e+00 -2.067638635635375977e+00 -3.042995691299438477e+00 -3.548800468444824219e+00
2.032000000000000000e+03 5.460843658447265625e+01 1.800015211105346680e+00 7.415384292602539062e+00 1.957455062866210938e+01 8.096980094909667969e+00 -9.544331550598144531e+00
2.033000000000000000e+03 5.442212295532226562e+01 6.910395622253417969e-01 -7.977171540260314941e-01 1.437699508666992188e+01 4.073783397674560547e+00 -4.671537399291992188e+00
2.034000000000000000e+03 5.332413864135742188e+01 7.651240825653076172e-01 6.707182526588439941e-01 1.259311103820800781e+01 3.979148626327514648e+00 -1.454861640930175781e+00
2.035000000000000000e+03 5.279176330566406250e+01 -2.315975904464721680e+00 -3.230471849441528320e+00 7.317819118499755859e+00 1.226204156875610352e+00 -2.339492082595825195e+00
2.036000000000000000e+03 5.352808761596679688e+01 -3.807291746139526367e+00 -3.185870647430419922e+00 6.430051803588867188e+00 9.732543826103210449e-01 -2.490124225616455078e+00
2.037000000000000000e+03 5.278503036499023438e+01 -5.051426887512207031e+00 -2.605834960937500000e+00 4.685028553009033203e+00 6.237580776214599609e-01 -1.141825437545776367e+00
2.038000000000000000e+03 5.227211380004882812e+01 -6.622730731964111328e+00 4.217379093170166016e-01 2.596951723098754883e+00 9.056068658828735352e-01 -1.302632808685302734e+00
2.039000000000000000e+03 5.347620010375976562e+01 1.883060574531555176e+00 4.956804275512695312e+00 1.473116016387939453e+01 5.906389236450195312e+00 -1.389587879180908203e+00
2.040000000000000000e+03 5.163677215576171875e+01 1.298634648323059082e+00 2.410804033279418945e+00 8.681178092956542969e+00 3.327594518661499023e+00 4.696592390537261963e-01
2.041000000000000000e+03 5.094857788085937500e+01 -1.916202425956726074e+00 -2.489476680755615234e+00 4.055150032043457031e+00 4.697020649909973145e-01 -4.248082339763641357e-01
2.042000000000000000e+03 5.174295043945312500e+01 -3.970387458801269531e+00 -4.356502532958984375e+00 4.115149974822998047e+00 -7.240583747625350952e-02 -7.193362712860107422e-01
2.043000000000000000e+03 5.134336471557617188e+01 -3.379447937011718750e+00 -4.171334266662597656e+00 3.886238813400268555e+00 -8.552864193916320801e-02 -8.130403161048889160e-01
2.044000000000000000e+03 5.422016525268554688e+01 2.460865497589111328e+00 5.059300422668457031e+00 2.546657180786132812e+01 9.157761573791503906e+00 -6.268361568450927734e+00
2.045000000000000000e+03 5.407393264770507812e+01 3.758786439895629883e+00 2.311801433563232422e+00 2.558790969848632812e+01 8.369913101196289062e+00 -7.284678816795349121e-01
2.046000000000000000e+03 5.331978607177734375e+01 6.015923500061035156e+00 3.459526598453521729e-02 1.531664180755615234e+01 4.605370998382568359e+00 -6.851344108581542969e-01
2.047000000000000000e+03 4.324020004272460938e+01 1.870965361595153809e+00 1.333937883377075195e+00 2.290048837661743164e+00 1.087195992469787598e+00 1.858295917510986328e+00
2.048000000000000000e+03 2.350672149658203125e+01 1.069018745422363281e+01 -2.720846235752105713e-02 1.310405433177947998e-01 3.114962391555309296e-02 4.391096904873847961e-02
2.049000000000000000e+03 2.437836837768554688e+01 1.333744716644287109e+01 2.231092154979705811e-01 4.006370604038238525e-01 1.871238797903060913e-01 2.721678018569946289e-01
2.050000000000000000e+03 2.682081413269042969e+01 1.257639217376708984e+01 -1.254616528749465942e-01 -5.677393823862075806e-02 -5.467067658901214600e-02 -3.360254690051078796e-02
2.051000000000000000e+03 2.907289123535156250e+01 1.443163967132568359e+01 -6.768587231636047363e-01 2.285807952284812927e-02 -1.962002068758010864e-01 1.184829398989677429e-01
2.052000000000000000e+03 2.660671997070312500e+01 1.316691207885742188e+01 -8.181605488061904907e-02 -1.451538316905498505e-02 -2.889943122863769531e-02 3.054471313953399658e-02
2.053000000000000000e+03 4.130853271484375000e+01 1.476646423339843750e+01 -9.908813834190368652e-01 4.761495590209960938e-01 -1.544195413589477539e-01 1.967045292258262634e-02
2.054000000000000000e+03 4.335140228271484375e+01 1.607330894470214844e+01 -6.156159639358520508e-01 5.359992384910583496e-01 -2.388503029942512512e-02 -1.592357009649276733e-01
2.055000000000000000e+03 3.602526092529296875e+01 1.469806003570556641e+01 -1.836341619491577148e+00 -4.953369498252868652e-01 -6.995035409927368164e-01 1.929095834493637085e-01
2.056000000000000000e+03 3.403267669677734375e+01 1.569528198242187500e+01 -1.442695260047912598e+00 -3.788081705570220947e-01 -5.464510321617126465e-01 3.943201601505279541e-01
2.057000000000000000e+03 3.129101753234863281e+01 1.377265071868896484e+01 -9.419853091239929199e-01 -4.366506263613700867e-02 -2.956950962543487549e-01 -2.082205563783645630e-01
2.058000000000000000e+03 3.079589462280273438e+01 1.529482746124267578e+01 -1.004675507545471191e+00 2.820301800966262817e-02 -2.929417490959167480e-01 2.058307230472564697e-01
2.059000000000000000e+03 3.229670333862304688e+01 1.578580570220947266e+01 -1.211265563964843750e+00 -7.847945392131805420e-02 -3.869235217571258545e-01 3.092810809612274170e-01
2.060000000000000000e+03 2.940547370910644531e+01 1.590572452545166016e+01 -8.222601413726806641e-01 8.415593206882476807e-02 -2.214312553405761719e-01 3.255521357059478760e-01
2.061000000000000000e+03 7.737399291992187500e+01 1.505221939086914062e+01 1.482339948415756226e-01 6.116460323333740234e+00 1.879408240318298340e+00 -5.522963404655456543e-01
2.062000000000000000e+03 7.665251159667968750e+01 1.497391319274902344e+01 2.259636372327804565e-01 6.037561893463134766e+00 1.879057645797729492e+00 -6.751335263252258301e-01
2.063000000000000000e+03 7.561648559570312500e+01 1.711210060119628906e+01 4.771301746368408203e-01 5.800454139709472656e+00 1.883275270462036133e+00 -2.872611880302429199e-01
2.064000000000000000e+03 7.444174194335937500e+01 1.707606697082519531e+01 6.956520676612854004e-01 5.705229759216308594e+00 1.920264482498168945e+00 -1.488582342863082886e-01
2.065000000000000000e+03 6.853364562988281250e+01 1.615633201599121094e+01 6.551136970520019531e-01 7.666275501251220703e+00 2.496416807174682617e+00 7.123264670372009277e-01
2.066000000000000000e+03 6.761259460449218750e+01 1.594638061523437500e+01 3.867653310298919678e-01 8.382586479187011719e+00 2.630805492401123047e+00 2.599262893199920654e-01
2.067000000000000000e+03 6.416060638427734375e+01 1.624321746826171875e+01 1.018377184867858887e+00 5.064946651458740234e+00 1.824997067451477051e+00 -2.428384304046630859e+00
2.068000000000000000e+03 5.891641616821289062e+01 1.610550689697265625e+01 1.877031803131103516e+00 2.539031982421875000e+00 1.324819207191467285e+00 1.538699865341186523e+00
2.069000000000000000e+03 5.823780059814453125e+01 1.573540782928466797e+01 1.830275774002075195e+00 2.929656744003295898e+00 1.427979826927185059e+00 1.939671277999877930e+00
2.070000000000000000e+03 5.417318725585937500e+01 1.614326858520507812e+01 1.193373918533325195e+00 8.338516235351562500e+00 2.859567165374755859e+00 2.654949665069580078e+00
2.071000000000000000e+03 5.177010726928710938e+01 1.577895832061767578e+01 8.563516139984130859e-01 1.213298988342285156e+01 3.896802425384521484e+00 7.988824248313903809e-01
2.072000000000000000e+03 5.110452270507812500e+01 1.342393398284912109e+01 3.881018638610839844e+00 2.210852813720703125e+01 7.796864032745361328e+00 -1.718047380447387695e+00
2.073000000000000000e+03 5.297480392456054688e+01 1.124397563934326172e+01 2.538067817687988281e+00 1.294008255004882812e+01 4.643445014953613281e+00 5.182744264602661133e-01
2.074000000000000000e+03 5.204531097412109375e+01 1.021923160552978516e+01 1.705919146537780762e+00 1.548880672454833984e+01 5.158417701721191406e+00 -1.709147095680236816e-01
2.075000000000000000e+03 5.414986419677734375e+01 1.031244277954101562e+01 9.045352339744567871e-01 9.948095321655273438e+00 3.255789041519165039e+00 5.911209583282470703e-01
2.076000000000000000e+03 4.777822113037109375e+01 1.754788398742675781e+01 3.192908763885498047e-01 2.931281566619873047e+00 9.751717448234558105e-01 -2.689868688583374023e+00
2.077000000000000000e+03 4.528686523437500000e+01 1.770589828491210938e+01 3.312109112739562988e-01 8.822217583656311035e-01 3.640297949314117432e-01 -8.654721379280090332e-01
2.078000000000000000e+03 4.225433349609375000e+01 1.727510643005371094e+01 -4.111825525760650635e-01 7.043483853340148926e-01 8.794974535703659058e-02 -1.974857747554779053e-01
2.079000000000000000e+03 3.929044342041015625e+01 1.504686641693115234e+01 -1.121199250221252441e+00 3.889998793601989746e-01 -2.196598201990127563e-01 1.155174225568771362e-01
2.080000000000000000e+03 3.699557495117187500e+01 1.576318550109863281e+01 -1.201091885566711426e+00 -8.260164409875869751e-02 -3.851080536842346191e-01 7.191197946667671204e-03
2.081000000000000000e+03 3.562033081054687500e+01 1.657972717285156250e+01 -9.854651093482971191e-01 -3.399152159690856934e-01 -3.976140916347503662e-01 1.303217858076095581e-01
2.082000000000000000e+03 3.350025939941406250e+01 1.712210273742675781e+01 -9.109977483749389648e-01 -2.554095685482025146e-01 -3.499221801757812500e-01 3.721116781234741211e-01
2.083000000000000000e+03 3.068814468383789062e+01 1.634402465820312500e+01 -9.111626744270324707e-01 3.188645839691162109e-02 -2.637828588485717773e-01 3.485246300697326660e-01
2.084000000000000000e+03 3.189975738525390625e+01 1.630239486694335938e+01 -1.011152386665344238e+00 -8.298148214817047119e-02 -3.282401561737060547e-01 3.517230749130249023e-01
2.085000000000000000e+03 2.952824592590332031e+01 1.680418205261230469e+01 -8.259810209274291992e-01 7.945261895656585693e-02 -2.239585220813751221e-01 3.697142302989959717e-01
2.086000000000000000e+03 2.407955741882324219e+01 1.671957015991210938e+01 -1.816964268684387207e+00 -5.435075163841247559e-01 -7.081415653228759766e-01 5.071903467178344727e-01
2.087000000000000000e+03 2.626458358764648438e+01 1.713712501525878906e+01 -9.249125123023986816e-01 6.465820223093032837e-02 -2.580762803554534912e-01 2.563735246658325195e-01
2.088000000000000000e+03 1.993803215026855469e+01 1.630088043212890625e+01 -4.305231869220733643e-01 3.737271577119827271e-02 -1.179451420903205872e-01 -1.436553150415420532e-02
2.089000000000000000e+03 1.277986526489257812e+01 1.489647483825683594e+01 -7.989426702260971069e-02 5.748315155506134033e-02 -6.723334081470966339e-03 4.739464446902275085e-02
2.090000000000000000e+03 1.342312526702880859e+01 1.443209266662597656e+01 -6.929980963468551636e-02 6.255366653203964233e-02 -2.023841952905058861e-03 4.535416513681411743e-02
2.091000000000000000e+03 1.167147827148437500e+01 1.799162673950195312e+01 -1.288394033908843994e-01 2.855783887207508087e-02 -3.008447214961051941e-02 1.059006303548812866e-01
2.092000000000000000e+03 1.201234531402587891e+01 1.703960418701171875e+01 -1.232009679079055786e-01 4.468929767608642578e-02 -2.355349995195865631e-02 8.722582459449768066e-02
2.093000000000000000e+03 9.626336097717285156e+00 1.610904502868652344e+01 -6.508570909500122070e-02 1.290890760719776154e-02 -1.565304212272167206e-02 5.812682956457138062e-02
2.094000000000000000e+03 7.234004020690917969e+00 1.649612045288085938e+01 -3.786553815007209778e-02 -2.730402350425720215e-02 -1.955086924135684967e-02 4.718828946352005005e-02
2.095000000000000000e+03 5.135416030883789062e+00 1.662784576416015625e+01 -2.028526552021503448e-02 -5.696742981672286987e-02 -2.317580766975879669e-02 3.578380122780799866e-02
2.096000000000000000e+03 3.855258464813232422e+00 1.624102401733398438e+01 -9.305384010076522827e-03 -6.460765004158020020e-02 -2.217391133308410645e-02 2.464142069220542908e-02
2.097000000000000000e+03 2.513819932937622070e+00 1.693074989318847656e+01 -5.687318742275238037e-03 -7.911879569292068481e-02 -2.544183470308780670e-02 1.852631196379661560e-02
2.098000000000000000e+03 2.508967876434326172e+00 1.482089710235595703e+01 -1.276201102882623672e-03 -6.369172781705856323e-02 -1.949037797749042511e-02 1.253845915198326111e-02
2.099000000000000000e+03 3.234353303909301758e+00 1.485317707061767578e+01 -2.900966210290789604e-03 -6.113620474934577942e-02 -1.921115256845951080e-02 1.656418293714523315e-02
2.100000000000000000e+03 5.418603897094726562e+00 1.491430377960205078e+01 -1.330693345516920090e-02 -4.099833965301513672e-02 -1.629158295691013336e-02 2.689163386821746826e-02
2.101000000000000000e+03 9.466400146484375000e+00 1.488180637359619141e+01 -4.104678332805633545e-02 9.581556543707847595e-03 -9.439568035304546356e-03 3.971190750598907471e-02
2.102000000000000000e+03 1.173271179199218750e+01 1.462533950805664062e+01 -6.277134269475936890e-02 4.743301123380661011e-02 -4.601499997079372406e-03 4.566288366913795471e-02
2.103000000000000000e+03 1.463626289367675781e+01 1.269766426086425781e+01 1.874515600502490997e-02 5.747025087475776672e-02 2.286462299525737762e-02 4.657616466283798218e-02
2.104000000000000000e+03 1.490355682373046875e+01 1.371120071411132812e+01 -4.254794865846633911e-02 5.920623242855072021e-02 4.997485782951116562e-03 3.591267019510269165e-02
2.105000000000000000e+03 5.178755950927734375e+01 1.400680923461914062e+01 4.240716457366943359e+00 1.487563991546630859e+01 5.734906673431396484e+00 3.804545998573303223e-01
2.106000000000000000e+03 5.238024902343750000e+01 1.451713085174560547e+01 2.597728729248046875e+00 1.304582309722900391e+01 4.693065643310546875e+00 2.047144412994384766e+00
2.107000000000000000e+03 5.645948410034179688e+01 1.477528953552246094e+01 1.882264971733093262e+00 4.605136871337890625e+00 1.946220636367797852e+00 2.580034255981445312e+00
2.108000000000000000e+03 5.892136764526367188e+01 1.415616321563720703e+01 1.165912389755249023e+00 1.355426192283630371e+00 7.564015984535217285e-01 1.243961453437805176e+00
2.109000000000000000e+03 5.994602203369140625e+01 1.384654712677001953e+01 4.389370083808898926e-01 4.805103540420532227e-01 2.758342027664184570e-01 4.682987332344055176e-01
2.110000000000000000e+03 6.243306732177734375e+01 1.432202053070068359e+01 1.136565446853637695e+00 -5.552181228995323181e-02 3.243131041526794434e-01 -1.069898128509521484e+00
2.111000000000000000e+03 6.636518859863281250e+01 1.381331062316894531e+01 1.251067996025085449e+00 1.181171798706054688e+01 3.918835878372192383e+00 -4.937285482883453369e-01
2.112000000000000000e+03 6.864388275146484375e+01 1.523469448089599609e+01 1.128843307495117188e+00 7.872522830963134766e+00 2.700409889221191406e+00 1.027432203292846680e+00
2.113000000000000000e+03 7.042898559570312500e+01 1.410060405731201172e+01 2.092140674591064453e+00 5.591488361358642578e+00 2.305088758468627930e+00 9.452167749404907227e-01
2.114000000000000000e+03 7.255813598632812500e+01 1.477247524261474609e+01 1.573553919792175293e+00 4.985860347747802734e+00 1.967824220657348633e+00 -1.461313068866729736e-01
2.115000000000000000e+03 7.328218841552734375e+01 1.394823360443115234e+01 1.501361012458801270e+00 4.606208801269531250e+00 1.832270979881286621e+00 -8.090195059776306152e-01
2.116000000000000000e+03 7.730048370361328125e+01 1.372438335418701172e+01 -3.122794814407825470e-02 6.480962276458740234e+00 1.934920310974121094e+00 -7.047421336174011230e-01
2.117000000000000000e+03 7.632022094726562500e+01 1.395055198669433594e+01 1.206519976258277893e-01 6.205948829650878906e+00 1.897980213165283203e+00 -9.609184861183166504e-01
2.118000000000000000e+03 4.971883010864257812e+01 1.562532138824462891e+01 2.408413171768188477e+00 9.620736122131347656e+00 3.608744859695434570e+00 -4.634974956512451172e+00
2.119000000000000000e+03 7.886931610107421875e+01 1.572054195404052734e+01 1.494247931987047195e-02 6.052587509155273438e+00 1.820259094238281250e+00 -2.099643796682357788e-01
2.120000000000000000e+03 5.573349380493164062e+01 1.178032112121582031e+01 1.521260142326354980e+00 5.443199634552001953e+00 2.089337825775146484e+00 1.675362944602966309e+00
2.121000000000000000e+03 5.495592880249023438e+01 1.277513599395751953e+01 2.297284126281738281e+00 7.209460735321044922e+00 2.852023601531982422e+00 2.166549444198608398e+00
2.122000000000000000e+03 6.058943939208984375e+01 1.255749702453613281e+01 -1.504183888435363770e+00 -5.106111168861389160e-01 -6.044384837150573730e-01 -9.576260447502136230e-01
2.123000000000000000e+03 6.967465972900390625e+01 1.150868701934814453e+01 2.006585597991943359e+00 5.897770404815673828e+00 2.371306896209716797e+00 1.002971291542053223e+00
2.124000000000000000e+03 7.795172119140625000e+01 1.175261783599853516e+01 -4.376312494277954102e-01 7.307108879089355469e+00 2.060843229293823242e+00 -2.835460007190704346e-01
2.125000000000000000e+03 7.586889648437500000e+01 1.114606094360351562e+01 -6.875575780868530273e-01 7.514525413513183594e+00 2.048090219497680664e+00 -1.760096669197082520e+00
2.126000000000000000e+03 7.884669494628906250e+01 1.414498329162597656e+01 -3.310363367199897766e-02 6.369091987609863281e+00 1.900796532630920410e+00 -2.686698436737060547e-01
2.127000000000000000e+03 5.555784606933593750e+01 1.113550090789794922e+01 1.039475917816162109e+00 5.734804630279541016e+00 2.032284259796142578e+00 1.356211781501770020e+00
2.128000000000000000e+03 5.648318099975585938e+01 8.679471969604492188e+00 -2.940217852592468262e-01 1.223657369613647461e+00 2.788906693458557129e-01 2.124522328376770020e-01
2.129000000000000000e+03 5.591817474365234375e+01 9.084403038024902344e+00 -2.631625235080718994e-01 4.183218479156494141e+00 1.176016807556152344e+00 7.531608343124389648e-01
2.130000000000000000e+03 5.518007278442382812e+01 6.681988239288330078e+00 1.131196022033691406e+00 8.744632720947265625e+00 2.962748527526855469e+00 2.850075960159301758e+00
2.131000000000000000e+03 5.474027252197265625e+01 9.889381408691406250e+00 3.121092617511749268e-01 8.431321144104003906e+00 2.623029232025146484e+00 7.554942965507507324e-01
2.132000000000000000e+03 5.130067062377929688e+01 6.908840656280517578e+00 -2.795761916786432266e-03 1.311048793792724609e+01 3.932307720184326172e+00 -1.208005398511886597e-01
2.133000000000000000e+03 4.847202301025390625e+01 6.749256134033203125e+00 1.641786456108093262e+00 5.810120582580566406e+00 2.235572099685668945e+00 2.619293451309204102e+00
2.134000000000000000e+03 5.294178390502929688e+01 8.194073677062988281e+00 -7.833347916603088379e-01 1.400986671447753906e+01 3.967959642410278320e+00 -5.375069379806518555e-01
2.135000000000000000e+03 4.797167587280273438e+01 6.171359062194824219e+00 1.903903126716613770e+00 4.452134132385253906e+00 1.906811237335205078e+00 2.371800422668457031e+00
2.136000000000000000e+03 5.192283248901367188e+01 5.102075099945068359e+00 1.925131320953369141e+00 1.267297840118408203e+01 4.379432678222656250e+00 -1.234789371490478516e+00
2.137000000000000000e+03 4.819544982910156250e+01 4.148677825927734375e+00 2.704313755035400391e+00 4.533573627471923828e+00 2.171366214752197266e+00 2.280006647109985352e+00
2.138000000000000000e+03 5.168536376953125000e+01 3.496869087219238281e+00 3.930433273315429688e+00 1.063165855407714844e+01 4.368627548217773438e+00 -6.298476457595825195e-01
2.139000000000000000e+03 4.945481872558593750e+01 3.364767789840698242e+00 3.102540493011474609e+00 5.990658283233642578e+00 2.727959632873535156e+00 1.633857488632202148e+00
2.140000000000000000e+03 5.357982635498046875e+01 4.891332626342773438e+00 1.400114178657531738e+00 1.820526504516601562e+01 5.881613254547119141e+00 -7.869988679885864258e-01
2.141000000000000000e+03 4.604824447631835938e+01 1.451904892921447754e+00 1.451973795890808105e+00 2.970186710357666016e+00 1.326648116111755371e+00 3.270997762680053711e+00
2.142000000000000000e+03 4.858148574829101562e+01 2.226075649261474609e+00 2.816505908966064453e+00 4.032339096069335938e+00 2.054653644561767578e+00 2.570909261703491211e+00
2.143000000000000000e+03 5.010305786132812500e+01 1.925220489501953125e+00 3.129695177078247070e+00 5.990410327911376953e+00 2.736031770706176758e+00 1.605867147445678711e+00
2.144000000000000000e+03 5.284748077392578125e+01 3.600039720535278320e+00 4.247861385345458984e+00 1.477852821350097656e+01 5.707916736602783203e+00 -1.359983205795288086e+00
2.145000000000000000e+03 7.484038543701171875e+01 2.127052783966064453e+00 -2.955195426940917969e+00 5.896294116973876953e-01 -7.096697688102722168e-01 -1.227193236351013184e+00
2.146000000000000000e+03 7.402999877929687500e+01 1.890314929187297821e-02 -2.333263874053955078e+00 1.259752750396728516e+00 -3.220533132553100586e-01 -2.968340516090393066e-01
2.147000000000000000e+03 7.413319396972656250e+01 -2.830306768417358398e+00 -5.897524952888488770e-01 5.107779979705810547e+00 1.355408191680908203e+00 -7.600681483745574951e-02
2.148000000000000000e+03 7.338339996337890625e+01 -4.154742717742919922e+00 -5.937341451644897461e-01 5.918393135070800781e+00 1.597397685050964355e+00 -3.766313195228576660e-01
2.149000000000000000e+03 7.388891601562500000e+01 -5.030999183654785156e+00 -3.527682125568389893e-01 6.761647701263427734e+00 1.922663927078247070e+00 2.637359201908111572e-01
2.150000000000000000e+03 7.340727996826171875e+01 -5.174047946929931641e+00 -4.255847632884979248e-01 6.690926074981689453e+00 1.879602313041687012e+00 -1.185729652643203735e-01
2.151000000000000000e+03 7.371005249023437500e+01 1.149107575416564941e+00 -7.523645401000976562e+00 -1.479109525680541992e+00 -2.700826406478881836e+00 -2.565752744674682617e+00
2.152000000000000000e+03 7.150615692138671875e+01 2.187615633010864258e-01 -3.204033851623535156e+00 4.482032775878906250e+00 3.833996951580047607e-01 -4.548479080200195312e+00
2.153000000000000000e+03 7.198047637939453125e+01 -1.402758359909057617e+00 -1.801806092262268066e+00 3.867344379425048828e+00 6.196615099906921387e-01 -3.147195100784301758e+00
2.154000000000000000e+03 6.764754486083984375e+01 2.138145923614501953e+00 9.046186208724975586e-01 7.950967788696289062e+00 2.656676054000854492e+00 6.480809450149536133e-01
2.155000000000000000e+03 6.923474121093750000e+01 1.058472990989685059e+00 -1.491945862770080566e+00 8.666211128234863281e+00 2.152279615402221680e+00 -1.284025669097900391e+00
2.156000000000000000e+03 6.646092987060546875e+01 2.197602987289428711e+00 3.123702108860015869e-01 6.181257724761962891e+00 1.948088288307189941e+00 1.612026691436767578e+00
2.157000000000000000e+03 6.707750701904296875e+01 -2.654035687446594238e-01 -2.120230197906494141e+00 4.014523983001708984e+00 5.682882070541381836e-01 8.963901400566101074e-01
2.158000000000000000e+03 6.685572052001953125e+01 3.884043693542480469e-01 -1.245772480964660645e+00 4.825706005096435547e+00 1.073980093002319336e+00 1.359924554824829102e+00
2.159000000000000000e+03 6.735089111328125000e+01 1.190477371215820312e+00 -4.446158707141876221e-01 6.442749500274658203e+00 1.799440145492553711e+00 8.757920861244201660e-01
2.160000000000000000e+03 6.597328948974609375e+01 9.319967031478881836e-01 -9.759766459465026855e-01 4.845048904418945312e+00 1.160721659660339355e+00 2.416711091995239258e+00
2.161000000000000000e+03 6.561731719970703125e+01 -2.586480379104614258e-01 -1.585514664649963379e+00 3.288125038146972656e+00 5.107830762863159180e-01 2.943948745727539062e+00
2.162000000000000000e+03 6.473554229736328125e+01 -2.364461898803710938e+00 -3.846842527389526367e+00 3.292679786682128906e+00 -1.662488430738449097e-01 3.716137886047363281e+00
2.163000000000000000e+03 6.055318069458007812e+01 2.152473449707031250e+00 -3.914433717727661133e+00 1.024226903915405273e+00 -8.670620322227478027e-01 -5.440465807914733887e-01
2.164000000000000000e+03 5.628441619873046875e+01 8.920143246650695801e-01 -2.293745994567871094e+00 1.458243489265441895e+00 -2.506507635116577148e-01 -4.041963100433349609e+00
2.165000000000000000e+03 5.587357330322265625e+01 -2.062068134546279907e-01 -1.997759819030761719e+00 5.309185028076171875e+00 9.934275746345520020e-01 -6.714617729187011719e+00
2.166000000000000000e+03 5.456350326538085938e+01 -2.628348588943481445e+00 -2.694997310638427734e+00 7.596306324005126953e+00 1.470392584800720215e+00 -4.162817955017089844e+00
2.167000000000000000e+03 5.494572830200195312e+01 -3.744093656539916992e+00 -2.223455429077148438e+00 6.767355442047119141e+00 1.363170027732849121e+00 -3.423773527145385742e+00
2.168000000000000000e+03 5.462953186035156250e+01 -4.352717399597167969e+00 -2.156633615493774414e+00 6.430577278137207031e+00 1.282183170318603516e+00 -2.693070888519287109e+00
2.169000000000000000e+03 5.382802200317382812e+01 -6.345494747161865234e+00 -7.130674123764038086e-01 5.186845779418945312e+00 1.342133522033691406e+00 -1.552875280380249023e+00
2.170000000000000000e+03 5.612638473510742188e+01 -8.025527000427246094e+00 3.832074105739593506e-01 6.986618518829345703e+00 2.210947751998901367e+00 -1.270305156707763672e+00
2.171000000000000000e+03 5.555182266235351562e+01 5.755885243415832520e-01 3.193938136100769043e-01 6.773978710174560547e+00 2.128011703491210938e+00 -6.486437797546386719e+00
2.172000000000000000e+03 5.115742111206054688e+01 1.922322154045104980e+00 3.437820672988891602e+00 8.045279502868652344e+00 3.444930076599121094e+00 8.343300223350524902e-01
2.173000000000000000e+03 4.859177398681640625e+01 -1.851610839366912842e-03 1.357009172439575195e+00 2.532534599304199219e+00 1.166863083839416504e+00 2.900987625122070312e+00
2.174000000000000000e+03 4.757151794433593750e+01 9.574642181396484375e-01 1.752186179161071777e+00 2.927016735076904297e+00 1.403760910034179688e+00 3.350692033767700195e+00
2.175000000000000000e+03 4.486241149902343750e+01 -6.189963817596435547e-01 -1.046297311782836914e+00 5.168959617614746094e+00 1.236798763275146484e+00 3.480908393859863281e+00
2.176000000000000000e+03 4.421507644653320312e+01 7.855817675590515137e-01 -8.220976591110229492e-02 3.741521835327148438e+00 1.097793579101562500e+00 2.543256998062133789e+00
2.177000000000000000e+03 4.137739944458007812e+01 4.036158025264739990e-01 -8.659889698028564453e-01 2.633865773677825928e-01 -1.807807087898254395e-01 -2.723966836929321289e-01
2.178000000000000000e+03 5.483632659912109375e+01 4.541844129562377930e-02 -1.476442337036132812e+00 1.126735210418701172e+01 2.937273025512695312e+00 -6.240736007690429688e+00
2.179000000000000000e+03 7.540448760986328125e+01 -8.567234873771667480e-01 -1.349997878074645996e+00 5.525420665740966797e+00 1.252626776695251465e+00 9.301952719688415527e-01
2.180000000000000000e+03 7.573406219482421875e+01 -2.760581672191619873e-01 -2.043701171875000000e+00 6.355269908905029297e+00 1.293470740318298340e+00 1.010643243789672852e+00
2.181000000000000000e+03 2.695371437072753906e+01 -9.968119263648986816e-01 6.781699061393737793e-01 -2.439101189374923706e-01 1.302779316902160645e-01 5.187563132494688034e-03
2.182000000000000000e+03 2.939804267883300781e+01 -1.493124842643737793e+00 1.078309893608093262e+00 1.125064730644226074e+00 6.610124111175537109e-01 7.978442311286926270e-01
2.183000000000000000e+03 3.383292007446289062e+01 1.678843200206756592e-01 9.750030040740966797e-01 -2.604541182518005371e-01 2.143646627664566040e-01 1.826308071613311768e-01
2.184000000000000000e+03 3.337685394287109375e+01 -4.973476827144622803e-01 7.942347526550292969e-01 -1.166217997670173645e-01 2.032838910818099976e-01 -1.053627356886863708e-01
2.185000000000000000e+03 3.362451553344726562e+01 -1.621067881584167480e+00 3.463715016841888428e-01 -4.773633182048797607e-02 8.959054946899414062e-02 -2.063795626163482666e-01
2.186000000000000000e+03 3.830408477783203125e+01 3.945257365703582764e-01 2.188593298196792603e-01 -1.243826448917388916e-01 2.834300324320793152e-02 -1.408371776342391968e-01
2.187000000000000000e+03 3.739442443847656250e+01 -1.629202216863632202e-01 4.848065972328186035e-01 -4.377250671386718750e-01 1.412446517497301102e-02 -2.438410073518753052e-01
2.188000000000000000e+03 3.530144500732421875e+01 -2.160491466522216797e+00 3.671855330467224121e-01 -5.762515068054199219e-01 -6.271979212760925293e-02 6.766610592603683472e-02
2.189000000000000000e+03 4.084713745117187500e+01 -1.744300007820129395e+00 5.552427768707275391e-01 1.037608504295349121e+00 4.778553843498229980e-01 -3.776926398277282715e-01
2.190000000000000000e+03 3.937171936035156250e+01 -1.120500206947326660e+00 2.312918007373809814e-01 -1.315267831087112427e-01 2.992950752377510071e-02 -9.663308858871459961e-01
2.191000000000000000e+03 4.353542709350585938e+01 -6.149241924285888672e-01 -8.117648959159851074e-01 4.609701633453369141e+00 1.139381051063537598e+00 2.039761543273925781e+00
2.192000000000000000e+03 4.512790679931640625e+01 -2.325999021530151367e+00 -1.605348587036132812e+00 7.297300815582275391e+00 1.707585692405700684e+00 4.057098388671875000e+00
2.193000000000000000e+03 4.807160568237304688e+01 -1.767060160636901855e+00 -1.152335286140441895e+00 1.151207461953163147e-01 -3.111643493175506592e-01 2.895296096801757812e+00
2.194000000000000000e+03 4.677531814575195312e+01 -2.468050479888916016e+00 -9.660886526107788086e-01 8.088011741638183594e-01 -4.718624055385589600e-02 4.537034988403320312e+00
2.195000000000000000e+03 4.901645660400390625e+01 -6.132982373237609863e-01 4.269976317882537842e-01 2.237314939498901367e+00 7.992937564849853516e-01 2.480316400527954102e+00
2.196000000000000000e+03 5.357516098022460938e+01 -7.348148822784423828e-01 -2.342227697372436523e+00 1.043391704559326172e+01 2.427506923675537109e+00 -3.077576637268066406e+00
2.197000000000000000e+03 5.677801513671875000e+01 -1.632499814033508301e+00 -8.265854120254516602e-01 3.990478992462158203e+00 9.491680860519409180e-01 -4.757595539093017578e+00
2.198000000000000000e+03 5.568737792968750000e+01 -1.379089474678039551e+00 -1.784892678260803223e+00 6.254652976989746094e+00 1.340928196907043457e+00 -5.792944431304931641e+00
2.199000000000000000e+03 5.840810775756835938e+01 4.220692217350006104e-01 -3.375126361846923828e+00 -3.214552998542785645e-01 -1.108974575996398926e+00 -1.755923032760620117e+00
2.200000000000000000e+03 5.971615219116210938e+01 8.295372128486633301e-02 -2.771655082702636719e+00 2.252991199493408203e+00 -1.555991619825363159e-01 -3.463754057884216309e-01
2.201000000000000000e+03 6.422653198242187500e+01 -6.459678411483764648e-01 -2.593585729598999023e+00 4.700474739074707031e+00 6.320667266845703125e-01 4.826548099517822266e+00
2.202000000000000000e+03 6.542285156250000000e+01 -2.344985723495483398e+00 -9.173707962036132812e+00 -2.399723529815673828e+00 -3.472029447555541992e+00 3.561053514480590820e+00
2.203000000000000000e+03 6.484499359130859375e+01 -7.596049904823303223e-01 -2.297062158584594727e+00 3.384854793548583984e+00 3.263377845287322998e-01 4.048462390899658203e+00
2.204000000000000000e+03 7.072189331054687500e+01 1.391817927360534668e-01 -2.958700656890869141e+00 6.490732192993164062e+00 1.059609413146972656e+00 -3.736453771591186523e+00
2.205000000000000000e+03 7.084533691406250000e+01 -6.483597159385681152e-01 -3.087373256683349609e+00 5.282313346862792969e+00 6.584820151329040527e-01 -3.967647790908813477e+00
2.206000000000000000e+03 7.230142211914062500e+01 -2.849210739135742188e+00 -1.408336758613586426e+00 4.742616176605224609e+00 1.000283837318420410e+00 -1.782769680023193359e+00
2.207000000000000000e+03 7.252342987060546875e+01 -1.555076241493225098e+00 -1.396993041038513184e+00 3.431937932968139648e+00 6.104834675788879395e-01 -2.475883245468139648e+00
2.208000000000000000e+03 7.518309020996093750e+01 -2.671455144882202148e+00 -5.022501945495605469e-01 6.054690837860107422e+00 1.665732145309448242e+00 7.859249711036682129e-01
2.209000000000000000e+03 7.436819458007812500e+01 -1.075708270072937012e+00 -1.131924867630004883e+00 3.479561090469360352e+00 7.042908668518066406e-01 1.860576868057250977e-01
2.210000000000000000e+03 7.817214965820312500e+01 -4.408897459506988525e-01 -6.083216071128845215e-01 1.125399971008300781e+01 3.193703413009643555e+00 2.903079986572265625e-01
2.211000000000000000e+03 3.624608993530273438e+01 9.024767875671386719e-01 3.162454068660736084e-01 -3.675345778465270996e-01 -1.538675185292959213e-02 1.826939731836318970e-02
2.212000000000000000e+03 3.388790130615234375e+01 3.006393432617187500e+00 2.249231748282909393e-02 1.467288732528686523e-01 5.076635628938674927e-02 3.554240465164184570e-01
2.213000000000000000e+03 3.118662643432617188e+01 3.901692628860473633e+00 -7.035397291183471680e-01 2.711637318134307861e-01 -1.297127902507781982e-01 -1.956701278686523438e-02
2.214000000000000000e+03 2.483448600769042969e+01 1.689995676279067993e-01 1.455337852239608765e-01 -3.513616621494293213e-01 -6.174836307764053345e-02 -2.853023707866668701e-01
2.215000000000000000e+03 2.097145462036132812e+01 1.447168231010437012e+00 -1.571263372898101807e-02 -4.215573891997337341e-03 -5.978462286293506622e-03 2.704378915950655937e-03
2.216000000000000000e+03 2.158143234252929688e+01 -1.312839686870574951e-01 4.874756559729576111e-03 -5.364248901605606079e-02 -1.463032048195600510e-02 -1.123941782861948013e-02
2.217000000000000000e+03 3.627563858032226562e+01 1.559031963348388672e+00 2.541188597679138184e-01 -2.857736051082611084e-01 -9.496425278484821320e-03 6.153512001037597656e-02
2.218000000000000000e+03 3.591473007202148438e+01 2.914477348327636719e+00 6.466650962829589844e-02 -1.174326539039611816e-01 -1.582984440028667450e-02 2.346031814813613892e-01
2.219000000000000000e+03 3.407649230957031250e+01 5.104825496673583984e+00 -2.087728679180145264e-01 1.221991181373596191e-01 -2.597212418913841248e-02 1.327101290225982666e-01
2.220000000000000000e+03 3.100690078735351562e+01 5.480734348297119141e+00 -5.313619375228881836e-01 -1.891681998968124390e-01 -2.161590456962585449e-01 -3.400233387947082520e-01
2.221000000000000000e+03 3.711863327026367188e+01 2.855706214904785156e+00 5.366474855691194534e-03 -2.750067710876464844e-01 -8.089208602905273438e-02 1.462762206792831421e-01
2.222000000000000000e+03 3.644272994995117188e+01 2.772172927856445312e+00 8.956979215145111084e-02 -1.656180471181869507e-01 -2.281447313725948334e-02 1.869508326053619385e-01
2.223000000000000000e+03 3.558052444458007812e+01 5.746502399444580078e+00 -9.759623557329177856e-02 2.659817226231098175e-02 -2.129941806197166443e-02 9.571944922208786011e-02
2.224000000000000000e+03 3.365330505371093750e+01 5.703441143035888672e+00 -2.708833515644073486e-01 9.706474095582962036e-02 -5.214558169245719910e-02 5.431691557168960571e-02
2.225000000000000000e+03 3.403348159790039062e+01 2.020429849624633789e+00 2.690424621105194092e-01 3.052365034818649292e-02 8.986983448266983032e-02 4.206095933914184570e-01
2.226000000000000000e+03 2.962897109985351562e+01 1.757238984107971191e+00 4.711709916591644287e-02 5.689363479614257812e-01 1.848160326480865479e-01 -1.557459831237792969e-01
2.227000000000000000e+03 2.863207244873046875e+01 2.599210739135742188e+00 -6.470496058464050293e-01 -1.520749181509017944e-01 -2.397373467683792114e-01 -4.439605772495269775e-01
2.228000000000000000e+03 3.438848876953125000e+01 3.247034549713134766e+00 -4.179521650075912476e-02 7.310087233781814575e-02 9.391698054969310760e-03 3.414008617401123047e-01
2.229000000000000000e+03 2.920685005187988281e+01 4.028969764709472656e+00 -1.217437028884887695e+00 -4.869557917118072510e-01 -5.113178491592407227e-01 -7.428895831108093262e-01
2.230000000000000000e+03 3.798619842529296875e+01 6.148651123046875000e+00 -8.551849983632564545e-03 -4.383531957864761353e-02 -1.571615040302276611e-02 2.995534986257553101e-02
2.231000000000000000e+03 3.638865661621093750e+01 6.171058177947998047e+00 -5.309399217367172241e-02 1.937002176418900490e-03 -1.534709706902503967e-02 6.218834221363067627e-02
2.232000000000000000e+03 3.759762573242187500e+01 9.399214744567871094e+00 -2.070727059617638588e-03 -9.552612900733947754e-03 -3.487002104520797729e-03 9.289843728765845299e-05
2.233000000000000000e+03 3.843010330200195312e+01 9.283328056335449219e+00 2.247369149699807167e-03 5.975484382361173630e-04 8.534752996638417244e-04 -6.556460284627974033e-04
2.234000000000000000e+03 3.032047843933105469e+01 -3.506755113601684570e+00 1.815862022340297699e-02 1.272896766662597656e+00 3.873166143894195557e-01 -1.017097011208534241e-01
2.235000000000000000e+03 2.987131690979003906e+01 -3.101962089538574219e+00 4.803585633635520935e-02 1.333076953887939453e+00 4.143338203430175781e-01 1.426804810762405396e-01
2.236000000000000000e+03 2.653378868103027344e+01 -5.085901737213134766e+00 -1.304422765970230103e-01 8.947916328907012939e-02 -1.228893361985683441e-02 3.393822312355041504e-01
2.237000000000000000e+03 3.094288253784179688e+01 -5.769426822662353516e+00 2.089389786124229431e-02 4.327615201473236084e-01 1.360966265201568604e-01 -4.631136357784271240e-02
2.238000000000000000e+03 2.731926345825195312e+01 -7.972639560699462891e+00 -1.343462318181991577e-01 2.371558398008346558e-01 3.084287978708744049e-02 3.532180190086364746e-01
2.239000000000000000e+03 2.792219924926757812e+01 -8.565402030944824219e+00 -1.632636636495590210e-01 2.560548782348632812e-01 2.783736400306224823e-02 2.864511013031005859e-01
2.240000000000000000e+03 4.119902610778808594e+00 -9.839488029479980469e+00 -1.133176591247320175e-02 -2.442160435020923615e-02 -1.072601135820150375e-02 -2.910182625055313110e-02
2.241000000000000000e+03 5.606887340545654297e+00 -8.374147415161132812e+00 -1.916223578155040741e-02 -1.179941371083259583e-02 -9.288494475185871124e-03 -2.792940288782119751e-02
2.242000000000000000e+03 6.643703460693359375e+00 -9.125783920288085938e+00 -2.665725350379943848e-02 -1.014342717826366425e-02 -1.104020420461893082e-02 -3.611351177096366882e-02
2.243000000000000000e+03 9.286457061767578125e+00 -9.215862274169921875e+00 -4.757326468825340271e-02 5.285961087793111801e-03 -1.268619112670421600e-02 -4.257168993353843689e-02
2.244000000000000000e+03 1.133423042297363281e+01 -8.777467727661132812e+00 -6.652752310037612915e-02 1.939503848552703857e-02 -1.413974445313215256e-02 -3.731792792677879333e-02
2.245000000000000000e+03 1.286606502532958984e+01 -8.916510581970214844e+00 -8.397448062896728516e-02 2.899172157049179077e-02 -1.649482734501361847e-02 -3.569204360246658325e-02
2.246000000000000000e+03 1.580396080017089844e+01 -8.242075920104980469e+00 -1.200594007968902588e-01 3.566266968846321106e-02 -2.531902119517326355e-02 -8.235914632678031921e-03
2.247000000000000000e+03 2.941982841491699219e+01 -1.057180500030517578e+01 -3.928115963935852051e-01 2.448180168867111206e-01 -4.439806938171386719e-02 1.994160413742065430e-01
2.248000000000000000e+03 2.954666328430175781e+01 -9.867613792419433594e+00 -3.320103883743286133e-01 2.372175604104995728e-01 -2.843785099685192108e-02 2.277856171131134033e-01
2.249000000000000000e+03 3.102124214172363281e+01 -9.330163955688476562e+00 -2.959247231483459473e-01 9.033583849668502808e-02 -6.167666614055633545e-02 2.219708561897277832e-01
2.250000000000000000e+03 1.825688743591308594e+01 -6.087122440338134766e+00 -8.068992197513580322e-02 -1.591137796640396118e-02 -2.898038923740386963e-02 4.427357017993927002e-02
2.251000000000000000e+03 1.646086120605468750e+01 -6.954339504241943359e+00 -1.013595014810562134e-01 2.073924057185649872e-02 -2.418607845902442932e-02 1.457622926682233810e-02
2.252000000000000000e+03 1.569597530364990234e+01 -6.218595981597900391e+00 -7.773698866367340088e-02 1.490180194377899170e-02 -1.885055750608444214e-02 1.328270696103572845e-02
2.253000000000000000e+03 1.191632747650146484e+01 -6.381922721862792969e+00 -5.493612214922904968e-02 1.536376215517520905e-02 -1.187170855700969696e-02 -1.370592601597309113e-02
2.254000000000000000e+03 9.291926383972167969e+00 -7.859741687774658203e+00 -4.362792521715164185e-02 6.196515634655952454e-03 -1.122942287474870682e-02 -3.120632469654083252e-02
2.255000000000000000e+03 5.110728740692138672e+00 -6.318034648895263672e+00 -1.320895086973905563e-02 -7.225848268717527390e-03 -6.130439694970846176e-03 -1.516852155327796936e-02
2.256000000000000000e+03 4.228955745697021484e+00 -8.347128868103027344e+00 -1.174673438072204590e-02 -1.590008847415447235e-02 -8.294046856462955475e-03 -2.233078703284263611e-02
2.257000000000000000e+03 1.532069492340087891e+01 -5.941420078277587891e+00 -7.439835369586944580e-02 1.379922963678836823e-02 -1.817973703145980835e-02 1.054418366402387619e-02
2.258000000000000000e+03 1.205190181732177734e+01 -4.621646404266357422e+00 -3.982190787792205811e-02 8.645297959446907043e-03 -9.352982975542545319e-03 -3.137544030323624611e-03
2.259000000000000000e+03 1.041746139526367188e+01 -5.703213214874267578e+00 -4.074413701891899109e-02 8.655503392219543457e-03 -9.626590646803379059e-03 -1.410938706248998642e-02
2.260000000000000000e+03 9.414859771728515625e+00 -6.222904682159423828e+00 -3.750339150428771973e-02 6.106493994593620300e-03 -9.419069625437259674e-03 -1.896405965089797974e-02
2.261000000000000000e+03 5.620182991027832031e+00 -5.066024303436279297e+00 -1.290519814938306808e-02 -3.849895671010017395e-03 -5.026528146117925644e-03 -1.101206988096237183e-02
2.262000000000000000e+03 7.750205039978027344e+00 -4.082500934600830078e+00 -1.812952384352684021e-02 4.855281440541148186e-04 -5.293198861181735992e-03 -8.964883163571357727e-03
2.263000000000000000e+03 4.208588123321533203e+00 -6.128853321075439453e+00 -9.289101697504520416e-03 -8.128348737955093384e-03 -5.225235130637884140e-03 -1.244140695780515671e-02
2.264000000000000000e+03 1.928634262084960938e+01 -6.159890174865722656e+00 -7.951794564723968506e-02 -4.157374054193496704e-02 -3.632750734686851501e-02 5.784023180603981018e-02
2.265000000000000000e+03 1.489336013793945312e+01 -4.286807537078857422e+00 -4.090115055441856384e-02 3.786050481721758842e-03 -1.113452948629856110e-02 9.348268620669841766e-03
2.266000000000000000e+03 1.129863071441650391e+01 -3.602552890777587891e+00 -2.597744390368461609e-02 4.307196941226720810e-03 -6.501074414700269699e-03 -2.808947348967194557e-03
2.267000000000000000e+03 9.657815933227539062e+00 -3.806823253631591797e+00 -2.384705282747745514e-02 3.263179445639252663e-03 -6.175162270665168762e-03 -6.211818195879459381e-03
2.268000000000000000e+03 4.943950176239013672e+00 -3.160529613494873047e+00 -6.346866954118013382e-03 -1.959994668141007423e-03 -2.492058556526899338e-03 -4.168960731476545334e-03
2.269000000000000000e+03 7.964287281036376953e+00 -3.668430328369140625e+00 -1.778433844447135925e-02 9.782052366062998772e-04 -5.041840020567178726e-03 -7.366908248513936996e-03
2.270000000000000000e+03 4.086394786834716797e+00 -4.222940444946289062e+00 -6.110726390033960342e-03 -3.950349520891904831e-03 -3.018322633579373360e-03 -5.550940055400133133e-03
2.271000000000000000e+03 1.571224784851074219e+01 -3.754115819931030273e+00 -3.155937790870666504e-02 -2.748555736616253853e-03 -1.029238104820251465e-02 1.271085161715745926e-02
2.272000000000000000e+03 4.371976852416992188e+00 -1.204534053802490234e+01 -1.294262986630201340e-02 -3.760207816958427429e-02 -1.516341231763362885e-02 -4.261423647403717041e-02
2.273000000000000000e+03 7.830724239349365234e+00 -1.255882644653320312e+01 -3.722748532891273499e-02 -1.502187363803386688e-02 -1.567480713129043579e-02 -6.745051592588424683e-02
2.274000000000000000e+03 9.370262145996093750e+00 -1.025351905822753906e+01 -4.958887770771980286e-02 4.926859401166439056e-03 -1.339860539883375168e-02 -5.086919292807579041e-02
2.275000000000000000e+03 1.261394023895263672e+01 -1.051097774505615234e+01 -8.626262843608856201e-02 3.125270456075668335e-02 -1.650297641754150391e-02 -5.535094067454338074e-02
2.276000000000000000e+03 1.523696899414062500e+01 -9.808200836181640625e+00 -1.204485967755317688e-01 4.538245126605033875e-02 -2.251984551548957825e-02 -3.664769232273101807e-02
2.277000000000000000e+03 1.620799827575683594e+01 -1.056126403808593750e+01 -1.345897763967514038e-01 5.269039049744606018e-02 -2.456981502473354340e-02 -4.310371354222297668e-02
2.278000000000000000e+03 1.956185913085937500e+01 -9.770000457763671875e+00 -2.059817165136337280e-01 2.880421467125415802e-02 -5.315325036644935608e-02 2.257138490676879883e-03
2.279000000000000000e+03 2.321356964111328125e+01 -1.090419673919677734e+01 -2.517457902431488037e-01 5.944044142961502075e-02 -5.769160389900207520e-02 1.280554085969924927e-01
2.280000000000000000e+03 3.111885833740234375e+01 -1.271872043609619141e+01 -5.323971509933471680e-01 1.639342010021209717e-01 -1.105388849973678589e-01 1.849837452173233032e-01
2.281000000000000000e+03 3.149748992919921875e+01 -1.209846973419189453e+01 -5.414323210716247559e-01 9.953812509775161743e-02 -1.325682699680328369e-01 2.093396782875061035e-01
2.282000000000000000e+03 3.214875793457031250e+01 -1.153575325012207031e+01 -4.953373968601226807e-01 -2.787950076162815094e-02 -1.569650769233703613e-01 2.629830539226531982e-01
2.283000000000000000e+03 8.877225875854492188e+00 -1.408309936523437500e+01 -4.215755313634872437e-02 -1.199399586766958237e-02 -1.624546572566032410e-02 -8.564134687185287476e-02
2.284000000000000000e+03 6.353967189788818359e+00 -1.462298488616943359e+01 -2.381812967360019684e-02 -4.140705987811088562e-02 -1.956755667924880981e-02 -7.345830649137496948e-02
2.285000000000000000e+03 8.809822082519531250e+00 -1.163179779052734375e+01 -4.579509794712066650e-02 -2.855266211554408073e-03 -1.459510903805494308e-02 -6.335667520761489868e-02
2.286000000000000000e+03 1.251015377044677734e+01 -1.125258636474609375e+01 -8.485587686300277710e-02 3.200476616621017456e-02 -1.585533283650875092e-02 -6.284680962562561035e-02
2.287000000000000000e+03 1.632981681823730469e+01 -1.274716758728027344e+01 -1.311338245868682861e-01 6.456152349710464478e-02 -1.997168734669685364e-02 -7.294341176748275757e-02
2.288000000000000000e+03 1.790680885314941406e+01 -1.242650985717773438e+01 -1.499714106321334839e-01 6.871417164802551270e-02 -2.437716908752918243e-02 -5.846127867698669434e-02
2.289000000000000000e+03 2.060366821289062500e+01 -1.253804397583007812e+01 -1.917914003133773804e-01 8.360325545072555542e-02 -3.245644643902778625e-02 -1.104844361543655396e-02
2.290000000000000000e+03 2.136056900024414062e+01 -1.210698318481445312e+01 -1.916933655738830566e-01 6.875901669263839722e-02 -3.688030689954757690e-02 8.990794420242309570e-03
2.291000000000000000e+03 2.352424812316894531e+01 -1.201856803894042969e+01 -2.571450471878051758e-01 1.361625790596008301e-01 -3.629473596811294556e-02 1.178726404905319214e-01
2.292000000000000000e+03 2.592319297790527344e+01 -1.274004459381103516e+01 -3.633378148078918457e-01 3.048279285430908203e-01 -1.755297183990478516e-02 1.133593022823333740e-01
2.293000000000000000e+03 3.414538574218750000e+01 -1.132494735717773438e+01 -5.249123573303222656e-01 -4.570910036563873291e-01 -2.946010231971740723e-01 4.672617018222808838e-01
2.294000000000000000e+03 3.503508758544921875e+01 -1.353917217254638672e+01 -8.268691897392272949e-01 -3.301664888858795166e-01 -3.471107184886932373e-01 5.159513354301452637e-01
2.295000000000000000e+03 3.353978729248046875e+01 -1.443571853637695312e+01 -7.200359702110290527e-01 3.460289165377616882e-02 -2.056299299001693726e-01 2.509434223175048828e-01
2.296000000000000000e+03 3.309129333496093750e+01 -1.383434772491455078e+01 -6.484241485595703125e-01 1.897175051271915436e-02 -1.888357251882553101e-01 2.517504990100860596e-01
2.297000000000000000e+03 4.797125816345214844e+00 -1.631849098205566406e+01 -1.190535444766283035e-02 -7.427944988012313843e-02 -2.585544064640998840e-02 -6.822689622640609741e-02
2.298000000000000000e+03 8.679925918579101562e+00 -1.600497817993164062e+01 -3.533289581537246704e-02 -2.374999970197677612e-02 -1.772486791014671326e-02 -9.849600493907928467e-02
2.299000000000000000e+03 6.547564983367919922e+00 -1.539668369293212891e+01 -2.272545732557773590e-02 -4.652755334973335266e-02 -2.077590301632881165e-02 -8.031068742275238037e-02
2.300000000000000000e+03 9.735624313354492188e+00 -1.458136558532714844e+01 -4.686529934406280518e-02 -4.218578804284334183e-03 -1.532516255974769592e-02 -9.460964798927307129e-02
2.301000000000000000e+03 1.068489170074462891e+01 -1.460258102416992188e+01 -5.568608269095420837e-02 8.917135186493396759e-03 -1.403068471699953079e-02 -9.727983176708221436e-02
2.302000000000000000e+03 1.280217075347900391e+01 -1.466744995117187500e+01 -7.403031736612319946e-02 3.424900025129318237e-02 -1.193439494818449020e-02 -1.009628847241401672e-01
2.303000000000000000e+03 1.540308856964111328e+01 -1.419385051727294922e+01 -1.089970692992210388e-01 6.319889426231384277e-02 -1.373945362865924835e-02 -9.405670315027236938e-02
2.304000000000000000e+03 1.781990814208984375e+01 -1.307413578033447266e+01 -1.428125053644180298e-01 7.656816393136978149e-02 -1.987330429255962372e-02 -6.243929266929626465e-02
2.305000000000000000e+03 1.916629791259765625e+01 -1.348437404632568359e+01 -1.515897661447525024e-01 9.114843606948852539e-02 -1.813239976763725281e-02 -5.141975358128547668e-02
2.306000000000000000e+03 2.104535102844238281e+01 -1.336671924591064453e+01 -1.786876916885375977e-01 1.124392300844192505e-01 -1.987453550100326538e-02 -1.152175571769475937e-02
2.307000000000000000e+03 2.479340934753417969e+01 -1.299024772644042969e+01 -3.102941215038299561e-01 2.425876408815383911e-01 -2.031194977462291718e-02 1.054865047335624695e-01
2.308000000000000000e+03 2.746947669982910156e+01 -1.370917224884033203e+01 -4.187660813331604004e-01 3.268401622772216797e-01 -2.757777832448482513e-02 7.782819867134094238e-02
2.309000000000000000e+03 2.884418487548828125e+01 -1.456267642974853516e+01 -4.565421938896179199e-01 3.212644159793853760e-01 -4.058333486318588257e-02 4.631689190864562988e-02
2.310000000000000000e+03 3.444939422607421875e+01 -1.558171176910400391e+01 -7.366966605186462402e-01 5.415698513388633728e-02 -2.047619074583053589e-01 2.302394062280654907e-01
2.311000000000000000e+03 3.489296722412109375e+01 -1.611567115783691406e+01 -5.877967476844787598e-01 3.372710943222045898e-02 -1.662208884954452515e-01 1.980736404657363892e-01
2.312000000000000000e+03 4.105278968811035156e+00 -1.722640800476074219e+01 -8.190281689167022705e-03 -9.132972359657287598e-02 -2.985600195825099945e-02 -6.423912197351455688e-02
2.313000000000000000e+03 6.967887401580810547e+00 -1.780959129333496094e+01 -1.908132992684841156e-02 -6.048206984996795654e-02 -2.386901900172233582e-02 -9.564916789531707764e-02
2.314000000000000000e+03 5.913367271423339844e+00 -1.703502845764160156e+01 -1.606894470751285553e-02 -6.794247031211853027e-02 -2.520342357456684113e-02 -8.253907412290573120e-02
2.315000000000000000e+03 1.078413200378417969e+01 -1.569060707092285156e+01 -5.111214891076087952e-02 5.846446845680475235e-03 -1.357971131801605225e-02 -1.055727526545524597e-01
2.316000000000000000e+03 1.252596664428710938e+01 -1.550302219390869141e+01 -6.954894214868545532e-02 3.023698553442955017e-02 -1.179358642548322678e-02 -1.100012436509132385e-01
2.317000000000000000e+03 1.410577106475830078e+01 -1.519162654876708984e+01 -8.301871269941329956e-02 4.981784895062446594e-02 -9.960258379578590393e-03 -1.046519950032234192e-01
2.318000000000000000e+03 1.663374137878417969e+01 -1.509806156158447266e+01 -1.165514290332794189e-01 8.218377828598022461e-02 -1.031029503792524338e-02 -9.842762351036071777e-02
2.319000000000000000e+03 1.833517837524414062e+01 -1.531175994873046875e+01 -1.230294629931449890e-01 1.044174656271934509e-01 -5.583597812801599503e-03 -8.676137030124664307e-02
2.320000000000000000e+03 2.013302040100097656e+01 -1.571644401550292969e+01 -1.540518850088119507e-01 1.378383934497833252e-01 -4.864046350121498108e-03 -6.890422105789184570e-02
2.321000000000000000e+03 2.169861793518066406e+01 -1.537505626678466797e+01 -1.907976269721984863e-01 1.723995953798294067e-01 -5.519406404346227646e-03 -4.486031457781791687e-02
2.322000000000000000e+03 2.330260276794433594e+01 -1.523676681518554688e+01 -2.211235165596008301e-01 2.135139703750610352e-01 -2.282862085849046707e-03 -5.743186455219984055e-03
2.323000000000000000e+03 2.504224777221679688e+01 -1.430788612365722656e+01 -3.093565702438354492e-01 2.670964896678924561e-01 -1.267802156507968903e-02 4.831485077738761902e-02
2.324000000000000000e+03 2.673011016845703125e+01 -1.525335407257080078e+01 -3.552843928337097168e-01 3.160081803798675537e-01 -1.178286224603652954e-02 1.214691996574401855e-02
2.325000000000000000e+03 2.823364067077636719e+01 -1.553104877471923828e+01 -4.021582305431365967e-01 3.295699954032897949e-01 -2.177646942436695099e-02 5.486880894750356674e-03
2.326000000000000000e+03 3.739436340332031250e+01 -1.480406856536865234e+01 -1.214540839195251465e+00 -8.411498069763183594e-01 -6.167072057723999023e-01 9.447314143180847168e-01
2.327000000000000000e+03 3.719111633300781250e+01 -1.654393959045410156e+01 -5.947977900505065918e-01 -2.183219790458679199e-01 -2.439359277486801147e-01 3.278109133243560791e-01
2.328000000000000000e+03 3.878390121459960938e+01 -1.896216201782226562e+01 -2.645028233528137207e-01 1.650375485420227051e+00 4.157617688179016113e-01 1.455511569976806641e+00
2.329000000000000000e+03 3.949667358398437500e+01 -1.765831375122070312e+01 1.602968201041221619e-02 1.913954854011535645e+00 5.789953470230102539e-01 2.412561893463134766e+00
2.330000000000000000e+03 3.557917785644531250e+01 -1.730139732360839844e+01 -3.670435547828674316e-01 9.721116721630096436e-02 -8.094971626996994019e-02 2.275380045175552368e-01
2.331000000000000000e+03 4.200961685180664062e+01 -1.510146236419677734e+01 1.188180208206176758e+00 5.737105846405029297e+00 2.077585935592651367e+00 9.649496078491210938e-01
2.332000000000000000e+03 4.206072235107421875e+01 -1.616550445556640625e+01 1.250806093215942383e+00 5.053496837615966797e+00 1.891290903091430664e+00 1.550886183977127075e-01
2.333000000000000000e+03 4.148895645141601562e+01 -1.657431221008300781e+01 -2.131709828972816467e-02 5.771837711334228516e+00 1.725156188011169434e+00 -3.900960385799407959e-01
2.334000000000000000e+03 4.470047473907470703e+00 -1.877147483825683594e+01 -7.408463861793279648e-03 -1.056901067495346069e-01 -3.392957150936126709e-02 -7.392582297325134277e-02
2.335000000000000000e+03 6.288193702697753906e+00 -1.948687934875488281e+01 -1.198179740458726883e-02 -8.673223853111267090e-02 -2.961421012878417969e-02 -9.715275466442108154e-02
2.336000000000000000e+03 8.878210067749023438e+00 -1.797146224975585938e+01 -2.724135853350162506e-02 -3.368991985917091370e-02 -1.827938295900821686e-02 -1.109735518693923950e-01
2.337000000000000000e+03 1.214353847503662109e+01 -1.715104866027832031e+01 -5.445271357893943787e-02 2.142787352204322815e-02 -9.907452389597892761e-03 -1.228370368480682373e-01
2.338000000000000000e+03 1.476858329772949219e+01 -1.788994026184082031e+01 -6.275998800992965698e-02 6.213647127151489258e-02 -1.870555133791640401e-04 -1.289862990379333496e-01
2.339000000000000000e+03 1.620940589904785156e+01 -1.578144550323486328e+01 -9.659339487552642822e-02 7.824213802814483643e-02 -5.505375564098358154e-03 -1.065459325909614563e-01
2.340000000000000000e+03 2.070651435852050781e+01 -1.697444915771484375e+01 -1.417445093393325806e-01 1.653276830911636353e-01 7.074952125549316406e-03 -8.707795292139053345e-02
2.341000000000000000e+03 2.335256767272949219e+01 -1.646483802795410156e+01 -2.026149630546569824e-01 2.308472990989685059e-01 8.469702675938606262e-03 -4.366794228553771973e-02
2.342000000000000000e+03 2.512974548339843750e+01 -1.719973945617675781e+01 -2.337178140878677368e-01 2.857876121997833252e-01 1.562093663960695267e-02 -4.421012476086616516e-02
2.343000000000000000e+03 2.760780715942382812e+01 -1.789826583862304688e+01 -2.545613050460815430e-01 3.309028446674346924e-01 2.290246263146400452e-02 -4.651043191552162170e-02
2.344000000000000000e+03 2.885907936096191406e+01 -1.687828826904296875e+01 -3.465415835380554199e-01 3.296893537044525146e-01 -5.055666435509920120e-03 -2.561650052666664124e-02
2.345000000000000000e+03 3.231471252441406250e+01 -1.835714149475097656e+01 -2.409377247095108032e-01 3.243232667446136475e-01 2.501566335558891296e-02 3.075845725834369659e-02
2.346000000000000000e+03 3.612514877319335938e+01 -1.881226158142089844e+01 -4.480219632387161255e-02 3.366397023200988770e-01 8.755125105381011963e-02 4.365101754665374756e-01
2.347000000000000000e+03 3.681034851074218750e+01 -1.936091041564941406e+01 -2.721390221267938614e-03 5.930774807929992676e-01 1.771068274974822998e-01 6.764230728149414062e-01
2.348000000000000000e+03 4.083503341674804688e+01 -2.046946144104003906e+01 -7.602065205574035645e-01 2.959994316101074219e+00 6.599363088607788086e-01 8.416103720664978027e-01
2.349000000000000000e+03 4.371451187133789062e+01 -1.750209426879882812e+01 -4.564987123012542725e-01 3.886635065078735352e+00 1.029040932655334473e+00 -3.597058653831481934e-01
2.350000000000000000e+03 4.848586273193359375e+01 -1.707755851745605469e+01 -1.112694978713989258e+00 8.460839986801147461e-01 -7.998329401016235352e-02 1.617326773703098297e-02
2.351000000000000000e+03 2.077548503875732422e+00 -2.038352394104003906e+01 -1.298600924201309681e-03 -1.637032479047775269e-01 -4.950055480003356934e-02 -4.144355654716491699e-02
2.352000000000000000e+03 5.601794719696044922e+00 -2.184793090820312500e+01 -5.410859361290931702e-03 -1.240181997418403625e-01 -3.882871568202972412e-02 -9.390540421009063721e-02
2.353000000000000000e+03 3.790054082870483398e+00 -2.034476470947265625e+01 -4.258837085217237473e-03 -1.365678161382675171e-01 -4.224799573421478271e-02 -6.878501921892166138e-02
2.354000000000000000e+03 7.126372814178466797e+00 -1.948763275146484375e+01 -1.386736612766981125e-02 -7.333270460367202759e-02 -2.616002224385738373e-02 -1.038601770997047424e-01
2.355000000000000000e+03 9.309744834899902344e+00 -1.932660293579101562e+01 -2.258193306624889374e-02 -3.679747879505157471e-02 -1.781382411718368530e-02 -1.204290166497230530e-01
2.356000000000000000e+03 1.097791290283203125e+01 -2.045991897583007812e+01 -2.257166057825088501e-02 -1.212496403604745865e-02 -1.040898729115724564e-02 -1.347172409296035767e-01
2.357000000000000000e+03 1.323654270172119141e+01 -2.067560577392578125e+01 -2.661821991205215454e-02 3.308924660086631775e-02 1.941307447850704193e-03 -1.439195573329925537e-01
2.358000000000000000e+03 1.446145343780517578e+01 -1.993839836120605469e+01 -3.905992582440376282e-02 5.778095871210098267e-02 5.616310052573680878e-03 -1.422435045242309570e-01
2.359000000000000000e+03 1.881862449645996094e+01 -1.877077484130859375e+01 -9.034601598978042603e-02 1.416977345943450928e-01 1.540551614016294479e-02 -1.220772489905357361e-01
2.360000000000000000e+03 2.409727478027343750e+01 -1.927446746826171875e+01 -1.405626386404037476e-01 2.711575031280517578e-01 3.917845338582992554e-02 -9.502059966325759888e-02
2.361000000000000000e+03 2.546565055847167969e+01 -1.946800231933593750e+01 -1.511035710573196411e-01 3.063822686672210693e-01 4.658361151814460754e-02 -8.965429663658142090e-02
2.362000000000000000e+03 2.759175491333007812e+01 -1.979403686523437500e+01 -1.495957672595977783e-01 3.425743281841278076e-01 5.789356678724288940e-02 -7.140012085437774658e-02
2.363000000000000000e+03 2.964140701293945312e+01 -1.843806457519531250e+01 -2.334306836128234863e-01 3.406730592250823975e-01 3.217271342873573303e-02 -3.646320849657058716e-02
2.364000000000000000e+03 3.021710395812988281e+01 -1.943003082275390625e+01 -1.639881432056427002e-01 3.616785407066345215e-01 5.930711328983306885e-02 -2.808237820863723755e-02
2.365000000000000000e+03 3.232645034790039062e+01 -2.016827201843261719e+01 -9.134959429502487183e-02 4.117546677589416504e-01 9.612152725458145142e-02 7.090340554714202881e-02
2.366000000000000000e+03 3.944306945800781250e+01 -2.092002105712890625e+01 -5.455762147903442383e-01 2.164097309112548828e+00 4.855563640594482422e-01 9.114789366722106934e-01
2.367000000000000000e+03 4.284058380126953125e+01 -1.968194580078125000e+01 -9.260308146476745605e-01 3.586526155471801758e+00 7.981486320495605469e-01 -5.167538672685623169e-02
2.368000000000000000e+03 4.434304046630859375e+01 -1.912166404724121094e+01 -8.964644670486450195e-01 3.211862087249755859e+00 6.946192979812622070e-01 -4.853537976741790771e-01
2.369000000000000000e+03 4.592383575439453125e+01 -1.863862037658691406e+01 -8.423420190811157227e-01 2.486388206481933594e+00 4.932138621807098389e-01 -5.954149365425109863e-01
2.370000000000000000e+03 4.716214370727539062e+01 -1.923386573791503906e+01 -9.470823407173156738e-01 1.921141266822814941e+00 2.922176718711853027e-01 -5.832948088645935059e-01
2.371000000000000000e+03 4.933919906616210938e+01 -1.986294746398925781e+01 -1.024607300758361816e+00 1.089318752288818359e+00 1.941343024373054504e-02 -3.753887116909027100e-01
2.372000000000000000e+03 5.773900222778320312e+01 -1.935218238830566406e+01 -9.459630846977233887e-01 8.976817131042480469e+00 2.409256219863891602e+00 -4.619704186916351318e-01
2.373000000000000000e+03 5.944843673706054688e+01 -1.829265785217285156e+01 2.576902508735656738e-01 7.614491462707519531e+00 2.361654520034790039e+00 -1.423581242561340332e+00
2.374000000000000000e+03 6.396831893920898438e+01 -1.914653587341308594e+01 3.264719992876052856e-02 4.981871604919433594e+00 1.504355549812316895e+00 -1.709722876548767090e+00
2.375000000000000000e+03 6.518269348144531250e+01 -1.915041160583496094e+01 9.798021614551544189e-02 4.348044872283935547e+00 1.333807587623596191e+00 -1.613811850547790527e+00
2.376000000000000000e+03 6.632252502441406250e+01 -1.830464172363281250e+01 9.158600121736526489e-02 3.540898084640502930e+00 1.089745163917541504e+00 -1.408340096473693848e+00
2.377000000000000000e+03 6.887577819824218750e+01 -1.831576538085937500e+01 5.052646994590759277e-01 2.432704448699951172e+00 8.813907504081726074e-01 1.505056619644165039e-01
2.378000000000000000e+03 6.992270660400390625e+01 -1.887606620788574219e+01 3.366403281688690186e-01 3.768941640853881836e+00 1.231674551963806152e+00 1.116886377334594727e+00
2.379000000000000000e+03 7.266504669189453125e+01 -1.886063194274902344e+01 -7.516427040100097656e-01 7.176836967468261719e+00 1.927558302879333496e+00 1.124099135398864746e+00
2.380000000000000000e+03 7.422191619873046875e+01 -1.904416656494140625e+01 -6.831743121147155762e-01 8.037522315979003906e+00 2.206304311752319336e+00 4.138753414154052734e-01
2.381000000000000000e+03 7.603895568847656250e+01 -1.960834693908691406e+01 -4.547130465507507324e-01 8.203296661376953125e+00 2.324574947357177734e+00 -1.115605309605598450e-01
2.382000000000000000e+03 7.805390167236328125e+01 -1.970612907409667969e+01 -1.545552164316177368e-01 8.265444755554199219e+00 2.433266639709472656e+00 -2.303078621625900269e-01
2.383000000000000000e+03 7.748320770263671875e+01 -1.816446685791015625e+01 -1.737692654132843018e-01 8.255411148071289062e+00 2.424492597579956055e+00 -4.478537738323211670e-01
2.384000000000000000e+03 7.572454833984375000e+01 -1.647920989990234375e+01 2.498693205416202545e-02 8.800255775451660156e+00 2.647572755813598633e+00 -5.969740152359008789e-01
2.385000000000000000e+03 7.390402984619140625e+01 -1.762384414672851562e+01 -8.105990290641784668e-01 8.774479866027832031e+00 2.389164209365844727e+00 2.939085364341735840e-01
2.386000000000000000e+03 7.174903106689453125e+01 -1.637730789184570312e+01 -1.645718812942504883e+00 8.670536994934082031e+00 2.107445716857910156e+00 1.906566858291625977e+00
2.387000000000000000e+03 6.968788909912109375e+01 -1.803171157836914062e+01 3.733632862567901611e-01 2.498296022415161133e+00 8.614977598190307617e-01 1.167313337326049805e+00
2.388000000000000000e+03 6.781289672851562500e+01 -1.783494186401367188e+01 2.064249292016029358e-02 2.528703927993774414e+00 7.648038864135742188e-01 -8.984085321426391602e-01
2.389000000000000000e+03 6.512995147705078125e+01 -1.744491195678710938e+01 -1.037348732352256775e-01 4.195072174072265625e+00 1.227401137351989746e+00 -1.586806297302246094e+00
2.390000000000000000e+03 6.357904815673828125e+01 -1.751097488403320312e+01 2.724073268473148346e-02 5.349926471710205078e+00 1.613150119781494141e+00 -1.657790303230285645e+00
2.391000000000000000e+03 6.185330200195312500e+01 -1.753571701049804688e+01 1.258861273527145386e-01 6.308351516723632812e+00 1.930271267890930176e+00 -1.566359519958496094e+00
2.392000000000000000e+03 5.991970825195312500e+01 -1.749389457702636719e+01 6.976414322853088379e-01 7.613769054412841797e+00 2.493422985076904297e+00 -1.133786201477050781e+00
2.393000000000000000e+03 5.809501647949218750e+01 -1.756731796264648438e+01 8.224889636039733887e-01 8.871153831481933594e+00 2.908092737197875977e+00 -7.291938662528991699e-01
2.394000000000000000e+03 7.884179687500000000e+01 -1.970235633850097656e+01 -4.965274035930633545e-02 8.326910972595214844e+00 2.483177423477172852e+00 -1.841170787811279297e-01
2.395000000000000000e+03 2.160320997238159180e+00 -2.195762443542480469e+01 -7.312063244171440601e-04 -1.905593276023864746e-01 -5.738715827465057373e-02 -4.428443312644958496e-02
2.396000000000000000e+03 6.074342727661132812e+00 -2.344934082031250000e+01 -1.333030872046947479e-03 -1.309683769941329956e-01 -3.969042003154754639e-02 -1.008733138442039490e-01
2.397000000000000000e+03 4.010725975036621094e+00 -2.272321891784667969e+01 -7.108324207365512848e-04 -1.673809438943862915e-01 -5.042753368616104126e-02 -7.455720007419586182e-02
2.398000000000000000e+03 8.229676246643066406e+00 -2.201299285888671875e+01 -6.296250037848949432e-03 -7.500468194484710693e-02 -2.439028024673461914e-02 -1.190649047493934631e-01
2.399000000000000000e+03 9.648339271545410156e+00 -2.195964431762695312e+01 -1.061892788857221603e-02 -4.513588547706604004e-02 -1.672644354403018951e-02 -1.301551461219787598e-01
2.400000000000000000e+03 1.126024150848388672e+01 -2.205067825317382812e+01 -1.166248694062232971e-02 -1.511264871805906296e-02 -8.032540790736675262e-03 -1.399785429239273071e-01
2.401000000000000000e+03 1.531070995330810547e+01 -2.135452079772949219e+01 -2.544560097157955170e-02 7.428660243749618530e-02 1.465229969471693039e-02 -1.486761868000030518e-01
2.402000000000000000e+03 1.842972755432128906e+01 -2.141961097717285156e+01 -4.267466440796852112e-02 1.425276994705200195e-01 2.995591238141059875e-02 -1.441032439470291138e-01
2.403000000000000000e+03 2.091330718994140625e+01 -2.175127220153808594e+01 -4.327928647398948669e-02 2.133452743291854858e-01 5.101979523897171021e-02 -1.353080719709396362e-01
2.404000000000000000e+03 2.232665443420410156e+01 -2.128286743164062500e+01 -6.060795485973358154e-02 2.394520938396453857e-01 5.365324020385742188e-02 -1.217787191271781921e-01
2.405000000000000000e+03 2.469483566284179688e+01 -2.170150566101074219e+01 -6.775603443384170532e-02 3.040915131568908691e-01 7.090064138174057007e-02 -1.069440916180610657e-01
2.406000000000000000e+03 2.636855316162109375e+01 -2.181251716613769531e+01 -6.325075030326843262e-02 3.489393889904022217e-01 8.570659905672073364e-02 -9.110186994075775146e-02
2.407000000000000000e+03 2.762569999694824219e+01 -2.094562339782714844e+01 -1.083678901195526123e-01 3.612965643405914307e-01 7.587859779596328735e-02 -7.809998095035552979e-02
2.408000000000000000e+03 2.988443565368652344e+01 -2.181646156311035156e+01 -3.981829434633255005e-02 4.297897219657897949e-01 1.169914305210113525e-01 -1.387053169310092926e-02
2.409000000000000000e+03 4.119412612915039062e+01 -2.265106391906738281e+01 -6.563336849212646484e-01 2.428059816360473633e+00 5.315178036689758301e-01 2.741791903972625732e-01
2.410000000000000000e+03 3.947832870483398438e+01 -2.229409980773925781e+01 -5.333416461944580078e-01 2.079301357269287109e+00 4.637879133224487305e-01 5.993534922599792480e-01
2.411000000000000000e+03 4.242374038696289062e+01 -2.246223640441894531e+01 -7.650899291038513184e-01 2.688752174377441406e+00 5.770986676216125488e-01 4.565852880477905273e-02
2.412000000000000000e+03 4.474721527099609375e+01 -2.129366493225097656e+01 -8.704614639282226562e-01 2.718769788742065430e+00 5.544925332069396973e-01 -4.428024888038635254e-01
2.413000000000000000e+03 4.583371353149414062e+01 -2.107665061950683594e+01 -8.483176827430725098e-01 2.426429271697998047e+00 4.734334647655487061e-01 -5.687400102615356445e-01
2.414000000000000000e+03 4.750913619995117188e+01 -2.119872474670410156e+01 -7.502987384796142578e-01 1.889739513397216797e+00 3.418322503566741943e-01 -5.918725728988647461e-01
2.415000000000000000e+03 4.855598831176757812e+01 -2.120378875732421875e+01 -6.793596744537353516e-01 1.579401493072509766e+00 2.700125575065612793e-01 -5.052794218063354492e-01
2.416000000000000000e+03 5.296055221557617188e+01 -2.152836990356445312e+01 -4.144357442855834961e-01 1.286575555801391602e+00 2.616419494152069092e-01 9.717425704002380371e-01
2.417000000000000000e+03 5.650282287597656250e+01 -2.138084030151367188e+01 -1.789048790931701660e+00 6.878945350646972656e+00 1.526968955993652344e+00 1.320686817169189453e+00
2.418000000000000000e+03 5.896633148193359375e+01 -2.097602081298828125e+01 -9.533802270889282227e-01 7.070465087890625000e+00 1.835125446319580078e+00 -5.702746510505676270e-01
2.419000000000000000e+03 5.934746932983398438e+01 -2.022446823120117188e+01 -8.438835144042968750e-01 7.455350399017333984e+00 1.983440160751342773e+00 -1.062989711761474609e+00
2.420000000000000000e+03 6.712889099121093750e+01 -2.147148704528808594e+01 4.921076893806457520e-01 4.346636295318603516e+00 1.451623082160949707e+00 -6.539881229400634766e-01
2.421000000000000000e+03 6.987960815429687500e+01 -2.041129684448242188e+01 3.766752183437347412e-01 4.546318531036376953e+00 1.476898074150085449e+00 5.837050676345825195e-01
2.422000000000000000e+03 7.239823913574218750e+01 -1.996342849731445312e+01 -3.745388984680175781e-01 6.650239467620849609e+00 1.882710218429565430e+00 9.478111267089843750e-01
2.423000000000000000e+03 7.346585083007812500e+01 -2.131164932250976562e+01 -2.524709403514862061e-01 7.036159515380859375e+00 2.035106658935546875e+00 5.486059784889221191e-01
2.424000000000000000e+03 7.792981719970703125e+01 -2.128913879394531250e+01 -1.291597634553909302e-01 8.246862411499023438e+00 2.435310840606689453e+00 -6.577224284410476685e-02
2.425000000000000000e+03 4.181012511253356934e-01 -2.119220924377441406e+01 -4.769288643728941679e-04 -2.045679986476898193e-01 -6.151347607374191284e-02 -9.048336185514926910e-03
2.426000000000000000e+03 7.875977325439453125e+01 -2.208986091613769531e+01 -4.734045639634132385e-02 8.415234565734863281e+00 2.510368347167968750e+00 -1.839332655072212219e-02
2.427000000000000000e+03 3.168839931488037109e+00 -2.439613914489746094e+01 -2.005780697800219059e-04 -2.092549651861190796e-01 -6.283666193485260010e-02 -6.231688708066940308e-02
2.428000000000000000e+03 6.071741104125976562e+00 -2.457551193237304688e+01 2.942554419860243797e-03 -1.446832120418548584e-01 -4.252219945192337036e-02 -9.999011456966400146e-02
2.429000000000000000e+03 4.494605541229248047e+00 -2.512223625183105469e+01 1.698696636594831944e-03 -1.886902749538421631e-01 -5.609747394919395447e-02 -8.093980699777603149e-02
2.430000000000000000e+03 7.235182285308837891e+00 -2.337347412109375000e+01 -1.408638781867921352e-04 -1.070661544799804688e-01 -3.216210752725601196e-02 -1.124205440282821655e-01
2.431000000000000000e+03 9.797399520874023438e+00 -2.360404968261718750e+01 8.452423498965799809e-04 -5.229643359780311584e-02 -1.543535757809877396e-02 -1.318884342908859253e-01
2.432000000000000000e+03 1.158316135406494141e+01 -2.394794273376464844e+01 3.291622037068009377e-03 -1.451147627085447311e-02 -3.365956246852874756e-03 -1.420489251613616943e-01
2.433000000000000000e+03 1.371471786499023438e+01 -2.366450691223144531e+01 2.614990808069705963e-03 3.339986503124237061e-02 1.080445758998394012e-02 -1.506579220294952393e-01
2.434000000000000000e+03 1.640798377990722656e+01 -2.279474258422851562e+01 -8.076974190771579742e-03 9.975402057170867920e-02 2.750311419367790222e-02 -1.516819745302200317e-01
2.435000000000000000e+03 1.753752136230468750e+01 -2.274571800231933594e+01 -1.557500194758176804e-02 1.269723773002624512e-01 3.341921418905258179e-02 -1.510690599679946899e-01
2.436000000000000000e+03 2.148589897155761719e+01 -2.360766029357910156e+01 2.549153286963701248e-03 2.350039184093475342e-01 7.126592099666595459e-02 -1.359663754701614380e-01
2.437000000000000000e+03 2.301186561584472656e+01 -2.373936080932617188e+01 -1.133076846599578857e-03 2.750293314456939697e-01 8.216887712478637695e-02 -1.251020133495330811e-01
2.438000000000000000e+03 2.639332199096679688e+01 -2.408512878417968750e+01 2.003549225628376007e-02 3.798040151596069336e-01 1.199518516659736633e-01 -8.356272429227828979e-02
2.439000000000000000e+03 4.077239227294921875e+01 -2.544682121276855469e+01 -3.822347521781921387e-01 2.056642293930053711e+00 5.023222565650939941e-01 1.717828214168548584e-01
2.440000000000000000e+03 3.924544143676757812e+01 -2.396306610107421875e+01 -3.843753635883331299e-01 1.902148008346557617e+00 4.553318023681640625e-01 4.246789216995239258e-01
2.441000000000000000e+03 4.279114151000976562e+01 -2.420793342590332031e+01 -5.602472424507141113e-01 2.364578247070312500e+00 5.412993431091308594e-01 -2.503089420497417450e-02
2.442000000000000000e+03 4.343895339965820312e+01 -2.301358413696289062e+01 -7.909264564514160156e-01 2.614217996597290039e+00 5.469874739646911621e-01 -1.305752247571945190e-01
2.443000000000000000e+03 4.621391677856445312e+01 -2.419241905212402344e+01 -4.561787247657775879e-01 2.156259775161743164e+00 5.100243091583251953e-01 -3.837654292583465576e-01
2.444000000000000000e+03 4.796442031860351562e+01 -2.337088394165039062e+01 -3.665651082992553711e-01 1.896425724029541016e+00 4.589581787586212158e-01 -3.944368660449981689e-01
2.445000000000000000e+03 5.095598220825195312e+01 -2.277093887329101562e+01 -1.808369010686874390e-01 1.412921071052551270e+00 3.696252405643463135e-01 1.486236155033111572e-01
2.446000000000000000e+03 5.441041946411132812e+01 -2.225173950195312500e+01 -5.909785628318786621e-01 3.024099826812744141e+00 7.299364209175109863e-01 1.622689843177795410e+00
2.447000000000000000e+03 5.917186355590820312e+01 -2.299488067626953125e+01 -1.100240707397460938e+00 6.150284290313720703e+00 1.515012979507446289e+00 -3.436567783355712891e-01
2.448000000000000000e+03 6.038825607299804688e+01 -2.260111618041992188e+01 -8.522444367408752441e-01 6.190889835357666016e+00 1.601593613624572754e+00 -8.359658718109130859e-01
2.449000000000000000e+03 6.374608612060546875e+01 -2.368423652648925781e+01 -1.609604060649871826e-01 5.368579387664794922e+00 1.562285661697387695e+00 -9.598599076271057129e-01
2.450000000000000000e+03 6.626586151123046875e+01 -2.217978477478027344e+01 3.265326917171478271e-01 4.704330921173095703e+00 1.509259104728698730e+00 -8.918094038963317871e-01
2.451000000000000000e+03 6.957215881347656250e+01 -2.285679054260253906e+01 3.693928420543670654e-01 5.201457023620605469e+00 1.671254992485046387e+00 1.279188245534896851e-01
2.452000000000000000e+03 7.127514648437500000e+01 -2.182913780212402344e+01 1.477605849504470825e-01 5.782221317291259766e+00 1.778994560241699219e+00 5.781443119049072266e-01
2.453000000000000000e+03 7.351490783691406250e+01 -2.255773162841796875e+01 -1.278468370437622070e-01 6.895905017852783203e+00 2.030417442321777344e+00 4.506298601627349854e-01
2.454000000000000000e+03 7.536614990234375000e+01 -2.309351348876953125e+01 -1.183324605226516724e-01 7.503297805786132812e+00 2.215489625930786133e+00 2.561371326446533203e-01
2.455000000000000000e+03 7.791307067871093750e+01 -2.292782211303710938e+01 -7.279688864946365356e-02 8.179420471191406250e+00 2.431987047195434570e+00 5.110702291131019592e-02
2.456000000000000000e+03 4.315035045146942139e-01 -2.279184722900390625e+01 -2.892872144002467394e-04 -2.399321645498275757e-01 -7.206644117832183838e-02 -9.449243545532226562e-03
2.457000000000000000e+03 7.875551605224609375e+01 -2.370911216735839844e+01 -2.581263519823551178e-02 8.372212409973144531e+00 2.503919839859008789e+00 4.423191398382186890e-02
2.458000000000000000e+03 2.981349945068359375e+00 -2.584398841857910156e+01 1.450466690585017204e-03 -2.406480461359024048e-01 -7.175927609205245972e-02 -5.810271576046943665e-02
2.459000000000000000e+03 6.250497341156005859e+00 -2.684619522094726562e+01 8.393365889787673950e-03 -1.641603112220764160e-01 -4.673008248209953308e-02 -9.884939342737197876e-02
2.460000000000000000e+03 5.227320194244384766e+00 -2.699875068664550781e+01 6.768985185772180557e-03 -1.918916404247283936e-01 -5.553679540753364563e-02 -8.850380033254623413e-02
2.461000000000000000e+03 1.130536651611328125e+01 -2.590159606933593750e+01 1.635828986763954163e-02 -2.997655235230922699e-02 -4.085478838533163071e-03 -1.358245760202407837e-01
2.462000000000000000e+03 1.828616142272949219e+01 -2.585904502868652344e+01 3.589134663343429565e-02 1.494790464639663696e-01 5.561111867427825928e-02 -1.479299217462539673e-01
2.463000000000000000e+03 2.298761940002441406e+01 -2.689508628845214844e+01 7.462883740663528442e-02 3.081395328044891357e-01 1.148305088281631470e-01 -1.126425042748451233e-01
2.464000000000000000e+03 2.350858688354492188e+01 -2.508286094665527344e+01 3.749817609786987305e-02 2.993360161781311035e-01 1.010502576828002930e-01 -1.173387989401817322e-01
2.465000000000000000e+03 4.396901702880859375e+01 -2.581849861145019531e+01 -3.933899104595184326e-01 2.245745897293090820e+00 5.557067990303039551e-01 -1.452697366476058960e-01
2.466000000000000000e+03 5.143306732177734375e+01 -2.505412673950195312e+01 -2.300300821661949158e-02 2.198060750961303711e+00 6.525173187255859375e-01 3.556103706359863281e-01
2.467000000000000000e+03 5.280796432495117188e+01 -2.577720642089843750e+01 -9.588541835546493530e-02 2.756998538970947266e+00 7.983339428901672363e-01 5.936572551727294922e-01
2.468000000000000000e+03 5.521062850952148438e+01 -2.505825614929199219e+01 -5.872133970260620117e-01 3.855629444122314453e+00 9.805248379707336426e-01 9.065114259719848633e-01
2.469000000000000000e+03 5.711476135253906250e+01 -2.563770866394042969e+01 -7.337888479232788086e-01 4.743314743041992188e+00 1.202857732772827148e+00 5.439373850822448730e-01
2.470000000000000000e+03 5.817058944702148438e+01 -2.596839332580566406e+01 -7.422164082527160645e-01 5.074087142944335938e+00 1.299561262130737305e+00 3.058413565158843994e-01
2.471000000000000000e+03 6.150270843505859375e+01 -2.587194252014160156e+01 -5.048790574073791504e-01 5.426488876342773438e+00 1.476482868194580078e+00 -4.309983253479003906e-01
2.472000000000000000e+03 6.242000579833984375e+01 -2.529104614257812500e+01 -3.824515640735626221e-01 5.486404895782470703e+00 1.531185984611511230e+00 -6.176674365997314453e-01
2.473000000000000000e+03 6.347372817993164062e+01 -2.501690483093261719e+01 -2.456230521202087402e-01 5.439080715179443359e+00 1.558037281036376953e+00 -7.163605093955993652e-01
2.474000000000000000e+03 7.034980010986328125e+01 -2.530863952636718750e+01 2.342445850372314453e-01 5.850634098052978516e+00 1.825463652610778809e+00 9.319046884775161743e-02
2.475000000000000000e+03 7.388221740722656250e+01 -2.440861892700195312e+01 8.556136861443519592e-03 6.932096481323242188e+00 2.082195758819580078e+00 3.091403543949127197e-01
2.476000000000000000e+03 7.556221771240234375e+01 -2.468743324279785156e+01 -2.050532773137092590e-02 7.445922374725341797e+00 2.227625131607055664e+00 2.308599501848220825e-01
2.477000000000000000e+03 7.710895538330078125e+01 -2.460653686523437500e+01 -2.249142341315746307e-02 7.879589557647705078e+00 2.357129335403442383e+00 1.458915770053863525e-01
2.478000000000000000e+03 4.327087402343750000e-01 -2.519311332702636719e+01 9.984175994759425521e-05 -2.941898107528686523e-01 -8.822698891162872314e-02 -9.605678729712963104e-03
2.479000000000000000e+03 7.876096343994140625e+01 -2.532684135437011719e+01 -1.159851346164941788e-02 8.295726776123046875e+00 2.485238552093505859e+00 6.818992644548416138e-02
2.480000000000000000e+03 2.283622026443481445e+00 -2.748468589782714844e+01 1.568200532346963882e-03 -2.866971790790557861e-01 -8.553869277238845825e-02 -4.427996650338172913e-02
2.481000000000000000e+03 6.539370536804199219e+00 -2.911262321472167969e+01 1.380815170705318451e-02 -1.763261407613754272e-01 -4.875539988279342651e-02 -9.446132928133010864e-02
2.482000000000000000e+03 5.472194671630859375e+00 -2.911583328247070312e+01 1.288395561277866364e-02 -2.076063305139541626e-01 -5.841671302914619446e-02 -8.612241595983505249e-02
2.483000000000000000e+03 7.314046382904052734e+00 -2.683916664123535156e+01 1.062825880944728851e-02 -1.350922286510467529e-01 -3.733918815851211548e-02 -1.079237908124923706e-01
2.484000000000000000e+03 9.051745414733886719e+00 -2.684601593017578125e+01 1.628909260034561157e-02 -9.275336563587188721e-02 -2.293928153812885284e-02 -1.208176240324974060e-01
2.485000000000000000e+03 1.071910476684570312e+01 -2.766654777526855469e+01 2.654689177870750427e-02 -5.421724915504455566e-02 -8.301107212901115417e-03 -1.264328807592391968e-01
2.486000000000000000e+03 2.172989082336425781e+01 -2.695831871032714844e+01 6.494352221488952637e-02 2.564538121223449707e-01 9.641920030117034912e-02 -1.240942329168319702e-01
2.487000000000000000e+03 2.629375839233398438e+01 -2.775099945068359375e+01 1.033606976270675659e-01 4.360655844211578369e-01 1.618278920650482178e-01 -6.935917586088180542e-02
2.488000000000000000e+03 4.885393905639648438e+01 -2.705799293518066406e+01 -2.404776588082313538e-02 2.233196735382080078e+00 6.627447009086608887e-01 -3.623430058360099792e-02
2.489000000000000000e+03 5.042825698852539062e+01 -2.619420242309570312e+01 -7.145950105041265488e-03 2.237316608428955078e+00 6.690512299537658691e-01 1.422039419412612915e-01
2.490000000000000000e+03 5.179832458496093750e+01 -2.766466712951660156e+01 1.222243905067443848e-02 2.702566385269165039e+00 8.144366145133972168e-01 3.428822457790374756e-01
2.491000000000000000e+03 5.564919281005859375e+01 -2.705872917175292969e+01 -4.180950224399566650e-01 4.003798961639404297e+00 1.075711250305175781e+00 5.619545578956604004e-01
2.492000000000000000e+03 5.770045089721679688e+01 -2.727880096435546875e+01 -5.335149765014648438e-01 4.595348358154296875e+00 1.218550086021423340e+00 3.196982741355895996e-01
2.493000000000000000e+03 6.488747406005859375e+01 -2.767975997924804688e+01 -6.672035157680511475e-02 5.396888256072998047e+00 1.599050402641296387e+00 -3.664599359035491943e-01
2.494000000000000000e+03 6.708207702636718750e+01 -2.780299758911132812e+01 1.045861542224884033e-01 5.557793140411376953e+00 1.698713779449462891e+00 -2.334292382001876831e-01
2.495000000000000000e+03 7.227175903320312500e+01 -2.688291358947753906e+01 1.292133480310440063e-01 6.466739654541015625e+00 1.978785872459411621e+00 1.621109992265701294e-01
2.496000000000000000e+03 7.350246429443359375e+01 -2.642888259887695312e+01 7.709091901779174805e-02 6.794369697570800781e+00 2.061438322067260742e+00 2.214872241020202637e-01
2.497000000000000000e+03 7.541361999511718750e+01 -2.621139717102050781e+01 3.785388916730880737e-02 7.349814414978027344e+00 2.216300487518310547e+00 2.016602009534835815e-01
2.498000000000000000e+03 7.708019256591796875e+01 -2.623387527465820312e+01 9.948199614882469177e-03 7.806250095367431641e+00 2.344859600067138672e+00 1.487659960985183716e-01
2.499000000000000000e+03 4.346614181995391846e-01 -2.599713134765625000e+01 -1.878757029771804810e-04 -3.122466504573822021e-01 -9.373036026954650879e-02 -9.669805876910686493e-03
2.500000000000000000e+03 7.875930023193359375e+01 -2.693532180786132812e+01 -4.164451267570257187e-03 8.210163116455078125e+00 2.461799621582031250e+00 6.967425346374511719e-02
2.501000000000000000e+03 2.388802766799926758e+00 -2.915340042114257812e+01 2.531409962102770805e-03 -3.089457154273986816e-01 -9.192428737878799438e-02 -4.455960169434547424e-02
2.502000000000000000e+03 5.404942035675048828e+00 -3.027110862731933594e+01 1.255941297858953476e-02 -2.255503237247467041e-01 -6.389727443456649780e-02 -7.923695445060729980e-02
2.503000000000000000e+03 7.641243457794189453e+00 -2.896262550354003906e+01 1.865659654140472412e-02 -1.469797194004058838e-01 -3.849693760275840759e-02 -1.027919426560401917e-01
2.504000000000000000e+03 2.066280555725097656e+01 -2.896881866455078125e+01 9.366653114557266235e-02 2.445782572031021118e-01 1.014734357595443726e-01 -1.253331899642944336e-01
2.505000000000000000e+03 2.200796127319335938e+01 -2.979351043701171875e+01 1.141358390450477600e-01 2.948915362358093262e-01 1.227082163095474243e-01 -1.060042753815650940e-01
2.506000000000000000e+03 2.848932075500488281e+01 -2.914885139465332031e+01 1.322259306907653809e-01 5.696834921836853027e-01 2.105728238821029663e-01 -2.506762184202671051e-02
2.507000000000000000e+03 5.869621276855468750e+01 -2.911299133300781250e+01 -3.514602482318878174e-01 4.645758152008056641e+00 1.288289427757263184e+00 1.536205261945724487e-01
2.508000000000000000e+03 6.166509246826171875e+01 -2.908457565307617188e+01 -2.722452580928802490e-01 5.150063037872314453e+00 1.463345289230346680e+00 -1.253768056631088257e-01
2.509000000000000000e+03 7.272210693359375000e+01 -2.829818153381347656e+01 1.145379245281219482e-01 6.641483783721923828e+00 2.026806592941284180e+00 1.358020454645156860e-01
2.510000000000000000e+03 7.519496917724609375e+01 -2.801586341857910156e+01 5.474562570452690125e-02 7.276324272155761719e+00 2.199321031570434570e+00 1.588662266731262207e-01
2.511000000000000000e+03 7.613056182861328125e+01 -2.793617248535156250e+01 3.541051596403121948e-02 7.511289596557617188e+00 2.264010190963745117e+00 1.568357944488525391e-01
2.512000000000000000e+03 4.500202536582946777e-01 -2.760667610168457031e+01 -5.378199857659637928e-04 -3.473116755485534668e-01 -1.043548509478569031e-01 -9.588046930730342865e-03
2.513000000000000000e+03 7.876830291748046875e+01 -2.852782630920410156e+01 -1.597999827936291695e-03 8.134454727172851562e+00 2.439857006072998047e+00 5.951873958110809326e-02
2.514000000000000000e+03 1.335233020782470703e+01 -2.960561561584472656e+01 5.566914007067680359e-02 6.177060306072235107e-03 1.855386048555374146e-02 -1.277099549770355225e-01
2.515000000000000000e+03 2.168149948120117188e+01 -3.149658203125000000e+01 1.385351568460464478e-01 2.980687320232391357e-01 1.309811770915985107e-01 -1.020932719111442566e-01
2.516000000000000000e+03 4.275889587402343750e+01 -3.154850196838378906e+01 2.999976277351379395e-02 1.959526658058166504e+00 5.968579053878784180e-01 -1.040352135896682739e-02
2.517000000000000000e+03 5.125657272338867188e+01 -3.152011299133300781e+01 9.707576036453247070e-02 2.829795837402343750e+00 8.780614733695983887e-01 1.718699038028717041e-01
2.518000000000000000e+03 7.614746856689453125e+01 -2.879882431030273438e+01 4.160021990537643433e-02 7.479784488677978516e+00 2.256415367126464844e+00 1.362933069467544556e-01
2.519000000000000000e+03 7.798193359375000000e+01 -3.011352539062500000e+01 2.001900970935821533e-02 7.894815921783447266e+00 2.374450445175170898e+00 7.547498494386672974e-02
2.520000000000000000e+03 4.645343720912933350e-01 -2.921861076354980469e+01 -1.796206051949411631e-04 -3.802671134471893311e-01 -1.141340211033821106e-01 -8.938344195485115051e-03
2.521000000000000000e+03 7.879248809814453125e+01 -3.008863449096679688e+01 -6.232332088984549046e-04 8.071484565734863281e+00 2.421258449554443359e+00 4.560386762022972107e-02
2.522000000000000000e+03 5.280983448028564453e+00 -3.404669952392578125e+01 1.898648031055927277e-02 -2.629597485065460205e-01 -7.319197803735733032e-02 -5.779786035418510437e-02
2.523000000000000000e+03 1.343689346313476562e+01 -3.217712020874023438e+01 7.042788714170455933e-02 2.734270645305514336e-03 2.194864675402641296e-02 -1.096686348319053650e-01
2.524000000000000000e+03 1.903277015686035156e+01 -3.238751602172851562e+01 1.238468736410140991e-01 1.992244422435760498e-01 9.692139178514480591e-02 -1.063353493809700012e-01
2.525000000000000000e+03 3.203356170654296875e+01 -3.186045455932617188e+01 1.653515845537185669e-01 8.706998229026794434e-01 3.108154237270355225e-01 3.277331218123435974e-02
2.526000000000000000e+03 7.593943023681640625e+01 -3.158527183532714844e+01 3.993806615471839905e-02 7.415227890014648438e+00 2.236549854278564453e+00 9.579508006572723389e-02
2.527000000000000000e+03 7.797702026367187500e+01 -3.162111473083496094e+01 1.892286911606788635e-02 7.845015048980712891e+00 2.359181404113769531e+00 5.353857204318046570e-02
2.528000000000000000e+03 4.561453163623809814e-01 -3.162229537963867188e+01 1.595577632542699575e-04 -4.254634082317352295e-01 -1.275911480188369751e-01 -7.489558774977922440e-03
2.529000000000000000e+03 7.878088378906250000e+01 -3.164859962463378906e+01 -4.581444431096315384e-03 8.017641067504882812e+00 2.403918027877807617e+00 3.134002909064292908e-02
2.530000000000000000e+03 2.480464458465576172e+00 -3.461858367919921875e+01 7.361280731856822968e-03 -3.786630034446716309e-01 -1.113905161619186401e-01 -2.954981848597526550e-02
2.531000000000000000e+03 3.845577239990234375e+00 -3.585483551025390625e+01 1.209335587918758392e-02 -3.378451466560363770e-01 -9.772554039955139160e-02 -3.567003831267356873e-02
2.532000000000000000e+03 6.960891246795654297e+00 -3.404716873168945312e+01 3.225481882691383362e-02 -2.005304098129272461e-01 -5.048267543315887451e-02 -7.123322039842605591e-02
2.533000000000000000e+03 1.045670318603515625e+01 -3.367420578002929688e+01 5.288819968700408936e-02 -8.444797992706298828e-02 -9.467932395637035370e-03 -8.608262985944747925e-02
2.534000000000000000e+03 2.856045341491699219e+01 -3.415378952026367188e+01 1.968329548835754395e-01 6.499736905097961426e-01 2.540419995784759521e-01 -2.209299057722091675e-02
2.535000000000000000e+03 6.975788116455078125e+01 -3.389469146728515625e+01 8.067596703767776489e-02 6.211431503295898438e+00 1.887632250785827637e+00 2.626254037022590637e-02
2.536000000000000000e+03 7.597394561767578125e+01 -3.275701904296875000e+01 2.560542710125446320e-02 7.395109176635742188e+00 2.226214408874511719e+00 7.256422191858291626e-02
2.537000000000000000e+03 7.785748291015625000e+01 -3.315340042114257812e+01 6.739115808159112930e-03 7.818511009216308594e+00 2.347575187683105469e+00 4.873298853635787964e-02
2.538000000000000000e+03 4.799847006797790527e-01 -3.321248626708984375e+01 -9.080598829314112663e-04 -4.495308995246887207e-01 -1.351316869258880615e-01 -6.878166925162076950e-03
2.539000000000000000e+03 7.873603057861328125e+01 -3.320392990112304688e+01 1.503166276961565018e-03 7.967086315155029297e+00 2.390576839447021484e+00 3.195734322071075439e-02
2.540000000000000000e+03 6.657912731170654297e+00 -3.812150955200195312e+01 3.403861075639724731e-02 -2.276315689086914062e-01 -5.807788670063018799e-02 -3.983374312520027161e-02
2.541000000000000000e+03 7.283898925781250000e+01 -3.492564010620117188e+01 5.600148439407348633e-02 6.744101047515869141e+00 2.040030717849731445e+00 4.058122262358665466e-02
2.542000000000000000e+03 7.774038696289062500e+01 -3.463451385498046875e+01 3.449275856837630272e-03 7.740671634674072266e+00 2.323236227035522461e+00 3.893161937594413757e-02
2.543000000000000000e+03 4.972118437290191650e-01 -3.480195617675781250e+01 -1.589208142831921577e-03 -4.691559374332427979e-01 -1.412235498428344727e-01 -5.727853626012802124e-03
2.544000000000000000e+03 7.867665863037109375e+01 -3.553302383422851562e+01 8.417165838181972504e-03 7.925293922424316406e+00 2.380113363265991211e+00 2.942081168293952942e-02
2.545000000000000000e+03 2.918916702270507812e+00 -3.875001144409179688e+01 4.362744744867086411e-03 -3.878835439682006836e-01 -1.150562390685081482e-01 -1.969157345592975616e-02
2.546000000000000000e+03 3.519250392913818359e+00 -4.024761199951171875e+01 2.275482192635536194e-02 -3.654044270515441895e-01 -1.027948781847953796e-01 -1.623221114277839661e-02
2.547000000000000000e+03 1.918841361999511719e+01 -3.901420211791992188e+01 1.670368164777755737e-01 2.152887135744094849e-01 1.146976649761199951e-01 -3.525745868682861328e-02
2.548000000000000000e+03 3.219263076782226562e+01 -3.565410614013671875e+01 2.085987627506256104e-01 9.030190706253051758e-01 3.334853649139404297e-01 1.365354750305414200e-03
2.549000000000000000e+03 6.244101715087890625e+01 -3.642383956909179688e+01 -3.930749837309122086e-03 4.941969871520996094e+00 1.481411814689636230e+00 -7.399444468319416046e-03
2.550000000000000000e+03 7.490567779541015625e+01 -3.804121017456054688e+01 1.193087268620729446e-02 7.234670639038085938e+00 2.173980474472045898e+00 1.545306667685508728e-02
2.551000000000000000e+03 7.725968170166015625e+01 -3.691225433349609375e+01 1.092922966927289963e-02 7.648431777954101562e+00 2.297808170318603516e+00 2.705971337854862213e-02
2.552000000000000000e+03 5.285847783088684082e-01 -3.640021896362304688e+01 -1.642902847379446030e-03 -4.863017201423645020e-01 -1.463833898305892944e-01 -5.524045322090387344e-03
2.553000000000000000e+03 7.862262725830078125e+01 -3.695183181762695312e+01 2.549390308558940887e-03 7.870895862579345703e+00 2.362033605575561523e+00 1.930385269224643707e-02
2.554000000000000000e+03 7.695780181884765625e+01 -3.881941604614257812e+01 2.252339012920856476e-02 7.573381900787353516e+00 2.278771400451660156e+00 2.635081298649311066e-02
2.555000000000000000e+03 5.536235570907592773e-01 -3.801676940917968750e+01 -1.676968648098409176e-03 -4.992536008358001709e-01 -1.502791792154312134e-01 -3.858249401673674583e-03
2.556000000000000000e+03 7.820117187500000000e+01 -3.860199356079101562e+01 1.302921678870916367e-02 7.786626815795898438e+00 2.339896917343139648e+00 1.694596186280250549e-02
2.557000000000000000e+03 1.229850006103515625e+01 -4.117370223999023438e+01 8.538936078548431396e-02 -3.528784587979316711e-02 1.503045298159122467e-02 -1.218533143401145935e-02
2.558000000000000000e+03 5.215191268920898438e+01 -4.068138122558593750e+01 1.864245831966400146e-01 3.189370870590209961e+00 1.012738585472106934e+00 2.504456974565982819e-02
2.559000000000000000e+03 7.708438873291015625e+01 -4.059130859375000000e+01 1.778540201485157013e-02 7.550995349884033203e+00 2.270634174346923828e+00 2.513502724468708038e-02
2.560000000000000000e+03 5.083109140396118164e-01 -3.964980316162109375e+01 4.538821987807750702e-03 -5.127074718475341797e-01 -1.524505913257598877e-01 -2.710669767111539841e-03
2.561000000000000000e+03 7.851873016357421875e+01 -4.026523971557617188e+01 1.001827325671911240e-02 7.798587799072265625e+00 2.342581987380981445e+00 -2.642862033098936081e-03
2.562000000000000000e+03 7.525144958496093750e+01 -1.589073562622070312e+01 1.534964442253112793e-01 8.954129219055175781e+00 2.732287645339965820e+00 -5.465935468673706055e-01
2.563000000000000000e+03 6.650852203369140625e+01 -1.679669380187988281e+01 -4.251319169998168945e-01 3.054236412048339844e+00 7.887313365936279297e-01 -1.308652281761169434e+00
2.564000000000000000e+03 6.481398773193359375e+01 -1.453129291534423828e+01 -2.223577499389648438e-01 4.252606868743896484e+00 1.209074616432189941e+00 -1.271570563316345215e+00
2.565000000000000000e+03 6.340641403198242188e+01 -1.544644069671630859e+01 -9.252015501260757446e-03 5.645081520080566406e+00 1.690748810768127441e+00 -1.343011021614074707e+00
2.566000000000000000e+03 6.160394287109375000e+01 -1.640514755249023438e+01 2.150048166513442993e-01 6.650699138641357422e+00 2.059711217880249023e+00 -1.300393819808959961e+00
2.567000000000000000e+03 5.973046112060546875e+01 -1.626004409790039062e+01 9.852296113967895508e-01 8.025928497314453125e+00 2.703347444534301758e+00 -7.947158813476562500e-01
2.568000000000000000e+03 5.804407501220703125e+01 -1.563271141052246094e+01 1.120348334312438965e+00 9.866523742675781250e+00 3.296061515808105469e+00 -2.868329882621765137e-01
2.569000000000000000e+03 7.537158203125000000e+01 -1.428953456878662109e+01 8.363959193229675293e-01 9.102962493896484375e+00 2.981807708740234375e+00 -2.634594440460205078e-01
2.570000000000000000e+03 7.376068878173828125e+01 -1.404245948791503906e+01 1.228051900863647461e+00 1.064764499664306641e+01 3.562708854675292969e+00 2.866602838039398193e-01
2.571000000000000000e+03 7.295302581787109375e+01 -1.423491096496582031e+01 1.925673484802246094e+00 1.091255855560302734e+01 3.851469516754150391e+00 6.433265209197998047e-01
2.572000000000000000e+03 7.391739654541015625e+01 -1.477723121643066406e+01 1.131116867065429688e+00 9.915499687194824219e+00 3.313985109329223633e+00 2.411911450326442719e-02
2.573000000000000000e+03 7.811796569824218750e+01 -1.253877544403076172e+01 2.592833042144775391e-01 7.687516212463378906e+00 2.384039878845214844e+00 5.557971447706222534e-02
2.574000000000000000e+03 7.518663787841796875e+01 -1.297238826751708984e+01 1.089771866798400879e+00 9.373575210571289062e+00 3.139004230499267578e+00 4.626517370343208313e-02
2.575000000000000000e+03 7.358311462402343750e+01 -1.119141483306884766e+01 1.238424181938171387e+00 1.112552452087402344e+01 3.709184646606445312e+00 -7.220706343650817871e-02
2.576000000000000000e+03 7.284155273437500000e+01 -1.272636222839355469e+01 5.630864500999450684e-01 1.310627174377441406e+01 4.100807189941406250e+00 6.361768841743469238e-01
2.577000000000000000e+03 7.366691589355468750e+01 -1.332126617431640625e+01 1.354655742645263672e+00 1.085168075561523438e+01 3.661900997161865234e+00 3.441013395786285400e-01
2.578000000000000000e+03 7.806034088134765625e+01 -1.096851444244384766e+01 2.907838225364685059e-01 7.870279312133789062e+00 2.448318958282470703e+00 4.674116373062133789e-01
2.579000000000000000e+03 7.261156463623046875e+01 -9.280027389526367188e+00 1.555494546890258789e+00 1.086696147918701172e+01 3.726736783981323242e+00 -9.396846890449523926e-01
2.580000000000000000e+03 7.312229156494140625e+01 -9.759959220886230469e+00 1.469804406166076660e+00 1.074616909027099609e+01 3.664792060852050781e+00 -4.413922131061553955e-01
2.581000000000000000e+03 7.804659271240234375e+01 -9.321522712707519531e+00 2.264330685138702393e-01 8.212051391601562500e+00 2.531545400619506836e+00 8.600429296493530273e-01
2.582000000000000000e+03 7.441174316406250000e+01 -9.178116798400878906e+00 1.140017151832580566e+00 9.245235443115234375e+00 3.115575790405273438e+00 6.758931875228881836e-01
2.583000000000000000e+03 7.382865905761718750e+01 -7.486536979675292969e+00 4.284180700778961182e-01 8.482898712158203125e+00 2.673394918441772461e+00 5.298589468002319336e-01
2.584000000000000000e+03 7.357940673828125000e+01 -9.234662055969238281e+00 1.321524739265441895e+00 9.737468719482421875e+00 3.317698001861572266e+00 1.208636835217475891e-01
2.585000000000000000e+03 7.884511566162109375e+01 -1.169741153717041016e+01 1.178428754210472107e-01 7.290300846099853516e+00 2.222443103790283203e+00 1.845407336950302124e-01
2.586000000000000000e+03 7.739828491210937500e+01 -7.649726867675781250e+00 2.401703000068664551e-01 8.706175804138183594e+00 2.683903932571411133e+00 1.323819041252136230e+00
2.587000000000000000e+03 7.477043151855468750e+01 -7.576705455780029297e+00 4.718656241893768311e-01 8.519299507141113281e+00 2.697349548339843750e+00 1.006612896919250488e+00
2.588000000000000000e+03 7.233659362792968750e+01 -6.989549636840820312e+00 1.981228590011596680e-01 7.641355037689208984e+00 2.351843357086181641e+00 -7.960738539695739746e-01
2.589000000000000000e+03 7.179866027832031250e+01 -7.571032524108886719e+00 7.406880259513854980e-01 7.889555931091308594e+00 2.589073181152343750e+00 -1.687654018402099609e+00
2.590000000000000000e+03 7.885166168212890625e+01 -8.474068641662597656e+00 6.396844238042831421e-02 8.323752403259277344e+00 2.516316175460815430e+00 6.980805993080139160e-01
2.591000000000000000e+03 7.723339843750000000e+01 -4.877464294433593750e+00 8.736974559724330902e-03 8.983767509460449219e+00 2.697751522064208984e+00 1.492866516113281250e+00
2.592000000000000000e+03 6.856822204589843750e+01 -5.194655895233154297e+00 -2.874021530151367188e-01 9.919840097427368164e-01 2.113745510578155518e-01 -4.117335081100463867e-01
2.593000000000000000e+03 6.909944915771484375e+01 -5.759765148162841797e+00 4.686793386936187744e-01 1.667919516563415527e+00 6.409796476364135742e-01 -9.943139553070068359e-01
2.594000000000000000e+03 7.018202972412109375e+01 -5.851118087768554688e+00 1.900713294744491577e-01 3.632266998291015625e+00 1.146701455116271973e+00 -1.555848479270935059e+00
2.595000000000000000e+03 6.929439544677734375e+01 -3.760320663452148438e+00 -2.296111345291137695e+00 3.451125144958496094e+00 3.465041518211364746e-01 -1.032284259796142578e+00
2.596000000000000000e+03 7.891354370117187500e+01 -6.099773883819580078e+00 5.679730325937271118e-02 9.674036026000976562e+00 2.919250011444091797e+00 8.645905256271362305e-01
2.597000000000000000e+03 7.304209136962890625e+01 -3.117168664932250977e+00 -9.700311422348022461e-01 4.949988842010498047e+00 1.193987250328063965e+00 -1.130687475204467773e+00
2.598000000000000000e+03 7.533461761474609375e+01 -3.735085964202880859e+00 -2.582722902297973633e-01 6.875044345855712891e+00 1.985031723976135254e+00 9.632603526115417480e-01
2.599000000000000000e+03 7.173445129394531250e+01 -4.503284931182861328e+00 -1.094662547111511230e+00 5.419596672058105469e+00 1.297480225563049316e+00 -1.331647515296936035e+00
2.600000000000000000e+03 6.815055847167968750e+01 -3.647231817245483398e+00 -2.741546392440795898e+00 1.795280575752258301e+00 -2.838796973228454590e-01 2.422783821821212769e-01
2.601000000000000000e+03 7.130283355712890625e+01 -5.801594257354736328e+00 -3.229959607124328613e-01 5.559266090393066406e+00 1.570881128311157227e+00 -1.464090943336486816e+00
2.602000000000000000e+03 7.045118713378906250e+01 -2.648566484451293945e+00 -2.553782701492309570e+00 4.787032127380371094e+00 6.699748039245605469e-01 -2.405030012130737305e+00
2.603000000000000000e+03 6.175327682495117188e+01 -1.085685610771179199e+00 -2.193917989730834961e+00 6.176112651824951172e+00 1.194658279418945312e+00 1.201078057289123535e+00
2.604000000000000000e+03 6.037582778930664062e+01 -1.719447493553161621e+00 -9.109038114547729492e-01 4.757291316986083984e+00 1.153916239738464355e+00 -3.962257504463195801e-01
2.605000000000000000e+03 5.668264007568359375e+01 -4.491934776306152344e+00 -4.259716272354125977e-01 5.855708599090576172e+00 1.628921151161193848e+00 -2.668524265289306641e+00
2.606000000000000000e+03 5.430768585205078125e+01 -3.376755952835083008e+00 -2.857777595520019531e+00 7.042387008666992188e+00 1.255382776260375977e+00 -3.243268251419067383e+00
2.607000000000000000e+03 5.310646438598632812e+01 -3.441399812698364258e+00 -3.448030948638916016e+00 6.592553615570068359e+00 9.433567523956298828e-01 -2.413107633590698242e+00
2.608000000000000000e+03 4.886318588256835938e+01 -2.328111886978149414e+00 -2.487923860549926758e+00 -3.087709546089172363e-01 -8.390084505081176758e-01 1.773191094398498535e+00
2.609000000000000000e+03 4.278548812866210938e+01 -3.016085386276245117e+00 1.220064878463745117e+00 5.654412746429443359e+00 2.062343358993530273e+00 1.100632324814796448e-01
2.610000000000000000e+03 4.070944213867187500e+01 -3.883115053176879883e+00 1.586043477058410645e+00 1.507115721702575684e+00 9.279477596282958984e-01 -2.908584475517272949e-01
2.611000000000000000e+03 3.974232482910156250e+01 -3.480482101440429688e+00 1.277581930160522461e+00 2.078968584537506104e-01 4.456436634063720703e-01 -5.716542005538940430e-01
2.612000000000000000e+03 4.170089340209960938e+01 -4.697544574737548828e+00 2.000343084335327148e+00 3.552122592926025391e+00 1.665739655494689941e+00 2.777697741985321045e-01
2.613000000000000000e+03 4.260444641113281250e+01 -4.497760772705078125e+00 2.368925094604492188e+00 5.616354465484619141e+00 2.395583868026733398e+00 3.956800699234008789e-01
2.614000000000000000e+03 5.222673416137695312e+01 -4.513500690460205078e+00 -3.447512388229370117e+00 4.244967937469482422e+00 2.392366379499435425e-01 -8.568410277366638184e-01
2.615000000000000000e+03 5.612403106689453125e+01 -5.656835556030273438e+00 -4.785513877868652344e-01 6.252014160156250000e+00 1.732038855552673340e+00 -2.006246328353881836e+00
2.616000000000000000e+03 5.529751205444335938e+01 -5.800717830657958984e+00 -8.924897313117980957e-01 6.245374679565429688e+00 1.605865478515625000e+00 -1.986540436744689941e+00
2.617000000000000000e+03 5.887521362304687500e+01 -3.554801940917968750e+00 6.846278309822082520e-01 5.128979206085205078e+00 1.744082093238830566e+00 -1.749028563499450684e+00
2.618000000000000000e+03 6.116823959350585938e+01 -3.907474994659423828e+00 1.670286893844604492e+00 7.518977165222167969e+00 2.756779193878173828e+00 2.697682678699493408e-01
2.619000000000000000e+03 3.590839004516601562e+01 -3.951635599136352539e+00 -3.367328345775604248e-01 -1.201465964317321777e+00 -4.614596366882324219e-01 5.870199203491210938e-01
2.620000000000000000e+03 7.883020782470703125e+01 -4.490257263183593750e+00 3.777783736586570740e-02 1.059509468078613281e+01 3.189861774444580078e+00 9.433594942092895508e-01
2.621000000000000000e+03 7.568829345703125000e+01 3.451334238052368164e+00 3.496451973915100098e-01 1.067446899414062500e+01 3.307234048843383789e+00 9.065201878547668457e-01
2.622000000000000000e+03 7.662540435791015625e+01 3.825488090515136719e+00 3.628540337085723877e-01 1.132791614532470703e+01 3.507230997085571289e+00 -1.938636064529418945e+00
2.623000000000000000e+03 7.485807800292968750e+01 1.133974790573120117e+00 -4.655612945556640625e+00 2.971562862396240234e+00 -5.052149891853332520e-01 -2.781845070421695709e-02
2.624000000000000000e+03 7.623265075683593750e+01 7.367817878723144531e+00 3.549030542373657227e+00 1.677286911010742188e+01 6.096570014953613281e+00 -2.913384437561035156e+00
2.625000000000000000e+03 7.700000000000000000e+01 7.184844017028808594e+00 2.448191642761230469e+00 1.150477027893066406e+01 4.185888767242431641e+00 -1.367759346961975098e+00
2.626000000000000000e+03 7.894880676269531250e+01 5.196125984191894531e+00 1.944990307092666626e-01 8.586249351501464844e+00 2.634224414825439453e+00 -1.668533921241760254e+00
2.627000000000000000e+03 7.702666473388671875e+01 8.794829368591308594e+00 5.174285173416137695e-01 1.059711933135986328e+01 3.334364414215087891e+00 -3.314394056797027588e-01
2.628000000000000000e+03 7.961281585693359375e+01 6.796339511871337891e+00 2.276033610105514526e-01 5.214880943298339844e+00 1.632745265960693359e+00 -2.914778888225555420e-01
2.629000000000000000e+03 7.552767181396484375e+01 1.067903900146484375e+01 -9.053913950920104980e-01 8.080893516540527344e+00 2.152650594711303711e+00 -2.567273139953613281e+00
2.630000000000000000e+03 7.753904724121093750e+01 1.011111927032470703e+01 -5.498607158660888672e-01 8.513671875000000000e+00 2.389143466949462891e+00 -3.867062926292419434e-02
2.631000000000000000e+03 7.045457458496093750e+01 9.413213729858398438e+00 -1.837064027786254883e+00 3.569900751113891602e+00 5.198510289192199707e-01 3.446669280529022217e-01
2.632000000000000000e+03 6.930807495117187500e+01 8.694440841674804688e+00 -1.658102035522460938e+00 8.281778335571289062e+00 1.987102746963500977e+00 -7.990017533302307129e-01
2.633000000000000000e+03 6.531103515625000000e+01 6.317645072937011719e+00 -3.658982515335083008e-01 8.109766960144042969e+00 2.323160409927368164e+00 3.670652210712432861e-01
2.634000000000000000e+03 6.503749847412109375e+01 8.684142112731933594e+00 1.782933831214904785e+00 1.130927848815917969e+01 3.927663564682006836e+00 3.595022439956665039e+00
2.635000000000000000e+03 6.670014953613281250e+01 7.245333194732666016e+00 -1.128046631813049316e+00 1.110466098785400391e+01 2.992984294891357422e+00 -1.486085653305053711e+00
2.636000000000000000e+03 7.880466461181640625e+01 9.198041915893554688e+00 7.106370478868484497e-02 7.084107398986816406e+00 2.146551370620727539e+00 5.137256979942321777e-01
2.637000000000000000e+03 7.404253387451171875e+01 1.043153095245361328e+01 1.959997266530990601e-01 3.897009134292602539e+00 1.227902650833129883e+00 -3.807398557662963867e+00
2.638000000000000000e+03 7.184745788574218750e+01 1.086244201660156250e+01 1.080964088439941406e+00 1.269691228866577148e+00 7.051966190338134766e-01 -6.797387599945068359e-01
2.639000000000000000e+03 7.132274627685546875e+01 1.056933403015136719e+01 9.463338851928710938e-01 1.874769449234008789e+00 8.463310003280639648e-01 3.268605843186378479e-02
2.640000000000000000e+03 6.918613433837890625e+01 1.099398708343505859e+01 1.836013317108154297e+00 6.983564376831054688e+00 2.645873308181762695e+00 7.686323523521423340e-01
2.641000000000000000e+03 6.725362396240234375e+01 1.036041545867919922e+01 1.640563368797302246e+00 1.306691837310791016e+01 4.412244319915771484e+00 -1.170018985867500305e-01
2.642000000000000000e+03 6.559122467041015625e+01 1.217982196807861328e+01 3.943789482116699219e+00 2.337492942810058594e+01 8.195615768432617188e+00 -3.913306713104248047e+00
2.643000000000000000e+03 7.878537750244140625e+01 1.089442157745361328e+01 -2.360818535089492798e-01 7.025499820709228516e+00 2.036825418472290039e+00 2.089017331600189209e-01
2.644000000000000000e+03 7.544706726074218750e+01 1.984244728088378906e+01 2.503847777843475342e-01 5.940662860870361328e+00 1.857314348220825195e+00 6.853961199522018433e-02
2.645000000000000000e+03 7.793006134033203125e+01 1.883772087097167969e+01 9.712867438793182373e-02 5.820094108581542969e+00 1.775166749954223633e+00 -6.252242624759674072e-02
2.646000000000000000e+03 7.300267791748046875e+01 1.753630256652832031e+01 8.011879920959472656e-01 5.776698589324951172e+00 1.973365902900695801e+00 1.455676555633544922e-01
2.647000000000000000e+03 6.989251708984375000e+01 1.812975311279296875e+01 4.755188524723052979e-01 6.704377174377441406e+00 2.153968811035156250e+00 4.449676871299743652e-01
2.648000000000000000e+03 6.833649444580078125e+01 1.821139717102050781e+01 2.339752018451690674e-01 7.040605545043945312e+00 2.182374238967895508e+00 1.296113133430480957e-01
2.649000000000000000e+03 6.628205871582031250e+01 1.770115470886230469e+01 1.330677419900894165e-01 7.112837791442871094e+00 2.173771619796752930e+00 -8.947390913963317871e-01
2.650000000000000000e+03 6.193754196166992188e+01 1.698732185363769531e+01 1.831930160522460938e+00 2.756236076354980469e+00 1.376449942588806152e+00 -7.804251909255981445e-01
2.651000000000000000e+03 5.997349929809570312e+01 1.765147590637207031e+01 1.859718322753906250e+00 3.056083679199218750e+00 1.474740624427795410e+00 7.394751906394958496e-01
2.652000000000000000e+03 5.811669540405273438e+01 1.780403709411621094e+01 1.591376781463623047e+00 3.994080305099487305e+00 1.675637125968933105e+00 1.711766839027404785e+00
2.653000000000000000e+03 5.518576049804687500e+01 1.675590133666992188e+01 1.167848467826843262e+00 6.750749588012695312e+00 2.375579357147216797e+00 2.587199687957763672e+00
2.654000000000000000e+03 5.438610458374023438e+01 1.767509460449218750e+01 4.622588753700256348e-01 7.579144001007080078e+00 2.412420988082885742e+00 2.100843191146850586e+00
2.655000000000000000e+03 5.288591384887695312e+01 1.735227203369140625e+01 -1.184111610054969788e-01 9.473802566528320312e+00 2.806617259979248047e+00 1.492374777793884277e+00
2.656000000000000000e+03 4.753118896484375000e+01 1.953555107116699219e+01 1.679088026285171509e-01 3.439582824707031250e+00 1.082247495651245117e+00 -2.057099342346191406e+00
2.657000000000000000e+03 4.429328155517578125e+01 1.843773078918457031e+01 2.395219206809997559e-01 9.888745546340942383e-01 3.685189485549926758e-01 -6.993384361267089844e-01
2.658000000000000000e+03 4.591901397705078125e+01 1.865631103515625000e+01 6.382917761802673340e-01 1.575088024139404297e+00 6.640139818191528320e-01 -1.512572765350341797e+00
2.659000000000000000e+03 4.114334487915039062e+01 1.799586677551269531e+01 -3.237951695919036865e-01 6.341911554336547852e-01 9.311878681182861328e-02 -2.023417949676513672e-01
2.660000000000000000e+03 4.173223495483398438e+01 1.869849395751953125e+01 -1.450137645006179810e-01 7.391021847724914551e-01 1.782265305519104004e-01 -3.054525554180145264e-01
2.661000000000000000e+03 4.008074951171875000e+01 1.755882072448730469e+01 -5.422225594520568848e-01 5.077251195907592773e-01 -1.034923642873764038e-02 -1.121738851070404053e-01
2.662000000000000000e+03 3.825371170043945312e+01 1.758227729797363281e+01 -6.433096528053283691e-01 2.372137457132339478e-01 -1.218287721276283264e-01 -1.047440916299819946e-01
2.663000000000000000e+03 3.523931121826171875e+01 1.844392204284667969e+01 -5.177071094512939453e-01 -1.549933850765228271e-01 -2.018101513385772705e-01 1.433046013116836548e-01
2.664000000000000000e+03 3.335268402099609375e+01 1.922525787353515625e+01 -4.671202301979064941e-01 -7.417730242013931274e-02 -1.623892635107040405e-01 2.798500955104827881e-01
2.665000000000000000e+03 3.034896087646484375e+01 1.769021987915039062e+01 -7.847495079040527344e-01 5.171925947070121765e-02 -2.199090719223022461e-01 3.911090791225433350e-01
2.666000000000000000e+03 3.171444892883300781e+01 1.797056007385253906e+01 -7.524153590202331543e-01 -5.964703485369682312e-02 -2.436187118291854858e-01 4.078474938869476318e-01
2.667000000000000000e+03 2.811338043212890625e+01 1.874827194213867188e+01 -7.047232389450073242e-01 6.720964610576629639e-02 -1.912540793418884277e-01 3.207928836345672607e-01
2.668000000000000000e+03 2.591983985900878906e+01 2.005220031738281250e+01 -5.228980183601379395e-01 -8.675669878721237183e-02 -1.828964203596115112e-01 2.448643147945404053e-01
2.669000000000000000e+03 2.636047935485839844e+01 1.914056015014648438e+01 -6.689020395278930664e-01 -3.551990166306495667e-02 -2.113265842199325562e-01 2.476068288087844849e-01
2.670000000000000000e+03 2.331413650512695312e+01 1.673900032043457031e+01 -1.575330972671508789e+00 -2.084999680519104004e-01 -5.351492762565612793e-01 4.797577112913131714e-02
2.671000000000000000e+03 2.073354911804199219e+01 1.653868865966796875e+01 -5.870181918144226074e-01 2.601401135325431824e-02 -1.683012545108795166e-01 -1.270314678549766541e-02
2.672000000000000000e+03 1.898235130310058594e+01 1.749666404724121094e+01 -4.407772123813629150e-01 7.395485043525695801e-02 -1.100467070937156677e-01 1.116929799318313599e-01
2.673000000000000000e+03 1.816772651672363281e+01 1.801413345336914062e+01 -3.826410174369812012e-01 7.720690965652465820e-02 -9.163023531436920166e-02 1.644408851861953735e-01
2.674000000000000000e+03 1.612756538391113281e+01 1.763425636291503906e+01 -2.614575028419494629e-01 7.881252467632293701e-02 -5.479349195957183838e-02 1.278318464756011963e-01
2.675000000000000000e+03 1.529798984527587891e+01 1.694338226318359375e+01 -2.143754214048385620e-01 7.488821446895599365e-02 -4.184616357088088989e-02 9.651747345924377441e-02
2.676000000000000000e+03 1.023462390899658203e+01 1.904009819030761719e+01 -1.010549888014793396e-01 -2.310930518433451653e-03 -3.100977651774883270e-02 1.130691468715667725e-01
2.677000000000000000e+03 1.067616653442382812e+01 1.850963020324707031e+01 -1.105532869696617126e-01 9.282791055738925934e-03 -3.038114868104457855e-02 1.073489263653755188e-01
2.678000000000000000e+03 7.765327930450439453e+00 1.761659812927246094e+01 -5.365101248025894165e-02 -2.683092281222343445e-02 -2.414458058774471283e-02 6.455469876527786255e-02
2.679000000000000000e+03 6.054609775543212891e+00 1.880185317993164062e+01 -3.685196489095687866e-02 -6.508315354585647583e-02 -3.058053553104400635e-02 6.489624828100204468e-02
2.680000000000000000e+03 4.061393260955810547e+00 1.829800987243652344e+01 -1.774539612233638763e-02 -8.006664365530014038e-02 -2.934361062943935394e-02 4.011087492108345032e-02
2.681000000000000000e+03 7.961496734619140625e+01 1.725474548339843750e+01 1.809107325971126556e-02 5.746757507324218750e+00 1.729454517364501953e+00 -4.871518909931182861e-02
2.682000000000000000e+03 7.614402770996093750e+01 2.132625961303710938e+01 1.092626750469207764e-01 5.963810443878173828e+00 1.821922063827514648e+00 1.464697867631912231e-01
2.683000000000000000e+03 7.784709930419921875e+01 2.048638916015625000e+01 6.596120446920394897e-02 5.832640647888183594e+00 1.769580483436584473e+00 5.075176432728767395e-02
2.684000000000000000e+03 7.383963775634765625e+01 1.944891166687011719e+01 4.089632332324981689e-01 5.971933364868164062e+00 1.914268970489501953e+00 1.870974898338317871e-01
2.685000000000000000e+03 7.064119720458984375e+01 1.986436271667480469e+01 2.828315496444702148e-01 6.404674053192138672e+00 2.006251573562622070e+00 2.790233492851257324e-01
2.686000000000000000e+03 6.891726684570312500e+01 1.964683341979980469e+01 1.759850829839706421e-01 6.649412631988525391e+00 2.047619342803955078e+00 1.188164725899696350e-01
2.687000000000000000e+03 6.685577392578125000e+01 1.978867340087890625e+01 2.165511250495910645e-01 6.429320335388183594e+00 1.993761420249938965e+00 -3.830299973487854004e-01
2.688000000000000000e+03 6.555873107910156250e+01 1.886989593505859375e+01 3.681282401084899902e-01 6.253275871276855469e+00 1.986421227455139160e+00 -8.425744175910949707e-01
2.689000000000000000e+03 6.347697067260742188e+01 1.883598327636718750e+01 1.100433945655822754e+00 4.724271297454833984e+00 1.747411608695983887e+00 -9.613698720932006836e-01
2.690000000000000000e+03 6.062476730346679688e+01 1.880673408508300781e+01 1.634091138839721680e+00 3.630079030990600586e+00 1.579251050949096680e+00 3.459264934062957764e-01
2.691000000000000000e+03 5.913157272338867188e+01 1.960391044616699219e+01 1.340612530708312988e+00 4.212816715240478516e+00 1.666028738021850586e+00 9.731619358062744141e-01
2.692000000000000000e+03 5.658813095092773438e+01 1.894532775878906250e+01 9.051498770713806152e-01 5.436984539031982422e+00 1.902640223503112793e+00 1.833407640457153320e+00
2.693000000000000000e+03 5.505031585693359375e+01 1.859487533569335938e+01 4.232360124588012695e-01 6.656006336212158203e+00 2.123772621154785156e+00 1.848792791366577148e+00
2.694000000000000000e+03 5.341978836059570312e+01 1.834464836120605469e+01 -1.866632699966430664e-01 8.169108390808105469e+00 2.394733428955078125e+00 1.397727966308593750e+00
2.695000000000000000e+03 5.159380340576171875e+01 1.863072967529296875e+01 -9.840084910392761230e-01 8.570017814636230469e+00 2.275802850723266602e+00 -4.745691120624542236e-01
2.696000000000000000e+03 4.753073501586914062e+01 2.048301696777343750e+01 2.319974601268768311e-01 3.551688671112060547e+00 1.135105848312377930e+00 -1.799791812896728516e+00
2.697000000000000000e+03 4.400457763671875000e+01 2.050715637207031250e+01 3.235917389392852783e-01 1.502422690391540527e+00 5.478043556213378906e-01 -9.739422798156738281e-01
2.698000000000000000e+03 3.909664916992187500e+01 2.080731964111328125e+01 -2.450142242014408112e-02 5.283643603324890137e-01 1.511588692665100098e-01 -2.826876342296600342e-01
2.699000000000000000e+03 4.109587097167968750e+01 2.016029739379882812e+01 3.949402645230293274e-02 8.097333908081054688e-01 2.547682225704193115e-01 -4.004630446434020996e-01
2.700000000000000000e+03 3.982889556884765625e+01 1.828311729431152344e+01 -4.087890982627868652e-01 5.204882621765136719e-01 3.350974619388580322e-02 -1.888642460107803345e-01
2.701000000000000000e+03 3.795462417602539062e+01 1.921687316894531250e+01 -3.224778175354003906e-01 2.742277681827545166e-01 -1.447501592338085175e-02 -1.410414427518844604e-01
2.702000000000000000e+03 3.577973556518554688e+01 2.036046218872070312e+01 -2.000167965888977051e-01 8.302289992570877075e-02 -3.509816899895668030e-02 1.734569482505321503e-02
2.703000000000000000e+03 3.338325500488281250e+01 2.033919143676757812e+01 -2.827351391315460205e-01 -1.488013006746768951e-02 -8.928457647562026978e-02 2.293614298105239868e-01
2.704000000000000000e+03 2.935172843933105469e+01 2.216020774841308594e+01 -2.258047610521316528e-01 2.615229971706867218e-02 -5.989573895931243896e-02 2.807898819446563721e-01
2.705000000000000000e+03 2.510649299621582031e+01 2.060239982604980469e+01 -4.301469027996063232e-01 -1.620253920555114746e-01 -1.776516884565353394e-01 2.777508199214935303e-01
2.706000000000000000e+03 2.538187980651855469e+01 2.290355491638183594e+01 -1.846521645784378052e-01 -9.878224879503250122e-02 -8.503032475709915161e-02 3.058547079563140869e-01
2.707000000000000000e+03 2.362216377258300781e+01 1.827471923828125000e+01 -7.174735069274902344e-01 -3.413446545600891113e-01 -3.176454603672027588e-01 3.103716969490051270e-01
2.708000000000000000e+03 1.966757011413574219e+01 1.927046394348144531e+01 -4.405465424060821533e-01 1.407282985746860504e-02 -1.279421150684356689e-01 2.783643305301666260e-01
2.709000000000000000e+03 1.760569953918457031e+01 1.922113800048828125e+01 -3.365574777126312256e-01 6.075609102845191956e-02 -8.274041116237640381e-02 2.232840210199356079e-01
2.710000000000000000e+03 1.508339786529541016e+01 1.883075332641601562e+01 -2.314340472221374512e-01 6.327448785305023193e-02 -5.044786632061004639e-02 1.670051813125610352e-01
2.711000000000000000e+03 8.347485542297363281e+00 2.114651107788085938e+01 -6.638026237487792969e-02 -5.953729897737503052e-02 -3.777527064085006714e-02 1.258008182048797607e-01
2.712000000000000000e+03 5.967065334320068359e+00 2.001571655273437500e+01 -3.843902796506881714e-02 -7.886309176683425903e-02 -3.519063442945480347e-02 7.800495624542236328e-02
2.713000000000000000e+03 3.758508920669555664e+00 2.050827407836914062e+01 -1.651347242295742035e-02 -1.085207536816596985e-01 -3.751026839017868042e-02 5.531278625130653381e-02
2.714000000000000000e+03 1.905414938926696777e+00 2.116030311584472656e+01 -4.671468399465084076e-03 -1.309415698051452637e-01 -4.068391397595405579e-02 3.136587515473365784e-02
2.715000000000000000e+03 7.958828735351562500e+01 1.885225677490234375e+01 1.040633954107761383e-02 5.629915714263916016e+00 1.692096590995788574e+00 -1.273815613240003586e-02
2.716000000000000000e+03 7.593514251708984375e+01 2.296128845214843750e+01 5.368024855852127075e-02 6.021833896636962891e+00 1.822654247283935547e+00 1.991076022386550903e-01
2.717000000000000000e+03 7.777693939208984375e+01 2.213448524475097656e+01 3.317201137542724609e-02 5.884841442108154297e+00 1.775403976440429688e+00 1.153661087155342102e-01
2.718000000000000000e+03 7.399144744873046875e+01 2.116278266906738281e+01 2.006868124008178711e-01 6.059093475341796875e+00 1.877934098243713379e+00 2.204742282629013062e-01
2.719000000000000000e+03 7.199905395507812500e+01 2.144291687011718750e+01 1.777238100767135620e-01 6.214962005615234375e+00 1.917805671691894531e+00 2.575936913490295410e-01
2.720000000000000000e+03 6.996540832519531250e+01 2.196281433105468750e+01 9.112691134214401245e-02 6.334616661071777344e+00 1.927723169326782227e+00 1.615703701972961426e-01
2.721000000000000000e+03 6.857096099853515625e+01 2.192998313903808594e+01 8.523277193307876587e-02 6.315248966217041016e+00 1.920144438743591309e+00 1.472169905900955200e-02
2.722000000000000000e+03 6.477477264404296875e+01 2.130481147766113281e+01 4.865968823432922363e-01 5.601838588714599609e+00 1.826530694961547852e+00 -4.283645153045654297e-01
2.723000000000000000e+03 6.253157806396484375e+01 2.004300117492675781e+01 1.140851259231567383e+00 4.534925937652587891e+00 1.702733159065246582e+00 -3.746332526206970215e-01
2.724000000000000000e+03 5.923341751098632812e+01 2.192542457580566406e+01 7.678178548812866211e-01 4.864096641540527344e+00 1.689574241638183594e+00 6.634790897369384766e-01
2.725000000000000000e+03 5.822714996337890625e+01 2.248316764831542969e+01 5.377330183982849121e-01 5.107276916503906250e+00 1.693503022193908691e+00 7.152300477027893066e-01
2.726000000000000000e+03 5.692952728271484375e+01 2.090568351745605469e+01 5.536867976188659668e-01 5.358344078063964844e+00 1.773609280586242676e+00 1.197243094444274902e+00
2.727000000000000000e+03 5.493071365356445312e+01 2.219086837768554688e+01 -2.023721188306808472e-01 5.966357231140136719e+00 1.729195594787597656e+00 6.011828184127807617e-01
2.728000000000000000e+03 5.277752304077148438e+01 2.198210716247558594e+01 -5.534127354621887207e-01 6.243142604827880859e+00 1.706918954849243164e+00 -2.280442416667938232e-02
2.729000000000000000e+03 4.986832427978515625e+01 2.078219413757324219e+01 -4.936410486698150635e-01 5.639707088470458984e+00 1.543819785118103027e+00 -1.376725554466247559e+00
2.730000000000000000e+03 4.735365676879882812e+01 2.215250205993652344e+01 3.460900112986564636e-02 3.479412078857421875e+00 1.054206371307373047e+00 -1.433475136756896973e+00
2.731000000000000000e+03 4.002748489379882812e+01 2.401001548767089844e+01 2.875071763992309570e-01 1.056390285491943359e+00 4.031692445278167725e-01 -5.141692161560058594e-01
2.732000000000000000e+03 3.846424484252929688e+01 2.187165641784667969e+01 8.164291083812713623e-02 5.748101472854614258e-01 1.969359219074249268e-01 -2.686154246330261230e-01
2.733000000000000000e+03 3.749766159057617188e+01 2.157510566711425781e+01 1.676975190639495850e-02 3.956018984317779541e-01 1.237114965915679932e-01 -1.780066639184951782e-01
2.734000000000000000e+03 3.341767501831054688e+01 2.295633506774902344e+01 4.786272067576646805e-03 1.688651144504547119e-01 5.209541320800781250e-02 1.101771816611289978e-01
2.735000000000000000e+03 3.173742294311523438e+01 2.265454292297363281e+01 -1.040507778525352478e-01 8.291840553283691406e-02 -6.339712068438529968e-03 2.219952791929244995e-01
2.736000000000000000e+03 2.350479316711425781e+01 1.993344497680664062e+01 -4.667907059192657471e-01 -2.263711839914321899e-01 -2.079485654830932617e-01 3.298755884170532227e-01
2.737000000000000000e+03 1.873277473449707031e+01 1.970718765258789062e+01 -3.778747618198394775e-01 3.144491836428642273e-02 -1.039289534091949463e-01 2.787451148033142090e-01
2.738000000000000000e+03 1.644898414611816406e+01 2.120221138000488281e+01 -2.330873459577560425e-01 1.863768696784973145e-02 -6.433489918708801270e-02 2.701779603958129883e-01
2.739000000000000000e+03 1.490986251831054688e+01 2.070742988586425781e+01 -2.065055817365646362e-01 2.842835895717144012e-02 -5.342317000031471252e-02 2.231118977069854736e-01
2.740000000000000000e+03 1.381770324707031250e+01 2.112699508666992188e+01 -1.680343896150588989e-01 1.208171620965003967e-02 -4.678580164909362793e-02 2.126772105693817139e-01
2.741000000000000000e+03 5.750028133392333984e+00 2.309673690795898438e+01 -3.084528073668479919e-02 -1.239483803510665894e-01 -4.643809795379638672e-02 1.076029017567634583e-01
2.742000000000000000e+03 5.711492538452148438e+00 2.224392700195312500e+01 -3.213347122073173523e-02 -1.124536395072937012e-01 -4.337613284587860107e-02 9.958999603986740112e-02
2.743000000000000000e+03 1.866785764694213867e+00 2.261940956115722656e+01 -4.654727410525083542e-03 -1.557400673627853394e-01 -4.811843857169151306e-02 3.699675202369689941e-02
2.744000000000000000e+03 7.955824279785156250e+01 2.126510810852050781e+01 6.429033819586038589e-03 5.667681694030761719e+00 1.702233314514160156e+00 2.410292252898216248e-02
2.745000000000000000e+03 7.475353240966796875e+01 2.472935104370117188e+01 8.836930617690086365e-03 6.105524539947509766e+00 1.834308385848999023e+00 2.325364202260971069e-01
2.746000000000000000e+03 7.768693542480468750e+01 2.381613349914550781e+01 1.008956599980592728e-02 5.959507465362548828e+00 1.790879011154174805e+00 1.470111310482025146e-01
2.747000000000000000e+03 7.409679412841796875e+01 2.367421340942382812e+01 4.240262135863304138e-02 6.115414142608642578e+00 1.847344994544982910e+00 2.383428961038589478e-01
2.748000000000000000e+03 7.039429473876953125e+01 2.347850036621093750e+01 4.199563339352607727e-02 6.223088741302490234e+00 1.879525303840637207e+00 1.704008728265762329e-01
2.749000000000000000e+03 6.649629211425781250e+01 2.240561485290527344e+01 1.876566410064697266e-01 6.006848812103271484e+00 1.858351588249206543e+00 -1.612596213817596436e-01
2.750000000000000000e+03 6.058014297485351562e+01 2.377619934082031250e+01 4.681970775127410889e-01 5.124294281005859375e+00 1.677747368812561035e+00 2.787584066390991211e-01
2.751000000000000000e+03 5.919919204711914062e+01 2.433422660827636719e+01 2.897303700447082520e-01 5.204124450683593750e+00 1.648156404495239258e+00 3.901606798171997070e-01
2.752000000000000000e+03 5.800465393066406250e+01 2.416259384155273438e+01 2.019908428192138672e-01 5.262760162353515625e+00 1.639425277709960938e+00 4.742518663406372070e-01
2.753000000000000000e+03 5.360387039184570312e+01 2.363389396667480469e+01 -3.847652673721313477e-01 5.711243629455566406e+00 1.597943544387817383e+00 9.634964168071746826e-02
2.754000000000000000e+03 5.209213638305664062e+01 2.330649566650390625e+01 -5.664569139480590820e-01 5.644503116607666016e+00 1.523413896560668945e+00 -3.907970488071441650e-01
2.755000000000000000e+03 3.848101806640625000e+01 2.420569801330566406e+01 2.514567673206329346e-01 7.770555019378662109e-01 3.085536956787109375e-01 -3.464841544628143311e-01
2.756000000000000000e+03 3.690561294555664062e+01 2.440552330017089844e+01 2.242045998573303223e-01 5.853387117385864258e-01 2.428629994392395020e-01 -2.106602042913436890e-01
2.757000000000000000e+03 3.463269805908203125e+01 2.636993598937988281e+01 2.661410272121429443e-01 4.895441830158233643e-01 2.267055511474609375e-01 -7.628854364156723022e-02
2.758000000000000000e+03 3.161521339416503906e+01 2.494935989379882812e+01 1.039155796170234680e-01 1.750012040138244629e-01 8.367503434419631958e-02 1.392413377761840820e-01
2.759000000000000000e+03 2.576029014587402344e+01 2.438598251342773438e+01 -5.058334022760391235e-02 -6.069991365075111389e-02 -3.338497504591941833e-02 2.886339426040649414e-01
2.760000000000000000e+03 2.151302337646484375e+01 2.392840194702148438e+01 -1.208407953381538391e-01 -1.006039530038833618e-01 -6.643342226743698120e-02 3.661328852176666260e-01
2.761000000000000000e+03 1.864058113098144531e+01 2.259579086303710938e+01 -2.010791599750518799e-01 -3.917045146226882935e-02 -7.207488268613815308e-02 3.403986990451812744e-01
2.762000000000000000e+03 1.552097129821777344e+01 2.251569175720214844e+01 -1.660741418600082397e-01 -6.528311874717473984e-03 -5.178073421120643616e-02 2.746612131595611572e-01
2.763000000000000000e+03 1.309478282928466797e+01 2.279756927490234375e+01 -1.199909597635269165e-01 -2.628521248698234558e-02 -4.388285055756568909e-02 2.294296622276306152e-01
2.764000000000000000e+03 5.665883064270019531e+00 2.499895286560058594e+01 -2.084029838442802429e-02 -1.563881337642669678e-01 -5.316853150725364685e-02 1.207134798169136047e-01
2.765000000000000000e+03 1.985433340072631836e+00 2.405919647216796875e+01 -4.770876839756965637e-03 -1.834018528461456299e-01 -5.645181983709335327e-02 4.471570625901222229e-02
2.766000000000000000e+03 7.865948486328125000e+01 2.210844802856445312e+01 1.414497848600149155e-02 5.811354160308837891e+00 1.747649788856506348e+00 8.039615303277969360e-02
2.767000000000000000e+03 7.562550354003906250e+01 2.693630599975585938e+01 -2.311788313090801239e-02 6.124639511108398438e+00 1.830456495285034180e+00 2.153046131134033203e-01
2.768000000000000000e+03 7.663530731201171875e+01 2.567529678344726562e+01 -7.388090714812278748e-03 6.076089859008789062e+00 1.820610523223876953e+00 1.943060159683227539e-01
2.769000000000000000e+03 6.986786651611328125e+01 2.603885650634765625e+01 -1.779501698911190033e-02 6.090419292449951172e+00 1.821787238121032715e+00 1.635059714317321777e-01
2.770000000000000000e+03 6.261392974853515625e+01 2.485822486877441406e+01 3.341974318027496338e-01 5.343271732330322266e+00 1.703240752220153809e+00 9.342568367719650269e-02
2.771000000000000000e+03 5.848455429077148438e+01 2.727865028381347656e+01 -1.426949631422758102e-02 5.238542079925537109e+00 1.567281842231750488e+00 1.935382783412933350e-01
2.772000000000000000e+03 2.843909454345703125e+01 2.583670234680175781e+01 9.418338537216186523e-02 5.796724185347557068e-02 4.564518854022026062e-02 2.182110846042633057e-01
2.773000000000000000e+03 2.232189559936523438e+01 2.551288223266601562e+01 -6.837068125605583191e-03 -9.367666393518447876e-02 -3.015411831438541412e-02 3.383247852325439453e-01
2.774000000000000000e+03 2.013971138000488281e+01 2.646027755737304688e+01 1.407325733453035355e-02 -8.334367722272872925e-02 -2.078112773597240448e-02 3.368897140026092529e-01
2.775000000000000000e+03 1.595433807373046875e+01 2.531911659240722656e+01 -6.613393127918243408e-02 -6.396225839853286743e-02 -3.902885690331459045e-02 3.033280372619628906e-01
2.776000000000000000e+03 1.292722225189208984e+01 2.520820808410644531e+01 -6.283156573772430420e-02 -7.034897804260253906e-02 -3.995416313409805298e-02 2.499264031648635864e-01
2.777000000000000000e+03 1.220243835449218750e+01 2.612991714477539062e+01 -3.374195098876953125e-02 -9.803870320320129395e-02 -3.953419625759124756e-02 2.408933937549591064e-01
2.778000000000000000e+03 9.816765785217285156e+00 2.538373374938964844e+01 -4.145769774913787842e-02 -1.081107184290885925e-01 -4.487052559852600098e-02 1.923269331455230713e-01
2.779000000000000000e+03 7.784893035888671875e+00 2.435029983520507812e+01 -4.017064720392227173e-02 -1.180746033787727356e-01 -4.747357591986656189e-02 1.514919102191925049e-01
2.780000000000000000e+03 3.303520679473876953e+00 2.591536331176757812e+01 -5.889262538403272629e-03 -2.088960558176040649e-01 -6.443559378385543823e-02 8.003347367048263550e-02
2.781000000000000000e+03 2.769109249114990234e+00 2.646540451049804688e+01 -4.427535459399223328e-03 -2.268785089254379272e-01 -6.939180940389633179e-02 7.156780362129211426e-02
2.782000000000000000e+03 7.860021209716796875e+01 2.459254455566406250e+01 -7.787512731738388538e-04 5.950335025787353516e+00 1.784866809844970703e+00 1.036638915538787842e-01
2.783000000000000000e+03 7.684238433837890625e+01 2.732361602783203125e+01 -1.537664234638214111e-02 6.122890949249267578e+00 1.832254290580749512e+00 1.801504343748092651e-01
2.784000000000000000e+03 7.095540618896484375e+01 2.630595970153808594e+01 -3.693098202347755432e-02 6.123980045318603516e+00 1.826114654541015625e+00 1.953029334545135498e-01
2.785000000000000000e+03 5.383442306518554688e+01 2.761610031127929688e+01 -3.391174674034118652e-01 5.022550106048583984e+00 1.405029773712158203e+00 -1.746660172939300537e-01
2.786000000000000000e+03 4.695040512084960938e+01 2.739731407165527344e+01 -3.532037138938903809e-02 3.356362342834472656e+00 9.963126182556152344e-01 -8.259947299957275391e-01
2.787000000000000000e+03 3.186816787719726562e+01 2.831956291198730469e+01 3.066716194152832031e-01 3.327057063579559326e-01 1.918132007122039795e-01 4.816722497344017029e-02
2.788000000000000000e+03 2.233447647094726562e+01 2.709831428527832031e+01 8.075500279664993286e-02 -7.395910471677780151e-02 2.038770820945501328e-03 3.150816261768341064e-01
2.789000000000000000e+03 1.311862564086914062e+01 2.685896301269531250e+01 -1.411208976060152054e-02 -1.029468625783920288e-01 -3.511768579483032227e-02 2.494813203811645508e-01
2.790000000000000000e+03 8.329808235168457031e+00 2.665736961364746094e+01 -1.884151622653007507e-02 -1.493822038173675537e-01 -5.046711489558219910e-02 1.739478409290313721e-01
2.791000000000000000e+03 7.954511260986328125e+01 2.691935157775878906e+01 -4.452053923159837723e-03 6.083031654357910156e+00 1.823573827743530273e+00 3.647602722048759460e-02
2.792000000000000000e+03 7.771929168701171875e+01 2.873550605773925781e+01 -1.032244227826595306e-02 6.184397220611572266e+00 1.852222442626953125e+00 1.297944635152816772e-01
2.793000000000000000e+03 7.285009765625000000e+01 2.837687301635742188e+01 -5.765416100621223450e-02 6.121927738189697266e+00 1.819282054901123047e+00 2.198307216167449951e-01
2.794000000000000000e+03 7.162031555175781250e+01 2.802657890319824219e+01 -6.159514561295509338e-02 6.103573799133300781e+00 1.812593579292297363e+00 2.084715366363525391e-01
2.795000000000000000e+03 5.933728027343750000e+01 2.929532623291015625e+01 -9.694476425647735596e-02 5.259349346160888672e+00 1.548721313476562500e+00 1.288825571537017822e-01
2.796000000000000000e+03 5.799898910522460938e+01 2.998784828186035156e+01 -1.791350245475769043e-01 5.164839267730712891e+00 1.495711207389831543e+00 5.837212502956390381e-02
2.797000000000000000e+03 5.151969528198242188e+01 2.905933952331542969e+01 -2.916099131107330322e-01 4.484111309051513672e+00 1.257750511169433594e+00 -4.236442446708679199e-01
2.798000000000000000e+03 4.153770065307617188e+01 3.071553802490234375e+01 2.926430106163024902e-01 1.905553221702575684e+00 6.594588756561279297e-01 -5.018594861030578613e-01
2.799000000000000000e+03 3.535475921630859375e+01 3.139569091796875000e+01 4.193749725818634033e-01 8.700164556503295898e-01 3.868174254894256592e-01 -1.692441105842590332e-01
2.800000000000000000e+03 2.127728652954101562e+01 2.903364181518554688e+01 1.508516222238540649e-01 -7.019355893135070801e-02 2.419742010533809662e-02 2.898911535739898682e-01
2.801000000000000000e+03 1.836823272705078125e+01 2.912117958068847656e+01 1.028397902846336365e-01 -9.238270670175552368e-02 3.137124935165047646e-03 2.874261438846588135e-01
2.802000000000000000e+03 1.133998107910156250e+01 2.898061180114746094e+01 2.000431157648563385e-02 -1.498162895441055298e-01 -3.894359618425369263e-02 2.194076478481292725e-01
2.803000000000000000e+03 4.658059597015380859e+00 2.942268562316894531e+01 2.052373951300978661e-03 -2.547220587730407715e-01 -7.580090314149856567e-02 1.126862168312072754e-01
2.804000000000000000e+03 7.954834747314453125e+01 2.772148132324218750e+01 2.371096285060048103e-03 6.142395019531250000e+00 1.843429923057556152e+00 3.379005938768386841e-02
2.805000000000000000e+03 7.761633300781250000e+01 3.021405792236328125e+01 -1.513962727040052414e-02 6.239769458770751953e+00 1.867388963699340820e+00 1.256525814533233643e-01
2.806000000000000000e+03 7.361901855468750000e+01 3.027106475830078125e+01 -6.204185262322425842e-02 6.139102458953857422e+00 1.823118209838867188e+00 2.012374699115753174e-01
2.807000000000000000e+03 6.669861602783203125e+01 2.941430854797363281e+01 -7.160858064889907837e-02 5.837246894836425781e+00 1.729691505432128906e+00 1.378896981477737427e-01
2.808000000000000000e+03 5.829011535644531250e+01 3.167418479919433594e+01 -2.150189876556396484e-01 5.129158020019531250e+00 1.474241733551025391e+00 4.181614145636558533e-02
2.809000000000000000e+03 4.791869735717773438e+01 3.184954071044921875e+01 -6.891847401857376099e-02 3.484794616699218750e+00 1.024762868881225586e+00 -5.086091756820678711e-01
2.810000000000000000e+03 3.381377792358398438e+01 3.061406135559082031e+01 4.037496745586395264e-01 6.794279217720031738e-01 3.249532878398895264e-01 -8.292280882596969604e-02
2.811000000000000000e+03 3.225208282470703125e+01 3.252838134765625000e+01 4.365170001983642578e-01 5.620615482330322266e-01 2.995735406875610352e-01 -1.442126743495464325e-02
2.812000000000000000e+03 2.688007354736328125e+01 3.110905265808105469e+01 3.322348892688751221e-01 1.404029130935668945e-01 1.417913436889648438e-01 1.694795936346054077e-01
2.813000000000000000e+03 2.006361961364746094e+01 2.937592887878417969e+01 1.376496106386184692e-01 -8.534065634012222290e-02 1.569268666207790375e-02 2.857384979724884033e-01
2.814000000000000000e+03 1.075659751892089844e+01 3.121832847595214844e+01 5.246651172637939453e-02 -1.877590268850326538e-01 -4.058775305747985840e-02 1.916356682777404785e-01
2.815000000000000000e+03 1.011775112152099609e+01 2.974437522888183594e+01 2.320057712495326996e-02 -1.756480336189270020e-01 -4.573423415422439575e-02 1.962080448865890503e-01
2.816000000000000000e+03 8.915584564208984375e+00 2.991170120239257812e+01 2.154428325593471527e-02 -1.954439580440521240e-01 -5.216990038752555847e-02 1.789550036191940308e-01
2.817000000000000000e+03 3.930436372756958008e+00 2.975273895263671875e+01 4.155317321419715881e-03 -2.769514322280883789e-01 -8.183883130550384521e-02 9.831527620553970337e-02
2.818000000000000000e+03 2.196930646896362305e+00 2.990000534057617188e+01 1.611482468433678150e-03 -3.162029087543487549e-01 -9.437742084264755249e-02 5.930093675851821899e-02
2.819000000000000000e+03 7.954373168945312500e+01 2.932172393798828125e+01 7.732971571385860443e-04 6.252874851226806641e+00 1.876094460487365723e+00 3.097893856465816498e-02
2.820000000000000000e+03 7.739192199707031250e+01 3.193382835388183594e+01 -2.197090536355972290e-02 6.293189525604248047e+00 1.881365537643432617e+00 1.177342832088470459e-01
2.821000000000000000e+03 7.392587280273437500e+01 3.210717010498046875e+01 -5.858837813138961792e-02 6.156326293945312500e+00 1.829321265220642090e+00 1.741223931312561035e-01
2.822000000000000000e+03 7.132604980468750000e+01 3.306520080566406250e+01 -9.700057655572891235e-02 6.049571514129638672e+00 1.785771369934082031e+00 1.640116423368453979e-01
2.823000000000000000e+03 6.666851806640625000e+01 3.198194694519042969e+01 -1.254650503396987915e-01 5.809756755828857422e+00 1.705287456512451172e+00 1.397795975208282471e-01
2.824000000000000000e+03 6.094476699829101562e+01 3.256293869018554688e+01 -1.858226656913757324e-01 5.338218688964843750e+00 1.545718908309936523e+00 8.816413581371307373e-02
2.825000000000000000e+03 5.376045608520507812e+01 3.461258697509765625e+01 -2.396999150514602661e-01 4.480962276458740234e+00 1.272378683090209961e+00 -1.789017915725708008e-01
2.826000000000000000e+03 4.236808776855468750e+01 3.297337722778320312e+01 2.433580756187438965e-01 2.154790163040161133e+00 7.194445133209228516e-01 -4.097744226455688477e-01
2.827000000000000000e+03 9.284800529479980469e+00 3.210330581665039062e+01 4.520696401596069336e-02 -2.152816504240036011e-01 -5.102240666747093201e-02 1.666357666254043579e-01
2.828000000000000000e+03 2.258107662200927734e+00 3.153245162963867188e+01 2.605644054710865021e-03 -3.515779674053192139e-01 -1.046916991472244263e-01 5.787334591150283813e-02
2.829000000000000000e+03 1.332988023757934570e+00 3.156401824951171875e+01 1.195254269987344742e-03 -3.779710829257965088e-01 -1.130327433347702026e-01 3.570587188005447388e-02
2.830000000000000000e+03 7.951126861572265625e+01 3.093071365356445312e+01 -3.229814814403653145e-03 6.350180625915527344e+00 1.904085278511047363e+00 2.807149104773998260e-02
2.831000000000000000e+03 7.354986572265625000e+01 3.315781784057617188e+01 -6.824265420436859131e-02 6.144806861877441406e+00 1.822969317436218262e+00 1.660271733999252319e-01
2.832000000000000000e+03 6.977649688720703125e+01 3.318649291992187500e+01 -1.171891614794731140e-01 5.971754550933837891e+00 1.756369709968566895e+00 1.507305353879928589e-01
2.833000000000000000e+03 4.945271682739257812e+01 3.323891448974609375e+01 -1.386879086494445801e-01 3.752761125564575195e+00 1.084221959114074707e+00 -3.928571045398712158e-01
2.834000000000000000e+03 2.907386970520019531e+01 3.687882232666015625e+01 4.694885611534118652e-01 3.829707503318786621e-01 2.557377815246582031e-01 3.357386589050292969e-02
2.835000000000000000e+03 4.772913932800292969e+00 3.387284469604492188e+01 2.385774254798889160e-02 -3.271778225898742676e-01 -9.099602699279785156e-02 9.418784826993942261e-02
2.836000000000000000e+03 2.173903226852416992e+00 3.318338012695312500e+01 6.165978498756885529e-03 -3.909200429916381836e-01 -1.154262199997901917e-01 5.077942833304405212e-02
2.837000000000000000e+03 1.282926917076110840e+00 3.317094039916992188e+01 2.013257006183266640e-03 -4.176957011222839355e-01 -1.247047260403633118e-01 3.059918433427810669e-02
2.838000000000000000e+03 7.949575042724609375e+01 3.174341392517089844e+01 1.470451679779216647e-04 6.390262126922607422e+00 1.917122721672058105e+00 2.511413209140300751e-02
2.839000000000000000e+03 7.753741455078125000e+01 3.563313674926757812e+01 -1.503038872033357620e-02 6.411328315734863281e+00 1.918889403343200684e+00 6.750220060348510742e-02
2.840000000000000000e+03 7.346765136718750000e+01 3.445079421997070312e+01 -8.721932023763656616e-02 6.147161483764648438e+00 1.817982673645019531e+00 1.478894650936126709e-01
2.841000000000000000e+03 8.581839561462402344e+00 3.642972564697265625e+01 7.574446499347686768e-02 -2.690449655055999756e-01 -5.799015611410140991e-02 1.055333986878395081e-01
2.842000000000000000e+03 4.103057384490966797e-01 3.401697158813476562e+01 9.524415363557636738e-04 -4.671032726764678955e-01 -1.398452520370483398e-01 9.303420782089233398e-03
2.843000000000000000e+03 7.950030517578125000e+01 3.494451141357421875e+01 -4.003562498837709427e-03 6.525633335113525391e+00 1.956488966941833496e+00 1.473848149180412292e-02
2.844000000000000000e+03 7.381690979003906250e+01 3.810788726806640625e+01 -7.215406745672225952e-02 6.184509754180908203e+00 1.833706736564636230e+00 8.291590213775634766e-02
2.845000000000000000e+03 6.082769775390625000e+01 3.903077697753906250e+01 -2.653005421161651611e-01 5.253310203552246094e+00 1.496402859687805176e+00 1.685408130288124084e-02
2.846000000000000000e+03 1.751734733581542969e+01 3.637453079223632812e+01 2.612404227256774902e-01 -1.176803410053253174e-01 4.306802153587341309e-02 1.503505259752273560e-01
2.847000000000000000e+03 5.295694828033447266e+00 3.659896850585937500e+01 3.574847057461738586e-02 -3.499037325382232666e-01 -9.424657374620437622e-02 7.416941225528717041e-02
2.848000000000000000e+03 2.734719991683959961e+00 3.727491378784179688e+01 7.709141820669174194e-03 -4.374070465564727783e-01 -1.289093643426895142e-01 3.649781271815299988e-02
2.849000000000000000e+03 1.514384746551513672e+00 3.695082855224609375e+01 1.601963769644498825e-03 -4.767487347126007080e-01 -1.425440311431884766e-01 2.239708043634891510e-02
2.850000000000000000e+03 7.944933319091796875e+01 3.661388778686523438e+01 1.442953827790915966e-03 6.565804004669189453e+00 1.970174074172973633e+00 1.619512774050235748e-02
2.851000000000000000e+03 7.808602905273437500e+01 3.973199462890625000e+01 -5.627182312309741974e-03 6.499474525451660156e+00 1.948154211044311523e+00 2.818905562162399292e-02
2.852000000000000000e+03 2.972214221954345703e+00 3.894186782836914062e+01 7.901695556938648224e-03 -4.418456852436065674e-01 -1.301831901073455811e-01 2.684944868087768555e-02
2.853000000000000000e+03 1.764066815376281738e+00 3.869221115112304688e+01 2.475118264555931091e-03 -4.870062470436096191e-01 -1.453593373298645020e-01 1.991319283843040466e-02
2.854000000000000000e+03 7.963832092285156250e+01 3.810042953491210938e+01 2.504766453057527542e-03 6.614438533782958984e+00 1.985082983970642090e+00 8.577367290854454041e-03
2.855000000000000000e+03 7.136445617675781250e+01 3.852864456176757812e+01 -1.208783015608787537e-01 6.052770614624023438e+00 1.779567718505859375e+00 7.146602123975753784e-02
2.856000000000000000e+03 2.875773668289184570e+00 4.063239288330078125e+01 1.267137099057435989e-02 -4.503172636032104492e-01 -1.312937587499618530e-01 1.266567036509513855e-02
2.857000000000000000e+03 1.458114743232727051e+00 4.029159164428710938e+01 4.641091451048851013e-03 -5.089303255081176758e-01 -1.512867659330368042e-01 1.214819774031639099e-02
2.858000000000000000e+03 7.960482025146484375e+01 3.964386367797851562e+01 -1.090136938728392124e-03 6.649966239929199219e+00 1.994662761688232422e+00 8.919930085539817810e-03
2.859000000000000000e+03 2.547895431518554688e+00 1.331339454650878906e+01 2.015223028138279915e-03 -5.579971149563789368e-02 -1.613534800708293915e-02 1.238140650093555450e-02
2.860000000000000000e+03 3.979953289031982422e+00 1.342087745666503906e+01 8.228754159063100815e-04 -4.885824769735336304e-02 -1.441061217337846756e-02 1.830477826297283173e-02
2.861000000000000000e+03 4.702716827392578125e+00 1.344329452514648438e+01 2.915811259299516678e-03 -4.591090232133865356e-02 -1.289852708578109741e-02 1.985837146639823914e-02
2.862000000000000000e+03 8.228183746337890625e+00 1.323668861389160156e+01 -4.100242629647254944e-03 -1.385382609441876411e-03 -1.645687501877546310e-03 2.608357556164264679e-02
2.863000000000000000e+03 9.695277214050292969e+00 1.392024612426757812e+01 -2.570028044283390045e-02 1.646266505122184753e-02 -2.771284198388457298e-03 3.049918450415134430e-02
2.864000000000000000e+03 1.148173332214355469e+01 1.386433410644531250e+01 -3.972611203789710999e-02 4.651574417948722839e-02 2.036889316514134407e-03 3.594145923852920532e-02
2.865000000000000000e+03 1.408773994445800781e+01 1.417223834991455078e+01 -6.635549664497375488e-02 6.260295957326889038e-02 -1.125759794376790524e-03 3.973234817385673523e-02
2.866000000000000000e+03 1.856309175491333008e+00 1.168306064605712891e+01 1.777249970473349094e-03 -5.034001544117927551e-02 -1.456882990896701813e-02 1.154115889221429825e-02
2.867000000000000000e+03 4.193404197692871094e+00 1.115997123718261719e+01 1.199151948094367981e-02 -4.220169037580490112e-02 -9.063051082193851471e-03 2.325541339814662933e-02
2.868000000000000000e+03 5.910658836364746094e+00 1.116412353515625000e+01 1.663162186741828918e-02 -3.782891854643821716e-02 -6.359188817441463470e-03 2.354518510401248932e-02
2.869000000000000000e+03 8.176578521728515625e+00 1.149985694885253906e+01 1.695597358047962189e-02 -8.157305419445037842e-03 2.639600774273276329e-03 1.689925603568553925e-02
2.870000000000000000e+03 9.127456665039062500e+00 1.115298748016357422e+01 2.172532677650451660e-02 1.245664432644844055e-02 1.025459170341491699e-02 1.897261105477809906e-02
2.871000000000000000e+03 1.094521999359130859e+01 1.183250141143798828e+01 1.294356212019920349e-02 4.846490919589996338e-02 1.842254027724266052e-02 3.419682011008262634e-02
2.872000000000000000e+03 1.900383472442626953e+00 1.009506893157958984e+01 1.493961550295352936e-03 -4.011067748069763184e-02 -1.158501487225294113e-02 1.600426062941551208e-02
2.873000000000000000e+03 4.272668361663818359e+00 9.273408889770507812e+00 9.249676950275897980e-03 -3.895531594753265381e-02 -8.911691606044769287e-03 3.345289453864097595e-02
2.874000000000000000e+03 5.915544509887695312e+00 9.366940498352050781e+00 2.524698339402675629e-02 -3.495574370026588440e-02 -2.912628697231411934e-03 3.746468946337699890e-02
2.875000000000000000e+03 9.031347274780273438e+00 1.013055610656738281e+01 3.343120217323303223e-02 1.357091963291168213e-02 1.410063635557889938e-02 1.951724849641323090e-02
2.876000000000000000e+03 1.004119300842285156e+01 9.895461082458496094e+00 3.691127151250839233e-02 5.111493542790412903e-02 2.640786208212375641e-02 2.836593054234981537e-02
2.877000000000000000e+03 2.029299736022949219e+00 8.444110870361328125e+00 -2.516800770536065102e-03 -2.671610563993453979e-02 -8.769871667027473450e-03 2.032205089926719666e-02
2.878000000000000000e+03 3.925543308258056641e+00 8.185716629028320312e+00 8.028271258808672428e-04 -2.795795537531375885e-02 -8.146538399159908295e-03 3.518164157867431641e-02
2.879000000000000000e+03 5.694034576416015625e+00 7.830382823944091797e+00 -2.857870655134320259e-03 -2.018995396792888641e-02 -6.914347410202026367e-03 5.309436097741127014e-02
2.880000000000000000e+03 9.023655891418457031e+00 9.110435485839843750e+00 4.248888045549392700e-02 1.511530391871929169e-02 1.728125475347042084e-02 1.930359378457069397e-02
2.881000000000000000e+03 1.907887697219848633e+00 6.768679618835449219e+00 -6.553741171956062317e-03 -1.420777384191751480e-02 -6.228454411029815674e-03 1.560343708842992783e-02
2.882000000000000000e+03 4.028829574584960938e+00 6.611386299133300781e+00 -1.295647770166397095e-02 -7.516476325690746307e-03 -6.141886115074157715e-03 3.563600033521652222e-02
2.883000000000000000e+03 2.665377616882324219e+00 5.309145450592041016e+00 -5.858054384589195251e-03 -4.761417396366596222e-03 -3.185841487720608711e-03 1.188464369624853134e-02
2.884000000000000000e+03 1.805323243141174316e+00 3.299198150634765625e+00 -1.714166370220482349e-03 -2.905176719650626183e-03 -1.385802868753671646e-03 -3.826864121947437525e-04
2.885000000000000000e+03 6.177106094360351562e+01 3.307923078536987305e+00 -2.132980108261108398e+00 1.477536320686340332e+00 -1.966331005096435547e-01 2.294360995292663574e-01
2.886000000000000000e+03 6.390829086303710938e+01 3.744993686676025391e+00 -6.454170942306518555e-01 4.059928894042968750e+00 1.024353623390197754e+00 1.344465851783752441e+00
2.887000000000000000e+03 6.474812316894531250e+01 4.694478034973144531e+00 -7.741263508796691895e-02 5.426177024841308594e+00 1.604629278182983398e+00 8.277550339698791504e-01
2.888000000000000000e+03 6.363103866577148438e+01 6.842775821685791016e+00 5.872963070869445801e-01 2.918045282363891602e+00 1.051602482795715332e+00 1.355984449386596680e+00
2.889000000000000000e+03 6.276104736328125000e+01 4.542984485626220703e+00 -4.435021281242370605e-01 1.939702510833740234e+00 4.488601386547088623e-01 6.361396312713623047e-01
2.890000000000000000e+03 6.241925811767578125e+01 2.903213024139404297e+00 -1.955069541931152344e+00 2.690893173217773438e+00 2.207470834255218506e-01 9.968975186347961426e-01
2.891000000000000000e+03 6.878267669677734375e+01 5.218308925628662109e+00 1.078128337860107422e+00 1.361085605621337891e+01 4.406695365905761719e+00 -1.806342840194702148e+00
2.892000000000000000e+03 6.547590637207031250e+01 -1.411808109283447266e+01 -3.467102944850921631e-01 3.282250881195068359e+00 8.806622028350830078e-01 -1.149495601654052734e+00
2.893000000000000000e+03 6.334053039550781250e+01 -1.271513843536376953e+01 -1.439798902720212936e-02 6.344721317291259766e+00 1.899096965789794922e+00 -9.143688082695007324e-01
2.894000000000000000e+03 6.265286636352539062e+01 -1.415103435516357422e+01 7.251967489719390869e-02 6.453022480010986328e+00 1.957662582397460938e+00 -9.083047509193420410e-01
2.895000000000000000e+03 5.846253967285156250e+01 -1.400835990905761719e+01 1.008931517601013184e+00 9.373831748962402344e+00 3.114829063415527344e+00 -1.839897930622100830e-01
2.896000000000000000e+03 5.780563354492187500e+01 -1.405988311767578125e+01 1.049599647521972656e+00 9.817866325378417969e+00 3.260239839553833008e+00 -3.669110238552093506e-01
2.897000000000000000e+03 6.159085845947265625e+01 -1.214939308166503906e+01 4.095882475376129150e-01 7.757203578948974609e+00 2.450037479400634766e+00 -1.482204496860504150e-01
2.898000000000000000e+03 6.020305633544921875e+01 -1.282743740081787109e+01 6.434044241905212402e-01 8.244853019714355469e+00 2.666477203369140625e+00 -1.357916090637445450e-02
2.899000000000000000e+03 5.864216613769531250e+01 -1.321598625183105469e+01 8.639195561408996582e-01 9.058210372924804688e+00 2.976639032363891602e+00 -1.608586460351943970e-01
2.900000000000000000e+03 6.428416442871093750e+01 -1.022673702239990234e+01 1.348921418190002441e+00 7.283774375915527344e+00 2.589808702468872070e+00 -2.648488283157348633e+00
2.901000000000000000e+03 6.038156890869140625e+01 -1.086724281311035156e+01 7.092780470848083496e-01 8.297491073608398438e+00 2.702030897140502930e+00 2.539623677730560303e-01
2.902000000000000000e+03 5.945003509521484375e+01 -1.108038139343261719e+01 7.862021923065185547e-01 8.459378242492675781e+00 2.773674011230468750e+00 2.131928354501724243e-01
2.903000000000000000e+03 5.603042602539062500e+01 -9.715229988098144531e+00 7.322275638580322266e-01 8.004651069641113281e+00 2.621063470840454102e+00 -1.330004811286926270e+00
2.904000000000000000e+03 6.217673492431640625e+01 -8.222384452819824219e+00 8.783592581748962402e-01 9.653276443481445312e+00 3.159490585327148438e+00 -1.691705733537673950e-01
2.905000000000000000e+03 5.500319290161132812e+01 -9.521696090698242188e+00 8.973463773727416992e-01 7.173985481262207031e+00 2.421399593353271484e+00 -2.174975156784057617e+00
2.906000000000000000e+03 5.770436096191406250e+01 -7.814289569854736328e+00 6.836606860160827637e-01 7.300640106201171875e+00 2.395290374755859375e+00 -5.719086527824401855e-01
2.907000000000000000e+03 6.199270248413085938e+01 -5.789486408233642578e+00 1.334322094917297363e+00 1.047328662872314453e+01 3.542282819747924805e+00 1.075772047042846680e+00
2.908000000000000000e+03 6.063846969604492188e+01 -5.939595222473144531e+00 1.455337166786193848e+00 8.096097946166992188e+00 2.865430593490600586e+00 2.894088625907897949e-01
2.909000000000000000e+03 5.710374832153320312e+01 -5.893313407897949219e+00 1.440122127532958984e-01 6.356873989105224609e+00 1.950265765190124512e+00 -1.563586831092834473e+00
2.910000000000000000e+03 5.119659805297851562e+01 -5.463099479675292969e+00 -1.777086377143859863e+00 2.268922477960586548e-01 -4.650582373142242432e-01 7.169111371040344238e-01
2.911000000000000000e+03 4.570481491088867188e+01 -1.377388381958007812e+01 -5.647939443588256836e-01 2.840456247329711914e+00 6.826986670494079590e-01 3.006190657615661621e-01
2.912000000000000000e+03 4.200478744506835938e+01 -1.422901630401611328e+01 9.500467181205749512e-01 5.726758480072021484e+00 2.003041505813598633e+00 9.457204937934875488e-01
2.913000000000000000e+03 4.351858520507812500e+01 -1.435993480682373047e+01 1.783671379089355469e-01 4.582210540771484375e+00 1.428173303604125977e+00 8.364565372467041016e-01
2.914000000000000000e+03 4.457757568359375000e+01 -1.215593242645263672e+01 -8.453808426856994629e-01 4.588597297668457031e+00 1.122964859008789062e+00 1.004429578781127930e+00
2.915000000000000000e+03 4.146977615356445312e+01 -1.404867458343505859e+01 2.938490808010101318e-01 8.056723594665527344e+00 2.505171775817871094e+00 1.176331877708435059e+00
2.916000000000000000e+03 4.263477325439453125e+01 -1.004666805267333984e+01 -1.195009827613830566e+00 5.572413444519042969e+00 1.313221096992492676e+00 1.630381703376770020e+00
2.917000000000000000e+03 4.474217605590820312e+01 -1.087910747528076172e+01 -9.074512720108032227e-01 5.271887779235839844e+00 1.309331059455871582e+00 7.412299513816833496e-01
2.918000000000000000e+03 4.149388885498046875e+01 -1.208180904388427734e+01 -3.989212214946746826e-01 5.688602924346923828e+00 1.586904525756835938e+00 1.308256983757019043e+00
2.919000000000000000e+03 4.327296066284179688e+01 -8.192894935607910156e+00 -3.822603225708007812e-01 7.016299247741699219e+00 1.990211725234985352e+00 1.221483349800109863e+00
2.920000000000000000e+03 4.464149093627929688e+01 -8.538305282592773438e+00 -2.706820666790008545e-01 7.807530879974365234e+00 2.261054754257202148e+00 -2.415031492710113525e-01
2.921000000000000000e+03 3.885785675048828125e+01 -6.804257392883300781e+00 -2.912736237049102783e-01 -1.184993505477905273e+00 -4.428801536560058594e-01 9.037675857543945312e-01
2.922000000000000000e+03 4.065502929687500000e+01 -7.200325012207031250e+00 -6.009521894156932831e-03 2.109177827835083008e+00 6.309505105018615723e-01 9.888371229171752930e-01
2.923000000000000000e+03 5.008627319335937500e+01 -4.364238262176513672e+00 -5.564334392547607422e+00 -1.704269409179687500e+00 -2.180581092834472656e+00 3.036245822906494141e+00
2.924000000000000000e+03 2.544998741149902344e+01 7.748214721679687500e+00 -2.079619616270065308e-01 -1.635840088129043579e-01 -1.114637851715087891e-01 -1.868202686309814453e-01
2.925000000000000000e+03 2.661934661865234375e+01 8.920133590698242188e+00 -2.370228469371795654e-01 -2.009398490190505981e-01 -1.313888132572174072e-01 -2.167847454547882080e-01
2.926000000000000000e+03 2.839578437805175781e+01 1.062290668487548828e+01 -2.378884106874465942e-01 -2.105157077312469482e-01 -1.345212459564208984e-01 -2.306447625160217285e-01
2.927000000000000000e+03 2.967189979553222656e+01 1.180728340148925781e+01 -2.968153357505798340e-01 -1.687725484371185303e-01 -1.396763622760772705e-01 -2.158306390047073364e-01
2.928000000000000000e+03 3.783603668212890625e+01 1.313407897949218750e+01 -9.663627147674560547e-01 2.180512761697173119e-03 -2.892546653747558594e-01 5.125389695167541504e-01
2.929000000000000000e+03 3.998598480224609375e+01 1.273011016845703125e+01 -8.910806775093078613e-01 1.792735308408737183e-01 -2.135421335697174072e-01 1.737646758556365967e-01
2.930000000000000000e+03 4.261014938354492188e+01 1.294904994964599609e+01 -1.027034878730773926e+00 3.119705319404602051e-01 -2.145193070173263550e-01 -1.816071569919586182e-01
2.931000000000000000e+03 4.315486526489257812e+01 1.204714393615722656e+01 -8.193163275718688965e-01 6.885200738906860352e-02 -2.251393049955368042e-01 -3.044240176677703857e-01
2.932000000000000000e+03 5.056587600708007812e+01 1.205421829223632812e+01 3.591024577617645264e-01 2.617460823059082031e+01 7.960113525390625000e+00 1.293139219284057617e+00
2.933000000000000000e+03 4.947620391845703125e+01 7.892823219299316406e+00 9.937525987625122070e-01 1.016596508026123047e+01 3.347915410995483398e+00 3.328781366348266602e+00
2.934000000000000000e+03 4.746540451049804688e+01 6.610355377197265625e+00 1.815034031867980957e+00 3.125426769256591797e+00 1.482138156890869141e+00 2.226653575897216797e+00
2.935000000000000000e+03 4.587849807739257812e+01 4.864475250244140625e+00 1.777980089187622070e+00 2.016013383865356445e+00 1.138198018074035645e+00 1.917630195617675781e+00
2.936000000000000000e+03 4.263191604614257812e+01 1.347736120223999023e+00 5.833576321601867676e-01 1.566724419593811035e+00 6.450245976448059082e-01 1.105677127838134766e+00
2.937000000000000000e+03 4.078266906738281250e+01 -4.834410175681114197e-02 -1.467654824256896973e+00 -1.797512471675872803e-01 -4.942218065261840820e-01 -5.289620161056518555e-01
2.938000000000000000e+03 3.779988861083984375e+01 3.649009227752685547e+00 1.613060128875076771e-03 -1.990585923194885254e-01 -5.923365801572799683e-02 3.313991427421569824e-02
2.939000000000000000e+03 3.843896102905273438e+01 4.097469806671142578e+00 -7.541073020547628403e-03 -1.384078115224838257e-01 -4.378466680645942688e-02 2.565715694800019264e-03
2.940000000000000000e+03 3.957334136962890625e+01 6.071739196777343750e+00 7.934916764497756958e-03 4.768319427967071533e-03 3.810970811173319817e-03 2.369586378335952759e-03
2.941000000000000000e+03 4.038898468017578125e+01 7.394355297088623047e+00 5.409696605056524277e-03 8.070717565715312958e-03 4.044124390929937363e-03 7.078789640218019485e-04
2.942000000000000000e+03 4.056585311889648438e+01 8.838797569274902344e+00 -2.580269239842891693e-03 1.150582102127373219e-03 -4.289061471354216337e-04 4.716276307590305805e-04
2.943000000000000000e+03 3.986621475219726562e+01 9.015193939208984375e+00 5.575683317147195339e-04 4.172185435891151428e-03 1.418926054611802101e-03 -2.330201910808682442e-03
2.944000000000000000e+03 3.670641708374023438e+01 9.549525260925292969e+00 5.666787619702517986e-04 4.563405644148588181e-03 1.539025222882628441e-03 9.857869008556008339e-04
2.945000000000000000e+03 3.525682830810546875e+01 8.974565505981445312e+00 -5.359170958399772644e-03 -1.812817994505167007e-03 -2.151596592739224434e-03 6.764671299606561661e-03
2.946000000000000000e+03 3.410119247436523438e+01 7.904132366180419922e+00 -6.362287700176239014e-02 -8.488412015140056610e-03 -2.163338661193847656e-02 -2.073043026030063629e-02
2.947000000000000000e+03 3.222555541992187500e+01 6.442661762237548828e+00 -2.817310094833374023e-01 -6.742403656244277954e-02 -1.047465130686759949e-01 -1.512387543916702271e-01
2.948000000000000000e+03 3.040361213684082031e+01 5.003507137298583984e+00 -7.333890795707702637e-01 -2.946491837501525879e-01 -3.084114789962768555e-01 -4.510996341705322266e-01
2.949000000000000000e+03 2.490983963012695312e+01 2.326982736587524414e+00 -5.756798386573791504e-01 -2.494712918996810913e-02 -1.801880896091461182e-01 -1.582300513982772827e-01
2.950000000000000000e+03 2.603114700317382812e+01 1.746213197708129883e+00 -3.805539608001708984e-01 -3.507901430130004883e-01 -2.194032371044158936e-01 -4.728422164916992188e-01
2.951000000000000000e+03 2.621085739135742188e+01 2.598213911056518555e+00 -1.162304997444152832e+00 -1.618621945381164551e-01 -3.972501456737518311e-01 -4.427198767662048340e-01
2.952000000000000000e+03 2.616238784790039062e+01 2.249406576156616211e+00 -8.715314269065856934e-01 -2.852758169174194336e-01 -3.470421731472015381e-01 -5.431632399559020996e-01
2.953000000000000000e+03 2.334988403320312500e+01 2.109052419662475586e+00 -6.330783665180206299e-02 -6.591866724193096161e-03 -2.096991054713726044e-02 -3.959359973669052124e-02
2.954000000000000000e+03 2.092305564880371094e+01 2.281264781951904297e+00 -4.087787121534347534e-03 -2.777784829959273338e-03 -2.059671562165021896e-03 2.262134104967117310e-03
2.955000000000000000e+03 1.876307868957519531e+01 2.601523876190185547e+00 -5.661860574036836624e-03 -4.004959017038345337e-03 -2.900045830756425858e-03 -2.490506041795015335e-03
2.956000000000000000e+03 1.838692855834960938e+01 2.262361049652099609e+00 -1.181330066174268723e-02 -7.454430684447288513e-03 -5.780319217592477798e-03 -6.593273021280765533e-03
2.957000000000000000e+03 1.941277122497558594e+01 1.357667088508605957e+00 -3.294758498668670654e-03 -2.110500587150454521e-03 -1.621577772311866283e-03 -9.581763297319412231e-03
2.958000000000000000e+03 2.062608909606933594e+01 2.323933690786361694e-01 2.735417336225509644e-03 5.806165747344493866e-03 2.562474925071001053e-03 -1.346489414572715759e-02
2.959000000000000000e+03 2.359458541870117188e+01 -2.562270641326904297e+00 4.070013761520385742e-02 -4.085116386413574219e-01 -1.103434562683105469e-01 1.032119765877723694e-01
2.960000000000000000e+03 2.310874176025390625e+01 -2.951985836029052734e+00 -9.950225055217742920e-02 -3.779406845569610596e-01 -1.432328820228576660e-01 2.116778492927551270e-01
2.961000000000000000e+03 2.042225837707519531e+01 -7.399962902069091797e+00 -1.497134268283843994e-01 -6.041214987635612488e-02 -6.303767114877700806e-02 9.997203201055526733e-02
2.962000000000000000e+03 1.548990821838378906e+01 -2.722657203674316406e+00 -1.239609438925981522e-02 -3.265284234657883644e-03 -4.698413424193859100e-03 7.041804958134889603e-03
2.963000000000000000e+03 1.347706222534179688e+01 -1.982034206390380859e+00 -1.328426226973533630e-02 3.527468070387840271e-04 -3.879454452544450760e-03 3.472046460956335068e-03
2.964000000000000000e+03 1.188059234619140625e+01 -1.924280166625976562e+00 -1.389573514461517334e-02 1.604601508006453514e-03 -3.687340067699551582e-03 1.142381457611918449e-03
2.965000000000000000e+03 3.262001514434814453e+00 -1.902349233627319336e+00 -9.269201545976102352e-04 -9.902408346533775330e-04 -5.751482676714658737e-04 -4.010109696537256241e-04
2.966000000000000000e+03 1.830494880676269531e+00 -1.900262355804443359e+00 -2.856378850992769003e-04 -3.177256439812481403e-04 -1.810090616345405579e-04 5.360941286198794842e-04
2.967000000000000000e+03 1.103432059288024902e+00 -1.903599381446838379e+00 -5.947605677647516131e-05 3.423109010327607393e-04 8.485045691486448050e-05 6.447971682064235210e-04
2.968000000000000000e+03 3.689392209053039551e-01 -1.903211355209350586e+00 -6.194345041876658797e-05 1.091356272809207439e-03 3.088238590862601995e-04 3.356654779054224491e-04
2.969000000000000000e+03 4.430857300758361816e-01 -4.127426910400390625e+01 1.027640700340270996e-02 -5.263764858245849609e-01 -1.548300236463546753e-01 -1.865028403699398041e-03
2.970000000000000000e+03 5.443917512893676758e-01 -3.720632171630859375e+01 2.750955056399106979e-03 -4.934277236461639404e-01 -1.472030282020568848e-01 -4.119988996535539627e-03
2.971000000000000000e+03 1.528275728225708008e+00 -3.546663665771484375e+01 2.196991990786045790e-04 -4.295586645603179932e-01 -1.288016885519027710e-01 -1.496666762977838516e-02
2.972000000000000000e+03 1.498765707015991211e+00 -3.389968872070312500e+01 4.622775013558566570e-04 -4.138152003288269043e-01 -1.240058764815330505e-01 -2.069589868187904358e-02
2.973000000000000000e+03 1.399651408195495605e+00 -3.234650802612304688e+01 2.277859486639499664e-03 -3.978645801544189453e-01 -1.186760142445564270e-01 -2.073083072900772095e-02
2.974000000000000000e+03 1.391817450523376465e+00 -3.079940795898437500e+01 9.412185754626989365e-04 -3.722532391548156738e-01 -1.113936081528663635e-01 -2.493026666343212128e-02
2.975000000000000000e+03 1.407030463218688965e+00 -2.918506050109863281e+01 1.631432329304516315e-03 -3.460722863674163818e-01 -1.033322513103485107e-01 -2.741834148764610291e-02
2.976000000000000000e+03 1.355703830718994141e+00 -2.755697441101074219e+01 4.191141051705926657e-04 -3.165913820266723633e-01 -9.485168009996414185e-02 -2.803744189441204071e-02
2.977000000000000000e+03 1.301915168762207031e+00 -2.595045852661132812e+01 6.171610439196228981e-04 -2.866224646568298340e-01 -8.580159395933151245e-02 -2.773741632699966431e-02
2.978000000000000000e+03 1.311323881149291992e+00 -2.356791687011718750e+01 -2.654837735462933779e-04 -2.383712977170944214e-01 -7.159103453159332275e-02 -2.820135653018951416e-02
2.979000000000000000e+03 1.285657882690429688e+00 -2.197358894348144531e+01 -5.174850230105221272e-04 -2.065085619688034058e-01 -6.210781633853912354e-02 -2.751915156841278076e-02
2.980000000000000000e+03 1.236496090888977051e+00 -2.039171981811523438e+01 -6.937462021596729755e-04 -1.759919226169586182e-01 -5.300570279359817505e-02 -2.573614753782749176e-02
2.981000000000000000e+03 1.193075656890869141e+00 -1.882792854309082031e+01 -7.641816628165543079e-04 -1.466459780931472778e-01 -4.422304406762123108e-02 -2.365186437964439392e-02
2.982000000000000000e+03 1.223102569580078125e+00 -1.728558349609375000e+01 -7.169744931161403656e-04 -1.182582080364227295e-01 -3.569255396723747253e-02 -2.249690890312194824e-02
2.983000000000000000e+03 1.520067095756530762e+00 -1.574832725524902344e+01 -1.520294579677283764e-03 -9.167323261499404907e-02 -2.795805782079696655e-02 -2.435139939188957214e-02
2.984000000000000000e+03 1.241067171096801758e+00 -1.367789459228515625e+01 -1.792402938008308411e-03 -6.367095559835433960e-02 -1.963900774717330933e-02 -1.685280166566371918e-02
2.985000000000000000e+03 1.088356852531433105e+00 -1.218337059020996094e+01 -1.183728338219225407e-03 -4.503989964723587036e-02 -1.386708859354257584e-02 -1.229361724108457565e-02
2.986000000000000000e+03 1.098057746887207031e+00 -9.867094993591308594e+00 -8.100122795440256596e-04 -2.338203974068164825e-02 -7.257615216076374054e-03 -8.591119199991226196e-03
2.987000000000000000e+03 1.105157017707824707e+00 -8.313881874084472656e+00 -8.087682072073221207e-04 -1.322697475552558899e-02 -4.210723098367452621e-03 -6.078203208744525909e-03
2.988000000000000000e+03 1.079069137573242188e+00 -6.762871265411376953e+00 -6.959597230888903141e-04 -6.130036897957324982e-03 -2.047799061983823776e-03 -3.648123703896999359e-03
2.989000000000000000e+03 1.075537681579589844e+00 -5.184061050415039062e+00 -6.011285004206001759e-04 -1.905224635265767574e-03 -7.519059581682085991e-04 -1.664215815253555775e-03
2.990000000000000000e+03 7.958941650390625000e+01 4.205784606933593750e+01 2.225395757704973221e-03 6.658885002136230469e+00 1.998333096504211426e+00 -2.529514255002140999e-03
2.991000000000000000e+03 7.959936523437500000e+01 3.885707855224609375e+01 -4.109981236979365349e-04 6.632169246673583984e+00 1.989527583122253418e+00 1.051517017185688019e-02
2.992000000000000000e+03 7.955236816406250000e+01 3.739838027954101562e+01 -6.610862910747528076e-03 6.586719989776611328e+00 1.974032759666442871e+00 1.502132974565029144e-02
2.993000000000000000e+03 7.948787689208984375e+01 3.575202941894531250e+01 2.648888388648629189e-03 6.546223640441894531e+00 1.964661836624145508e+00 1.292051747441291809e-02
2.994000000000000000e+03 7.951158142089843750e+01 3.415190124511718750e+01 -3.092563711106777191e-03 6.499466896057128906e+00 1.948912262916564941e+00 2.028660848736763000e-02
2.995000000000000000e+03 7.951649475097656250e+01 3.335198974609375000e+01 -1.348357181996107101e-03 6.463927745819091797e+00 1.938773870468139648e+00 2.378499507904052734e-02
2.996000000000000000e+03 7.858665466308593750e+01 3.020997047424316406e+01 -4.721837583929300308e-03 6.271726608276367188e+00 1.880101442337036133e+00 8.042898029088973999e-02
2.997000000000000000e+03 7.864238739013671875e+01 2.862669181823730469e+01 -1.488594803959131241e-03 6.188776493072509766e+00 1.856186389923095703e+00 8.700840175151824951e-02
2.998000000000000000e+03 7.863457489013671875e+01 2.703406143188476562e+01 -2.376859541982412338e-03 6.098495006561279297e+00 1.828835368156433105e+00 9.658174961805343628e-02
2.999000000000000000e+03 7.859944152832031250e+01 2.541875076293945312e+01 7.106279372237622738e-04 6.000608921051025391e+00 1.800395846366882324e+00 1.044858470559120178e-01
3.000000000000000000e+03 7.861503601074218750e+01 2.376034736633300781e+01 5.608891136944293976e-03 5.901638984680175781e+00 1.772174358367919922e+00 1.007725745439529419e-01
3.001000000000000000e+03 7.955154418945312500e+01 2.207238197326660156e+01 8.532808278687298298e-04 5.714107990264892578e+00 1.714488387107849121e+00 3.074755519628524780e-02
3.002000000000000000e+03 7.868028259277343750e+01 2.129105949401855469e+01 1.982789300382137299e-02 5.775471687316894531e+00 1.738589882850646973e+00 6.045046076178550720e-02
3.003000000000000000e+03 7.872597503662109375e+01 1.966058540344238281e+01 3.439584001898765564e-02 5.741544723510742188e+00 1.732782125473022461e+00 -7.143391994759440422e-04
3.004000000000000000e+03 7.880828094482421875e+01 1.806398200988769531e+01 4.967444762587547302e-02 5.779153347015380859e+00 1.748648405075073242e+00 -8.626561611890792847e-02
3.005000000000000000e+03 7.886331176757812500e+01 1.649571418762207031e+01 5.304440483450889587e-02 5.935219764709472656e+00 1.796479225158691406e+00 -1.900942921638488770e-01
3.006000000000000000e+03 7.886697387695312500e+01 1.493905639648437500e+01 4.940139502286911011e-02 6.192275524139404297e+00 1.872503042221069336e+00 -2.698338925838470459e-01
3.007000000000000000e+03 7.880301666259765625e+01 1.334367275238037109e+01 -2.834637649357318878e-02 6.564207077026367188e+00 1.960758328437805176e+00 -2.644876837730407715e-01
3.008000000000000000e+03 7.876953125000000000e+01 1.171378707885742188e+01 -1.564511656761169434e-01 6.896966457366943359e+00 2.022154569625854492e+00 1.191876828670501709e-02
3.009000000000000000e+03 7.958930206298828125e+01 1.003371524810791016e+01 -9.156788885593414307e-02 6.097695350646972656e+00 1.801838278770446777e+00 2.414473593235015869e-01
3.010000000000000000e+03 7.960597991943359375e+01 8.405708312988281250e+00 8.213920146226882935e-02 5.130117416381835938e+00 1.563676953315734863e+00 1.465187817811965942e-01
3.011000000000000000e+03 7.879456329345703125e+01 7.558380126953125000e+00 6.011504530906677246e-01 7.311149597167968750e+00 2.373689889907836914e+00 -3.402066528797149658e-01
3.012000000000000000e+03 7.894831848144531250e+01 4.437497138977050781e+00 2.515332400798797607e-01 9.411588668823242188e+00 2.898936510086059570e+00 -1.835394144058227539e+00
3.013000000000000000e+03 7.887463378906250000e+01 1.140276670455932617e+00 -4.901823997497558594e-01 1.252491950988769531e+01 3.610421180725097656e+00 -7.161262631416320801e-01
3.014000000000000000e+03 7.961932373046875000e+01 -4.374028444290161133e-01 -3.108062408864498138e-02 1.440773963928222656e+01 4.312997817993164062e+00 4.783581569790840149e-02
3.015000000000000000e+03 7.963623809814453125e+01 -6.841391563415527344e+00 2.672434784471988678e-02 9.345977783203125000e+00 2.811810493469238281e+00 3.082275390625000000e-01
3.016000000000000000e+03 7.888556671142578125e+01 -7.674404621124267578e+00 8.072333037853240967e-02 8.736005783081054688e+00 2.645018815994262695e+00 7.805903553962707520e-01
3.017000000000000000e+03 7.882563781738281250e+01 -9.284013748168945312e+00 1.123381927609443665e-01 7.980085849761962891e+00 2.427727222442626953e+00 6.131955385208129883e-01
3.018000000000000000e+03 7.882842254638671875e+01 -1.089940452575683594e+01 1.400780081748962402e-01 7.452693462371826172e+00 2.277831554412841797e+00 3.404527306556701660e-01
3.019000000000000000e+03 7.961558532714843750e+01 -1.565904331207275391e+01 -2.919247373938560486e-03 7.188558578491210938e+00 2.155691862106323242e+00 -1.465981751680374146e-01
3.020000000000000000e+03 7.960531616210937500e+01 -2.046519470214843750e+01 -4.576892126351594925e-03 8.560190200805664062e+00 2.566684007644653320e+00 -5.417814850807189941e-02
3.021000000000000000e+03 7.877587890625000000e+01 -2.128499031066894531e+01 -3.806132450699806213e-02 8.412762641906738281e+00 2.512410402297973633e+00 -6.601347774267196655e-02
3.022000000000000000e+03 7.957737731933593750e+01 -3.404828643798828125e+01 -7.643772754818201065e-03 8.107799530029296875e+00 2.430046796798706055e+00 8.815044537186622620e-03
3.023000000000000000e+03 7.949778747558593750e+01 -4.122005462646484375e+01 -2.107252366840839386e-02 8.026895523071289062e+00 2.401746749877929688e+00 2.412495668977499008e-03
3.024000000000000000e+03 7.854811859130859375e+01 4.098493576049804688e+01 -1.312787458300590515e-02 6.557886123657226562e+00 1.963427543640136719e+00 1.071938406676054001e-02
3.025000000000000000e+03 3.676750957965850830e-01 1.892927527427673340e+00 8.256812725448980927e-05 1.900261500850319862e-03 5.948488833382725716e-04 -1.491783536039292812e-03
3.026000000000000000e+03 1.100762963294982910e+00 3.399878978729248047e+00 -1.794085721485316753e-03 1.967007061466574669e-03 5.187641727388836443e-05 -3.558097523637115955e-04
3.027000000000000000e+03 3.975447118282318115e-01 8.352771759033203125e+00 -2.103318838635459542e-04 -2.463941834867000580e-02 -7.454924751073122025e-03 4.626312758773565292e-03
3.028000000000000000e+03 1.176628708839416504e+00 9.207399368286132812e+00 -7.522656233049929142e-04 -3.294783085584640503e-02 -1.011002901941537857e-02 1.241774205118417740e-02
3.029000000000000000e+03 1.054770708084106445e+00 1.555248451232910156e+01 -1.635852735489606857e-03 -7.310683280229568481e-02 -2.242280542850494385e-02 5.036130547523498535e-03
3.030000000000000000e+03 1.083020210266113281e+00 1.709405136108398438e+01 -2.475962974131107330e-03 -8.293944597244262695e-02 -2.562462165951728821e-02 7.625648751854896545e-03
3.031000000000000000e+03 1.260187149047851562e+00 1.867576217651367188e+01 -3.295730566605925560e-03 -9.813809394836425781e-02 -3.043014742434024811e-02 1.353799831122159958e-02
3.032000000000000000e+03 3.984425067901611328e-01 2.036844825744628906e+01 5.449191667139530182e-04 -1.172008290886878967e-01 -3.499677404761314392e-02 5.910467822104692459e-03
3.033000000000000000e+03 1.117695927619934082e+00 2.268448448181152344e+01 -1.072190818376839161e-03 -1.591970622539520264e-01 -4.808077588677406311e-02 2.281744778156280518e-02
3.034000000000000000e+03 1.220739006996154785e+00 2.423610305786132812e+01 -1.611577579751610756e-03 -1.910856813192367554e-01 -5.780917778611183167e-02 2.933917008340358734e-02
3.035000000000000000e+03 1.368207097053527832e+00 2.590751266479492188e+01 -1.106529263779520988e-03 -2.299340218305587769e-01 -6.931216269731521606e-02 3.759137541055679321e-02
3.036000000000000000e+03 1.291806817054748535e+00 2.755543899536132812e+01 -1.042219737428240478e-04 -2.747994363307952881e-01 -8.247110247611999512e-02 3.618616610765457153e-02
3.037000000000000000e+03 4.313793480396270752e-01 2.920789909362792969e+01 -3.850008070003241301e-04 -3.359980583190917969e-01 -1.009149178862571716e-01 1.267528068274259567e-02
3.038000000000000000e+03 1.236880302429199219e+00 3.395275115966796875e+01 2.510754158720374107e-03 -4.360916614532470703e-01 -1.300742775201797485e-01 2.776611596345901489e-02
3.039000000000000000e+03 4.246237277984619141e-01 3.559748458862304688e+01 6.849854253232479095e-04 -4.987257421016693115e-01 -1.494122296571731567e-01 6.809571292251348495e-03
3.040000000000000000e+03 1.363345861434936523e+00 3.618114852905273438e+01 4.894665908068418503e-04 -4.740357697010040283e-01 -1.420638859272003174e-01 2.254467085003852844e-02
3.041000000000000000e+03 4.951871335506439209e-01 4.122531127929687500e+01 4.512015264481306076e-03 -5.719124078750610352e-01 -1.702201068401336670e-01 1.167975366115570068e-03
3.042000000000000000e+03 4.128902435302734375e+00 1.852358579635620117e+00 3.635650034993886948e-03 8.617668063379824162e-04 1.349225058220326900e-03 -1.921369344927370548e-03
3.043000000000000000e+03 3.349389314651489258e+00 1.855254054069519043e+00 -1.590351224876940250e-03 -4.427417647093534470e-03 -1.805330626666545868e-03 -2.458274539094418287e-04
3.044000000000000000e+03 1.844062566757202148e+00 1.861797213554382324e+00 7.002764032222330570e-04 -1.733079785481095314e-03 -3.098410088568925858e-04 -3.161644563078880310e-03
3.045000000000000000e+03 4.180468082427978516e+00 2.545614004135131836e+00 -8.283542469143867493e-03 -6.177145987749099731e-03 -4.338206723332405090e-03 2.591228811070322990e-03
3.046000000000000000e+03 6.116609096527099609e+00 5.477022647857666016e+00 -8.999251574277877808e-02 8.365542627871036530e-03 -2.448809146881103516e-02 3.758829459547996521e-02
3.047000000000000000e+03 1.017809295654296875e+01 6.564198970794677734e+00 5.764698982238769531e-02 2.605773210525512695e-01 9.546729177236557007e-02 4.166504368185997009e-02
3.048000000000000000e+03 8.456461906433105469e+00 7.343512058258056641e+00 5.940540507435798645e-02 -5.247581750154495239e-02 2.078876132145524025e-03 2.830309607088565826e-02
3.049000000000000000e+03 1.054293346405029297e+01 7.336240291595458984e+00 4.535069316625595093e-02 1.864120066165924072e-01 6.952881067991256714e-02 7.966144382953643799e-02
3.050000000000000000e+03 1.099167728424072266e+01 7.951630592346191406e+00 7.938039302825927734e-02 1.483581513166427612e-01 6.832156330347061157e-02 8.759386837482452393e-02
3.051000000000000000e+03 1.264269351959228516e+01 1.001692771911621094e+01 8.022778481245040894e-02 9.030371159315109253e-02 5.115944892168045044e-02 8.108361810445785522e-02
3.052000000000000000e+03 1.562117290496826172e+01 1.254715061187744141e+01 4.735460132360458374e-02 4.647065699100494385e-02 2.814757823944091797e-02 4.965528473258018494e-02
3.053000000000000000e+03 2.106560897827148438e+01 1.577916049957275391e+01 -4.409341514110565186e-01 -3.502204641699790955e-02 -1.427868604660034180e-01 -1.366750448942184448e-01
3.054000000000000000e+03 2.217724609375000000e+01 1.722486495971679688e+01 -1.016300559043884277e+00 -1.037809159606695175e-02 -3.080036044120788574e-01 1.347075253725051880e-01
3.055000000000000000e+03 2.366240692138671875e+01 1.171141529083251953e+01 6.794535368680953979e-02 1.932696253061294556e-01 7.836449146270751953e-02 1.125050708651542664e-01
3.056000000000000000e+03 2.255360603332519531e+01 1.173558139801025391e+01 1.609316021203994751e-01 1.413971185684204102e-01 9.069861471652984619e-02 1.440827548503875732e-01
3.057000000000000000e+03 2.066245269775390625e+01 1.027500343322753906e+01 8.404776453971862793e-02 7.436940073966979980e-02 4.752514883875846863e-02 8.393542468547821045e-02
3.058000000000000000e+03 1.940382575988769531e+01 9.320089340209960938e+00 6.462172418832778931e-02 4.694191366434097290e-02 3.346909210085868835e-02 5.896802991628646851e-02
3.059000000000000000e+03 1.817875099182128906e+01 8.373941421508789062e+00 5.130233988165855408e-02 3.581455349922180176e-02 2.613506838679313660e-02 5.146019905805587769e-02
3.060000000000000000e+03 1.663879966735839844e+01 7.236239910125732422e+00 8.856014162302017212e-02 3.535822406411170959e-02 3.717551007866859436e-02 6.032728776335716248e-02
3.061000000000000000e+03 1.500329017639160156e+01 6.168183326721191406e+00 1.519247740507125854e-01 5.515100434422492981e-02 6.212273612618446350e-02 8.156798034906387329e-02
3.062000000000000000e+03 1.806455039978027344e+01 6.108850955963134766e+00 -1.153550967574119568e-01 8.437715470790863037e-03 -3.207521513104438782e-02 -2.414743974804878235e-02
3.063000000000000000e+03 1.646569824218750000e+01 6.128535747528076172e+00 -5.261508002877235413e-02 -1.215366087853908539e-02 -1.943062245845794678e-02 -1.574475131928920746e-02
3.064000000000000000e+03 2.046560668945312500e+01 6.572853088378906250e+00 -1.132707744836807251e-01 4.122336953878402710e-02 -2.161422185599803925e-02 -4.107961058616638184e-02
3.065000000000000000e+03 2.259257698059082031e+01 5.864164352416992188e+00 -1.271336078643798828e-01 1.531675644218921661e-02 -3.354505822062492371e-02 -7.753358781337738037e-02
3.066000000000000000e+03 2.331162643432617188e+01 5.820544242858886719e+00 -1.138147786259651184e-01 -3.529768437147140503e-02 -4.473374038934707642e-02 -8.711147308349609375e-02
3.067000000000000000e+03 7.517147064208984375e+01 8.292695045471191406e+00 4.709273815155029297e+00 1.067004299163818359e+01 4.613795280456542969e+00 -6.598790168762207031e+00
3.068000000000000000e+03 7.594316101074218750e+01 5.851039409637451172e+00 -2.063142955303192139e-01 1.620895576477050781e+01 4.800792694091796875e+00 -8.221415877342224121e-01
3.069000000000000000e+03 7.590305328369140625e+01 4.227412700653076172e+00 6.315132379531860352e-01 1.405251693725585938e+01 4.405209064483642578e+00 -7.877296954393386841e-02
3.070000000000000000e+03 7.027390289306640625e+01 7.476226329803466797e+00 -2.724935710430145264e-01 3.681825160980224609e+00 1.022799491882324219e+00 2.705365419387817383e-01
3.071000000000000000e+03 7.207889556884765625e+01 9.199357986450195312e+00 -5.170234680175781250e+00 -9.809862971305847168e-01 -1.845366239547729492e+00 -2.026994943618774414e+00
3.072000000000000000e+03 6.648060607910156250e+01 -2.956979751586914062e+00 -5.879204273223876953e+00 -2.034860134124755859e+00 -2.374219417572021484e+00 3.093659162521362305e+00
3.073000000000000000e+03 6.803163146972656250e+01 -4.638084411621093750e+00 -1.076101183891296387e+00 3.492853343486785889e-01 -2.180447578430175781e-01 3.475864529609680176e-01
3.074000000000000000e+03 7.067832183837890625e+01 -7.491117954254150391e+00 1.799233436584472656e+00 4.614233493804931641e+00 1.924039959907531738e+00 -2.824021100997924805e+00
3.075000000000000000e+03 7.207279205322265625e+01 -1.127088546752929688e+01 2.912124991416931152e-01 1.415876102447509766e+01 4.334991931915283203e+00 -3.656460642814636230e-01
3.076000000000000000e+03 7.207135009765625000e+01 -1.205344676971435547e+01 7.997164130210876465e-02 1.386253547668457031e+01 4.182752132415771484e+00 6.946998648345470428e-03
3.077000000000000000e+03 7.209131622314453125e+01 -1.361036109924316406e+01 5.400972962379455566e-01 1.557898712158203125e+01 4.835725307464599609e+00 1.070205926895141602e+00
3.078000000000000000e+03 6.622014617919921875e+01 -1.272340393066406250e+01 4.712492227554321289e-01 1.276636719703674316e+00 5.243657827377319336e-01 -7.678314447402954102e-01
3.079000000000000000e+03 6.468478393554687500e+01 -1.092364025115966797e+01 1.387730479240417480e+00 5.267715454101562500e+00 1.996633768081665039e+00 -2.483248949050903320e+00
3.080000000000000000e+03 6.396147537231445312e+01 -9.486890792846679688e+00 1.042288422584533691e+00 9.239543914794921875e+00 3.084549665451049805e+00 -2.507587194442749023e+00
3.081000000000000000e+03 6.289141464233398438e+01 -8.086713790893554688e+00 8.017547726631164551e-01 1.044965171813964844e+01 3.375422000885009766e+00 -7.413979768753051758e-01
3.082000000000000000e+03 6.342100524902343750e+01 -6.337974071502685547e+00 1.867699772119522095e-01 1.311657142639160156e+01 3.991002559661865234e+00 -5.227672457695007324e-01
3.083000000000000000e+03 6.334879684448242188e+01 -4.744491100311279297e+00 3.617735803127288818e-01 1.523669910430908203e+01 4.679541587829589844e+00 1.003069162368774414e+00
3.084000000000000000e+03 4.983787155151367188e+01 -2.721924066543579102e+00 -3.621641397476196289e+00 7.443472146987915039e-01 -8.631882071495056152e-01 5.798889994621276855e-01
3.085000000000000000e+03 5.225861740112304688e+01 -5.561157703399658203e+00 -1.789894342422485352e+00 3.213294744491577148e+00 4.270201027393341064e-01 -6.579687595367431641e-01
3.086000000000000000e+03 5.318274688720703125e+01 -7.929994583129882812e+00 1.132941007614135742e+00 4.572379589080810547e+00 1.711596131324768066e+00 -2.254919290542602539e+00
3.087000000000000000e+03 5.552067184448242188e+01 -1.309719085693359375e+01 7.253583669662475586e-01 1.211352825164794922e+01 3.851665973663330078e+00 -2.273988962173461914e+00
3.088000000000000000e+03 5.700940322875976562e+01 -1.567176628112792969e+01 9.106825590133666992e-01 1.191027259826660156e+01 3.846286535263061523e+00 -1.757541298866271973e-01
3.089000000000000000e+03 5.215441131591796875e+01 -1.725503540039062500e+01 -2.222317934036254883e+00 -1.561296224594116211e+00 -1.135084271430969238e+00 1.944499611854553223e+00
3.090000000000000000e+03 4.948874664306640625e+01 -1.445107841491699219e+01 -1.046602487564086914e+00 -8.744915723800659180e-01 -5.763282179832458496e-01 9.167705178260803223e-01
3.091000000000000000e+03 4.565073394775390625e+01 -1.218595314025878906e+01 -7.680862545967102051e-01 3.444452762603759766e+00 8.029099702835083008e-01 3.902576267719268799e-01
3.092000000000000000e+03 3.536859512329101562e+01 -3.336576700210571289e+00 -1.178810074925422668e-01 -7.104681134223937988e-01 -2.485047280788421631e-01 4.020653069019317627e-01
3.093000000000000000e+03 3.639652252197265625e+01 -4.608469486236572266e+00 -4.220485091209411621e-01 -1.688359856605529785e+00 -6.331225037574768066e-01 8.806939125061035156e-01
3.094000000000000000e+03 3.772789382934570312e+01 -6.641177654266357422e+00 -8.824695944786071777e-01 -2.477580547332763672e+00 -1.008015036582946777e+00 1.524746656417846680e+00
3.095000000000000000e+03 4.039599990844726562e+01 -1.167756175994873047e+01 -1.393624246120452881e-01 3.833090782165527344e+00 1.108118534088134766e+00 -2.403526455163955688e-01
3.096000000000000000e+03 4.081257629394531250e+01 -1.330521202087402344e+01 2.485397458076477051e-01 7.774669170379638672e+00 2.406962633132934570e+00 1.814163476228713989e-01
3.097000000000000000e+03 3.686986160278320312e+01 -1.422988891601562500e+01 -9.719144701957702637e-01 -7.302431464195251465e-01 -5.106472969055175781e-01 8.861796259880065918e-01
3.098000000000000000e+03 3.632367324829101562e+01 -1.366131687164306641e+01 -9.462621808052062988e-01 -6.933596134185791016e-01 -4.918865561485290527e-01 7.619307637214660645e-01
3.099000000000000000e+03 3.523427581787109375e+01 -1.250005722045898438e+01 -6.696259379386901855e-01 -5.624176859855651855e-01 -3.696130812168121338e-01 5.921136140823364258e-01
3.100000000000000000e+03 3.361759948730468750e+01 -1.071712112426757812e+01 -4.228623509407043457e-01 -4.484623968601226807e-01 -2.613974213600158691e-01 4.140587747097015381e-01
3.101000000000000000e+03 3.167692375183105469e+01 -8.996560096740722656e+00 -2.192686051130294800e-01 -2.521030604839324951e-02 -7.334367185831069946e-02 1.838187128305435181e-01
3.102000000000000000e+03 3.197855949401855469e+01 -7.949904441833496094e+00 -8.757349103689193726e-02 -5.441385135054588318e-02 -4.259620234370231628e-02 8.344142138957977295e-02
3.103000000000000000e+03 6.525311279296875000e+01 1.291893005371093750e+01 6.302235603332519531e+00 1.538902187347412109e+01 6.507377147674560547e+00 -6.547869205474853516e+00
3.104000000000000000e+03 6.566162109375000000e+01 1.056207084655761719e+01 1.641587376594543457e+00 2.311079978942871094e+01 7.425715923309326172e+00 1.920530319213867188e+00
3.105000000000000000e+03 6.410022735595703125e+01 7.463341236114501953e+00 9.304986596107482910e-01 4.486478805541992188e+00 1.625093221664428711e+00 1.959939360618591309e+00
3.106000000000000000e+03 6.223064422607421875e+01 4.959499359130859375e+00 1.404043100774288177e-02 8.329116702079772949e-01 2.540856301784515381e-01 2.606201469898223877e-01
3.107000000000000000e+03 6.060227966308593750e+01 3.224438667297363281e+00 -2.953574180603027344e+00 -6.846151947975158691e-01 -1.091456770896911621e+00 -1.391444802284240723e+00
3.108000000000000000e+03 5.698138809204101562e+01 9.877328872680664062e-01 -7.322633743286132812e+00 -1.483305215835571289e+00 -2.641781806945800781e+00 -2.978136539459228516e+00
3.109000000000000000e+03 5.426089477539062500e+01 4.489624977111816406e+00 1.134737968444824219e+00 2.181159591674804688e+01 6.883900165557861328e+00 2.857940912246704102e+00
3.110000000000000000e+03 5.482841110229492188e+01 5.966733932495117188e+00 1.209385514259338379e+00 1.241779708862304688e+01 4.088154792785644531e+00 3.721012353897094727e+00
3.111000000000000000e+03 5.601175689697265625e+01 8.039289474487304688e+00 2.007510215044021606e-01 2.954451799392700195e+00 9.465608596801757812e-01 9.435502290725708008e-01
3.112000000000000000e+03 6.196075057983398438e+01 1.337647438049316406e+01 -1.933736801147460938e+00 -5.119475126266479492e-01 -7.337052822113037109e-01 -1.073857903480529785e+00
3.113000000000000000e+03 2.381634902954101562e+01 2.063247442245483398e+00 -1.344013363122940063e-01 7.615020498633384705e-03 -3.803589195013046265e-02 -5.216289311647415161e-02
3.114000000000000000e+03 2.430846977233886719e+01 6.461549282073974609e+00 -1.379359215497970581e-01 -1.309198886156082153e-01 -8.065674453973770142e-02 -1.288526058197021484e-01
3.115000000000000000e+03 2.328922271728515625e+01 1.561753869056701660e+00 -9.506808221340179443e-02 -2.426280640065670013e-02 -3.579926863312721252e-02 -7.048940658569335938e-02
3.116000000000000000e+03 2.333482742309570312e+01 1.065130949020385742e+00 -6.553836166858673096e-02 -1.001117751002311707e-01 -4.969504103064537048e-02 -1.346351951360702515e-01
3.117000000000000000e+03 2.354756927490234375e+01 -1.015492630004882812e+01 -1.942503601312637329e-01 2.227473072707653046e-02 -5.159268900752067566e-02 1.796416193246841431e-01
3.118000000000000000e+03 6.891291046142578125e+01 6.723669052124023438e+00 -9.388979673385620117e-01 1.088211154937744141e+01 2.982964038848876953e+00 -1.490648746490478516e+00
3.119000000000000000e+03 1.552738285064697266e+01 -2.116471529006958008e+00 -7.696500513702630997e-03 -3.260866040363907814e-03 -3.287210129201412201e-03 4.053524229675531387e-03
3.120000000000000000e+03 1.426709747314453125e+01 -1.833680272102355957e+00 -9.543841704726219177e-03 -6.332835764624178410e-04 -3.053137566894292831e-03 4.061738960444927216e-03
3.121000000000000000e+03 7.342683410644531250e+01 9.871073722839355469e+00 -1.098190665245056152e+00 1.217178225517272949e+00 3.569626808166503906e-02 -2.630787134170532227e+00
3.122000000000000000e+03 5.645461654663085938e+01 -1.462232875823974609e+01 6.679962277412414551e-01 1.241197872161865234e+01 3.923992633819580078e+00 -8.838730454444885254e-01
3.123000000000000000e+03 3.811146497726440430e+00 -2.748907804489135742e+00 -3.351650200784206390e-03 -1.837635063566267490e-03 -1.556785544380545616e-03 -2.006893046200275421e-03
3.124000000000000000e+03 3.623073577880859375e+01 1.366140842437744141e+01 -1.721048593521118164e+00 -8.965268135070800781e-01 -7.852726578712463379e-01 1.001538991928100586e+00
3.125000000000000000e+03 2.193274307250976562e+01 6.521347999572753906e+00 -1.302331089973449707e-01 4.077552631497383118e-02 -2.683727629482746124e-02 -6.537728756666183472e-02
3.126000000000000000e+03 3.755499649047851562e+01 1.391337394714355469e+01 -1.396378993988037109e+00 3.440275415778160095e-02 -4.085928499698638916e-01 4.714739322662353516e-01
3.127000000000000000e+03 3.786227416992187500e+01 1.451362228393554688e+01 -1.400825500488281250e+00 1.710849255323410034e-01 -3.689221739768981934e-01 2.441443800926208496e-01
3.128000000000000000e+03 2.075922203063964844e+01 -8.680412292480468750e+00 -2.455788552761077881e-01 -2.162783779203891754e-02 -8.016200363636016846e-02 6.830811500549316406e-02
3.129000000000000000e+03 4.446764755249023438e+01 1.241398048400878906e+01 -9.168955087661743164e-01 -3.587767481803894043e-01 -3.827016651630401611e-01 -5.758596658706665039e-01
3.130000000000000000e+03 4.351940536499023438e+01 1.275402832031250000e+01 -1.028480529785156250e+00 1.325714141130447388e-01 -2.687727510929107666e-01 -3.483268618583679199e-01
3.131000000000000000e+03 7.231517791748046875e+01 1.025796794891357422e+01 5.223695039749145508e-01 1.087714135646820068e-01 1.893422752618789673e-01 -1.420007467269897461e+00
3.132000000000000000e+03 4.072811508178710938e+01 -1.602093887329101562e+01 2.497488737106323242e+00 9.400483131408691406e+00 3.569391489028930664e+00 2.495566606521606445e+00
3.133000000000000000e+03 2.643825340270996094e+01 8.973587751388549805e-01 1.272100508213043213e-01 -4.174236953258514404e-01 -8.706409484148025513e-02 -4.098877310752868652e-01
3.134000000000000000e+03 2.469542503356933594e+01 1.962354660034179688e+00 -3.771435320377349854e-01 -7.178909331560134888e-02 -1.346797943115234375e-01 -1.942958682775497437e-01
3.135000000000000000e+03 2.509513854980468750e+01 6.861439943313598633e-01 3.204994648694992065e-02 -3.206592798233032227e-01 -8.658280223608016968e-02 -3.289088904857635498e-01
3.136000000000000000e+03 2.375983047485351562e+01 1.539757847785949707e+00 -1.522130072116851807e-01 -6.475652754306793213e-02 -6.509085744619369507e-02 -1.538526862859725952e-01
3.137000000000000000e+03 2.459200096130371094e+01 8.866555690765380859e-01 -2.393471077084541321e-02 -2.557013630867004395e-01 -8.389082551002502441e-02 -2.989086806774139404e-01
3.138000000000000000e+03 3.758284759521484375e+01 8.677646636962890625e+00 -9.077624999918043613e-04 -9.079580777324736118e-04 -5.447161966003477573e-04 -2.402064390480518341e-03
3.139000000000000000e+03 3.832302093505859375e+01 8.551761627197265625e+00 -8.527562953531742096e-03 -8.657993748784065247e-03 -5.155667196959257126e-03 1.251978799700737000e-03
3.140000000000000000e+03 3.190442085266113281e+00 -2.685078144073486328e+00 -2.107673324644565582e-03 -1.687732175923883915e-03 -1.138621708378195763e-03 -1.075323554687201977e-03
3.141000000000000000e+03 2.521697998046875000e+00 -2.692552089691162109e+00 -1.350618200376629829e-03 -1.328313606791198254e-03 -8.036795188672840595e-04 -4.063346714247018099e-04
3.142000000000000000e+03 1.110935688018798828e+00 -2.718684911727905273e+00 -3.759501851163804531e-04 2.400802331976592541e-04 -4.076098775840364397e-05 4.059046041220426559e-04
3.143000000000000000e+03 2.171494483947753906e+01 1.427669525146484375e+00 -1.622851379215717316e-02 -2.049974538385868073e-02 -1.101847831159830093e-02 -6.188435945659875870e-03
3.144000000000000000e+03 1.951503181457519531e+01 1.886552810668945312e+00 2.122380537912249565e-03 5.385087803006172180e-03 2.252240665256977081e-03 3.792216011788696051e-04
3.145000000000000000e+03 1.946784400939941406e+01 2.479321241378784180e+00 -4.272243008017539978e-03 1.048184093087911606e-02 1.862879376858472824e-03 2.580298343673348427e-03
3.146000000000000000e+03 4.502925872802734375e+01 -3.784833431243896484e+00 4.835341930389404297e+00 1.449635887145996094e+01 5.799510478973388672e+00 5.745683670043945312e+00
3.147000000000000000e+03 4.897171783447265625e+01 7.318724155426025391e+00 1.330032706260681152e+00 7.644484519958496094e+00 2.692355155944824219e+00 2.986718416213989258e+00
3.148000000000000000e+03 3.903477478027343750e+01 1.430285835266113281e+01 -1.149009346961975098e+00 2.875717580318450928e-01 -2.584312856197357178e-01 2.240700125694274902e-01
3.149000000000000000e+03 6.612060546875000000e+01 -1.370905590057373047e+01 -2.297880710102617741e-04 2.092106580734252930e+00 6.275630593299865723e-01 -8.253785371780395508e-01
3.150000000000000000e+03 6.662988281250000000e+01 -1.428365039825439453e+01 -5.005258917808532715e-01 1.667039752006530762e+00 3.499541580677032471e-01 -6.005387306213378906e-01
3.151000000000000000e+03 1.813906073570251465e+00 2.582110881805419922e+00 -1.278195763006806374e-03 1.566794351674616337e-03 8.657956641400232911e-05 -3.717755025718361139e-04
3.152000000000000000e+03 1.088353157043457031e+00 2.630895376205444336e+00 2.792527957353740931e-04 8.398454519920051098e-05 1.089712022803723812e-04 -2.228404628112912178e-03
3.153000000000000000e+03 6.539034271240234375e+01 -8.534454107284545898e-01 -2.803202867507934570e+00 2.920334100723266602e+00 3.513940796256065369e-02 4.147493839263916016e+00
3.154000000000000000e+03 3.963871765136718750e+01 8.463478088378906250e+00 -2.537738997489213943e-03 -1.697211526334285736e-03 -1.270485110580921173e-03 -1.086465665139257908e-03
3.155000000000000000e+03 3.902804183959960938e+01 8.518713951110839844e+00 7.823209161870181561e-04 1.666125259362161160e-03 7.345338817685842514e-04 -9.237944614142179489e-04
3.156000000000000000e+03 5.554170227050781250e+01 -1.873163604736328125e+01 -3.543505370616912842e-01 8.195600509643554688e+00 2.352375030517578125e+00 3.090545177459716797e+00
3.157000000000000000e+03 5.663488388061523438e+01 -1.729570579528808594e+01 1.681707620620727539e+00 1.092255783081054688e+01 3.781279563903808594e+00 9.528577923774719238e-01
3.158000000000000000e+03 7.563438415527343750e+01 7.747381687164306641e+00 4.138989448547363281e+00 1.758872032165527344e+01 6.518312931060791016e+00 -5.835867404937744141e+00
3.159000000000000000e+03 1.056706142425537109e+01 -2.720667839050292969e+00 -1.724401302635669708e-02 2.396465744823217392e-03 -4.454264417290687561e-03 -2.039036247879266739e-03
3.160000000000000000e+03 1.123609352111816406e+01 -2.589813709259033203e+00 -1.851556450128555298e-02 2.628380432724952698e-03 -4.766155034303665161e-03 -6.045030313543975353e-04
3.161000000000000000e+03 7.632048797607421875e+01 3.060402393341064453e+00 -9.829972982406616211e-01 1.009840679168701172e+01 2.734622955322265625e+00 -1.715682029724121094e+00
3.162000000000000000e+03 1.963862991333007812e+01 6.053926467895507812e+00 -1.330345869064331055e-01 2.058394066989421844e-02 -3.373519331216812134e-02 -3.606967255473136902e-02
3.163000000000000000e+03 1.763075637817382812e+01 7.893754005432128906e+00 8.363754302263259888e-02 3.907175734639167786e-02 3.681278973817825317e-02 4.299527406692504883e-02
3.164000000000000000e+03 2.120658493041992188e+01 6.547880172729492188e+00 -1.278171092271804810e-01 2.577723190188407898e-02 -3.061196208000183105e-02 -6.354098021984100342e-02
3.165000000000000000e+03 7.441309356689453125e+01 5.921463966369628906e-01 -3.488663196563720703e+00 1.848845601081848145e+00 -4.919452667236328125e-01 4.148204922676086426e-01
3.166000000000000000e+03 7.327034759521484375e+01 5.482675433158874512e-01 -5.489743232727050781e+00 -8.776475787162780762e-01 -1.910217285156250000e+00 -1.843074560165405273e+00
3.167000000000000000e+03 6.993821716308593750e+01 8.198941230773925781e+00 -2.467239141464233398e+00 6.286073684692382812e+00 1.145650386810302734e+00 -3.620612621307373047e-01
3.168000000000000000e+03 7.680882263183593750e+01 6.503561019897460938e+00 2.284839630126953125e+00 1.243500518798828125e+01 4.415953636169433594e+00 -2.825916290283203125e+00
3.169000000000000000e+03 3.226034927368164062e+01 -6.932003498077392578e-01 1.212191224098205566e+00 1.955214329063892365e-02 3.695230185985565186e-01 -4.862926304340362549e-01
3.170000000000000000e+03 3.104421234130859375e+01 7.545478343963623047e-01 7.186789512634277344e-01 1.163059115409851074e+00 5.645213723182678223e-01 4.726952016353607178e-01
3.171000000000000000e+03 7.535203552246093750e+01 1.712685108184814453e+00 -3.723350286483764648e+00 4.794151306152343750e+00 3.212402462959289551e-01 -2.675253450870513916e-01
3.172000000000000000e+03 7.588706207275390625e+01 2.335472583770751953e+00 -2.759241580963134766e+00 8.063242912292480469e+00 1.591200351715087891e+00 -9.217274785041809082e-01
3.173000000000000000e+03 7.384141445159912109e+00 -1.860717415809631348e+00 -7.130783051252365112e-03 -2.606451162137091160e-04 -2.217428293079137802e-03 -2.727353014051914215e-03
3.174000000000000000e+03 7.869025230407714844e+00 -2.915072202682495117e+00 -1.360590755939483643e-02 6.681382074020802975e-04 -3.881330834701657295e-03 -5.073751322925090790e-03
3.175000000000000000e+03 9.835249900817871094e+00 -2.836729764938354492e+00 -1.773680187761783600e-02 2.037565223872661591e-03 -4.709771368652582169e-03 -2.895179204642772675e-03
3.176000000000000000e+03 8.833940505981445312e+00 -1.943871855735778809e+00 -1.028659380972385406e-02 5.421862006187438965e-04 -2.923322143033146858e-03 -2.337382640689611435e-03
3.177000000000000000e+03 6.822766113281250000e+01 3.622946977615356445e+00 2.979392051696777344e+00 1.103343391418457031e+01 4.203847885131835938e+00 -1.271748900413513184e+00
3.178000000000000000e+03 6.905561828613281250e+01 5.888444423675537109e+00 -4.330021888017654419e-02 1.308782768249511719e+01 3.913358449935913086e+00 -1.103178739547729492e+00
3.179000000000000000e+03 7.704417419433593750e+01 4.353898525238037109e+00 5.307859182357788086e-01 1.157468891143798828e+01 3.631642580032348633e+00 -2.019546270370483398e+00
3.180000000000000000e+03 7.675770568847656250e+01 5.802779197692871094e+00 9.351336956024169922e-01 1.446688270568847656e+01 4.620604991912841797e+00 -2.674461603164672852e+00
3.181000000000000000e+03 7.037837219238281250e+01 9.006956815719604492e-01 -1.407345294952392578e+00 7.516729354858398438e+00 1.832815170288085938e+00 -3.307544469833374023e+00
3.182000000000000000e+03 7.044936370849609375e+01 2.105190753936767578e+00 3.594676494598388672e+00 8.213520050048828125e+00 3.542458772659301758e+00 -5.365655422210693359e+00
3.183000000000000000e+03 3.074973487854003906e+01 -1.020234003663063049e-01 2.542620658874511719e+00 2.033656358718872070e+00 1.372883081436157227e+00 7.518396377563476562e-01
3.184000000000000000e+03 2.996393775939941406e+01 1.324339509010314941e-01 1.229642868041992188e+00 1.037189245223999023e+00 6.800496578216552734e-01 5.726501345634460449e-02
3.185000000000000000e+03 6.406518554687500000e+01 -1.439138889312744141e+00 -4.387466430664062500e+00 6.130187034606933594e+00 5.228162407875061035e-01 4.706089496612548828e+00
3.186000000000000000e+03 5.350100326538085938e+01 -1.863927268981933594e+01 -4.555997848510742188e+00 -1.486047983169555664e+00 -1.812613725662231445e+00 2.191901683807373047e+00
3.187000000000000000e+03 4.680580902099609375e+01 -1.711560606956481934e+00 -9.056431651115417480e-01 2.064920902252197266e+00 3.477833271026611328e-01 5.410707950592041016e+00
3.188000000000000000e+03 6.242466354370117188e+01 -4.067537784576416016e+00 2.620936632156372070e+00 9.926393508911132812e+00 3.764199256896972656e+00 1.679415345191955566e+00
3.189000000000000000e+03 6.259611129760742188e+01 -4.871083259582519531e+00 1.615836024284362793e+00 1.240823650360107422e+01 4.207221984863281250e+00 1.908762335777282715e+00
3.190000000000000000e+03 7.205518341064453125e+01 -1.437350559234619141e+01 2.002292156219482422e+00 1.499841690063476562e+01 5.100212574005126953e+00 2.793737173080444336e+00
3.191000000000000000e+03 2.620669555664062500e+01 1.470676231384277344e+01 -1.626813411712646484e-01 -2.363677136600017548e-02 -5.589543282985687256e-02 3.879666626453399658e-01
3.192000000000000000e+03 2.566599273681640625e+01 1.677911376953125000e+01 -1.214039444923400879e+00 1.433017253875732422e-01 -3.212213218212127686e-01 3.484311401844024658e-01
3.193000000000000000e+03 6.266895675659179688e+01 -2.691122770309448242e+00 -3.898707032203674316e-01 9.687437057495117188e+00 2.789269924163818359e+00 5.020431280136108398e-01
3.194000000000000000e+03 7.139957427978515625e+01 -1.551615619659423828e+01 1.901983380317687988e+00 8.427944183349609375e+00 3.098978281021118164e+00 3.577561616897583008e+00
3.195000000000000000e+03 2.292143821716308594e+01 1.765056610107421875e+01 -9.834104180335998535e-01 -2.401863634586334229e-01 -3.670790195465087891e-01 3.588374853134155273e-01
3.196000000000000000e+03 5.644491195678710938e+01 1.312894225120544434e-01 -9.209774136543273926e-01 2.270999908447265625e+00 4.050067365169525146e-01 -6.932633876800537109e+00
3.197000000000000000e+03 6.641139221191406250e+01 1.077228355407714844e+01 2.414618015289306641e+00 1.621047973632812500e+01 5.587529182434082031e+00 6.359461545944213867e-01
3.198000000000000000e+03 5.512285232543945312e+01 1.232350349426269531e+00 5.249311447143554688e+00 1.065272617340087891e+01 4.770611286163330078e+00 -7.517578601837158203e+00
3.199000000000000000e+03 7.161658477783203125e+01 -8.846567153930664062e+00 1.825181961059570312e+00 1.060780048370361328e+01 3.729894876480102539e+00 -3.497825860977172852e+00
3.200000000000000000e+03 7.206744384765625000e+01 -1.045435523986816406e+01 8.372331261634826660e-01 1.429956531524658203e+01 4.541039466857910156e+00 -1.341158628463745117e+00
3.201000000000000000e+03 5.395451736450195312e+01 1.293007016181945801e+00 2.102565288543701172e+00 1.590892219543457031e+01 5.403446197509765625e+00 -2.163740873336791992e+00
3.202000000000000000e+03 6.458219909667968750e+01 -1.192366886138916016e+01 4.583889544010162354e-01 4.849053382873535156e+00 1.592232704162597656e+00 -1.575002908706665039e+00
3.203000000000000000e+03 6.509080505371093750e+01 -1.254553890228271484e+01 3.795125484466552734e-01 3.680772781372070312e+00 1.218085646629333496e+00 -1.400726199150085449e+00
3.204000000000000000e+03 6.316686630249023438e+01 1.462289905548095703e+01 1.703616142272949219e+00 1.640058159828186035e+00 1.003102302551269531e+00 -2.598164558410644531e+00
3.205000000000000000e+03 6.301991271972656250e+01 -1.089106464385986328e+01 5.645879507064819336e-01 7.625841617584228516e+00 2.457129001617431641e+00 -7.325537800788879395e-01
3.206000000000000000e+03 7.286717224121093750e+01 -1.045684909820556641e+01 1.441022872924804688e+00 1.185412311553955078e+01 3.988543987274169922e+00 -7.896558642387390137e-01
3.207000000000000000e+03 6.366817474365234375e+01 -1.053295612335205078e+01 7.554582953453063965e-01 7.555264949798583984e+00 2.493216991424560547e+00 -1.479807138442993164e+00
3.208000000000000000e+03 6.303513336181640625e+01 -8.929073333740234375e+00 8.783266544342041016e-01 9.604232788085937500e+00 3.144767999649047852e+00 -1.015810132026672363e+00
3.209000000000000000e+03 6.168554687500000000e+01 1.397870349884033203e+01 -2.766256630420684814e-01 -2.159263789653778076e-01 -1.477656066417694092e-01 -2.501850724220275879e-01
3.210000000000000000e+03 6.269924163818359375e+01 1.369187831878662109e+01 -1.482553601264953613e+00 -4.982558190822601318e-01 -5.942428112030029297e-01 -8.272859454154968262e-01
3.211000000000000000e+03 6.761731719970703125e+01 -1.524902939796447754e+00 -3.945866346359252930e+00 3.626780033111572266e+00 -9.572590142488479614e-02 -1.931180804967880249e-01
3.212000000000000000e+03 6.749034881591796875e+01 -4.087238311767578125e+00 -2.200365781784057617e+00 -3.470833301544189453e-01 -7.642347216606140137e-01 1.074151396751403809e+00
3.213000000000000000e+03 6.726886749267578125e+01 -2.503240823745727539e+00 -5.023535728454589844e+00 2.356009483337402344e+00 -8.002579212188720703e-01 2.680288255214691162e-01
3.214000000000000000e+03 6.348949432373046875e+01 -7.129840850830078125e+00 3.330642580986022949e-01 1.215299797058105469e+01 3.745818614959716797e+00 -9.421178102493286133e-01
3.215000000000000000e+03 6.274092102050781250e+01 -6.451502799987792969e+00 7.121204137802124023e-01 1.169464683532714844e+01 3.722030401229858398e+00 2.007244974374771118e-01
3.216000000000000000e+03 7.207630920410156250e+01 -1.283005905151367188e+01 1.804421842098236084e-01 1.413097763061523438e+01 4.293426036834716797e+00 2.897348999977111816e-01
3.217000000000000000e+03 7.125127410888671875e+01 -6.975033760070800781e+00 6.303300857543945312e-01 6.208732128143310547e+00 2.051718711853027344e+00 -2.049088954925537109e+00
3.218000000000000000e+03 6.865357208251953125e+01 -4.205852985382080078e+00 -2.033760309219360352e+00 2.086151838302612305e+00 1.571744680404663086e-02 -2.821519672870635986e-01
3.219000000000000000e+03 6.767828369140625000e+01 -3.079833030700683594e+00 -4.513389587402343750e+00 1.772269129753112793e+00 -8.223360776901245117e-01 8.541182875633239746e-01
3.220000000000000000e+03 7.072444152832031250e+01 -5.304141521453857422e+00 -5.460001230239868164e-01 4.557064533233642578e+00 1.203319311141967773e+00 -1.469503998756408691e+00
3.221000000000000000e+03 6.915740203857421875e+01 -4.760815143585205078e+00 -1.083596348762512207e+00 2.425422906875610352e+00 4.025479853153228760e-01 -7.248568534851074219e-01
3.222000000000000000e+03 6.280493164062500000e+01 -7.258690357208251953e+00 5.458422899246215820e-01 1.118757724761962891e+01 3.520025968551635742e+00 -3.772865235805511475e-01
3.223000000000000000e+03 7.282675170898437500e+01 -1.122603607177734375e+01 8.017780184745788574e-01 1.271277999877929688e+01 4.054367542266845703e+00 -5.670645833015441895e-01
3.224000000000000000e+03 3.780776596069335938e+01 1.543778061866760254e+00 5.172219499945640564e-02 -5.186677575111389160e-01 -1.400836557149887085e-01 -1.788873970508575439e-02
3.225000000000000000e+03 2.108764457702636719e+01 1.756571197509765625e+01 -7.339502573013305664e-01 4.553896188735961914e-02 -2.065233737230300903e-01 1.504701673984527588e-01
3.226000000000000000e+03 3.672211837768554688e+01 6.152241304516792297e-02 4.196821153163909912e-01 -5.041901469230651855e-01 -2.535241469740867615e-02 -1.598644554615020752e-01
3.227000000000000000e+03 3.802701187133789062e+01 -4.479628503322601318e-01 3.327541649341583252e-01 -3.293942511081695557e-01 1.007975544780492783e-03 -3.031752407550811768e-01
3.228000000000000000e+03 1.097552108764648438e+01 8.586692810058593750e+00 5.490360409021377563e-02 1.188294887542724609e-01 5.211992934346199036e-02 7.878023386001586914e-02
3.229000000000000000e+03 1.650613975524902344e+01 1.401580524444580078e+01 -6.587191671133041382e-02 4.262136295437812805e-02 -6.975166499614715576e-03 2.052856795489788055e-02
3.230000000000000000e+03 6.651030731201171875e+01 1.008631896972656250e+01 2.257335424423217773e+00 1.474989604949951172e+01 5.102169513702392578e+00 -6.320264339447021484e-01
3.231000000000000000e+03 1.826293373107910156e+01 1.423626899719238281e+01 -9.300898760557174683e-02 6.250801379792392254e-04 -2.771517261862754822e-02 -2.117726951837539673e-02
3.232000000000000000e+03 1.713055038452148438e+01 1.447079277038574219e+01 -1.059352457523345947e-01 3.507227823138237000e-02 -2.125888876616954803e-02 1.058624684810638428e-02
3.233000000000000000e+03 1.153474998474121094e+01 1.139888095855712891e+01 2.748885005712509155e-02 6.334888935089111328e-02 2.725132182240486145e-02 4.061756283044815063e-02
3.234000000000000000e+03 2.033938217163085938e+01 1.544588661193847656e+01 -3.213563263416290283e-01 -3.374898061156272888e-02 -1.065315902233123779e-01 -9.388746321201324463e-02
3.235000000000000000e+03 1.212939262390136719e+01 1.077977275848388672e+01 4.888508468866348267e-02 7.398875802755355835e-02 3.686215355992317200e-02 6.036393344402313232e-02
3.236000000000000000e+03 1.342193889617919922e+01 1.179622364044189453e+01 3.924745693802833557e-02 6.478552520275115967e-02 3.120989538729190826e-02 5.612815916538238525e-02
3.237000000000000000e+03 3.867653274536132812e+01 -8.008675575256347656e-01 -3.497147560119628906e-02 -6.884095072746276855e-02 -3.114372864365577698e-02 -5.793813467025756836e-01
3.238000000000000000e+03 4.389491271972656250e+01 -4.946650981903076172e+00 3.078109264373779297e+00 1.052206134796142578e+01 4.080050945281982422e+00 1.883014440536499023e+00
3.239000000000000000e+03 4.409469604492187500e+01 -7.183828830718994141e+00 5.921117663383483887e-01 8.915701866149902344e+00 2.852344274520874023e+00 3.070986270904541016e-01
3.240000000000000000e+03 4.606196212768554688e+01 -1.002652931213378906e+01 3.589025437831878662e-01 4.486210823059082031e+00 1.453534007072448730e+00 -1.086953520774841309e+00
3.241000000000000000e+03 4.409755706787109375e+01 -4.304392337799072266e+00 4.055497646331787109e+00 9.973863601684570312e+00 4.208808422088623047e+00 1.560427308082580566e+00
3.242000000000000000e+03 5.376621246337890625e+01 -7.476239204406738281e+00 5.579236745834350586e-01 4.989164829254150391e+00 1.664126515388488770e+00 -1.868868827819824219e+00
3.243000000000000000e+03 4.501636886596679688e+01 -9.746423721313476562e+00 -4.204280674457550049e-01 6.059064388275146484e+00 1.691590905189514160e+00 -2.801099419593811035e-02
3.244000000000000000e+03 2.918028259277343750e+01 3.003285646438598633e+00 -8.543186187744140625e-01 -4.840931296348571777e-02 -2.708183825016021729e-01 -3.714136779308319092e-01
3.245000000000000000e+03 5.625024032592773438e+01 -1.307163238525390625e+01 7.622620463371276855e-01 1.129595565795898438e+01 3.617465496063232422e+00 -1.552459478378295898e+00
3.246000000000000000e+03 4.687155532836914062e+01 -1.139925670623779297e+01 -1.101249083876609802e-01 1.353023767471313477e+00 3.728696405887603760e-01 -2.517885267734527588e-01
3.247000000000000000e+03 3.387015914916992188e+01 6.815110683441162109e+00 -1.744071990251541138e-01 3.032519854605197906e-02 -4.322459921240806580e-02 -7.311011198908090591e-03
3.248000000000000000e+03 5.591225051879882812e+01 -1.091308689117431641e+01 9.933154582977294922e-01 9.035085678100585938e+00 3.008520126342773438e+00 -1.639330863952636719e+00
3.249000000000000000e+03 5.541771697998046875e+01 -1.022249126434326172e+01 9.968315362930297852e-01 8.249716758728027344e+00 2.773964643478393555e+00 -1.994479894638061523e+00
3.250000000000000000e+03 3.608853912353515625e+01 8.210314750671386719e+00 -2.926684357225894928e-02 3.331661690026521683e-03 -7.780554704368114471e-03 5.102490074932575226e-03
3.251000000000000000e+03 3.066428184509277344e+01 3.568794727325439453e+00 -6.976408362388610840e-01 2.177887111902236938e-01 -1.439556479454040527e-01 -1.170714423060417175e-01
3.252000000000000000e+03 4.842552566528320312e+01 -1.448247337341308594e+01 -8.327702283859252930e-01 -6.589034944772720337e-02 -2.695981860160827637e-01 4.647542238235473633e-01
3.253000000000000000e+03 5.564414596557617188e+01 -9.071297645568847656e+00 6.601936817169189453e-01 7.401673316955566406e+00 2.418560028076171875e+00 -1.577389717102050781e+00
3.254000000000000000e+03 3.141794013977050781e+01 4.886566162109375000e+00 -6.230428814888000488e-01 5.766801163554191589e-02 -1.696124672889709473e-01 -1.669051945209503174e-01
3.255000000000000000e+03 3.082024383544921875e+01 4.468348979949951172e+00 -7.249323725700378418e-01 2.509198524057865143e-02 -2.099521160125732422e-01 -2.616018354892730713e-01
3.256000000000000000e+03 3.263182449340820312e+01 5.812914371490478516e+00 -3.622531592845916748e-01 6.310181319713592529e-02 -8.974540233612060547e-02 -5.424839258193969727e-02
3.257000000000000000e+03 3.161425209045410156e+01 5.958107471466064453e+00 -4.048483669757843018e-01 -1.241469234228134155e-01 -1.586985886096954346e-01 -2.284922748804092407e-01
3.258000000000000000e+03 4.903498458862304688e+01 -1.499429798126220703e+01 -9.165861606597900391e-01 -3.375976979732513428e-01 -3.762551546096801758e-01 6.890285015106201172e-01
3.259000000000000000e+03 5.652815628051757812e+01 -1.672695350646972656e+01 1.216546893119812012e+00 1.315676403045654297e+01 4.311993122100830078e+00 1.172768950462341309e+00
3.260000000000000000e+03 5.646633148193359375e+01 -1.607123947143554688e+01 5.391893982887268066e-01 1.307589912414550781e+01 4.084526538848876953e+00 -3.298501670360565186e-01
3.261000000000000000e+03 4.783286666870117188e+01 -1.270543861389160156e+01 -5.460202097892761230e-01 -1.260848492383956909e-01 -2.016315162181854248e-01 4.574669301509857178e-01
3.262000000000000000e+03 4.731618118286132812e+01 -1.468839740753173828e+01 -7.033833861351013184e-01 1.095091581344604492e+00 1.175124570727348328e-01 1.392461806535720825e-01
3.263000000000000000e+03 4.434662628173828125e+01 -6.734711647033691406e+00 5.650985836982727051e-01 1.064859390258789062e+01 3.364107608795166016e+00 3.611726462841033936e-01
3.264000000000000000e+03 4.456983184814453125e+01 -7.185287952423095703e+00 1.337962448596954346e-01 1.095976352691650391e+01 3.328068017959594727e+00 -4.132425487041473389e-01
3.265000000000000000e+03 4.671735000610351562e+01 -1.249736404418945312e+01 -5.892631411552429199e-01 1.737857937812805176e+00 3.445784449577331543e-01 1.084543615579605103e-01
3.266000000000000000e+03 5.397098159790039062e+01 -9.291433334350585938e+00 1.316467761993408203e+00 5.643086910247802734e+00 2.087866306304931641e+00 -2.732295989990234375e+00
3.267000000000000000e+03 5.151838302612304688e+01 -1.778201484680175781e+01 -2.440672874450683594e+00 -5.588945150375366211e-01 -8.998702764511108398e-01 1.113722085952758789e+00
3.268000000000000000e+03 4.751633453369140625e+01 -2.535688161849975586e+00 -3.246723175048828125e+00 -7.021339535713195801e-01 -1.184657096862792969e+00 3.433441877365112305e+00
3.269000000000000000e+03 4.759363555908203125e+01 -3.369921445846557617e+00 -7.037111759185791016e+00 1.363582462072372437e-01 -2.070226192474365234e+00 1.957506537437438965e+00
3.270000000000000000e+03 5.012218475341796875e+01 -1.603394126892089844e+01 -1.313252925872802734e+00 -5.960344076156616211e-01 -5.727862119674682617e-01 9.635925292968750000e-01
3.271000000000000000e+03 5.421537399291992188e+01 -8.134140014648437500e+00 7.473322749137878418e-01 5.602716445922851562e+00 1.905014634132385254e+00 -2.139083385467529297e+00
3.272000000000000000e+03 5.111048889160156250e+01 -1.613014221191406250e+01 -1.538996934890747070e+00 -1.276236176490783691e+00 -8.445699214935302734e-01 1.451760172843933105e+00
3.273000000000000000e+03 5.008980178833007812e+01 -1.701569557189941406e+01 -1.500290989875793457e+00 -1.403483003377914429e-01 -4.921917915344238281e-01 6.956872344017028809e-01
3.274000000000000000e+03 5.171530532836914062e+01 -4.992585659027099609e+00 -2.954053640365600586e+00 2.566711187362670898e+00 -1.162027269601821899e-01 -5.928520858287811279e-02
3.275000000000000000e+03 4.717884445190429688e+01 -1.325557422637939453e+01 -6.706810593605041504e-01 1.022140383720397949e+00 1.054377928376197815e-01 1.878501921892166138e-01
3.276000000000000000e+03 4.137281036376953125e+01 -5.659461021423339844e-01 -3.907061219215393066e-01 1.310410976409912109e+00 2.759114503860473633e-01 3.307218849658966064e-01
3.277000000000000000e+03 5.363729476928710938e+01 3.075896501541137695e+00 4.523751735687255859e+00 2.160382652282714844e+01 7.838273048400878906e+00 -2.775014400482177734e+00
3.278000000000000000e+03 5.325164794921875000e+01 4.226217269897460938e+00 3.291421175003051758e+00 1.641593933105468750e+01 5.912208080291748047e+00 -1.940395355224609375e+00
3.279000000000000000e+03 5.973570632934570312e+01 8.724005818367004395e-01 -3.850022077560424805e+00 1.353924989700317383e+00 -7.488290667533874512e-01 -4.745845794677734375e-01
3.280000000000000000e+03 5.869272994995117188e+01 1.830144762992858887e+00 -6.785957813262939453e+00 -2.060696840286254883e+00 -2.653996467590332031e+00 -3.713645696640014648e+00
3.281000000000000000e+03 5.233687973022460938e+01 1.175690269470214844e+01 3.337182521820068359e+00 1.536045646667480469e+01 5.609291553497314453e+00 1.338461399078369141e+00
3.282000000000000000e+03 5.697498703002929688e+01 2.066105604171752930e-01 -2.657070457935333252e-01 -4.641735553741455078e-01 -2.189641892910003662e-01 -4.980741977691650391e+00
3.283000000000000000e+03 5.875107955932617188e+01 9.139460325241088867e-01 -4.530971050262451172e+00 -2.495748549699783325e-01 -1.434163808822631836e+00 -1.406230330467224121e+00
3.284000000000000000e+03 6.121792984008789062e+01 2.666276693344116211e+00 -2.954259395599365234e+00 1.391509890556335449e+00 -4.688248634338378906e-01 -1.399153023958206177e-01
3.285000000000000000e+03 5.882675552368164062e+01 1.230644893646240234e+01 -1.483986675739288330e-01 1.476240754127502441e-01 -2.323773369425907731e-04 2.046765983104705811e-01
3.286000000000000000e+03 5.737040328979492188e+01 1.115454387664794922e+01 1.963104456663131714e-01 1.336278438568115234e+00 4.597766697406768799e-01 5.508958101272583008e-01
3.287000000000000000e+03 5.464435577392578125e+01 7.036604881286621094e+00 -2.495205551385879517e-01 1.065473556518554688e+01 3.121564626693725586e+00 1.494474291801452637e+00
3.288000000000000000e+03 5.084941101074218750e+01 1.026914310455322266e+01 2.636435985565185547e+00 1.996654129028320312e+01 6.780892848968505859e+00 1.940421342849731445e+00
3.289000000000000000e+03 5.955811691284179688e+01 1.276066207885742188e+01 -3.551127016544342041e-01 -7.875750306993722916e-04 -1.067700833082199097e-01 -6.913089752197265625e-02
3.290000000000000000e+03 5.546706008911132812e+01 8.421923637390136719e+00 -4.125762283802032471e-01 5.934989452362060547e+00 1.656723976135253906e+00 1.019455790519714355e+00
3.291000000000000000e+03 5.490123367309570312e+01 8.813239097595214844e+00 -4.677918255329132080e-01 8.325035095214843750e+00 2.357172966003417969e+00 7.094238996505737305e-01
3.292000000000000000e+03 5.984714126586914062e+01 1.760767102241516113e+00 -4.827185153961181641e+00 5.799651145935058594e-01 -1.274165987968444824e+00 -1.308464407920837402e+00
3.293000000000000000e+03 6.456706237792968750e+01 8.082127571105957031e+00 1.254551053047180176e+00 6.633328437805175781e+00 2.366364002227783203e+00 2.882300853729248047e+00
3.294000000000000000e+03 5.749701690673828125e+01 9.917057991027832031e+00 -7.182570099830627441e-01 -3.549738824367523193e-01 -3.219692707061767578e-01 -5.898520946502685547e-01
3.295000000000000000e+03 5.686337661743164062e+01 1.041391944885253906e+01 1.148235574364662170e-01 1.946168184280395508e+00 6.182975172996520996e-01 4.679964780807495117e-01
3.296000000000000000e+03 6.565097045898437500e+01 8.032346725463867188e+00 -7.563467621803283691e-01 1.163402748107910156e+01 3.263304233551025391e+00 3.818002045154571533e-01
3.297000000000000000e+03 5.923895263671875000e+01 1.341727495193481445e+00 -5.442712783813476562e+00 1.664325012825429440e-03 -1.632314562797546387e+00 -1.427156925201416016e+00
3.298000000000000000e+03 6.331409454345703125e+01 4.128924369812011719e+00 -5.339560508728027344e-01 3.054288148880004883e+00 7.560995817184448242e-01 9.440039992332458496e-01
3.299000000000000000e+03 6.420471191406250000e+01 6.321464061737060547e+00 2.066283226013183594e-01 4.922986507415771484e+00 1.538884520530700684e+00 1.201761484146118164e+00
3.300000000000000000e+03 6.316530990600585938e+01 6.217422962188720703e+00 4.666590094566345215e-01 1.976209044456481934e+00 7.328604459762573242e-01 8.818230628967285156e-01
3.301000000000000000e+03 6.469347381591796875e+01 6.903017044067382812e+00 -7.746620476245880127e-02 6.687121391296386719e+00 1.982896566390991211e+00 1.438300848007202148e+00
3.302000000000000000e+03 6.371548843383789062e+01 5.739129543304443359e+00 1.362552791833877563e-01 3.483756065368652344e+00 1.086003422737121582e+00 1.058417558670043945e+00
3.303000000000000000e+03 3.709733581542968750e+01 2.236236572265625000e+00 5.336862057447433472e-02 -2.722330391407012939e-01 -6.565932929515838623e-02 9.167497605085372925e-02
3.304000000000000000e+03 2.529502296447753906e+01 -7.300997734069824219e+00 -4.442384093999862671e-02 9.611815959215164185e-02 1.550829689949750900e-02 1.366722434759140015e-01
3.305000000000000000e+03 5.197298812866210938e+01 1.285934448242187500e+01 3.314082860946655273e+00 1.629671859741210938e+01 5.883240222930908203e+00 8.720460534095764160e-01
3.306000000000000000e+03 3.732288742065429688e+01 4.233001232147216797e+00 2.149141207337379456e-02 -1.281314790248870850e-01 -3.199201822280883789e-02 1.170172467827796936e-01
3.307000000000000000e+03 3.700814819335937500e+01 3.400228977203369141e+00 5.875072628259658813e-02 -2.205670773983001709e-01 -4.854490235447883606e-02 1.539203226566314697e-01
3.308000000000000000e+03 4.189762878417968750e+01 -1.501061022281646729e-01 -8.180907368659973145e-01 1.749298334121704102e+00 2.793622612953186035e-01 6.076140403747558594e-01
3.309000000000000000e+03 4.309872436523437500e+01 8.351085782051086426e-01 -2.551504373550415039e-01 2.935254335403442383e+00 8.040311932563781738e-01 1.637663245201110840e+00
3.310000000000000000e+03 5.131776428222656250e+01 1.166493892669677734e+01 2.991990327835083008e+00 2.172300338745117188e+01 7.414497852325439453e+00 1.566146135330200195e+00
3.311000000000000000e+03 5.160234451293945312e+01 1.226653194427490234e+01 3.121865034103393555e+00 1.876118850708007812e+01 6.564915657043457031e+00 3.430649340152740479e-01
3.312000000000000000e+03 4.747335815429687500e+01 5.583874225616455078e+00 2.069374561309814453e+00 3.527989864349365234e+00 1.679209351539611816e+00 2.298790454864501953e+00
3.313000000000000000e+03 4.238095092773437500e+01 -7.340686917304992676e-01 -4.942596554756164551e-01 3.287647247314453125e+00 8.380162715911865234e-01 8.780040144920349121e-01
3.314000000000000000e+03 3.982259368896484375e+01 7.656231880187988281e+00 -4.803498741239309311e-03 2.052208641543984413e-03 -8.253870182670652866e-04 2.814782783389091492e-03
3.315000000000000000e+03 4.486603546142578125e+01 3.640688657760620117e+00 1.896130800247192383e+00 2.615608692169189453e+00 1.353521823883056641e+00 2.266151428222656250e+00
3.316000000000000000e+03 4.433956146240234375e+01 1.903199791908264160e+00 1.147592544555664062e+00 3.014874219894409180e+00 1.248740077018737793e+00 2.276901960372924805e+00
3.317000000000000000e+03 4.381307601928710938e+01 2.430534601211547852e+00 1.850820899009704590e+00 2.733422040939331055e+00 1.375272870063781738e+00 2.266806364059448242e+00
3.318000000000000000e+03 4.491188812255859375e+01 2.505633115768432617e+00 1.785107254981994629e+00 2.749457120895385742e+00 1.360369324684143066e+00 2.442405223846435547e+00
3.319000000000000000e+03 4.697702407836914062e+01 4.990731239318847656e+00 2.194576501846313477e+00 2.898549079895019531e+00 1.527937650680541992e+00 2.312417507171630859e+00
3.320000000000000000e+03 4.640552520751953125e+01 5.448694229125976562e+00 1.811243653297424316e+00 2.025249242782592773e+00 1.150947928428649902e+00 1.900966405868530273e+00
3.321000000000000000e+03 4.647938156127929688e+01 4.384764194488525391e+00 2.263496637344360352e+00 2.543185710906982422e+00 1.442004680633544922e+00 2.391800642013549805e+00
3.322000000000000000e+03 5.001384735107421875e+01 8.464542388916015625e+00 6.606143116950988770e-01 1.325090122222900391e+01 4.173454761505126953e+00 3.084321975708007812e+00
3.323000000000000000e+03 3.919724273681640625e+01 5.393501281738281250e+00 -2.408145694062113762e-03 -1.450949441641569138e-02 -5.075291730463504791e-03 6.713370326906442642e-03
3.324000000000000000e+03 3.960765457153320312e+01 -1.650656509399414062e+01 3.746928870677947998e-01 6.456593275070190430e-01 3.061056733131408691e-01 2.318062782287597656e+00
3.325000000000000000e+03 3.889395904541015625e+01 -1.616198348999023438e+01 -1.608134508132934570e+00 -1.197227239608764648e+00 -8.416085243225097656e-01 1.180243492126464844e+00
3.326000000000000000e+03 2.558369255065917969e+01 -5.150162696838378906e+00 -1.827463954687118530e-01 -1.571852564811706543e-01 -1.019794940948486328e-01 2.930583953857421875e-01
3.327000000000000000e+03 2.509720039367675781e+01 -4.439057350158691406e+00 -9.120780229568481445e-02 -3.718071281909942627e-01 -1.389044821262359619e-01 2.469813376665115356e-01
3.328000000000000000e+03 2.404749488830566406e+01 -2.118676185607910156e+00 1.655475646257400513e-01 -4.023516476154327393e-01 -7.104123383760452271e-02 4.722110554575920105e-02
3.329000000000000000e+03 2.173966026306152344e+01 7.105354666709899902e-01 -8.106370456516742706e-03 -5.191860347986221313e-02 -1.800749264657497406e-02 -1.425983197987079620e-02
3.330000000000000000e+03 2.113900375366210938e+01 -4.538633525371551514e-01 1.337671093642711639e-02 -8.227201178669929504e-03 1.544852857477962971e-03 -2.511120866984128952e-03
3.331000000000000000e+03 1.622320556640625000e+01 -4.070911884307861328e+00 -3.322570025920867920e-02 -3.249754197895526886e-03 -1.094263605773448944e-02 1.703009009361267090e-02
3.332000000000000000e+03 1.728114509582519531e+01 -4.970016002655029297e+00 -4.862745851278305054e-02 -1.042355783283710480e-02 -1.771530508995056152e-02 2.814007923007011414e-02
3.333000000000000000e+03 2.263933181762695312e+01 -1.325570106506347656e+00 4.181082919239997864e-02 -2.251278758049011230e-01 -5.499511584639549255e-02 1.380244549363851547e-02
3.334000000000000000e+03 1.929296493530273438e+01 -8.314934730529785156e+00 -1.837396025657653809e-01 7.446895819157361984e-03 -5.288781225681304932e-02 4.268903285264968872e-02
3.335000000000000000e+03 2.411448097229003906e+01 -3.136538982391357422e+00 3.545077145099639893e-02 -4.509016275405883789e-01 -1.246352568268775940e-01 1.682374030351638794e-01
3.336000000000000000e+03 2.462225341796875000e+01 -3.764078140258789062e+00 -4.050772637128829956e-02 -4.305000007152557373e-01 -1.413023173809051514e-01 2.136589139699935913e-01
3.337000000000000000e+03 1.908620834350585938e+01 -7.446221351623535156e+00 -1.420073807239532471e-01 -8.731437847018241882e-03 -4.522164538502693176e-02 5.647853016853332520e-02
3.338000000000000000e+03 1.876131248474121094e+01 -5.563257217407226562e+00 -5.904798582196235657e-02 -3.528014943003654480e-02 -2.829843945801258087e-02 4.269323125481605530e-02
3.339000000000000000e+03 1.773719978332519531e+01 -6.539600849151611328e+00 -1.005480810999870300e-01 -8.016978972591459751e-04 -3.040493465960025787e-02 3.409235924482345581e-02
3.340000000000000000e+03 1.822525596618652344e+01 -4.990226268768310547e+00 -4.255742579698562622e-02 -2.478491701185703278e-02 -2.020270377397537231e-02 3.478891775012016296e-02
3.341000000000000000e+03 3.453270339965820312e+01 -3.698519170284271240e-01 6.222443580627441406e-01 -3.387583792209625244e-01 8.504579961299896240e-02 1.571411453187465668e-02
3.342000000000000000e+03 4.021651077270507812e+01 1.340410995483398438e+01 -9.918482303619384766e-01 3.146471381187438965e-01 -2.031603157520294189e-01 1.675621569156646729e-01
3.343000000000000000e+03 2.492597579956054688e+01 1.401757144927978516e+01 1.786870360374450684e-01 4.914962649345397949e-01 2.010549902915954590e-01 2.461723387241363525e-01
3.344000000000000000e+03 2.427867889404296875e+01 1.224501037597656250e+01 6.578747928142547607e-02 2.467464506626129150e-01 9.376017749309539795e-02 1.170733273029327393e-01
3.345000000000000000e+03 1.988702964782714844e+01 8.892101287841796875e+00 2.965491451323032379e-02 5.365147814154624939e-02 2.499191835522651672e-02 3.361519798636436462e-02
3.346000000000000000e+03 2.050492286682128906e+01 9.335451126098632812e+00 2.671164833009243011e-02 6.461282074451446533e-02 2.739734016358852386e-02 4.942250996828079224e-02
3.347000000000000000e+03 2.161207771301269531e+01 9.272253990173339844e+00 -2.288387343287467957e-02 8.292378485202789307e-02 1.801197417080402374e-02 3.328413888812065125e-02
3.348000000000000000e+03 1.602690696716308594e+01 6.930782794952392578e+00 1.133395582437515259e-01 5.346781760454177856e-02 5.004221573472023010e-02 7.095693051815032959e-02
3.349000000000000000e+03 1.731058120727539062e+01 6.643400192260742188e+00 -1.356337219476699829e-02 -6.065640598535537720e-03 -5.888703744858503342e-03 -1.060167700052261353e-02
3.350000000000000000e+03 1.875572967529296875e+01 7.988115310668945312e+00 3.670619428157806396e-02 2.117848210036754608e-02 1.736540347337722778e-02 1.931981556117534637e-02
3.351000000000000000e+03 2.303311920166015625e+01 1.121761035919189453e+01 5.646662041544914246e-02 1.450754702091217041e-01 6.046262755990028381e-02 1.043761819601058960e-01
3.352000000000000000e+03 1.808525657653808594e+01 7.134509086608886719e+00 -6.278083194047212601e-03 8.986214175820350647e-03 8.124393643811345100e-04 -1.049923244863748550e-02
3.353000000000000000e+03 4.077533721923828125e+01 -1.411284255981445312e+01 -2.781623601913452148e-01 8.315546989440917969e+00 2.411215305328369141e+00 9.158170968294143677e-02
3.354000000000000000e+03 4.163698577880859375e+01 -1.337231922149658203e+01 2.016700804233551025e-01 6.494343757629394531e+00 2.008804082870483398e+00 7.940405607223510742e-01
3.355000000000000000e+03 2.909358596801757812e+01 -3.010375261306762695e+00 3.455423116683959961e-01 9.653736352920532227e-01 3.932747840881347656e-01 4.317947328090667725e-01
3.356000000000000000e+03 3.066896247863769531e+01 -4.998538017272949219e+00 -1.211245171725749969e-02 6.396808028221130371e-01 1.882705092430114746e-01 -1.041408777236938477e-01
3.357000000000000000e+03 3.207229995727539062e+01 -9.713990211486816406e+00 -3.001976609230041504e-01 -9.320939332246780396e-02 -1.180221214890480042e-01 2.467391192913055420e-01
3.358000000000000000e+03 3.652017211914062500e+01 -3.362319231033325195e+00 3.584361374378204346e-01 -1.223578810691833496e+00 -2.595428228378295898e-01 1.413043588399887085e-01
3.359000000000000000e+03 2.977165603637695312e+01 -4.434710979461669922e+00 -5.226507037878036499e-02 8.365184068679809570e-01 2.352759987115859985e-01 1.250948756933212280e-01
3.360000000000000000e+03 4.172519683837890625e+01 -1.096308612823486328e+01 -1.099382519721984863e+00 5.121962070465087891e+00 1.206773877143859863e+00 1.629315495491027832e+00
3.361000000000000000e+03 4.109113311767578125e+01 -1.134374237060546875e+01 -8.259216547012329102e-01 4.741670608520507812e+00 1.174724698066711426e+00 1.015938520431518555e+00
3.362000000000000000e+03 4.008303451538085938e+01 -1.092115783691406250e+01 -3.246904909610748291e-01 1.794312953948974609e+00 4.408867359161376953e-01 1.941559612751007080e-01
3.363000000000000000e+03 3.471210861206054688e+01 -1.573777318000793457e+00 3.882106840610504150e-01 -4.231168925762176514e-01 -1.047186646610498428e-02 -4.913050681352615356e-02
3.364000000000000000e+03 3.480506896972656250e+01 -2.748720407485961914e+00 -3.964568674564361572e-02 -4.337788522243499756e-01 -1.420273631811141968e-01 1.248137578368186951e-01
3.365000000000000000e+03 3.128296852111816406e+01 -6.509716510772705078e+00 -4.059461504220962524e-02 2.247999608516693115e-01 5.526160448789596558e-02 -2.410172298550605774e-02
3.366000000000000000e+03 3.603820800781250000e+01 -1.470544815063476562e+01 -1.030007243156433105e+00 -3.467252850532531738e-01 -4.130197763442993164e-01 6.044051051139831543e-01
3.367000000000000000e+03 3.818957519531250000e+01 -7.309880733489990234e+00 -1.020417332649230957e+00 -2.573692560195922852e+00 -1.078232884407043457e+00 1.670984148979187012e+00
3.368000000000000000e+03 3.688102340698242188e+01 -1.588520622253417969e+01 -1.174170017242431641e+00 -1.141628921031951904e-01 -3.864998817443847656e-01 5.014950633049011230e-01
3.369000000000000000e+03 3.275005340576171875e+01 -1.217771434783935547e+01 -5.868347883224487305e-01 -7.321672141551971436e-02 -1.980154663324356079e-01 2.935126125812530518e-01
3.370000000000000000e+03 3.592222595214843750e+01 -2.728169679641723633e+00 2.904245257377624512e-01 -9.332898259162902832e-01 -1.928595900535583496e-01 4.300044849514961243e-02
3.371000000000000000e+03 3.744996643066406250e+01 -4.781026840209960938e+00 1.528522521257400513e-01 -1.636574625968933105e+00 -4.451167285442352295e-01 4.673840999603271484e-01
3.372000000000000000e+03 3.979349899291992188e+01 -8.262771606445312500e+00 -8.092960119247436523e-01 4.066499769687652588e-01 -1.207938045263290405e-01 1.163045406341552734e+00
3.373000000000000000e+03 7.949678802490234375e+01 3.255167007446289062e+01 -3.485252091195434332e-04 6.427064895629882812e+00 1.928014993667602539e+00 2.504878491163253784e-02
3.374000000000000000e+03 7.954415893554687500e+01 4.121667861938476562e+01 -4.179968964308500290e-03 6.663119792938232422e+00 1.997681856155395508e+00 -2.000804059207439423e-03
3.375000000000000000e+03 7.837551116943359375e+01 3.670565414428710938e+01 5.426754243671894073e-03 6.496043205261230469e+00 1.950441002845764160e+00 4.053857922554016113e-02
3.376000000000000000e+03 7.846399688720703125e+01 3.505372238159179688e+01 -1.432651374489068985e-02 6.449003696441650391e+00 1.930403113365173340e+00 5.135180428624153137e-02
3.377000000000000000e+03 7.958949279785156250e+01 1.084845829010009766e+01 -1.213249564170837402e-02 6.474050045013427734e+00 1.938575267791748047e+00 1.367499232292175293e-01
3.378000000000000000e+03 7.958820343017578125e+01 1.165659141540527344e+01 -8.818813413381576538e-02 6.658865928649902344e+00 1.971203327178955078e+00 4.309957474470138550e-02
3.379000000000000000e+03 7.959092712402343750e+01 1.246223068237304688e+01 1.415406540036201477e-02 6.670320987701416016e+00 2.005342483520507812e+00 -3.658639639616012573e-02
3.380000000000000000e+03 7.960057067871093750e+01 1.326499366760253906e+01 -5.347258597612380981e-02 6.570815563201904297e+00 1.955202817916870117e+00 -7.009836286306381226e-02
3.381000000000000000e+03 7.961314392089843750e+01 1.406716060638427734e+01 3.023714199662208557e-02 6.398280620574951172e+00 1.928555369377136230e+00 -1.008428558707237244e-01
3.382000000000000000e+03 7.962435150146484375e+01 1.566402435302734375e+01 2.914808876812458038e-02 6.015757083892822266e+00 1.813471555709838867e+00 -8.541230112314224243e-02
3.383000000000000000e+03 7.954420471191406250e+01 2.288148117065429688e+01 4.410979337990283966e-03 5.770388126373291016e+00 1.732439756393432617e+00 3.536813706159591675e-02
3.384000000000000000e+03 7.953813171386718750e+01 2.369218826293945312e+01 -1.683008158579468727e-03 5.831090450286865234e+00 1.748822212219238281e+00 3.804399818181991577e-02
3.385000000000000000e+03 7.953437042236328125e+01 2.450290107727050781e+01 3.175926161929965019e-03 5.894910335540771484e+00 1.769425749778747559e+00 3.899464383721351624e-02
3.386000000000000000e+03 7.960275268554687500e+01 1.805312538146972656e+01 3.303288714960217476e-03 5.670109272003173828e+00 1.702023744583129883e+00 -2.604033984243869781e-02
3.387000000000000000e+03 7.957547760009765625e+01 1.965372467041015625e+01 6.447985302656888962e-03 5.620601654052734375e+00 1.688114881515502930e+00 3.669129451736807823e-03
3.388000000000000000e+03 7.956574249267578125e+01 2.045855140686035156e+01 4.611825104802846909e-03 5.634628772735595703e+00 1.691772222518920898e+00 1.387825701385736465e-02
3.389000000000000000e+03 7.861446380615234375e+01 2.623096084594726562e+01 -5.426962859928607941e-03 6.049153327941894531e+00 1.813117980957031250e+00 1.018049269914627075e-01
3.390000000000000000e+03 7.954825592041015625e+01 2.852120399475097656e+01 -3.253140719607472420e-03 6.198554992675781250e+00 1.858590602874755859e+00 3.364360332489013672e-02
3.391000000000000000e+03 7.952980041503906250e+01 3.012423515319824219e+01 -7.613840862177312374e-04 6.303318977355957031e+00 1.890767216682434082e+00 3.112492896616458893e-02
3.392000000000000000e+03 7.962389373779296875e+01 3.725122511386871338e-01 -1.182932034134864807e-01 1.440237998962402344e+01 4.285226345062255859e+00 -1.193489655852317810e-01
3.393000000000000000e+03 7.960797119140625000e+01 2.814542531967163086e+00 -1.023399233818054199e-01 1.189817714691162109e+01 3.538751363754272461e+00 -7.640186548233032227e-01
3.394000000000000000e+03 7.881046295166015625e+01 1.988615393638610840e+00 -4.675509631633758545e-01 1.191540336608886719e+01 3.434355735778808594e+00 -1.417838096618652344e+00
3.395000000000000000e+03 7.963020324707031250e+01 3.619411230087280273e+00 7.356626540422439575e-02 1.036056995391845703e+01 3.130240917205810547e+00 -8.059201836585998535e-01
3.396000000000000000e+03 7.890571594238281250e+01 3.662163019180297852e+00 -7.940061390399932861e-02 1.037138652801513672e+01 3.087595939636230469e+00 -2.054152727127075195e+00
3.397000000000000000e+03 7.964729309082031250e+01 5.208340167999267578e+00 1.996175497770309448e-01 7.166332244873046875e+00 2.209784984588623047e+00 -6.190530061721801758e-01
3.398000000000000000e+03 7.959734344482421875e+01 9.218210220336914062e+00 4.999704658985137939e-02 5.580206871032714844e+00 1.689061284065246582e+00 2.823569476604461670e-01
3.399000000000000000e+03 7.876358795166015625e+01 4.024190139770507812e+01 -1.312774512916803360e-02 6.558878421783447266e+00 1.963725328445434570e+00 1.819366030395030975e-02
3.400000000000000000e+03 7.884194183349609375e+01 -1.570920085906982422e+01 4.015782102942466736e-02 7.562353134155273438e+00 2.280753374099731445e+00 -3.681077957153320312e-01
3.401000000000000000e+03 7.961215209960937500e+01 -1.485556793212890625e+01 2.227081172168254852e-02 6.929282665252685547e+00 2.085466146469116211e+00 -1.251899003982543945e-01
3.402000000000000000e+03 7.961727905273437500e+01 -1.244834136962890625e+01 1.789686642587184906e-02 6.585756301879882812e+00 1.981095910072326660e+00 1.130005251616239548e-02
3.403000000000000000e+03 7.884947204589843750e+01 -1.408471775054931641e+01 1.034757420420646667e-01 7.287403583526611328e+00 2.217263698577880859e+00 -2.154514342546463013e-01
3.404000000000000000e+03 7.961334228515625000e+01 -1.164874744415283203e+01 3.663542866706848145e-02 6.681091308593750000e+00 2.015318155288696289e+00 6.950064748525619507e-02
3.405000000000000000e+03 7.960845947265625000e+01 -1.084813785552978516e+01 2.034010738134384155e-02 6.890566349029541016e+00 2.073271989822387695e+00 1.274364739656448364e-01
3.406000000000000000e+03 7.960581207275390625e+01 -1.004625606536865234e+01 3.223733976483345032e-02 7.210164070129394531e+00 2.172720432281494141e+00 1.818341463804244995e-01
3.407000000000000000e+03 7.960862731933593750e+01 -9.243288040161132812e+00 1.078959833830595016e-02 7.623106956481933594e+00 2.290169000625610352e+00 2.244004905223846436e-01
3.408000000000000000e+03 7.961676788330078125e+01 -8.440254211425781250e+00 2.714957110583782196e-02 8.126334190368652344e+00 2.446044921875000000e+00 2.643766403198242188e-01
3.409000000000000000e+03 7.963622283935546875e+01 -6.041798114776611328e+00 -1.521023176610469818e-02 1.003269100189208984e+01 3.005244016647338867e+00 3.176937401294708252e-01
3.410000000000000000e+03 7.962745666503906250e+01 -5.240199089050292969e+00 3.635174036026000977e-02 1.075519084930419922e+01 3.237462997436523438e+00 3.443686068058013916e-01
3.411000000000000000e+03 7.961882781982421875e+01 -4.438778400421142578e+00 -3.990499675273895264e-02 1.147203445434570312e+01 3.429638862609863281e+00 3.350841104984283447e-01
3.412000000000000000e+03 7.963257598876953125e+01 -3.636846780776977539e+00 3.453605249524116516e-02 1.217846393585205078e+01 3.663900136947631836e+00 3.346602022647857666e-01
3.413000000000000000e+03 7.965343475341796875e+01 -2.833354473114013672e+00 -6.216881051659584045e-02 1.291071128845214844e+01 3.854562520980834961e+00 2.960466146469116211e-01
3.414000000000000000e+03 7.964857482910156250e+01 -2.033186435699462891e+00 2.759657800197601318e-02 1.359541225433349609e+01 4.086902618408203125e+00 2.617958486080169678e-01
3.415000000000000000e+03 7.962718200683593750e+01 -1.238136410713195801e+00 -9.649590402841567993e-02 1.412139129638671875e+01 4.207468509674072266e+00 1.753828972578048706e-01
3.416000000000000000e+03 7.950038146972656250e+01 -4.042285919189453125e+01 7.447016891092061996e-03 8.021446228027343750e+00 2.408667802810668945e+00 -1.272362098097801208e-02
3.417000000000000000e+03 7.947814178466796875e+01 -3.961350631713867188e+01 2.757208654657006264e-03 8.008655548095703125e+00 2.403423786163330078e+00 -3.611608175560832024e-03
3.418000000000000000e+03 7.942926025390625000e+01 -3.878555679321289062e+01 2.159542404115200043e-03 8.007339477539062500e+00 2.402849674224853516e+00 -2.307056274730712175e-05
3.419000000000000000e+03 7.944564056396484375e+01 -3.797625732421875000e+01 5.308412481099367142e-03 8.011876106262207031e+00 2.405155181884765625e+00 4.497732501477003098e-03
3.420000000000000000e+03 7.952359771728515625e+01 -3.719742584228515625e+01 -2.320108702406287193e-03 8.024004936218261719e+00 2.406505346298217773e+00 8.284277282655239105e-03
3.421000000000000000e+03 7.956874847412109375e+01 -3.641658401489257812e+01 1.805876148864626884e-03 8.043068885803222656e+00 2.413462400436401367e+00 7.185609545558691025e-03
3.422000000000000000e+03 7.956879425048828125e+01 -3.562828063964843750e+01 -1.834245631471276283e-03 8.061837196350097656e+00 2.418000936508178711e+00 7.623791694641113281e-03
3.423000000000000000e+03 7.957025909423828125e+01 -3.484030532836914062e+01 5.246949382126331329e-03 8.083592414855957031e+00 2.426651716232299805e+00 1.006315276026725769e-02
3.424000000000000000e+03 7.958273315429687500e+01 -3.325473403930664062e+01 5.560114979743957520e-03 8.129270553588867188e+00 2.440449237823486328e+00 5.942866671830415726e-03
3.425000000000000000e+03 7.958845520019531250e+01 -3.246216583251953125e+01 -3.109669312834739685e-03 8.151221275329589844e+00 2.444433450698852539e+00 8.709979243576526642e-03
3.426000000000000000e+03 7.959424591064453125e+01 -3.166708564758300781e+01 4.935076460242271423e-03 8.178809165954589844e+00 2.455123424530029297e+00 1.031141169369220734e-02
3.427000000000000000e+03 7.959809875488281250e+01 -3.087097167968750000e+01 -5.863598547875881195e-03 8.208285331726074219e+00 2.460726499557495117e+00 9.546859189867973328e-03
3.428000000000000000e+03 7.959863281250000000e+01 -3.007576751708984375e+01 8.582789450883865356e-03 8.240901947021484375e+00 2.474845647811889648e+00 1.230131089687347412e-02
3.429000000000000000e+03 7.959616088867187500e+01 -2.928118705749511719e+01 -6.349007133394479752e-03 8.278959274291992188e+00 2.481783151626586914e+00 1.430417876690626144e-02
3.430000000000000000e+03 7.959241485595703125e+01 -2.848496627807617188e+01 8.382393978536128998e-03 8.322227478027343750e+00 2.499182939529418945e+00 1.684069074690341949e-02
3.431000000000000000e+03 7.959008789062500000e+01 -2.768624496459960938e+01 -6.022500805556774139e-03 8.370121955871582031e+00 2.509229898452758789e+00 1.860337704420089722e-02
3.432000000000000000e+03 7.958878326416015625e+01 -2.688611602783203125e+01 6.827767938375473022e-03 8.422150611877441406e+00 2.528693437576293945e+00 1.999419555068016052e-02
3.433000000000000000e+03 7.958844757080078125e+01 -2.608427047729492188e+01 -6.368448492139577866e-03 8.476064682006835938e+00 2.540909051895141602e+00 1.989271305501461029e-02
3.434000000000000000e+03 7.958783721923828125e+01 -2.528115653991699219e+01 4.542693961411714554e-03 8.530039787292480469e+00 2.560374736785888672e+00 1.856297440826892853e-02
3.435000000000000000e+03 7.958673095703125000e+01 -2.447760772705078125e+01 -8.076980710029602051e-03 8.579618453979492188e+00 2.571462631225585938e+00 1.472253166139125824e-02
3.436000000000000000e+03 7.958591461181640625e+01 -2.367335128784179688e+01 1.394597813487052917e-03 8.620901107788085938e+00 2.586688756942749023e+00 8.467621169984340668e-03
3.437000000000000000e+03 7.958621978759765625e+01 -2.286923408508300781e+01 -1.190364640206098557e-02 8.646842956542968750e+00 2.590481758117675781e+00 -1.995909493416547775e-03
3.438000000000000000e+03 7.958900451660156250e+01 -2.206588745117187500e+01 -2.534257015213370323e-03 8.650710105895996094e+00 2.594452619552612305e+00 -1.601065509021282196e-02
3.439000000000000000e+03 7.959527587890625000e+01 -2.126420783996582031e+01 -1.552047301083803177e-02 8.624237060546875000e+00 2.582614898681640625e+00 -3.396802023053169250e-02
3.440000000000000000e+03 7.961589813232421875e+01 -1.966802024841308594e+01 -1.932030543684959412e-02 8.447743415832519531e+00 2.528526782989501953e+00 -7.948183268308639526e-02
3.441000000000000000e+03 7.962470245361328125e+01 -1.886867904663085938e+01 -5.096121691167354584e-03 8.278588294982910156e+00 2.482047557830810547e+00 -1.051356270909309387e-01
3.442000000000000000e+03 7.962955474853515625e+01 -1.806637191772460938e+01 -1.388790272176265717e-02 8.055804252624511719e+00 2.412574768066406250e+00 -1.262587457895278931e-01
3.443000000000000000e+03 7.962918853759765625e+01 -1.726440811157226562e+01 -9.038650430738925934e-03 7.779836177825927734e+00 2.331239223480224609e+00 -1.518113911151885986e-01
3.444000000000000000e+03 7.962368774414062500e+01 -1.646229362487792969e+01 8.658716455101966858e-03 7.479407310485839844e+00 2.246419906616210938e+00 -1.511367857456207275e-01
3.445000000000000000e+03 7.960231781005859375e+01 7.597210884094238281e+00 6.688330322504043579e-02 4.961456775665283203e+00 1.508502006530761719e+00 -5.231595132499933243e-03
3.446000000000000000e+03 7.882445526123046875e+01 6.739512920379638672e+00 4.519523382186889648e-01 7.630447864532470703e+00 2.424720048904418945e+00 -7.470857501029968262e-01
3.447000000000000000e+03 7.846807861328125000e+01 3.186981773376464844e+01 -9.995661675930023193e-03 6.347596645355224609e+00 1.901280283927917480e+00 7.289272546768188477e-02
3.448000000000000000e+03 7.848136901855468750e+01 3.583502197265625000e+01 -1.497194403782486916e-03 6.482013225555419922e+00 1.944154858589172363e+00 3.959175199270248413e-02
3.449000000000000000e+03 7.875269317626953125e+01 3.876773071289062500e+01 -2.240386093035340309e-03 6.554344177246093750e+00 1.965631127357482910e+00 1.769630797207355499e-02
3.450000000000000000e+03 7.857266998291015625e+01 3.350657272338867188e+01 -3.937167581170797348e-03 6.404143333435058594e+00 1.920061826705932617e+00 5.706901475787162781e-02
3.451000000000000000e+03 7.885018920898437500e+01 -5.042170286178588867e-01 -3.360983431339263916e-01 1.250760936737060547e+01 3.651453256607055664e+00 2.985887229442596436e-01
3.452000000000000000e+03 7.868542480468750000e+01 -3.475519943237304688e+01 -7.909796200692653656e-03 7.936897277832031250e+00 2.378696203231811523e+00 2.571100927889347076e-02
3.453000000000000000e+03 1.295724511146545410e+00 2.915296173095703125e+01 4.563330439850687981e-04 -3.166892826557159424e-01 -9.486988931894302368e-02 3.733284026384353638e-02
3.454000000000000000e+03 4.293498694896697998e-01 2.840465545654296875e+01 4.490026913117617369e-04 -3.121219575405120850e-01 -9.350188821554183960e-02 1.271456293761730194e-02
3.455000000000000000e+03 4.502568840980529785e-01 2.597706985473632812e+01 -8.348857518285512924e-04 -2.410195618867874146e-01 -7.255633175373077393e-02 1.214285288006067276e-02
3.456000000000000000e+03 4.916085898876190186e-01 4.042867660522460938e+01 7.216992671601474285e-04 -5.668061375617980957e-01 -1.698253303766250610e-01 5.848470609635114670e-03
3.457000000000000000e+03 5.126122832298278809e-01 3.962351989746093750e+01 9.658201597630977631e-04 -5.561003684997558594e-01 -1.665403544902801514e-01 7.253990042954683304e-03
3.458000000000000000e+03 5.644013881683349609e-01 3.880323410034179688e+01 -9.891708614304661751e-04 -5.451263785362243652e-01 -1.638346612453460693e-01 7.454360835254192352e-03
3.459000000000000000e+03 5.664655566215515137e-01 3.798732376098632812e+01 8.412522729486227036e-04 -5.350991487503051758e-01 -1.602773666381835938e-01 7.095028646290302277e-03
3.460000000000000000e+03 5.160874128341674805e-01 3.718282318115234375e+01 -1.136097926064394414e-04 -5.241748094558715820e-01 -1.572865247726440430e-01 7.768911775201559067e-03
3.461000000000000000e+03 4.633647799491882324e-01 3.638682556152343750e+01 -7.767198258079588413e-04 -5.116735696792602539e-01 -1.537350863218307495e-01 7.181721739470958710e-03
3.462000000000000000e+03 1.251047492027282715e+00 3.544290161132812500e+01 2.632512012496590614e-03 -4.656424522399902344e-01 -1.389029771089553833e-01 2.230255119502544403e-02
3.463000000000000000e+03 4.230517446994781494e-01 3.321951293945312500e+01 3.291464527137577534e-04 -4.478616118431091309e-01 -1.342597454786300659e-01 1.063380204141139984e-02
3.464000000000000000e+03 4.340019226074218750e-01 3.241932296752929688e+01 4.884013906121253967e-04 -4.272506237030029297e-01 -1.280286759138107300e-01 1.134512200951576233e-02
3.465000000000000000e+03 4.397685229778289795e-01 3.161720466613769531e+01 3.673610335681587458e-04 -4.056244194507598877e-01 -1.215771138668060303e-01 1.217331178486347198e-02
3.466000000000000000e+03 4.396358132362365723e-01 3.081458091735839844e+01 3.071101673413068056e-05 -3.830520212650299072e-01 -1.149064004421234131e-01 1.251718960702419281e-02
3.467000000000000000e+03 4.357400536537170410e-01 3.001138877868652344e+01 2.534849627409130335e-04 -3.597283363342285156e-01 -1.078424528241157532e-01 1.279732491821050644e-02
3.468000000000000000e+03 4.111910760402679443e-01 2.436087608337402344e+01 -1.535601099021732807e-03 -1.990398019552230835e-01 -6.017262116074562073e-02 1.061120443046092987e-02
3.469000000000000000e+03 2.194559812545776367e+00 2.602718734741210938e+01 -3.514928976073861122e-03 -2.228718549013137817e-01 -6.791603565216064453e-02 5.500881373882293701e-02
3.470000000000000000e+03 3.722972869873046875e-01 2.276389122009277344e+01 -1.102876733057200909e-03 -1.607867479324340820e-01 -4.856688529253005981e-02 7.838963530957698822e-03
3.471000000000000000e+03 1.592803239822387695e+00 -3.624918746948242188e+01 6.139763863757252693e-04 -4.324949681758880615e-01 -1.295643001794815063e-01 -1.510365772992372513e-02
3.472000000000000000e+03 3.807815015316009521e-01 2.117189788818359375e+01 -9.652736480347812176e-04 -1.300483644008636475e-01 -3.930409252643585205e-02 6.411857437342405319e-03
3.473000000000000000e+03 1.116024136543273926e+00 -3.547194242477416992e+00 -3.872643865179270506e-04 -7.241845742100849748e-05 -1.379048480885103345e-04 -1.146587455878034234e-04
3.474000000000000000e+03 3.585488796234130859e-01 -5.939496040344238281e+00 -4.455907037481665611e-05 -1.580879616085439920e-04 -6.079410741222091019e-05 -8.172756060957908630e-04
3.475000000000000000e+03 3.634172976016998291e-01 -7.532836437225341797e+00 -3.220617873012088239e-05 -5.414748098701238632e-03 -1.634086249396204948e-03 -1.574096735566854477e-03
3.476000000000000000e+03 1.095092773437500000e+00 -7.539372920989990234e+00 -1.105809002183377743e-03 -9.339561685919761658e-03 -3.133611055091023445e-03 -4.830529447644948959e-03
3.477000000000000000e+03 3.661808669567108154e-01 -8.326878547668457031e+00 -3.882387536577880383e-04 -9.377616457641124725e-03 -2.929756650701165199e-03 -2.014727331697940826e-03
3.478000000000000000e+03 3.583286106586456299e-01 -1.150623989105224609e+01 -4.359488957561552525e-04 -3.488791361451148987e-02 -1.059715822339057922e-02 -3.723183879628777504e-03
3.479000000000000000e+03 3.613700866699218750e-01 -1.229876232147216797e+01 2.302492430317215621e-05 -4.382815584540367126e-02 -1.314153894782066345e-02 -4.158411640673875809e-03
3.480000000000000000e+03 4.261793792247772217e-01 -1.388663578033447266e+01 -7.442390779033303261e-04 -6.548566371202468872e-02 -1.986897177994251251e-02 -6.252307910472154617e-03
3.481000000000000000e+03 4.513830244541168213e-01 -1.640316772460937500e+01 5.468521849252283573e-04 -1.062193959951400757e-01 -3.170176222920417786e-02 -8.454949595034122467e-03
3.482000000000000000e+03 3.975058495998382568e-01 -1.800297546386718750e+01 -1.758534199325367808e-04 -1.374438256025314331e-01 -4.128590226173400879e-02 -7.786325179040431976e-03
3.483000000000000000e+03 1.190528273582458496e+00 -1.805423736572265625e+01 -6.474348483607172966e-04 -1.322923451662063599e-01 -3.988193348050117493e-02 -2.279456332325935364e-02
3.484000000000000000e+03 3.965074717998504639e-01 -1.879927635192871094e+01 -8.793123015493620187e-06 -1.535960286855697632e-01 -4.608144611120223999e-02 -8.021674118936061859e-03
3.485000000000000000e+03 4.612433314323425293e-01 -4.046678543090820312e+01 -7.036949042230844498e-03 -5.196446180343627930e-01 -1.580044627189636230e-01 -5.495469085872173309e-03
3.486000000000000000e+03 1.116700530052185059e+00 2.191677474975585938e+01 -2.193523105233907700e-03 -1.447280049324035645e-01 -4.407645761966705322e-02 2.077509835362434387e-02
3.487000000000000000e+03 4.103054106235504150e-01 1.875387954711914062e+01 6.489050574600696564e-04 -9.736046940088272095e-02 -2.901346981525421143e-02 4.187300801277160645e-03
3.488000000000000000e+03 1.197936773300170898e+00 2.034882354736328125e+01 -2.443582518026232719e-03 -1.190041005611419678e-01 -3.643430396914482117e-02 1.730904914438724518e-02
3.489000000000000000e+03 3.612032234668731689e-01 1.715306091308593750e+01 9.077371796593070030e-04 -8.296745270490646362e-02 -2.461791597306728363e-02 2.532457234337925911e-03
3.490000000000000000e+03 3.493763804435729980e-01 1.556274604797363281e+01 1.308757928200066090e-03 -7.381520420312881470e-02 -2.175193279981613159e-02 1.529188826680183411e-03
3.491000000000000000e+03 3.567128479480743408e-01 1.397118282318115234e+01 1.502378261648118496e-03 -6.728564202785491943e-02 -1.973498053848743439e-02 1.425582566298544407e-03
3.492000000000000000e+03 3.665311038494110107e-01 1.237343406677246094e+01 1.653159386478364468e-03 -5.993100255727767944e-02 -1.748335361480712891e-02 2.039310522377490997e-03
3.493000000000000000e+03 1.074720501899719238e+00 1.399716186523437500e+01 -9.519236045889556408e-04 -6.508525460958480835e-02 -1.981115341186523438e-02 4.481395706534385681e-03
3.494000000000000000e+03 3.774150311946868896e-01 1.076906013488769531e+01 1.659210422076284885e-03 -4.885689914226531982e-02 -1.415930688381195068e-02 3.168008290231227875e-03
3.495000000000000000e+03 1.100812435150146484e+00 1.241971588134765625e+01 -2.432863402646034956e-04 -5.693000555038452148e-02 -1.715198718011379242e-02 5.893413443118333817e-03
3.496000000000000000e+03 3.926390707492828369e-01 9.158059120178222656e+00 8.852849714457988739e-04 -3.322961553931236267e-02 -9.703299030661582947e-03 3.953132312744855881e-03
3.497000000000000000e+03 1.129560112953186035e+00 1.082355308532714844e+01 9.045905608218163252e-05 -4.661564528942108154e-02 -1.395755633711814880e-02 8.967692963778972626e-03
3.498000000000000000e+03 3.916372656822204590e-01 6.740417957305908203e+00 3.989972465205937624e-04 -8.428958244621753693e-03 -2.408988308161497116e-03 3.759173210710287094e-03
3.499000000000000000e+03 1.199301719665527344e+00 8.393822669982910156e+00 1.016629044897854328e-03 -2.570265904068946838e-02 -7.405809126794338226e-03 1.149845402687788010e-02
3.500000000000000000e+03 4.019972383975982666e-01 5.104343891143798828e+00 9.141975897364318371e-04 1.627292833290994167e-03 7.624471327289938927e-04 1.506149419583380222e-03
3.501000000000000000e+03 1.164096117019653320e+00 6.765434741973876953e+00 -7.866357918828725815e-04 -1.204239763319492340e-02 -3.848709864541888237e-03 9.501485154032707214e-03
3.502000000000000000e+03 3.712801337242126465e-01 3.477956295013427734e+00 1.284899772144854069e-03 4.152101464569568634e-03 1.631100429221987724e-03 -3.434072132222354412e-04
3.503000000000000000e+03 1.205529808998107910e+00 5.077523231506347656e+00 -2.108650514855980873e-03 -1.962014008313417435e-03 -1.221199287101626396e-03 3.605142235755920410e-03
3.504000000000000000e+03 4.096223115921020508e-01 -2.039345550537109375e+01 8.606803021393716335e-05 -1.872276216745376587e-01 -5.614246428012847900e-02 -8.695725351572036743e-03
3.505000000000000000e+03 4.257748425006866455e-01 -2.199163627624511719e+01 1.782894541975110769e-04 -2.221909910440444946e-01 -6.660380959510803223e-02 -9.364095516502857208e-03
3.506000000000000000e+03 1.299214482307434082e+00 -2.515122604370117188e+01 3.248051798436790705e-04 -2.705173194408416748e-01 -8.105775713920593262e-02 -2.852348238229751587e-02
3.507000000000000000e+03 1.307927727699279785e+00 -2.435905647277832031e+01 -5.738243635278195143e-05 -2.538982331752777100e-01 -7.618667930364608765e-02 -2.859517559409141541e-02
3.508000000000000000e+03 4.411721825599670410e-01 -2.680196571350097656e+01 4.178721574135124683e-04 -3.299666047096252441e-01 -9.886462241411209106e-02 -9.469198994338512421e-03
3.509000000000000000e+03 4.589987993240356445e-01 -2.841232299804687500e+01 7.216926314868032932e-04 -3.642164468765258789e-01 -1.090484261512756348e-01 -9.412008337676525116e-03
3.510000000000000000e+03 4.642449617385864258e-01 -3.002400016784667969e+01 -7.553979230578988791e-05 -3.960273563861846924e-01 -1.188308671116828918e-01 -9.200789965689182281e-03
3.511000000000000000e+03 4.592664837837219238e-01 -3.082464218139648438e+01 9.408642072230577469e-04 -4.114357829093933105e-01 -1.231484711170196533e-01 -8.378448896110057831e-03
3.512000000000000000e+03 4.642762243747711182e-01 -3.241912841796875000e+01 7.737010018900036812e-04 -4.379846155643463135e-01 -1.311632841825485229e-01 -6.593569647520780563e-03
3.513000000000000000e+03 4.910294413566589355e-01 -3.400523757934570312e+01 2.033957047387957573e-03 -4.598740041255950928e-01 -1.373520195484161377e-01 -5.629865918308496475e-03
3.514000000000000000e+03 2.686688423156738281e+00 -3.607983779907226562e+01 1.605581492185592651e-04 -3.891029357910156250e-01 -1.166827157139778137e-01 -2.255040220916271210e-02
3.515000000000000000e+03 5.095953941345214844e-01 -3.560016632080078125e+01 1.768129877746105194e-03 -4.779645800590515137e-01 -1.428589373826980591e-01 -5.145257804542779922e-03
3.516000000000000000e+03 5.454624891281127930e-01 -3.883180999755859375e+01 -1.073290943168103695e-03 -5.064587593078613281e-01 -1.522596180438995361e-01 -5.795924924314022064e-03
3.517000000000000000e+03 1.669828414916992188e+00 -3.876172256469726562e+01 9.638666524551808834e-04 -4.486678540706634521e-01 -1.343111991882324219e-01 -7.402752060443162918e-03
3.518000000000000000e+03 1.535161733627319336e+00 -3.963674163818359375e+01 -3.969531971961259842e-04 -4.572788476943969727e-01 -1.373027414083480835e-01 -1.121519971638917923e-02
3.519000000000000000e+03 1.384637594223022461e+00 -4.120791625976562500e+01 3.394200699403882027e-03 -4.647252559661865234e-01 -1.383993178606033325e-01 -3.661048831418156624e-03
3.520000000000000000e+03 1.637496948242187500e+00 -3.706595230102539062e+01 1.399046508595347404e-03 -4.378530979156494141e-01 -1.309362202882766724e-01 -1.576418243348598480e-02
3.521000000000000000e+03 4.339814186096191406e-01 -2.359300041198730469e+01 -5.945049633737653494e-05 -2.578836679458618164e-01 -7.738293707370758057e-02 -9.806348942220211029e-03
3.522000000000000000e+03 3.636842966079711914e-01 -9.915850639343261719e+00 -4.151496104896068573e-04 -2.013881877064704895e-02 -6.166190374642610550e-03 -2.872589277103543282e-03
3.523000000000000000e+03 2.760481834411621094e+01 2.584129333496093750e+00 -1.036471486091613770e+00 -4.703622758388519287e-01 -4.520501196384429932e-01 -6.628978252410888672e-01
3.524000000000000000e+03 6.712322998046875000e+01 -1.485836696624755859e+01 -5.501602888107299805e-01 1.379295945167541504e+00 2.487406879663467407e-01 -2.970147430896759033e-01
3.525000000000000000e+03 3.540560913085937500e+01 1.510797882080078125e+01 -1.673785209655761719e+00 -6.315193772315979004e-01 -6.915913820266723633e-01 2.232463508844375610e-01
3.526000000000000000e+03 3.359547424316406250e+01 1.474581050872802734e+01 -1.979404091835021973e+00 -2.781159281730651855e-01 -6.772559881210327148e-01 3.031607344746589661e-02
3.527000000000000000e+03 3.240705108642578125e+01 1.474474239349365234e+01 -1.449348926544189453e+00 -4.090426117181777954e-02 -4.470759630203247070e-01 1.405580043792724609e-01
3.528000000000000000e+03 3.084450721740722656e+01 1.430779361724853516e+01 -1.021578788757324219e+00 2.225479111075401306e-02 -2.997972071170806885e-01 1.687273383140563965e-03
3.529000000000000000e+03 3.106962585449218750e+01 1.273713874816894531e+01 -5.133712887763977051e-01 -1.643278747797012329e-01 -2.033097445964813232e-01 -3.037391901016235352e-01
3.530000000000000000e+03 2.927173042297363281e+01 1.258241462707519531e+01 -3.806066811084747314e-01 -1.426205933094024658e-01 -1.569681763648986816e-01 -1.456232815980911255e-01
3.531000000000000000e+03 2.535881042480468750e+01 8.795963287353515625e+00 -1.953105330467224121e-01 -8.728962391614913940e-02 -8.478004485368728638e-02 -1.487639695405960083e-01
3.532000000000000000e+03 2.480721092224121094e+01 8.178194999694824219e+00 -1.817106157541275024e-01 -8.332963287830352783e-02 -7.951207458972930908e-02 -1.266121864318847656e-01
3.533000000000000000e+03 3.040191268920898438e+01 1.226868534088134766e+01 -3.882297575473785400e-01 -1.707653850317001343e-01 -1.676985472440719604e-01 -2.234537303447723389e-01
3.534000000000000000e+03 2.913576126098632812e+01 1.330333137512207031e+01 -4.650477170944213867e-01 -8.112081140279769897e-02 -1.638505607843399048e-01 -6.617379188537597656e-02
3.535000000000000000e+03 2.721224975585937500e+01 9.491006851196289062e+00 -2.331283241510391235e-01 -2.149925380945205688e-01 -1.344362646341323853e-01 -2.332326620817184448e-01
3.536000000000000000e+03 7.747825145721435547e+00 7.416811466217041016e+00 2.976308390498161316e-02 -7.013554871082305908e-02 -1.211173925548791885e-02 7.524198293685913086e-02
3.537000000000000000e+03 6.570570468902587891e+00 6.115752220153808594e+00 -5.162744596600532532e-02 -6.126639898866415024e-03 -1.732622459530830383e-02 7.494500279426574707e-02
3.538000000000000000e+03 9.221224784851074219e+00 7.451577663421630859e+00 6.950107961893081665e-02 5.434219539165496826e-02 3.715298324823379517e-02 1.255848165601491928e-02
3.539000000000000000e+03 4.234393596649169922e+00 4.342406749725341797e+00 -1.054063439369201660e-02 -2.386786763963755220e-05 -3.169350558891892433e-03 6.118767429143190384e-03
3.540000000000000000e+03 5.104138374328613281e+00 5.332998752593994141e+00 -5.088013410568237305e-02 5.708058830350637436e-03 -1.355162262916564941e-02 2.289796993136405945e-02
3.541000000000000000e+03 5.483059406280517578e+00 5.999252796173095703e+00 -3.688106685876846313e-02 -1.580650801770389080e-03 -1.153851579874753952e-02 4.713720083236694336e-02
3.542000000000000000e+03 6.890768051147460938e+00 6.845133304595947266e+00 -3.077186830341815948e-02 -5.100328475236892700e-02 -2.453254722058773041e-02 7.890953868627548218e-02
3.543000000000000000e+03 3.691128730773925781e+00 4.093152999877929688e+00 -2.288961224257946014e-02 -1.945696538314223289e-03 -7.450592704117298126e-03 2.965847961604595184e-03
3.544000000000000000e+03 6.878928375244140625e+01 3.778691768646240234e+00 3.800262212753295898e+00 1.262635421752929688e+01 4.927984714508056641e+00 -1.642422318458557129e+00
3.545000000000000000e+03 6.932689666748046875e+01 3.018325090408325195e+00 3.848717451095581055e+00 1.522558784484863281e+01 5.722291469573974609e+00 -3.797927618026733398e+00
3.546000000000000000e+03 4.794564056396484375e+01 1.650627136230468750e+01 2.121651887893676758e+00 1.549392580986022949e+00 1.101313352584838867e+00 -3.285455703735351562e+00
3.547000000000000000e+03 4.450410461425781250e+01 1.455416297912597656e+01 -1.273651361465454102e+00 3.354128003120422363e-01 -2.814715504646301270e-01 -3.000868558883666992e-01
3.548000000000000000e+03 4.555625152587890625e+01 1.467299842834472656e+01 -1.585090994834899902e+00 4.759613797068595886e-02 -4.612484574317932129e-01 -6.085342168807983398e-01
3.549000000000000000e+03 4.508675003051757812e+01 1.412534141540527344e+01 -1.475510954856872559e+00 -4.992168769240379333e-02 -4.576297998428344727e-01 -6.287354826927185059e-01
3.550000000000000000e+03 2.424322700500488281e+01 -1.055707740783691406e+01 -2.841273844242095947e-01 1.269291043281555176e-01 -4.715947806835174561e-02 2.184710055589675903e-01
3.551000000000000000e+03 2.175397491455078125e+01 2.197726011276245117e+00 -1.208608783781528473e-02 -1.209191605448722839e-02 -7.253401447087526321e-03 1.384785515256226063e-03
3.552000000000000000e+03 2.273553466796875000e+01 1.505633473396301270e+00 -4.469939693808555603e-02 -4.364524781703948975e-02 -2.650339342653751373e-02 -4.412826150655746460e-02
3.553000000000000000e+03 7.098699951171875000e+01 -1.668035507202148438e+01 -1.149136543273925781e+00 5.320092678070068359e+00 1.251286864280700684e+00 3.496434688568115234e+00
3.554000000000000000e+03 7.227042388916015625e+01 5.409544333815574646e-02 -1.990181207656860352e+00 1.500627517700195312e+00 -1.468661129474639893e-01 -4.162911891937255859e+00
3.555000000000000000e+03 4.947643661499023438e+01 9.066784858703613281e+00 2.997548341751098633e+00 1.162110710144042969e+01 4.385596275329589844e+00 5.344354152679443359e+00
3.556000000000000000e+03 5.278833770751953125e+01 -6.168836593627929688e+00 -8.778538703918457031e-01 3.905014753341674805e+00 9.081482887268066406e-01 -1.091920018196105957e+00
3.557000000000000000e+03 5.092470550537109375e+01 1.530249118804931641e+01 5.439642071723937988e-01 1.551623821258544922e+01 4.818060874938964844e+00 -2.941952943801879883e-01
3.558000000000000000e+03 5.058248901367187500e+01 1.608952713012695312e+01 -2.624701857566833496e-01 1.283003902435302734e+01 3.770270586013793945e+00 -2.390905380249023438e+00
3.559000000000000000e+03 4.543213272094726562e+01 -8.489136695861816406e+00 3.182455003261566162e-01 7.628611087799072266e+00 2.384057044982910156e+00 -1.670721411705017090e+00
3.560000000000000000e+03 6.758077239990234375e+01 -1.544677066802978516e+01 -1.525865316390991211e+00 1.307807445526123047e+00 -6.541734933853149414e-02 -1.324160844087600708e-01
3.561000000000000000e+03 6.798746490478515625e+01 -1.605583572387695312e+01 -1.346450090408325195e+00 1.549429178237915039e+00 6.089374050498008728e-02 -5.997288227081298828e-01
3.562000000000000000e+03 5.198613739013671875e+01 -1.837080764770507812e+01 -2.495022773742675781e+00 -2.695959508419036865e-01 -8.293856382369995117e-01 9.032880663871765137e-01
3.563000000000000000e+03 5.249668884277343750e+01 -1.961397933959960938e+01 -1.826130151748657227e+00 -6.204299628734588623e-02 -5.664519071578979492e-01 4.141797423362731934e-01
3.564000000000000000e+03 7.558208465576171875e+01 3.222780609130859375e+01 -3.927870467305183411e-02 6.224161624908447266e+00 1.855464816093444824e+00 1.557114869356155396e-01
3.565000000000000000e+03 3.461524486541748047e+00 -3.103935241699218750e+01 9.672256186604499817e-03 -2.980665862560272217e-01 -8.651830255985260010e-02 -5.660250037908554077e-02
3.566000000000000000e+03 2.517867326736450195e+00 -3.531504058837890625e+01 7.461753208190202713e-03 -3.876948654651641846e-01 -1.140699312090873718e-01 -2.435386367142200470e-02
3.567000000000000000e+03 3.700128555297851562e+00 -3.708865356445312500e+01 7.895953953266143799e-03 -3.499946594238281250e-01 -1.026296094059944153e-01 -2.388808131217956543e-02
3.568000000000000000e+03 7.617610931396484375e+01 -3.447782516479492188e+01 1.956147700548171997e-02 7.466893672943115234e+00 2.245936632156372070e+00 5.161057040095329285e-02
3.569000000000000000e+03 7.535057830810546875e+01 -3.356622314453125000e+01 1.823525317013263702e-02 7.267816066741943359e+00 2.185815334320068359e+00 5.089654773473739624e-02
3.570000000000000000e+03 3.052393913269042969e+00 3.556365203857421875e+01 1.209158543497323990e-02 -4.065156280994415283e-01 -1.183272078633308411e-01 5.327961593866348267e-02
3.571000000000000000e+03 2.374320602416992188e+01 1.080302357673645020e+00 -7.170722633600234985e-02 -1.115063652396202087e-01 -5.496408045291900635e-02 -1.619331538677215576e-01
3.572000000000000000e+03 2.234319448471069336e+00 4.468654155731201172e+00 -9.874976240098476410e-04 -2.797509310767054558e-03 -1.135502010583877563e-03 4.124736413359642029e-03
3.573000000000000000e+03 3.248156785964965820e+00 3.244504451751708984e+00 -1.021809596568346024e-02 -5.167210474610328674e-03 -4.615591838955879211e-03 1.951383077539503574e-03
3.574000000000000000e+03 5.434378433227539062e+01 -6.970758438110351562e+00 -1.185268089175224304e-01 5.523741722106933594e+00 1.621564507484436035e+00 -1.701606869697570801e+00
3.575000000000000000e+03 5.333003997802734375e+01 -5.677386760711669922e+00 -1.617756962776184082e+00 4.964070320129394531e+00 1.003893971443176270e+00 -1.396460771560668945e+00
3.576000000000000000e+03 2.773019218444824219e+01 1.139835834503173828e+00 1.754602193832397461e-01 -3.083889782428741455e-01 -3.987862542271614075e-02 -3.740783929824829102e-01
3.577000000000000000e+03 3.738142395019531250e+01 1.468775653839111328e+01 -1.494502544403076172e+00 4.344677925109863281e-02 -4.353167414665222168e-01 1.867315471172332764e-01
3.578000000000000000e+03 3.304632186889648438e+01 5.184345245361328125e+00 -3.370268642902374268e-01 1.617201864719390869e-01 -5.259200558066368103e-02 5.614928528666496277e-02
3.579000000000000000e+03 2.387345314025878906e+01 -8.773759603500366211e-01 1.572312563657760620e-01 -3.364125490188598633e-01 -5.375438556075096130e-02 -9.953200072050094604e-02
3.580000000000000000e+03 2.135321807861328125e+01 8.363525390625000000e+00 -5.983779206871986389e-02 6.333502382040023804e-02 1.049168640747666359e-03 -3.543928265571594238e-03
3.581000000000000000e+03 2.350004959106445312e+01 6.559663772583007812e+00 -1.462505757808685303e-01 -2.852804958820343018e-02 -5.243358761072158813e-02 -9.444525837898254395e-02
3.582000000000000000e+03 4.769711685180664062e+01 -1.581282520294189453e+01 -8.351239562034606934e-01 9.917088747024536133e-01 4.697547852993011475e-02 3.495021164417266846e-02
3.583000000000000000e+03 2.222117424011230469e+01 7.229346632957458496e-01 -5.789993330836296082e-03 -6.600031256675720215e-02 -2.153709158301353455e-02 -3.953850269317626953e-02
3.584000000000000000e+03 6.211597442626953125e+01 -7.366658687591552734e+00 9.450123310089111328e-01 1.012358665466308594e+01 3.320579767227172852e+00 1.163189038634300232e-01
3.585000000000000000e+03 4.147689056396484375e+01 -8.648968696594238281e+00 -8.811749815940856934e-01 4.089233875274658203e+00 9.624177217483520508e-01 1.408493041992187500e+00
3.586000000000000000e+03 4.041700363159179688e+01 -9.860778808593750000e+00 -1.146910309791564941e+00 2.171458721160888672e+00 3.073645234107971191e-01 1.048228025436401367e+00
3.587000000000000000e+03 1.042681217193603516e+01 8.307887077331542969e+00 5.335221439599990845e-02 1.335859447717666626e-01 5.608144775032997131e-02 4.859145358204841614e-02
3.588000000000000000e+03 6.228267669677734375e+01 3.930401802062988281e+00 -1.066312074661254883e+00 1.645875573158264160e+00 1.738690584897994995e-01 3.398244976997375488e-01
3.589000000000000000e+03 4.644599533081054688e+01 -1.361787223815917969e+01 -6.170251369476318359e-01 1.972797870635986328e+00 4.067318141460418701e-01 1.985597610473632812e-01
3.590000000000000000e+03 3.813793945312500000e+01 1.376282882690429688e+01 -1.211626768112182617e+00 1.434947103261947632e-01 -3.204396069049835205e-01 4.080898761749267578e-01
3.591000000000000000e+03 2.196629142761230469e+01 7.107990264892578125e+00 -1.315628886222839355e-01 3.525722026824951172e-02 -2.889170311391353607e-02 -6.482004374265670776e-02
3.592000000000000000e+03 7.821854400634765625e+01 5.870827198028564453e+00 6.485063433647155762e-01 9.565784454345703125e+00 3.064287185668945312e+00 -1.903675556182861328e+00
3.593000000000000000e+03 2.745816802978515625e+01 -6.504365444183349609e+00 -1.550069898366928101e-01 2.868595719337463379e-01 3.955576941370964050e-02 3.783482909202575684e-01
3.594000000000000000e+03 5.106962203979492188e+01 -1.718124580383300781e+01 -1.852413535118103027e+00 -6.693235039710998535e-01 -7.565211057662963867e-01 1.174278736114501953e+00
3.595000000000000000e+03 2.867430686950683594e+01 7.072076201438903809e-01 5.744336843490600586e-01 1.202672943472862244e-01 2.084103077650070190e-01 -2.052573710680007935e-01
3.596000000000000000e+03 2.239921188354492188e+01 1.073836135864257812e+01 4.910403490066528320e-02 1.211657673120498657e-01 5.108093842864036560e-02 8.613809943199157715e-02
3.597000000000000000e+03 2.392629623413085938e+01 1.012581825256347656e+01 -8.267597854137420654e-02 8.899146318435668945e-02 1.894644694402813911e-03 -7.620619144290685654e-03
3.598000000000000000e+03 6.704460906982421875e+01 1.243974494934082031e+01 3.331712484359741211e+00 1.230508327484130859e+01 4.691038608551025391e+00 8.450870513916015625e-01
3.599000000000000000e+03 6.613663482666015625e+01 1.449423122406005859e+01 6.151419878005981445e-01 1.053175544738769531e+01 3.344069242477416992e+00 -6.592359542846679688e-01
3.600000000000000000e+03 8.322828292846679688e+00 -3.278709888458251953e+00 -1.517622731626033783e-02 9.036557748913764954e-04 -4.281771369278430939e-03 -5.779364146292209625e-03
3.601000000000000000e+03 8.680234909057617188e+00 -2.716845750808715820e+00 -1.427844725549221039e-02 9.699837537482380867e-04 -3.992538899183273315e-03 -4.239429254084825516e-03
3.602000000000000000e+03 5.757052230834960938e+01 5.102174356579780579e-02 -1.796365618705749512e+00 -3.364410698413848877e-01 -6.398419737815856934e-01 -3.119035720825195312e+00
3.603000000000000000e+03 5.821117019653320312e+01 -1.724443286657333374e-01 -2.125024080276489258e+00 1.092877984046936035e-01 -6.047208905220031738e-01 -2.333287000656127930e+00
3.604000000000000000e+03 4.384611606597900391e+00 -2.913047790527343750e+00 -4.530808422714471817e-03 -1.939765759743750095e-03 -1.941172289662063122e-03 -2.892879303544759750e-03
3.605000000000000000e+03 6.256773471832275391e+00 -3.316004276275634766e+00 -1.014255080372095108e-02 -1.417346415109932423e-03 -3.467969130724668503e-03 -5.829801317304372787e-03
3.606000000000000000e+03 4.949667358398437500e+01 1.671359443664550781e+01 -6.087449193000793457e-01 7.252664566040039062e+00 1.993175983428955078e+00 -3.725926876068115234e+00
3.607000000000000000e+03 3.718297243118286133e+00 -3.442179203033447266e+00 -4.072492942214012146e-03 -2.761119976639747620e-03 -2.050083829089999199e-03 -3.047314705327153206e-03
3.608000000000000000e+03 2.492467689514160156e+01 -1.103761100769042969e+01 -2.927371263504028320e-01 2.620413005352020264e-01 -9.208750911056995392e-03 2.053649127483367920e-01
3.609000000000000000e+03 4.996682739257812500e+01 7.329370498657226562e+00 3.639617264270782471e-01 1.131331348419189453e+01 3.503182649612426758e+00 2.011500120162963867e+00
3.610000000000000000e+03 6.849243164062500000e+01 6.165291309356689453e+00 -1.817779392004013062e-01 1.209059143066406250e+01 3.572643995285034180e+00 -1.887702941894531250e+00
3.611000000000000000e+03 2.531739807128906250e+01 -1.527000516653060913e-01 2.804694771766662598e-01 -3.750380575656890869e-01 -2.837057039141654968e-02 -2.347699999809265137e-01
3.612000000000000000e+03 2.526272392272949219e+01 1.265435099601745605e+00 -1.283491700887680054e-01 -2.949401736259460449e-01 -1.269868016242980957e-01 -3.779490590095520020e-01
3.613000000000000000e+03 6.596494293212890625e+01 -1.468931102752685547e+01 -3.186769783496856689e-01 2.803918123245239258e+00 7.455723285675048828e-01 -9.855123162269592285e-01
3.614000000000000000e+03 6.560662841796875000e+01 -1.313350105285644531e+01 7.961831241846084595e-02 2.724820852279663086e+00 8.413317799568176270e-01 -1.193507075309753418e+00
3.615000000000000000e+03 3.380435943603515625e+01 -1.339361476898193359e+01 -7.202915549278259277e-01 -1.213707253336906433e-01 -2.524986863136291504e-01 3.600227236747741699e-01
3.616000000000000000e+03 3.398928070068359375e+01 -1.235168361663818359e+01 -6.321261525154113770e-01 -2.943080961704254150e-01 -2.779302597045898438e-01 4.364856779575347900e-01
3.617000000000000000e+03 4.041367340087890625e+01 -1.866656112670898438e+01 -4.796917438507080078e-01 3.199965953826904297e+00 8.160822987556457520e-01 1.568504214286804199e+00
3.618000000000000000e+03 4.044227218627929688e+01 -1.678306388854980469e+01 6.255530714988708496e-01 5.965022087097167969e+00 1.977172613143920898e+00 2.833668470382690430e+00
3.619000000000000000e+03 6.969695281982421875e+01 4.632248878479003906e-01 -2.479384899139404297e+00 8.187866210937500000e+00 1.712544202804565430e+00 -2.669670820236206055e+00
3.620000000000000000e+03 2.294062232971191406e+01 9.645209312438964844e-01 -4.222956299781799316e-02 -7.678950577974319458e-02 -3.570571914315223694e-02 -8.162944018840789795e-02
3.621000000000000000e+03 4.659123229980468750e+01 3.278600215911865234e+00 2.459695577621459961e+00 2.758368968963623047e+00 1.565419435501098633e+00 2.715224027633666992e+00
3.622000000000000000e+03 3.311602020263671875e+01 6.706319451332092285e-01 8.689149618148803711e-01 9.565778821706771851e-02 2.893718183040618896e-01 5.471591353416442871e-01
3.623000000000000000e+03 3.406731796264648438e+01 -1.013354063034057617e+00 6.820323467254638672e-01 -2.174905985593795776e-01 1.393625289201736450e-01 -6.355216260999441147e-03
3.624000000000000000e+03 4.252510833740234375e+01 -1.462476158142089844e+01 6.338840723037719727e-01 5.590551376342773438e+00 1.867330551147460938e+00 1.054386258125305176e+00
3.625000000000000000e+03 3.893473434448242188e+01 -5.649569988250732422e+00 4.469379186630249023e-01 -7.522800564765930176e-01 -9.160263836383819580e-02 4.049763381481170654e-01
3.626000000000000000e+03 3.805358886718750000e+01 -4.301808834075927734e+00 6.229140162467956543e-01 -1.179985404014587402e+00 -1.671214103698730469e-01 -5.862070713192224503e-03
3.627000000000000000e+03 4.488446807861328125e+01 1.313919782638549805e+00 7.501828670501708984e-01 3.344409227371215820e+00 1.228377699851989746e+00 2.788423776626586914e+00
3.628000000000000000e+03 2.124470901489257812e+01 7.164519786834716797e+00 -1.030735597014427185e-01 5.186451226472854614e-02 -1.536271441727876663e-02 -4.101710021495819092e-02
3.629000000000000000e+03 1.068514919281005859e+01 -3.478533983230590820e+00 -2.395405806601047516e-02 4.128830973058938980e-03 -5.947567988187074661e-03 -2.324809785932302475e-03
3.630000000000000000e+03 4.297800445556640625e+01 -2.240139842033386230e-01 -8.517387509346008301e-01 3.741912126541137695e+00 8.670520186424255371e-01 1.545313835144042969e+00
3.631000000000000000e+03 3.332641601562500000e+01 1.614309501647949219e+01 -1.212384939193725586e+00 -3.087650835514068604e-01 -4.563449919223785400e-01 3.444647490978240967e-01
3.632000000000000000e+03 2.030144309997558594e+01 7.620097160339355469e+00 -5.880335718393325806e-02 4.233956709504127502e-02 -4.939137492328882217e-03 -1.641912199556827545e-02
3.633000000000000000e+03 1.928802299499511719e+01 7.561091899871826172e+00 -3.539847582578659058e-02 2.056598104536533356e-02 -4.449748434126377106e-03 -1.234578900039196014e-02
3.634000000000000000e+03 1.829587173461914062e+01 7.572865009307861328e+00 3.355643013492226601e-03 1.078367047011852264e-02 4.241793882101774216e-03 7.283881306648254395e-03
3.635000000000000000e+03 1.887159919738769531e+01 6.661078929901123047e+00 -7.423248887062072754e-02 1.622506603598594666e-02 -1.740222796797752380e-02 -2.348305843770503998e-02
3.636000000000000000e+03 2.052299499511718750e+01 7.137701034545898438e+00 -9.288365393877029419e-02 2.671134658157825470e-02 -1.985169202089309692e-02 -4.524755850434303284e-02
3.637000000000000000e+03 7.107286071777343750e+01 9.638797760009765625e+00 -1.350255131721496582e+00 1.553739190101623535e+00 6.104521453380584717e-02 3.262827694416046143e-01
3.638000000000000000e+03 5.696797561645507812e+01 -1.885590934753417969e+01 -7.191539406776428223e-01 8.929789543151855469e+00 2.463190793991088867e+00 -7.623376250267028809e-01
3.639000000000000000e+03 3.426046371459960938e+01 6.213612079620361328e+00 -1.869080364704132080e-01 7.766678929328918457e-02 -3.277237713336944580e-02 3.804485499858856201e-02
3.640000000000000000e+03 3.635335540771484375e+01 -1.694477462768554688e+01 -4.528608620166778564e-01 1.658744923770427704e-02 -1.308820247650146484e-01 3.904805183410644531e-01
3.641000000000000000e+03 6.199281692504882812e+01 -3.343116521835327148e+00 1.505322933197021484e+00 8.157591819763183594e+00 2.898874521255493164e+00 3.331431150436401367e-01
3.642000000000000000e+03 2.555971860885620117e+00 2.551141023635864258e+00 -2.671761205419898033e-03 -4.626970738172531128e-03 -2.189619466662406921e-03 -1.081173890270292759e-03
3.643000000000000000e+03 6.538582611083984375e+01 -1.551029443740844727e+00 -1.462809205055236816e+00 2.205536216497421265e-01 -3.726767003536224365e-01 4.140892982482910156e+00
3.644000000000000000e+03 4.547775650024414062e+01 1.970289230346679688e+00 1.557174444198608398e+00 2.891473531723022461e+00 1.334594368934631348e+00 2.844575166702270508e+00
3.645000000000000000e+03 4.605172729492187500e+01 2.621673583984375000e+00 2.168660879135131836e+00 2.686908483505249023e+00 1.456670880317687988e+00 2.796049356460571289e+00
3.646000000000000000e+03 3.522931289672851562e+01 -1.514121150970458984e+01 -8.110984563827514648e-01 -9.191016852855682373e-02 -2.709025740623474121e-01 3.708438277244567871e-01
3.647000000000000000e+03 2.533536148071289062e+01 1.739527702331542969e+01 -1.011025905609130859e+00 -8.185897022485733032e-02 -3.278654515743255615e-01 1.291634738445281982e-01
3.648000000000000000e+03 3.244623947143554688e+01 4.651161193847656250e+00 -4.614740610122680664e-01 2.123452126979827881e-01 -7.473865896463394165e-02 7.372211664915084839e-02
3.649000000000000000e+03 5.069820785522460938e+01 -3.862494945526123047e+00 -5.551690101623535156e+00 1.756698846817016602e+00 -1.138497471809387207e+00 6.434218883514404297e-01
3.650000000000000000e+03 5.620313644409179688e+01 1.082127380371093750e+01 5.436443686485290527e-01 3.949894428253173828e+00 1.348061680793762207e+00 1.073348283767700195e+00
3.651000000000000000e+03 4.099526596069335938e+01 1.328917121887207031e+01 -9.901272058486938477e-01 3.373477458953857422e-01 -1.958338469266891479e-01 3.020883165299892426e-02
3.652000000000000000e+03 4.040583801269531250e+01 1.408703136444091797e+01 -1.023665428161621094e+00 3.896741867065429688e-01 -1.901973783969879150e-01 9.707946330308914185e-02
3.653000000000000000e+03 6.577577209472656250e+01 6.932478904724121094e+00 -8.212603926658630371e-01 9.719551086425781250e+00 2.669487237930297852e+00 -2.830355465412139893e-01
3.654000000000000000e+03 6.096526336669921875e+01 1.359477615356445312e+01 -5.386126041412353516e-01 -4.089288040995597839e-02 -1.738516539335250854e-01 -2.625589370727539062e-01
3.655000000000000000e+03 5.631211090087890625e+01 -1.383688449859619141e+01 7.854614853858947754e-01 1.197994804382324219e+01 3.829622745513916016e+00 -1.208684086799621582e+00
3.656000000000000000e+03 6.979586029052734375e+01 -4.308581352233886719e+00 -1.693435072898864746e+00 3.646246671676635742e+00 5.858435034751892090e-01 -1.180763959884643555e+00
3.657000000000000000e+03 5.253672790527343750e+01 1.627696990966796875e+01 3.734208643436431885e-01 1.097663784027099609e+01 3.405017614364624023e+00 1.613401293754577637e+00
3.658000000000000000e+03 5.129128646850585938e+01 1.462912082672119141e+01 3.155474185943603516e+00 1.460976791381835938e+01 5.329572677612304688e+00 7.483639717102050781e-01
3.659000000000000000e+03 6.476875305175781250e+01 5.768042087554931641e+00 -1.180179566144943237e-01 6.064280986785888672e+00 1.783878922462463379e+00 7.624175548553466797e-01
3.660000000000000000e+03 1.929889869689941406e+01 8.440279960632324219e+00 1.905348524451255798e-02 3.483521938323974609e-02 1.616661064326763153e-02 2.790337242186069489e-02
3.661000000000000000e+03 7.022257232666015625e+01 -4.866154193878173828e+00 -1.051868557929992676e+00 3.869870901107788086e+00 8.454006910324096680e-01 -1.382047772407531738e+00
3.662000000000000000e+03 6.965849304199218750e+01 -5.316834926605224609e+00 -4.205438494682312012e-01 2.862090110778808594e+00 7.324638366699218750e-01 -1.187443375587463379e+00
3.663000000000000000e+03 1.244972896575927734e+01 1.216504573822021484e+01 1.476118899881839752e-02 5.958155542612075806e-02 2.230282314121723175e-02 4.404686763882637024e-02
3.664000000000000000e+03 3.841528701782226562e+01 1.440207576751708984e+01 -1.267034649848937988e+00 2.563190162181854248e-01 -3.032146692276000977e-01 2.669636011123657227e-01
3.665000000000000000e+03 1.687666511535644531e+01 -5.508677482604980469e+00 -6.721130013465881348e-02 -2.472051419317722321e-03 -2.090500481426715851e-02 2.513555251061916351e-02
3.666000000000000000e+03 1.978255271911621094e+01 1.716472244262695312e+01 -4.970260262489318848e-01 6.191149726510047913e-02 -1.305343657732009888e-01 9.140489250421524048e-02
3.667000000000000000e+03 6.879238128662109375e+01 -3.221792936325073242e+00 -3.466240882873535156e+00 3.474910259246826172e+00 2.600805135443806648e-03 -6.935924887657165527e-01
3.668000000000000000e+03 3.831957244873046875e+01 -1.691560554504394531e+01 -3.442813456058502197e-02 -3.850366771221160889e-01 -1.258394420146942139e-01 6.592319607734680176e-01
3.669000000000000000e+03 6.447546386718750000e+01 -1.293794631958007812e+01 -3.587748110294342041e-02 4.774941921234130859e+00 1.421719312667846680e+00 -1.296479940414428711e+00
3.670000000000000000e+03 6.347620391845703125e+01 -1.162734508514404297e+01 2.796278595924377441e-01 6.762854576110839844e+00 2.112744808197021484e+00 -1.014429926872253418e+00
3.671000000000000000e+03 5.627218246459960938e+01 -8.733418464660644531e+00 5.500475168228149414e-01 7.362039566040039062e+00 2.373626232147216797e+00 -1.172495245933532715e+00
3.672000000000000000e+03 3.835912322998046875e+01 -6.144840240478515625e+00 -6.729101389646530151e-02 -1.610974431037902832e+00 -5.034796595573425293e-01 8.171663284301757812e-01
3.673000000000000000e+03 7.766833496093750000e+01 2.636666870117187500e+01 -5.718433763831853867e-03 6.075657844543457031e+00 1.820981740951538086e+00 1.517130881547927856e-01
3.674000000000000000e+03 7.655341339111328125e+01 3.141139411926269531e+01 -2.471815422177314758e-02 6.245213508605957031e+00 1.866148591041564941e+00 1.443096846342086792e-01
3.675000000000000000e+03 7.810037994384765625e+01 1.577831745147705078e+01 1.003424301743507385e-01 6.050848960876464844e+00 1.845357418060302734e+00 -3.566364645957946777e-01
3.676000000000000000e+03 7.810903167724609375e+01 1.424178123474121094e+01 4.852971062064170837e-02 6.315713405609130859e+00 1.909273028373718262e+00 -4.582937359809875488e-01
3.677000000000000000e+03 7.825783538818359375e+01 5.176102161407470703e+00 6.281252503395080566e-01 9.702674865722656250e+00 3.099240064620971680e+00 -2.137631177902221680e+00
3.678000000000000000e+03 7.762644195556640625e+01 4.509297370910644531e+00 3.371677994728088379e-01 1.122689247131347656e+01 3.469218015670776367e+00 -2.418284416198730469e+00
3.679000000000000000e+03 7.804924774169921875e+01 -1.577842521667480469e+01 8.836590498685836792e-02 7.932269573211669922e+00 2.406190633773803711e+00 -5.299157500267028809e-01
3.680000000000000000e+03 7.813136291503906250e+01 -1.658660507202148438e+01 -3.577927127480506897e-02 8.001805305480957031e+00 2.389807939529418945e+00 -5.099523067474365234e-01
3.681000000000000000e+03 7.815673828125000000e+01 -1.736175918579101562e+01 -5.783574283123016357e-02 8.076518058776855469e+00 2.405604600906372070e+00 -4.900578558444976807e-01
3.682000000000000000e+03 7.816905975341796875e+01 -1.814058113098144531e+01 -1.252177655696868896e-01 8.175428390502929688e+00 2.415063142776489258e+00 -4.117971658706665039e-01
3.683000000000000000e+03 7.812844085693359375e+01 -5.417487144470214844e+00 5.820535123348236084e-02 9.595849037170410156e+00 2.896216392517089844e+00 1.270668864250183105e+00
3.684000000000000000e+03 7.820520782470703125e+01 -6.169434070587158203e+00 2.113657817244529724e-02 9.301397323608398438e+00 2.796760082244873047e+00 1.201492071151733398e+00
3.685000000000000000e+03 7.645909118652343750e+01 9.031804084777832031e+00 4.856998920440673828e-01 1.059853267669677734e+01 3.325269699096679688e+00 -1.080104827880859375e+00
3.686000000000000000e+03 7.815865325927734375e+01 8.368995666503906250e+00 7.928222417831420898e-01 8.442136764526367188e+00 2.770487785339355469e+00 3.015552163124084473e-01
3.687000000000000000e+03 7.827242279052734375e+01 4.475742816925048828e+00 3.586083054542541504e-01 1.014625453948974609e+01 3.151458978652954102e+00 -2.549886941909790039e+00
3.688000000000000000e+03 7.804570770263671875e+01 3.041844367980957031e+00 -6.438543796539306641e-01 1.086761379241943359e+01 3.067127704620361328e+00 -2.437104225158691406e+00
3.689000000000000000e+03 7.809500885009765625e+01 1.861907124519348145e+00 -1.091169476509094238e+00 1.122419834136962891e+01 3.039908647537231445e+00 -1.590752840042114258e+00
3.690000000000000000e+03 7.779174041748046875e+01 -9.632284045219421387e-01 -6.468197107315063477e-01 1.039941215515136719e+01 2.925777673721313477e+00 7.838804125785827637e-01
3.691000000000000000e+03 7.828597259521484375e+01 -2.242792844772338867e+00 -1.521934866905212402e-01 1.090499114990234375e+01 3.225839138031005859e+00 1.004161238670349121e+00
3.692000000000000000e+03 7.790190124511718750e+01 -3.060238361358642578e+00 -1.486241072416305542e-01 9.979056358337402344e+00 2.949129581451416016e+00 1.290629148483276367e+00
3.693000000000000000e+03 7.826503753662109375e+01 -3.497439861297607422e+00 -1.090335939079523087e-02 1.040192222595214844e+01 3.117305517196655273e+00 1.170695662498474121e+00
3.694000000000000000e+03 7.802378845214843750e+01 -4.650743961334228516e+00 -2.664621733129024506e-02 9.742377281188964844e+00 2.914719343185424805e+00 1.276596188545227051e+00
3.695000000000000000e+03 7.820362091064453125e+01 -6.919331073760986328e+00 1.253758817911148071e-01 9.010073661804199219e+00 2.740634918212890625e+00 1.175054550170898438e+00
3.696000000000000000e+03 7.814672851562500000e+01 -7.684720039367675781e+00 1.103050783276557922e-01 8.722471237182617188e+00 2.649832725524902344e+00 1.088754534721374512e+00
3.697000000000000000e+03 7.735993957519531250e+01 -8.483642578125000000e+00 2.899104058742523193e-01 8.519218444824218750e+00 2.642738580703735352e+00 1.189481019973754883e+00
3.698000000000000000e+03 7.812589263916015625e+01 -1.331002140045166016e+01 2.577078938484191895e-01 7.677898883819580078e+00 2.380681991577148438e+00 -1.233704984188079834e-01
3.699000000000000000e+03 7.810243225097656250e+01 -1.409596443176269531e+01 1.983597278594970703e-01 7.722969532012939453e+00 2.376398801803588867e+00 -2.905181646347045898e-01
3.700000000000000000e+03 7.792147827148437500e+01 -2.374613952636718750e+01 -3.097127191722393036e-02 8.143409729003906250e+00 2.433731317520141602e+00 8.278376609086990356e-02
3.701000000000000000e+03 7.793017578125000000e+01 -2.537561607360839844e+01 -2.165843034163117409e-03 8.068007469177246094e+00 2.419752359390258789e+00 1.115446761250495911e-01
3.702000000000000000e+03 7.792197418212890625e+01 -2.618641853332519531e+01 -5.400221794843673706e-03 8.025988578796386719e+00 2.406176567077636719e+00 1.122492253780364990e-01
3.703000000000000000e+03 7.703829193115234375e+01 -3.405101013183593750e+01 1.488566678017377853e-02 7.623892784118652344e+00 2.291633605957031250e+00 4.906757548451423645e-02
3.704000000000000000e+03 7.771193695068359375e+01 6.998191833496093750e+00 1.492903709411621094e+00 1.024681091308593750e+01 3.521914243698120117e+00 -1.425377845764160156e+00
3.705000000000000000e+03 7.681744384765625000e+01 1.323047429323196411e-01 -1.980570912361145020e+00 8.856580734252929688e+00 2.062803030014038086e+00 4.002942442893981934e-01
3.706000000000000000e+03 7.802964782714843750e+01 -1.492795848846435547e+01 1.708724051713943481e-01 7.836358547210693359e+00 2.402169227600097656e+00 -4.269267618656158447e-01
3.707000000000000000e+03 2.375297784805297852e+00 3.662347030639648438e+01 4.511508159339427948e-03 -4.470956623554229736e-01 -1.327752470970153809e-01 3.526191040873527527e-02
3.708000000000000000e+03 1.765078067779541016e+00 -6.020044326782226562e+00 -1.722170040011405945e-03 -6.071860436350107193e-03 -2.338209189474582672e-03 -4.572803154587745667e-03
3.709000000000000000e+03 1.760699152946472168e+00 -5.246240615844726562e+00 -1.774073694832623005e-03 -4.092671442776918411e-03 -1.760023646056652069e-03 -3.104912349954247475e-03
3.710000000000000000e+03 2.130823850631713867e+00 -1.672314071655273438e+01 -2.600169973447918892e-03 -1.023350059986114502e-01 -3.148055449128150940e-02 -3.595890849828720093e-02
3.711000000000000000e+03 2.366776466369628906e+00 -1.609284591674804688e+01 -3.296566195785999298e-03 -9.213015437126159668e-02 -2.862801589071750641e-02 -3.844282403588294983e-02
3.712000000000000000e+03 1.770592689514160156e+00 1.628662109375000000e+01 -3.037463873624801636e-03 -7.625620812177658081e-02 -2.378810197114944458e-02 1.071871165186166763e-02
3.713000000000000000e+03 1.974040746688842773e+00 5.161557197570800781e+00 -9.340644814074039459e-03 -5.282012280076742172e-03 -4.386797081679105759e-03 7.669215556234121323e-03
3.714000000000000000e+03 1.897547006607055664e+00 5.974334716796875000e+00 -2.433837624266743660e-03 -8.250846527516841888e-03 -3.205405315384268761e-03 1.150647830218076706e-02
3.715000000000000000e+03 2.213984251022338867e+00 -2.668636512756347656e+01 1.112640951760113239e-03 -2.751933932304382324e-01 -8.222422748804092407e-02 -4.469905048608779907e-02
3.716000000000000000e+03 1.975552916526794434e+00 -1.340275669097900391e+01 -2.781340386718511581e-03 -5.988536030054092407e-02 -1.880001090466976166e-02 -2.608802728354930878e-02
3.717000000000000000e+03 2.579340934753417969e+00 -1.261660671234130859e+01 -4.932289011776447296e-03 -4.985367506742477417e-02 -1.643578894436359406e-02 -3.021320886909961700e-02
3.718000000000000000e+03 1.846458077430725098e+00 -3.574251651763916016e+00 -1.308286446146667004e-03 -1.540997065603733063e-03 -8.547850884497165680e-04 -7.733140373602509499e-04
3.719000000000000000e+03 1.864883303642272949e+00 4.011021137237548828e+00 -4.966223612427711487e-03 -1.120717381127178669e-03 -1.826082239858806133e-03 2.048002090305089951e-03
3.720000000000000000e+03 1.837074160575866699e+00 1.247550010681152344e+01 2.956024836748838425e-03 -5.430660396814346313e-02 -1.540517434477806091e-02 9.944790042936801910e-03
3.721000000000000000e+03 1.819398760795593262e+00 1.325923538208007812e+01 3.420599095989018679e-04 -5.884074419736862183e-02 -1.754960417747497559e-02 8.504305966198444366e-03
3.722000000000000000e+03 1.800682544708251953e+00 1.403253078460693359e+01 9.026378975249826908e-04 -6.237135827541351318e-02 -1.844061538577079773e-02 8.279618807137012482e-03
3.723000000000000000e+03 2.169967889785766602e+00 -2.512590026855468750e+01 7.059319177642464638e-04 -2.465185970067977905e-01 -7.374379783868789673e-02 -4.457779228687286377e-02
3.724000000000000000e+03 6.615062713623046875e+01 7.511143207550048828e+00 -7.011212110519409180e-01 1.106657505035400391e+01 3.109636068344116211e+00 -4.040457010269165039e-01
3.725000000000000000e+03 1.915361022949218750e+01 1.593661212921142578e+01 -3.372891843318939209e-01 3.908418491482734680e-02 -8.946149796247482300e-02 -2.500204835087060928e-03
3.726000000000000000e+03 1.851719474792480469e+01 1.671034431457519531e+01 -3.551819920539855957e-01 6.723019480705261230e-02 -8.638553321361541748e-02 6.345301866531372070e-02
3.727000000000000000e+03 1.789576721191406250e+01 1.610402107238769531e+01 -2.779816687107086182e-01 6.339303404092788696e-02 -6.437659263610839844e-02 3.558154031634330750e-02
3.728000000000000000e+03 4.400989913940429688e+01 -7.750900268554687500e+00 -7.978247851133346558e-02 8.537477493286132812e+00 2.537308454513549805e+00 6.276071667671203613e-01
3.729000000000000000e+03 1.639183998107910156e+01 -5.090488433837890625e+00 -5.514832586050033569e-02 8.307682583108544350e-04 -1.629526726901531219e-02 2.173281274735927582e-02
3.730000000000000000e+03 3.031687736511230469e+01 3.109377384185791016e+00 -7.174585461616516113e-01 2.939074337482452393e-01 -1.270653456449508667e-01 -7.349389046430587769e-02
3.731000000000000000e+03 3.628720855712890625e+01 -2.076998710632324219e+00 5.562475323677062988e-01 -8.469533920288085938e-01 -8.721175789833068848e-02 -1.257245838642120361e-01
3.732000000000000000e+03 2.571494293212890625e+01 -3.952442169189453125e+00 1.500658504664897919e-02 -1.599099040031433105e-01 -4.347099736332893372e-02 2.296609282493591309e-01
3.733000000000000000e+03 4.442974090576171875e+01 -9.255889892578125000e+00 -5.171785354614257812e-01 6.885447025299072266e+00 1.910480499267578125e+00 2.886956632137298584e-01
3.734000000000000000e+03 5.293011474609375000e+01 5.333021163940429688e+00 1.367707371711730957e+00 1.473741340637207031e+01 4.831536293029785156e+00 -1.337946891784667969e+00
3.735000000000000000e+03 2.417171859741210938e+01 8.576544761657714844e+00 -1.660098731517791748e-01 -2.974195638671517372e-03 -5.069522187113761902e-02 -8.309043198823928833e-02
3.736000000000000000e+03 3.700208282470703125e+01 8.428639411926269531e+00 -1.423706673085689545e-02 -6.831931881606578827e-03 -6.320699583739042282e-03 5.976477637887001038e-03
3.737000000000000000e+03 5.045699691772460938e+01 7.830575942993164062e+00 -5.061122030019760132e-02 1.320499610900878906e+01 3.946315526962280273e+00 1.558633804321289062e+00
3.738000000000000000e+03 3.703477859497070312e+01 5.896781444549560547e+00 -3.986332565546035767e-02 -3.330663219094276428e-02 -2.195098809897899628e-02 6.798952072858810425e-02
3.739000000000000000e+03 3.822165298461914062e+01 5.164072513580322266e+00 8.045853115618228912e-03 -8.752892166376113892e-02 -2.384492009878158569e-02 2.560215815901756287e-02
3.740000000000000000e+03 2.861530494689941406e+01 -1.478547096252441406e+00 1.017372488975524902e+00 3.713247179985046387e-01 4.166091680526733398e-01 3.987085223197937012e-01
3.741000000000000000e+03 2.848120498657226562e+01 -2.216251134872436523e+00 6.850607991218566895e-01 5.944228172302246094e-01 3.838450610637664795e-01 5.683659911155700684e-01
3.742000000000000000e+03 5.716499710083007812e+01 -1.443337345123291016e+01 9.683700799942016602e-01 1.117980575561523438e+01 3.644452810287475586e+00 -4.268240034580230713e-01
3.743000000000000000e+03 4.404769134521484375e+01 1.422926807403564453e+01 -1.281499266624450684e+00 3.473559021949768066e-01 -2.802430093288421631e-01 -3.049182593822479248e-01
3.744000000000000000e+03 4.363508987426757812e+01 1.343606662750244141e+01 -1.192299723625183105e+00 1.859711408615112305e-01 -3.018985688686370850e-01 -3.417803049087524414e-01
3.745000000000000000e+03 5.630702972412109375e+00 7.158895969390869141e+00 -1.027157623320817947e-02 -3.434894606471061707e-02 -1.338615640997886658e-02 5.404248088598251343e-02
3.746000000000000000e+03 5.448557662963867188e+01 8.121488571166992188e+00 -7.439760565757751465e-01 1.007187080383300781e+01 2.798368215560913086e+00 6.197646856307983398e-01
3.747000000000000000e+03 3.949351882934570312e+01 -6.245595932006835938e+00 3.055447936058044434e-01 -1.074803620576858521e-01 5.941932275891304016e-02 5.252199172973632812e-01
3.748000000000000000e+03 3.908422708511352539e+00 5.956429004669189453e+00 -2.812907099723815918e-02 -7.789295166730880737e-03 -1.077551022171974182e-02 2.109659276902675629e-02
3.749000000000000000e+03 4.696892738342285156e+00 4.761685848236083984e+00 -3.337264433503150940e-02 2.427606843411922455e-03 -9.283511899411678314e-03 5.114576313644647598e-03
3.750000000000000000e+03 6.706671142578125000e+01 1.169484615325927734e+01 4.129670143127441406e+00 1.230458641052246094e+01 4.930276870727539062e+00 9.803669154644012451e-02
3.751000000000000000e+03 6.712859344482421875e+01 1.099764537811279297e+01 2.836034297943115234e+00 1.352297592163085938e+01 4.907702922821044922e+00 -8.154799938201904297e-01
3.752000000000000000e+03 1.105423069000244141e+01 1.078743934631347656e+01 3.581565618515014648e-02 6.179144233465194702e-02 2.928213030099868774e-02 4.185226559638977051e-02
3.753000000000000000e+03 2.752239227294921875e+01 1.263872432708740234e+01 -1.900985389947891235e-01 -9.994969516992568970e-02 -8.701446652412414551e-02 -4.606029763817787170e-02
3.754000000000000000e+03 3.031607246398925781e+01 1.388547420501708984e+01 -7.589851021766662598e-01 -1.567637361586093903e-02 -2.323984354734420776e-01 -8.063619583845138550e-02
3.755000000000000000e+03 5.533423995971679688e+01 9.484049797058105469e+00 -1.297527402639389038e-01 6.410278320312500000e+00 1.884157657623291016e+00 8.673543930053710938e-01
3.756000000000000000e+03 2.773296356201171875e+01 1.104792022705078125e+01 -2.087475359439849854e-01 -1.783252954483032227e-01 -1.161218509078025818e-01 -1.766048818826675415e-01
3.757000000000000000e+03 2.664883422851562500e+01 1.096480083465576172e+01 -1.549521982669830322e-01 -8.687667548656463623e-02 -7.254866510629653931e-02 -1.352239251136779785e-01
3.758000000000000000e+03 7.211050415039062500e+01 -7.027242183685302734e-01 -2.172648668289184570e+00 3.235068559646606445e+00 3.187259733676910400e-01 -3.486097574234008789e+00
3.759000000000000000e+03 4.391349792480468750e+01 -8.375047683715820312e+00 -4.146970808506011963e-01 7.552261829376220703e+00 2.141269445419311523e+00 6.542827486991882324e-01
3.760000000000000000e+03 6.942623138427734375e+01 -1.718863868713378906e+01 -4.707192257046699524e-02 1.237273335456848145e+00 3.570604324340820312e-01 6.475710272789001465e-01
3.761000000000000000e+03 7.048109436035156250e+01 -1.779531288146972656e+01 -2.000656574964523315e-01 3.979857444763183594e+00 1.133937597274780273e+00 2.140663862228393555e+00
3.762000000000000000e+03 4.342948913574218750e+01 -4.160963058471679688e+00 2.573752403259277344e+00 7.691133975982666016e+00 3.079465866088867188e+00 3.877998888492584229e-01
3.763000000000000000e+03 4.290660095214843750e+01 -5.315860748291015625e+00 2.465240716934204102e+00 6.744497776031494141e+00 2.762921571731567383e+00 1.139525055885314941e+00
3.764000000000000000e+03 4.358425521850585938e+01 -6.998092174530029297e+00 5.229380130767822266e-01 8.494492530822753906e+00 2.705229043960571289e+00 9.223520755767822266e-01
3.765000000000000000e+03 5.754394149780273438e+01 -1.509180355072021484e+01 1.107385039329528809e+00 1.042991065979003906e+01 3.461188793182373047e+00 -3.435300588607788086e-01
3.766000000000000000e+03 6.889043426513671875e+01 2.350201606750488281e+00 1.480932474136352539e+00 1.029645156860351562e+01 3.533215284347534180e+00 -1.076236963272094727e+00
3.767000000000000000e+03 6.882460784912109375e+01 1.692585945129394531e+00 2.887402176856994629e-01 9.440196037292480469e+00 2.918680906295776367e+00 -1.172518253326416016e+00
3.768000000000000000e+03 2.951654624938964844e+01 -6.690794944763183594e+00 -1.629234701395034790e-01 3.999473750591278076e-01 7.110716402530670166e-02 2.416844666004180908e-01
3.769000000000000000e+03 3.000349044799804688e+01 -7.285432815551757812e+00 -1.684004217386245728e-01 3.143546879291534424e-01 4.378627985715866089e-02 1.858003735542297363e-01
3.770000000000000000e+03 4.514113235473632812e+01 -1.156399440765380859e+01 -8.916801810264587402e-01 4.507323741912841797e+00 1.084693074226379395e+00 6.138329505920410156e-01
3.771000000000000000e+03 3.743311691284179688e+01 -1.811240553855895996e+00 5.955058932304382324e-01 -7.605284452438354492e-01 -4.950676858425140381e-02 -5.026048421859741211e-01
3.772000000000000000e+03 2.575659942626953125e+01 -9.722830772399902344e+00 -2.414883673191070557e-01 3.434576094150543213e-01 3.059077635407447815e-02 1.167187690734863281e-01
3.773000000000000000e+03 2.623317909240722656e+01 -9.153660774230957031e+00 -9.113446623086929321e-02 2.595817148685455322e-01 5.053417012095451355e-02 1.600063592195510864e-01
3.774000000000000000e+03 4.352386856079101562e+01 -2.957087755203247070e+00 1.184395074844360352e+00 6.810001373291015625e+00 2.398319005966186523e+00 4.456874132156372070e-01
3.775000000000000000e+03 7.318423461914062500e+01 -8.813771247863769531e+00 1.159845829010009766e+00 9.509586334228515625e+00 3.200829505920410156e+00 -3.780899941921234131e-02
3.776000000000000000e+03 7.236913299560546875e+01 -7.987351417541503906e+00 7.708750963211059570e-01 9.062775611877441406e+00 2.950095176696777344e+00 -1.063308835029602051e+00
3.777000000000000000e+03 5.692368698120117188e+01 -1.315442752838134766e+01 9.911847710609436035e-01 1.053667068481445312e+01 3.458356857299804688e+00 -8.437706828117370605e-01
3.778000000000000000e+03 6.685636901855468750e+01 -1.584229755401611328e+01 -7.073549628257751465e-01 2.428757190704345703e+00 5.164206027984619141e-01 -1.048977375030517578e+00
3.779000000000000000e+03 3.773831558227539062e+01 7.132418632507324219e+00 -1.907730288803577423e-02 -1.846761815249919891e-02 -1.126347668468952179e-02 1.970606110990047455e-02
3.780000000000000000e+03 6.205694580078125000e+01 -6.558782577514648438e+00 9.484183788299560547e-01 1.036838912963867188e+01 3.395042181015014648e+00 3.920117020606994629e-01
3.781000000000000000e+03 7.750879669189453125e+01 5.808336734771728516e+00 1.416256189346313477e+00 1.075641441345214844e+01 3.651801109313964844e+00 -2.246376037597656250e+00
3.782000000000000000e+03 2.171552276611328125e+01 1.795776748657226562e+01 -7.430554032325744629e-01 -6.169600784778594971e-02 -2.414254248142242432e-01 2.990281283855438232e-01
3.783000000000000000e+03 5.059194564819335938e+01 8.842293739318847656e+00 4.184628129005432129e-01 1.566664505004882812e+01 4.825532436370849609e+00 2.389430522918701172e+00
3.784000000000000000e+03 5.163594055175781250e+01 1.068711185455322266e+01 2.702723026275634766e+00 1.800342369079589844e+01 6.211843967437744141e+00 8.285639882087707520e-01
3.785000000000000000e+03 2.620207786560058594e+01 -5.659623146057128906e+00 -1.699140965938568115e-01 4.409548640251159668e-02 -3.774558007717132568e-02 3.654849231243133545e-01
3.786000000000000000e+03 2.611603164672851562e+01 -4.613866806030273438e+00 -5.573036149144172668e-02 -2.973569743335247040e-02 -2.563981711864471436e-02 3.004467785358428955e-01
3.787000000000000000e+03 2.821283721923828125e+01 -3.753523349761962891e+00 1.901685595512390137e-01 5.210205912590026855e-01 2.133567482233047485e-01 4.093563258647918701e-01
3.788000000000000000e+03 2.903474998474121094e+01 -4.518701553344726562e+00 3.202663362026214600e-02 6.551383137702941895e-01 2.061494737863540649e-01 2.833036780357360840e-01
3.789000000000000000e+03 7.672437286376953125e+01 1.247940540313720703e+00 -2.624855279922485352e+00 9.280384063720703125e+00 1.996658444404602051e+00 -5.013906955718994141e-01
3.790000000000000000e+03 5.660242462158203125e+01 -1.144427204132080078e+01 9.274494647979736328e-01 9.457504272460937500e+00 3.115486145019531250e+00 -1.099641799926757812e+00
3.791000000000000000e+03 5.710720443725585938e+01 -1.071429824829101562e+01 8.644140958786010742e-01 8.710789680480957031e+00 2.872560977935791016e+00 -6.508049368858337402e-01
3.792000000000000000e+03 6.410240173339843750e+01 -1.125485229492187500e+01 7.298455834388732910e-01 6.191223621368408203e+00 2.076320648193359375e+00 -1.573817491531372070e+00
3.793000000000000000e+03 2.479393005371093750e+01 1.169352149963378906e+01 -2.722626738250255585e-02 1.675321757793426514e-01 4.209177196025848389e-02 1.422937400639057159e-02
3.794000000000000000e+03 6.751414489746093750e+01 9.761882781982421875e+00 1.102376461029052734e+00 1.165299224853515625e+01 3.826610565185546875e+00 -7.921054363250732422e-01
3.795000000000000000e+03 6.809645843505859375e+01 1.014868831634521484e+01 6.984097957611083984e-01 1.061342334747314453e+01 3.393549919128417969e+00 -4.131945967674255371e-01
3.796000000000000000e+03 3.451748275756835938e+01 -1.294867992401123047e+01 -6.904091238975524902e-01 -3.051691055297851562e-01 -2.986734807491302490e-01 4.926633536815643311e-01
3.797000000000000000e+03 3.476858139038085938e+01 -1.456870269775390625e+01 -8.543137311935424805e-01 -1.081999912858009338e-01 -2.887541055679321289e-01 3.844186365604400635e-01
3.798000000000000000e+03 6.806900787353515625e+01 5.499755382537841797e+00 8.308390378952026367e-01 1.161354255676269531e+01 3.733314514160156250e+00 -2.366183757781982422e+00
3.799000000000000000e+03 6.793184661865234375e+01 4.241735935211181641e+00 2.355779170989990234e+00 1.033789253234863281e+01 3.808101415634155273e+00 -1.328168749809265137e+00
3.800000000000000000e+03 6.706357574462890625e+01 1.320553016662597656e+01 2.809446573257446289e+00 1.159254074096679688e+01 4.320596218109130859e+00 8.197050094604492188e-01
3.801000000000000000e+03 6.630114746093750000e+01 1.235585880279541016e+01 4.696921825408935547e+00 1.524162483215332031e+01 5.981564044952392578e+00 -1.184073686599731445e+00
3.802000000000000000e+03 2.421011543273925781e+01 7.584651470184326172e+00 -1.693947911262512207e-01 -5.015535280108451843e-02 -6.586504727602005005e-02 -1.099651977419853210e-01
3.803000000000000000e+03 6.350291442871093750e+01 1.569118213653564453e+01 1.587235212326049805e+00 3.567073583602905273e+00 1.546292662620544434e+00 -2.412003755569458008e+00
3.804000000000000000e+03 4.608865737915039062e+01 -1.498458981513977051e+00 -1.089183568954467773e+00 3.943544387817382812e+00 8.563082218170166016e-01 4.811385154724121094e+00
3.805000000000000000e+03 4.520810699462890625e+01 1.620553207397460938e+01 -4.411211013793945312e-01 5.029796361923217773e-01 1.855756156146526337e-02 -4.404743909835815430e-01
3.806000000000000000e+03 4.803752136230468750e+01 5.155272960662841797e+00 2.241580009460449219e+00 4.534244537353515625e+00 2.032747507095336914e+00 2.337322950363159180e+00
3.807000000000000000e+03 8.935119628906250000e+00 8.153508186340332031e+00 4.019676148891448975e-02 1.102896407246589661e-02 1.536771841347217560e-02 1.963322982192039490e-02
3.808000000000000000e+03 6.255843353271484375e+01 -1.006984615325927734e+01 7.148733735084533691e-01 8.418227195739746094e+00 2.739930152893066406e+00 -4.428905248641967773e-01
3.809000000000000000e+03 7.452352905273437500e+01 -1.383638572692871094e+01 1.203228473663330078e+00 9.723652839660644531e+00 3.278064250946044922e+00 1.024696882814168930e-02
3.810000000000000000e+03 6.282554244995117188e+01 1.530297374725341797e+01 1.685845732688903809e+00 1.927828907966613770e+00 1.084102392196655273e+00 -1.879532694816589355e+00
3.811000000000000000e+03 6.138049316406250000e+01 1.463085269927978516e+01 1.161395668983459473e+00 2.933689355850219727e-01 4.364293813705444336e-01 -1.493183821439743042e-01
3.812000000000000000e+03 7.704129028320312500e+01 2.716270446777343750e+00 -1.417470932006835938e+00 1.037593364715576172e+01 2.687538862228393555e+00 -2.284428596496582031e+00
3.813000000000000000e+03 2.593972396850585938e+01 1.279892921447753906e+01 -2.963132411241531372e-02 3.951456770300865173e-02 2.964972984045743942e-03 7.108257617801427841e-03
3.814000000000000000e+03 5.754714202880859375e+01 -1.719097328186035156e+01 1.351344347000122070e+00 1.015686035156250000e+01 3.452461481094360352e+00 -9.422720223665237427e-02
3.815000000000000000e+03 5.707693099975585938e+01 -1.680199813842773438e+01 1.324547410011291504e+00 1.106843757629394531e+01 3.717895507812500000e+00 -4.090523123741149902e-01
3.816000000000000000e+03 7.595667266845703125e+01 9.377880096435546875e+00 -6.281111240386962891e-01 1.026039505004882812e+01 2.889685153961181641e+00 -1.511603713035583496e+00
3.817000000000000000e+03 3.673580169677734375e+01 3.926377773284912109e+00 -6.533281411975622177e-03 -1.282697618007659912e-01 -4.044091328978538513e-02 1.447967290878295898e-01
3.818000000000000000e+03 4.107537078857421875e+01 -1.083124637603759766e+00 1.214566156268119812e-01 1.172925591468811035e+00 3.883146643638610840e-01 -9.138674475252628326e-03
3.819000000000000000e+03 4.119208908081054688e+01 1.401810836791992188e+01 -1.015269637107849121e+00 4.553576409816741943e-01 -1.679735928773880005e-01 4.943208396434783936e-02
3.820000000000000000e+03 5.245195770263671875e+01 1.346184921264648438e+01 3.909836053848266602e+00 1.443747711181640625e+01 5.504193782806396484e+00 1.116455912590026855e+00
3.821000000000000000e+03 3.240921783447265625e+01 1.203421235084533691e+00 5.489904284477233887e-01 4.388996660709381104e-01 2.963670194149017334e-01 5.750561952590942383e-01
3.822000000000000000e+03 2.116617965698242188e+01 5.916329026222229004e-01 4.646991845220327377e-03 -1.209419779479503632e-02 -2.234161831438541412e-03 -3.922064788639545441e-03
3.823000000000000000e+03 2.229716110229492188e+01 1.212930560111999512e+00 -3.004941530525684357e-02 -4.337284713983535767e-02 -2.202667854726314545e-02 -3.232938796281814575e-02
3.824000000000000000e+03 2.713697052001953125e+01 1.410050010681152344e+01 -2.890550792217254639e-01 -4.270784556865692139e-02 -9.952887147665023804e-02 2.326384335756301880e-01
3.825000000000000000e+03 3.289838790893554688e+01 1.533823299407958984e+01 -1.369960665702819824e+00 -1.901811361312866211e-01 -4.680425226688385010e-01 2.701546251773834229e-01
3.826000000000000000e+03 7.369379425048828125e+01 -6.247525811195373535e-01 -1.803326606750488281e+00 1.493719458580017090e+00 -9.288217127323150635e-02 -8.449519276618957520e-01
3.827000000000000000e+03 7.666088867187500000e+01 8.111357688903808594e+00 2.067257165908813477e+00 1.133674907684326172e+01 4.021201610565185547e+00 -9.137282967567443848e-01
3.828000000000000000e+03 6.834004211425781250e+01 7.075454235076904297e+00 -1.332740783691406250e+00 1.124691772460937500e+01 2.974252939224243164e+00 -2.015427589416503906e+00
3.829000000000000000e+03 3.635173034667968750e+01 2.217665910720825195e+00 1.196222305297851562e-01 -2.378190159797668457e-01 -3.545903414487838745e-02 1.274985969066619873e-01
3.830000000000000000e+03 7.466169738769531250e+01 1.085249614715576172e+01 -3.238213956356048584e-01 5.886400699615478516e+00 1.668773770332336426e+00 -3.186174869537353516e+00
3.831000000000000000e+03 5.197530746459960938e+01 1.119629573822021484e+01 3.354482173919677734e+00 1.614027404785156250e+01 5.848426818847656250e+00 5.098304748535156250e-01
3.832000000000000000e+03 2.565608787536621094e+01 4.146215021610260010e-01 1.963743865489959717e-01 -3.943249881267547607e-01 -5.938518047332763672e-02 -3.343274593353271484e-01
3.833000000000000000e+03 6.336634445190429688e+01 -1.214411497116088867e+00 -3.309073925018310547e+00 7.449515342712402344e+00 1.242132425308227539e+00 3.701617479324340820e+00
3.834000000000000000e+03 2.416385459899902344e+01 1.115415000915527344e+01 -3.237965330481529236e-02 1.542771011590957642e-01 3.656923398375511169e-02 3.572193160653114319e-02
3.835000000000000000e+03 3.162377119064331055e+00 -3.400252819061279297e+00 -3.193333745002746582e-03 -2.544434275478124619e-03 -1.721330452710390091e-03 -2.253558719530701637e-03
3.836000000000000000e+03 5.081549835205078125e+01 -1.828557777404785156e+01 -1.858381748199462891e+00 6.652357429265975952e-02 -5.375574231147766113e-01 4.570807814598083496e-01
3.837000000000000000e+03 5.248376464843750000e+01 -2.051289749145507812e+01 -5.604884624481201172e-01 1.414251476526260376e-01 -1.257189959287643433e-01 6.468170285224914551e-01
3.838000000000000000e+03 6.583887481689453125e+01 1.527373027801513672e+01 -1.076168566942214966e-02 9.575634956359863281e+00 2.869462013244628906e+00 -1.526651501655578613e+00
3.839000000000000000e+03 6.503575897216796875e+01 1.475536823272705078e+01 9.221797585487365723e-01 8.098113059997558594e+00 2.706087827682495117e+00 -3.554972410202026367e+00
3.840000000000000000e+03 7.508242797851562500e+01 1.355146318674087524e-01 -2.639365196228027344e+00 4.278121948242187500e+00 4.916270077228546143e-01 5.854721665382385254e-01
3.841000000000000000e+03 7.587454223632812500e+01 1.267729997634887695e+00 -3.646703243255615234e+00 7.224221706390380859e+00 1.073255538940429688e+00 5.269369110465049744e-03
3.842000000000000000e+03 6.668665313720703125e+01 -1.202953934669494629e+00 -3.362804651260375977e+00 1.697828054428100586e+00 -4.994929730892181396e-01 9.244020581245422363e-01
3.843000000000000000e+03 2.689581298828125000e+01 -5.849576473236083984e+00 -1.776639521121978760e-01 2.324371039867401123e-01 1.643194630742073059e-02 3.824527561664581299e-01
3.844000000000000000e+03 3.096381568908691406e+01 -7.588274002075195312e+00 -1.428909450769424438e-01 1.560816019773483276e-01 3.957196138799190521e-03 1.160655617713928223e-01
3.845000000000000000e+03 2.113697052001953125e+01 9.785032272338867188e+00 3.650343790650367737e-02 8.154947310686111450e-02 3.541587293148040771e-02 5.527900904417037964e-02
3.846000000000000000e+03 7.310140991210937500e+01 -1.500581073760986328e+01 1.042598962783813477e+00 1.079045104980468750e+01 3.549914836883544922e+00 9.245777130126953125e-02
3.847000000000000000e+03 3.715183258056640625e+01 -8.874585628509521484e-01 4.656008481979370117e-01 -5.797893404960632324e-01 -3.425654768943786621e-02 -2.807261645793914795e-01
3.848000000000000000e+03 5.294408416748046875e+01 2.450643777847290039e+00 5.237416744232177734e+00 1.397127628326416016e+01 5.762608051300048828e+00 -1.766287803649902344e+00
3.849000000000000000e+03 3.638251113891601562e+01 3.211812734603881836e+00 -1.719788648188114166e-02 -1.187878400087356567e-01 -4.079571738839149475e-02 2.017151564359664917e-01
3.850000000000000000e+03 4.266332244873046875e+01 -1.564947032928466797e+01 9.731671810150146484e-01 5.101550102233886719e+00 1.822415232658386230e+00 3.939907252788543701e-01
3.851000000000000000e+03 7.773703002929687500e+01 2.794574165344238281e+01 -1.104367151856422424e-02 6.152261734008789062e+00 1.842365503311157227e+00 1.369141191244125366e-01
3.852000000000000000e+03 7.791119384765625000e+01 -2.779390907287597656e+01 4.594173282384872437e-03 7.961117744445800781e+00 2.389713525772094727e+00 1.022105067968368530e-01
3.853000000000000000e+03 7.801885223388671875e+01 1.805197143554687500e+01 1.013519689440727234e-01 5.836168766021728516e+00 1.781256318092346191e+00 -1.148995161056518555e-01
3.854000000000000000e+03 1.831338882446289062e+01 -7.850555419921875000e+00 -1.513386517763137817e-01 1.548056025058031082e-02 -4.075742512941360474e-02 2.883991971611976624e-02
3.855000000000000000e+03 2.633867740631103516e+00 3.488736724853515625e+01 1.089988835155963898e-02 -4.062648713588714600e-01 -1.186094954609870911e-01 5.160304158926010132e-02
3.856000000000000000e+03 1.895832538604736328e+00 1.773067283630371094e+01 -4.977155942469835281e-03 -8.708705753087997437e-02 -2.761926315724849701e-02 1.615885272622108459e-02
3.857000000000000000e+03 1.977995038032531738e+00 -1.811239051818847656e+01 -1.804895931854844093e-03 -1.264272034168243408e-01 -3.846962749958038330e-02 -3.648210316896438599e-02
3.858000000000000000e+03 3.693666839599609375e+01 8.034085035324096680e-01 3.297467529773712158e-01 -4.256540536880493164e-01 -2.877218835055828094e-02 -1.056729927659034729e-01
3.859000000000000000e+03 4.897886657714843750e+01 6.268335342407226562e+00 1.493359565734863281e+00 7.283943653106689453e+00 2.633190870285034180e+00 2.235879898071289062e+00
3.860000000000000000e+03 7.432210540771484375e+01 -1.109732913970947266e+01 1.182235836982727051e+00 1.017304801940917969e+01 3.406585216522216797e+00 2.962304055690765381e-01
3.861000000000000000e+03 2.613845825195312500e+00 6.729737281799316406e+00 -3.892448497936129570e-03 -1.246392447501420975e-02 -4.906911868602037430e-03 1.994040794670581818e-02
3.862000000000000000e+03 1.794011831283569336e+00 -6.785501003265380859e+00 -2.322651678696274757e-03 -8.701443672180175781e-03 -3.307228442281484604e-03 -6.233151070773601532e-03
3.863000000000000000e+03 1.519698238372802734e+01 -3.543503284454345703e+00 -2.829951792955398560e-02 1.479081693105399609e-04 -8.445482701063156128e-03 1.280623488128185272e-02
3.864000000000000000e+03 7.744739532470703125e+01 -1.890032958984375000e+01 -2.324949502944946289e-01 8.263714790344238281e+00 2.409366130828857422e+00 -3.437701165676116943e-01
3.865000000000000000e+03 2.213277578353881836e+00 -2.355880355834960938e+01 -1.528845314169302583e-04 -2.182654589414596558e-01 -6.552550196647644043e-02 -4.623983427882194519e-02
3.866000000000000000e+03 7.284546661376953125e+01 -7.459290027618408203e+00 4.071019589900970459e-01 8.393878936767578125e+00 2.640294313430786133e+00 -3.106614947319030762e-01
3.867000000000000000e+03 2.378013849258422852e+00 -3.083996200561523438e+01 2.809441881254315376e-03 -3.387643098831176758e-01 -1.007864624261856079e-01 -3.796661272644996643e-02
3.868000000000000000e+03 2.793912315368652344e+01 1.677393555641174316e+00 -1.365603357553482056e-01 -3.575336635112762451e-01 -1.482281982898712158e-01 -4.247074425220489502e-01
3.869000000000000000e+03 6.626578330993652344e+00 -3.004209280014038086e+00 -9.749907068908214569e-03 -5.921864067204296589e-04 -3.102628048509359360e-03 -5.367070902138948441e-03
3.870000000000000000e+03 2.498776435852050781e+00 1.901823997497558594e+01 -8.381345309317111969e-03 -9.887427091598510742e-02 -3.217668458819389343e-02 2.776203118264675140e-02
3.871000000000000000e+03 2.022683334350585938e+01 1.584674715995788574e+00 -7.182740140706300735e-03 8.099474944174289703e-03 2.750204293988645077e-04 -2.714372240006923676e-03
3.872000000000000000e+03 7.772579193115234375e+01 3.392271804809570312e+01 -1.343981456011533737e-02 6.382312297821044922e+00 1.910661697387695312e+00 8.061949163675308228e-02
3.873000000000000000e+03 1.525592613220214844e+01 1.311533737182617188e+01 -1.045732875354588032e-03 5.668510496616363525e-02 1.669181138277053833e-02 3.834893181920051575e-02
3.874000000000000000e+03 7.438236999511718750e+01 -1.245088958740234375e+01 1.203843832015991211e+00 1.024019622802734375e+01 3.433212041854858398e+00 1.785703748464584351e-01
3.875000000000000000e+03 5.462753295898437500e+01 -2.123202514648437500e+01 -8.000161051750183105e-01 3.002874612808227539e+00 6.608575582504272461e-01 2.190837621688842773e+00
3.876000000000000000e+03 5.603626632690429688e+01 -2.006974983215332031e+01 -1.892409563064575195e+00 8.429843902587890625e+00 1.961230278015136719e+00 2.388629913330078125e+00
3.877000000000000000e+03 2.012454509735107422e+00 2.040386009216308594e+01 -4.964079242199659348e-03 -1.180582046508789062e-01 -3.690668568015098572e-02 2.950597554445266724e-02
3.878000000000000000e+03 6.861707305908203125e+01 -1.750497055053710938e+01 -1.163045689463615417e-01 1.375601172447204590e+00 3.777889609336853027e-01 -2.950245141983032227e-01
3.879000000000000000e+03 1.725574684143066406e+01 6.122631072998046875e+00 -1.197238191962242126e-01 -1.790967397391796112e-02 -4.129004850983619690e-02 -4.875269532203674316e-02
3.880000000000000000e+03 2.427202606201171875e+01 1.754345512390136719e+01 -9.991074800491333008e-01 -4.172253608703613281e-01 -4.248998463153839111e-01 1.187313497066497803e-01
3.881000000000000000e+03 5.404214859008789062e+01 -1.992624664306640625e+01 -5.544316172599792480e-01 6.881269812583923340e-01 4.010859876871109009e-02 2.517390966415405273e+00
3.882000000000000000e+03 4.353299331665039062e+01 -3.571653604507446289e+00 2.137955188751220703e+00 7.847399234771728516e+00 2.995606422424316406e+00 6.721284985542297363e-01
3.883000000000000000e+03 4.432040023803710938e+01 -3.029126167297363281e+00 4.716366827487945557e-01 1.038996887207031250e+01 3.258481502532958984e+00 1.395306348800659180e+00
3.884000000000000000e+03 2.705992507934570312e+01 1.481001472473144531e+01 -4.094190299510955811e-01 2.485585398972034454e-02 -1.153689548373222351e-01 3.205532431602478027e-01
3.885000000000000000e+03 3.140232658386230469e+01 -1.003033351898193359e+01 -3.559688329696655273e-01 2.813728339970111847e-02 -9.834946691989898682e-02 2.261509001255035400e-01
3.886000000000000000e+03 1.806243515014648438e+01 -7.158643245697021484e+00 -1.216282024979591370e-01 6.150024011731147766e-03 -3.464345633983612061e-02 3.763570263981819153e-02
3.887000000000000000e+03 1.726198577880859375e+01 1.558123207092285156e+01 -2.046204358339309692e-01 5.702373757958412170e-02 -4.427900910377502441e-02 2.997064590454101562e-02
3.888000000000000000e+03 1.602492904663085938e+01 1.459934520721435547e+01 -1.069528162479400635e-01 5.769700184464454651e-02 -1.477674581110477448e-02 3.215936943888664246e-02
3.889000000000000000e+03 4.335546493530273438e+01 1.404576969146728516e+01 -1.146391510963439941e+00 3.867897093296051025e-01 -2.278805226087570190e-01 -1.989148259162902832e-01
3.890000000000000000e+03 4.285024261474609375e+01 1.362654113769531250e+01 -1.090595841407775879e+00 4.040236473083496094e-01 -2.059716433286666870e-01 -1.516603976488113403e-01
3.891000000000000000e+03 4.107739257812500000e+01 -9.581948280334472656e+00 -1.247464776039123535e+00 3.568252563476562500e+00 6.962363719940185547e-01 1.349497079849243164e+00
3.892000000000000000e+03 4.709143447875976562e+01 1.655751609802246094e+01 8.942027091979980469e-01 3.535808622837066650e-01 3.743350803852081299e-01 -1.404031395912170410e+00
3.893000000000000000e+03 3.122474908828735352e+00 -3.186325836181640625e+01 7.437665946781635284e-03 -3.206577599048614502e-01 -9.396602958440780640e-02 -4.769521951675415039e-02
3.894000000000000000e+03 7.692922210693359375e+01 2.975843620300292969e+01 -1.708631590008735657e-02 6.210095405578613281e+00 1.857902646064758301e+00 1.527855098247528076e-01
3.895000000000000000e+03 7.638062286376953125e+01 -3.208635711669921875e+01 2.633230201900005341e-02 7.506505966186523438e+00 2.259851455688476562e+00 8.437673002481460571e-02
3.896000000000000000e+03 7.422225952148437500e+01 2.870549583435058594e+01 -4.564801976084709167e-02 6.145033359527587891e+00 1.829815626144409180e+00 2.151342928409576416e-01
3.897000000000000000e+03 2.584206819534301758e+00 -3.383460617065429688e+01 3.158845240250229836e-03 -3.713425099849700928e-01 -1.104551032185554504e-01 -3.091211616992950439e-02
3.898000000000000000e+03 3.690998792648315430e+00 -3.271508026123046875e+01 8.969144895672798157e-03 -3.090913295745849609e-01 -9.003665298223495483e-02 -4.978889599442481995e-02
3.899000000000000000e+03 4.441231250762939453e+00 -3.005283737182617188e+01 5.537413526326417923e-03 -2.537865638732910156e-01 -7.447474449872970581e-02 -6.666742265224456787e-02
3.900000000000000000e+03 3.963758468627929688e+00 3.342039108276367188e+01 1.437176857143640518e-02 -3.407678604125976562e-01 -9.791882336139678955e-02 8.450061082839965820e-02
3.901000000000000000e+03 4.181805133819580078e+00 3.253718566894531250e+01 1.105799525976181030e-02 -3.231708109378814697e-01 -9.363384544849395752e-02 8.983577042818069458e-02
3.902000000000000000e+03 7.615586090087890625e+01 3.348793029785156250e+01 -3.327952697873115540e-02 6.269836425781250000e+00 1.870967030525207520e+00 1.276973038911819458e-01
3.903000000000000000e+03 7.799475097656250000e+01 -3.640486907958984375e+01 5.911658983677625656e-03 7.784301280975341797e+00 2.337064027786254883e+00 3.173641115427017212e-02
3.904000000000000000e+03 7.768601226806640625e+01 -3.549705123901367188e+01 7.664008531719446182e-03 7.738409519195556641e+00 2.323822021484375000e+00 2.840445376932621002e-02
3.905000000000000000e+03 3.599901199340820312e+01 1.583189487457275391e+01 -1.229284882545471191e+00 -3.771258592605590820e-01 -4.819232523441314697e-01 6.285636126995086670e-02
3.906000000000000000e+03 7.728044891357421875e+01 -1.481835365295410156e+01 2.511070072650909424e-01 8.156854629516601562e+00 2.522388458251953125e+00 -4.592436552047729492e-01
3.907000000000000000e+03 2.784062385559082031e+01 1.429397964477539062e+01 -4.291559755802154541e-01 -1.833714544773101807e-02 -1.342479437589645386e-01 1.860282570123672485e-01
3.908000000000000000e+03 2.780402183532714844e+01 1.497312927246093750e+01 -5.468893051147460938e-01 9.539018385112285614e-03 -1.612050831317901611e-01 3.077323436737060547e-01
3.909000000000000000e+03 3.729436492919921875e+01 1.542645168304443359e+01 -1.349030256271362305e+00 9.636458940804004669e-03 -4.018181264400482178e-01 3.865166008472442627e-02
3.910000000000000000e+03 3.692738723754882812e+01 1.494425773620605469e+01 -1.535561323165893555e+00 -1.105783730745315552e-01 -4.938419163227081299e-01 1.255033910274505615e-01
3.911000000000000000e+03 7.811814117431640625e+01 1.501362419128417969e+01 4.122358188033103943e-02 6.174642562866210938e+00 1.864759922027587891e+00 -3.728489875793457031e-01
3.912000000000000000e+03 7.809362792968750000e+01 1.653322029113769531e+01 9.019282460212707520e-02 5.948384761810302734e+00 1.811573266983032227e+00 -2.607463598251342773e-01
3.913000000000000000e+03 4.313846206665039062e+01 -1.155738067626953125e+01 -9.305192232131958008e-01 5.411588668823242188e+00 1.344320893287658691e+00 1.646057009696960449e+00
3.914000000000000000e+03 4.269607543945312500e+01 -1.111581325531005859e+01 -1.083389639854431152e+00 5.522834300994873047e+00 1.331833481788635254e+00 1.696886897087097168e+00
3.915000000000000000e+03 4.360665130615234375e+01 -5.553471565246582031e+00 2.072440624237060547e+00 9.411057472229003906e+00 3.445049524307250977e+00 1.356322169303894043e+00
3.916000000000000000e+03 1.782363176345825195e+00 1.479520511627197266e+01 -1.409569871611893177e-03 -6.698857992887496948e-02 -2.051944471895694733e-02 8.343622088432312012e-03
3.917000000000000000e+03 1.801994204521179199e+00 1.701299476623535156e+01 -2.047120127826929092e-03 -8.109219372272491455e-02 -2.494179271161556244e-02 1.266882009804248810e-02
3.918000000000000000e+03 7.070513153076171875e+01 1.033930110931396484e+01 2.417482584714889526e-01 3.013697147369384766e+00 9.766336679458618164e-01 6.561762094497680664e-01
3.919000000000000000e+03 6.994827270507812500e+01 8.713744163513183594e+00 -2.024408817291259766e+00 5.835466861724853516e+00 1.143317461013793945e+00 1.350059658288955688e-01
3.920000000000000000e+03 6.937647247314453125e+01 -2.781817674636840820e+00 -3.109705686569213867e+00 4.398681163787841797e+00 3.866925835609436035e-01 -1.749472260475158691e+00
3.921000000000000000e+03 5.680279159545898438e+01 -4.158696532249450684e-01 -1.353418946266174316e+00 2.611103534698486328e+00 3.773054182529449463e-01 -5.191089630126953125e+00
3.922000000000000000e+03 5.486300659179687500e+01 -6.402637481689453125e+00 -5.994613766670227051e-01 5.967572212219238281e+00 1.610433220863342285e+00 -1.760171413421630859e+00
3.923000000000000000e+03 2.405154991149902344e+01 6.218827962875366211e-01 1.758539304137229919e-02 -2.281282693147659302e-01 -6.316286325454711914e-02 -2.227136343717575073e-01
3.924000000000000000e+03 2.259208679199218750e+01 7.964228987693786621e-01 -2.409747615456581116e-02 -8.704157173633575439e-02 -3.334171324968338013e-02 -6.661091744899749756e-02
3.925000000000000000e+03 7.750804138183593750e+01 6.433857440948486328e+00 1.390853762626647949e+00 1.135193443298339844e+01 3.822836399078369141e+00 -1.687447428703308105e+00
3.926000000000000000e+03 7.800569915771484375e+01 7.646663188934326172e+00 1.284626960754394531e+00 8.679132461547851562e+00 2.989127874374389648e+00 -3.963007926940917969e-01
3.927000000000000000e+03 5.046113967895507812e+01 -2.301764011383056641e+00 -3.265545606613159180e+00 2.911197900772094727e+00 -1.063042804598808289e-01 -1.115563213825225830e-01
3.928000000000000000e+03 5.024164581298828125e+01 -3.318714380264282227e+00 -4.951769351959228516e+00 1.347192525863647461e+00 -1.081372976303100586e+00 2.167652733623981476e-02
3.929000000000000000e+03 5.118951416015625000e+01 -4.427697658538818359e+00 -4.207305431365966797e+00 2.075415611267089844e+00 -6.395668983459472656e-01 5.799281597137451172e-01
3.930000000000000000e+03 5.489115524291992188e+01 -7.599520206451416016e+00 2.601074278354644775e-01 6.101670265197753906e+00 1.908533334732055664e+00 -1.725209951400756836e+00
3.931000000000000000e+03 6.018561935424804688e+01 4.188925027847290039e-01 -3.230536460876464844e+00 2.483594894409179688e+00 -2.240825146436691284e-01 9.239997714757919312e-02
3.932000000000000000e+03 1.055374622344970703e+01 1.030459403991699219e+01 4.204153269529342651e-02 6.866307556629180908e-02 3.321138396859169006e-02 3.727296367287635803e-02
3.933000000000000000e+03 2.221846580505371094e+00 -1.399569702148437500e+01 -3.932865336537361145e-03 -6.569600105285644531e-02 -2.088866010308265686e-02 -3.066583536565303802e-02
3.934000000000000000e+03 7.719970703125000000e+01 9.402051925659179688e+00 -3.564506471157073975e-01 9.392155647277832031e+00 2.710711479187011719e+00 1.303079128265380859e-01
3.935000000000000000e+03 7.673912048339843750e+01 9.546643257141113281e+00 -7.504579424858093262e-01 1.011808586120605469e+01 2.810288190841674805e+00 -5.783795118331909180e-01
3.936000000000000000e+03 4.866390991210937500e+01 -1.585469007492065430e+00 -9.867630600929260254e-01 8.170659542083740234e-01 -5.090914294123649597e-02 2.728248119354248047e+00
3.937000000000000000e+03 2.419965553283691406e+01 1.488446235656738281e+00 -1.650477051734924316e-01 -9.267212450504302979e-02 -7.731594890356063843e-02 -2.068935781717300415e-01
3.938000000000000000e+03 7.610839843750000000e+01 -8.579856753349304199e-01 -1.467301249504089355e+00 7.112784385681152344e+00 1.693644881248474121e+00 9.617710709571838379e-01
3.939000000000000000e+03 3.278551101684570312e+00 5.385351181030273438e+00 -2.462284453213214874e-02 -4.104433115571737289e-03 -8.618183434009552002e-03 1.252335030585527420e-02
3.940000000000000000e+03 5.091225433349609375e+01 -2.822771787643432617e+00 -3.821460485458374023e+00 3.235911369323730469e+00 -1.756646782159805298e-01 -3.864863514900207520e-01
3.941000000000000000e+03 6.574981689453125000e+01 -1.565292453765869141e+01 -3.896720409393310547e-01 3.424709081649780273e+00 9.105110764503479004e-01 -1.330893397331237793e+00
3.942000000000000000e+03 6.722930908203125000e+01 -1.644152069091796875e+01 -6.842689514160156250e-01 2.117814064025878906e+00 4.300635159015655518e-01 -9.821701645851135254e-01
3.943000000000000000e+03 7.740155029296875000e+01 -1.667369651794433594e+01 -2.547035738825798035e-02 8.199441909790039062e+00 2.452191352844238281e+00 -6.100209355354309082e-01
3.944000000000000000e+03 6.852317047119140625e+01 1.122274780273437500e+01 2.137447118759155273e+00 8.563841819763183594e+00 3.210386753082275391e+00 5.825992226600646973e-01
3.945000000000000000e+03 6.775373077392578125e+01 1.252973365783691406e+01 3.227265834808349609e+00 9.959619522094726562e+00 3.956065416336059570e+00 1.048690676689147949e+00
3.946000000000000000e+03 7.754190826416015625e+01 -6.265392303466796875e+00 1.038414835929870605e-01 8.997525215148925781e+00 2.730410099029541016e+00 1.418902039527893066e+00
3.947000000000000000e+03 4.709191513061523438e+01 3.931651353836059570e+00 2.574467897415161133e+00 3.098435878753662109e+00 1.701871156692504883e+00 2.564533710479736328e+00
3.948000000000000000e+03 4.510840606689453125e+01 -1.257199764251708984e+01 -8.577536344528198242e-01 3.921807765960693359e+00 9.192162156105041504e-01 6.146696805953979492e-01
3.949000000000000000e+03 7.182113647460937500e+01 -6.438186645507812500e+00 -4.271174594759941101e-02 6.679776191711425781e+00 1.991119265556335449e+00 -1.204951882362365723e+00
3.950000000000000000e+03 7.089915466308593750e+01 -4.581812858581542969e+00 -1.250133633613586426e+00 4.797813415527343750e+00 1.064303994178771973e+00 -1.481812953948974609e+00
3.951000000000000000e+03 2.753149604797363281e+01 5.738953500986099243e-02 5.840804576873779297e-01 -2.439329773187637329e-01 1.020442470908164978e-01 -1.925531029701232910e-01
3.952000000000000000e+03 3.549165725708007812e+01 1.545772433280944824e+00 3.112448751926422119e-01 -2.467743456363677979e-01 1.934115961194038391e-02 1.889105737209320068e-01
3.953000000000000000e+03 5.577348327636718750e+01 1.014009952545166016e+01 2.946431338787078857e-01 5.008991241455078125e+00 1.591090321540832520e+00 9.807314276695251465e-01
3.954000000000000000e+03 3.746603393554687500e+01 -1.730500602722167969e+01 -9.194230288267135620e-02 -3.930960968136787415e-02 -3.937557339668273926e-02 6.927361488342285156e-01
3.955000000000000000e+03 3.860697555541992188e+01 -1.784502792358398438e+01 5.506378412246704102e-01 7.110045552253723145e-01 3.784927129745483398e-01 1.621194720268249512e+00
3.956000000000000000e+03 7.775935363769531250e+01 -3.967133522033691406e+00 -4.512753337621688843e-02 9.704999923706054688e+00 2.897961616516113281e+00 1.371348738670349121e+00
3.957000000000000000e+03 7.766102600097656250e+01 -2.489338397979736328e+00 -2.818001508712768555e-01 9.727929115295410156e+00 2.833838701248168945e+00 1.239944338798522949e+00
3.958000000000000000e+03 7.775115203857421875e+01 2.431055307388305664e+00 -9.232278466224670410e-01 1.082715415954589844e+01 2.971177816390991211e+00 -2.075006246566772461e+00
3.959000000000000000e+03 7.756058502197265625e+01 3.954010486602783203e+00 1.961313486099243164e-01 1.075547409057617188e+01 3.285481691360473633e+00 -2.624770879745483398e+00
3.960000000000000000e+03 1.814814567565917969e+00 -4.437544822692871094e+00 -1.433387747965753078e-03 -2.645421307533979416e-03 -1.223642728291451931e-03 -1.919806585647165775e-03
3.961000000000000000e+03 6.026396179199218750e+01 1.318755626678466797e+01 -5.633746385574340820e-01 -9.698864072561264038e-02 -1.981089860200881958e-01 -1.351502090692520142e-01
3.962000000000000000e+03 3.712358856201171875e+01 7.465098857879638672e+00 -2.080773934721946716e-02 -7.279787678271532059e-03 -8.426258340477943420e-03 1.791140064597129822e-02
3.963000000000000000e+03 5.656728744506835938e+01 -9.239368438720703125e+00 6.872513294219970703e-01 7.811773300170898438e+00 2.549707412719726562e+00 -9.326608777046203613e-01
3.964000000000000000e+03 6.145489120483398438e+01 -8.274790763854980469e+00 1.002167105674743652e+00 9.057290077209472656e+00 3.017837047576904297e+00 2.055457830429077148e-01
3.965000000000000000e+03 6.670961761474609375e+01 9.452711105346679688e+00 6.210761666297912598e-01 1.469768810272216797e+01 4.595629215240478516e+00 -8.251976370811462402e-01
3.966000000000000000e+03 2.851254844665527344e+01 1.383764362335205078e+01 -4.891592860221862793e-01 -3.813176229596138000e-02 -1.581873148679733276e-01 5.680040270090103149e-02
3.967000000000000000e+03 2.975003051757812500e+01 1.354248523712158203e+01 -6.338909268379211426e-01 -5.460274964570999146e-02 -2.065480947494506836e-01 -6.303123384714126587e-02
3.968000000000000000e+03 3.776688766479492188e+01 -1.199676871299743652e+00 3.757548034191131592e-01 -4.484158158302307129e-01 -2.179830148816108704e-02 -4.744619429111480713e-01
3.969000000000000000e+03 5.317233657836914062e+01 7.117756843566894531e+00 -8.719253540039062500e-01 1.423758316040039062e+01 4.009697437286376953e+00 -6.156960129737854004e-01
3.970000000000000000e+03 5.274408721923828125e+01 6.454829216003417969e+00 -1.597671806812286377e-01 1.414046478271484375e+01 4.194209575653076172e+00 -9.359817504882812500e-01
3.971000000000000000e+03 6.529602813720703125e+01 5.171614646911621094e+00 1.069738268852233887e-01 6.804393768310546875e+00 2.073410272598266602e+00 3.511677682399749756e-01
3.972000000000000000e+03 6.602970886230468750e+01 -1.448580980300903320e+00 -2.954904794692993164e+00 2.992682754993438721e-01 -7.966909408569335938e-01 1.612999439239501953e+00
3.973000000000000000e+03 6.589427185058593750e+01 -7.759482860565185547e-01 -1.830353379249572754e+00 2.194093227386474609e+00 1.091219559311866760e-01 3.293990850448608398e+00
3.974000000000000000e+03 1.985945510864257812e+01 7.203380107879638672e+00 -5.837084725499153137e-02 3.207374364137649536e-02 -7.889130152761936188e-03 -2.107076719403266907e-02
3.975000000000000000e+03 6.474555969238281250e+01 -1.537696838378906250e+00 -3.580520868301391602e+00 3.456279516220092773e+00 -3.727237880229949951e-02 6.207722663879394531e+00
3.976000000000000000e+03 3.692330932617187500e+01 -2.151238918304443359e+00 6.226564049720764160e-01 -9.077588319778442383e-01 -8.553073555231094360e-02 -2.905863821506500244e-01
3.977000000000000000e+03 3.633991622924804688e+01 -1.385242462158203125e+00 5.356302857398986816e-01 -6.861987709999084473e-01 -4.517054930329322815e-02 -2.295618951320648193e-01
3.978000000000000000e+03 1.688058662414550781e+01 -6.468019962310791016e+00 -9.520509839057922363e-02 8.864666335284709930e-03 -2.590212970972061157e-02 2.369314432144165039e-02
3.979000000000000000e+03 6.863745117187500000e+01 9.923470497131347656e+00 3.745459020137786865e-01 9.143851280212402344e+00 2.855519056320190430e+00 -8.492831885814666748e-02
3.980000000000000000e+03 6.178742218017578125e+01 1.571319293975830078e+01 1.871880650520324707e+00 1.506006360054016113e+00 1.013366103172302246e+00 -7.259346246719360352e-01
3.981000000000000000e+03 1.403625297546386719e+01 1.226429653167724609e+01 3.140968456864356995e-02 6.558793038129806519e-02 2.909928560256958008e-02 5.030964314937591553e-02
3.982000000000000000e+03 1.179082393646240234e+01 1.216396617889404297e+01 1.033803634345531464e-02 6.136693060398101807e-02 2.151148952543735504e-02 4.070742428302764893e-02
3.983000000000000000e+03 3.921508789062500000e+01 -3.615506410598754883e+00 1.122162103652954102e+00 -1.757846176624298096e-01 2.839132249355316162e-01 -4.204763472080230713e-01
3.984000000000000000e+03 3.986817932128906250e+01 -2.157578468322753906e+00 8.924854397773742676e-01 2.192953526973724365e-01 3.335342407226562500e-01 -7.847487926483154297e-01
3.985000000000000000e+03 3.216947937011718750e+01 2.933478593826293945e+00 -1.680264472961425781e-01 5.018422603607177734e-01 1.001447364687919617e-01 3.929089605808258057e-01
3.986000000000000000e+03 3.591985321044921875e+01 4.110821247100830078e+00 -3.118264302611351013e-02 -4.881602153182029724e-02 -2.399959973990917206e-02 2.026827633380889893e-01
3.987000000000000000e+03 2.204963684082031250e+01 7.699617862701416016e+00 -1.090805605053901672e-01 6.086150556802749634e-02 -1.446571759879589081e-02 -3.930766135454177856e-02
3.988000000000000000e+03 4.654142379760742188e+01 -1.445307350158691406e+01 -6.479341387748718262e-01 1.828315973281860352e+00 3.541145324707031250e-01 1.020903289318084717e-01
3.989000000000000000e+03 4.608467483520507812e+01 -1.285729503631591797e+01 -7.592560052871704102e-01 2.612460136413574219e+00 5.559612512588500977e-01 2.536348700523376465e-01
3.990000000000000000e+03 5.339537429809570312e+01 1.187910079956054688e+01 2.845774650573730469e+00 1.142816448211669922e+01 4.282181739807128906e+00 1.318468689918518066e+00
3.991000000000000000e+03 5.272121810913085938e+01 1.235601615905761719e+01 3.243849754333496094e+00 1.401462650299072266e+01 5.177542686462402344e+00 1.164423704147338867e+00
3.992000000000000000e+03 2.755136489868164062e+01 -5.915461540222167969e+00 -1.262879818677902222e-01 3.340289592742919922e-01 6.232229620218276978e-02 4.215680658817291260e-01
3.993000000000000000e+03 2.819627761840820312e+01 -5.260771512985229492e-02 8.309053182601928711e-01 -7.665533572435379028e-02 2.262749820947647095e-01 -6.936357915401458740e-02
3.994000000000000000e+03 3.559888076782226562e+01 6.943125247955322266e+00 -6.945416331291198730e-02 2.486278116703033447e-02 -1.337741501629352570e-02 2.937086112797260284e-02
3.995000000000000000e+03 3.513299942016601562e+01 7.929920673370361328e+00 -5.448863282799720764e-02 9.380820207297801971e-03 -1.353234332054853439e-02 2.698351629078388214e-03
3.996000000000000000e+03 7.331372833251953125e+01 -7.913432598114013672e+00 7.305990457534790039e-01 8.846208572387695312e+00 2.873042345046997070e+00 1.367155015468597412e-01
3.997000000000000000e+03 7.763709259033203125e+01 2.553819656372070312e+01 -3.928815014660358429e-03 6.039139747619628906e+00 1.810563325881958008e+00 1.543015241622924805e-01
3.998000000000000000e+03 2.718630981445312500e+01 1.350754380226135254e+00 8.383005624637007713e-04 -4.019152820110321045e-01 -1.203230917453765869e-01 -4.606742262840270996e-01
3.999000000000000000e+03 6.375707244873046875e+01 4.696493625640869141e+00 -2.119052857160568237e-01 3.700653076171875000e+00 1.046624302864074707e+00 9.990596771240234375e-01
4.000000000000000000e+03 2.360468292236328125e+01 -2.290794998407363892e-01 1.200301200151443481e-01 -2.692960500717163086e-01 -4.477978497743606567e-02 -1.276318281888961792e-01
4.001000000000000000e+03 2.603378486633300781e+01 -8.097937583923339844e+00 -7.742126937955617905e-03 1.687697023153305054e-01 4.830827191472053528e-02 2.844166159629821777e-01
4.002000000000000000e+03 2.684844398498535156e+01 -9.664890289306640625e+00 -2.236201316118240356e-01 3.006733357906341553e-01 2.311596088111400604e-02 1.819835305213928223e-01
4.003000000000000000e+03 8.573084831237792969e+00 8.737856864929199219e+00 6.005620211362838745e-02 6.848046090453863144e-03 2.007127553224563599e-02 2.336021326482295990e-02
4.004000000000000000e+03 8.160923004150390625e+00 8.410250663757324219e+00 3.333273157477378845e-02 -1.580468565225601196e-02 5.258413031697273254e-03 3.220085054636001587e-02
4.005000000000000000e+03 2.221979141235351562e+01 -1.132865715026855469e+01 -2.202971577644348145e-01 4.878640919923782349e-02 -5.145322158932685852e-02 5.427241325378417969e-02
4.006000000000000000e+03 2.250793075561523438e+01 -1.055920886993408203e+01 -2.053106129169464111e-01 7.325661368668079376e-03 -5.939548462629318237e-02 1.015761196613311768e-01
4.007000000000000000e+03 2.143814659118652344e+01 -9.070558547973632812e+00 -2.674247622489929199e-01 -4.341706261038780212e-02 -9.325255453586578369e-02 7.338110357522964478e-02
4.008000000000000000e+03 4.373317337036132812e+01 -9.003838539123535156e+00 -7.570048570632934570e-01 6.901614189147949219e+00 1.843382835388183594e+00 9.453547000885009766e-01
4.009000000000000000e+03 3.347078704833984375e+01 4.600131511688232422e+00 -3.087006807327270508e-01 1.857808530330657959e-01 -3.687594830989837646e-02 1.814491599798202515e-01
4.010000000000000000e+03 4.276259231567382812e+01 -1.316078472137451172e+01 -1.072220280766487122e-01 5.434070587158203125e+00 1.598054528236389160e+00 1.343945503234863281e+00
4.011000000000000000e+03 4.232326507568359375e+01 -1.370748424530029297e+01 3.095407783985137939e-01 5.758064270019531250e+00 1.820281505584716797e+00 1.454366326332092285e+00
4.012000000000000000e+03 5.545217895507812500e+01 -6.922831058502197266e+00 -1.147733554244041443e-01 6.312902927398681641e+00 1.859438896179199219e+00 -1.619687199592590332e+00
4.013000000000000000e+03 6.163431930541992188e+01 -4.496737957000732422e+00 1.815766334533691406e+00 8.452818870544433594e+00 3.080575704574584961e+00 5.388420820236206055e-01
4.014000000000000000e+03 4.829533004760742188e+01 -1.615507125854492188e+01 -9.579378962516784668e-01 6.610004305839538574e-01 -8.908123522996902466e-02 1.827915161848068237e-01
4.015000000000000000e+03 7.792111968994140625e+01 -2.859082984924316406e+01 1.921656541526317596e-02 7.933833122253417969e+00 2.385914802551269531e+00 9.385482966899871826e-02
4.016000000000000000e+03 2.797146987915039062e+01 -6.621380329132080078e+00 -1.420659571886062622e-01 3.458047807216644287e-01 6.112164258956909180e-02 3.767035305500030518e-01
4.017000000000000000e+03 7.808470916748046875e+01 1.728762245178222656e+01 1.176464408636093140e-01 5.883348464965820312e+00 1.800298452377319336e+00 -2.094621658325195312e-01
4.018000000000000000e+03 4.354589080810546875e+01 3.324610888957977295e-01 -5.143135786056518555e-01 3.775610923767089844e+00 9.783892035484313965e-01 1.998670339584350586e+00
4.019000000000000000e+03 4.435036849975585938e+01 -3.589249253273010254e-01 -7.307735085487365723e-01 4.735785007476806641e+00 1.201503396034240723e+00 3.003807544708251953e+00
4.020000000000000000e+03 1.741952133178710938e+01 -7.474920749664306641e+00 -1.273544877767562866e-01 2.024066820740699768e-02 -3.213414549827575684e-02 2.024664357304573059e-02
4.021000000000000000e+03 3.348507404327392578e+00 2.486005783081054688e+01 -8.111966773867607117e-03 -1.860549747943878174e-01 -5.825008079409599304e-02 7.607762515544891357e-02
4.022000000000000000e+03 2.203459501266479492e+00 2.478075599670410156e+01 -3.910849802196025848e-03 -1.972519457340240479e-01 -6.034883856773376465e-02 5.217509344220161438e-02
4.023000000000000000e+03 4.925920104980468750e+01 -1.689968872070312500e+01 -1.251663923263549805e+00 2.670330703258514404e-01 -2.953892648220062256e-01 3.705493807792663574e-01
4.024000000000000000e+03 5.044964981079101562e+01 -1.761899566650390625e+01 -1.858419060707092285e+00 -4.888506606221199036e-02 -5.721912384033203125e-01 6.151813268661499023e-01
4.025000000000000000e+03 3.022623538970947266e+00 2.757920455932617188e+01 -2.893047407269477844e-03 -2.479300498962402344e-01 -7.524693012237548828e-02 7.682164013385772705e-02
4.026000000000000000e+03 2.152987241744995117e+00 2.831983947753906250e+01 -2.775420725811272860e-04 -2.797804176807403564e-01 -8.401738852262496948e-02 5.893302336335182190e-02
4.027000000000000000e+03 3.900707244873046875e+01 -4.584033966064453125e+00 9.377897381782531738e-01 -4.668110311031341553e-01 1.412936151027679443e-01 -8.796793222427368164e-02
4.028000000000000000e+03 3.943141555786132812e+01 -5.177409172058105469e+00 9.744956493377685547e-01 -1.751028448343276978e-01 2.398178428411483765e-01 7.827431708574295044e-02
4.029000000000000000e+03 7.772467803955078125e+01 2.715909767150878906e+01 -1.130906119942665100e-02 6.112312316894531250e+00 1.830300927162170410e+00 1.461981087923049927e-01
4.030000000000000000e+03 5.255947113037109375e+01 4.683935165405273438e+00 2.458619356155395508e+00 1.433585548400878906e+01 5.038342475891113281e+00 -1.274415850639343262e+00
4.031000000000000000e+03 5.673851013183593750e+01 1.246255302429199219e+01 1.266766071319580078e+00 3.311872243881225586e+00 1.373591542243957520e+00 1.644367218017578125e+00
4.032000000000000000e+03 4.488027954101562500e+01 -1.591632008552551270e+00 -1.468319654464721680e+00 6.302639484405517578e+00 1.450295925140380859e+00 4.019119262695312500e+00
4.033000000000000000e+03 4.420058822631835938e+01 -1.787379860877990723e+00 -1.406030893325805664e+00 6.975039958953857422e+00 1.670702695846557617e+00 2.479037761688232422e+00
4.034000000000000000e+03 7.800058746337890625e+01 1.345254802703857422e+01 -1.120722442865371704e-01 6.547886848449707031e+00 1.930744290351867676e+00 -4.669883847236633301e-01
4.035000000000000000e+03 4.448444747924804688e+01 -1.021730709075927734e+01 -8.887375593185424805e-01 5.970392704010009766e+00 1.524496436119079590e+00 7.712281942367553711e-01
4.036000000000000000e+03 1.364906024932861328e+01 1.301855468750000000e+01 -9.933041408658027649e-03 6.006168574094772339e-02 1.503859367221593857e-02 4.285928979516029358e-02
4.037000000000000000e+03 2.627242088317871094e+01 -4.630776941776275635e-01 4.857276976108551025e-01 -3.812254965305328369e-01 3.135065361857414246e-02 -1.882469207048416138e-01
4.038000000000000000e+03 2.579863786697387695e+00 1.754972648620605469e+01 -5.479521583765745163e-03 -8.318550884723663330e-02 -2.659950777888298035e-02 2.100030705332756042e-02
4.039000000000000000e+03 2.101401329040527344e+00 1.843973731994628906e+01 -4.185711499303579330e-03 -9.324480593204498291e-02 -2.922915481030941010e-02 2.147430926561355591e-02
4.040000000000000000e+03 3.640795946121215820e+00 -4.023297309875488281e+00 -4.830665886402130127e-03 -3.720318432897329330e-03 -2.565295435488224030e-03 -4.319163970649242401e-03
4.041000000000000000e+03 5.786613464355468750e+01 -1.287210464477539062e+01 9.728088378906250000e-01 9.610979080200195312e+00 3.175136327743530273e+00 -2.397310584783554077e-01
4.042000000000000000e+03 5.740188980102539062e+01 -1.180335140228271484e+01 9.298604130744934082e-01 9.411208152770996094e+00 3.102320671081542969e+00 -4.898699522018432617e-01
4.043000000000000000e+03 7.792915344238281250e+01 -2.456217765808105469e+01 -3.193199262022972107e-02 8.105608940124511719e+00 2.422103166580200195e+00 1.004816964268684387e-01
4.044000000000000000e+03 2.005292177200317383e+00 -1.739663696289062500e+01 -1.869298052042722702e-03 -1.143460273742675781e-01 -3.486459702253341675e-02 -3.581448271870613098e-02
4.045000000000000000e+03 3.839090347290039062e+01 -1.632254958152770996e+00 5.927768945693969727e-01 -4.833425283432006836e-01 3.283030912280082703e-02 -7.566572427749633789e-01
4.046000000000000000e+03 4.403928756713867188e+01 -1.253349542617797852e+00 -1.134486198425292969e+00 5.850811004638671875e+00 1.414897441864013672e+00 2.747130632400512695e+00
4.047000000000000000e+03 2.374412918090820312e+01 8.047915458679199219e+00 -1.529659628868103027e-01 -4.915733588859438896e-04 -4.603726044297218323e-02 -8.069376647472381592e-02
4.048000000000000000e+03 6.143016052246093750e+01 -7.435719013214111328e+00 1.073705792427062988e+00 9.223448753356933594e+00 3.089146375656127930e+00 2.806037962436676025e-01
4.049000000000000000e+03 7.126105499267578125e+01 -1.753481101989746094e+01 -8.126834034919738770e-01 5.704573154449462891e+00 1.467566967010498047e+00 2.204964637756347656e+00
4.050000000000000000e+03 4.771711349487304688e+01 3.515347242355346680e+00 2.776866674423217773e+00 3.715292692184448242e+00 1.947647809982299805e+00 2.555876493453979492e+00
4.051000000000000000e+03 3.339016914367675781e+00 -2.822758483886718750e+01 4.171900916844606400e-03 -2.655765414237976074e-01 -7.842139154672622681e-02 -5.897093936800956726e-02
4.052000000000000000e+03 3.244092226028442383e+00 -2.737100219726562500e+01 2.966395812109112740e-03 -2.556377351284027100e-01 -7.580140233039855957e-02 -6.039266288280487061e-02
4.053000000000000000e+03 5.321769714355468750e+01 -4.437901496887207031e+00 -2.975367069244384766e+00 5.750486373901367188e+00 8.325358033180236816e-01 -1.818049669265747070e+00
4.054000000000000000e+03 2.006554985046386719e+01 1.786931991577148438e+01 -5.601905584335327148e-01 5.798434093594551086e-02 -1.506618708372116089e-01 1.754374057054519653e-01
4.055000000000000000e+03 3.926021575927734375e+01 7.992760181427001953e+00 -5.756150465458631516e-03 5.353212472982704639e-04 -1.566248713061213493e-03 -3.910773899406194687e-03
4.056000000000000000e+03 3.878107452392578125e+01 7.451842308044433594e+00 -7.060147821903228760e-03 -8.781458251178264618e-03 -4.752481821924448013e-03 4.202509298920631409e-03
4.057000000000000000e+03 2.464012527465820312e+01 -2.608911752700805664e+00 1.588382124900817871e-01 -4.044863581657409668e-01 -7.369444519281387329e-02 6.163271889090538025e-02
4.058000000000000000e+03 5.058550262451171875e+01 9.519275665283203125e+00 1.258593440055847168e+00 1.755534362792968750e+01 5.644180774688720703e+00 2.770679950714111328e+00
4.059000000000000000e+03 3.603272247314453125e+01 -1.630412673950195312e+01 -6.060045957565307617e-01 -7.931458950042724609e-02 -2.055957615375518799e-01 2.678451538085937500e-01
4.060000000000000000e+03 3.027029991149902344e+01 -7.927818298339843750e+00 -1.965233385562896729e-01 2.399970740079879761e-01 1.304211840033531189e-02 2.059807330369949341e-01
4.061000000000000000e+03 3.088595008850097656e+01 3.080768823623657227e+00 -5.384399890899658203e-01 4.573158323764801025e-01 -2.433724328875541687e-02 1.264821141958236694e-01
4.062000000000000000e+03 5.848263931274414062e+01 1.302223587036132812e+01 6.341158747673034668e-01 1.023531079292297363e+00 4.972940683364868164e-01 9.211257696151733398e-01
4.063000000000000000e+03 7.667944335937500000e+01 2.474859619140625000e+01 4.461849573999643326e-03 6.042857170104980469e+00 1.814195752143859863e+00 1.921835392713546753e-01
4.064000000000000000e+03 7.675408935546875000e+01 2.384784698486328125e+01 1.867900416254997253e-02 6.009912014007568359e+00 1.808577299118041992e+00 1.857537925243377686e-01
4.065000000000000000e+03 4.747933578491210938e+01 -1.215443134307861328e+00 -4.232911765575408936e-01 1.562258481979370117e+00 3.416901826858520508e-01 4.439340591430664062e+00
4.066000000000000000e+03 4.746275329589843750e+01 -1.811087369918823242e+00 -3.111017681658267975e-02 3.287218511104583740e-01 8.928350359201431274e-02 4.154385089874267578e+00
4.067000000000000000e+03 2.827509498596191406e+01 -2.965006351470947266e+00 3.049575984477996826e-01 5.276728868484497070e-01 2.497891336679458618e-01 3.804673850536346436e-01
4.068000000000000000e+03 2.925416564941406250e+01 -2.289836883544921875e+00 3.504337072372436523e-01 1.111645221710205078e+00 4.386236667633056641e-01 4.662027359008789062e-01
4.069000000000000000e+03 1.589352607727050781e+01 -4.749783515930175781e+00 -5.013105273246765137e-02 6.682733073830604553e-04 -1.483883429318666458e-02 1.640694588422775269e-02
4.070000000000000000e+03 2.597068071365356445e+00 1.174921703338623047e+01 5.491583608090877533e-03 -4.849581792950630188e-02 -1.290127076208591461e-02 1.561805792152881622e-02
4.071000000000000000e+03 2.614089965820312500e+00 -1.196570301055908203e+01 -5.393683444708585739e-03 -4.342778772115707397e-02 -1.464644167572259903e-02 -2.772960253059864044e-02
4.072000000000000000e+03 2.718380928039550781e+00 7.447902679443359375e+00 -5.799750797450542450e-03 -2.317778579890727997e-02 -8.693261072039604187e-03 2.452786825597286224e-02
4.073000000000000000e+03 2.566786289215087891e+00 -7.542077064514160156e+00 -4.616978578269481659e-03 -1.337652467191219330e-02 -5.398050881922245026e-03 -1.143444981426000595e-02
4.074000000000000000e+03 2.736237287521362305e+00 -4.157864570617675781e+00 -3.000892931595444679e-03 -3.320225980132818222e-03 -1.896335743367671967e-03 -2.923340303823351860e-03
4.075000000000000000e+03 4.864366531372070312e+01 4.752646923065185547e+00 2.359064579010009766e+00 5.623936653137207031e+00 2.394900321960449219e+00 2.077603816986083984e+00
4.076000000000000000e+03 5.849458312988281250e+01 -1.618195152282714844e+01 1.096505284309387207e+00 9.089280128479003906e+00 3.055735588073730469e+00 -5.148355364799499512e-01
4.077000000000000000e+03 7.443453216552734375e+01 -1.314526176452636719e+01 1.167093038558959961e+00 1.016605472564697266e+01 3.399944543838500977e+00 2.264022231101989746e-01
4.078000000000000000e+03 5.088214874267578125e+01 7.312919616699218750e+00 -2.282936125993728638e-01 1.325864887237548828e+01 3.909106731414794922e+00 6.184849739074707031e-01
4.079000000000000000e+03 4.173644256591796875e+01 -1.101724147796630859e+00 -8.399094641208648682e-02 2.143069267272949219e+00 6.177235245704650879e-01 2.660053074359893799e-01
4.080000000000000000e+03 4.274012756347656250e+01 -1.397281527519226074e+00 -3.569954931735992432e-01 4.344248771667480469e+00 1.196175932884216309e+00 8.710571527481079102e-01
4.081000000000000000e+03 6.168629074096679688e+01 1.445517659187316895e+00 -3.284857988357543945e+00 3.290036439895629883e+00 1.553562935441732407e-03 1.125068902969360352e+00
4.082000000000000000e+03 7.725195312500000000e+01 -1.963158607482910156e+01 -2.364818304777145386e-01 8.224484443664550781e+00 2.396400690078735352e+00 -2.375181913375854492e-01
4.083000000000000000e+03 7.708390045166015625e+01 -2.946131324768066406e+01 2.853209525346755981e-02 7.715137481689453125e+00 2.323100805282592773e+00 1.092733964323997498e-01
4.084000000000000000e+03 6.872725677490234375e+01 7.553723812103271484e+00 -1.873989582061767578e+00 1.039851570129394531e+01 2.557357788085937500e+00 -1.730507969856262207e+00
4.085000000000000000e+03 2.357621955871582031e+01 -1.669934391975402832e+00 1.108637377619743347e-01 -3.593918383121490479e-01 -7.455843687057495117e-02 -1.294861081987619400e-03
4.086000000000000000e+03 7.777083587646484375e+01 9.584463119506835938e+00 -1.108494102954864502e-01 8.515423774719238281e+00 2.521372318267822266e+00 2.400650829076766968e-01
4.087000000000000000e+03 7.704496765136718750e+01 1.965531539916992188e+01 1.473993062973022461e-01 5.869159221649169922e+00 1.804967522621154785e+00 9.812370873987674713e-03
4.088000000000000000e+03 7.706753540039062500e+01 1.877247810363769531e+01 1.712730079889297485e-01 5.856574535369873047e+00 1.808354139328002930e+00 -6.178263947367668152e-02
4.089000000000000000e+03 6.032973861694335938e+01 1.493802833557128906e+01 1.433946847915649414e+00 8.731843829154968262e-01 6.921393871307373047e-01 6.016533374786376953e-01
4.090000000000000000e+03 5.962461090087890625e+01 1.454635906219482422e+01 1.154780626296997070e+00 1.061357140541076660e+00 6.648412942886352539e-01 9.878061413764953613e-01
4.091000000000000000e+03 2.616169691085815430e+00 2.258843994140625000e+01 -7.288382388651371002e-03 -1.515683382749557495e-01 -4.765701293945312500e-02 5.146964266896247864e-02
4.092000000000000000e+03 2.637591123580932617e+00 2.325875282287597656e+01 -6.929857190698385239e-03 -1.646463572978973389e-01 -5.147286504507064819e-02 5.428838729858398438e-02
4.093000000000000000e+03 7.546563720703125000e+01 7.009692192077636719e-01 -3.185686826705932617e+00 5.430685997009277344e+00 6.734997034072875977e-01 8.257374167442321777e-01
4.094000000000000000e+03 6.794869995117187500e+01 -2.109010696411132812e+00 -3.908592224121093750e+00 3.286872863769531250e+00 -1.865158230066299438e-01 -5.445374846458435059e-01
4.095000000000000000e+03 7.503673553466796875e+01 1.027962303161621094e+01 -6.032844185829162598e-01 7.160242557525634766e+00 1.967087507247924805e+00 -3.310519695281982422e+00
4.096000000000000000e+03 6.711853027343750000e+01 2.722425222396850586e+00 1.510027885437011719e+00 7.662283897399902344e+00 2.751693487167358398e+00 6.738833189010620117e-01
4.097000000000000000e+03 7.696799468994140625e+01 2.038958311080932617e+00 -2.171113252639770508e+00 1.005461215972900391e+01 2.365049839019775391e+00 -1.512634634971618652e+00
4.098000000000000000e+03 7.709579467773437500e+01 -1.267191886901855469e+00 -8.410804867744445801e-01 9.027460098266601562e+00 2.455914020538330078e+00 1.010905265808105469e+00
4.099000000000000000e+03 7.738820648193359375e+01 -1.882695794105529785e+00 -5.031486749649047852e-01 9.338791847229003906e+00 2.650692939758300781e+00 1.189865708351135254e+00
4.100000000000000000e+03 6.323317337036132812e+01 5.147439002990722656e+00 1.067286282777786255e-01 2.547068834304809570e+00 7.961392402648925781e-01 7.874300479888916016e-01
4.101000000000000000e+03 5.493973255157470703e+00 -3.482757806777954102e+00 -8.431913331151008606e-03 -2.164653968065977097e-03 -3.178969956934452057e-03 -5.556884221732616425e-03
4.102000000000000000e+03 6.020492076873779297e+00 -3.844562768936157227e+00 -1.089642662554979324e-02 -1.626705867238342762e-03 -3.756939899176359177e-03 -7.015940733253955841e-03
4.103000000000000000e+03 3.098504543304443359e+00 -2.274541854858398438e+01 -8.088683243840932846e-04 -1.862284988164901733e-01 -5.611121281981468201e-02 -6.055750325322151184e-02
4.104000000000000000e+03 2.987765312194824219e+00 -2.114662170410156250e+01 -1.977739855647087097e-03 -1.620936095714569092e-01 -4.922140389680862427e-02 -5.780616030097007751e-02
4.105000000000000000e+03 4.279289245605468750e+01 -7.422080516815185547e+00 1.695532053709030151e-01 6.545243263244628906e+00 2.014438867568969727e+00 1.292421221733093262e+00
4.106000000000000000e+03 4.340751647949218750e+01 -7.595062255859375000e+00 1.141754612326622009e-01 7.342865943908691406e+00 2.237112522125244141e+00 1.037741184234619141e+00
4.107000000000000000e+03 3.028152942657470703e+00 2.906775283813476562e+01 8.008816512301564217e-04 -2.787356674671173096e-01 -8.338043093681335449e-02 7.916400581598281860e-02
4.108000000000000000e+03 3.174707889556884766e+00 3.065859794616699219e+01 4.309738520532846451e-03 -3.118831515312194824e-01 -9.227202087640762329e-02 7.974343001842498779e-02
4.109000000000000000e+03 1.673810577392578125e+01 1.619960975646972656e+01 -2.342945784330368042e-01 7.516415417194366455e-02 -4.773912951350212097e-02 5.873924493789672852e-02
4.110000000000000000e+03 4.445750427246093750e+01 -1.375602436065673828e+01 -2.625191807746887207e-01 4.047749042510986328e+00 1.135568976402282715e+00 7.916985750198364258e-01
4.111000000000000000e+03 7.156710052490234375e+01 -1.845897293090820312e+01 -5.386968255043029785e-01 6.051875591278076172e+00 1.653953671455383301e+00 1.733942508697509766e+00
4.112000000000000000e+03 7.233071899414062500e+01 -1.807497215270996094e+01 -9.741628170013427734e-01 7.422598361968994141e+00 1.934530735015869141e+00 1.453307986259460449e+00
4.113000000000000000e+03 5.873853683471679688e+01 -1.791908836364746094e+01 9.875551462173461914e-01 8.384723663330078125e+00 2.811683654785156250e+00 -9.430431127548217773e-01
4.114000000000000000e+03 5.749246597290039062e+01 -1.618248748779296875e+01 1.325927019119262695e+00 1.037732410430908203e+01 3.510975360870361328e+00 -6.840844452381134033e-02
4.115000000000000000e+03 7.735486602783203125e+01 -1.185174179077148438e+01 4.806802868843078613e-01 8.142283439636230469e+00 2.586889028549194336e+00 2.821388840675354004e-01
4.116000000000000000e+03 7.739161682128906250e+01 -1.260291957855224609e+01 4.765793085098266602e-01 8.097026824951171875e+00 2.572081804275512695e+00 7.131703197956085205e-02
4.117000000000000000e+03 7.674897003173828125e+01 2.886337661743164062e+01 -2.062177285552024841e-02 6.181945800781250000e+00 1.848397254943847656e+00 1.667367964982986450e-01
4.118000000000000000e+03 7.719173431396484375e+01 1.257741260528564453e+01 -3.249935209751129150e-01 6.939123153686523438e+00 1.984238862991333008e+00 -7.496793866157531738e-01
4.119000000000000000e+03 2.413063812255859375e+01 -1.547002792358398438e+00 2.164718210697174072e-01 -3.890308439731597900e-01 -5.176770687103271484e-02 -3.781887516379356384e-02
4.120000000000000000e+03 4.849533081054687500e+01 5.732666492462158203e+00 1.981129527091979980e+00 5.676623821258544922e+00 2.297326087951660156e+00 2.246220588684082031e+00
4.121000000000000000e+03 3.293712234497070312e+01 4.034584522247314453e+00 -3.045627474784851074e-01 2.835151255130767822e-01 -6.314293947070837021e-03 2.207955420017242432e-01
4.122000000000000000e+03 3.180704689025878906e+01 4.225018024444580078e+00 -5.347501039505004883e-01 2.757910192012786865e-01 -7.768772542476654053e-02 3.600142523646354675e-02
4.123000000000000000e+03 2.853956937789916992e+00 1.956163978576660156e+01 -9.169407188892364502e-03 -1.036673411726951599e-01 -3.385102376341819763e-02 3.550721332430839539e-02
4.124000000000000000e+03 6.777774810791015625e+01 7.521218776702880859e+00 -1.449348926544189453e+00 1.145629024505615234e+01 3.002082347869873047e+00 -2.028777837753295898e+00
4.125000000000000000e+03 7.705023956298828125e+01 -2.212645912170410156e+01 -1.591476500034332275e-01 8.024355888366699219e+00 2.359562397003173828e+00 5.521006882190704346e-02
4.126000000000000000e+03 7.706574249267578125e+01 -2.296239852905273438e+01 -8.721861988306045532e-02 7.971160411834716797e+00 2.365182638168334961e+00 1.009686291217803955e-01
4.127000000000000000e+03 6.425028991699218750e+01 5.235219955444335938e+00 7.284751534461975098e-02 4.721190452575683594e+00 1.438211441040039062e+00 9.203255772590637207e-01
4.128000000000000000e+03 4.142007827758789062e+01 -7.217820167541503906e+00 1.276857107877731323e-01 3.672004461288452148e+00 1.139907121658325195e+00 1.177082538604736328e+00
4.129000000000000000e+03 4.060305023193359375e+01 -8.007711410522460938e+00 -5.716584324836730957e-01 2.225821256637573242e+00 4.962488114833831787e-01 1.131706357002258301e+00
4.130000000000000000e+03 5.000157165527343750e+01 6.227086067199707031e+00 9.481662511825561523e-01 9.985979080200195312e+00 3.280243635177612305e+00 1.330148577690124512e+00
4.131000000000000000e+03 2.871749877929687500e+00 -1.960310363769531250e+01 -2.993452129885554314e-03 -1.392930001020431519e-01 -4.268593713641166687e-02 -5.356676131486892700e-02
4.132000000000000000e+03 2.813380479812622070e+00 -1.885847663879394531e+01 -3.312477376312017441e-03 -1.284031420946121216e-01 -3.951468318700790405e-02 -5.092430859804153442e-02
4.133000000000000000e+03 5.030140304565429688e+01 -1.949110412597656250e+01 -1.338600039482116699e+00 6.814186573028564453e-01 -1.971544176340103149e-01 -1.055481806397438049e-01
4.134000000000000000e+03 5.063920593261718750e+01 -2.036942481994628906e+01 -9.619551897048950195e-01 7.418264746665954590e-01 -6.603862345218658447e-02 -1.715853810310363770e-01
4.135000000000000000e+03 7.421800994873046875e+01 -9.936489105224609375e+00 1.278056621551513672e+00 9.785139083862304688e+00 3.318958759307861328e+00 3.630584776401519775e-01
4.136000000000000000e+03 3.864721298217773438e+01 -3.894377470016479492e+00 1.024567246437072754e+00 -7.527824044227600098e-01 8.153543621301651001e-02 -3.195314407348632812e-01
4.137000000000000000e+03 3.720757293701171875e+01 -2.845319509506225586e+00 6.027294993400573730e-01 -1.034469485282897949e+00 -1.295219808816909790e-01 -2.470483779907226562e-01
4.138000000000000000e+03 3.439152002334594727e+00 -3.005134010314941406e+01 5.762379616498947144e-03 -2.819531261920928955e-01 -8.285722136497497559e-02 -5.861758068203926086e-02
4.139000000000000000e+03 3.401346445083618164e+00 -2.912030792236328125e+01 2.761464798822999001e-03 -2.742473781108856201e-01 -8.144576847553253174e-02 -5.787011981010437012e-02
4.140000000000000000e+03 5.379756164550781250e+01 2.126653492450714111e-01 -9.644468426704406738e-01 1.254946517944335938e+01 3.475505352020263672e+00 -2.840508222579956055e+00
4.141000000000000000e+03 5.418513870239257812e+01 -4.174830317497253418e-01 -2.354517936706542969e+00 1.098397636413574219e+01 2.588837623596191406e+00 -4.157591342926025391e+00
4.142000000000000000e+03 7.683107757568359375e+01 2.297942161560058594e+01 3.694894164800643921e-02 5.975322723388671875e+00 1.803681492805480957e+00 1.671297252178192139e-01
4.143000000000000000e+03 3.185126781463623047e+00 3.240534973144531250e+01 6.783965975046157837e-03 -3.439505696296691895e-01 -1.011499837040901184e-01 7.434469461441040039e-02
4.144000000000000000e+03 3.077845096588134766e+00 3.327666473388671875e+01 1.112562138587236404e-02 -3.629500269889831543e-01 -1.055473238229751587e-01 6.976999342441558838e-02
4.145000000000000000e+03 6.545316314697265625e+01 1.616956520080566406e+01 2.517493069171905518e-01 7.515401840209960938e+00 2.330145359039306641e+00 -1.920567750930786133e+00
4.146000000000000000e+03 2.900814056396484375e+01 -3.737920045852661133e+00 4.690716788172721863e-02 8.169568777084350586e-01 2.591592073440551758e-01 2.825325727462768555e-01
4.147000000000000000e+03 2.762698173522949219e+01 -5.282539844512939453e+00 -1.324846297502517700e-01 3.541337251663208008e-01 6.649472564458847046e-02 3.585290908813476562e-01
4.148000000000000000e+03 1.425909709930419922e+01 1.341403579711914062e+01 -2.636845782399177551e-02 6.421972066164016724e-02 1.135537959635257721e-02 3.941553831100463867e-02
4.149000000000000000e+03 6.226136016845703125e+01 -9.150638580322265625e+00 8.969287276268005371e-01 9.033341407775878906e+00 2.979080915451049805e+00 -2.453583031892776489e-01
4.150000000000000000e+03 2.671125411987304688e+01 -4.238349437713623047e+00 1.793767511844635010e-02 9.274076670408248901e-02 3.320353478193283081e-02 3.229956924915313721e-01
4.151000000000000000e+03 2.415120315551757812e+01 1.020729541778564453e+00 -1.040702164173126221e-01 -1.683702319860458374e-01 -8.173213154077529907e-02 -2.470068931579589844e-01
4.152000000000000000e+03 2.634327888488769531e+00 1.018552780151367188e+01 6.395511329174041748e-03 -4.013586789369583130e-02 -1.012210734188556671e-02 2.105308696627616882e-02
4.153000000000000000e+03 2.623821258544921875e+00 1.095920467376708984e+01 4.326385911554098129e-03 -4.504966363310813904e-02 -1.221698243170976639e-02 1.766728051006793976e-02
4.154000000000000000e+03 2.563435077667236328e+00 -1.052532100677490234e+01 -5.159645341336727142e-03 -3.095332719385623932e-02 -1.083389203995466232e-02 -2.158812806010246277e-02
4.155000000000000000e+03 2.856659650802612305e+00 8.622114181518554688e+00 2.542648231610655785e-03 -3.000020049512386322e-02 -8.237265981733798981e-03 2.629129216074943542e-02
4.156000000000000000e+03 2.614925622940063477e+00 -9.046087265014648438e+00 -5.180158652365207672e-03 -2.095604874193668365e-02 -7.840861566364765167e-03 -1.662098243832588196e-02
4.157000000000000000e+03 2.617158174514770508e+00 -8.291130065917968750e+00 -4.564343951642513275e-03 -1.684880629181861877e-02 -6.423945073038339615e-03 -1.407266780734062195e-02
4.158000000000000000e+03 7.710527038574218750e+01 -3.230619430541992188e+01 1.716605573892593384e-02 7.646125793457031250e+00 2.298987627029418945e+00 5.942133069038391113e-02
4.159000000000000000e+03 7.692383575439453125e+01 -3.311001205444335938e+01 -4.886905197054147720e-03 7.594216823577880859e+00 2.276798963546752930e+00 4.736308380961418152e-02
4.160000000000000000e+03 2.872288131713867188e+01 1.732146024703979492e+00 -6.711645424365997314e-02 1.953110471367835999e-02 -1.427560485899448395e-02 -3.110815882682800293e-01
4.161000000000000000e+03 2.888193321228027344e+01 1.231854915618896484e+00 3.215999007225036621e-01 1.887947022914886475e-01 1.531183719635009766e-01 -2.245973944664001465e-01
4.162000000000000000e+03 3.111413764953613281e+01 1.638150095939636230e+00 1.687849164009094238e-01 7.922511696815490723e-01 2.883108258247375488e-01 4.686575531959533691e-01
4.163000000000000000e+03 2.959271812438964844e+01 2.384453773498535156e+00 -4.593119919300079346e-01 3.366702198982238770e-01 -3.679252415895462036e-02 -1.936255097389221191e-01
4.164000000000000000e+03 3.992017745971679688e+01 1.486065578460693359e+01 -1.031488299369812012e+00 4.113050401210784912e-01 -1.860549747943878174e-01 8.673597127199172974e-02
4.165000000000000000e+03 7.397743988037109375e+01 -9.560512542724609375e+00 1.261782765388488770e+00 9.809146881103515625e+00 3.321278810501098633e+00 3.131081163883209229e-01
4.166000000000000000e+03 1.588672161102294922e+01 1.355643367767333984e+01 -2.978549711406230927e-02 4.808797687292098999e-02 5.490744020789861679e-03 3.041991777718067169e-02
4.167000000000000000e+03 1.549314689636230469e+01 1.410031795501708984e+01 -6.642381101846694946e-02 6.031517311930656433e-02 -1.832591835409402847e-03 3.283663839101791382e-02
4.168000000000000000e+03 3.223417282104492188e+00 3.152379798889160156e+01 5.160475615411996841e-03 -3.280640840530395508e-01 -9.687107801437377930e-02 7.694310694932937622e-02
4.169000000000000000e+03 4.174741744995117188e+01 -9.340088844299316406e+00 -1.220366120338439941e+00 4.641390323638916016e+00 1.026307344436645508e+00 1.534029006958007812e+00
4.170000000000000000e+03 7.361312866210937500e+01 -1.259888744354248047e+01 1.169116616249084473e+00 1.136070632934570312e+01 3.758946895599365234e+00 5.342791080474853516e-01
4.171000000000000000e+03 7.708831787109375000e+01 -2.042747879028320312e+01 -2.627810537815093994e-01 8.174061775207519531e+00 2.373384237289428711e+00 -1.195057705044746399e-01
4.172000000000000000e+03 7.705788421630859375e+01 -2.128145599365234375e+01 -1.894565224647521973e-01 8.098266601562500000e+00 2.372642993927001953e+00 -1.097244676202535629e-02
4.173000000000000000e+03 2.660653352737426758e+00 2.121826362609863281e+01 -8.982374332845211029e-03 -1.267014741897583008e-01 -4.070515558123588562e-02 4.386582970619201660e-02
4.174000000000000000e+03 2.664174318313598633e+00 2.189076042175292969e+01 -8.627299219369888306e-03 -1.377799361944198608e-01 -4.392217099666595459e-02 4.788578674197196960e-02
4.175000000000000000e+03 6.747985076904296875e+01 5.961546421051025391e+00 1.390694677829742432e-01 1.063739013671875000e+01 3.232938051223754883e+00 -2.022080659866333008e+00
4.176000000000000000e+03 6.695452117919921875e+01 5.448130130767822266e+00 3.776457905769348145e-01 9.590816497802734375e+00 2.990538597106933594e+00 -1.450760006904602051e+00
4.177000000000000000e+03 7.722933959960937500e+01 -3.086621665954589844e+01 3.440296649932861328e-02 7.704793453216552734e+00 2.321758985519409180e+00 8.583755791187286377e-02
4.178000000000000000e+03 7.721555328369140625e+01 -3.157801437377929688e+01 2.320559695363044739e-02 7.690354824066162109e+00 2.314068078994750977e+00 6.778402626514434814e-02
4.179000000000000000e+03 7.724519348144531250e+01 -1.023116016387939453e+01 4.834968745708465576e-01 8.324844360351562500e+00 2.642502546310424805e+00 7.763555645942687988e-01
4.180000000000000000e+03 7.730783843994140625e+01 -1.106812000274658203e+01 5.335187911987304688e-01 8.232039451599121094e+00 2.629667520523071289e+00 5.293456315994262695e-01
4.181000000000000000e+03 4.929945373535156250e+01 1.770120620727539062e+01 1.232644245028495789e-01 6.026784420013427734e+00 1.845014691352844238e+00 -3.228799581527709961e+00
4.182000000000000000e+03 6.754723358154296875e+01 -1.709108161926269531e+01 -4.763435423374176025e-01 2.220877885818481445e+00 5.233603119850158691e-01 -9.243580698966979980e-01
4.183000000000000000e+03 6.804920959472656250e+01 -1.864962959289550781e+01 4.188575148582458496e-01 2.646576404571533203e+00 9.196301698684692383e-01 -5.660373568534851074e-01
4.184000000000000000e+03 7.677356719970703125e+01 1.033017444610595703e+01 -8.633177876472473145e-01 8.756909370422363281e+00 2.368077278137207031e+00 -6.737061142921447754e-01
4.185000000000000000e+03 7.684365081787109375e+01 1.127664375305175781e+01 -7.257381081581115723e-01 7.828228473663330078e+00 2.130747079849243164e+00 -8.084591627120971680e-01
4.186000000000000000e+03 7.696900177001953125e+01 2.132666397094726562e+01 8.317067474126815796e-02 5.913717746734619141e+00 1.799066543579101562e+00 1.135430634021759033e-01
4.187000000000000000e+03 7.701835632324218750e+01 2.050240898132324219e+01 1.035592630505561829e-01 5.887858867645263672e+00 1.797425508499145508e+00 7.522184401750564575e-02
4.188000000000000000e+03 2.930156946182250977e+00 -2.036745643615722656e+01 -2.440322656184434891e-03 -1.504728794097900391e-01 -4.587396234273910522e-02 -5.564782023429870605e-02
4.189000000000000000e+03 3.399230194091796875e+01 -1.502160453796386719e+01 -6.854392290115356445e-01 4.048977792263031006e-02 -1.934848278760910034e-01 2.336445599794387817e-01
4.190000000000000000e+03 4.058089447021484375e+01 -2.411335706710815430e+00 1.162405014038085938e+00 1.052073121070861816e+00 6.643434166908264160e-01 -5.444447398185729980e-01
4.191000000000000000e+03 4.246208572387695312e+01 -3.754133462905883789e+00 1.882976531982421875e+00 5.011117458343505859e+00 2.068228244781494141e+00 3.979112207889556885e-02
4.192000000000000000e+03 7.753404998779296875e+01 2.202523350715637207e-01 -1.249327421188354492e+00 1.018400287628173828e+01 2.680402755737304688e+00 6.767860800027847290e-02
4.193000000000000000e+03 4.092787265777587891e+00 7.382541656494140625e+00 -1.026978343725204468e-02 -2.429432980716228485e-02 -1.036923378705978394e-02 3.497612476348876953e-02
4.194000000000000000e+03 4.772285938262939453e+00 6.416396141052246094e+00 -3.229134157299995422e-02 -1.345233805477619171e-02 -1.372310332953929901e-02 3.441295772790908813e-02
4.195000000000000000e+03 6.309112930297851562e+01 1.625428009033203125e+01 1.584547281265258789e+00 3.256683349609375000e+00 1.452369213104248047e+00 -1.933511018753051758e+00
4.196000000000000000e+03 2.526240539550781250e+01 9.922177314758300781e+00 -1.521049141883850098e-01 -6.746124476194381714e-03 -4.765531048178672791e-02 -1.003158688545227051e-01
4.197000000000000000e+03 3.182300186157226562e+01 1.530373096466064453e+01 -1.189883232116699219e+00 -5.997533351182937622e-02 -3.749575614929199219e-01 2.166245579719543457e-01
4.198000000000000000e+03 5.254275512695312500e+01 1.063000011444091797e+01 2.009138584136962891e+00 1.461863136291503906e+01 4.988330841064453125e+00 4.752502739429473877e-01
4.199000000000000000e+03 6.280451965332031250e+01 -1.205599689483642578e+01 2.503637671470642090e-01 7.124689102172851562e+00 2.212515830993652344e+00 -6.031685471534729004e-01
4.200000000000000000e+03 5.187435913085937500e+01 8.096944808959960938e+00 -6.508985757827758789e-01 1.476777935028076172e+01 4.235064506530761719e+00 -2.096927165985107422e-01
4.201000000000000000e+03 1.400308132171630859e+01 -3.328474760055541992e+00 -2.720240503549575806e-02 2.567800460383296013e-03 -7.390381302684545517e-03 6.567082367837429047e-03
4.202000000000000000e+03 1.404502773284912109e+01 -4.848079204559326172e+00 -4.895039647817611694e-02 9.143898263573646545e-03 -1.194194983690977097e-02 4.525048658251762390e-03
4.203000000000000000e+03 4.261147689819335938e+01 -1.688312911987304688e+01 -1.747563928365707397e-01 4.949954509735107422e+00 1.432559370994567871e+00 -1.377561390399932861e-01
4.204000000000000000e+03 4.340717315673828125e+01 -1.604065322875976562e+01 5.041303038597106934e-01 4.170798778533935547e+00 1.402478814125061035e+00 3.493679687380790710e-02
4.205000000000000000e+03 2.740197181701660156e+01 1.614835357666015625e+01 -7.357292175292968750e-01 1.091552376747131348e-01 -1.879721879959106445e-01 4.489162266254425049e-01
4.206000000000000000e+03 2.672070503234863281e+01 1.632026290893554688e+01 -8.461098074913024902e-01 1.283773779869079590e-01 -2.153197377920150757e-01 4.600994586944580078e-01
4.207000000000000000e+03 4.003038024902343750e+01 -6.866375923156738281e+00 1.345456689596176147e-01 8.949098587036132812e-01 3.088366687297821045e-01 8.071475625038146973e-01
4.208000000000000000e+03 1.539591121673583984e+01 -4.490128993988037109e+00 -4.370709881186485291e-02 3.618346527218818665e-03 -1.202662568539381027e-02 1.472463365644216537e-02
4.209000000000000000e+03 5.314702987670898438e+01 1.298176765441894531e+01 3.243155956268310547e+00 1.182327842712402344e+01 4.519930362701416016e+00 1.608098387718200684e+00
4.210000000000000000e+03 5.911867523193359375e+01 -1.445685768127441406e+01 8.951088190078735352e-01 8.750882148742675781e+00 2.893797159194946289e+00 -3.064828217029571533e-01
4.211000000000000000e+03 7.188674163818359375e+01 -2.037491083145141602e+00 -1.785393476486206055e+00 4.397891521453857422e+00 7.837494015693664551e-01 -2.530895233154296875e+00
4.212000000000000000e+03 7.274843597412109375e+01 -9.282494187355041504e-01 -1.522301793098449707e+00 2.439593553543090820e+00 2.751875519752502441e-01 -2.842289924621582031e+00
4.213000000000000000e+03 3.433155441284179688e+01 8.791428804397583008e-01 5.810989141464233398e-01 -1.839088946580886841e-01 1.191570088267326355e-01 3.257403671741485596e-01
4.214000000000000000e+03 2.477277755737304688e+01 -1.405786037445068359e+00 2.509842514991760254e-01 -3.899543583393096924e-01 -4.169103503227233887e-02 -7.937228679656982422e-02
4.215000000000000000e+03 7.754706573486328125e+01 5.141818523406982422e+00 7.184680700302124023e-01 1.129170703887939453e+01 3.603052616119384766e+00 -2.762620925903320312e+00
4.216000000000000000e+03 3.644243240356445312e+01 -6.626404523849487305e-01 5.937005877494812012e-01 -5.833830833435058594e-01 3.095255000516772270e-03 -1.645282208919525146e-01
4.217000000000000000e+03 3.522364425659179688e+01 -9.589283466339111328e-01 6.275827288627624512e-01 -5.246176719665527344e-01 3.088951669633388519e-02 -3.406668081879615784e-02
4.218000000000000000e+03 4.872160720825195312e+01 1.655987739562988281e+01 4.276328980922698975e-01 4.463252544403076172e+00 1.467265605926513672e+00 -4.545633316040039062e+00
4.219000000000000000e+03 4.839940643310546875e+01 1.854709434509277344e+01 8.101969212293624878e-02 4.364426612854003906e+00 1.333633899688720703e+00 -2.732243061065673828e+00
4.220000000000000000e+03 4.618521499633789062e+01 1.672099113464355469e+01 1.500158458948135376e-01 4.232680797576904297e-01 1.719851791858673096e-01 -9.190386533737182617e-01
4.221000000000000000e+03 5.153279113769531250e+01 4.502961635589599609e+00 2.747082471847534180e+00 1.133327293395996094e+01 4.224106788635253906e+00 -6.869190335273742676e-01
4.222000000000000000e+03 5.232308197021484375e+01 2.995340347290039062e+00 4.842663764953613281e+00 1.283351898193359375e+01 5.302855014801025391e+00 -1.024630069732666016e+00
4.223000000000000000e+03 3.018956375122070312e+01 -1.015928840637207031e+01 -3.811629414558410645e-01 1.814514696598052979e-01 -5.991343408823013306e-02 2.183022946119308472e-01
4.224000000000000000e+03 5.140652465820312500e+01 1.653635787963867188e+01 -3.553183078765869141e-01 1.162880897521972656e+01 3.382047176361083984e+00 1.352167874574661255e-01
4.225000000000000000e+03 2.513847351074218750e+00 3.234173536300659180e+00 -1.514490577392280102e-03 4.716036783065646887e-04 -3.128660609945654869e-04 -1.100601220969110727e-04
4.226000000000000000e+03 3.075242757797241211e+00 3.959136486053466797e+00 -2.123002428561449051e-03 -1.902569085359573364e-03 -1.207671477459371090e-03 1.206700108014047146e-03
4.227000000000000000e+03 6.816899108886718750e+01 7.827264070510864258e-01 -1.372468590736389160e+00 7.497510433197021484e+00 1.837512612342834473e+00 -3.259853124618530273e-01
4.228000000000000000e+03 6.679990386962890625e+01 -1.740974235534667969e+01 -1.727223545312881470e-01 2.916401863098144531e+00 8.231038451194763184e-01 -1.336284160614013672e+00
4.229000000000000000e+03 6.692608642578125000e+01 1.480094528198242188e+01 5.958682894706726074e-01 9.954065322875976562e+00 3.164979934692382812e+00 3.461984172463417053e-02
4.230000000000000000e+03 9.236327171325683594e+00 -3.226889371871948242e+00 -1.776350848376750946e-02 2.284487243741750717e-03 -4.643706139177083969e-03 -4.996006842702627182e-03
4.231000000000000000e+03 8.773813247680664062e+00 -3.810926914215087891e+00 -2.076254971325397491e-02 1.728901406750082970e-03 -5.710094701498746872e-03 -7.690137252211570740e-03
4.232000000000000000e+03 2.756728935241699219e+01 -7.022816658020019531e+00 -1.638366132974624634e-01 2.957595884799957275e-01 3.957689553499221802e-02 3.907527029514312744e-01
4.233000000000000000e+03 4.123520660400390625e+01 -1.714345169067382812e+01 -6.303715705871582031e-01 6.358024597167968750e+00 1.718295931816101074e+00 3.245407640933990479e-01
4.234000000000000000e+03 3.040611267089843750e+01 1.476960277557373047e+01 -9.201099872589111328e-01 5.004019662737846375e-02 -2.610209286212921143e-01 1.302642226219177246e-01
4.235000000000000000e+03 6.069649887084960938e+01 -6.708240509033203125e+00 1.372548937797546387e+00 8.295412063598632812e+00 2.900388240814208984e+00 3.462218642234802246e-01
4.236000000000000000e+03 3.573789978027343750e+01 6.305914402008056641e+00 -1.020748838782310486e-01 1.122297998517751694e-02 -2.725557237863540649e-02 7.102587074041366577e-02
4.237000000000000000e+03 7.024536132812500000e+01 -8.397317528724670410e-01 -3.268468379974365234e+00 6.170577526092529297e+00 8.706328272819519043e-01 -3.280048608779907227e+00
4.238000000000000000e+03 9.472411155700683594e+00 8.483716011047363281e+00 5.767006054520606995e-02 5.705440789461135864e-02 3.441734239459037781e-02 2.402209490537643433e-02
4.239000000000000000e+03 7.239542388916015625e+01 -5.970332145690917969e+00 -2.932013869285583496e-01 6.761515140533447266e+00 1.940494179725646973e+00 -7.020826935768127441e-01
4.240000000000000000e+03 6.911277770996093750e+01 6.776598840951919556e-02 -2.633907079696655273e+00 7.287452220916748047e+00 1.396063685417175293e+00 -1.601863145828247070e+00
4.241000000000000000e+03 3.836768722534179688e+01 6.781326770782470703e+00 -2.545512747019529343e-03 -1.680786721408367157e-02 -5.806013941764831543e-03 9.531924501061439514e-03
4.242000000000000000e+03 2.286761856079101562e+01 1.023814678192138672e+01 -2.384126931428909302e-02 1.084540784358978271e-01 2.538384310901165009e-02 4.607503861188888550e-02
4.243000000000000000e+03 2.331444549560546875e+01 9.778444290161132812e+00 -6.692240387201309204e-02 9.355645626783370972e-02 7.990215905010700226e-03 9.936726652085781097e-03
4.244000000000000000e+03 3.031506347656250000e+01 1.672430753707885742e+00 -1.631798222661018372e-02 8.356665968894958496e-01 2.458045780658721924e-01 1.137171611189842224e-01
4.245000000000000000e+03 6.128824996948242188e+01 -5.109631061553955078e+00 1.682866811752319336e+00 8.463768959045410156e+00 3.043990850448608398e+00 5.434868931770324707e-01
4.246000000000000000e+03 6.131758499145507812e+01 -5.873471736907958984e+00 1.589133024215698242e+00 8.718444824218750000e+00 3.092273235321044922e+00 5.976996421813964844e-01
4.247000000000000000e+03 7.508014678955078125e+01 1.178994464874267578e+01 -2.063782364130020142e-01 6.251893520355224609e+00 1.813654541969299316e+00 -2.348862409591674805e+00
4.248000000000000000e+03 7.360603332519531250e+01 1.123824310302734375e+01 7.139637470245361328e-01 3.089309453964233398e+00 1.140982031822204590e+00 -2.715612649917602539e+00
4.249000000000000000e+03 2.849469900131225586e+00 4.634394645690917969e+00 -1.767275482416152954e-02 -2.985398750752210617e-03 -6.197446025907993317e-03 6.959889549762010574e-03
4.250000000000000000e+03 2.603783226013183594e+01 1.787287521362304688e+01 -9.089565277099609375e-01 4.794420208781957626e-03 -2.712486386299133301e-01 2.636954486370086670e-01
4.251000000000000000e+03 5.277300643920898438e+01 2.029660791158676147e-01 -2.621810436248779297e-01 1.051847076416015625e+01 3.076886892318725586e+00 -1.168048143386840820e+00
4.252000000000000000e+03 4.417569351196289062e+01 1.586137676239013672e+01 -6.915225386619567871e-01 5.999153852462768555e-01 -2.748215012252330780e-02 -1.692644208669662476e-01
4.253000000000000000e+03 4.437775421142578125e+01 1.645692443847656250e+01 -3.231653869152069092e-01 5.250009298324584961e-01 6.055066734552383423e-02 -2.987847328186035156e-01
4.254000000000000000e+03 9.521928787231445312e+00 9.502220153808593750e+00 5.108413100242614746e-02 4.559771716594696045e-02 2.900455333292484283e-02 2.390745840966701508e-02
4.255000000000000000e+03 6.142223739624023438e+01 -9.183004379272460938e+00 8.731991052627563477e-01 8.711935043334960938e+00 2.875540494918823242e+00 1.430593580007553101e-01
4.256000000000000000e+03 4.863276672363281250e+01 -1.556169319152832031e+01 -9.871537089347839355e-01 1.622274070978164673e-01 -2.474778890609741211e-01 3.974993526935577393e-01
4.257000000000000000e+03 2.598612022399902344e+01 -1.086517810821533203e+01 -3.055029213428497314e-01 3.081054985523223877e-01 7.807776564732193947e-04 1.466611474752426147e-01
4.258000000000000000e+03 4.326664352416992188e+01 -6.166497707366943359e+00 1.598503232002258301e+00 8.244043350219726562e+00 2.952763795852661133e+00 1.173446893692016602e+00
4.259000000000000000e+03 5.434046173095703125e+01 -5.863291263580322266e+00 -1.188956618309020996e+00 5.742228031158447266e+00 1.365981459617614746e+00 -1.749951362609863281e+00
4.260000000000000000e+03 5.301338672637939453e+00 3.154508399963378906e+01 1.587948016822338104e-02 -2.779232263565063477e-01 -7.861312478780746460e-02 1.171922758221626282e-01
4.261000000000000000e+03 7.652542877197265625e+01 -3.091233253479003906e+01 4.149433225393295288e-02 7.573076248168945312e+00 2.284371137619018555e+00 8.585707098245620728e-02
4.262000000000000000e+03 7.498905944824218750e+01 -3.080014610290527344e+01 6.166280806064605713e-02 7.216338157653808594e+00 2.183400392532348633e+00 1.064326390624046326e-01
4.263000000000000000e+03 5.204201889038085938e+01 1.507834911346435547e+01 1.566446900367736816e+00 1.337626934051513672e+01 4.482814788818359375e+00 1.402074337005615234e+00
4.264000000000000000e+03 6.824411773681640625e+01 2.669542551040649414e+00 2.207484960556030273e+00 1.034187602996826172e+01 3.764808177947998047e+00 -3.567054569721221924e-01
4.265000000000000000e+03 2.207821369171142578e+00 -2.434914207458496094e+01 2.989941276609897614e-05 -2.333518117666244507e-01 -6.999657303094863892e-02 -4.543343931436538696e-02
4.266000000000000000e+03 1.933408546447753906e+01 -9.154561996459960938e+00 -1.967400461435317993e-01 2.361574396491050720e-02 -5.193728953599929810e-02 1.909910701215267181e-02
4.267000000000000000e+03 2.957023143768310547e+00 3.415915679931640625e+01 1.195838768035173416e-02 -3.858921825885772705e-01 -1.121801361441612244e-01 6.138230487704277039e-02
4.268000000000000000e+03 2.082889556884765625e+00 3.396888732910156250e+01 5.553573835641145706e-03 -4.096381366252899170e-01 -1.212253719568252563e-01 4.436689242720603943e-02
4.269000000000000000e+03 2.225074005126953125e+01 9.746644020080566406e+00 -1.626402698457241058e-02 9.448698908090591431e-02 2.346688881516456604e-02 3.786109760403633118e-02
4.270000000000000000e+03 7.637409973144531250e+01 1.785637974739074707e+00 -2.791763544082641602e+00 8.910764694213867188e+00 1.835700273513793945e+00 -1.053825974464416504e+00
4.271000000000000000e+03 4.999346160888671875e+01 -1.868065834045410156e+01 -1.529961824417114258e+00 5.365104675292968750e-01 -2.980353832244873047e-01 5.805043503642082214e-02
4.272000000000000000e+03 1.177167510986328125e+01 -3.985451459884643555e+00 -3.044770658016204834e-02 6.192967761307954788e-03 -7.276421412825584412e-03 -1.418517786078155041e-03
4.273000000000000000e+03 5.895304489135742188e+01 1.044615879654884338e-01 -2.903367757797241211e+00 9.209011197090148926e-01 -5.947399735450744629e-01 -1.231026887893676758e+00
4.274000000000000000e+03 5.516323471069335938e+01 1.053164196014404297e+01 6.993514895439147949e-01 6.813300132751464844e+00 2.253795385360717773e+00 1.051161289215087891e+00
4.275000000000000000e+03 3.569691467285156250e+01 -2.965608835220336914e-01 5.263484716415405273e-01 -5.216339826583862305e-01 1.414342434145510197e-03 -8.083261549472808838e-02
4.276000000000000000e+03 2.829376411437988281e+01 -4.543199062347412109e+00 -4.354112595319747925e-02 5.108280181884765625e-01 1.401860713958740234e-01 3.252794742584228516e-01
4.277000000000000000e+03 2.800204849243164062e+01 1.363998126983642578e+01 -3.714645504951477051e-01 -6.602928042411804199e-02 -1.312481462955474854e-01 7.930863648653030396e-02
4.278000000000000000e+03 2.160768270492553711e+00 -2.590186691284179688e+01 8.919104002416133881e-04 -2.612567245960235596e-01 -7.810944318771362305e-02 -4.475937783718109131e-02
4.279000000000000000e+03 7.055753707885742188e+00 7.671873569488525391e+00 2.086137607693672180e-02 -3.503622114658355713e-02 -4.252453334629535675e-03 6.095875427126884460e-02
4.280000000000000000e+03 5.668887710571289062e+01 1.332904624938964844e+01 1.732142567634582520e+00 3.761151790618896484e+00 1.647988319396972656e+00 2.112720489501953125e+00
4.281000000000000000e+03 5.580232620239257812e+01 1.254226303100585938e+01 1.849525332450866699e+00 5.363926887512207031e+00 2.164035797119140625e+00 1.989450693130493164e+00
4.282000000000000000e+03 2.654071807861328125e+01 1.151521492004394531e+01 -1.407987326383590698e-01 -6.481721997261047363e-02 -6.168478354811668396e-02 -1.158511415123939514e-01
4.283000000000000000e+03 2.741510391235351562e+01 1.195570850372314453e+01 -1.876930296421051025e-01 -1.239911243319511414e-01 -9.350524842739105225e-02 -1.182531416416168213e-01
4.284000000000000000e+03 3.663090133666992188e+01 -1.765748977661132812e+01 -2.242316305637359619e-01 9.374807775020599365e-02 -3.914506733417510986e-02 4.335270226001739502e-01
4.285000000000000000e+03 5.363307189941406250e+01 -2.174412727355957031e+01 -3.138741254806518555e-01 1.884543180465698242e+00 4.712007045745849609e-01 1.488373160362243652e+00
4.286000000000000000e+03 5.688755416870117188e+01 -2.067322540283203125e+01 -1.897221684455871582e+00 7.145092487335205078e+00 1.574361205101013184e+00 4.141848385334014893e-01
4.287000000000000000e+03 7.444984436035156250e+01 2.712888336181640625e+01 -3.020948171615600586e-02 6.133397579193115234e+00 1.830956459045410156e+00 2.282370328903198242e-01
4.288000000000000000e+03 4.357575893402099609e+00 -2.813010978698730469e+01 6.528757046908140182e-03 -2.314411699771881104e-01 -6.747372448444366455e-02 -7.491075247526168823e-02
4.289000000000000000e+03 3.676684570312500000e+01 1.630061531066894531e+01 -1.045518279075622559e+00 -1.160588562488555908e-01 -3.484731614589691162e-01 9.952910244464874268e-03
4.290000000000000000e+03 3.562395095825195312e+01 8.561005592346191406e+00 -1.892846077680587769e-02 5.724998190999031067e-03 -3.961038775742053986e-03 1.443274319171905518e-03
4.291000000000000000e+03 5.811196899414062500e+01 -8.008190393447875977e-01 -8.013272285461425781e-01 1.324911475181579590e+00 1.570752859115600586e-01 -2.744968414306640625e+00
4.292000000000000000e+03 6.775441741943359375e+01 1.328123855590820312e+01 2.484007120132446289e+00 9.731669425964355469e+00 3.664702892303466797e+00 1.452520012855529785e+00
4.293000000000000000e+03 2.344894981384277344e+01 8.879249572753906250e+00 -1.159396767616271973e-01 4.711309447884559631e-02 -2.064797282218933105e-02 -4.043261334300041199e-02
4.294000000000000000e+03 3.214741706848144531e+00 -3.994066476821899414e+00 -3.321074647828936577e-03 -3.427715972065925598e-03 -2.024637069553136826e-03 -3.135084640234708786e-03
4.295000000000000000e+03 4.059400558471679688e+01 -5.745891571044921875e+00 1.121182084083557129e+00 1.760923862457275391e+00 8.646317720413208008e-01 5.426559448242187500e-01
4.296000000000000000e+03 3.950478363037109375e+01 -4.241302490234375000e+00 1.277707219123840332e+00 -8.722006343305110931e-03 3.806955516338348389e-01 -3.058719635009765625e-01
4.297000000000000000e+03 3.670983505249023438e+01 6.837399482727050781e+00 -4.416900128126144409e-02 -8.972939103841781616e-03 -1.594258286058902740e-02 3.913583606481552124e-02
4.298000000000000000e+03 4.267534637451171875e+01 -1.210786914825439453e+01 -6.523074507713317871e-01 5.459331035614013672e+00 1.442107081413269043e+00 1.604102015495300293e+00
4.299000000000000000e+03 2.383529663085937500e+01 3.612297773361206055e-01 5.011100694537162781e-02 -2.221330106258392334e-01 -5.160660296678543091e-02 -1.616953909397125244e-01
4.300000000000000000e+03 2.451226043701171875e+01 -2.863550484180450439e-01 1.870108991861343384e-01 -3.377277553081512451e-01 -4.521505907177925110e-02 -1.798713356256484985e-01
4.301000000000000000e+03 3.444736099243164062e+01 1.721196937561035156e+01 -8.167170286178588867e-01 -3.289168775081634521e-01 -3.436901569366455078e-01 2.779895961284637451e-01
4.302000000000000000e+03 7.812552642822265625e+01 6.553873062133789062e+00 1.209399700164794922e+00 8.877958297729492188e+00 3.026207447052001953e+00 -1.526328444480895996e+00
4.303000000000000000e+03 3.263577270507812500e+01 -1.323125171661376953e+01 -6.435196399688720703e-01 3.063109517097473145e-02 -1.838665604591369629e-01 2.472734600305557251e-01
4.304000000000000000e+03 4.139210510253906250e+01 -1.951469039916992188e+01 -8.782862424850463867e-01 3.676475763320922852e+00 8.394568562507629395e-01 7.513214945793151855e-01
4.305000000000000000e+03 4.173041915893554688e+01 -1.831857299804687500e+01 -9.679107666015625000e-01 4.934282302856445312e+00 1.189911484718322754e+00 3.771356940269470215e-01
4.306000000000000000e+03 4.400054168701171875e+01 1.528175830841064453e+01 -8.952576518058776855e-01 4.204851090908050537e-01 -1.424317657947540283e-01 -2.264179289340972900e-01
4.307000000000000000e+03 6.017921829223632812e+01 -7.403497099876403809e-01 -1.871229529380798340e+00 3.670497179031372070e+00 5.397802591323852539e-01 -1.120866909623146057e-01
4.308000000000000000e+03 4.791595458984375000e+01 2.481016159057617188e+00 2.725969314575195312e+00 3.540559768676757812e+00 1.879958629608154297e+00 2.790863752365112305e+00
4.309000000000000000e+03 7.610762786865234375e+01 2.969982922077178955e-01 -2.518901586532592773e+00 7.322514533996582031e+00 1.441083908081054688e+00 5.342872738838195801e-01
4.310000000000000000e+03 6.617375946044921875e+01 1.544582694768905640e-01 -1.346345186233520508e+00 3.864549398422241211e+00 7.554612159729003906e-01 2.660603523254394531e+00
4.311000000000000000e+03 6.075411224365234375e+01 -8.241189956665039062e+00 1.041080355644226074e+00 8.527436256408691406e+00 2.870554924011230469e+00 2.995936274528503418e-01
4.312000000000000000e+03 5.792638778686523438e+01 1.457823562622070312e+01 1.642439961433410645e+00 2.678063392639160156e+00 1.296151041984558105e+00 1.966032862663269043e+00
4.313000000000000000e+03 5.820216751098632812e+01 1.379042148590087891e+01 1.257789850234985352e+00 1.848935842514038086e+00 9.320176839828491211e-01 1.590595364570617676e+00
4.314000000000000000e+03 2.314632034301757812e+01 4.848520159721374512e-01 5.204297602176666260e-03 -1.560267508029937744e-01 -4.524673894047737122e-02 -1.225979402661323547e-01
4.315000000000000000e+03 3.212970733642578125e+01 -1.264263629913330078e+01 -5.673236250877380371e-01 3.951233625411987305e-02 -1.583433896303176880e-01 2.387378513813018799e-01
4.316000000000000000e+03 6.892658996582031250e+01 -2.282802581787109375e+00 -3.695074081420898438e+00 4.464598178863525391e+00 2.308572828769683838e-01 -1.416199207305908203e+00
4.317000000000000000e+03 3.800832366943359375e+01 1.562123680114746094e+01 -1.161607623100280762e+00 1.737896949052810669e-01 -2.963453829288482666e-01 3.653694316744804382e-02
4.318000000000000000e+03 2.431157112121582031e+01 1.906226921081542969e+01 -6.209728717803955078e-01 -2.619391977787017822e-01 -2.648736238479614258e-01 2.496942877769470215e-01
4.319000000000000000e+03 2.730848693847656250e+01 -1.171874141693115234e+01 -3.700029850006103516e-01 3.111802041530609131e-01 -1.764683052897453308e-02 1.398014426231384277e-01
4.320000000000000000e+03 4.505438232421875000e+01 -1.387785339355468750e+01 -3.453389108180999756e-01 3.403225898742675781e+00 9.173660874366760254e-01 4.860918521881103516e-01
4.321000000000000000e+03 4.226094055175781250e+01 -5.048912048339843750e+00 2.367788076400756836e+00 4.588452816009521484e+00 2.086872100830078125e+00 6.464843750000000000e-01
4.322000000000000000e+03 4.292617034912109375e+01 -3.559278011322021484e+00 2.046707391738891602e+00 5.628000259399414062e+00 2.302412271499633789e+00 9.324485808610916138e-02
4.323000000000000000e+03 7.050840759277343750e+01 -3.839533329010009766e+00 -1.839049577713012695e+00 4.577193260192871094e+00 8.214430809020996094e-01 -1.699932932853698730e+00
4.324000000000000000e+03 5.478808212280273438e+01 -5.339105606079101562e+00 -1.478500127792358398e+00 6.159753322601318359e+00 1.404375910758972168e+00 -2.154375076293945312e+00
4.325000000000000000e+03 6.956974029541015625e+01 9.683549880981445312e+00 -8.349809050559997559e-01 6.555259704589843750e+00 1.716083526611328125e+00 4.143635630607604980e-01
4.326000000000000000e+03 7.012379455566406250e+01 1.001374721527099609e+01 -3.011898323893547058e-02 4.589542865753173828e+00 1.367827057838439941e+00 6.024499535560607910e-01
4.327000000000000000e+03 3.388875961303710938e+01 4.088405132293701172e+00 -1.670134216547012329e-01 1.646827012300491333e-01 -6.992146954871714115e-04 2.461337149143218994e-01
4.328000000000000000e+03 3.467267227172851562e+01 5.622548103332519531e+00 -1.786758303642272949e-01 6.972309201955795288e-02 -3.268582001328468323e-02 1.031653285026550293e-01
4.329000000000000000e+03 2.208815765380859375e+01 8.716570854187011719e+00 -7.508909702301025391e-02 6.938093900680541992e-02 -1.712447614409029484e-03 -8.967592380940914154e-03
4.330000000000000000e+03 4.330636215209960938e+01 -1.027626991271972656e+01 -1.171725749969482422e+00 5.830562591552734375e+00 1.397651076316833496e+00 1.512006282806396484e+00
4.331000000000000000e+03 5.651824951171875000e+01 -1.026145267486572266e+01 8.205053210258483887e-01 8.480796813964843750e+00 2.790390491485595703e+00 -9.776337146759033203e-01
4.332000000000000000e+03 3.215009927749633789e+00 1.689510345458984375e+01 -8.765053935348987579e-03 -7.355639338493347168e-02 -2.469643577933311462e-02 2.470430731773376465e-02
4.333000000000000000e+03 1.218082332611083984e+01 -3.452805519104003906e+00 -2.812166884541511536e-02 4.554754588752985001e-03 -7.070074323564767838e-03 -3.134545404464006424e-04
4.334000000000000000e+03 2.409307003021240234e+00 -5.321151256561279297e+00 -2.745412522926926613e-03 -5.434431135654449463e-03 -2.453953260555863380e-03 -4.731568507850170135e-03
4.335000000000000000e+03 3.262591361999511719e+00 6.024534702301025391e+00 -8.972642943263053894e-03 -6.960073020309209824e-03 -4.779814742505550385e-03 2.361321821808815002e-02
4.336000000000000000e+03 4.678757858276367188e+01 1.860832595825195312e+01 4.718399941921234131e-01 2.244027376174926758e+00 8.147602081298828125e-01 -1.799696326255798340e+00
4.337000000000000000e+03 4.695732879638671875e+01 1.758109092712402344e+01 1.025097012519836426e+00 1.600293993949890137e+00 7.876173257827758789e-01 -2.227299213409423828e+00
4.338000000000000000e+03 3.267841577529907227e+00 1.337004089355468750e+01 2.148651285097002983e-03 -5.415639653801918030e-02 -1.560232322663068771e-02 1.499611698091030121e-02
4.339000000000000000e+03 5.391598892211914062e+01 8.518593788146972656e+00 -6.929489374160766602e-01 1.173826599121093750e+01 3.313595294952392578e+00 8.740253001451492310e-02
4.340000000000000000e+03 5.265315246582031250e+01 7.487138748168945312e+00 -7.353510260581970215e-01 1.408774280548095703e+01 4.005717754364013672e+00 -6.502488851547241211e-01
4.341000000000000000e+03 7.687113189697265625e+01 -1.822537994384765625e+01 -3.076155781745910645e-01 8.318949699401855469e+00 2.403400421142578125e+00 -4.361730217933654785e-01
4.342000000000000000e+03 7.727185821533203125e+01 -9.348708152770996094e+00 4.507910907268524170e-01 8.432269096374511719e+00 2.664918184280395508e+00 1.014405608177185059e+00
4.343000000000000000e+03 2.819971275329589844e+01 -6.019363403320312500e+00 -1.663572490215301514e-01 4.068117737770080566e-01 7.213635742664337158e-02 3.496118783950805664e-01
4.344000000000000000e+03 2.758639335632324219e+01 -4.618954658508300781e+00 -1.469681411981582642e-02 3.614660203456878662e-01 1.040307581424713135e-01 3.961864411830902100e-01
4.345000000000000000e+03 6.641437530517578125e+01 6.637493610382080078e+00 -6.884545087814331055e-01 1.015221595764160156e+01 2.839128494262695312e+00 -1.007751345634460449e+00
4.346000000000000000e+03 7.709907531738281250e+01 -2.810811042785644531e+00 -3.038252294063568115e-01 8.867862701416015625e+00 2.569211006164550781e+00 1.369826078414916992e+00
4.347000000000000000e+03 3.139830827713012695e+00 -1.642715835571289062e+01 -5.103301722556352615e-03 -9.215644747018814087e-02 -2.917792648077011108e-02 -4.932605847716331482e-02
4.348000000000000000e+03 3.563730239868164062e+01 2.331207513809204102e+00 1.862169057130813599e-01 -1.233544871211051941e-01 1.885872334241867065e-02 2.255828976631164551e-01
4.349000000000000000e+03 1.511043071746826172e+01 -5.172129154205322266e+00 -5.730759352445602417e-02 8.207521401345729828e-03 -1.473002135753631592e-02 1.016369368880987167e-02
4.350000000000000000e+03 1.604165458679199219e+01 -5.674828529357910156e+00 -7.113014906644821167e-02 7.226588670164346695e-03 -1.917106844484806061e-02 1.737750135362148285e-02
4.351000000000000000e+03 1.275966072082519531e+01 1.316266441345214844e+01 -1.540550310164690018e-02 5.909890681505203247e-02 1.310802064836025238e-02 3.717173263430595398e-02
4.352000000000000000e+03 4.356800079345703125e+01 -1.846750617027282715e+00 -6.475156545639038086e-01 6.458275318145751953e+00 1.743227958679199219e+00 1.378389954566955566e+00
4.353000000000000000e+03 4.357804489135742188e+01 -2.378959894180297852e+00 6.191911548376083374e-02 7.051052570343017578e+00 2.133891582489013672e+00 8.296650648117065430e-01
4.354000000000000000e+03 3.107402086257934570e+00 -1.280185985565185547e+01 -6.719337776303291321e-03 -4.964760318398475647e-02 -1.691008172929286957e-02 -3.549565747380256653e-02
4.355000000000000000e+03 1.777714347839355469e+01 1.730204391479492188e+01 -3.462136983871459961e-01 8.092645555734634399e-02 -7.958617061376571655e-02 1.076287403702735901e-01
4.356000000000000000e+03 4.312257766723632812e+01 1.469737720489501953e+01 -1.049121737480163574e+00 4.629230499267578125e-01 -1.758596003055572510e-01 -1.235783398151397705e-01
4.357000000000000000e+03 6.308073806762695312e+01 2.557971715927124023e+00 -2.035122871398925781e+00 3.696676254272460938e+00 4.984660148620605469e-01 1.797842025756835938e+00
4.358000000000000000e+03 3.423829793930053711e+00 4.756843566894531250e+00 -6.490364670753479004e-03 -2.922222483903169632e-03 -2.823776099830865860e-03 9.810701012611389160e-03
4.359000000000000000e+03 4.695676422119140625e+01 -1.036515116691589355e+00 2.240252494812011719e-02 2.241517305374145508e+00 6.791759729385375977e-01 4.338480472564697266e+00
4.360000000000000000e+03 2.631401252746582031e+01 1.229900264739990234e+01 -8.793103694915771484e-02 2.864563837647438049e-03 -2.551994286477565765e-02 -4.661081731319427490e-02
4.361000000000000000e+03 2.639743614196777344e+01 -3.642466068267822266e+00 1.446746438741683960e-01 -3.631887584924697876e-02 3.250673040747642517e-02 2.523478269577026367e-01
4.362000000000000000e+03 6.664320373535156250e+01 3.324034214019775391e+00 1.194404244422912598e+00 7.183968544006347656e+00 2.513511896133422852e+00 4.902592897415161133e-01
4.363000000000000000e+03 6.074877166748046875e+01 -7.470159053802490234e+00 1.169549345970153809e+00 8.582618713378906250e+00 2.925650358200073242e+00 3.864962756633758545e-01
4.364000000000000000e+03 6.733029174804687500e+01 -9.077194929122924805e-01 -2.966068744659423828e+00 3.843701362609863281e+00 2.632897794246673584e-01 -1.302671283483505249e-01
4.365000000000000000e+03 5.898178100585937500e+01 -1.906340980529785156e+01 -1.934196352958679199e-01 8.057203292846679688e+00 2.359135150909423828e+00 -1.078920364379882812e+00
4.366000000000000000e+03 5.755394363403320312e+01 -1.822921371459960938e+01 1.370900869369506836e+00 9.567811965942382812e+00 3.281613826751708984e+00 -5.979700684547424316e-01
4.367000000000000000e+03 2.741377258300781250e+01 -3.928625345230102539e+00 1.463597118854522705e-01 2.507773637771606445e-01 1.191411241888999939e-01 3.419327735900878906e-01
4.368000000000000000e+03 7.466985321044921875e+01 -1.452744674682617188e+01 8.611295223236083984e-01 9.548464775085449219e+00 3.122878074645996094e+00 -2.572982311248779297e-01
4.369000000000000000e+03 3.732057189941406250e+01 5.076819896697998047e+00 -7.465289440006017685e-03 -8.023007959127426147e-02 -2.630861103534698486e-02 7.900664210319519043e-02
4.370000000000000000e+03 6.913095092773437500e+01 -1.911897850036621094e+01 5.536304116249084473e-01 3.158158540725708008e+00 1.113536715507507324e+00 3.835746943950653076e-01
4.371000000000000000e+03 3.249776363372802734e+00 1.860065460205078125e+01 -1.022515632212162018e-02 -8.860781043767929077e-02 -2.964989095926284790e-02 3.380739316344261169e-02
4.372000000000000000e+03 7.687617492675781250e+01 7.570407390594482422e-01 -2.210009336471557617e+00 9.060907363891601562e+00 2.055269479751586914e+00 -2.097119837999343872e-01
4.373000000000000000e+03 7.636442565917968750e+01 8.770703077316284180e-01 -2.673810005187988281e+00 8.336896896362304688e+00 1.698926210403442383e+00 1.222390383481979370e-01
4.374000000000000000e+03 4.881348800659179688e+01 -1.653005027770996094e+01 -1.198625206947326660e+00 3.872801065444946289e-01 -2.434035241603851318e-01 2.851189076900482178e-01
4.375000000000000000e+03 4.897832870483398438e+01 -1.739460945129394531e+01 -1.303691983222961426e+00 6.704449653625488281e-01 -1.899741142988204956e-01 8.216281235218048096e-02
4.376000000000000000e+03 3.161883354187011719e+00 7.942339897155761719e+00 -4.232347011566162109e-03 -2.228305861353874207e-02 -7.954621687531471252e-03 2.732144854962825775e-02
4.377000000000000000e+03 7.679306793212890625e+01 1.325591850280761719e+01 -8.286996185779571533e-02 6.501759529113769531e+00 1.925666809082031250e+00 -8.882237076759338379e-01
4.378000000000000000e+03 7.707335662841796875e+01 9.886528968811035156e+00 -5.014850497245788574e-01 8.932659149169921875e+00 2.529352188110351562e+00 -4.172612130641937256e-01
4.379000000000000000e+03 2.697397422790527344e+01 -4.767098426818847656e+00 -3.706133365631103516e-02 1.761283427476882935e-01 4.172010347247123718e-02 3.473907113075256348e-01
4.380000000000000000e+03 2.831110763549804688e+01 -5.308180332183837891e+00 -7.852669805288314819e-02 4.624724090099334717e-01 1.151837110519409180e-01 3.662785291671752930e-01
4.381000000000000000e+03 6.237058639526367188e+00 8.627648353576660156e+00 2.252210117876529694e-02 -4.214036837220191956e-02 -5.885479971766471863e-03 4.683283343911170959e-02
4.382000000000000000e+03 5.591751575469970703e+00 8.410480499267578125e+00 8.224525488913059235e-03 -3.174269571900367737e-02 -7.055450696498155594e-03 4.884367436170578003e-02
4.383000000000000000e+03 7.723853302001953125e+01 1.798040962219238281e+01 2.010396271944046021e-01 5.843082427978515625e+00 1.813236594200134277e+00 -1.484009325504302979e-01
4.384000000000000000e+03 1.251815414428710938e+01 1.379001235961914062e+01 -4.402710497379302979e-02 5.952360108494758606e-02 4.648949485272169113e-03 4.000950604677200317e-02
4.385000000000000000e+03 3.397230386734008789e+00 2.202885055541992188e+01 -1.313129905611276627e-02 -1.345079988241195679e-01 -4.429179057478904724e-02 6.035634130239486694e-02
4.386000000000000000e+03 3.129702568054199219e+01 -8.292138099670410156e+00 -1.701986193656921387e-01 7.523741573095321655e-02 -2.848836220800876617e-02 1.601259559392929077e-01
4.387000000000000000e+03 7.704187011718750000e+01 -2.868307685852050781e+01 1.687198504805564880e-02 7.722590923309326172e+00 2.321838855743408203e+00 1.165789440274238586e-01
4.388000000000000000e+03 7.336482238769531250e+01 -1.287709116935729980e+00 -9.139325022697448730e-01 2.693064689636230469e+00 5.337396860122680664e-01 -1.465211629867553711e+00
4.389000000000000000e+03 7.147509765625000000e+01 -6.036881804466247559e-01 -2.241630554199218750e+00 4.194876194000244141e+00 5.859737992286682129e-01 -3.919733285903930664e+00
4.390000000000000000e+03 1.438490867614746094e+01 -5.789458751678466797e+00 -6.328897923231124878e-02 1.425557676702737808e-02 -1.471001934260129929e-02 2.613492542877793312e-03
4.391000000000000000e+03 1.491053867340087891e+01 -5.803983688354492188e+00 -6.864396482706069946e-02 1.490368880331516266e-02 -1.612208224833011627e-02 8.348026312887668610e-03
4.392000000000000000e+03 4.149754333496093750e+01 -2.148957014083862305e+00 8.031631112098693848e-01 2.305370092391967773e+00 9.325599670410156250e-01 -5.432346090674400330e-02
4.393000000000000000e+03 7.731786346435546875e+01 -1.599745559692382812e+01 6.668385118246078491e-02 8.196867942810058594e+00 2.479065418243408203e+00 -5.777525901794433594e-01
4.394000000000000000e+03 6.883428955078125000e+01 -8.382726311683654785e-01 -3.332922935485839844e+00 5.959832191467285156e+00 7.880728244781494141e-01 -1.515917301177978516e+00
4.395000000000000000e+03 6.872590637207031250e+01 5.993235111236572266e-01 -1.710146188735961914e+00 7.533237934112548828e+00 1.746927499771118164e+00 -1.228007197380065918e+00
4.396000000000000000e+03 7.747686767578125000e+01 9.101073741912841797e-01 -1.796503186225891113e+00 1.032060623168945312e+01 2.557230949401855469e+00 -5.313460230827331543e-01
4.397000000000000000e+03 2.587824821472167969e+00 -9.793000221252441406e+00 -4.834350664168596268e-03 -2.578203193843364716e-02 -9.184914641082286835e-03 -1.923677884042263031e-02
4.398000000000000000e+03 5.232241058349609375e+01 6.936407566070556641e+00 -4.534444510936737061e-01 1.406426620483398438e+01 4.083246231079101562e+00 -7.086241245269775391e-01
4.399000000000000000e+03 5.134089279174804688e+01 7.726409912109375000e+00 -4.421365559101104736e-01 1.416690254211425781e+01 4.117429733276367188e+00 1.496761590242385864e-01
4.400000000000000000e+03 2.597568893432617188e+01 1.053394412994384766e+01 -1.393384486436843872e-01 -5.283698067069053650e-02 -5.765262991189956665e-02 -1.223947778344154358e-01
4.401000000000000000e+03 2.537646865844726562e+01 1.112420558929443359e+01 -1.017800569534301758e-01 5.163815245032310486e-02 -1.504257135093212128e-02 -7.149685174226760864e-02
4.402000000000000000e+03 7.720553588867187500e+01 1.187867736816406250e+01 -4.599406421184539795e-01 7.373946666717529297e+00 2.074201822280883789e+00 -7.211001515388488770e-01
4.403000000000000000e+03 7.636765289306640625e+01 1.076578998565673828e+01 -8.133618235588073730e-01 8.433565139770507812e+00 2.286061048507690430e+00 -1.449738979339599609e+00
4.404000000000000000e+03 7.396897888183593750e+01 -1.725791692733764648e+00 -8.573614358901977539e-01 3.588680028915405273e+00 8.193956017494201660e-01 -4.266154468059539795e-01
4.405000000000000000e+03 5.356681823730468750e+01 1.075895595550537109e+01 1.731909513473510742e+00 1.150674533843994141e+01 3.971596479415893555e+00 7.160884737968444824e-01
4.406000000000000000e+03 6.703442382812500000e+01 -1.811478996276855469e+01 6.013585999608039856e-02 2.939617395401000977e+00 8.999260067939758301e-01 -1.155392765998840332e+00
4.407000000000000000e+03 7.733640289306640625e+01 -5.586707592010498047e+00 3.710384294390678406e-02 8.974507331848144531e+00 2.703483581542968750e+00 1.457345128059387207e+00
4.408000000000000000e+03 4.137262344360351562e+01 -7.942657947540283203e+00 -4.070971608161926270e-01 3.734070301055908203e+00 9.980919361114501953e-01 1.293411731719970703e+00
4.409000000000000000e+03 4.230134963989257812e+01 -6.610567092895507812e+00 9.851970672607421875e-01 5.550024032592773438e+00 1.960566401481628418e+00 1.264975070953369141e+00
4.410000000000000000e+03 5.997844696044921875e+01 1.567634773254394531e+01 1.804400682449340820e+00 1.587826967239379883e+00 1.017668247222900391e+00 8.285205960273742676e-01
4.411000000000000000e+03 2.277651405334472656e+01 9.244499206542968750e+00 -8.340922743082046509e-02 8.332404494285583496e-02 -2.555608807597309351e-05 1.670122146606445312e-03
4.412000000000000000e+03 2.672845840454101562e+01 -8.529806137084960938e+00 -4.254159703850746155e-02 2.365409135818481445e-01 5.819979310035705566e-02 2.824390232563018799e-01
4.413000000000000000e+03 2.591230964660644531e+01 1.175215148925781250e+01 -7.889211922883987427e-02 1.857747137546539307e-02 -1.809439249336719513e-02 -6.156735122203826904e-02
4.414000000000000000e+03 3.527540588378906250e+01 -1.667266845703125000e+01 -5.491935014724731445e-01 8.161497861146926880e-02 -1.402735561132431030e-01 2.427792847156524658e-01
4.415000000000000000e+03 3.098211860656738281e+01 2.438046216964721680e+00 -2.629151940345764160e-01 5.734664797782897949e-01 9.316538274288177490e-02 1.945608556270599365e-01
4.416000000000000000e+03 4.714961624145507812e+01 1.530865788459777832e+00 2.031067371368408203e+00 2.970389604568481445e+00 1.500437140464782715e+00 3.316287755966186523e+00
4.417000000000000000e+03 1.753159523010253906e+01 -8.189579010009765625e+00 -1.382201313972473145e-01 2.785722352564334869e-02 -3.310887143015861511e-02 1.191104110330343246e-02
4.418000000000000000e+03 1.773559761047363281e+01 -8.977270126342773438e+00 -1.605633348226547241e-01 3.767320886254310608e-02 -3.686703741550445557e-02 -6.510971434181556106e-05
4.419000000000000000e+03 3.679230880737304688e+01 5.313320636749267578e+00 -1.263423077762126923e-02 -4.263694211840629578e-02 -1.658135093748569489e-02 1.072856709361076355e-01
4.420000000000000000e+03 7.287963104248046875e+01 -6.504034519195556641e+00 -5.634219199419021606e-02 7.491833686828613281e+00 2.230647563934326172e+00 -2.811829447746276855e-01
4.421000000000000000e+03 5.296354293823242188e+01 1.407397937774658203e+01 3.182205677032470703e+00 1.149978065490722656e+01 4.404595851898193359e+00 2.109766006469726562e+00
4.422000000000000000e+03 1.229644966125488281e+01 1.290227317810058594e+01 -1.171717327088117599e-02 6.078145280480384827e-02 1.471928413957357407e-02 3.919038549065589905e-02
4.423000000000000000e+03 1.182777404785156250e+01 1.290315818786621094e+01 -1.147367246448993683e-02 4.989041388034820557e-02 1.152502279728651047e-02 3.560994938015937805e-02
4.424000000000000000e+03 3.017794990539550781e+01 1.570288276672363281e+01 -9.078730940818786621e-01 6.879258900880813599e-02 -2.517241537570953369e-01 2.862020432949066162e-01
4.425000000000000000e+03 2.989514350891113281e+01 1.500868511199951172e+01 -8.339721560478210449e-01 4.798319190740585327e-02 -2.357966899871826172e-01 1.798358857631683350e-01
4.426000000000000000e+03 7.716542816162109375e+01 -3.017298698425292969e+01 1.769233494997024536e-02 7.712292194366455078e+00 2.318995237350463867e+00 9.740757942199707031e-02
4.427000000000000000e+03 7.418311309814453125e+01 1.233743190765380859e+01 7.182902097702026367e-01 4.633495330810546875e+00 1.605535745620727539e+00 -2.188492059707641602e+00
4.428000000000000000e+03 7.337375640869140625e+01 1.217279815673828125e+01 1.353627324104309082e+00 3.417068719863891602e+00 1.431208848953247070e+00 -1.960864663124084473e+00
4.429000000000000000e+03 3.047135543823242188e+01 -9.678153038024902344e+00 -3.266671597957611084e-01 1.393126696348190308e-01 -5.620634928345680237e-02 2.198049724102020264e-01
4.430000000000000000e+03 3.077483940124511719e+01 -1.023445510864257812e+01 -3.841924369335174561e-01 1.195653378963470459e-01 -7.938813418149948120e-02 2.320746332406997681e-01
4.431000000000000000e+03 5.327806472778320312e+01 -2.201288044452667236e-01 -1.460480809211730957e+00 1.083948230743408203e+01 2.813700437545776367e+00 -2.068945884704589844e+00
4.432000000000000000e+03 5.228997039794921875e+01 1.864425420761108398e+00 3.712936639785766602e+00 1.102727603912353516e+01 4.422063827514648438e+00 3.165608644485473633e-02
4.433000000000000000e+03 4.342793655395507812e+01 -1.674108886718750000e+01 -1.324992906302213669e-02 4.047441005706787109e+00 1.210257291793823242e+00 -3.194408416748046875e-01
4.434000000000000000e+03 4.192572402954101562e+01 -1.717047500610351562e+01 1.389141231775283813e-01 4.968491554260253906e+00 1.532221794128417969e+00 4.534065425395965576e-01
4.435000000000000000e+03 5.920341873168945312e+01 -1.709278297424316406e+01 7.274216413497924805e-01 8.105738639831542969e+00 2.649948120117187500e+00 -9.552407264709472656e-01
4.436000000000000000e+03 3.368561935424804688e+01 -1.610199356079101562e+01 -5.334001183509826660e-01 1.437783688306808472e-01 -1.168865263462066650e-01 1.162901073694229126e-01
4.437000000000000000e+03 4.429605865478515625e+01 -1.443602848052978516e+01 -5.315411090850830078e-02 3.888404607772827148e+00 1.150575160980224609e+00 5.969706177711486816e-01
4.438000000000000000e+03 2.778395271301269531e+01 1.692136001586914062e+01 -8.278189897537231445e-01 1.335298269987106323e-01 -2.082867473363876343e-01 3.893263638019561768e-01
4.439000000000000000e+03 2.851466560363769531e+01 1.510449790954589844e+01 -6.533980369567871094e-01 4.953205585479736328e-02 -1.811597943305969238e-01 2.668752372264862061e-01
4.440000000000000000e+03 5.388055038452148438e+01 -5.298443794250488281e+00 -1.927490353584289551e+00 5.674383163452148438e+00 1.124067783355712891e+00 -1.764694571495056152e+00
4.441000000000000000e+03 9.565705299377441406e+00 1.051825523376464844e+01 3.746205195784568787e-02 3.810202702879905701e-02 2.266922406852245331e-02 2.365137636661529541e-02
4.442000000000000000e+03 3.521873092651367188e+01 5.201663970947265625e+00 -1.406056582927703857e-01 5.482719093561172485e-02 -2.573353797197341919e-02 1.532196253538131714e-01
4.443000000000000000e+03 4.927765274047851562e+01 -1.321927666664123535e+00 -4.639292955398559570e-01 1.457504153251647949e+00 2.980724573135375977e-01 1.769924879074096680e+00
4.444000000000000000e+03 4.843447113037109375e+01 -9.409591555595397949e-01 3.626659214496612549e-01 1.250949740409851074e+00 4.840847253799438477e-01 2.878838777542114258e+00
4.445000000000000000e+03 6.985507965087890625e+01 9.243386268615722656e+00 -1.748582243919372559e+00 5.475794792175292969e+00 1.118163824081420898e+00 2.215948402881622314e-01
4.446000000000000000e+03 4.450824356079101562e+01 -1.072382450103759766e+00 -1.003119111061096191e+00 5.494797706604003906e+00 1.347503662109375000e+00 3.153726816177368164e+00
4.447000000000000000e+03 4.143764019012451172e+00 3.056374931335449219e+01 6.560641806572675705e-03 -2.889216840267181396e-01 -8.470831066370010376e-02 9.894714504480361938e-02
4.448000000000000000e+03 1.067772579193115234e+01 -4.190583705902099609e+00 -2.989480644464492798e-02 5.556090734899044037e-03 -7.301614619791507721e-03 -6.358964368700981140e-03
4.449000000000000000e+03 1.271621513366699219e+01 -3.751509666442871094e+00 -3.118431009352207184e-02 6.189894396811723709e-03 -7.498324848711490631e-03 1.573580550029873848e-03
4.450000000000000000e+03 5.214597320556640625e+01 9.577834129333496094e+00 9.523148536682128906e-01 1.520010757446289062e+01 4.845726490020751953e+00 2.371133305132389069e-02
4.451000000000000000e+03 5.742021942138671875e+01 -6.790913343429565430e-01 -5.764582753181457520e-01 1.517649412155151367e+00 2.823573350906372070e-01 -4.462800025939941406e+00
4.452000000000000000e+03 5.006422042846679688e+01 1.791906166076660156e+01 -8.223946690559387207e-01 7.620559692382812500e+00 2.039449453353881836e+00 -2.535039424896240234e+00
4.453000000000000000e+03 3.133776092529296875e+01 1.480175876617431641e+01 -1.121437907218933105e+00 3.447926789522171021e-02 -3.260875940322875977e-01 1.290117949247360229e-01
4.454000000000000000e+03 6.733376312255859375e+01 8.132295608520507812e+00 -1.049150109291076660e+00 1.189736080169677734e+01 3.254463195800781250e+00 -1.670612573623657227e+00
4.455000000000000000e+03 1.641701698303222656e+01 -7.893394947052001953e+00 -1.166631057858467102e-01 2.981078065931797028e-02 -2.605569735169410706e-02 2.989252796396613121e-03
4.456000000000000000e+03 1.724293899536132812e+01 -6.919763088226318359e+00 -1.056070700287818909e-01 1.161145418882369995e-02 -2.819868549704551697e-02 2.703306823968887329e-02
4.457000000000000000e+03 5.062148666381835938e+01 2.438220024108886719e+00 3.585228443145751953e+00 7.307267665863037109e+00 3.267748832702636719e+00 1.019029498100280762e+00
4.458000000000000000e+03 5.056547927856445312e+01 3.448286056518554688e+00 3.480752944946289062e+00 8.086585998535156250e+00 3.470201492309570312e+00 5.006910562515258789e-01
4.459000000000000000e+03 7.416783905029296875e+01 -1.554815578460693359e+01 4.123649895191192627e-01 9.518362045288085938e+00 2.979218244552612305e+00 -3.720038533210754395e-01
4.460000000000000000e+03 3.832789993286132812e+01 -3.092272281646728516e+00 8.435137271881103516e-01 -7.138465642929077148e-01 3.890015184879302979e-02 -5.036581158638000488e-01
4.461000000000000000e+03 3.607009887695312500e+01 3.213654160499572754e-01 5.429658889770507812e-01 -4.705175757408142090e-01 2.173449099063873291e-02 -6.776140630245208740e-02
4.462000000000000000e+03 5.861161804199218750e+01 -1.509270954132080078e+01 1.125600695610046387e+00 9.253443717956542969e+00 3.113713264465332031e+00 -3.470547199249267578e-01
4.463000000000000000e+03 5.190345001220703125e+01 9.029863357543945312e+00 3.777412325143814087e-02 1.551956748962402344e+01 4.667202472686767578e+00 -8.520351350307464600e-02
4.464000000000000000e+03 6.633760070800781250e+01 -1.900691413879394531e+01 2.379598617553710938e-01 3.674876689910888672e+00 1.173850893974304199e+00 -1.332190155982971191e+00
4.465000000000000000e+03 3.142991447448730469e+01 3.290201663970947266e+00 -4.415044784545898438e-01 4.024665355682373047e-01 -1.171138137578964233e-02 1.529204845428466797e-01
4.466000000000000000e+03 2.004414367675781250e+01 -1.029646682739257812e+01 -2.033354640007019043e-01 3.473795205354690552e-02 -5.057925358414649963e-02 4.143035504966974258e-03
4.467000000000000000e+03 5.773343276977539062e+01 -2.122197151184082031e+01 -1.411727309226989746e+00 7.274839878082275391e+00 1.758933663368225098e+00 3.577183485031127930e-01
4.468000000000000000e+03 3.790183639526367188e+01 -2.347751617431640625e+00 7.791746258735656738e-01 -7.515728473663330078e-01 8.280537091195583344e-03 -5.044128298759460449e-01
4.469000000000000000e+03 4.213137435913085938e+01 -7.288741588592529297e+00 2.095671296119689941e-01 5.046553134918212891e+00 1.576836109161376953e+00 1.335421800613403320e+00
4.470000000000000000e+03 6.215092849731445312e+01 -1.261538696289062500e+01 1.519839316606521606e-01 7.323035717010498047e+00 2.242505788803100586e+00 -4.321832060813903809e-01
4.471000000000000000e+03 6.236060714721679688e+01 -1.130687046051025391e+01 3.754243552684783936e-01 7.735852241516113281e+00 2.433382987976074219e+00 -3.670639693737030029e-01
4.472000000000000000e+03 5.181502532958984375e+01 -2.070168495178222656e+01 -7.165081501007080078e-01 5.136867165565490723e-01 -6.084642931818962097e-02 1.868121922016143799e-01
4.473000000000000000e+03 2.736554145812988281e+01 1.337752723693847656e+01 -2.040764987468719482e-01 -8.912815898656845093e-02 -8.796139806509017944e-02 5.410104990005493164e-02
4.474000000000000000e+03 5.952779006958007812e+01 -1.263284492492675781e+01 7.394722700119018555e-01 8.526890754699707031e+00 2.779909133911132812e+00 1.685647666454315186e-02
4.475000000000000000e+03 5.814481353759765625e+01 -1.214101409912109375e+01 8.437865972518920898e-01 9.126149177551269531e+00 2.990980625152587891e+00 -1.621632426977157593e-01
4.476000000000000000e+03 5.187955474853515625e+01 1.775291633605957031e+01 -6.926103830337524414e-01 9.648173332214355469e+00 2.686668634414672852e+00 2.234700471162796021e-01
4.477000000000000000e+03 2.790429306030273438e+01 -9.626602172851562500e+00 -2.598762214183807373e-01 2.812693715095520020e-01 6.417944561690092087e-03 2.210126966238021851e-01
4.478000000000000000e+03 3.361027145385742188e+01 1.344320774078369141e+00 5.237457752227783203e-01 5.691388621926307678e-02 1.741978973150253296e-01 4.410883784294128418e-01
4.479000000000000000e+03 3.162281799316406250e+01 2.624464988708496094e+00 -2.802678942680358887e-01 5.651922225952148438e-01 8.547729253768920898e-02 3.378806114196777344e-01
4.480000000000000000e+03 1.613292312622070312e+01 1.577601146697998047e+01 -1.833423525094985962e-01 6.930127739906311035e-02 -3.421232104301452637e-02 5.137197300791740417e-02
4.481000000000000000e+03 2.979936838150024414e+00 -4.698954105377197266e+00 -3.867786843329668045e-03 -4.870355594903230667e-03 -2.621442778035998344e-03 -4.674573894590139389e-03
4.482000000000000000e+03 4.204552650451660156e+00 -5.595747470855712891e+00 -8.551497012376785278e-03 -6.586754694581031799e-03 -4.541475325822830200e-03 -9.825321845710277557e-03
4.483000000000000000e+03 2.643147277832031250e+01 -3.035006046295166016e+00 3.140608668327331543e-01 -8.716011792421340942e-02 6.807022541761398315e-02 2.575315535068511963e-01
4.484000000000000000e+03 4.129985046386718750e+01 1.554181194305419922e+01 -8.768159747123718262e-01 5.758734941482543945e-01 -9.028274565935134888e-02 -1.233241427689790726e-02
4.485000000000000000e+03 4.043459701538085938e+01 1.532538414001464844e+01 -9.609150290489196777e-01 4.739820063114166260e-01 -1.460798978805541992e-01 5.612500011920928955e-02
4.486000000000000000e+03 4.931480789184570312e+01 4.398916721343994141e+00 2.650636911392211914e+00 6.724149227142333984e+00 2.812435626983642578e+00 1.516772389411926270e+00
4.487000000000000000e+03 4.963219070434570312e+01 5.109070777893066406e+00 1.985603570938110352e+00 8.009883880615234375e+00 2.998646259307861328e+00 1.297038197517395020e+00
4.488000000000000000e+03 5.033862304687500000e+01 5.073442935943603516e+00 2.084367990493774414e+00 9.341323852539062500e+00 3.427707433700561523e+00 5.865777730941772461e-01
4.489000000000000000e+03 6.324078750610351562e+01 -1.376502990722656250e+01 -1.292186677455902100e-01 6.080958843231201172e+00 1.785522103309631348e+00 -1.005449175834655762e+00
4.490000000000000000e+03 7.308969116210937500e+01 -1.779316329956054688e+01 -1.090661883354187012e+00 8.233139038085937500e+00 2.142743349075317383e+00 8.735647797584533691e-01
4.491000000000000000e+03 7.283527374267578125e+01 -1.695395278930664062e+01 -1.146122336387634277e+00 9.061264038085937500e+00 2.374542713165283203e+00 9.561822414398193359e-01
4.492000000000000000e+03 2.923688125610351562e+01 1.509121036529541016e+01 -7.572910785675048828e-01 4.372211918234825134e-02 -2.140706926584243774e-01 2.337537556886672974e-01
4.493000000000000000e+03 2.847420692443847656e+01 1.442698478698730469e+01 -5.721945166587829590e-01 -9.469153359532356262e-03 -1.744991093873977661e-01 1.802920401096343994e-01
4.494000000000000000e+03 5.401449203491210938e+01 1.141591930389404297e+01 2.074801683425903320e+00 9.998204231262207031e+00 3.621901988983154297e+00 1.117189764976501465e+00
4.495000000000000000e+03 5.386047744750976562e+01 -2.086917686462402344e+01 -7.522044777870178223e-01 1.657507777214050293e+00 2.715910077095031738e-01 1.794559717178344727e+00
4.496000000000000000e+03 3.252909469604492188e+01 2.389020919799804688e+00 2.071006782352924347e-02 3.721610307693481445e-01 1.178613305091857910e-01 4.937231540679931641e-01
4.497000000000000000e+03 4.883147811889648438e+01 3.765767097473144531e+00 2.937152862548828125e+00 5.331920623779296875e+00 2.480721950531005859e+00 1.999630093574523926e+00
4.498000000000000000e+03 3.354288339614868164e+00 7.337848186492919922e+00 -6.119691766798496246e-03 -1.511555723845958710e-02 -6.370574701577425003e-03 2.940811030566692352e-02
4.499000000000000000e+03 3.311052560806274414e+00 6.681172370910644531e+00 -1.316818315535783768e-02 -1.753041520714759827e-02 -9.209578856825828552e-03 2.420775592327117920e-02
4.500000000000000000e+03 6.666654205322265625e+01 7.847265243530273438e+00 -9.893600344657897949e-01 1.192467975616455078e+01 3.280595779418945312e+00 -1.051725029945373535e+00
4.501000000000000000e+03 2.688552856445312500e+01 -4.373864829540252686e-01 5.479777455329895020e-01 -3.094545900821685791e-01 7.155693322420120239e-02 -1.495687365531921387e-01
4.502000000000000000e+03 2.849650573730468750e+01 -8.020396232604980469e+00 -2.031429857015609741e-01 2.860562801361083984e-01 2.487398497760295868e-02 3.168812990188598633e-01
4.503000000000000000e+03 4.341841888427734375e+01 -1.243795037269592285e+00 -9.558984637260437012e-01 5.442483425140380859e+00 1.345975399017333984e+00 1.616084218025207520e+00
4.504000000000000000e+03 6.147377014160156250e+01 -1.100743579864501953e+01 5.302755236625671387e-01 8.072214126586914062e+00 2.580746889114379883e+00 8.258058875799179077e-02
4.505000000000000000e+03 1.011837291717529297e+01 -4.103043556213378906e+00 -2.725079469382762909e-02 4.874892998486757278e-03 -6.712770555168390274e-03 -5.642031319439411163e-03
4.506000000000000000e+03 4.546088027954101562e+01 -1.314471244812011719e+01 -6.474959850311279297e-01 3.298190355300903320e+00 7.952082753181457520e-01 5.083900690078735352e-01
4.507000000000000000e+03 4.266875076293945312e+01 -8.024624824523925781e+00 -3.296364545822143555e-01 6.022159099578857422e+00 1.707756757736206055e+00 1.361398696899414062e+00
4.508000000000000000e+03 6.636293792724609375e+01 5.000228881835937500e+00 7.559525370597839355e-01 8.262307167053222656e+00 2.705477952957153320e+00 -6.679016947746276855e-01
4.509000000000000000e+03 6.805950164794921875e+01 1.467830181121826172e+00 -3.703832328319549561e-01 7.918852806091308594e+00 2.264540910720825195e+00 2.843923866748809814e-01
4.510000000000000000e+03 3.141218900680541992e+00 -2.355665779113769531e+01 -8.465984137728810310e-04 -1.973959505558013916e-01 -5.947276577353477478e-02 -6.092219054698944092e-02
4.511000000000000000e+03 2.488903236389160156e+01 1.815972137451171875e+01 -8.300954103469848633e-01 -2.902433872222900391e-01 -3.361016511917114258e-01 1.947474181652069092e-01
4.512000000000000000e+03 1.390425777435302734e+01 -3.919755697250366211e+00 -3.507491573691368103e-02 4.517672117799520493e-03 -9.167172946035861969e-03 6.526554934680461884e-03
4.513000000000000000e+03 1.312462425231933594e+01 -3.129894256591796875e+00 -2.487707324326038361e-02 2.810591133311390877e-03 -6.619944237172603607e-03 3.041508607566356659e-03
4.514000000000000000e+03 6.403455352783203125e+01 1.753359603881835938e+01 1.034708738327026367e+00 4.922169685363769531e+00 1.787063479423522949e+00 -1.590735077857971191e+00
4.515000000000000000e+03 6.194900894165039062e+01 -2.149820804595947266e+00 -8.091154098510742188e-01 7.371215820312500000e+00 1.968630194664001465e+00 8.066502213478088379e-01
4.516000000000000000e+03 4.514314651489257812e+01 -1.505333137512207031e+01 -2.611814439296722412e-01 3.115566492080688477e+00 8.563154935836791992e-01 2.009402513504028320e-01
4.517000000000000000e+03 4.578309631347656250e+01 -1.443270874023437500e+01 -4.836029708385467529e-01 2.603018999099731445e+00 6.358247995376586914e-01 1.866137385368347168e-01
4.518000000000000000e+03 7.592755126953125000e+01 -1.281715011596679688e+01 8.754768371582031250e-01 8.926282882690429688e+00 2.940527915954589844e+00 7.069044560194015503e-02
4.519000000000000000e+03 7.434884643554687500e+01 -1.176366519927978516e+01 1.256958723068237305e+00 1.025119304656982422e+01 3.452445507049560547e+00 3.123314976692199707e-01
4.520000000000000000e+03 7.143365478515625000e+01 -1.336450219154357910e+00 -2.594208240509033203e+00 4.576147079467773438e+00 5.945817232131958008e-01 -3.396933794021606445e+00
4.521000000000000000e+03 5.452877807617187500e+01 -1.184760928153991699e+00 -2.753404855728149414e+00 9.320158958435058594e+00 1.970026254653930664e+00 -4.897498130798339844e+00
4.522000000000000000e+03 5.522796630859375000e+01 -6.712952852249145508e-01 -1.945062875747680664e+00 7.826515197753906250e+00 1.764435768127441406e+00 -6.365706443786621094e+00
4.523000000000000000e+03 4.550259017944335938e+01 7.677101492881774902e-01 4.747918248176574707e-01 3.493483781814575195e+00 1.190482735633850098e+00 3.382344245910644531e+00
4.524000000000000000e+03 6.397604370117187500e+01 -1.599157333374023438e+01 -2.687396109104156494e-01 5.094928264617919922e+00 1.447856664657592773e+00 -1.487089157104492188e+00
4.525000000000000000e+03 7.338236331939697266e+00 8.351921081542968750e+00 3.140480071306228638e-02 -4.899366199970245361e-02 -5.276657640933990479e-03 4.749119654297828674e-02
4.526000000000000000e+03 2.947459793090820312e+01 1.096914529800415039e+00 4.633596837520599365e-01 4.277761876583099365e-01 2.673407495021820068e-01 -1.763251274824142456e-01
4.527000000000000000e+03 6.119563674926757812e+01 2.794623672962188721e-01 -3.198613405227661133e+00 4.109944343566894531e+00 2.733992636203765869e-01 1.058296203613281250e+00
4.528000000000000000e+03 6.069925689697265625e+01 8.181217908859252930e-01 -3.350449562072753906e+00 2.890107154846191406e+00 -1.381027400493621826e-01 6.191464662551879883e-01
4.529000000000000000e+03 6.424298858642578125e+01 4.255593299865722656e+00 -1.348827332258224487e-01 4.532216072082519531e+00 1.319200038909912109e+00 1.067052841186523438e+00
4.530000000000000000e+03 6.576695251464843750e+01 4.549272060394287109e+00 3.745880424976348877e-01 7.017790317535400391e+00 2.217713594436645508e+00 1.853885650634765625e-01
4.531000000000000000e+03 6.928696441650390625e+01 9.238965034484863281e+00 -1.086217164993286133e+00 7.935266017913818359e+00 2.054714679718017578e+00 -2.175479680299758911e-01
4.532000000000000000e+03 6.801032257080078125e+01 8.464129447937011719e+00 -1.166008949279785156e+00 1.124511432647705078e+01 3.023731708526611328e+00 -1.619953393936157227e+00
4.533000000000000000e+03 6.716789722442626953e+00 -3.576434850692749023e+00 -1.252929586917161942e-02 -6.025036564096808434e-04 -3.939539659768342972e-03 -6.574333179742097855e-03
4.534000000000000000e+03 3.559866333007812500e+01 8.039523363113403320e-01 4.851438403129577637e-01 -3.500954806804656982e-01 4.051450639963150024e-02 1.079823970794677734e-01
4.535000000000000000e+03 6.462072753906250000e+01 -1.551923561096191406e+01 -2.021086663007736206e-01 4.527047634124755859e+00 1.297481775283813477e+00 -1.437185764312744141e+00
4.536000000000000000e+03 2.491057205200195312e+01 -5.721172690391540527e-01 2.571176588535308838e-01 -3.921870291233062744e-01 -4.052080959081649780e-02 -1.791637092828750610e-01
4.537000000000000000e+03 2.657349967956542969e+01 9.975801467895507812e+00 -1.987757384777069092e-01 -1.339583843946456909e-01 -9.982023388147354126e-02 -1.713265031576156616e-01
4.538000000000000000e+03 2.795470619201660156e+01 -7.508646011352539062e+00 -1.665868461132049561e-01 2.908792793750762939e-01 3.728772699832916260e-02 3.483056128025054932e-01
4.539000000000000000e+03 2.577515792846679688e+01 -2.695273876190185547e+00 2.608890235424041748e-01 -2.471440434455871582e-01 4.123496823012828827e-03 1.117406561970710754e-01
4.540000000000000000e+03 2.582984542846679688e+01 -1.750072121620178223e+00 3.845801055431365967e-01 -3.175494074821472168e-01 2.010920830070972443e-02 -1.589193567633628845e-02
4.541000000000000000e+03 2.388586425781250000e+01 -1.130286598205566406e+01 -2.332633733749389648e-01 1.390918046236038208e-01 -2.825146727263927460e-02 1.544949859380722046e-01
4.542000000000000000e+03 7.739173889160156250e+01 -1.406484699249267578e+01 3.698625564575195312e-01 8.078114509582519531e+00 2.534393310546875000e+00 -3.100841343402862549e-01
4.543000000000000000e+03 7.689112854003906250e+01 -1.547108364105224609e+01 2.669620215892791748e-01 8.348804473876953125e+00 2.584729909896850586e+00 -5.818012952804565430e-01
4.544000000000000000e+03 5.225733184814453125e+01 -3.560073375701904297e+00 -3.827356338500976562e+00 5.186411380767822266e+00 4.077165424823760986e-01 -1.565413951873779297e+00
4.545000000000000000e+03 5.269184875488281250e+01 -4.000125408172607422e+00 -3.705014944076538086e+00 5.499406814575195312e+00 5.383176207542419434e-01 -1.543318271636962891e+00
4.546000000000000000e+03 7.070370197296142578e+00 -4.405258655548095703e+00 -1.648674532771110535e-02 -7.436785963363945484e-04 -5.169127136468887329e-03 -9.916444309055805206e-03
4.547000000000000000e+03 4.229359436035156250e+01 -9.032610893249511719e+00 -9.910938143730163574e-01 5.404395580291748047e+00 1.323990583419799805e+00 1.543384432792663574e+00
4.548000000000000000e+03 4.205491638183593750e+01 -8.524078369140625000e+00 -7.556713819503784180e-01 4.965625286102294922e+00 1.262986183166503906e+00 1.424790740013122559e+00
4.549000000000000000e+03 1.054732322692871094e+01 1.132650566101074219e+01 2.276706136763095856e-02 5.297666788101196289e-02 2.272311970591545105e-02 3.004080988466739655e-02
4.550000000000000000e+03 7.592842864990234375e+01 1.027795600891113281e+01 -9.174199700355529785e-01 8.635835647583007812e+00 2.315524816513061523e+00 -1.782523632049560547e+00
4.551000000000000000e+03 6.237114334106445312e+01 -1.532874941825866699e+00 -2.123705863952636719e+00 7.469998836517333984e+00 1.603887915611267090e+00 1.166958689689636230e+00
4.552000000000000000e+03 3.756985855102539062e+01 1.590739631652832031e+01 -1.107974410057067871e+00 7.003564387559890747e-02 -3.113816380500793457e-01 2.726352075114846230e-03
4.553000000000000000e+03 4.803847122192382812e+01 -1.673752784729003906e+01 -1.001840591430664062e+00 9.910928606986999512e-01 -3.224323503673076630e-03 -5.266338586807250977e-02
4.554000000000000000e+03 6.833784484863281250e+01 -2.672258377075195312e+00 -3.861912012100219727e+00 3.630894899368286133e+00 -6.930515170097351074e-02 -8.556566834449768066e-01
4.555000000000000000e+03 6.833079528808593750e+01 -1.947961616516113281e+01 6.026821732521057129e-01 3.316937446594238281e+00 1.175885915756225586e+00 -2.312342673540115356e-01
4.556000000000000000e+03 5.200054168701171875e+01 -3.040386438369750977e+00 -3.768770456314086914e+00 5.428307533264160156e+00 4.978611469268798828e-01 -1.377260684967041016e+00
4.557000000000000000e+03 2.706060981750488281e+01 -1.876704692840576172e+00 5.846297144889831543e-01 -7.157488912343978882e-02 1.539164334535598755e-01 1.772643029689788818e-01
4.558000000000000000e+03 7.428284454345703125e+01 -8.009173393249511719e+00 6.875461935997009277e-01 8.721509933471679688e+00 2.822716712951660156e+00 7.989791035652160645e-01
4.559000000000000000e+03 7.620384216308593750e+01 1.172191429138183594e+01 -5.628030896186828613e-01 7.389281749725341797e+00 2.047943592071533203e+00 -1.548108100891113281e+00
4.560000000000000000e+03 7.254058837890625000e+01 1.223078823089599609e+01 1.906240463256835938e+00 2.954290151596069336e+00 1.458159208297729492e+00 -1.075414419174194336e+00
4.561000000000000000e+03 7.129196166992187500e+01 1.117481613159179688e+01 1.606126904487609863e+00 2.739665269851684570e+00 1.303737640380859375e+00 2.546960115432739258e-01
4.562000000000000000e+03 1.708149719238281250e+01 1.777923774719238281e+01 -3.127281367778778076e-01 8.074928820133209229e-02 -6.959365308284759521e-02 1.422114372253417969e-01
4.563000000000000000e+03 5.014600753784179688e+01 -1.708532094955444336e+00 -1.761839032173156738e+00 2.732684135437011719e+00 2.912534773349761963e-01 4.165652990341186523e-01
4.564000000000000000e+03 5.532826995849609375e+01 -8.321622848510742188e+00 4.816829562187194824e-01 6.656428337097167969e+00 2.141433477401733398e+00 -1.695928812026977539e+00
4.565000000000000000e+03 7.155330657958984375e+01 1.178515911102294922e+01 2.061484098434448242e+00 2.960129261016845703e+00 1.506484031677246094e+00 -4.525169730186462402e-02
4.566000000000000000e+03 7.022798156738281250e+01 1.095912647247314453e+01 1.509738206863403320e+00 4.362988471984863281e+00 1.761818051338195801e+00 7.801941037178039551e-01
4.567000000000000000e+03 2.794565010070800781e+01 -9.995290040969848633e-01 8.702955245971679688e-01 5.307995155453681946e-02 2.770126461982727051e-01 1.485585868358612061e-01
4.568000000000000000e+03 2.847255516052246094e+01 -8.638013601303100586e-01 9.830157160758972168e-01 2.167173922061920166e-01 3.599199354648590088e-01 2.046424597501754761e-01
4.569000000000000000e+03 5.123921585083007812e+01 -1.475598335266113281e+00 -1.957354426383972168e+00 5.427483558654785156e+00 1.041038632392883301e+00 -6.056391596794128418e-01
4.570000000000000000e+03 1.374502563476562500e+01 -2.690246582031250000e+00 -1.882593519985675812e-02 1.431252341717481613e-03 -5.218405276536941528e-03 4.996572155505418777e-03
4.571000000000000000e+03 7.370101165771484375e+01 -9.978847503662109375e+00 1.406555175781250000e+00 1.035855674743652344e+01 3.529533624649047852e+00 5.534350872039794922e-02
4.572000000000000000e+03 5.237450790405273438e+01 8.616330146789550781e+00 -3.086992502212524414e-01 1.447599315643310547e+01 4.250188350677490234e+00 -4.278944730758666992e-01
4.573000000000000000e+03 5.157989120483398438e+01 9.500329971313476562e+00 1.036493659019470215e+00 1.643572044372558594e+01 5.241664409637451172e+00 1.847563832998275757e-01
4.574000000000000000e+03 7.791334533691406250e+01 -2.699138259887695312e+01 1.339561864733695984e-02 7.992372989654541016e+00 2.401730537414550781e+00 1.077036708593368530e-01
4.575000000000000000e+03 7.616158294677734375e+01 -2.708571052551269531e+01 3.201065585017204285e-02 7.544787406921386719e+00 2.273039340972900391e+00 1.642421036958694458e-01
4.576000000000000000e+03 4.513153457641601562e+01 3.851819783449172974e-02 -2.550322413444519043e-01 4.198013782501220703e+00 1.182894468307495117e+00 3.612975835800170898e+00
4.577000000000000000e+03 6.865715026855468750e+01 3.234777688980102539e+00 3.145154714584350586e+00 1.212382125854492188e+01 4.580692768096923828e+00 -9.481491446495056152e-01
4.578000000000000000e+03 3.472079467773437500e+01 1.676275372505187988e+00 3.951905667781829834e-01 -1.160561516880989075e-01 8.374032378196716309e-02 2.924386858940124512e-01
4.579000000000000000e+03 7.752971649169921875e+01 1.898834943771362305e+00 -1.596724510192871094e+00 1.075606536865234375e+01 2.747802257537841797e+00 -1.744150876998901367e+00
4.580000000000000000e+03 1.545951461791992188e+01 1.499247169494628906e+01 -1.309064328670501709e-01 6.710514426231384277e-02 -1.914038695394992828e-02 4.154700785875320435e-02
4.581000000000000000e+03 1.463168525695800781e+01 1.428909778594970703e+01 -7.600764930248260498e-02 6.887905299663543701e-02 -2.138577867299318314e-03 3.896902129054069519e-02
4.582000000000000000e+03 6.670234680175781250e+01 1.566954326629638672e+01 2.196919173002243042e-01 8.864127159118652344e+00 2.725145578384399414e+00 -3.946741223335266113e-01
4.583000000000000000e+03 4.137679290771484375e+01 -1.029465961456298828e+01 -1.305521965026855469e+00 4.379056930541992188e+00 9.220604896545410156e-01 1.427489638328552246e+00
4.584000000000000000e+03 4.573175430297851562e+01 -1.506731510162353516e+01 -5.116932988166809082e-01 2.522984743118286133e+00 6.033874154090881348e-01 4.956617578864097595e-02
4.585000000000000000e+03 4.746847534179687500e+01 -1.651262474060058594e+01 -8.569301962852478027e-01 1.326928019523620605e+00 1.409993320703506470e-01 -9.587234258651733398e-02
4.586000000000000000e+03 4.412613677978515625e+01 -1.607526779174804688e+01 -9.843291342258453369e-02 3.562296867370605469e+00 1.039159178733825684e+00 -2.241404652595520020e-01
4.587000000000000000e+03 4.318077087402343750e+01 -1.503757095336914062e+01 4.255168735980987549e-01 4.525798797607421875e+00 1.485394716262817383e+00 6.124302744865417480e-01
4.588000000000000000e+03 6.234330368041992188e+01 1.756439590454101562e+01 1.717839479446411133e+00 3.388935804367065430e+00 1.532032608985900879e+00 -8.686785101890563965e-01
4.589000000000000000e+03 6.067887496948242188e+01 1.604832458496093750e+01 1.955846071243286133e+00 1.623101353645324707e+00 1.073684215545654297e+00 3.033212423324584961e-01
4.590000000000000000e+03 4.908979034423828125e+01 -1.893633842468261719e+01 -1.238655567169189453e+00 1.022727012634277344e+00 -6.477858126163482666e-02 -2.836776971817016602e-01
4.591000000000000000e+03 4.974600601196289062e+01 -1.794915199279785156e+01 -1.513701200485229492e+00 4.246551096439361572e-01 -3.267138302326202393e-01 1.937014758586883545e-01
4.592000000000000000e+03 4.720679759979248047e+00 -2.109954452514648438e+01 -5.217031110078096390e-03 -1.309992223978042603e-01 -4.086487367749214172e-02 -8.254694193601608276e-02
4.593000000000000000e+03 7.493861389160156250e+01 2.379216575622558594e+01 3.187199681997299194e-02 6.090072631835937500e+00 1.836583375930786133e+00 2.309163957834243774e-01
4.594000000000000000e+03 7.690314483642578125e+01 2.214332771301269531e+01 5.323897302150726318e-02 5.945469379425048828e+00 1.799612522125244141e+00 1.490707099437713623e-01
4.595000000000000000e+03 3.079776048660278320e+00 2.984019470214843750e+01 2.479568123817443848e-03 -2.954969406127929688e-01 -8.790521323680877686e-02 7.925851643085479736e-02
4.596000000000000000e+03 6.392539024353027344e+00 3.151363372802734375e+01 2.161046490073204041e-02 -2.582502365112304688e-01 -7.099193334579467773e-02 1.344766616821289062e-01
4.597000000000000000e+03 6.377052307128906250e+00 -2.793398094177246094e+01 1.205730531364679337e-02 -1.698189079761505127e-01 -4.732847958803176880e-02 -9.713792055845260620e-02
4.598000000000000000e+03 7.206633758544921875e+01 2.664138412475585938e+01 -3.733631968498229980e-02 6.131337165832519531e+00 1.828200340270996094e+00 2.210721373558044434e-01
4.599000000000000000e+03 7.457028961181640625e+01 2.581460380554199219e+01 -1.328580640256404877e-02 6.120834350585937500e+00 1.832264661788940430e+00 2.350272238254547119e-01
4.600000000000000000e+03 4.028749942779541016e+00 -2.633792114257812500e+01 2.852756297215819359e-03 -2.176483571529388428e-01 -6.443868577480316162e-02 -7.329753041267395020e-02
4.601000000000000000e+03 5.569390487670898438e+01 -5.232787609100341797e+00 -9.732174277305603027e-01 6.251721858978271484e+00 1.583551287651062012e+00 -2.350076198577880859e+00
4.602000000000000000e+03 5.071450805664062500e+01 -1.458882689476013184e+00 -1.740335702896118164e+00 4.126182079315185547e+00 7.157539129257202148e-01 6.655286997556686401e-02
4.603000000000000000e+03 5.138490295410156250e+01 -2.287068128585815430e+00 -3.140342712402343750e+00 4.719520568847656250e+00 4.737533926963806152e-01 -1.046081304550170898e+00
4.604000000000000000e+03 5.506642913818359375e+01 1.155785465240478516e+01 1.650761246681213379e+00 7.123907566070556641e+00 2.632400512695312500e+00 1.549414396286010742e+00
4.605000000000000000e+03 5.808670043945312500e+01 -1.406821489334106445e+00 -3.789784908294677734e-01 2.224256515502929688e+00 5.535833835601806641e-01 -3.192054033279418945e+00
4.606000000000000000e+03 6.517088317871093750e+01 4.106036186218261719e+00 1.834507286548614502e-01 5.903452396392822266e+00 1.826070904731750488e+00 8.834267854690551758e-01
4.607000000000000000e+03 7.685942840576171875e+01 -5.894613862037658691e-01 -1.256235003471374512e+00 8.765559196472167969e+00 2.252797365188598633e+00 7.795598506927490234e-01
4.608000000000000000e+03 5.298970031738281250e+01 -7.388425469398498535e-01 -1.801799535751342773e+00 9.474235534667968750e+00 2.301730871200561523e+00 -2.122119426727294922e+00
4.609000000000000000e+03 1.265870189666748047e+01 -2.010454416275024414e+00 -1.410237513482570648e-02 1.308630569837987423e-03 -3.838123288005590439e-03 2.393820090219378471e-03
4.610000000000000000e+03 5.165002441406250000e+01 7.251623630523681641e+00 -5.910288095474243164e-01 1.408274841308593750e+01 4.047515869140625000e+00 -2.316721528768539429e-01
4.611000000000000000e+03 8.484420776367187500e+00 9.709598541259765625e+00 4.872473329305648804e-02 7.101450581103563309e-03 1.674785465002059937e-02 2.153725177049636841e-02
4.612000000000000000e+03 7.332601165771484375e+01 -1.858225250244140625e+01 -8.403014540672302246e-01 7.928685665130615234e+00 2.126515150070190430e+00 7.994954586029052734e-01
4.613000000000000000e+03 4.184383010864257812e+01 -5.699569702148437500e+00 1.725034236907958984e+00 4.089220523834228516e+00 1.744276523590087891e+00 8.601003289222717285e-01
4.614000000000000000e+03 2.290027618408203125e+01 1.911203956604003906e+01 -6.083699464797973633e-01 -2.097757458686828613e-01 -2.454437166452407837e-01 3.364501595497131348e-01
4.615000000000000000e+03 2.118392562866210938e+01 1.859045982360839844e+01 -5.854428410530090332e-01 -4.801857843995094299e-02 -1.900384277105331421e-01 2.893989682197570801e-01
4.616000000000000000e+03 3.758677673339843750e+01 1.655038642883300781e+01 -9.485584497451782227e-01 9.262958168983459473e-02 -2.567786574363708496e-01 -4.375941306352615356e-02
4.617000000000000000e+03 7.597518920898437500e+01 -8.500727653503417969e+00 5.806826949119567871e-01 8.648571014404296875e+00 2.768776178359985352e+00 1.224197030067443848e+00
4.618000000000000000e+03 4.665985870361328125e+01 -1.696571540832519531e+01 -7.607555389404296875e-01 1.954662561416625977e+00 3.581721186637878418e-01 -3.265519440174102783e-01
4.619000000000000000e+03 4.920238018035888672e+00 -2.268676376342773438e+01 -1.521803671494126320e-03 -1.480868756771087646e-01 -4.488260671496391296e-02 -8.799281716346740723e-02
4.620000000000000000e+03 3.357040405273437500e+00 1.024117755889892578e+01 6.033876445144414902e-03 -4.176851361989974976e-02 -1.072039175778627396e-02 2.323657460510730743e-02
4.621000000000000000e+03 3.406117439270019531e+00 1.100604438781738281e+01 9.019534103572368622e-03 -4.335304349660873413e-02 -1.030005328357219696e-02 2.198100462555885315e-02
4.622000000000000000e+03 3.611916303634643555e+00 8.917057991027832031e+00 2.390857087448239326e-03 -3.102625906467437744e-02 -8.590620942413806915e-03 3.130212798714637756e-02
4.623000000000000000e+03 3.390590906143188477e+00 -9.053355216979980469e+00 -7.933658547699451447e-03 -2.104463987052440643e-02 -8.693489246070384979e-03 -2.142865210771560669e-02
4.624000000000000000e+03 3.577910184860229492e+00 1.924971199035644531e+01 -1.594950817525386810e-02 -9.450397640466690063e-02 -3.313604742288589478e-02 4.362243413925170898e-02
4.625000000000000000e+03 3.183693170547485352e+00 2.011928749084472656e+01 -1.185664813965559006e-02 -1.097980812191963196e-01 -3.649641945958137512e-02 4.312677681446075439e-02
4.626000000000000000e+03 3.910801172256469727e+00 -1.107912826538085938e+01 -1.094217505306005478e-02 -3.296535089612007141e-02 -1.317225769162178040e-02 -3.464268520474433899e-02
4.627000000000000000e+03 7.656292724609375000e+01 -1.122130775451660156e+01 7.165086269378662109e-01 8.563025474548339844e+00 2.783860206604003906e+00 5.018148422241210938e-01
4.628000000000000000e+03 7.666281127929687500e+01 -1.269258213043212891e+01 6.646980047225952148e-01 8.465765953063964844e+00 2.739139080047607422e+00 5.753952637314796448e-02
4.629000000000000000e+03 7.636061859130859375e+01 -1.585784673690795898e+00 -8.239717483520507812e-01 7.675040721893310547e+00 2.055320739746093750e+00 1.202147603034973145e+00
4.630000000000000000e+03 7.674734497070312500e+01 -2.227512836456298828e+00 -5.094218254089355469e-01 8.335418701171875000e+00 2.347799062728881836e+00 1.238144040107727051e+00
4.631000000000000000e+03 3.065387725830078125e+01 -1.174568653106689453e+01 -4.792798757553100586e-01 1.678885072469711304e-01 -9.341741353273391724e-02 2.019915729761123657e-01
4.632000000000000000e+03 3.272945165634155273e+00 2.101097297668457031e+01 -1.343179307878017426e-02 -1.214234232902526855e-01 -4.045656323432922363e-02 5.342875421047210693e-02
4.633000000000000000e+03 3.798930406570434570e+00 2.149998664855957031e+01 -1.516826823353767395e-02 -1.235948801040649414e-01 -4.162894561886787415e-02 6.226608902215957642e-02
4.634000000000000000e+03 7.634053802490234375e+01 9.884850502014160156e+00 -6.713769435882568359e-01 9.606742858886718750e+00 2.680609703063964844e+00 -1.508823037147521973e+00
4.635000000000000000e+03 7.572672271728515625e+01 -1.071738147735595703e+01 9.568647146224975586e-01 9.004014968872070312e+00 2.988263845443725586e+00 6.188234686851501465e-01
4.636000000000000000e+03 7.618651580810546875e+01 -2.041032981872558594e+01 -3.462075293064117432e-01 8.075171470642089844e+00 2.318689107894897461e+00 -3.282821970060467720e-03
4.637000000000000000e+03 7.617670440673828125e+01 -2.215340423583984375e+01 -1.780670732259750366e-01 7.832229614257812500e+00 2.296248912811279297e+00 1.381058692932128906e-01
4.638000000000000000e+03 4.796638965606689453e+00 -2.188606262207031250e+01 -2.865285612642765045e-03 -1.390882134437561035e-01 -4.258605092763900757e-02 -8.509204536676406860e-02
4.639000000000000000e+03 3.718889951705932617e+00 -1.957956886291503906e+01 -4.553854931145906448e-03 -1.269589066505432129e-01 -3.945382684469223022e-02 -6.586115807294845581e-02
4.640000000000000000e+03 2.886836051940917969e+01 -9.794201850891113281e+00 -3.167157173156738281e-01 2.561287283897399902e-01 -1.817609928548336029e-02 2.236357778310775757e-01
4.641000000000000000e+03 6.942302703857421875e+01 -1.916206836700439453e+00 -3.545935153961181641e+00 5.287511825561523438e+00 5.224729180335998535e-01 -2.091489553451538086e+00
4.642000000000000000e+03 6.912653350830078125e+01 -1.392196178436279297e+00 -3.455632209777832031e+00 5.483693599700927734e+00 6.084184646606445312e-01 -1.956814169883728027e+00
4.643000000000000000e+03 7.505285644531250000e+01 2.292100906372070312e+01 7.281830906867980957e-02 6.067230701446533203e+00 1.842014789581298828e+00 2.187255471944808960e-01
4.644000000000000000e+03 7.511741638183593750e+01 2.204641532897949219e+01 1.106505915522575378e-01 6.036860942840576172e+00 1.844253420829772949e+00 2.027068585157394409e-01
4.645000000000000000e+03 7.533438873291015625e+01 2.125775909423828125e+01 1.555417627096176147e-01 5.997218608856201172e+00 1.845828175544738770e+00 1.673335283994674683e-01
4.646000000000000000e+03 7.623702239990234375e+01 1.970758438110351562e+01 1.905571073293685913e-01 5.895734310150146484e+00 1.825887322425842285e+00 4.584641009569168091e-02
4.647000000000000000e+03 2.748375129699707031e+01 -2.763959646224975586e+00 4.564715325832366943e-01 1.935101151466369629e-01 1.949944943189620972e-01 3.762484192848205566e-01
4.648000000000000000e+03 5.045526504516601562e+01 -1.971893012523651123e-01 4.501907229423522949e-01 5.007052898406982422e+00 1.637173056602478027e+00 9.919933676719665527e-01
4.649000000000000000e+03 6.645644378662109375e+01 -5.223459601402282715e-01 -1.788815379142761230e+00 2.689368009567260742e+00 2.701658010482788086e-01 1.572864651679992676e+00
4.650000000000000000e+03 3.974429321289062500e+01 -2.867505550384521484e+00 1.171291232109069824e+00 2.755409181118011475e-01 4.340496659278869629e-01 -5.894385576248168945e-01
4.651000000000000000e+03 4.776181411743164062e+01 1.824166297912597656e+00 2.336824417114257812e+00 3.242149353027343750e+00 1.673692107200622559e+00 3.036705732345581055e+00
4.652000000000000000e+03 4.800969314575195312e+01 1.317988872528076172e+00 2.091634988784790039e+00 3.142386674880981445e+00 1.570206522941589355e+00 3.204390525817871094e+00
4.653000000000000000e+03 6.311567687988281250e+01 9.823118448257446289e-01 -2.647708892822265625e+00 4.660899639129638672e+00 6.039571762084960938e-01 2.906648874282836914e+00
4.654000000000000000e+03 4.532124710083007812e+01 1.690718841552734375e+01 4.382098838686943054e-02 5.939300060272216797e-01 1.913252919912338257e-01 -5.568663477897644043e-01
4.655000000000000000e+03 5.229895401000976562e+01 5.772998332977294922e+00 7.592451572418212891e-01 1.397537899017333984e+01 4.420387268066406250e+00 -1.064296245574951172e+00
4.656000000000000000e+03 3.423429727554321289e+00 -4.469263076782226562e+00 -4.886140581220388412e-03 -4.616402555257081985e-03 -2.850763034075498581e-03 -5.213380325585603714e-03
4.657000000000000000e+03 4.349156951904296875e+01 -9.620718955993652344e+00 -9.431572556495666504e-01 6.264845848083496094e+00 1.596506476402282715e+00 1.226948976516723633e+00
4.658000000000000000e+03 4.394556045532226562e+01 -1.037242889404296875e+01 -9.864813685417175293e-01 5.800855636596679688e+00 1.444312214851379395e+00 1.139683842658996582e+00
4.659000000000000000e+03 2.802130889892578125e+01 -5.591386556625366211e-01 9.472998380661010742e-01 -3.486321540549397469e-03 2.831440567970275879e-01 6.897913664579391479e-02
4.660000000000000000e+03 4.200024414062500000e+01 -1.001159954071044922e+01 -1.245595812797546387e+00 5.086565494537353516e+00 1.152290940284729004e+00 1.679887533187866211e+00
4.661000000000000000e+03 2.080301475524902344e+01 8.013733863830566406e+00 -4.986970871686935425e-02 5.116134136915206909e-02 3.874903195537626743e-04 -1.030786707997322083e-02
4.662000000000000000e+03 4.577074432373046875e+01 -3.730151355266571045e-01 -3.030223846435546875e-01 3.815974235534667969e+00 1.053885579109191895e+00 4.233872890472412109e+00
4.663000000000000000e+03 4.723604583740234375e+01 -4.524941146373748779e-01 5.117034316062927246e-01 2.329145431518554688e+00 8.522546887397766113e-01 4.356254100799560547e+00
4.664000000000000000e+03 3.658477783203125000e+01 7.840193748474121094e+00 -3.198818117380142212e-02 3.778839600272476673e-04 -9.483089670538902283e-03 1.044909562915563583e-02
4.665000000000000000e+03 3.616620635986328125e+01 3.652572631835937500e+00 1.806015893816947937e-02 -1.034747585654258728e-01 -2.562438137829303741e-02 1.966713070869445801e-01
4.666000000000000000e+03 3.495410919189453125e+01 3.894085168838500977e+00 -1.024925187230110168e-01 4.896578565239906311e-02 -1.605802029371261597e-02 2.729279398918151855e-01
4.667000000000000000e+03 5.845981979370117188e+01 -1.143380832672119141e+01 8.678917288780212402e-01 8.785008430480957031e+00 2.895870208740234375e+00 -1.574033312499523163e-02
4.668000000000000000e+03 5.758931350708007812e+01 -1.003967380523681641e+01 7.900429368019104004e-01 8.293213844299316406e+00 2.724977016448974609e+00 -3.447284996509552002e-01
4.669000000000000000e+03 2.746222877502441406e+01 -4.602121114730834961e-01 7.577818036079406738e-01 -2.160238474607467651e-01 1.625273823738098145e-01 -7.839681953191757202e-02
4.670000000000000000e+03 2.691321563720703125e+01 1.443733721971511841e-01 4.871126115322113037e-01 -3.640923202037811279e-01 3.690608590841293335e-02 -2.609272003173828125e-01
4.671000000000000000e+03 7.091121673583984375e+01 -1.335791230201721191e+00 -2.483436346054077148e+00 4.933237552642822266e+00 7.349404096603393555e-01 -3.369116306304931641e+00
4.672000000000000000e+03 7.660128021240234375e+01 -3.150569915771484375e+00 -2.574345469474792480e-01 8.253420829772949219e+00 2.398795843124389648e+00 1.324442863464355469e+00
4.673000000000000000e+03 7.707251739501953125e+01 -4.253836631774902344e+00 -5.490743741393089294e-02 8.826719284057617188e+00 2.631543397903442383e+00 1.449015259742736816e+00
4.674000000000000000e+03 7.700479888916015625e+01 -6.574421882629394531e+00 1.747753769159317017e-01 8.751482963562011719e+00 2.677877426147460938e+00 1.482461810111999512e+00
4.675000000000000000e+03 7.665660095214843750e+01 -7.684940814971923828e+00 3.118580281734466553e-01 8.590009689331054688e+00 2.670560359954833984e+00 1.404525518417358398e+00
4.676000000000000000e+03 3.047041416168212891e+00 -5.356188774108886719e+00 -4.827355500310659409e-03 -6.192181725054979324e-03 -3.305861260741949081e-03 -6.369564682245254517e-03
4.677000000000000000e+03 6.355405044555664062e+01 3.156804561614990234e+00 -1.014300942420959473e+00 3.796376705169677734e+00 8.346227407455444336e-01 1.545729517936706543e+00
4.678000000000000000e+03 4.328256988525390625e+01 -1.095372295379638672e+01 -1.091294288635253906e+00 5.514490127563476562e+00 1.326958656311035156e+00 1.585676312446594238e+00
4.679000000000000000e+03 7.670091247558593750e+01 -1.758934593200683594e+01 -2.099410891532897949e-01 8.417564392089843750e+00 2.462286949157714844e+00 -4.976137876510620117e-01
4.680000000000000000e+03 3.209250926971435547e+00 1.556066703796386719e+01 -4.979216493666172028e-03 -6.435976922512054443e-02 -2.080169692635536194e-02 1.819274388253688812e-02
4.681000000000000000e+03 3.191283702850341797e+00 1.624354553222656250e+01 -7.036012131720781326e-03 -6.942610442638397217e-02 -2.293863520026206970e-02 2.087526209652423859e-02
4.682000000000000000e+03 6.732746124267578125e+01 6.975077629089355469e+00 -8.982779979705810547e-01 1.113792324066162109e+01 3.071893453598022461e+00 -1.926638484001159668e+00
4.683000000000000000e+03 4.019003677368164062e+01 1.592747020721435547e+01 -9.019281864166259766e-01 4.995034635066986084e-01 -1.207274124026298523e-01 -2.605391200631856918e-04
4.684000000000000000e+03 2.446315765380859375e+01 -7.865024805068969727e-01 2.312870919704437256e-01 -3.610082864761352539e-01 -3.891636058688163757e-02 -1.378363072872161865e-01
4.685000000000000000e+03 2.594603776931762695e+00 6.015545368194580078e+00 -1.326995715498924255e-02 -1.012618280947208405e-02 -7.018842268735170364e-03 1.541243586689233780e-02
4.686000000000000000e+03 7.597812652587890625e+01 -1.348208236694335938e+01 8.040516972541809082e-01 8.816804885864257812e+00 2.886256933212280273e+00 -1.339942514896392822e-01
4.687000000000000000e+03 7.569955444335937500e+01 -2.067048788070678711e+00 -6.584032773971557617e-01 6.586190700531005859e+00 1.778336167335510254e+00 1.068916797637939453e+00
4.688000000000000000e+03 5.163750076293945312e+01 6.104230880737304688e+00 5.075478553771972656e-01 1.283561038970947266e+01 4.002947330474853516e+00 -7.158218026161193848e-01
4.689000000000000000e+03 7.005783081054687500e+01 -1.968183898925781250e+01 3.110002875328063965e-01 4.341358661651611328e+00 1.395707607269287109e+00 8.959556818008422852e-01
4.690000000000000000e+03 7.659656524658203125e+01 -9.244052886962890625e+00 5.495841503143310547e-01 8.554849624633789062e+00 2.731330156326293945e+00 1.096002578735351562e+00
4.691000000000000000e+03 1.568558979034423828e+01 -7.002244949340820312e+00 -9.539277106523513794e-02 2.378108911216259003e-02 -2.148350328207015991e-02 6.127173546701669693e-03
4.692000000000000000e+03 6.274579238891601562e+01 -1.317808628082275391e+01 1.066780015826225281e-01 6.703453540802001953e+00 2.043039321899414062e+00 -7.192212343215942383e-01
4.693000000000000000e+03 5.217375183105468750e+01 6.855576038360595703e-01 1.146893382072448730e+00 9.579762458801269531e+00 3.217996835708618164e+00 -5.147578660398721695e-03
4.694000000000000000e+03 4.659617614746093750e+01 9.559854269027709961e-01 1.265267968177795410e+00 3.004935741424560547e+00 1.281061172485351562e+00 3.548987388610839844e+00
4.695000000000000000e+03 3.697110652923583984e+00 -2.557075691223144531e+01 2.091756789013743401e-03 -2.145581692457199097e-01 -6.373992562294006348e-02 -6.981321424245834351e-02
4.696000000000000000e+03 4.039947032928466797e+00 1.194439220428466797e+01 7.438637316226959229e-03 -4.473373293876647949e-02 -1.118852850049734116e-02 2.097275666892528534e-02
4.697000000000000000e+03 3.287654638290405273e+00 1.261024856567382812e+01 4.331528209149837494e-03 -4.968556761741638184e-02 -1.360621210187673569e-02 1.673327572643756866e-02
4.698000000000000000e+03 7.661260986328125000e+01 -5.946430206298828125e+00 7.150118052959442139e-02 8.550718307495117188e+00 2.586665630340576172e+00 1.501523852348327637e+00
4.699000000000000000e+03 3.311613559722900391e+00 -7.492011547088623047e+00 -6.949606351554393768e-03 -1.332969311624765396e-02 -6.083789747208356857e-03 -1.469724159687757492e-02
4.700000000000000000e+03 3.139498233795166016e+00 -6.769547939300537109e+00 -6.119450088590383530e-03 -1.034158095717430115e-02 -4.938309546560049057e-03 -1.089542359113693237e-02
4.701000000000000000e+03 7.641300964355468750e+01 -1.885304832458496094e+01 -3.952007591724395752e-01 8.288640975952148438e+00 2.368032217025756836e+00 -3.036503493785858154e-01
4.702000000000000000e+03 7.679260253906250000e+01 -1.647206687927246094e+01 2.974019758403301239e-02 8.451152801513671875e+00 2.544268131256103516e+00 -6.259695887565612793e-01
4.703000000000000000e+03 2.849531888961791992e+00 1.806061363220214844e+01 -1.041857805103063583e-02 -8.626186102628707886e-02 -2.900413237512111664e-02 2.711790613830089569e-02
4.704000000000000000e+03 6.732017040252685547e+00 -5.652150630950927734e+00 -1.935744844377040863e-02 -2.254273276776075363e-03 -6.483516190201044083e-03 -1.468389946967363358e-02
4.705000000000000000e+03 4.381173610687255859e+00 -5.057336330413818359e+00 -8.228708058595657349e-03 -5.752440541982650757e-03 -4.194344859570264816e-03 -8.811511099338531494e-03
4.706000000000000000e+03 4.233635425567626953e+00 -1.387012481689453125e+01 -1.265472453087568283e-02 -5.307845026254653931e-02 -1.971995271742343903e-02 -5.194197595119476318e-02
4.707000000000000000e+03 7.644699859619140625e+01 1.673628044128417969e+01 3.524042665958404541e-01 5.812126636505126953e+00 1.849359273910522461e+00 -3.431200087070465088e-01
4.708000000000000000e+03 7.688243865966796875e+01 1.425564002990722656e+01 1.018442362546920776e-01 6.212127208709716797e+00 1.894191503524780273e+00 -7.943233251571655273e-01
4.709000000000000000e+03 5.052472686767578125e+01 4.441042423248291016e+00 2.617631196975708008e+00 8.946680068969726562e+00 3.469293594360351562e+00 3.934870958328247070e-01
4.710000000000000000e+03 3.909029245376586914e+00 -1.647219467163085938e+01 -8.159358985722064972e-03 -8.465410023927688599e-02 -2.784403786063194275e-02 -5.913946777582168579e-02
4.711000000000000000e+03 3.202928304672241211e+00 -1.495612907409667969e+01 -6.633258890360593796e-03 -7.239532470703125000e-02 -2.370857447385787964e-02 -4.441716521978378296e-02
4.712000000000000000e+03 7.630155181884765625e+01 -2.544829177856445312e+01 1.550443586893379688e-03 7.618062019348144531e+00 2.285883665084838867e+00 1.867216974496841431e-01
4.713000000000000000e+03 5.333535003662109375e+01 8.925943374633789062e+00 -2.123133242130279541e-01 1.261627388000488281e+01 3.721188306808471680e+00 -2.209341675043106079e-01
4.714000000000000000e+03 5.373056411743164062e+01 9.635376930236816406e+00 2.917785942554473877e-01 1.158594322204589844e+01 3.563316583633422852e+00 2.397530674934387207e-01
4.715000000000000000e+03 3.389564275741577148e+00 -1.181528949737548828e+01 -8.194318041205406189e-03 -4.015176370739936829e-02 -1.450382452458143234e-02 -3.404180333018302917e-02
4.716000000000000000e+03 7.627541351318359375e+01 -2.383964157104492188e+01 -6.113362312316894531e-02 7.697825908660888672e+00 2.291007757186889648e+00 1.875190436840057373e-01
4.717000000000000000e+03 3.316410779953002930e+00 2.260401916503906250e+01 -1.163067203015089035e-02 -1.459775418043136597e-01 -4.728246480226516724e-02 6.299009174108505249e-02
4.718000000000000000e+03 2.674639225006103516e+00 2.387472724914550781e+01 -6.289992481470108032e-03 -1.742076128721237183e-01 -5.414928123354911804e-02 5.751407518982887268e-02
4.719000000000000000e+03 3.945559263229370117e+00 2.427835273742675781e+01 -1.403225865215063095e-02 -1.674325019121170044e-01 -5.443942919373512268e-02 8.511922508478164673e-02
4.720000000000000000e+03 3.301284790039062500e+01 2.946075916290283203e+00 -4.841622710227966309e-02 2.956807315349578857e-01 7.417935132980346680e-02 3.865140676498413086e-01
4.721000000000000000e+03 9.643852233886718750e+00 1.150104713439941406e+01 1.929438672959804535e-02 3.362043946981430054e-02 1.587444916367530823e-02 2.359079197049140930e-02
4.722000000000000000e+03 4.317132186889648438e+01 1.540747737884521484e+01 -8.500798344612121582e-01 5.963226556777954102e-01 -7.612715661525726318e-02 -7.521009445190429688e-02
4.723000000000000000e+03 7.434958648681640625e+01 -7.060153007507324219e+00 3.076748251914978027e-01 8.251205444335937500e+00 2.567664146423339844e+00 8.255808353424072266e-01
4.724000000000000000e+03 6.770751190185546875e+01 3.203239440917968750e+00 2.210792541503906250e+00 8.896244049072265625e+00 3.332110881805419922e+00 -1.408297866582870483e-01
4.725000000000000000e+03 6.671379089355468750e+01 1.069330334663391113e+00 -5.730827450752258301e-01 5.405043601989746094e+00 1.449588298797607422e+00 1.808189630508422852e+00
4.726000000000000000e+03 6.779009246826171875e+01 9.120011329650878906e+00 -2.192341387271881104e-01 1.161978816986083984e+01 3.420166254043579102e+00 -1.240990281105041504e+00
4.727000000000000000e+03 3.368419408798217773e+00 -1.742563819885253906e+01 -5.592475645244121552e-03 -1.013226881623268127e-01 -3.207454830408096313e-02 -5.553029105067253113e-02
4.728000000000000000e+03 4.835243988037109375e+01 3.147826194763183594e+00 2.891981124877929688e+00 4.272800922393798828e+00 2.149434566497802734e+00 2.392615556716918945e+00
4.729000000000000000e+03 5.342263412475585938e+01 1.472199249267578125e+01 2.212928295135498047e+00 1.024219036102294922e+01 3.736535787582397461e+00 2.587230205535888672e+00
4.730000000000000000e+03 1.673502349853515625e+01 -8.541350364685058594e+00 -1.363610029220581055e-01 3.628443181514739990e-02 -3.002296946942806244e-02 -3.520143451169133186e-03
4.731000000000000000e+03 3.169894599914550781e+01 -1.080117702484130859e+01 -4.453253149986267090e-01 1.911384239792823792e-02 -1.278634369373321533e-01 2.484743744134902954e-01
4.732000000000000000e+03 7.670150756835937500e+01 1.754584884643554688e+01 2.767893373966217041e-01 5.875856876373291016e+00 1.845793962478637695e+00 -2.188246846199035645e-01
4.733000000000000000e+03 2.082822799682617188e+01 1.967404365539550781e+01 -4.472603201866149902e-01 -5.375957489013671875e-02 -1.503059715032577515e-01 3.349590599536895752e-01
4.734000000000000000e+03 2.672197151184082031e+01 1.834544563293457031e+01 -7.821940183639526367e-01 2.660566568374633789e-02 -2.266765087842941284e-01 2.539441287517547607e-01
4.735000000000000000e+03 4.154929351806640625e+01 -6.450344085693359375e+00 9.581561088562011719e-01 3.565803766250610352e+00 1.357187986373901367e+00 1.004019856452941895e+00
4.736000000000000000e+03 6.116952133178710938e+01 -1.004783058166503906e+01 7.464501857757568359e-01 8.395103454589843750e+00 2.742465972900390625e+00 1.882484406232833862e-01
4.737000000000000000e+03 5.263396072387695312e+01 -3.062428236007690430e+00 -3.706867694854736328e+00 6.449991226196289062e+00 8.229370117187500000e-01 -2.034797668457031250e+00
4.738000000000000000e+03 6.968061065673828125e+01 -1.095054745674133301e+00 -3.389256715774536133e+00 6.097904205322265625e+00 8.125942945480346680e-01 -2.605620861053466797e+00
4.739000000000000000e+03 7.137419891357421875e+01 -2.031231880187988281e+00 -2.037777185440063477e+00 4.600499629974365234e+00 7.688166499137878418e-01 -2.745731115341186523e+00
4.740000000000000000e+03 6.139282226562500000e+01 -2.729755163192749023e+00 2.092545293271541595e-02 7.155959129333496094e+00 2.153065443038940430e+00 3.775937855243682861e-02
4.741000000000000000e+03 7.703264617919921875e+01 -2.786533737182617188e+01 2.754492498934268951e-02 7.735624313354492188e+00 2.328950643539428711e+00 1.274385899305343628e-01
4.742000000000000000e+03 5.311910629272460938e+01 1.008215045928955078e+01 1.113444805145263672e+00 1.276842880249023438e+01 4.164562225341796875e+00 1.305965986102819443e-02
4.743000000000000000e+03 6.882148742675781250e+01 8.064182281494140625e+00 -1.850640892982482910e+00 1.001926994323730469e+01 2.450588703155517578e+00 -1.426416754722595215e+00
4.744000000000000000e+03 3.807164001464843750e+01 1.508660221099853516e+01 -1.272788286209106445e+00 2.267357707023620605e-01 -3.138157725334167480e-01 1.303029209375381470e-01
4.745000000000000000e+03 5.913136672973632812e+01 -1.569592857360839844e+01 9.653581976890563965e-01 8.591562271118164062e+00 2.867076158523559570e+00 -5.612288117408752441e-01
4.746000000000000000e+03 6.607794952392578125e+01 -1.770567893981933594e+01 -1.268457472324371338e-01 3.559956073760986328e+00 1.029933094978332520e+00 -1.406851172447204590e+00
4.747000000000000000e+03 6.550182342529296875e+01 -1.658377647399902344e+01 -2.747356891632080078e-01 3.865607500076293945e+00 1.077261567115783691e+00 -1.523541212081909180e+00
4.748000000000000000e+03 5.967744445800781250e+01 -6.334733366966247559e-01 -1.884163022041320801e+00 2.621358156204223633e+00 2.211585789918899536e-01 -6.916877031326293945e-01
4.749000000000000000e+03 2.520952033996582031e+01 -1.225142860412597656e+01 -3.158586025238037109e-01 2.715768218040466309e-01 -1.328453514724969864e-02 1.434791684150695801e-01
4.750000000000000000e+03 4.963421249389648438e+01 1.950435447692871094e+01 -5.369899868965148926e-01 5.964588165283203125e+00 1.628279447555541992e+00 -1.885350704193115234e+00
4.751000000000000000e+03 5.236233139038085938e+01 1.895192718505859375e+01 -7.017578482627868652e-01 8.231172561645507812e+00 2.258824348449707031e+00 2.946461737155914307e-01
4.752000000000000000e+03 3.494935607910156250e+01 2.491908311843872070e+00 1.140553355216979980e-01 -5.184628441929817200e-02 1.866271533071994781e-02 3.192064762115478516e-01
4.753000000000000000e+03 7.641132354736328125e+00 -4.642814159393310547e+00 -1.943613402545452118e-02 -7.009165710769593716e-05 -5.851867608726024628e-03 -1.118064764887094498e-02
4.754000000000000000e+03 8.089063644409179688e+00 -5.503662586212158203e+00 -2.554573863744735718e-02 9.594769799150526524e-04 -7.375878281891345978e-03 -1.535481028258800507e-02
4.755000000000000000e+03 7.604454040527343750e+01 -1.410839271545410156e+01 6.618206501007080078e-01 8.785661697387695312e+00 2.834244728088378906e+00 -3.246596753597259521e-01
4.756000000000000000e+03 1.623139572143554688e+01 1.675504493713378906e+01 -2.411338984966278076e-01 7.900810986757278442e-02 -4.863773286342620850e-02 8.940253406763076782e-02
4.757000000000000000e+03 3.102177429199218750e+01 1.699845314025878906e+01 -8.831870555877685547e-01 -2.445783931761980057e-03 -2.656898498535156250e-01 3.769722878932952881e-01
4.758000000000000000e+03 3.177877044677734375e+01 1.705854797363281250e+01 -8.999885916709899902e-01 -2.590572461485862732e-02 -2.777682840824127197e-01 3.996007740497589111e-01
4.759000000000000000e+03 6.326897430419921875e+01 1.794069862365722656e+01 1.322456717491149902e+00 4.301489353179931641e+00 1.687183856964111328e+00 -1.207562327384948730e+00
4.760000000000000000e+03 5.692430877685546875e+01 -2.277596664428710938e+01 -1.328675746917724609e+00 5.822266578674316406e+00 1.348077297210693359e+00 9.177438616752624512e-01
4.761000000000000000e+03 5.853089141845703125e+01 -1.980061912536621094e+01 -6.450570821762084961e-01 7.620840072631835938e+00 2.092734813690185547e+00 -9.010482430458068848e-01
4.762000000000000000e+03 7.588158416748046875e+01 -1.212464332580566406e+01 9.256466627120971680e-01 8.935745239257812500e+00 2.958417654037475586e+00 2.394957691431045532e-01
4.763000000000000000e+03 7.502864074707031250e+01 -1.093335533142089844e+01 1.143835067749023438e+00 9.489953041076660156e+00 3.190136432647705078e+00 5.093904733657836914e-01
4.764000000000000000e+03 7.086484527587890625e+01 1.201979923248291016e+01 2.218022346496582031e+00 3.896139621734619141e+00 1.834248542785644531e+00 5.451856255531311035e-01
4.765000000000000000e+03 7.561631011962890625e+01 1.224255847930908203e+01 -1.600900143384933472e-01 6.458798408508300781e+00 1.889612555503845215e+00 -1.819064736366271973e+00
4.766000000000000000e+03 5.176386642456054688e+01 -1.786136031150817871e+00 -2.528869628906250000e+00 6.152839660644531250e+00 1.087191104888916016e+00 -1.025907874107360840e+00
4.767000000000000000e+03 5.199053192138671875e+01 -2.357662916183471680e+00 -3.408707380294799805e+00 6.115868091583251953e+00 8.121481537818908691e-01 -1.372927188873291016e+00
4.768000000000000000e+03 7.646258544921875000e+01 -1.043680191040039062e+01 7.487618327140808105e-01 8.628275871276855469e+00 2.813111305236816406e+00 7.695402503013610840e-01
4.769000000000000000e+03 7.556628417968750000e+01 -1.004899883270263672e+01 9.530952572822570801e-01 9.025618553161621094e+00 2.993613958358764648e+00 7.986534833908081055e-01
4.770000000000000000e+03 7.025473785400390625e+01 1.192329311370849609e+01 2.247546195983886719e+00 4.860392570495605469e+00 2.132381677627563477e+00 9.656881093978881836e-01
4.771000000000000000e+03 4.392301559448242188e+01 -1.321499538421630859e+01 -3.811517953872680664e-01 4.586240291595458984e+00 1.261526584625244141e+00 1.072985887527465820e+00
4.772000000000000000e+03 4.671045303344726562e+01 -9.541653096675872803e-02 5.443016290664672852e-01 2.872841835021972656e+00 1.025143027305603027e+00 4.072741508483886719e+00
4.773000000000000000e+03 2.854124259948730469e+01 1.589988613128662109e+01 -7.428110837936401367e-01 7.338714599609375000e-02 -2.008271813392639160e-01 3.528378009796142578e-01
4.774000000000000000e+03 1.485022640228271484e+01 1.506888675689697266e+01 -1.240567937493324280e-01 7.258623838424682617e-02 -1.544116809964179993e-02 5.266383290290832520e-02
4.775000000000000000e+03 2.310523223876953125e+01 -1.270151519775390625e+01 -2.242310792207717896e-01 1.442294567823410034e-01 -2.400048449635505676e-02 6.972505152225494385e-02
4.776000000000000000e+03 3.462386322021484375e+01 -1.699557495117187500e+01 -4.358053803443908691e-01 1.300782561302185059e-01 -9.171812981367111206e-02 1.497516930103302002e-01
4.777000000000000000e+03 3.485558700561523438e+01 -1.758386230468750000e+01 -3.128515183925628662e-01 1.756952404975891113e-01 -4.114688187837600708e-02 2.035416811704635620e-01
4.778000000000000000e+03 5.355078125000000000e+01 1.637251281738281250e+01 7.276387214660644531e-01 9.164801597595214844e+00 2.967732191085815430e+00 2.276848554611206055e+00
4.779000000000000000e+03 1.136456298828125000e+01 -4.905659675598144531e+00 -3.782789036631584167e-02 8.526773191988468170e-03 -8.790334686636924744e-03 -7.357979193329811096e-03
4.780000000000000000e+03 1.125732803344726562e+01 -4.202044486999511719e+00 -3.249320015311241150e-02 6.532211787998676300e-03 -7.788296788930892944e-03 -3.553071990609169006e-03
4.781000000000000000e+03 4.631979465484619141e+00 8.555969238281250000e+00 4.082590341567993164e-03 -2.821263112127780914e-02 -7.239012513309717178e-03 4.193603619933128357e-02
4.782000000000000000e+03 5.406439590454101562e+01 -4.037935733795166016e+00 -2.753451347351074219e+00 6.486555576324462891e+00 1.119931221008300781e+00 -2.627040863037109375e+00
4.783000000000000000e+03 5.364494323730468750e+01 -3.189378023147583008e+00 -3.161474943161010742e+00 6.956470012664794922e+00 1.138498544692993164e+00 -2.914436340332031250e+00
4.784000000000000000e+03 2.160118484497070312e+01 -1.289884281158447266e+01 -2.011130303144454956e-01 1.063187345862388611e-01 -2.843828685581684113e-02 2.796575240790843964e-02
4.785000000000000000e+03 2.465171813964843750e+01 9.237156867980957031e+00 -1.449915319681167603e-01 -6.033408455550670624e-03 -4.530747979879379272e-02 -8.430562168359756470e-02
4.786000000000000000e+03 2.208345794677734375e+01 1.980886077880859375e+01 -4.656994640827178955e-01 -1.385283768177032471e-01 -1.812683492898941040e-01 3.593739867210388184e-01
4.787000000000000000e+03 6.063113403320312500e+01 -9.006781578063964844e+00 9.174327850341796875e-01 8.436354637145996094e+00 2.806136131286621094e+00 3.509337007999420166e-01
4.788000000000000000e+03 6.011987686157226562e+01 -8.188081741333007812e+00 1.024638772010803223e+00 8.201445579528808594e+00 2.767825365066528320e+00 3.371384441852569580e-01
4.789000000000000000e+03 4.249001693725585938e+01 -2.389400959014892578e+00 7.679842114448547363e-01 4.438497543334960938e+00 1.561944484710693359e+00 2.652484476566314697e-01
4.790000000000000000e+03 4.304891204833984375e+01 -2.049143552780151367e+00 9.774871915578842163e-02 5.480101585388183594e+00 1.673355102539062500e+00 5.093301534652709961e-01
4.791000000000000000e+03 3.236419296264648438e+01 -1.425474834442138672e+01 -6.317680478096008301e-01 1.376922279596328735e-01 -1.482227444648742676e-01 1.707382202148437500e-01
4.792000000000000000e+03 6.769854736328125000e+01 -1.210914924740791321e-02 -2.190407276153564453e+00 5.663773059844970703e+00 1.042009711265563965e+00 -1.502561420202255249e-01
4.793000000000000000e+03 5.313753509521484375e+01 1.675080299377441406e+01 3.798114955425262451e-01 9.373447418212890625e+00 2.925977706909179688e+00 1.910388350486755371e+00
4.794000000000000000e+03 4.255830001831054688e+01 -8.576763153076171875e+00 -6.733465790748596191e-01 5.841343402862548828e+00 1.550399065017700195e+00 1.488305568695068359e+00
4.795000000000000000e+03 3.432885742187500000e+01 1.825471496582031250e+01 -6.000399589538574219e-01 -1.692805886268615723e-01 -2.307961732149124146e-01 2.315808683633804321e-01
4.796000000000000000e+03 3.905269241333007812e+01 -1.999557685852050781e+01 -2.088727504014968872e-01 1.849182248115539551e+00 4.920928478240966797e-01 1.162491798400878906e+00
4.797000000000000000e+03 3.984857940673828125e+01 -1.973402404785156250e+01 -5.626971721649169922e-01 2.532360076904296875e+00 5.908988714218139648e-01 1.295671343803405762e+00
4.798000000000000000e+03 4.484931945800781250e+01 -1.591130447387695312e+01 -1.679499596357345581e-01 3.136582851409912109e+00 8.905898332595825195e-01 -1.098341718316078186e-01
4.799000000000000000e+03 4.446602630615234375e+01 -1.520389938354492188e+01 -3.372005186975002289e-03 3.570832014083862305e+00 1.070237994194030762e+00 2.378909140825271606e-01
4.800000000000000000e+03 2.685991287231445312e+00 2.539483833312988281e+01 -5.643253214657306671e-03 -2.063936889171600342e-01 -6.361108273267745972e-02 6.444705277681350708e-02
4.801000000000000000e+03 6.859587860107421875e+01 9.289232254028320312e+00 -5.462502241134643555e-01 9.584268569946289062e+00 2.711405515670776367e+00 -7.761163115501403809e-01
4.802000000000000000e+03 2.576229858398437500e+01 -1.185638070106506348e+00 4.417569339275360107e-01 -3.816304504871368408e-01 1.803793758153915405e-02 -7.746472209692001343e-02
4.803000000000000000e+03 2.679178047180175781e+01 -2.458903789520263672e+00 4.079376757144927979e-01 -9.900493174791336060e-02 9.267982095479965210e-02 1.620344370603561401e-01
4.804000000000000000e+03 4.185353851318359375e+01 -2.697589874267578125e+00 1.116133570671081543e+00 3.371959686279296875e+00 1.346428036689758301e+00 -1.129607111215591431e-01
4.805000000000000000e+03 3.422193145751953125e+01 -1.656145858764648438e+01 -5.593200922012329102e-01 1.556038409471511841e-01 -1.211148798465728760e-01 1.512019187211990356e-01
4.806000000000000000e+03 3.617067718505859375e+01 5.495990753173828125e+00 -8.148849010467529297e-02 -6.228471640497446060e-03 -2.631508745253086090e-02 1.196131706237792969e-01
4.807000000000000000e+03 4.227133560180664062e+01 -1.888332748413085938e+01 -9.554244875907897949e-01 4.018717288970947266e+00 9.189878702163696289e-01 1.280250102281570435e-01
4.808000000000000000e+03 4.541778945922851562e+01 -1.084097027778625488e+00 -8.063637614250183105e-01 4.868052005767822266e+00 1.218506455421447754e+00 4.441713809967041016e+00
4.809000000000000000e+03 4.637416458129882812e+01 -7.546089887619018555e-01 -5.559093877673149109e-02 3.069108724594116211e+00 9.040552973747253418e-01 4.754977226257324219e+00
4.810000000000000000e+03 6.030893707275390625e+01 -2.594215631484985352e+00 8.347127586603164673e-02 5.528229236602783203e+00 1.683510184288024902e+00 -5.924578309059143066e-01
4.811000000000000000e+03 5.228400039672851562e+01 -2.130723571777343750e+01 -2.951381504535675049e-01 8.449732065200805664e-01 1.649505198001861572e-01 7.390398383140563965e-01
4.812000000000000000e+03 6.780915832519531250e+01 1.410541915893554688e+01 1.671066522598266602e+00 9.405406951904296875e+00 3.322942018508911133e+00 1.189114928245544434e+00
4.813000000000000000e+03 1.868896293640136719e+01 -9.429985046386718750e+00 -1.874650716781616211e-01 3.553628548979759216e-02 -4.557863622903823853e-02 2.294593024998903275e-03
4.814000000000000000e+03 2.559560966491699219e+01 -1.153793144226074219e+01 -3.448216915130615234e-01 3.163570463657379150e-01 -8.539387956261634827e-03 1.560271233320236206e-01
4.815000000000000000e+03 6.620384979248046875e+01 3.933610916137695312e+00 9.624655842781066895e-01 7.139465808868408203e+00 2.430579423904418945e+00 3.088999092578887939e-01
4.816000000000000000e+03 6.529646301269531250e+01 1.791154479980468750e+01 4.162065088748931885e-01 6.369643211364746094e+00 2.035754919052124023e+00 -1.252267003059387207e+00
4.817000000000000000e+03 1.642191886901855469e+01 1.813750839233398438e+01 -2.832769453525543213e-01 7.441506534814834595e-02 -6.265856325626373291e-02 1.520675271749496460e-01
4.818000000000000000e+03 5.871958541870117188e+01 -1.517442941665649414e+00 -4.374740719795227051e-01 2.697701454162597656e+00 6.780682206153869629e-01 -2.040876388549804688e+00
4.819000000000000000e+03 5.880475616455078125e+01 -9.445887207984924316e-01 -1.140720725059509277e+00 1.838109970092773438e+00 2.092167437076568604e-01 -1.787865638732910156e+00
4.820000000000000000e+03 5.379846572875976562e+01 -4.681980133056640625e+00 -2.469598054885864258e+00 5.909523963928222656e+00 1.031977772712707520e+00 -2.061854362487792969e+00
4.821000000000000000e+03 4.453990173339843750e+01 -1.283294105529785156e+01 -6.775935888290405273e-01 4.319370269775390625e+00 1.092532992362976074e+00 9.512771964073181152e-01
4.822000000000000000e+03 3.433547592163085938e+01 2.649364471435546875e+00 1.313580572605133057e-01 6.069661676883697510e-02 5.761640146374702454e-02 3.425642549991607666e-01
4.823000000000000000e+03 6.823976898193359375e+01 -1.179844737052917480e+00 -3.337605237960815430e+00 4.822677612304687500e+00 4.455217421054840088e-01 -1.105130672454833984e+00
4.824000000000000000e+03 3.238978958129882812e+01 -1.600465965270996094e+01 -4.995469748973846436e-01 2.163867950439453125e-01 -8.494804799556732178e-02 5.880919843912124634e-02
4.825000000000000000e+03 5.883691406250000000e+01 -1.075256061553955078e+01 7.866774201393127441e-01 8.504776954650878906e+00 2.787436485290527344e+00 1.381881833076477051e-01
4.826000000000000000e+03 4.403734588623046875e+01 -1.826879692077636719e+01 -6.674301624298095703e-01 3.478545665740966797e+00 8.433346152305603027e-01 -4.821716248989105225e-01
4.827000000000000000e+03 3.500075149536132812e+01 3.226755142211914062e+00 5.396304279565811157e-02 1.226620469242334366e-02 1.986877433955669403e-02 2.648693323135375977e-01
4.828000000000000000e+03 3.438528823852539062e+01 3.872361183166503906e+00 -7.600438594818115234e-02 1.119809299707412720e-01 1.079296506941318512e-02 2.690768539905548096e-01
4.829000000000000000e+03 4.221072006225585938e+01 1.471071338653564453e+01 -1.001652479171752930e+00 5.411107540130615234e-01 -1.381625235080718994e-01 -3.344733268022537231e-02
4.830000000000000000e+03 5.860179901123046875e+01 1.492336273193359375e+01 1.615085124969482422e+00 2.099428892135620117e+00 1.114354133605957031e+00 1.689475536346435547e+00
4.831000000000000000e+03 2.629171943664550781e+01 -1.201490783691406250e+01 -3.468181192874908447e-01 3.081939816474914551e-01 -1.158723980188369751e-02 1.328422278165817261e-01
4.832000000000000000e+03 2.798204994201660156e+01 -1.058950519561767578e+01 -3.321206867694854736e-01 2.939783036708831787e-01 -1.144271530210971832e-02 1.851144284009933472e-01
4.833000000000000000e+03 7.081089019775390625e+01 -1.974674701690673828e+00 -2.799358129501342773e+00 5.022135734558105469e+00 6.668332815170288086e-01 -2.815721035003662109e+00
4.834000000000000000e+03 3.904083251953125000e+01 -2.838446855545043945e+00 1.052564978599548340e+00 -3.801615238189697266e-01 2.017210423946380615e-01 -6.856110095977783203e-01
4.835000000000000000e+03 6.187390518188476562e+01 1.807327270507812500e+01 1.682564973831176758e+00 3.425765037536621094e+00 1.532498955726623535e+00 -4.749857783317565918e-01
4.836000000000000000e+03 6.840351867675781250e+01 1.330409145355224609e+01 2.485375404357910156e+00 8.510523796081542969e+00 3.298769712448120117e+00 1.387563109397888184e+00
4.837000000000000000e+03 4.116567993164062500e+01 -1.863199043273925781e+01 -1.183896303176879883e+00 4.081353664398193359e+00 8.692371845245361328e-01 1.165514111518859863e+00
4.838000000000000000e+03 4.061666488647460938e+01 -1.959058380126953125e+01 -8.738568425178527832e-01 3.098825931549072266e+00 6.674907207489013672e-01 1.039810657501220703e+00
4.839000000000000000e+03 7.191783905029296875e+01 -3.626293897628784180e+00 -1.351728320121765137e+00 5.068602085113525391e+00 1.115062117576599121e+00 -1.584926366806030273e+00
4.840000000000000000e+03 5.967534637451171875e+01 -4.648427963256835938e+00 1.266530632972717285e+00 6.323009490966796875e+00 2.276862144470214844e+00 -6.471051573753356934e-01
4.841000000000000000e+03 5.099799346923828125e+01 6.393345355987548828e+00 3.819239735603332520e-01 1.227924156188964844e+01 3.798349618911743164e+00 1.668084561824798584e-01
4.842000000000000000e+03 4.506745147705078125e+01 -1.444857692718505859e+01 -3.877518773078918457e-01 3.267962217330932617e+00 8.640630841255187988e-01 3.148916661739349365e-01
4.843000000000000000e+03 4.488109588623046875e+01 -1.338138675689697266e+01 -5.044952630996704102e-01 3.840327501296997070e+00 1.000749707221984863e+00 7.122145891189575195e-01
4.844000000000000000e+03 5.424877166748046875e+01 1.318765830993652344e+01 2.751447916030883789e+00 8.865420341491699219e+00 3.485060691833496094e+00 2.184437274932861328e+00
4.845000000000000000e+03 2.863688468933105469e+01 1.681447410583496094e+01 -8.030814528465270996e-01 1.185659989714622498e-01 -2.053546309471130371e-01 3.914273381233215332e-01
4.846000000000000000e+03 2.725617408752441406e+01 1.792194366455078125e+01 -8.325970768928527832e-01 1.007035896182060242e-01 -2.195680439472198486e-01 2.971071600914001465e-01
4.847000000000000000e+03 7.616145324707031250e+01 -2.965463638305664062e+01 3.487572818994522095e-02 7.484575271606445312e+00 2.255835294723510742e+00 1.147805303335189819e-01
4.848000000000000000e+03 2.959454345703125000e+01 -7.863521099090576172e+00 -2.250158935785293579e-01 2.863893806934356689e-01 1.841204799711704254e-02 2.529668807983398438e-01
4.849000000000000000e+03 2.988336181640625000e+01 -9.156083106994628906e+00 -3.005024194717407227e-01 2.175552099943161011e-01 -2.488416805863380432e-02 2.353246510028839111e-01
4.850000000000000000e+03 2.729835128784179688e+01 -1.371174454689025879e+00 6.610618829727172852e-01 -1.153593733906745911e-01 1.637107580900192261e-01 1.091707274317741394e-01
4.851000000000000000e+03 3.700182676315307617e+00 -6.690550327301025391e+00 -7.151765283197164536e-03 -1.046402566134929657e-02 -5.284737329930067062e-03 -1.240273565053939819e-02
4.852000000000000000e+03 6.433728790283203125e+01 -1.395181465148925781e+01 -2.774729430675506592e-01 4.836594581604003906e+00 1.367736458778381348e+00 -1.245015978813171387e+00
4.853000000000000000e+03 2.742562866210937500e+01 -1.015128898620605469e+01 -2.801387310028076172e-01 2.852605283260345459e-01 1.536545576527714729e-03 1.942752003669738770e-01
4.854000000000000000e+03 5.691620635986328125e+01 -7.253289699554443359e+00 4.028624594211578369e-01 6.921549797058105469e+00 2.197323799133300781e+00 -1.045717000961303711e+00
4.855000000000000000e+03 5.582366180419921875e+01 -6.213657379150390625e+00 -4.118567109107971191e-01 6.321790218353271484e+00 1.772980093955993652e+00 -1.791152834892272949e+00
4.856000000000000000e+03 6.454519653320312500e+01 3.727750778198242188e+00 -3.882913589477539062e-01 4.910025119781494141e+00 1.356520056724548340e+00 1.333312392234802246e+00
4.857000000000000000e+03 4.124014282226562500e+01 -2.704352855682373047e+00 1.308860540390014648e+00 1.882918357849121094e+00 9.575336575508117676e-01 -3.335742056369781494e-01
4.858000000000000000e+03 5.928574371337890625e+01 1.529729366302490234e+01 1.704627633094787598e+00 1.745831608772277832e+00 1.035137772560119629e+00 1.306528329849243164e+00
4.859000000000000000e+03 5.452567291259765625e+01 1.207211780548095703e+01 2.307389974594116211e+00 8.258142471313476562e+00 3.169659852981567383e+00 1.680726647377014160e+00
4.860000000000000000e+03 5.383062744140625000e+01 1.252745056152343750e+01 2.871667861938476562e+00 1.026797676086425781e+01 3.941893339157104492e+00 1.762292146682739258e+00
4.861000000000000000e+03 3.008216285705566406e+01 -1.078963851928710938e+01 -4.124040603637695312e-01 2.090914994478225708e-01 -6.099376827478408813e-02 2.091270387172698975e-01
4.862000000000000000e+03 4.805883026123046875e+01 4.777798354625701904e-01 1.552045941352844238e+00 2.758446931838989258e+00 1.293147802352905273e+00 3.434630155563354492e+00
4.863000000000000000e+03 1.201561927795410156e+01 1.345294284820556641e+01 -3.084492683410644531e-02 5.024076998233795166e-02 5.818752571940422058e-03 3.776060044765472412e-02
4.864000000000000000e+03 1.067017841339111328e+01 1.267888259887695312e+01 -4.702668637037277222e-03 4.333700612187385559e-02 1.159030105918645859e-02 3.150452300906181335e-02
4.865000000000000000e+03 6.854872131347656250e+01 -2.887212932109832764e-01 -2.709861278533935547e+00 6.291991233825683594e+00 1.074638962745666504e+00 -1.266176342964172363e+00
4.866000000000000000e+03 5.804025650024414062e+01 -9.407040596008300781e+00 7.869326472282409668e-01 8.020991325378417969e+00 2.642377376556396484e+00 -1.744294315576553345e-01
4.867000000000000000e+03 5.695093536376953125e+01 -7.980301856994628906e+00 4.854087233543395996e-01 7.223166465759277344e+00 2.312572479248046875e+00 -8.567196130752563477e-01
4.868000000000000000e+03 6.598802185058593750e+01 2.852322101593017578e+00 5.488191843032836914e-01 6.157037258148193359e+00 2.011756896972656250e+00 1.369522690773010254e+00
4.869000000000000000e+03 3.347687530517578125e+01 2.452487468719482422e+00 1.002912297844886780e-01 1.932073831558227539e-01 8.804958313703536987e-02 4.434354603290557861e-01
4.870000000000000000e+03 7.297980499267578125e+01 -1.910062670707702637e+00 -1.171370863914489746e+00 3.705318450927734375e+00 7.601842880249023438e-01 -1.829922914505004883e+00
4.871000000000000000e+03 7.349459075927734375e+01 -2.393999338150024414e+00 -7.056155800819396973e-01 4.314584255218505859e+00 1.082690596580505371e+00 -9.705297350883483887e-01
4.872000000000000000e+03 4.121767520904541016e+00 -2.436244583129882812e+01 5.624516052193939686e-05 -1.898780316114425659e-01 -5.694653466343879700e-02 -7.499799877405166626e-02
4.873000000000000000e+03 3.652727127075195312e+01 1.700186920166015625e+01 -8.502201437950134277e-01 -1.197660192847251892e-01 -2.909958660602569580e-01 -4.925291985273361206e-03
4.874000000000000000e+03 3.864410781860351562e+01 1.588466548919677734e+01 -1.039759278297424316e+00 3.004823625087738037e-01 -2.217830568552017212e-01 4.945425782352685928e-03
4.875000000000000000e+03 2.067821693420410156e+01 -1.083145236968994141e+01 -2.086721062660217285e-01 3.058454580605030060e-02 -5.342626944184303284e-02 1.510835252702236176e-03
4.876000000000000000e+03 2.110516929626464844e+01 -9.896487236022949219e+00 -2.378948926925659180e-01 3.213802585378289223e-03 -7.040432840585708618e-02 3.964684531092643738e-02
4.877000000000000000e+03 5.096325683593750000e+01 4.882872581481933594e+00 2.190716028213500977e+00 1.065339851379394531e+01 3.853234291076660156e+00 -2.937059104442596436e-01
4.878000000000000000e+03 5.619979095458984375e+01 -2.053643465042114258e+00 -1.238314986228942871e+00 5.276627540588378906e+00 1.211493730545043945e+00 -4.983448505401611328e+00
4.879000000000000000e+03 6.751059722900390625e+01 5.956142544746398926e-01 -1.236308932304382324e+00 6.058946132659912109e+00 1.446791172027587891e+00 7.083123326301574707e-01
4.880000000000000000e+03 6.795117187500000000e+01 -6.049425005912780762e-01 -2.950479745864868164e+00 5.023226261138916016e+00 6.218239665031433105e-01 -4.319796562194824219e-01
4.881000000000000000e+03 5.174176406860351562e+01 2.430345773696899414e+00 4.198705673217773438e+00 9.708787918090820312e+00 4.172247886657714844e+00 1.187419868074357510e-03
4.882000000000000000e+03 4.992641830444335938e+01 -1.053106665611267090e+00 -6.204385161399841309e-01 2.776767969131469727e+00 6.468988060951232910e-01 1.137129306793212891e+00
4.883000000000000000e+03 5.179444122314453125e+01 6.730524539947509766e+00 -1.481348872184753418e-01 1.374644279479980469e+01 4.079492568969726562e+00 -6.771230697631835938e-01
4.884000000000000000e+03 4.103575134277343750e+01 1.630866622924804688e+01 -7.564655542373657227e-01 5.551815629005432129e-01 -6.038519367575645447e-02 -3.089830465614795685e-02
4.885000000000000000e+03 7.459012603759765625e+01 -2.185082197189331055e+00 -5.815036296844482422e-01 5.028121471405029297e+00 1.333985328674316406e+00 2.966420352458953857e-01
4.886000000000000000e+03 9.689342498779296875e+00 -5.430711269378662109e+00 -3.360442072153091431e-02 6.113291718065738678e-03 -8.247339166700839996e-03 -1.284140720963478088e-02
4.887000000000000000e+03 9.933874130249023438e+00 -4.719873428344726562e+00 -3.114094026386737823e-02 5.323029123246669769e-03 -7.745373528450727463e-03 -1.010256167501211166e-02
4.888000000000000000e+03 6.412928009033203125e+01 -1.496421146392822266e+01 -3.415069282054901123e-01 5.011952400207519531e+00 1.401133656501770020e+00 -1.305964827537536621e+00
4.889000000000000000e+03 7.408750915527343750e+01 1.317288398742675781e+01 1.095229148864746094e+00 4.629651546478271484e+00 1.717464208602905273e+00 -1.622274160385131836e+00
4.890000000000000000e+03 6.102769851684570312e+01 -1.239206790924072266e+01 4.426290392875671387e-01 7.872426033020019531e+00 2.494516611099243164e+00 -5.887198820710182190e-02
4.891000000000000000e+03 1.549957942962646484e+01 1.556528186798095703e+01 -1.562590301036834717e-01 7.454725354909896851e-02 -2.451353520154953003e-02 5.233924835920333862e-02
4.892000000000000000e+03 6.970658111572265625e+01 1.053526496887207031e+01 6.982636451721191406e-01 5.644662857055664062e+00 1.902878046035766602e+00 8.125497102737426758e-01
4.893000000000000000e+03 6.884975433349609375e+01 1.045319271087646484e+01 1.099506855010986328e+00 8.351764678955078125e+00 2.835381507873535156e+00 2.548856437206268311e-01
4.894000000000000000e+03 7.970661640167236328e+00 1.038788890838623047e+01 3.031546808779239655e-02 -1.525498554110527039e-02 4.518144764006137848e-03 1.916360855102539062e-02
4.895000000000000000e+03 1.934375953674316406e+01 1.837984466552734375e+01 -4.802189171314239502e-01 5.430675297975540161e-02 -1.277736425399780273e-01 2.195407301187515259e-01
4.896000000000000000e+03 1.377483177185058594e+01 1.526417255401611328e+01 -1.154331192374229431e-01 6.673442572355270386e-02 -1.460960786789655685e-02 5.459700524806976318e-02
4.897000000000000000e+03 6.641546630859375000e+01 1.664254379272460938e+01 5.024731904268264771e-02 8.001047134399414062e+00 2.415388345718383789e+00 -8.129432201385498047e-01
4.898000000000000000e+03 5.535799026489257812e+01 -2.252224731445312500e+01 -8.891232013702392578e-01 4.150409221649169922e+00 9.783857464790344238e-01 1.624577164649963379e+00
4.899000000000000000e+03 5.539686584472656250e+01 -2.158437347412109375e+01 -1.160217285156250000e+00 4.311779975891113281e+00 9.454687833786010742e-01 2.189423084259033203e+00
4.900000000000000000e+03 7.335902690887451172e+00 -2.782220458984375000e+01 1.410196162760257721e-02 -1.457915008068084717e-01 -3.950686007738113403e-02 -1.060000285506248474e-01
4.901000000000000000e+03 7.454788208007812500e+01 -2.923022842407226562e+01 6.855787336826324463e-02 7.109264850616455078e+00 2.153346776962280273e+00 1.246580034494400024e-01
4.902000000000000000e+03 7.358063507080078125e+01 -2.848713874816894531e+01 1.038269102573394775e-01 6.837551116943359375e+00 2.082413434982299805e+00 1.544145941734313965e-01
4.903000000000000000e+03 7.372233581542968750e+01 -3.486488103866577148e+00 -5.222402215003967285e-01 5.564468860626220703e+00 1.512668490409851074e+00 -2.888805270195007324e-01
4.904000000000000000e+03 5.005219650268554688e+01 2.917322635650634766e+00 3.508631944656372070e+00 6.688841342926025391e+00 3.059242010116577148e+00 1.257015585899353027e+00
4.905000000000000000e+03 6.482868957519531250e+01 3.061254739761352539e+00 -2.796929776668548584e-01 5.092601776123046875e+00 1.443872690200805664e+00 1.694155693054199219e+00
4.906000000000000000e+03 6.077298736572265625e+01 -6.703319549560546875e-01 -2.155914306640625000e+00 4.261244297027587891e+00 6.315990686416625977e-01 3.549513220787048340e-01
4.907000000000000000e+03 7.270263671875000000e+01 -3.852085351943969727e+00 -9.173772931098937988e-01 5.541415214538574219e+00 1.387211441993713379e+00 -1.005204200744628906e+00
4.908000000000000000e+03 7.114655303955078125e+01 -3.202928066253662109e+00 -1.982583642005920410e+00 4.859905719757080078e+00 8.631966114044189453e-01 -1.988449811935424805e+00
4.909000000000000000e+03 6.367438125610351562e+01 -1.437617492675781250e+01 -1.287063360214233398e-01 5.515089511871337891e+00 1.615915060043334961e+00 -1.186309695243835449e+00
4.910000000000000000e+03 7.258721923828125000e+01 -5.068691253662109375e+00 -7.001630663871765137e-01 6.285066127777099609e+00 1.675470948219299316e+00 -6.935634016990661621e-01
4.911000000000000000e+03 7.249394226074218750e+01 -4.508285522460937500e+00 -8.174125552177429199e-01 5.819542407989501953e+00 1.500638961791992188e+00 -9.332586526870727539e-01
4.912000000000000000e+03 5.985377883911132812e+01 -5.312144279479980469e+00 1.342652320861816406e+00 6.851285457611083984e+00 2.458181381225585938e+00 -3.446392118930816650e-01
4.913000000000000000e+03 5.993854904174804688e+01 -6.036126136779785156e+00 1.409044027328491211e+00 7.342902660369873047e+00 2.625583887100219727e+00 -4.106340929865837097e-03
4.914000000000000000e+03 5.264074802398681641e+00 9.011360168457031250e+00 1.553987618535757065e-02 -4.169606044888496399e-02 -7.846855558454990387e-03 4.117738828063011169e-02
4.915000000000000000e+03 6.477410888671875000e+01 1.925465464591979980e+00 -8.849530220031738281e-01 4.837320804595947266e+00 1.185710310935974121e+00 2.593593358993530273e+00
4.916000000000000000e+03 5.064421844482421875e+01 -8.262401223182678223e-01 -6.074023842811584473e-01 4.634678840637207031e+00 1.208182930946350098e+00 3.605256378650665283e-01
4.917000000000000000e+03 5.237414550781250000e+01 -4.484623372554779053e-01 -1.175127029418945312e+00 8.898711204528808594e+00 2.317075014114379883e+00 -1.017139911651611328e+00
4.918000000000000000e+03 1.940022468566894531e+01 -1.258229637145996094e+01 -1.751295924186706543e-01 7.565747201442718506e-02 -2.984163537621498108e-02 -4.072187468409538269e-02
4.919000000000000000e+03 5.861717987060546875e+01 -9.767920494079589844e+00 8.159515261650085449e-01 8.214934349060058594e+00 2.709265947341918945e+00 8.264695852994918823e-02
4.920000000000000000e+03 5.819841766357421875e+01 -1.041231060028076172e+01 8.298559784889221191e-01 8.450693130493164062e+00 2.784164667129516602e+00 -7.296041399240493774e-02
4.921000000000000000e+03 1.353436183929443359e+01 -4.525227069854736328e+00 -4.248210787773132324e-02 9.096413850784301758e-03 -1.001570839434862137e-02 4.193884320557117462e-03
4.922000000000000000e+03 3.914447069168090820e+00 2.245054244995117188e+01 -1.610682718455791473e-02 -1.356303989887237549e-01 -4.552116617560386658e-02 7.173124700784683228e-02
4.923000000000000000e+03 4.361295700073242188e+00 2.200924491882324219e+01 -1.946619898080825806e-02 -1.280800700187683105e-01 -4.426387697458267212e-02 7.647673785686492920e-02
4.924000000000000000e+03 3.943184280395507812e+01 1.585237407684326172e+01 -9.532819986343383789e-01 3.805731534957885742e-01 -1.718126535415649414e-01 2.620473690330982208e-02
4.925000000000000000e+03 3.980597305297851562e+01 1.649656677246093750e+01 -8.201825022697448730e-01 4.539299011230468750e-01 -1.098757833242416382e-01 -2.592880465090274811e-02
4.926000000000000000e+03 1.442156314849853516e+01 -6.590677261352539062e+00 -7.907824963331222534e-02 2.102414704859256744e-02 -1.741623133420944214e-02 5.694936262443661690e-04
4.927000000000000000e+03 2.964384460449218750e+01 1.775299644470214844e+01 -7.808535695075988770e-01 8.806881308555603027e-02 -2.078354209661483765e-01 3.954117298126220703e-01
4.928000000000000000e+03 5.839271545410156250e+01 -2.346994638442993164e+00 7.937783002853393555e-02 3.781175374984741211e+00 1.158165931701660156e+00 -2.658837795257568359e+00
4.929000000000000000e+03 2.639771270751953125e+01 -1.112386584281921387e+00 5.108522772789001465e-01 -2.904573976993560791e-01 6.611847132444381714e-02 -3.560411557555198669e-02
4.930000000000000000e+03 7.590933990478515625e+01 -1.833952522277832031e+01 -4.800179898738861084e-01 8.440899848937988281e+00 2.388264417648315430e+00 -2.937564849853515625e-01
4.931000000000000000e+03 1.011011219024658203e+01 1.184983539581298828e+01 1.143442187458276749e-02 3.104701265692710876e-02 1.274443045258522034e-02 2.566167153418064117e-02
4.932000000000000000e+03 8.747841835021972656e+00 1.181428241729736328e+01 1.607056893408298492e-02 1.288902387022972107e-02 8.687877096235752106e-03 2.154319547116756439e-02
4.933000000000000000e+03 7.621282196044921875e+01 -9.780631065368652344e+00 7.602708935737609863e-01 8.695317268371582031e+00 2.836676597595214844e+00 9.021145105361938477e-01
4.934000000000000000e+03 6.991619873046875000e+01 -1.708246469497680664e+00 -3.211229801177978516e+00 5.415676593780517578e+00 6.613340973854064941e-01 -2.622226715087890625e+00
4.935000000000000000e+03 6.983850097656250000e+01 -2.288804769515991211e+00 -3.353441238403320312e+00 5.003405094146728516e+00 4.949891865253448486e-01 -2.271514415740966797e+00
4.936000000000000000e+03 4.921111583709716797e+00 1.146940231323242188e+01 1.196181308478116989e-02 -4.269567131996154785e-02 -9.220157749950885773e-03 2.323309704661369324e-02
4.937000000000000000e+03 3.420007467269897461e+00 -8.267401695251464844e+00 -8.059034124016761780e-03 -1.680471003055572510e-02 -7.459123153239488602e-03 -1.798076741397380829e-02
4.938000000000000000e+03 6.506252288818359375e+01 -1.055970555171370506e-03 -1.943985104560852051e+00 4.091545581817626953e+00 6.442680954933166504e-01 3.942430496215820312e+00
4.939000000000000000e+03 3.911637306213378906e+00 9.934417724609375000e+00 1.074817962944507599e-02 -3.587448596954345703e-02 -7.537892088294029236e-03 2.860047295689582825e-02
4.940000000000000000e+03 3.369416952133178711e+00 9.580611228942871094e+00 7.789607625454664230e-03 -3.782523050904273987e-02 -9.010686539113521576e-03 2.837543003261089325e-02
4.941000000000000000e+03 7.475708770751953125e+01 -9.632920265197753906e+00 1.088431239128112793e+00 9.337160110473632812e+00 3.127677440643310547e+00 7.148497104644775391e-01
4.942000000000000000e+03 7.600656890869140625e+01 -9.195295333862304688e+00 7.423596382141113281e-01 8.743165016174316406e+00 2.845657348632812500e+00 1.095920920372009277e+00
4.943000000000000000e+03 4.906656742095947266e+00 9.687541007995605469e+00 1.607018150389194489e-02 -3.577775135636329651e-02 -5.912271328270435333e-03 3.449318185448646545e-02
4.944000000000000000e+03 2.823966979980468750e+01 9.574730396270751953e-01 3.356053829193115234e-01 -2.037917673587799072e-01 3.954408690333366394e-02 -2.782244980335235596e-01
4.945000000000000000e+03 2.821480369567871094e+01 4.882049560546875000e-01 6.182399392127990723e-01 -1.323309391736984253e-01 1.457726955413818359e-01 -2.106480300426483154e-01
4.946000000000000000e+03 5.671621704101562500e+01 -2.712239265441894531e+00 -7.358767986297607422e-01 4.932785511016845703e+00 1.259072661399841309e+00 -4.025364398956298828e+00
4.947000000000000000e+03 5.717319869995117188e+01 -2.321096897125244141e+00 -4.801897704601287842e-01 4.233363628387451172e+00 1.125952124595642090e+00 -3.948035001754760742e+00
4.948000000000000000e+03 6.372583007812500000e+01 2.039761245250701904e-01 -2.528296470642089844e+00 4.964898109436035156e+00 7.309803962707519531e-01 3.838102817535400391e+00
4.949000000000000000e+03 6.438842773437500000e+01 9.420672059059143066e-02 -2.345671892166137695e+00 4.597500801086425781e+00 6.755486726760864258e-01 3.822483777999877930e+00
4.950000000000000000e+03 7.631395721435546875e+01 -2.464694976806640625e+01 -4.666124284267425537e-02 7.659810066223144531e+00 2.283944606781005859e+00 1.807669252157211304e-01
4.951000000000000000e+03 4.803329467773437500e+01 -1.811829948425292969e+01 -1.092986941337585449e+00 1.355769515037536621e+00 7.883477956056594849e-02 -3.276042342185974121e-01
4.952000000000000000e+03 4.762668609619140625e+01 3.972491249442100525e-02 1.156912088394165039e+00 2.469380140304565430e+00 1.087887644767761230e+00 3.597554445266723633e+00
4.953000000000000000e+03 5.370718765258789062e+01 -2.390532732009887695e+00 -3.212263584136962891e+00 7.958202838897705078e+00 1.423781871795654297e+00 -3.332122802734375000e+00
4.954000000000000000e+03 3.636675119400024414e+00 -1.883012962341308594e+01 -5.203173030167818069e-03 -1.176585108041763306e-01 -3.685850650072097778e-02 -6.349664181470870972e-02
4.955000000000000000e+03 4.711893081665039062e+01 4.800615608692169189e-01 1.283066987991333008e+00 2.776662111282348633e+00 1.217918753623962402e+00 3.863524436950683594e+00
4.956000000000000000e+03 4.886949539184570312e+00 -5.352341175079345703e+00 -1.071144919842481613e-02 -5.529615562409162521e-03 -4.872319288551807404e-03 -1.087764184921979904e-02
4.957000000000000000e+03 7.621726226806640625e+01 -2.301063537597656250e+01 -1.452150046825408936e-01 7.754199504852294922e+00 2.282695293426513672e+00 1.684940606355667114e-01
4.958000000000000000e+03 7.572882080078125000e+01 -3.172127008438110352e+00 -2.928979992866516113e-01 7.126061439514160156e+00 2.049949169158935547e+00 1.157955169677734375e+00
4.959000000000000000e+03 6.698267364501953125e+01 1.670751333236694336e+00 -8.695398271083831787e-02 6.437202453613281250e+00 1.905074477195739746e+00 1.417797565460205078e+00
4.960000000000000000e+03 3.689014434814453125e+01 4.761959552764892578e+00 -2.753990516066551208e-02 -7.505582273006439209e-02 -3.077871911227703094e-02 1.114035993814468384e-01
4.961000000000000000e+03 3.470495223999023438e+01 1.624619102478027344e+01 -1.131475210189819336e+00 -4.522739052772521973e-01 -4.751247465610504150e-01 2.419996708631515503e-01
4.962000000000000000e+03 4.198998928070068359e+00 -1.477640151977539062e+01 -1.089072041213512421e-02 -6.318192183971405029e-02 -2.222179248929023743e-02 -5.474045872688293457e-02
4.963000000000000000e+03 5.287080001831054688e+01 -1.464299082756042480e+00 -2.710115671157836914e+00 8.394590377807617188e+00 1.705342292785644531e+00 -2.129900455474853516e+00
4.964000000000000000e+03 5.372237777709960938e+01 -1.487199187278747559e+00 -2.853316783905029297e+00 9.034832954406738281e+00 1.854454874992370605e+00 -3.576025724411010742e+00
4.965000000000000000e+03 7.042350769042968750e+01 -1.508677721023559570e+00 -3.000881671905517578e+00 5.277266502380371094e+00 6.829155087471008301e-01 -3.143756866455078125e+00
4.966000000000000000e+03 5.759365081787109375e+01 1.537491512298583984e+01 1.807996392250061035e+00 3.409383535385131836e+00 1.565213918685913086e+00 2.238795280456542969e+00
4.967000000000000000e+03 7.619327545166015625e+01 1.883219909667968750e+01 2.668646275997161865e-01 5.879023551940917969e+00 1.843766450881958008e+00 -5.671307072043418884e-02
4.968000000000000000e+03 7.482083797454833984e+00 -5.252084255218505859e+00 -2.137259952723979950e-02 -5.536183016374707222e-05 -6.428388878703117371e-03 -1.308078598231077194e-02
4.969000000000000000e+03 6.536948680877685547e+00 -4.151525497436523438e+00 -1.410231366753578186e-02 -1.471051131375133991e-03 -4.672009497880935669e-03 -8.835325017571449280e-03
4.970000000000000000e+03 6.828758239746093750e+01 7.910162925720214844e+00 -1.576548814773559570e+00 1.116103267669677734e+01 2.875345230102539062e+00 -1.721110463142395020e+00
4.971000000000000000e+03 4.166636466979980469e+00 2.310150718688964844e+01 -1.785459555685520172e-02 -1.441710740327835083e-01 -4.860769957304000854e-02 8.076058328151702881e-02
4.972000000000000000e+03 7.666426849365234375e+01 -8.470945358276367188e+00 4.646225571632385254e-01 8.603645324707031250e+00 2.720480442047119141e+00 1.256455421447753906e+00
4.973000000000000000e+03 4.831057739257812500e+01 2.039057159423828125e+01 -1.079499274492263794e-01 4.296752452850341797e+00 1.256640791893005371e+00 -1.958009004592895508e+00
4.974000000000000000e+03 7.661962127685546875e+01 -1.197295951843261719e+01 7.249763011932373047e-01 8.536347389221191406e+00 2.778397321701049805e+00 2.970475554466247559e-01
4.975000000000000000e+03 3.897188901901245117e+00 -1.536381435394287109e+01 -8.933727629482746124e-03 -7.239389419555664062e-02 -2.439828589558601379e-02 -5.415620282292366028e-02
4.976000000000000000e+03 2.490352869033813477e+00 1.554764842987060547e+01 -3.333765082061290741e-03 -6.871592998504638672e-02 -2.161490917205810547e-02 1.379411015659570694e-02
4.977000000000000000e+03 1.769600033760070801e+00 1.554636478424072266e+01 -7.382755284197628498e-04 -7.103223353624343872e-02 -2.153115160763263702e-02 9.300519712269306183e-03
4.978000000000000000e+03 7.556334686279296875e+01 -1.491181182861328125e+01 5.376299619674682617e-01 8.940966606140136719e+00 2.843578815460205078e+00 -4.646437168121337891e-01
4.979000000000000000e+03 7.613918304443359375e+01 -1.466382217407226562e+01 5.469195246696472168e-01 8.698895454406738281e+00 2.773744344711303711e+00 -4.150673449039459229e-01
4.980000000000000000e+03 7.623834991455078125e+01 -2.625612831115722656e+01 5.955017637461423874e-03 7.567287921905517578e+00 2.271972894668579102e+00 1.696738898754119873e-01
4.981000000000000000e+03 7.530379486083984375e+01 -2.889934730529785156e+01 5.515417456626892090e-02 7.304161548614501953e+00 2.207794666290283203e+00 1.467580646276473999e-01
4.982000000000000000e+03 6.836651611328125000e+01 1.063562202453613281e+01 1.848912119865417480e+00 8.813351631164550781e+00 3.198679208755493164e+00 3.203840851783752441e-01
4.983000000000000000e+03 7.671250152587890625e+01 -1.403724002838134766e+01 4.947797954082489014e-01 8.415013313293457031e+00 2.672937870025634766e+00 -2.984289228916168213e-01
4.984000000000000000e+03 7.669679260253906250e+01 -1.338158798217773438e+01 6.076173782348632812e-01 8.450148582458496094e+00 2.717329740524291992e+00 -1.349592804908752441e-01
4.985000000000000000e+03 4.666931629180908203e+00 1.273804759979248047e+01 4.767807200551033020e-03 -4.145417362451553345e-02 -1.100591011345386505e-02 2.139160968363285065e-02
4.986000000000000000e+03 3.252135753631591797e+00 1.411853218078613281e+01 -8.824925753287971020e-04 -5.621610581874847412e-02 -1.712957955896854401e-02 1.557236537337303162e-02
4.987000000000000000e+03 7.513790893554687500e+01 -1.228936195373535156e+01 1.115233898162841797e+00 9.518138885498046875e+00 3.190011739730834961e+00 2.663920819759368896e-01
4.988000000000000000e+03 1.102584266662597656e+01 -6.065689563751220703e+00 -4.555032029747962952e-02 1.136973593384027481e-02 -1.025417540222406387e-02 -1.387078501284122467e-02
4.989000000000000000e+03 7.333097839355468750e+01 1.310156154632568359e+01 1.559617280960083008e+00 4.141557216644287109e+00 1.710352301597595215e+00 -1.153594851493835449e+00
4.990000000000000000e+03 7.496304321289062500e+01 1.248098754882812500e+01 2.506383657455444336e-01 5.719712734222412109e+00 1.791105270385742188e+00 -2.050218820571899414e+00
4.991000000000000000e+03 7.548451232910156250e+01 -6.053577899932861328e+00 7.480593770742416382e-02 8.000177383422851562e+00 2.422494888305664062e+00 1.267326951026916504e+00
4.992000000000000000e+03 7.582374572753906250e+01 -1.141543197631835938e+01 9.590479135513305664e-01 8.999087333679199219e+00 2.987440347671508789e+00 4.753799736499786377e-01
4.993000000000000000e+03 5.938526153564453125e+01 -1.331459522247314453e+01 8.142541646957397461e-01 8.708877563476562500e+00 2.856939554214477539e+00 -3.019447438418865204e-02
4.994000000000000000e+03 6.006389617919921875e+01 -7.511578559875488281e+00 1.180580139160156250e+00 7.994519233703613281e+00 2.752529859542846680e+00 2.378874272108078003e-01
4.995000000000000000e+03 1.989088535308837891e+00 -1.505288410186767578e+01 -2.742784796282649040e-03 -7.993458211421966553e-02 -2.480321004986763000e-02 -2.926600165665149689e-02
4.996000000000000000e+03 7.496805572509765625e+01 1.520869541168212891e+01 7.728941440582275391e-01 5.465530395507812500e+00 1.871527314186096191e+00 -7.351316809654235840e-01
4.997000000000000000e+03 5.563852310180664062e+01 -2.365952682495117188e+01 -8.400447964668273926e-01 4.233383178710937500e+00 1.018001556396484375e+00 1.204893589019775391e+00
4.998000000000000000e+03 5.660122680664062500e+01 1.410527515411376953e+01 1.872923851013183594e+00 4.273519992828369141e+00 1.843933224678039551e+00 2.393891572952270508e+00
4.999000000000000000e+03 6.038577270507812500e+01 -4.354088783264160156e+00 1.472106337547302246e+00 6.724706649780273438e+00 2.459043979644775391e+00 -2.869251370429992676e-01
5.000000000000000000e+03 7.174278259277343750e+01 1.247791099548339844e+01 2.158499002456665039e+00 3.392476320266723633e+00 1.665292620658874512e+00 -1.203205510973930359e-01
5.001000000000000000e+03 7.098488616943359375e+01 1.267580509185791016e+01 2.284065008163452148e+00 4.215900421142578125e+00 1.949989557266235352e+00 5.551921725273132324e-01
5.002000000000000000e+03 7.729338836669921875e+01 1.659707641601562500e+01 1.938830018043518066e-01 5.937768459320068359e+00 1.839495420455932617e+00 -3.623510003089904785e-01
5.003000000000000000e+03 2.739862203598022461e+00 -1.550298500061035156e+01 -4.584122449159622192e-03 -8.243914693593978882e-02 -2.610698156058788300e-02 -4.121464490890502930e-02
5.004000000000000000e+03 3.922804355621337891e+00 1.559443378448486328e+01 -7.365468889474868774e-03 -6.099429354071617126e-02 -2.050792798399925232e-02 2.336305007338523865e-02
5.005000000000000000e+03 5.994072341918945312e+01 -2.093400001525878906e+00 -2.909820079803466797e-01 4.342083454132080078e+00 1.215330362319946289e+00 -7.842926979064941406e-01
5.006000000000000000e+03 4.333166885375976562e+01 -1.258756828308105469e+01 -4.972212314605712891e-01 5.058936595916748047e+00 1.368514657020568848e+00 1.423050761222839355e+00
5.007000000000000000e+03 1.738330459594726562e+01 1.843976783752441406e+01 -3.316104114055633545e-01 7.074204087257385254e-02 -7.826051115989685059e-02 1.765914410352706909e-01
5.008000000000000000e+03 7.684128570556640625e+01 -3.675912141799926758e+00 -1.161179840564727783e-01 8.666551589965820312e+00 2.565129995346069336e+00 1.440021634101867676e+00
5.009000000000000000e+03 6.036099243164062500e+01 -1.223346042633056641e+01 5.779385566711425781e-01 8.165763854980468750e+00 2.623110532760620117e+00 8.558888733386993408e-02
5.010000000000000000e+03 5.911297607421875000e+01 -1.173409080505371094e+01 7.560089230537414551e-01 8.634610176086425781e+00 2.817185640335083008e+00 1.075565442442893982e-01
5.011000000000000000e+03 7.667193603515625000e+01 -1.462901592254638672e+01 4.577847421169281006e-01 8.454858779907226562e+00 2.673792839050292969e+00 -4.566903114318847656e-01
5.012000000000000000e+03 4.545886611938476562e+01 -1.559885311126708984e+01 -3.592311441898345947e-01 2.697539806365966797e+00 7.014926075935363770e-01 -8.230294287204742432e-02
5.013000000000000000e+03 4.900366210937500000e+01 1.945867919921875000e+01 -1.677562892436981201e-01 5.150610446929931641e+00 1.494856357574462891e+00 -2.247984170913696289e+00
5.014000000000000000e+03 5.422693252563476562e+01 1.849945640563964844e+01 6.646071374416351318e-02 7.336814880371093750e+00 2.220982551574707031e+00 1.698614835739135742e+00
5.015000000000000000e+03 5.263846206665039062e+01 1.809043121337890625e+01 -5.397843718528747559e-01 8.880569458007812500e+00 2.502235412597656250e+00 8.298143744468688965e-01
5.016000000000000000e+03 2.883201026916503906e+01 1.778607368469238281e+01 -7.921046614646911621e-01 1.044774204492568970e-01 -2.062881737947463989e-01 3.781161606311798096e-01
5.017000000000000000e+03 3.313458204269409180e+00 2.696847915649414062e+01 -3.461764659732580185e-03 -2.287966907024383545e-01 -6.967753171920776367e-02 8.282785117626190186e-02
5.018000000000000000e+03 2.119934558868408203e+00 2.674370574951171875e+01 -2.010394353419542313e-03 -2.421185374259948730e-01 -7.323867827653884888e-02 5.593932047486305237e-02
5.019000000000000000e+03 2.705564689636230469e+01 -1.243394565582275391e+01 -3.985941112041473389e-01 3.232459723949432373e-01 -2.260444313287734985e-02 1.175957396626472473e-01
5.020000000000000000e+03 4.681772994995117188e+01 -1.625430679321289062e+01 -7.359765172004699707e-01 1.736553668975830078e+00 3.001731336116790771e-01 -1.642906814813613892e-01
5.021000000000000000e+03 4.704430007934570312e+01 -1.550354862213134766e+01 -6.740826368331909180e-01 1.507159590721130371e+00 2.499230802059173584e-01 1.698933355510234833e-02
5.022000000000000000e+03 5.452849197387695312e+01 1.507961845397949219e+01 1.951270699501037598e+00 7.933866024017333984e+00 2.965540885925292969e+00 2.873236179351806641e+00
5.023000000000000000e+03 7.549455261230468750e+01 2.057088661193847656e+01 1.925271004438400269e-01 5.952630996704101562e+00 1.843547463417053223e+00 1.303963661193847656e-01
5.024000000000000000e+03 7.467080688476562500e+01 2.005610656738281250e+01 2.882556617259979248e-01 5.962711811065673828e+00 1.875290274620056152e+00 1.517759114503860474e-01
5.025000000000000000e+03 3.255223083496093750e+01 1.810512924194335938e+01 -7.077938914299011230e-01 -1.116818040609359741e-01 -2.458427101373672485e-01 3.951213657855987549e-01
5.026000000000000000e+03 3.261430358886718750e+01 1.715771865844726562e+01 -9.134362936019897461e-01 -1.699652224779129028e-01 -3.250204622745513916e-01 4.011866152286529541e-01
5.027000000000000000e+03 5.899397277832031250e+01 -8.549806594848632812e+00 8.716408610343933105e-01 7.895704269409179688e+00 2.630203485488891602e+00 8.834567666053771973e-02
5.028000000000000000e+03 3.277110290527343750e+01 -1.488709640502929688e+01 -6.018945574760437012e-01 1.348599791526794434e-01 -1.401103734970092773e-01 1.456778794527053833e-01
5.029000000000000000e+03 5.504397583007812500e+01 -1.924218893051147461e+00 -2.362633943557739258e+00 7.341863155364990234e+00 1.493768811225891113e+00 -5.011576652526855469e+00
5.030000000000000000e+03 2.835161399841308594e+01 -1.010383510589599609e+01 -3.155355155467987061e-01 2.744036316871643066e-01 -1.233956310898065567e-02 2.084293067455291748e-01
5.031000000000000000e+03 2.882192420959472656e+01 -1.039954280853271484e+01 -3.516827523708343506e-01 2.650839984416961670e-01 -2.597962692379951477e-02 2.058410197496414185e-01
5.032000000000000000e+03 3.740590286254882812e+01 1.731815910339355469e+01 -7.432599067687988281e-01 7.198496162891387939e-02 -2.013824880123138428e-01 -3.406607732176780701e-02
5.033000000000000000e+03 3.287480926513671875e+01 -1.665285682678222656e+01 -4.757513403892517090e-01 2.208304852247238159e-01 -7.647626101970672607e-02 8.243803679943084717e-02
5.034000000000000000e+03 6.947581481933593750e+01 1.543121147155761719e+01 1.272439002990722656e+00 6.922076702117919922e+00 2.458354711532592773e+00 1.066354155540466309e+00
5.035000000000000000e+03 5.523342132568359375e+01 1.411080074310302734e+01 2.310434103012084961e+00 6.627316474914550781e+00 2.681325197219848633e+00 2.740321874618530273e+00
5.036000000000000000e+03 5.466517639160156250e+01 1.382739734649658203e+01 2.512200832366943359e+00 7.785809040069580078e+00 3.089402914047241211e+00 2.647240400314331055e+00
5.037000000000000000e+03 3.037342643737792969e+01 -1.255045223236083984e+01 -5.195839405059814453e-01 2.178400009870529175e-01 -9.052318334579467773e-02 1.525631248950958252e-01
5.038000000000000000e+03 3.975414514541625977e+00 2.834085655212402344e+01 -2.386217005550861359e-03 -2.461235672235488892e-01 -7.455293834209442139e-02 9.798140078783035278e-02
5.039000000000000000e+03 5.107664489746093750e+01 3.963088274002075195e+00 3.305192947387695312e+00 9.801968574523925781e+00 3.932148456573486328e+00 -9.366347640752792358e-02
5.040000000000000000e+03 4.996819305419921875e+01 3.965121030807495117e+00 3.038416385650634766e+00 7.515580177307128906e+00 3.166198968887329102e+00 9.780450463294982910e-01
5.041000000000000000e+03 5.123220062255859375e+01 1.963400077819824219e+01 -8.455554246902465820e-01 7.412715911865234375e+00 1.970148205757141113e+00 -8.498209118843078613e-01
5.042000000000000000e+03 5.053395462036132812e+01 1.911238288879394531e+01 -8.494825363159179688e-01 7.193620681762695312e+00 1.903241395950317383e+00 -1.616713047027587891e+00
5.043000000000000000e+03 4.156639480590820312e+01 -2.042350196838378906e+01 -1.033677697181701660e+00 3.195496320724487305e+00 6.485455632209777832e-01 4.594554007053375244e-01
5.044000000000000000e+03 2.851802825927734375e+01 -9.153286933898925781e+00 -2.635352015495300293e-01 2.609404027462005615e-01 -7.784436456859111786e-04 2.534699141979217529e-01
5.045000000000000000e+03 3.539648437500000000e+01 1.750222969055175781e+01 -7.354789972305297852e-01 -2.309104800224304199e-01 -2.899168431758880615e-01 1.232615262269973755e-01
5.046000000000000000e+03 6.093281173706054688e+01 -1.302802658081054688e+01 3.978254497051239014e-01 7.754539012908935547e+00 2.445709228515625000e+00 -2.017538100481033325e-01
5.047000000000000000e+03 5.855958557128906250e+01 -6.854340553283691406e+00 8.570174574851989746e-01 7.087821006774902344e+00 2.383451461791992188e+00 -4.788229763507843018e-01
5.048000000000000000e+03 4.447946166992187500e+01 -1.740195083618164062e+01 -4.510929882526397705e-01 3.288825035095214844e+00 8.513196110725402832e-01 -4.692292511463165283e-01
5.049000000000000000e+03 6.656513214111328125e+01 -2.051116371154785156e+01 3.934314250946044922e-01 4.155798435211181641e+00 1.364768862724304199e+00 -1.049700498580932617e+00
5.050000000000000000e+03 6.744884490966796875e+01 -1.991551208496093750e+01 5.194846391677856445e-01 3.611124992370605469e+00 1.239182829856872559e+00 -7.356033325195312500e-01
5.051000000000000000e+03 6.908631896972656250e+01 1.390958118438720703e+01 2.109803438186645508e+00 7.325573444366455078e+00 2.830613136291503906e+00 1.427430152893066406e+00
5.052000000000000000e+03 2.736052703857421875e+01 1.866794395446777344e+01 -7.218810319900512695e-01 5.541850253939628601e-02 -1.999387592077255249e-01 2.986287474632263184e-01
5.053000000000000000e+03 4.977455520629882812e+01 9.908805489540100098e-01 2.150413274765014648e+00 4.800965309143066406e+00 2.085413694381713867e+00 1.978028297424316406e+00
5.054000000000000000e+03 5.128764724731445312e+01 5.463264942169189453e+00 1.540357232093811035e+00 1.179305267333984375e+01 4.000022888183593750e+00 -4.644489288330078125e-01
5.055000000000000000e+03 5.390920639038085938e+01 -2.318277931213378906e+01 -3.998703658580780029e-01 2.734824895858764648e+00 7.004863619804382324e-01 1.181784510612487793e+00
5.056000000000000000e+03 5.655583572387695312e+01 -5.864296913146972656e+00 -1.786802411079406738e-01 6.301657199859619141e+00 1.836893081665039062e+00 -1.789675593376159668e+00
5.057000000000000000e+03 1.079400062561035156e+01 1.416358566284179688e+01 -3.972428664565086365e-02 3.622393310070037842e-02 -1.050106016919016838e-03 3.817692026495933533e-02
5.058000000000000000e+03 1.128950023651123047e+01 1.314166831970214844e+01 -1.769934408366680145e-02 4.957894980907440186e-02 9.563881903886795044e-03 3.454889357089996338e-02
5.059000000000000000e+03 4.361600494384765625e+01 1.672357940673828125e+01 -4.190574288368225098e-01 6.978592276573181152e-01 8.364053070545196533e-02 -2.352109551429748535e-01
5.060000000000000000e+03 1.519588947296142578e+01 -7.283784389495849609e+00 -9.673213958740234375e-02 2.644825167953968048e-02 -2.108516544103622437e-02 -6.491965614259243011e-04
5.061000000000000000e+03 5.745836639404296875e+01 1.348849582672119141e+01 1.469399571418762207e+00 2.749027490615844727e+00 1.265528082847595215e+00 1.830562353134155273e+00
5.062000000000000000e+03 4.270254135131835938e+01 -1.852502822875976562e+01 -7.378948330879211426e-01 4.100945472717285156e+00 1.008915185928344727e+00 -4.919636249542236328e-02
5.063000000000000000e+03 7.582968902587890625e+01 2.384479904174804688e+01 2.856665849685668945e-02 6.051963806152343750e+00 1.824159145355224609e+00 2.113893330097198486e-01
5.064000000000000000e+03 5.038300037384033203e+00 -2.353040695190429688e+01 3.429727512411773205e-04 -1.565554738044738770e-01 -4.686374962329864502e-02 -8.955241739749908447e-02
5.065000000000000000e+03 1.519805145263671875e+01 1.608583259582519531e+01 -1.781962960958480835e-01 7.440146803855895996e-02 -3.113844804465770721e-02 6.579063832759857178e-02
5.066000000000000000e+03 1.420715045928955078e+01 1.601131629943847656e+01 -1.461887210607528687e-01 6.878055632114410400e-02 -2.322244830429553986e-02 6.887710839509963989e-02
5.067000000000000000e+03 4.231067657470703125e+01 -2.042189216613769531e+01 -9.357928037643432617e-01 3.320378065109252930e+00 7.153755426406860352e-01 1.936386227607727051e-01
5.068000000000000000e+03 6.295634841918945312e+01 -2.861464917659759521e-01 -3.200504541397094727e+00 6.258256912231445312e+00 9.173256754875183105e-01 3.182760715484619141e+00
5.069000000000000000e+03 6.241898727416992188e+01 9.106639027595520020e-02 -3.269454956054687500e+00 5.672510623931884766e+00 7.209166288375854492e-01 2.405512332916259766e+00
5.070000000000000000e+03 6.092607498168945312e+01 1.711990356445312500e+01 1.963817715644836426e+00 2.533095836639404297e+00 1.349074125289916992e+00 1.199552267789840698e-01
5.071000000000000000e+03 1.302016925811767578e+01 1.575764942169189453e+01 -1.157660111784934998e-01 6.043465808033943176e-02 -1.659940555691719055e-02 6.553262472152709961e-02
5.072000000000000000e+03 6.254647445678710938e+01 1.816819572448730469e+01 1.491575479507446289e+00 3.882632493972778320e+00 1.612262368202209473e+00 -8.014673590660095215e-01
5.073000000000000000e+03 6.294922256469726562e+01 1.722718620300292969e+01 1.540815949440002441e+00 3.636060714721679688e+00 1.553062915802001953e+00 -1.337709903717041016e+00
5.074000000000000000e+03 4.964297103881835938e+01 -2.092537498474121094e+01 -7.557601332664489746e-01 1.147825598716735840e+00 1.176196411252021790e-01 -3.515725433826446533e-01
5.075000000000000000e+03 3.560193634033203125e+01 3.369642019271850586e+00 -1.150614395737648010e-02 -4.455318674445152283e-02 -1.681779883801937103e-02 2.501426041126251221e-01
5.076000000000000000e+03 1.823231315612792969e+01 -1.059912490844726562e+01 -1.768908947706222534e-01 5.236494541168212891e-02 -3.735778480768203735e-02 -2.543437667191028595e-02
5.077000000000000000e+03 1.795372200012207031e+01 -9.785192489624023438e+00 -1.644101440906524658e-01 4.441966488957405090e-02 -3.599714487791061401e-02 -1.287960074841976166e-02
5.078000000000000000e+03 6.843107604980468750e+01 1.261101531982421875e+01 2.696440935134887695e+00 8.397850990295410156e+00 3.328287601470947266e+00 1.336971402168273926e+00
5.079000000000000000e+03 8.287841796875000000e+00 -4.818813323974609375e+00 -2.358366921544075012e-02 1.863577985204756260e-03 -6.516027729958295822e-03 -1.144358422607183456e-02
5.080000000000000000e+03 7.470993041992187500e+01 -1.776878929138183594e+01 -6.790493130683898926e-01 8.717170715332031250e+00 2.411436319351196289e+00 -9.610804170370101929e-02
5.081000000000000000e+03 7.537338256835937500e+01 -9.349103927612304688e+00 9.035205245018005371e-01 8.939505577087402344e+00 2.952907800674438477e+00 9.231757521629333496e-01
5.082000000000000000e+03 4.831257247924804688e+01 1.707429409027099609e+00 2.559628486633300781e+00 3.579251527786254883e+00 1.841663956642150879e+00 2.827628374099731445e+00
5.083000000000000000e+03 7.566137695312500000e+01 1.357509422302246094e+01 2.605813443660736084e-01 5.954735755920410156e+00 1.864595055580139160e+00 -1.343090295791625977e+00
5.084000000000000000e+03 7.489121246337890625e+01 1.330025291442871094e+01 5.184663534164428711e-01 5.475450038909912109e+00 1.798174858093261719e+00 -1.572364807128906250e+00
5.085000000000000000e+03 4.077627563476562500e+01 -4.794475078582763672e+00 1.553383946418762207e+00 1.720033168792724609e+00 9.820251464843750000e-01 8.744235336780548096e-02
5.086000000000000000e+03 4.250477981567382812e+01 1.631078529357910156e+01 -6.529980897903442383e-01 6.448951959609985352e-01 -2.430869499221444130e-03 -9.782554209232330322e-02
5.087000000000000000e+03 6.573767852783203125e+01 -1.861631965637207031e+01 9.525343030691146851e-02 4.086275577545166016e+00 1.254458665847778320e+00 -1.455822706222534180e+00
5.088000000000000000e+03 6.533879852294921875e+01 -1.804041481018066406e+01 -3.128242865204811096e-02 4.125660419464111328e+00 1.228313446044921875e+00 -1.668935418128967285e+00
5.089000000000000000e+03 3.686429977416992188e+01 -1.844618415832519531e+01 5.779514461755752563e-02 3.484314978122711182e-01 1.218679919838905334e-01 6.627124547958374023e-01
5.090000000000000000e+03 5.526899337768554688e+01 -3.117512464523315430e+00 -1.977528691291809082e+00 6.537304878234863281e+00 1.367932915687561035e+00 -4.086815357208251953e+00
5.091000000000000000e+03 7.756727600097656250e+01 -4.262842535972595215e-01 -1.113585472106933594e+00 1.009325218200683594e+01 2.693899869918823242e+00 5.235419869422912598e-01
5.092000000000000000e+03 2.537870979309082031e+01 2.176646041870117188e+01 -2.885721027851104736e-01 -1.160602644085884094e-01 -1.213897094130516052e-01 2.890652716159820557e-01
5.093000000000000000e+03 5.591506958007812500e+01 1.333492755889892578e+01 2.019840240478515625e+00 5.276231765747070312e+00 2.188821792602539062e+00 2.331438779830932617e+00
5.094000000000000000e+03 2.413944435119628906e+01 -1.248546981811523438e+01 -2.628279924392700195e-01 1.973008066415786743e-01 -1.965815946459770203e-02 1.135984286665916443e-01
5.095000000000000000e+03 3.198229217529296875e+01 -1.363653850555419922e+01 -5.866830945014953613e-01 1.227855309844017029e-01 -1.391692757606506348e-01 1.763701885938644409e-01
5.096000000000000000e+03 6.055785369873046875e+01 -7.184727489948272705e-02 -2.757772207260131836e+00 3.613491296768188477e+00 2.567156851291656494e-01 3.572062253952026367e-01
5.097000000000000000e+03 5.166188430786132812e+01 -6.011597439646720886e-02 5.365696921944618225e-02 7.548313617706298828e+00 2.280591249465942383e+00 -5.746600031852722168e-02
5.098000000000000000e+03 2.308213043212890625e+01 -1.395796298980712891e+01 -2.208491712808609009e-01 1.780554652214050293e-01 -1.283811032772064209e-02 2.682820335030555725e-02
5.099000000000000000e+03 1.693161582946777344e+01 -9.334916114807128906e+00 -1.431023776531219482e-01 4.356709867715835571e-02 -2.986058220267295837e-02 -1.526339538395404816e-02
5.100000000000000000e+03 5.032321166992187500e+01 3.625569343566894531e-01 1.450830101966857910e+00 4.953051090240478516e+00 1.921164393424987793e+00 1.380174040794372559e+00
5.101000000000000000e+03 2.987410545349121094e+01 -1.144267272949218750e+01 -4.588721692562103271e-01 2.290061116218566895e-01 -6.895980983972549438e-02 1.805891394615173340e-01
5.102000000000000000e+03 6.066078948974609375e+01 -1.790196609497070312e+01 2.453358471393585205e-01 6.950217247009277344e+00 2.158665895462036133e+00 -1.503030776977539062e+00
5.103000000000000000e+03 1.520141506195068359e+01 -8.299522399902343750e+00 -1.098881065845489502e-01 3.551079705357551575e-02 -2.231319248676300049e-02 -1.566607877612113953e-02
5.104000000000000000e+03 6.077105712890625000e+01 -1.120580482482910156e+01 5.739604234695434570e-01 8.187148094177246094e+00 2.628332614898681641e+00 1.583318114280700684e-01
5.105000000000000000e+03 6.034479141235351562e+01 -9.755070686340332031e+00 8.447921276092529297e-01 8.381583213806152344e+00 2.767912626266479492e+00 3.305423557758331299e-01
5.106000000000000000e+03 6.093751144409179688e+01 -1.598052597045898438e+01 6.206157207489013672e-01 7.263972759246826172e+00 2.365376710891723633e+00 -9.655867218971252441e-01
5.107000000000000000e+03 4.449109649658203125e+01 1.769439697265625000e+01 1.039085090160369873e-01 8.195933103561401367e-01 2.770505547523498535e-01 -5.508633255958557129e-01
5.108000000000000000e+03 3.200302886962890625e+01 3.532610893249511719e+00 -4.520754218101501465e-01 3.996784090995788574e-01 -1.571910455822944641e-02 2.068921774625778198e-01
5.109000000000000000e+03 6.269612884521484375e+01 -8.954960703849792480e-01 -3.277352571487426758e+00 7.401047229766845703e+00 1.237108349800109863e+00 2.523538351058959961e+00
5.110000000000000000e+03 6.304093551635742188e+01 3.125743865966796875e-01 -3.192759275436401367e+00 5.287957668304443359e+00 6.285595297813415527e-01 3.147873878479003906e+00
5.111000000000000000e+03 7.588024139404296875e+01 -1.547943019866943359e+01 3.521023094654083252e-01 8.791457176208496094e+00 2.743067741394042969e+00 -5.595456361770629883e-01
5.112000000000000000e+03 6.949797058105468750e+01 1.302539253234863281e+01 2.432685375213623047e+00 6.518189430236816406e+00 2.685262441635131836e+00 1.375090837478637695e+00
5.113000000000000000e+03 5.239408969879150391e+00 2.768088722229003906e+01 -5.227638874202966690e-03 -2.134257107973098755e-01 -6.559600681066513062e-02 1.229348257184028625e-01
5.114000000000000000e+03 5.030002117156982422e+00 2.860866165161132812e+01 -9.678058631834574044e-06 -2.347290068864822388e-01 -7.042160630226135254e-02 1.189089268445968628e-01
5.115000000000000000e+03 7.388626098632812500e+01 -2.766060256958007812e+01 7.705459743738174438e-02 6.924426555633544922e+00 2.100444316864013672e+00 1.726444959640502930e-01
5.116000000000000000e+03 6.491552734375000000e+01 -1.693731689453125000e+01 -2.488786876201629639e-01 4.295204162597656250e+00 1.213897585868835449e+00 -1.594336986541748047e+00
5.117000000000000000e+03 1.527510547637939453e+01 1.748351097106933594e+01 -2.250335216522216797e-01 7.517010718584060669e-02 -4.495902359485626221e-02 1.185803338885307312e-01
5.118000000000000000e+03 1.577247142791748047e+01 1.720819282531738281e+01 -2.450555562973022461e-01 8.220368623733520508e-02 -4.885556176304817200e-02 1.056727245450019836e-01
5.119000000000000000e+03 7.605612945556640625e+01 -5.367824554443359375e+00 1.588604785501956940e-02 8.160981178283691406e+00 2.453060150146484375e+00 1.405183672904968262e+00
5.120000000000000000e+03 7.631129455566406250e+01 -1.598429679870605469e+01 7.215811312198638916e-02 8.567158699035644531e+00 2.591795206069946289e+00 -5.989512801170349121e-01
5.121000000000000000e+03 7.167878723144531250e+01 -1.996404266357421875e+01 -2.051734179258346558e-01 6.037343978881835938e+00 1.749651074409484863e+00 1.102337837219238281e+00
5.122000000000000000e+03 6.730475616455078125e+01 1.789369010925292969e+01 1.017760410904884338e-01 7.384676456451416016e+00 2.245935678482055664e+00 -2.607995271682739258e-01
5.123000000000000000e+03 1.296243095397949219e+01 -5.017063140869140625e+00 -4.844624921679496765e-02 1.114870142191648483e-02 -1.118926517665386200e-02 -1.182709122076630592e-03
5.124000000000000000e+03 2.398635482788085938e+01 2.096620368957519531e+01 -3.566778004169464111e-01 -1.756780892610549927e-01 -1.597067713737487793e-01 3.150148093700408936e-01
5.125000000000000000e+03 6.169118404388427734e+00 -5.378027439117431641e+00 -1.630258746445178986e-02 -3.389167599380016327e-03 -5.907526705414056778e-03 -1.320260856300592422e-02
5.126000000000000000e+03 6.086655044555664062e+01 -2.181938409805297852e+00 -3.479116261005401611e-01 5.723029136657714844e+00 1.612535238265991211e+00 -1.659342050552368164e-01
5.127000000000000000e+03 4.208693313598632812e+01 -4.170274734497070312e+00 2.261563062667846680e+00 3.902066946029663086e+00 1.849089026451110840e+00 2.359216362237930298e-01
5.128000000000000000e+03 7.648770904541015625e+01 -6.974263191223144531e+00 2.218996882438659668e-01 8.610548973083496094e+00 2.649734497070312500e+00 1.475523471832275391e+00
5.129000000000000000e+03 7.628116607666015625e+01 -1.700600051879882812e+01 -2.465883046388626099e-01 8.546208381652832031e+00 2.489886045455932617e+00 -5.865391492843627930e-01
5.130000000000000000e+03 7.664313507080078125e+01 1.225310134887695312e+01 -4.011889696121215820e-01 7.030945777893066406e+00 1.988927006721496582e+00 -1.114705920219421387e+00
5.131000000000000000e+03 7.612785339355468750e+01 1.282912158966064453e+01 -1.708136051893234253e-01 6.612446784973144531e+00 1.932489871978759766e+00 -1.352903723716735840e+00
5.132000000000000000e+03 6.165138626098632812e+01 -1.331401062011718750e+01 3.186792135238647461e-01 7.395816326141357422e+00 2.314348697662353516e+00 -4.160233139991760254e-01
5.133000000000000000e+03 3.341657876968383789e+00 -9.788020133972167969e+00 -7.995010353624820709e-03 -2.541196160018444061e-02 -1.002209167927503586e-02 -2.400133572518825531e-02
5.134000000000000000e+03 4.012125968933105469e+00 -1.157007312774658203e+01 -1.127978507429361343e-02 -3.665678203105926514e-02 -1.438097003847360611e-02 -3.763961046934127808e-02
5.135000000000000000e+03 7.618170166015625000e+01 -2.128339958190917969e+01 -2.929517626762390137e-01 7.927596569061279297e+00 2.290393352508544922e+00 8.154334127902984619e-02
5.136000000000000000e+03 3.329946517944335938e+01 -1.732601547241210938e+01 -3.742664456367492676e-01 2.365474551916122437e-01 -4.131570085883140564e-02 6.047771871089935303e-02
5.137000000000000000e+03 7.597719573974609375e+01 1.473731708526611328e+01 3.701945245265960693e-01 5.863012313842773438e+00 1.869961977005004883e+00 -9.065133333206176758e-01
5.138000000000000000e+03 7.466502380371093750e+01 1.413418960571289062e+01 8.644967675209045410e-01 5.256257534027099609e+00 1.836226224899291992e+00 -1.127986431121826172e+00
5.139000000000000000e+03 4.910604000091552734e+00 1.745793724060058594e+01 -2.071180567145347595e-02 -6.476154178380966187e-02 -2.564200386404991150e-02 4.206346347928047180e-02
5.140000000000000000e+03 2.002213668823242188e+01 -1.174284839630126953e+01 -1.727468371391296387e-01 5.714343860745429993e-02 -3.468102216720581055e-02 -1.391725335270166397e-02
5.141000000000000000e+03 7.084016418457031250e+01 -1.973453712463378906e+01 4.792525991797447205e-02 5.092162609100341797e+00 1.542026400566101074e+00 1.124022364616394043e+00
5.142000000000000000e+03 5.371078491210937500e+01 1.694437599182128906e+01 4.887914061546325684e-01 8.673298835754394531e+00 2.748626947402954102e+00 2.157318353652954102e+00
5.143000000000000000e+03 3.067825317382812500e+01 1.844814109802246094e+01 -6.742196083068847656e-01 2.522300742566585541e-02 -1.946989893913269043e-01 4.030286967754364014e-01
5.144000000000000000e+03 4.812259674072265625e+01 -1.906774520874023438e+01 -1.013981580734252930e+00 1.453480720520019531e+00 1.318497210741043091e-01 -4.559056758880615234e-01
5.145000000000000000e+03 7.248663330078125000e+01 -2.952199172973632812e+01 1.222235783934593201e-01 6.628316402435302734e+00 2.025161981582641602e+00 1.034666523337364197e-01
5.146000000000000000e+03 8.684222221374511719e+00 2.890476799011230469e+01 6.708441302180290222e-03 -1.788603067398071289e-01 -5.164555832743644714e-02 1.811285316944122314e-01
5.147000000000000000e+03 7.129172515869140625e+01 2.502401924133300781e+01 -4.471251275390386581e-03 6.165741920471191406e+00 1.848381161689758301e+00 2.078750878572463989e-01
5.148000000000000000e+03 6.206982803344726562e+01 -5.161697268486022949e-01 -2.776512384414672852e+00 5.770305156707763672e+00 8.981378078460693359e-01 1.694275021553039551e+00
5.149000000000000000e+03 5.211121368408203125e+01 -1.187805652618408203e+00 -1.965449810028076172e+00 7.482034206390380859e+00 1.654975295066833496e+00 -1.265011548995971680e+00
5.150000000000000000e+03 2.642530059814453125e+01 -1.693410515785217285e+00 5.329692363739013672e-01 -2.686734199523925781e-01 7.928875088691711426e-02 4.601209238171577454e-02
5.151000000000000000e+03 2.791288757324218750e+01 -1.504079222679138184e+00 7.556524276733398438e-01 1.302970796823501587e-01 2.657848596572875977e-01 2.550104260444641113e-01
5.152000000000000000e+03 6.993556976318359375e+01 1.338106155395507812e+01 2.317615509033203125e+00 5.939816951751708984e+00 2.477229833602905273e+00 1.206949710845947266e+00
5.153000000000000000e+03 7.034235382080078125e+01 1.293382549285888672e+01 2.392570972442626953e+00 5.166678905487060547e+00 2.267775058746337891e+00 9.833724498748779297e-01
5.154000000000000000e+03 7.258151245117187500e+01 1.397231769561767578e+01 1.792840957641601562e+00 4.482938766479492188e+00 1.882733941078186035e+00 -3.505047857761383057e-01
5.155000000000000000e+03 1.486317920684814453e+01 1.563978195190429688e+01 -1.457164138555526733e-01 7.148747146129608154e-02 -2.226868271827697754e-02 5.617340281605720520e-02
5.156000000000000000e+03 4.800030517578125000e+01 -1.734092903137207031e+01 -1.053839564323425293e+00 1.153628945350646973e+00 2.993679791688919067e-02 -1.519699841737747192e-01
5.157000000000000000e+03 9.285356521606445312e+00 1.211418151855468750e+01 6.973552051931619644e-03 1.210668962448835373e-02 5.724072456359863281e-03 2.087074331939220428e-02
5.158000000000000000e+03 6.021836853027343750e+01 -1.438864707946777344e+01 6.372879743576049805e-01 7.964666843414306641e+00 2.580586433410644531e+00 -4.074420034885406494e-01
5.159000000000000000e+03 7.401764678955078125e+01 -4.453038215637207031e+00 -3.369080126285552979e-01 6.505641460418701172e+00 1.850620031356811523e+00 1.939068883657455444e-01
5.160000000000000000e+03 3.935076141357421875e+01 1.712582206726074219e+01 -6.884745359420776367e-01 4.101320505142211914e-01 -8.350273966789245605e-02 -8.762659132480621338e-02
5.161000000000000000e+03 2.290669822692871094e+01 2.154999160766601562e+01 -2.899996340274810791e-01 -1.673242449760437012e-01 -1.371971666812896729e-01 3.543270826339721680e-01
5.162000000000000000e+03 5.518547439575195312e+01 -4.768810272216796875e+00 -1.495554804801940918e+00 6.365106582641601562e+00 1.460865616798400879e+00 -2.612988471984863281e+00
5.163000000000000000e+03 6.511112976074218750e+01 1.438200235366821289e+00 -1.066154122352600098e+00 4.829880714416503906e+00 1.129117965698242188e+00 2.793206930160522461e+00
5.164000000000000000e+03 6.520000457763671875e+01 7.565183639526367188e-01 -1.240740180015563965e+00 4.339829921722412109e+00 9.297269582748413086e-01 3.169700145721435547e+00
5.165000000000000000e+03 5.568305587768554688e+01 -2.539990186691284180e+00 -1.663355469703674316e+00 6.128561019897460938e+00 1.339561700820922852e+00 -4.620938777923583984e+00
5.166000000000000000e+03 7.244889068603515625e+01 -2.160119533538818359e+00 -1.325036406517028809e+00 4.193402767181396484e+00 8.605098724365234375e-01 -2.239850997924804688e+00
5.167000000000000000e+03 8.717213630676269531e+00 -5.872950553894042969e+00 -3.076874651014804840e-02 3.476500045508146286e-03 -8.187673985958099365e-03 -1.712114177644252777e-02
5.168000000000000000e+03 4.965932846069335938e+01 3.364740312099456787e-01 1.518549799919128418e+00 3.992752313613891602e+00 1.653390645980834961e+00 1.986596822738647461e+00
5.169000000000000000e+03 7.526625823974609375e+01 -7.191638946533203125e+00 3.489826619625091553e-01 8.340422630310058594e+00 2.606821537017822266e+00 1.208916425704956055e+00
5.170000000000000000e+03 7.492768096923828125e+01 -6.631239414215087891e+00 1.516130268573760986e-01 8.158584594726562500e+00 2.493059158325195312e+00 1.075779438018798828e+00
5.171000000000000000e+03 5.939395523071289062e+01 -3.125159740447998047e+00 6.933237314224243164e-01 4.858613967895507812e+00 1.665581345558166504e+00 -1.433955192565917969e+00
5.172000000000000000e+03 1.229093170166015625e+01 -5.350125789642333984e+00 -4.647857695817947388e-02 1.187233906239271164e-02 -1.038187090307474136e-02 -5.436728708446025848e-03
5.173000000000000000e+03 1.063284778594970703e+01 -4.936174392700195312e+00 -3.592971712350845337e-02 7.548382505774497986e-03 -8.514400571584701538e-03 -8.350416086614131927e-03
5.174000000000000000e+03 7.618520355224609375e+01 -2.652591705322265625e+00 -4.480882883071899414e-01 7.663603305816650391e+00 2.164654493331909180e+00 1.264711260795593262e+00
5.175000000000000000e+03 4.222682476043701172e+00 -6.714828968048095703e+00 -1.013158727437257767e-02 -9.967467747628688812e-03 -6.029716227203607559e-03 -1.475809980183839798e-02
5.176000000000000000e+03 5.572604656219482422e+00 1.184862327575683594e+01 1.462096627801656723e-02 -3.414687514305114746e-02 -5.857772193849086761e-03 2.341124415397644043e-02
5.177000000000000000e+03 7.538096618652343750e+01 -2.042788505554199219e+01 -4.876169264316558838e-01 7.919500827789306641e+00 2.229565143585205078e+00 1.658443361520767212e-01
5.178000000000000000e+03 7.664485931396484375e+01 -1.933961486816406250e+01 -3.360169231891632080e-01 8.260046958923339844e+00 2.377209186553955078e+00 -2.189750969409942627e-01
5.179000000000000000e+03 7.522868347167968750e+01 -1.883340263366699219e+01 -6.369980573654174805e-01 8.350568771362304688e+00 2.314071178436279297e+00 -2.134216390550136566e-02
5.180000000000000000e+03 7.617105865478515625e+01 -1.791073226928710938e+01 -3.888551890850067139e-01 8.457974433898925781e+00 2.420735597610473633e+00 -4.292460083961486816e-01
5.181000000000000000e+03 3.985957384109497070e+00 1.268863105773925781e+01 6.116833072155714035e-03 -4.882682487368583679e-02 -1.281299721449613571e-02 1.767628267407417297e-02
5.182000000000000000e+03 7.432408142089843750e+01 -2.685249900817871094e+01 7.384514808654785156e-02 7.046278476715087891e+00 2.136037111282348633e+00 2.021012753248214722e-01
5.183000000000000000e+03 7.434661865234375000e+01 -2.829563522338867188e+01 8.170247822999954224e-02 7.032383918762207031e+00 2.134225845336914062e+00 1.593798846006393433e-01
5.184000000000000000e+03 4.033143615722656250e+01 -4.356261253356933594e+00 1.517579793930053711e+00 1.036391496658325195e+00 7.661913633346557617e-01 -1.489164829254150391e-01
5.185000000000000000e+03 4.103845977783203125e+01 -3.320709943771362305e+00 1.574815154075622559e+00 1.903800606727600098e+00 1.043584704399108887e+00 -2.756640911102294922e-01
5.186000000000000000e+03 4.444481372833251953e+00 1.640336608886718750e+01 -1.303428411483764648e-02 -6.014608591794967651e-02 -2.195411175489425659e-02 3.133861720561981201e-02
5.187000000000000000e+03 5.847357177734375000e+01 -8.864905357360839844e+00 8.229378461837768555e-01 7.864802360534667969e+00 2.606322050094604492e+00 -6.883399933576583862e-02
5.188000000000000000e+03 4.808760833740234375e+01 -4.062174856662750244e-01 7.405977249145507812e-01 2.025842189788818359e+00 8.299319744110107422e-01 3.680596828460693359e+00
5.189000000000000000e+03 5.284283065795898438e+01 2.020446777343750000e+01 -5.868299603462219238e-01 7.143978118896484375e+00 1.967144489288330078e+00 4.164301156997680664e-01
5.190000000000000000e+03 5.639227294921875000e+01 -6.468271732330322266e+00 -2.292332798242568970e-02 6.442249298095703125e+00 1.925797820091247559e+00 -1.538816452026367188e+00
5.191000000000000000e+03 4.987191677093505859e+00 -1.242379093170166016e+01 -1.694817841053009033e-02 -3.677374124526977539e-02 -1.611657626926898956e-02 -4.935893416404724121e-02
5.192000000000000000e+03 3.990346527099609375e+01 -2.166193008422851562e+01 -5.107568502426147461e-01 2.278860092163085938e+00 5.304309725761413574e-01 7.287295460700988770e-01
5.193000000000000000e+03 6.412000274658203125e+01 2.692604303359985352e+00 -1.086536288261413574e+00 4.437409400939941406e+00 1.005261898040771484e+00 2.057810544967651367e+00
5.194000000000000000e+03 9.110430717468261719e+00 1.438996601104736328e+01 -3.588953241705894470e-02 1.479596830904483795e-02 -6.328069139271974564e-03 3.358783572912216187e-02
5.195000000000000000e+03 1.067269515991210938e+01 1.335702133178710938e+01 -2.144737169146537781e-02 3.492115810513496399e-02 4.042136017233133316e-03 2.922496199607849121e-02
5.196000000000000000e+03 5.960940933227539062e+01 1.647031402587890625e+01 1.950702905654907227e+00 2.343074798583984375e+00 1.288133382797241211e+00 1.070940852165222168e+00
5.197000000000000000e+03 5.654830455780029297e+00 -1.551809501647949219e+01 -1.766862347722053528e-02 -5.711448565125465393e-02 -2.243493311107158661e-02 -7.310765981674194336e-02
5.198000000000000000e+03 1.586921024322509766e+01 1.886899566650390625e+01 -2.608498632907867432e-01 6.323836743831634521e-02 -5.928344652056694031e-02 1.790399104356765747e-01
5.199000000000000000e+03 1.581308078765869141e+01 1.834719467163085938e+01 -2.584048211574554443e-01 7.272237539291381836e-02 -5.570473149418830872e-02 1.588642299175262451e-01
5.200000000000000000e+03 2.860318183898925781e+01 -1.195522689819335938e+01 -4.298594295978546143e-01 2.958081066608428955e-01 -4.021539166569709778e-02 1.549299061298370361e-01
5.201000000000000000e+03 2.950858116149902344e+01 -1.252243804931640625e+01 -4.779817461967468262e-01 2.645662128925323486e-01 -6.402465701103210449e-02 1.504213362932205200e-01
5.202000000000000000e+03 7.529875946044921875e+01 -7.828937530517578125e+00 4.951925575733184814e-01 8.581992149353027344e+00 2.723155498504638672e+00 1.177479982376098633e+00
5.203000000000000000e+03 7.588195800781250000e+01 -7.094235420227050781e+00 2.506080865859985352e-01 8.388922691345214844e+00 2.591859340667724609e+00 1.385819435119628906e+00
5.204000000000000000e+03 5.936003112792968750e+01 -1.745485186576843262e+00 -5.404458045959472656e-01 3.526931285858154297e+00 8.959456086158752441e-01 -1.380829334259033203e+00
5.205000000000000000e+03 7.462847900390625000e+01 -2.602425575256347656e+01 3.300679475069046021e-02 7.141576290130615234e+00 2.152374982833862305e+00 2.132421731948852539e-01
5.206000000000000000e+03 5.139588546752929688e+01 -8.495578765869140625e-01 -1.108688473701477051e+00 6.285825252532958984e+00 1.553141117095947266e+00 -2.312736511230468750e-01
5.207000000000000000e+03 6.438256072998046875e+01 1.843986701965332031e+01 8.192375302314758301e-01 5.366899013519287109e+00 1.855840921401977539e+00 -1.255158424377441406e+00
5.208000000000000000e+03 1.526138019561767578e+01 1.827197456359863281e+01 -2.344578206539154053e-01 6.604129076004028320e-02 -5.052496120333671570e-02 1.490227133035659790e-01
5.209000000000000000e+03 1.474056720733642578e+01 1.785155868530273438e+01 -2.160980999469757080e-01 7.142436504364013672e-02 -4.340212047100067139e-02 1.265899688005447388e-01
5.210000000000000000e+03 5.652696228027343750e+01 -3.765902996063232422e+00 -7.155659198760986328e-01 5.565067768096923828e+00 1.454850554466247559e+00 -3.281358480453491211e+00
5.211000000000000000e+03 1.255195331573486328e+01 -6.058208465576171875e+00 -5.771531164646148682e-02 1.554424688220024109e-02 -1.265131961554288864e-02 -8.817039430141448975e-03
5.212000000000000000e+03 1.455607318878173828e+01 -7.404978752136230469e+00 -8.981589227914810181e-02 2.698140218853950500e-02 -1.885034702718257904e-02 -9.816374629735946655e-03
5.213000000000000000e+03 2.156757354736328125e+01 2.116355705261230469e+01 -3.206809759140014648e-01 -1.137682646512985229e-01 -1.303347796201705933e-01 3.640954196453094482e-01
5.214000000000000000e+03 2.066375541687011719e+01 2.155619812011718750e+01 -2.918823957443237305e-01 -7.006577402353286743e-02 -1.085844486951828003e-01 3.644900023937225342e-01
5.215000000000000000e+03 5.521080398559570312e+01 1.346227645874023438e+01 2.272522926330566406e+00 6.590984821319580078e+00 2.659052371978759766e+00 2.449441194534301758e+00
5.216000000000000000e+03 6.575157928466796875e+01 1.732213616371154785e+00 -3.968273997306823730e-01 5.302416324615478516e+00 1.471676588058471680e+00 2.364882230758666992e+00
5.217000000000000000e+03 7.510582733154296875e+01 -1.703465080261230469e+01 -4.491119980812072754e-01 8.859157562255859375e+00 2.523013830184936523e+00 -4.102483093738555908e-01
5.218000000000000000e+03 7.538430023193359375e+01 -1.811445617675781250e+01 -5.395119786262512207e-01 8.563553810119628906e+00 2.407212734222412109e+00 -2.340703308582305908e-01
5.219000000000000000e+03 3.032440185546875000e+01 -1.336804771423339844e+01 -5.190627574920654297e-01 2.455532401800155640e-01 -8.205285668373107910e-02 1.331872642040252686e-01
5.220000000000000000e+03 6.408232116699218750e+01 -1.793522644042968750e+01 -4.417514055967330933e-02 4.922069072723388672e+00 1.463368177413940430e+00 -1.751561999320983887e+00
5.221000000000000000e+03 6.341533279418945312e+01 -1.654081344604492188e+01 1.280593592673540115e-02 5.508398532867431641e+00 1.656361341476440430e+00 -1.540857791900634766e+00
5.222000000000000000e+03 4.584567642211914062e+01 -1.745290946960449219e+01 -6.753898859024047852e-01 2.461259365081787109e+00 5.357608795166015625e-01 -4.658548533916473389e-01
5.223000000000000000e+03 4.590789794921875000e+01 -1.671534919738769531e+01 -5.791991353034973145e-01 2.409075736999511719e+00 5.489630103111267090e-01 -3.315024673938751221e-01
5.224000000000000000e+03 7.362445068359375000e+01 -1.929814338684082031e+01 -7.304952144622802734e-01 7.651455879211425781e+00 2.076288223266601562e+00 6.352155804634094238e-01
5.225000000000000000e+03 5.956117248535156250e+01 -8.319464683532714844e+00 1.000887513160705566e+00 7.964636325836181641e+00 2.689657211303710938e+00 2.100001573562622070e-01
5.226000000000000000e+03 6.889878082275390625e+01 1.451434612274169922e+01 1.620471119880676270e+00 7.677853584289550781e+00 2.789497375488281250e+00 1.362953543663024902e+00
5.227000000000000000e+03 6.901845550537109375e+01 1.329490470886230469e+01 2.378534793853759766e+00 7.236015796661376953e+00 2.884365081787109375e+00 1.426990270614624023e+00
5.228000000000000000e+03 5.486722183227539062e+01 1.590582847595214844e+01 1.466671586036682129e+00 7.175138473510742188e+00 2.592543125152587891e+00 2.825700283050537109e+00
5.229000000000000000e+03 1.444524383544921875e+01 -9.025737762451171875e+00 -1.056476384401321411e-01 3.806988149881362915e-02 -2.027332782745361328e-02 -3.028090856969356537e-02
5.230000000000000000e+03 1.520449829101562500e+01 -9.011570930480957031e+00 -1.155692413449287415e-01 3.987766429781913757e-02 -2.270747348666191101e-02 -2.293888479471206665e-02
5.231000000000000000e+03 2.431955718994140625e+01 -1.374508190155029297e+01 -2.699364125728607178e-01 2.283400744199752808e-01 -1.247889827936887741e-02 6.377400457859039307e-02
5.232000000000000000e+03 6.588990020751953125e+01 -1.973776054382324219e+01 2.835249006748199463e-01 4.146954536437988281e+00 1.329143762588500977e+00 -1.296567678451538086e+00
5.233000000000000000e+03 6.072977066040039062e+01 -1.280794143676757812e+00 -1.516243100166320801e+00 4.936971664428710938e+00 1.026218652725219727e+00 2.627641558647155762e-01
5.234000000000000000e+03 4.316558361053466797e+00 1.900151252746582031e+01 -1.926293596625328064e-02 -8.478097617626190186e-02 -3.121317364275455475e-02 4.910046234726905823e-02
5.235000000000000000e+03 3.512547683715820312e+01 1.934887504577636719e+01 -3.698315024375915527e-01 -4.231824353337287903e-02 -1.236449256539344788e-01 1.115912199020385742e-01
5.236000000000000000e+03 5.990212249755859375e+01 -1.044387245178222656e+01 7.578165531158447266e-01 8.347621917724609375e+00 2.731631517410278320e+00 3.089231848716735840e-01
5.237000000000000000e+03 5.572408199310302734e+00 1.007606697082519531e+01 1.943539641797542572e-02 -4.130965843796730042e-02 -6.562279071658849716e-03 3.151384741067886353e-02
5.238000000000000000e+03 3.989041519165039062e+01 -4.759730339050292969e+00 1.230030179023742676e+00 6.508274078369140625e-01 5.642572641372680664e-01 -7.998057454824447632e-02
5.239000000000000000e+03 4.989389896392822266e+00 -9.191849708557128906e+00 -1.613399013876914978e-02 -1.767281442880630493e-02 -1.014204137027263641e-02 -3.025995194911956787e-02
5.240000000000000000e+03 6.778514099121093750e+01 1.182236003875732422e+01 2.975871562957763672e+00 1.047971820831298828e+01 4.036676883697509766e+00 7.003790140151977539e-01
5.241000000000000000e+03 4.120266342163085938e+01 -4.278166770935058594e+00 1.860387086868286133e+00 2.240083456039428711e+00 1.230141162872314453e+00 -5.445106327533721924e-02
5.242000000000000000e+03 2.051790809631347656e+01 1.895996284484863281e+01 -5.296278595924377441e-01 -1.010910491459071636e-03 -1.591916233301162720e-01 2.924012541770935059e-01
5.243000000000000000e+03 1.993443298339843750e+01 2.016821289062500000e+01 -3.930320441722869873e-01 -1.782693713903427124e-02 -1.232576891779899597e-01 3.280073702335357666e-01
5.244000000000000000e+03 5.162956237792968750e+00 2.052246475219726562e+01 -2.875946275889873505e-02 -9.362362325191497803e-02 -3.671492636203765869e-02 7.377023249864578247e-02
5.245000000000000000e+03 2.858382225036621094e+01 -1.097063159942626953e+01 -3.898534178733825684e-01 2.804211974143981934e-01 -3.282966464757919312e-02 1.804684102535247803e-01
5.246000000000000000e+03 5.699853134155273438e+01 1.504280281066894531e+01 1.834554910659790039e+00 4.022397518157958984e+00 1.757085680961608887e+00 2.437454938888549805e+00
5.247000000000000000e+03 5.657684326171875000e+01 1.573386669158935547e+01 1.784196972846984863e+00 4.783458709716796875e+00 1.970296621322631836e+00 2.600023269653320312e+00
5.248000000000000000e+03 3.265388107299804688e+01 -1.776450729370117188e+01 -3.338308930397033691e-01 2.780950963497161865e-01 -1.672074384987354279e-02 5.344872549176216125e-02
5.249000000000000000e+03 6.031551742553710938e+01 -1.551790714263916016e+01 6.305028796195983887e-01 7.678516387939453125e+00 2.492705821990966797e+00 -7.166308164596557617e-01
5.250000000000000000e+03 6.087428665161132812e+01 -1.482096385955810547e+01 5.900921821594238281e-01 7.507075786590576172e+00 2.429150342941284180e+00 -6.621575951576232910e-01
5.251000000000000000e+03 2.898122596740722656e+01 1.879236412048339844e+01 -6.721013784408569336e-01 7.864001393318176270e-02 -1.780384182929992676e-01 3.585834503173828125e-01
5.252000000000000000e+03 1.856151962280273438e+01 -1.144919776916503906e+01 -1.651434153318405151e-01 5.790117755532264709e-02 -3.217267245054244995e-02 -3.778429701924324036e-02
5.253000000000000000e+03 4.356649017333984375e+01 -1.916824531555175781e+01 -8.701491355895996094e-01 3.474557638168334961e+00 7.813225984573364258e-01 -3.412670791149139404e-01
5.254000000000000000e+03 7.546933746337890625e+01 -4.803281784057617188e+00 -9.233443439006805420e-02 7.572119235992431641e+00 2.243935585021972656e+00 1.154266834259033203e+00
5.255000000000000000e+03 6.191760635375976562e+01 6.931213736534118652e-01 -3.285690784454345703e+00 4.437531471252441406e+00 3.455521464347839355e-01 1.669354796409606934e+00
5.256000000000000000e+03 6.241161346435546875e+01 1.237664103507995605e+00 -3.036526918411254883e+00 4.411408424377441406e+00 4.124644696712493896e-01 2.217444181442260742e+00
5.257000000000000000e+03 5.525857543945312500e+01 1.484679222106933594e+01 1.983718752861022949e+00 6.583916664123535156e+00 2.570290565490722656e+00 2.872636556625366211e+00
5.258000000000000000e+03 5.592522430419921875e+01 1.406713294982910156e+01 2.064001083374023438e+00 5.295193672180175781e+00 2.207758426666259766e+00 2.589705228805541992e+00
5.259000000000000000e+03 7.519490051269531250e+01 1.831134223937988281e+01 4.297465682029724121e-01 5.858239173889160156e+00 1.886395692825317383e+00 -5.931267887353897095e-02
5.260000000000000000e+03 7.304732513427734375e+01 -4.724820137023925781e+00 -5.924001336097717285e-01 6.292565822601318359e+00 1.710049629211425781e+00 -4.441523551940917969e-01
5.261000000000000000e+03 7.379084014892578125e+01 -5.564716815948486328e+00 -2.595010995864868164e-01 7.234242916107177734e+00 2.092422485351562500e+00 3.017719089984893799e-01
5.262000000000000000e+03 4.653858184814453125e+00 -2.032136726379394531e+01 -5.343451630324125290e-03 -1.228950917720794678e-01 -3.847156465053558350e-02 -7.984284311532974243e-02
5.263000000000000000e+03 4.665067291259765625e+01 2.068109893798828125e+01 2.431447505950927734e-01 2.861721277236938477e+00 9.314597845077514648e-01 -1.583918333053588867e+00
5.264000000000000000e+03 6.781343841552734375e+01 1.117234230041503906e+01 2.975085973739624023e+00 1.029994678497314453e+01 3.982509851455688477e+00 4.338072240352630615e-01
5.265000000000000000e+03 7.200822448730468750e+01 -1.924555778503417969e+01 -5.284734368324279785e-01 6.375206947326660156e+00 1.754020094871520996e+00 1.267615914344787598e+00
5.266000000000000000e+03 3.052654075622558594e+01 -1.416048526763916016e+01 -5.186248421669006348e-01 2.543210387229919434e-01 -7.929114997386932373e-02 8.264897763729095459e-02
5.267000000000000000e+03 3.151897621154785156e+01 -1.651048851013183594e+01 -4.383717775344848633e-01 2.782385647296905518e-01 -4.803996533155441284e-02 3.200193494558334351e-02
5.268000000000000000e+03 3.921543121337890625e+00 -7.235513210296630859e+00 -9.806684218347072601e-03 -1.201623678207397461e-02 -6.546875927597284317e-03 -1.601575873792171478e-02
5.269000000000000000e+03 2.034507942199707031e+01 -1.411645412445068359e+01 -1.733090132474899292e-01 1.142718493938446045e-01 -1.771115139126777649e-02 -3.843691572546958923e-02
5.270000000000000000e+03 2.218732261657714844e+01 -1.266427993774414062e+01 -1.987746506929397583e-01 1.013979986310005188e-01 -2.921299450099468231e-02 2.652594819664955139e-02
5.271000000000000000e+03 5.860277557373046875e+01 -2.172451400756835938e+01 -1.327987909317016602e+00 6.773779869079589844e+00 1.633737564086914062e+00 -4.026957452297210693e-01
5.272000000000000000e+03 6.940499877929687500e+01 -1.985781860351562500e+01 5.223422050476074219e-01 3.945524692535400391e+00 1.340360045433044434e+00 4.953544735908508301e-01
5.273000000000000000e+03 4.664905929565429688e+01 1.966040420532226562e+01 5.200027823448181152e-01 2.582238674163818359e+00 9.306724667549133301e-01 -1.798084139823913574e+00
5.274000000000000000e+03 9.529131889343261719e+00 1.299465465545654297e+01 -8.150202222168445587e-03 1.328032184392213821e-02 1.539036049507558346e-03 2.509440109133720398e-02
5.275000000000000000e+03 6.336318588256835938e+01 1.655102968215942383e+00 -2.171504020690917969e+00 4.309392929077148438e+00 6.413666605949401855e-01 2.592304706573486328e+00
5.276000000000000000e+03 5.203046798706054688e+01 1.995822906494140625e+01 -8.433303236961364746e-01 7.300899028778076172e+00 1.937270641326904297e+00 -2.824792265892028809e-01
5.277000000000000000e+03 3.304265594482421875e+01 -1.836892318725585938e+01 -2.465491145849227905e-01 2.871478199958801270e-01 1.217961031943559647e-02 6.433929502964019775e-02
5.278000000000000000e+03 6.849851989746093750e+01 1.717922973632812500e+01 3.734364211559295654e-01 7.402606964111328125e+00 2.332813024520874023e+00 3.638065159320831299e-01
5.279000000000000000e+03 5.047909259796142578e+00 2.652767181396484375e+01 -1.200570259243249893e-02 -1.917780339717864990e-01 -6.113512068986892700e-02 1.176689490675926208e-01
5.280000000000000000e+03 3.890429496765136719e+00 2.537922477722167969e+01 -1.085252314805984497e-02 -1.898682713508605957e-01 -6.021624058485031128e-02 8.848292380571365356e-02
5.281000000000000000e+03 7.509798431396484375e+01 1.642581748962402344e+01 6.431468129158020020e-01 5.633522033691406250e+00 1.883000731468200684e+00 -3.746044039726257324e-01
5.282000000000000000e+03 7.434946441650390625e+01 -3.858971357345581055e+00 -3.869456648826599121e-01 6.133690357208251953e+00 1.724023342132568359e+00 3.234947919845581055e-01
5.283000000000000000e+03 4.408721923828125000e+01 -2.053417778015136719e+01 -9.507433176040649414e-01 3.024803876876831055e+00 6.222181320190429688e-01 -3.842817544937133789e-01
5.284000000000000000e+03 4.674854755401611328e+00 1.492817115783691406e+01 -6.322320085018873215e-03 -5.282344669103622437e-02 -1.774372905492782593e-02 2.500960417091846466e-02
5.285000000000000000e+03 1.675380134582519531e+01 1.944540786743164062e+01 -2.905356884002685547e-01 5.529597029089927673e-02 -7.057191431522369385e-02 2.160718291997909546e-01
5.286000000000000000e+03 2.796484947204589844e+01 -1.196986484527587891e+01 -4.132859706878662109e-01 3.135325908660888672e-01 -2.992601320147514343e-02 1.367471218109130859e-01
5.287000000000000000e+03 5.242937850952148438e+01 -2.294251823425292969e+01 -1.472070515155792236e-01 1.757947325706481934e+00 4.832220971584320068e-01 7.235958576202392578e-01
5.288000000000000000e+03 6.399286270141601562e+01 1.491184830665588379e+00 -1.782984137535095215e+00 4.567688941955566406e+00 8.354114890098571777e-01 3.026190757751464844e+00
5.289000000000000000e+03 4.675700187683105469e+00 -1.432076644897460938e+01 -1.345057133585214615e-02 -5.457067862153053284e-02 -2.040637470781803131e-02 -5.757231265306472778e-02
5.290000000000000000e+03 4.325067520141601562e+01 1.774103546142578125e+01 -1.614365577697753906e-01 7.835608124732971191e-01 1.866372823715209961e-01 -3.589404821395874023e-01
5.291000000000000000e+03 5.757837677001953125e+01 -2.828701972961425781e+00 -1.661646515130996704e-01 4.450896263122558594e+00 1.285419583320617676e+00 -3.284843206405639648e+00
5.292000000000000000e+03 3.242184829711914062e+01 1.918572998046875000e+01 -5.143765211105346680e-01 -7.144565880298614502e-02 -1.757466644048690796e-01 3.403033912181854248e-01
5.293000000000000000e+03 3.098811912536621094e+01 1.776133537292480469e+01 -7.754122614860534668e-01 2.269368804991245270e-02 -2.258155643939971924e-01 4.054356217384338379e-01
5.294000000000000000e+03 1.889504623413085938e+01 2.148860359191894531e+01 -2.695418000221252441e-01 -1.693605259060859680e-02 -8.594334870576858521e-02 3.289473056793212891e-01
5.295000000000000000e+03 5.612958908081054688e+01 -4.758275032043457031e+00 -7.665843963623046875e-01 6.080538272857666016e+00 1.594186186790466309e+00 -2.628050565719604492e+00
5.296000000000000000e+03 5.937012863159179688e+01 -7.627119541168212891e+00 9.997951984405517578e-01 7.691742897033691406e+00 2.607461452484130859e+00 4.362109303474426270e-02
5.297000000000000000e+03 6.557512283325195312e+00 -6.329214572906494141e+00 -2.106890082359313965e-02 -3.677581204101443291e-03 -7.423944305628538132e-03 -1.854772865772247314e-02
5.298000000000000000e+03 4.102497863769531250e+01 1.744861412048339844e+01 -5.013583898544311523e-01 6.303935647010803223e-01 3.871056437492370605e-02 -1.368556320667266846e-01
5.299000000000000000e+03 4.914107513427734375e+01 1.891853570938110352e+00 2.916115760803222656e+00 4.583149909973144531e+00 2.249779701232910156e+00 2.244547128677368164e+00
5.300000000000000000e+03 7.305784606933593750e+01 2.240698623657226562e+01 1.099313572049140930e-01 6.148158073425292969e+00 1.877426862716674805e+00 2.503870725631713867e-01
5.301000000000000000e+03 7.419706726074218750e+01 2.293241500854492188e+01 7.735986262559890747e-02 6.102706909179687500e+00 1.854020118713378906e+00 2.371594458818435669e-01
5.302000000000000000e+03 5.976791763305664062e+01 -1.946125793457031250e+01 -2.780667245388031006e-01 7.164475440979003906e+00 2.065922498703002930e+00 -1.396147131919860840e+00
5.303000000000000000e+03 3.504578399658203125e+01 -1.828455162048339844e+01 -2.063483595848083496e-01 2.245336025953292847e-01 5.455574952065944672e-03 2.225811034440994263e-01
5.304000000000000000e+03 7.511884689331054688e+00 9.306740760803222656e+00 3.952477872371673584e-02 -2.930081449449062347e-02 3.067188896238803864e-03 2.737191133201122284e-02
5.305000000000000000e+03 5.019221115112304688e+01 -2.193416976928710938e+01 -4.291622638702392578e-01 1.263581871986389160e+00 2.503258883953094482e-01 -1.852148622274398804e-01
5.306000000000000000e+03 6.576630592346191406e+00 9.699500083923339844e+00 2.728305943310260773e-02 -3.891451284289360046e-02 -3.489435417577624321e-03 3.142484277486801147e-02
5.307000000000000000e+03 4.956685638427734375e+01 2.390765190124511719e+00 3.130270004272460938e+00 5.426345825195312500e+00 2.566984653472900391e+00 1.914508104324340820e+00
5.308000000000000000e+03 5.144217967987060547e+00 3.032787322998046875e+01 7.677592802792787552e-03 -2.604802846908569336e-01 -7.584080100059509277e-02 1.186286211013793945e-01
5.309000000000000000e+03 7.033262634277343750e+01 1.703300094604492188e+01 8.536784052848815918e-01 6.505901813507080078e+00 2.207874059677124023e+00 6.337315440177917480e-01
5.310000000000000000e+03 4.653548431396484375e+01 -1.767108154296875000e+01 -7.831226587295532227e-01 2.127419710159301758e+00 4.032891094684600830e-01 -4.702189564704895020e-01
5.311000000000000000e+03 3.890368700027465820e+00 2.647120857238769531e+01 -7.851811125874519348e-03 -2.110643684864044189e-01 -6.567485630512237549e-02 9.258205443620681763e-02
5.312000000000000000e+03 3.615605926513671875e+01 1.871880340576171875e+01 -4.536001384258270264e-01 -6.544945761561393738e-03 -1.380435228347778320e-01 1.739015057682991028e-02
5.313000000000000000e+03 4.012709045410156250e+01 -2.061881065368652344e+01 -6.226160526275634766e-01 2.509085178375244141e+00 5.659407377243041992e-01 8.642767071723937988e-01
5.314000000000000000e+03 7.026921081542968750e+01 1.550191307067871094e+01 1.415628075599670410e+00 6.337234973907470703e+00 2.325858831405639648e+00 8.718868494033813477e-01
5.315000000000000000e+03 3.583747482299804688e+01 -1.800756645202636719e+01 -1.812890917062759399e-01 2.341561317443847656e-01 1.586011424660682678e-02 3.473281860351562500e-01
5.316000000000000000e+03 5.459395599365234375e+01 -2.577437400817871094e+01 -3.549245595932006836e-01 3.580332517623901367e+00 9.676223993301391602e-01 7.874802350997924805e-01
5.317000000000000000e+03 5.379660797119140625e+01 -2.499479675292968750e+01 -2.441052347421646118e-01 2.974650859832763672e+00 8.191636800765991211e-01 8.041099309921264648e-01
5.318000000000000000e+03 9.589774131774902344e+00 -2.520563316345214844e+01 9.557084180414676666e-03 -6.649099290370941162e-02 -1.708017289638519287e-02 -1.283406466245651245e-01
5.319000000000000000e+03 8.240904808044433594e+00 -2.453820228576660156e+01 4.712902475148439407e-03 -9.653034806251525879e-02 -2.754523418843746185e-02 -1.192109063267707825e-01
5.320000000000000000e+03 7.273182392120361328e+00 2.855566406250000000e+01 4.825915966648608446e-04 -1.991164982318878174e-01 -5.959017202258110046e-02 1.565733402967453003e-01
5.321000000000000000e+03 6.929005622863769531e+00 2.757648468017578125e+01 -7.074963767081499100e-03 -1.879668235778808594e-01 -5.851253494620323181e-02 1.503497064113616943e-01
5.322000000000000000e+03 5.628010559082031250e+01 -2.570513725280761719e+01 -6.363147497177124023e-01 4.275768280029296875e+00 1.091836094856262207e+00 6.828377842903137207e-01
5.323000000000000000e+03 5.601652526855468750e+01 -2.474368286132812500e+01 -6.458214521408081055e-01 4.313363552093505859e+00 1.100262641906738281e+00 8.497335314750671387e-01
5.324000000000000000e+03 1.266336536407470703e+01 -4.381071567535400391e+00 -3.684195876121520996e-02 7.900648750364780426e-03 -8.682392537593841553e-03 2.409089065622538328e-04
5.325000000000000000e+03 7.283049583435058594e+00 1.002201938629150391e+01 3.752615302801132202e-02 -1.986405625939369202e-02 5.298628937453031540e-03 2.657059952616691589e-02
5.326000000000000000e+03 5.869972229003906250e+01 -7.930193901062011719e+00 9.124456048011779785e-01 7.551352977752685547e+00 2.539139747619628906e+00 -1.257957965135574341e-01
5.327000000000000000e+03 5.917589187622070312e+01 -5.447318553924560547e+00 1.121237397193908691e+00 6.549269676208496094e+00 2.301151990890502930e+00 -6.768480539321899414e-01
5.328000000000000000e+03 5.906066131591796875e+01 -4.848870277404785156e+00 1.000368833541870117e+00 6.086402893066406250e+00 2.126031637191772461e+00 -1.061443090438842773e+00
5.329000000000000000e+03 5.833076477050781250e+01 -7.429580211639404297e+00 8.484317660331726074e-01 7.280150890350341797e+00 2.438574790954589844e+00 -3.683162331581115723e-01
5.330000000000000000e+03 6.420821380615234375e+01 2.107645511627197266e+00 -1.189323186874389648e+00 4.572629928588867188e+00 1.014991998672485352e+00 2.458396911621093750e+00
5.331000000000000000e+03 6.456889343261718750e+01 1.380547881126403809e+00 -1.517897129058837891e+00 4.590056419372558594e+00 9.216477870941162109e-01 3.014874935150146484e+00
5.332000000000000000e+03 1.377027893066406250e+01 -8.196217536926269531e+00 -9.023060649633407593e-02 3.031739220023155212e-02 -1.797396503388881683e-02 -2.248164452612400055e-02
5.333000000000000000e+03 1.740353965759277344e+01 -1.097657871246337891e+01 -1.528797298669815063e-01 5.753409489989280701e-02 -2.860369347035884857e-02 -4.076582938432693481e-02
5.334000000000000000e+03 1.713492774963378906e+01 -1.016767311096191406e+01 -1.559069752693176270e-01 5.181748792529106140e-02 -3.122684545814990997e-02 -2.795607410371303558e-02
5.335000000000000000e+03 6.000190353393554688e+01 -1.140289020538330078e+01 6.675373315811157227e-01 8.355381011962890625e+00 2.706875562667846680e+00 2.259117215871810913e-01
5.336000000000000000e+03 5.036088562011718750e+01 9.628418087959289551e-01 2.000877380371093750e+00 5.444093704223632812e+00 2.233491182327270508e+00 1.499508380889892578e+00
5.337000000000000000e+03 6.850574493408203125e+01 -2.160379409790039062e+01 5.261810421943664551e-01 4.477210044860839844e+00 1.501017332077026367e+00 -1.454873383045196533e-01
5.338000000000000000e+03 3.004694175720214844e+01 1.996455955505371094e+01 -4.976576864719390869e-01 4.107573255896568298e-02 -1.369745880365371704e-01 3.488073050975799561e-01
5.339000000000000000e+03 2.705017089843750000e+01 -1.441271018981933594e+01 -3.690985739231109619e-01 3.163952231407165527e-01 -1.581100560724735260e-02 5.103571712970733643e-02
5.340000000000000000e+03 2.671295356750488281e+01 -1.320359039306640625e+01 -3.698093891143798828e-01 3.117190301418304443e-01 -1.742710545659065247e-02 9.551846235990524292e-02
5.341000000000000000e+03 7.294065856933593750e+01 -5.574127197265625000e+00 -4.706933796405792236e-01 6.730880737304687500e+00 1.878056287765502930e+00 -3.290115892887115479e-01
5.342000000000000000e+03 4.474812698364257812e+01 -1.999962234497070312e+01 -8.760815858840942383e-01 2.915003538131713867e+00 6.116766333580017090e-01 -5.157280564308166504e-01
5.343000000000000000e+03 3.993302917480468750e+01 -5.665376663208007812e+00 8.847128748893737793e-01 7.255203723907470703e-01 4.830699563026428223e-01 2.824142873287200928e-01
5.344000000000000000e+03 7.104338073730468750e+01 1.551794433593750000e+01 1.505149722099304199e+00 5.742288112640380859e+00 2.174231290817260742e+00 6.723102331161499023e-01
5.345000000000000000e+03 7.101210021972656250e+01 1.621778106689453125e+01 1.199693083763122559e+00 6.061406612396240234e+00 2.178329944610595703e+00 6.050896048545837402e-01
5.346000000000000000e+03 3.086253356933593750e+01 -1.491628932952880859e+01 -5.225912332534790039e-01 2.666568160057067871e-01 -7.678032666444778442e-02 7.618288695812225342e-02
5.347000000000000000e+03 4.246665954589843750e+01 1.795944404602050781e+01 -1.871536374092102051e-01 6.965339183807373047e-01 1.528140902519226074e-01 -2.982413470745086670e-01
5.348000000000000000e+03 6.928568267822265625e+01 1.874683761596679688e+01 2.927543818950653076e-01 6.788430213928222656e+00 2.124355316162109375e+00 2.722543478012084961e-01
5.349000000000000000e+03 1.809714889526367188e+01 2.106644439697265625e+01 -2.771750092506408691e-01 7.917425595223903656e-03 -8.077727258205413818e-02 3.047537207603454590e-01
5.350000000000000000e+03 4.499822139739990234e+00 2.712014389038085938e+01 -4.925361834466457367e-03 -2.165159434080123901e-01 -6.643239408731460571e-02 1.080466806888580322e-01
5.351000000000000000e+03 5.434087753295898438e+00 -1.950852966308593750e+01 -8.886029943823814392e-03 -1.003535091876983643e-01 -3.277186304330825806e-02 -8.735518157482147217e-02
5.352000000000000000e+03 7.387293243408203125e+01 1.471790027618408203e+01 1.195674777030944824e+00 5.084089279174804688e+00 1.883929252624511719e+00 -6.896081566810607910e-01
5.353000000000000000e+03 6.000474548339843750e+01 -1.343221473693847656e+01 6.323769688606262207e-01 8.162359237670898438e+00 2.638420820236206055e+00 -1.706842333078384399e-01
5.354000000000000000e+03 4.039259338378906250e+01 -2.135647583007812500e+01 -6.890606880187988281e-01 2.562298774719238281e+00 5.619713664054870605e-01 7.791268229484558105e-01
5.355000000000000000e+03 5.800583267211914062e+01 -2.594646215438842773e+00 -7.715555280447006226e-02 4.153727531433105469e+00 1.222971558570861816e+00 -2.952259540557861328e+00
5.356000000000000000e+03 5.935757064819335938e+01 -4.056613922119140625e+00 1.058132648468017578e+00 5.666121482849121094e+00 2.017276287078857422e+00 -1.165163278579711914e+00
5.357000000000000000e+03 5.227026462554931641e+00 1.077952289581298828e+01 1.878757402300834656e-02 -3.699564561247825623e-02 -5.462421569973230362e-03 2.682469598948955536e-02
5.358000000000000000e+03 8.536912918090820312e+00 -7.126599788665771484e+00 -3.523372113704681396e-02 3.030169755220413208e-03 -9.661065414547920227e-03 -2.509531565010547638e-02
5.359000000000000000e+03 8.300300598144531250e+00 -6.446983337402343750e+00 -3.186240792274475098e-02 1.843307749368250370e-03 -9.005730040371417999e-03 -2.073257602751255035e-02
5.360000000000000000e+03 5.698594284057617188e+01 -5.202270507812500000e+00 -1.002358347177505493e-01 6.098140239715576172e+00 1.799371242523193359e+00 -2.001030445098876953e+00
5.361000000000000000e+03 5.897556304931640625e+01 -9.154854774475097656e+00 8.853695988655090332e-01 8.071754455566406250e+00 2.687137126922607422e+00 1.367272436618804932e-01
5.362000000000000000e+03 5.788426208496093750e+01 -3.811298131942749023e+00 2.821491956710815430e-01 5.138064861297607422e+00 1.626064181327819824e+00 -2.415672540664672852e+00
5.363000000000000000e+03 5.726663589477539062e+01 -3.175456047058105469e+00 -3.062692284584045410e-01 4.951951026916503906e+00 1.393704533576965332e+00 -3.288738250732421875e+00
5.364000000000000000e+03 7.588144683837890625e+01 -1.892351341247558594e+01 -4.614336788654327393e-01 8.351696968078613281e+00 2.367078781127929688e+00 -1.794014275074005127e-01
5.365000000000000000e+03 6.014902877807617188e+01 -1.241061091423034668e+00 -1.314619421958923340e+00 3.762494802474975586e+00 7.343626022338867188e-01 -4.861909449100494385e-01
5.366000000000000000e+03 5.612585449218750000e+01 1.526834964752197266e+01 1.849489927291870117e+00 5.288073062896728516e+00 2.141268968582153320e+00 2.707695245742797852e+00
5.367000000000000000e+03 4.631428718566894531e+00 1.567373275756835938e+01 -1.255776640027761459e-02 -5.504259467124938965e-02 -2.028010785579681396e-02 2.637385204434394836e-02
5.368000000000000000e+03 3.031830787658691406e+01 -1.593773651123046875e+01 -4.428102076053619385e-01 3.005628883838653564e-01 -4.267419502139091492e-02 2.594740502536296844e-02
5.369000000000000000e+03 3.014035224914550781e+01 -1.514125633239746094e+01 -4.760539233684539795e-01 2.865144908428192139e-01 -5.686182528734207153e-02 3.142880648374557495e-02
5.370000000000000000e+03 3.530692672729492188e+01 -2.018118858337402344e+01 -3.295623511075973511e-02 5.209205150604248047e-01 1.463892906904220581e-01 3.599512279033660889e-01
5.371000000000000000e+03 7.490629577636718750e+01 -5.725253582000732422e+00 -1.610082015395164490e-02 7.734149456024169922e+00 2.315414667129516602e+00 1.026538372039794922e+00
5.372000000000000000e+03 1.214546585083007812e+01 -7.140404224395751953e+00 -6.581962108612060547e-02 1.943425275385379791e-02 -1.391561049968004227e-02 -1.878225617110729218e-02
5.373000000000000000e+03 1.380276012420654297e+01 -5.649647235870361328e+00 -5.903145298361778259e-02 1.443007867783308029e-02 -1.338041294366121292e-02 1.847180072218179703e-03
5.374000000000000000e+03 4.798893451690673828e+00 -6.971882820129394531e+00 -1.312343310564756393e-02 -9.349509142339229584e-03 -6.741882767528295517e-03 -1.728084310889244080e-02
5.375000000000000000e+03 3.934817314147949219e+00 1.682636070251464844e+01 -1.340406853705644608e-02 -6.865715980529785156e-02 -2.461836859583854675e-02 2.866446785628795624e-02
5.376000000000000000e+03 3.941134929656982422e+00 -1.303433799743652344e+01 -1.078670471906661987e-02 -4.766632989048957825e-02 -1.753591001033782959e-02 -4.467612877488136292e-02
5.377000000000000000e+03 5.502665519714355469e+00 -1.341747665405273438e+01 -1.994683966040611267e-02 -4.011142998933792114e-02 -1.801748201251029968e-02 -5.969242751598358154e-02
5.378000000000000000e+03 7.487828063964843750e+01 1.764011955261230469e+01 5.712684392929077148e-01 5.729495525360107422e+00 1.890229225158691406e+00 -1.205640137195587158e-01
5.379000000000000000e+03 6.206667327880859375e+01 -1.570871829986572266e+01 2.789565324783325195e-01 6.527787685394287109e+00 2.042023420333862305e+00 -1.126190900802612305e+00
5.380000000000000000e+03 6.200971603393554688e+01 -1.429454708099365234e+01 2.109996378421783447e-01 6.930962085723876953e+00 2.142588615417480469e+00 -7.462261915206909180e-01
5.381000000000000000e+03 4.512958908081054688e+01 -1.890184974670410156e+01 -8.009378314018249512e-01 2.851014614105224609e+00 6.150230169296264648e-01 -5.975315570831298828e-01
5.382000000000000000e+03 4.673655319213867188e+01 -1.839137268066406250e+01 -8.828963637351989746e-01 2.034515142440795898e+00 3.454856276512145996e-01 -5.308719277381896973e-01
5.383000000000000000e+03 3.234594726562500000e+01 2.048627471923828125e+01 -3.209829330444335938e-01 1.096645928919315338e-02 -9.300494194030761719e-02 2.883359193801879883e-01
5.384000000000000000e+03 7.299009704589843750e+01 2.136069488525390625e+01 1.949780732393264771e-01 6.159441471099853516e+00 1.906325817108154297e+00 2.416709661483764648e-01
5.385000000000000000e+03 7.297918701171875000e+01 2.037788772583007812e+01 2.957974970340728760e-01 6.106296539306640625e+00 1.920628190040588379e+00 2.502869367599487305e-01
5.386000000000000000e+03 2.823664093017578125e+01 -1.147765636444091797e+01 -3.920108973979949951e-01 2.919438183307647705e-01 -3.002012707293033600e-02 1.591816246509552002e-01
5.387000000000000000e+03 2.787694740295410156e+01 -1.260768890380859375e+01 -4.094123840332031250e-01 3.166442811489105225e-01 -2.783043310046195984e-02 1.222177296876907349e-01
5.388000000000000000e+03 4.964198589324951172e+00 2.228311157226562500e+01 -2.665384113788604736e-02 -1.202163621783256531e-01 -4.406106099486351013e-02 8.845436573028564453e-02
5.389000000000000000e+03 4.921044349670410156e+00 2.303953552246093750e+01 -2.331394515931606293e-02 -1.341761648654937744e-01 -4.724703356623649597e-02 9.455179423093795776e-02
5.390000000000000000e+03 4.581547546386718750e+01 -2.041186904907226562e+01 -8.410763144493103027e-01 2.482091665267944336e+00 4.923046231269836426e-01 -6.250824928283691406e-01
5.391000000000000000e+03 6.152592468261718750e+01 1.992137718200683594e+01 1.312066912651062012e+00 4.219492435455322266e+00 1.659467816352844238e+00 -1.572736352682113647e-02
5.392000000000000000e+03 3.428506469726562500e+01 2.021413993835449219e+01 -2.745935320854187012e-01 3.470880212262272835e-03 -8.133679628372192383e-02 1.642937213182449341e-01
5.393000000000000000e+03 4.759066009521484375e+01 2.135207557678222656e+01 -7.678369292989373207e-04 3.660138607025146484e+00 1.097811222076416016e+00 -1.629473686218261719e+00
5.394000000000000000e+03 3.328227996826171875e+01 -2.015221786499023438e+01 -8.920039236545562744e-02 4.189440608024597168e-01 9.892310202121734619e-02 1.180943995714187622e-01
5.395000000000000000e+03 3.425907516479492188e+01 -2.015497207641601562e+01 -3.162918612360954285e-02 4.701672792434692383e-01 1.315614283084869385e-01 2.379276156425476074e-01
5.396000000000000000e+03 7.468566131591796875e+01 -2.408082962036132812e+01 -4.516725614666938782e-02 7.234754085540771484e+00 2.156876087188720703e+00 2.904399037361145020e-01
5.397000000000000000e+03 6.459470367431640625e+01 -2.089603042602539062e+01 9.053940325975418091e-02 4.975023746490478516e+00 1.519668936729431152e+00 -1.371637940406799316e+00
5.398000000000000000e+03 2.962130165100097656e+01 -1.695341110229492188e+01 -3.434016704559326172e-01 3.270492553710937500e-01 -4.905725829303264618e-03 -1.728281192481517792e-02
5.399000000000000000e+03 3.223706054687500000e+01 -1.918828773498535156e+01 -1.915646344423294067e-01 3.479505181312561035e-01 4.691576957702636719e-02 3.129356354475021362e-02
5.400000000000000000e+03 2.626894569396972656e+01 -1.399592876434326172e+01 -3.698819279670715332e-01 3.097264170646667480e-01 -1.804665662348270416e-02 6.456951051950454712e-02
5.401000000000000000e+03 1.865016555786132812e+01 -1.236967849731445312e+01 -1.613079607486724854e-01 7.237223535776138306e-02 -2.668071724474430084e-02 -4.159680008888244629e-02
5.402000000000000000e+03 5.591816711425781250e+01 1.472484779357910156e+01 1.945188879966735840e+00 5.519991874694824219e+00 2.239554166793823242e+00 2.710488557815551758e+00
5.403000000000000000e+03 5.174985408782958984e+00 -1.790710639953613281e+01 -1.115278527140617371e-02 -8.636679500341415405e-02 -2.925587445497512817e-02 -7.886483520269393921e-02
5.404000000000000000e+03 4.994453907012939453e+00 -1.711072921752929688e+01 -1.165628246963024139e-02 -8.040918409824371338e-02 -2.761963941156864166e-02 -7.444636523723602295e-02
5.405000000000000000e+03 1.284957885742187500e+01 1.741045188903808594e+01 -1.475997716188430786e-01 4.947239160537719727e-02 -2.943821437656879425e-02 9.975760430097579956e-02
5.406000000000000000e+03 1.471252250671386719e+01 1.662094116210937500e+01 -1.864128410816192627e-01 7.570553570985794067e-02 -3.321218863129615784e-02 8.544003963470458984e-02
5.407000000000000000e+03 1.899060440063476562e+01 2.056416702270507812e+01 -3.366729021072387695e-01 1.001155120320618153e-03 -1.007015258073806763e-01 3.133234083652496338e-01
5.408000000000000000e+03 7.339552307128906250e+01 -2.028104782104492188e+01 -4.690853953361511230e-01 7.227220535278320312e+00 2.027440547943115234e+00 6.599233746528625488e-01
5.409000000000000000e+03 7.395652008056640625e+01 -1.995726966857910156e+01 -5.626801252365112305e-01 7.590729713439941406e+00 2.108414888381958008e+00 5.636434555053710938e-01
5.410000000000000000e+03 6.457469177246093750e+01 -1.973616600036621094e+01 1.018182188272476196e-01 4.800376892089843750e+00 1.470658540725708008e+00 -1.555687904357910156e+00
5.411000000000000000e+03 5.765516757965087891e+00 -1.625694084167480469e+01 -1.689000427722930908e-02 -6.237626075744628906e-02 -2.377987839281558990e-02 -7.820853590965270996e-02
5.412000000000000000e+03 5.177482604980468750e+00 2.429851150512695312e+01 -2.186755836009979248e-02 -1.523996144533157349e-01 -5.228015035390853882e-02 1.073485985398292542e-01
5.413000000000000000e+03 6.249927043914794922e+00 1.044112682342529297e+01 2.747293747961521149e-02 -3.087149374186992645e-02 -1.019567018374800682e-03 2.804781682789325714e-02
5.414000000000000000e+03 1.121611881256103516e+01 1.595932769775390625e+01 -8.684403449296951294e-02 3.708678483963012695e-02 -1.492717489600181580e-02 6.367319077253341675e-02
5.415000000000000000e+03 1.106477165222167969e+01 1.501256752014160156e+01 -6.770356744527816772e-02 3.765656054019927979e-02 -9.014100767672061920e-03 4.593061283230781555e-02
5.416000000000000000e+03 2.924207496643066406e+01 -1.400041198730468750e+01 -4.604312181472778320e-01 2.925900220870971680e-01 -5.035235732793807983e-02 7.706810534000396729e-02
5.417000000000000000e+03 2.986514663696289062e+01 -1.447503471374511719e+01 -5.026566982269287109e-01 2.911176681518554688e-01 -6.346169859170913696e-02 7.536065578460693359e-02
5.418000000000000000e+03 3.721422195434570312e+01 1.813135528564453125e+01 -5.577010512351989746e-01 9.267048537731170654e-02 -1.395091712474822998e-01 -7.217309623956680298e-02
5.419000000000000000e+03 5.558719253540039062e+01 -4.199624061584472656e+00 -1.420295596122741699e+00 6.221204757690429688e+00 1.440272688865661621e+00 -3.140799999237060547e+00
5.420000000000000000e+03 4.518602752685546875e+01 -1.731337547302246094e+01 -5.291220545768737793e-01 2.881011009216308594e+00 7.055667042732238770e-01 -4.375835359096527100e-01
5.421000000000000000e+03 5.852403259277343750e+01 1.695227241516113281e+01 1.813825607299804688e+00 3.334542989730834961e+00 1.544510602951049805e+00 1.678580403327941895e+00
5.422000000000000000e+03 5.970214843750000000e+01 -2.598380804061889648e+00 2.775819897651672363e-01 4.683168411254882812e+00 1.488225102424621582e+00 -1.260017514228820801e+00
5.423000000000000000e+03 2.760729598999023438e+01 5.926095247268676758e-01 4.560234248638153076e-01 -2.804560661315917969e-01 5.267021059989929199e-02 -2.892275750637054443e-01
5.424000000000000000e+03 6.712601470947265625e+01 1.885160446166992188e+01 1.275983452796936035e-01 6.821040630340576172e+00 2.084591627120971680e+00 -4.163279235363006592e-01
5.425000000000000000e+03 6.630403137207031250e+01 1.867084121704101562e+01 2.370633780956268311e-01 6.637032985687255859e+00 2.062228918075561523e+00 -6.789056062698364258e-01
5.426000000000000000e+03 5.839296340942382812e+01 -3.076936006546020508e+00 3.335486948490142822e-01 4.556711196899414062e+00 1.467077970504760742e+00 -2.387427330017089844e+00
5.427000000000000000e+03 5.882528305053710938e+01 -2.714326381683349609e+00 2.363416403532028198e-01 4.280219554901123047e+00 1.354968428611755371e+00 -2.079402923583984375e+00
5.428000000000000000e+03 1.032529258728027344e+01 1.525911235809326172e+01 -6.142312660813331604e-02 2.611435204744338989e-02 -1.059263199567794800e-02 5.004068464040756226e-02
5.429000000000000000e+03 2.802472686767578125e+01 1.970934104919433594e+01 -5.771176815032958984e-01 3.371008113026618958e-02 -1.630222797393798828e-01 3.079709410667419434e-01
5.430000000000000000e+03 1.694998741149902344e+01 -1.214605045318603516e+01 -1.374996751546859741e-01 6.492389738559722900e-02 -2.177273295819759369e-02 -6.127538532018661499e-02
5.431000000000000000e+03 5.399396514892578125e+01 1.938715362548828125e+01 -1.811524480581283569e-01 7.212790489196777344e+00 2.109491348266601562e+00 1.251038789749145508e+00
5.432000000000000000e+03 4.900337600708007812e+01 5.267449617385864258e-01 1.666021108627319336e+00 3.267191171646118164e+00 1.479963660240173340e+00 2.619700193405151367e+00
5.433000000000000000e+03 1.284017944335937500e+01 -6.770727634429931641e+00 -6.661916524171829224e-02 2.051231637597084045e-02 -1.383205503225326538e-02 -1.317330263555049896e-02
5.434000000000000000e+03 1.379659461975097656e+01 -6.815547943115234375e+00 -7.320074737071990967e-02 2.146750316023826599e-02 -1.551997195929288864e-02 -7.712970487773418427e-03
5.435000000000000000e+03 7.341340637207031250e+01 -6.049819946289062500e+00 -1.686449199914932251e-01 7.327075958251953125e+00 2.147529363632202148e+00 1.304679363965988159e-01
5.436000000000000000e+03 7.433538055419921875e+01 -5.674056053161621094e+00 -1.664170473814010620e-01 7.352928161621093750e+00 2.155953407287597656e+00 6.230404973030090332e-01
5.437000000000000000e+03 5.098265457153320312e+01 9.569724798202514648e-01 1.946498751640319824e+00 6.891564846038818359e+00 2.651419162750244141e+00 9.120778441429138184e-01
5.438000000000000000e+03 2.172009658813476562e+01 -1.458557128906250000e+01 -1.871368139982223511e-01 1.536132246255874634e-01 -1.005707401782274246e-02 -1.241719443351030350e-02
5.439000000000000000e+03 6.976724243164062500e+01 -2.176892089843750000e+01 3.711880445480346680e-01 4.992201328277587891e+00 1.609016895294189453e+00 3.012576997280120850e-01
5.440000000000000000e+03 6.016477203369140625e+01 -2.063012886047363281e+01 -5.751833319664001465e-01 6.723258972167968750e+00 1.844422698020935059e+00 -1.169972777366638184e+00
5.441000000000000000e+03 6.187571716308593750e+01 -1.952226257324218750e+01 -1.507752835750579834e-01 6.251864433288574219e+00 1.830326795578002930e+00 -1.570684313774108887e+00
5.442000000000000000e+03 2.677750396728515625e+01 2.053045272827148438e+01 -4.714137613773345947e-01 -4.957755655050277710e-02 -1.562973856925964355e-01 2.700124680995941162e-01
5.443000000000000000e+03 2.651466369628906250e+01 2.175639152526855469e+01 -3.258890509605407715e-01 -7.061830163002014160e-02 -1.189522072672843933e-01 2.797889411449432373e-01
5.444000000000000000e+03 4.845998764038085938e+00 2.161424827575683594e+01 -2.523186989128589630e-02 -1.115059033036231995e-01 -4.102133214473724365e-02 7.926050573587417603e-02
5.445000000000000000e+03 6.927015686035156250e+01 1.211429309844970703e+01 2.462650775909423828e+00 6.769916534423828125e+00 2.769770145416259766e+00 1.149558901786804199e+00
5.446000000000000000e+03 7.434299468994140625e+01 -2.230200767517089844e+01 -1.990648508071899414e-01 7.275780677795410156e+00 2.123014926910400391e+00 3.691582083702087402e-01
5.447000000000000000e+03 7.837644100189208984e+00 1.225780105590820312e+01 1.214946620166301727e-02 -5.890195723623037338e-03 1.877781003713607788e-03 2.268539182841777802e-02
5.448000000000000000e+03 6.927799224853515625e+01 -2.102402496337890625e+01 5.019989609718322754e-01 4.542166233062744141e+00 1.513249516487121582e+00 2.527270019054412842e-01
5.449000000000000000e+03 6.213289642333984375e+01 -1.500575256347656250e+01 1.497659236192703247e-01 6.677130222320556641e+00 2.048068761825561523e+00 -1.006131052970886230e+00
5.450000000000000000e+03 6.277838134765625000e+01 -1.606908035278320312e+01 -3.181409835815429688e-02 5.988690853118896484e+00 1.787063121795654297e+00 -1.377449870109558105e+00
5.451000000000000000e+03 3.715719938278198242e+00 -1.357451725006103516e+01 -9.784300811588764191e-03 -5.329858139157295227e-02 -1.892486400902271271e-02 -4.495073854923248291e-02
5.452000000000000000e+03 5.926318740844726562e+01 -6.870245456695556641e+00 1.144450783729553223e+00 7.311587333679199219e+00 2.536811351776123047e+00 -1.364697962999343872e-01
5.453000000000000000e+03 5.762931823730468750e+01 -6.653075695037841797e+00 5.152075886726379395e-01 6.777508735656738281e+00 2.187814950942993164e+00 -9.819617271423339844e-01
5.454000000000000000e+03 7.162912750244140625e+01 -2.569278001785278320e+00 -1.907593727111816406e+00 4.700462818145751953e+00 8.378607034683227539e-01 -2.457197666168212891e+00
5.455000000000000000e+03 7.636286163330078125e+01 -1.834594345092773438e+01 -3.515789508819580078e-01 8.395663261413574219e+00 2.413225173950195312e+00 -3.342369198799133301e-01
5.456000000000000000e+03 7.154257202148437500e+01 -2.093372344970703125e+01 -3.433898836374282837e-02 5.865602493286132812e+00 1.749379038810729980e+00 8.057236075401306152e-01
5.457000000000000000e+03 7.301731109619140625e+01 -1.959891891479492188e+01 -6.005766987800598145e-01 7.214930057525634766e+00 1.984305977821350098e+00 8.549123406410217285e-01
5.458000000000000000e+03 5.700543212890625000e+01 -6.565636157989501953e+00 2.342694699764251709e-01 6.610194206237792969e+00 2.053339004516601562e+00 -1.292326092720031738e+00
5.459000000000000000e+03 7.001592159271240234e+00 2.670064735412597656e+01 -1.490893959999084473e-02 -1.703197956085205078e-01 -5.556862056255340576e-02 1.492523699998855591e-01
5.460000000000000000e+03 7.569564819335937500e+00 2.589069366455078125e+01 -2.536664344370365143e-02 -1.480259299278259277e-01 -5.201777070760726929e-02 1.575032919645309448e-01
5.461000000000000000e+03 7.274683380126953125e+01 -2.598520851135253906e+01 1.325856745243072510e-01 6.559835433959960938e+00 2.007726430892944336e+00 2.283114641904830933e-01
5.462000000000000000e+03 3.507143020629882812e+01 2.014994812011718750e+01 -2.500736117362976074e-01 1.421063207089900970e-02 -7.075889408588409424e-02 1.019384711980819702e-01
5.463000000000000000e+03 5.980828094482421875e+01 -2.140333175659179688e+01 -9.677736759185791016e-01 6.764710426330566406e+00 1.739081025123596191e+00 -9.613022208213806152e-01
5.464000000000000000e+03 6.450376892089843750e+01 7.722638249397277832e-01 -1.831410169601440430e+00 4.550053119659423828e+00 8.155928850173950195e-01 3.599455356597900391e+00
5.465000000000000000e+03 6.604827117919921875e+01 1.949855232238769531e+01 2.838197052478790283e-01 6.285843849182128906e+00 1.970898985862731934e+00 -6.083206534385681152e-01
5.466000000000000000e+03 1.013766288757324219e+01 -6.442995548248291016e+00 -4.359368607401847839e-02 9.336410090327262878e-03 -1.027718186378479004e-02 -1.925701647996902466e-02
5.467000000000000000e+03 7.303948211669921875e+01 1.946306228637695312e+01 4.202424287796020508e-01 6.071928501129150391e+00 1.947651386260986328e+00 2.276262938976287842e-01
5.468000000000000000e+03 7.450974273681640625e+01 1.862825584411621094e+01 4.718491137027740479e-01 5.851055622100830078e+00 1.896871447563171387e+00 5.603086575865745544e-02
5.469000000000000000e+03 4.048760604858398438e+01 1.847046661376953125e+01 -3.043124675750732422e-01 5.716811418533325195e-01 8.021061122417449951e-02 -2.004173696041107178e-01
5.470000000000000000e+03 1.160604476928710938e+01 -5.661689758300781250e+00 -4.777219891548156738e-02 1.180460676550865173e-02 -1.079027727246284485e-02 -9.859908372163772583e-03
5.471000000000000000e+03 5.576331138610839844e+00 -2.109679222106933594e+01 -5.292349029332399368e-03 -1.173599213361740112e-01 -3.679568320512771606e-02 -9.245494753122329712e-02
5.472000000000000000e+03 5.458584976196289062e+01 1.095850181579589844e+01 1.428413748741149902e+00 8.565780639648437500e+00 2.998258352279663086e+00 1.126867532730102539e+00
5.473000000000000000e+03 5.553829669952392578e+00 2.600828361511230469e+01 -1.517047174274921417e-02 -1.779521852731704712e-01 -5.793679878115653992e-02 1.216999143362045288e-01
5.474000000000000000e+03 9.249346733093261719e+00 1.352909755706787109e+01 -1.945538818836212158e-02 2.014382742345333099e-02 2.065317530650645494e-04 2.771878056228160858e-02
5.475000000000000000e+03 7.184033203125000000e+01 1.324610424041748047e+01 2.161495685577392578e+00 3.997849941253662109e+00 1.847803711891174316e+00 -5.475878715515136719e-02
5.476000000000000000e+03 1.356444549560546875e+01 -9.786746025085449219e+00 -9.671337902545928955e-02 3.631834313273429871e-02 -1.811851188540458679e-02 -4.431609436869621277e-02
5.477000000000000000e+03 6.062657928466796875e+01 -1.373682308197021484e+01 5.567833185195922852e-01 7.888082504272460938e+00 2.533459663391113281e+00 -2.976463139057159424e-01
5.478000000000000000e+03 6.399039840698242188e+01 -1.697705078125000000e+01 -1.516187638044357300e-01 5.045996665954589844e+00 1.468313455581665039e+00 -1.649676799774169922e+00
5.479000000000000000e+03 4.509020996093750000e+01 1.860283279418945312e+01 4.527880549430847168e-01 1.175329089164733887e+00 4.884351491928100586e-01 -9.716591835021972656e-01
5.480000000000000000e+03 2.259074211120605469e+01 -1.476700496673583984e+01 -2.213254123926162720e-01 1.804720312356948853e-01 -1.225601229816675186e-02 -4.419108387082815170e-03
5.481000000000000000e+03 5.210065460205078125e+01 2.105447578430175781e+01 -7.114742398262023926e-01 6.607417106628417969e+00 1.768782854080200195e+00 -3.146218061447143555e-01
5.482000000000000000e+03 4.870007324218750000e+01 -2.402895545959472656e+01 -2.344460487365722656e-01 1.894756317138671875e+00 4.980930685997009277e-01 -2.716181278228759766e-01
5.483000000000000000e+03 4.842587280273437500e+01 -2.237178039550781250e+01 -5.102009773254394531e-01 1.687306165695190430e+00 3.531315326690673828e-01 -4.584184885025024414e-01
5.484000000000000000e+03 5.228211212158203125e+01 -2.460300254821777344e+01 -8.041220903396606445e-02 2.245153903961181641e+00 6.494225263595581055e-01 5.693913698196411133e-01
5.485000000000000000e+03 6.132363128662109375e+01 -2.291621017456054688e+01 -6.044274568557739258e-01 5.981232166290283203e+00 1.613041400909423828e+00 -8.648296594619750977e-01
5.486000000000000000e+03 6.062879562377929688e+01 -2.177938270568847656e+01 -6.826384067535400391e-01 6.350193023681640625e+00 1.700266361236572266e+00 -9.479659199714660645e-01
5.487000000000000000e+03 5.963820648193359375e+01 -2.522621345520019531e+01 -7.631742954254150391e-01 5.527822971343994141e+00 1.429394602775573730e+00 -1.309583783149719238e-01
5.488000000000000000e+03 7.016578674316406250e+01 -2.846506690979003906e+01 1.709419339895248413e-01 6.082270145416259766e+00 1.875963687896728516e+00 9.801677428185939789e-03
5.489000000000000000e+03 8.992200851440429688e+00 2.751506805419921875e+01 -1.216360926628112793e-02 -1.527991145849227905e-01 -4.948881641030311584e-02 1.870224624872207642e-01
5.490000000000000000e+03 1.054798030853271484e+01 2.787723350524902344e+01 -6.982823368161916733e-03 -1.412632912397384644e-01 -4.447383433580398560e-02 2.103228420019149780e-01
5.491000000000000000e+03 8.312273025512695312e+00 -2.359568595886230469e+01 -6.882987217977643013e-04 -8.440334349870681763e-02 -2.552749216556549072e-02 -1.210527271032333374e-01
5.492000000000000000e+03 7.233338356018066406e+00 -2.122785186767578125e+01 -8.908348158001899719e-03 -8.540727198123931885e-02 -2.829468436539173126e-02 -1.091267392039299011e-01
5.493000000000000000e+03 7.110900115966796875e+01 2.147945594787597656e+01 1.536369770765304565e-01 6.305590629577636719e+00 1.937768340110778809e+00 2.377409636974334717e-01
5.494000000000000000e+03 5.841411209106445312e+01 -4.415702819824218750e+00 6.484604477882385254e-01 5.609858512878417969e+00 1.877495646476745605e+00 -1.717928290367126465e+00
5.495000000000000000e+03 6.259476089477539062e+01 -1.788547897338867188e+01 7.720045000314712524e-02 5.977320671081542969e+00 1.816356301307678223e+00 -1.613747239112854004e+00
5.496000000000000000e+03 6.229211425781250000e+01 -1.679422378540039062e+01 2.368011474609375000e-01 6.238109588623046875e+00 1.942473173141479492e+00 -1.414535164833068848e+00
5.497000000000000000e+03 7.381683349609375000e+01 -2.086274528503417969e+01 -4.435859620571136475e-01 7.322043418884277344e+00 2.063537359237670898e+00 5.718879699707031250e-01
5.498000000000000000e+03 7.048134613037109375e+01 1.347350597381591797e+01 2.254105806350708008e+00 5.212746143341064453e+00 2.240055561065673828e+00 9.511243104934692383e-01
5.499000000000000000e+03 5.554880523681640625e+01 1.561926841735839844e+01 1.727903127670288086e+00 6.294585227966308594e+00 2.406746387481689453e+00 2.822006940841674805e+00
5.500000000000000000e+03 3.929523944854736328e+00 -2.191812515258789062e+01 -2.121193101629614830e-03 -1.571053415536880493e-01 -4.776796326041221619e-02 -7.320336252450942993e-02
5.501000000000000000e+03 5.923384094238281250e+01 -6.120759010314941406e+00 1.120560526847839355e+00 6.960463047027587891e+00 2.424307107925415039e+00 -4.135896265506744385e-01
5.502000000000000000e+03 6.093695068359375000e+01 -2.101336860656738281e+01 -6.046954989433288574e-01 6.500017166137695312e+00 1.768596529960632324e+00 -1.294700145721435547e+00
5.503000000000000000e+03 5.659708023071289062e+01 1.696316337585449219e+01 1.425997376441955566e+00 5.142944335937500000e+00 1.970682501792907715e+00 2.399161338806152344e+00
5.504000000000000000e+03 5.524696350097656250e+01 1.767573356628417969e+01 7.608338594436645508e-01 6.544601440429687500e+00 2.191630601882934570e+00 2.263905525207519531e+00
5.505000000000000000e+03 4.106652450561523438e+01 1.854509353637695312e+01 -2.371775954961776733e-01 6.870985627174377441e-01 1.349762827157974243e-01 -2.715576589107513428e-01
5.506000000000000000e+03 4.064014816284179688e+01 1.786923408508300781e+01 -4.450979828834533691e-01 5.937017202377319336e-01 4.458111524581909180e-02 -1.886454671621322632e-01
5.507000000000000000e+03 5.778635787963867188e+01 -6.015700817108154297e+00 4.684534072875976562e-01 6.516344547271728516e+00 2.095439434051513672e+00 -1.219628095626831055e+00
5.508000000000000000e+03 5.849014282226562500e+01 -4.927602291107177734e+00 7.391327619552612305e-01 5.986461162567138672e+00 2.017678022384643555e+00 -1.424201488494873047e+00
5.509000000000000000e+03 6.144388580322265625e+01 -1.830679321289062500e+01 1.190411299467086792e-01 6.622638225555419922e+00 2.022503852844238281e+00 -1.518152832984924316e+00
5.510000000000000000e+03 8.627816200256347656e+00 -7.885657310485839844e+00 -3.904709592461585999e-02 2.911467570811510086e-03 -1.084068883210420609e-02 -3.057889267802238464e-02
5.511000000000000000e+03 6.757024288177490234e+00 2.056602668762207031e+01 -4.637126624584197998e-02 -7.393879443407058716e-02 -3.609301894903182983e-02 9.441643208265304565e-02
5.512000000000000000e+03 5.589919090270996094e+00 2.137606811523437500e+01 -3.365956991910934448e-02 -1.001728400588035583e-01 -4.014972224831581116e-02 8.805933594703674316e-02
5.513000000000000000e+03 7.336593627929687500e+01 -6.994398117065429688e+00 2.100807875394821167e-01 8.052360534667968750e+00 2.478732347488403320e+00 1.664170324802398682e-01
5.514000000000000000e+03 7.570370197296142578e+00 1.115722084045410156e+01 2.684292383491992950e-02 -1.096178218722343445e-02 4.764342214912176132e-03 2.262119203805923462e-02
5.515000000000000000e+03 1.511138725280761719e+01 1.947730255126953125e+01 -2.238407135009765625e-01 4.958628118038177490e-02 -5.227633193135261536e-02 1.865748912096023560e-01
5.516000000000000000e+03 1.387419605255126953e+01 1.924304008483886719e+01 -1.903880536556243896e-01 4.655972495675086975e-02 -4.314849898219108582e-02 1.623947620391845703e-01
5.517000000000000000e+03 1.366040420532226562e+01 -8.988384246826171875e+00 -9.461829811334609985e-02 3.416934609413146973e-02 -1.813468523323535919e-02 -3.192337229847908020e-02
5.518000000000000000e+03 3.044698143005371094e+01 -1.863008689880371094e+01 -2.506237328052520752e-01 3.480981588363647461e-01 2.924232557415962219e-02 -3.234389424324035645e-02
5.519000000000000000e+03 7.203331756591796875e+01 -2.557854080200195312e+01 1.562212556600570679e-01 6.355935096740722656e+00 1.953647017478942871e+00 2.219014167785644531e-01
5.520000000000000000e+03 4.629396438598632812e+01 -1.946290206909179688e+01 -8.633949160575866699e-01 2.314743518829345703e+00 4.354045689105987549e-01 -6.442588567733764648e-01
5.521000000000000000e+03 5.700763225555419922e+00 2.704913139343261719e+01 -9.236705489456653595e-03 -1.923851072788238525e-01 -6.048654392361640930e-02 1.300220787525177002e-01
5.522000000000000000e+03 6.813724994659423828e+00 2.526564407348632812e+01 -2.572457492351531982e-02 -1.458582580089569092e-01 -5.147484689950942993e-02 1.408699005842208862e-01
5.523000000000000000e+03 2.853631210327148438e+01 -1.368946552276611328e+01 -4.608866870403289795e-01 3.187055289745330811e-01 -4.265434667468070984e-02 7.960634678602218628e-02
5.524000000000000000e+03 6.229763412475585938e+01 -1.869765853881835938e+01 -2.863620407879352570e-03 5.936016082763671875e+00 1.779945731163024902e+00 -1.690728187561035156e+00
5.525000000000000000e+03 6.335041046142578125e+01 -1.963094902038574219e+01 -2.684771083295345306e-02 5.495521068572998047e+00 1.640602111816406250e+00 -1.623308420181274414e+00
5.526000000000000000e+03 1.432379627227783203e+01 -1.065302944183349609e+01 -1.082770004868507385e-01 4.370344057679176331e-02 -1.937206834554672241e-02 -5.323875695466995239e-02
5.527000000000000000e+03 1.523800659179687500e+01 -1.072692394256591797e+01 -1.213292777538299561e-01 5.033747851848602295e-02 -2.129754051566123962e-02 -4.884024336934089661e-02
5.528000000000000000e+03 5.754677963256835938e+01 -7.212553977966308594e+00 5.249168872833251953e-01 6.988690376281738281e+00 2.254082202911376953e+00 -8.511779308319091797e-01
5.529000000000000000e+03 9.638875007629394531e+00 1.543088340759277344e+01 -5.550174415111541748e-02 1.205177232623100281e-02 -1.303499191999435425e-02 4.673449695110321045e-02
5.530000000000000000e+03 7.324553680419921875e+01 1.474981880187988281e+01 1.408285140991210938e+00 4.950353622436523438e+00 1.907591700553894043e+00 -4.202946424484252930e-01
5.531000000000000000e+03 1.589846515655517578e+01 2.019634056091308594e+01 -2.365046292543411255e-01 3.852251172065734863e-02 -5.939463526010513306e-02 2.254519909620285034e-01
5.532000000000000000e+03 1.358998394012451172e+01 1.798046112060546875e+01 -1.780632585287094116e-01 5.853088200092315674e-02 -3.585971146821975708e-02 1.220556125044822693e-01
5.533000000000000000e+03 4.333490753173828125e+01 1.992729759216308594e+01 2.817786633968353271e-01 1.115240097045898438e+00 4.191056191921234131e-01 -7.545047998428344727e-01
5.534000000000000000e+03 4.347394180297851562e+01 1.854748725891113281e+01 1.084489077329635620e-01 8.446266651153564453e-01 2.859226763248443604e-01 -5.156079530715942383e-01
5.535000000000000000e+03 5.719521045684814453e+00 -6.700345993041992188e+00 -1.720891892910003662e-02 -7.088529411703348160e-03 -7.289235014468431473e-03 -1.883819326758384705e-02
5.536000000000000000e+03 1.955982208251953125e+01 -1.497882747650146484e+01 -1.434343159198760986e-01 1.175430044531822205e-01 -7.767392788082361221e-03 -6.849796324968338013e-02
5.537000000000000000e+03 2.815812873840332031e+01 -1.418209075927734375e+01 -4.173801839351654053e-01 3.152334094047546387e-01 -3.064403310418128967e-02 6.021849438548088074e-02
5.538000000000000000e+03 6.326494598388671875e+01 -2.085420227050781250e+01 -1.189975216984748840e-01 5.509405136108398438e+00 1.617122292518615723e+00 -1.436740636825561523e+00
5.539000000000000000e+03 6.974250793457031250e+01 1.400938129425048828e+01 2.118913173675537109e+00 6.419845581054687500e+00 2.561627626419067383e+00 1.325231194496154785e+00
5.540000000000000000e+03 7.109791564941406250e+01 1.480388355255126953e+01 1.796290636062622070e+00 5.448629856109619141e+00 2.173476219177246094e+00 5.943067669868469238e-01
5.541000000000000000e+03 7.235889434814453125e+01 -2.137461853027343750e+01 -1.319990903139114380e-01 6.448239326477050781e+00 1.894872069358825684e+00 7.326536178588867188e-01
5.542000000000000000e+03 6.508605194091796875e+01 -2.151600837707519531e+01 1.917464882135391235e-01 4.805754661560058594e+00 1.499250292778015137e+00 -1.238851785659790039e+00
5.543000000000000000e+03 6.533376312255859375e+01 -2.249027442932128906e+01 1.937909871339797974e-01 4.922259807586669922e+00 1.534815192222595215e+00 -9.998189210891723633e-01
5.544000000000000000e+03 6.145135879516601562e+00 2.567241477966308594e+01 -2.046701684594154358e-02 -1.624917834997177124e-01 -5.488764122128486633e-02 1.342872530221939087e-01
5.545000000000000000e+03 7.384257507324218750e+01 1.766649818420410156e+01 7.109878063201904297e-01 5.734252452850341797e+00 1.933572053909301758e+00 2.189552411437034607e-02
5.546000000000000000e+03 7.210418701171875000e+00 1.193912982940673828e+01 1.150076650083065033e-02 -2.218540199100971222e-02 -3.205390647053718567e-03 1.835615187883377075e-02
5.547000000000000000e+03 8.821229934692382812e+00 1.386987781524658203e+01 -1.862711086869239807e-02 3.359064226970076561e-03 -4.580413922667503357e-03 3.085652925074100494e-02
5.548000000000000000e+03 4.151206588745117188e+01 1.940385437011718750e+01 -4.290597885847091675e-02 7.936094403266906738e-01 2.252110391855239868e-01 -3.981206417083740234e-01
5.549000000000000000e+03 4.242336654663085938e+01 1.963456153869628906e+01 1.000005602836608887e-01 9.386072754859924316e-01 3.115823566913604736e-01 -5.118038654327392578e-01
5.550000000000000000e+03 2.526637077331542969e+01 -1.573746490478515625e+01 -2.896576225757598877e-01 2.853098511695861816e-01 -1.304327044636011124e-03 -4.742133314721286297e-04
5.551000000000000000e+03 7.055042266845703125e+01 -2.156301498413085938e+01 2.668514251708984375e-01 5.284255981445312500e+00 1.665332198143005371e+00 5.205649137496948242e-01
5.552000000000000000e+03 6.130615234375000000e+01 -1.407982158660888672e+01 2.946670651435852051e-01 7.333446025848388672e+00 2.288434028625488281e+00 -5.235466361045837402e-01
5.553000000000000000e+03 4.565159988403320312e+01 1.980315208435058594e+01 4.161957204341888428e-01 1.929643988609313965e+00 7.037519216537475586e-01 -1.314383745193481445e+00
5.554000000000000000e+03 1.340632915496826172e+01 1.997231674194335938e+01 -1.709190756082534790e-01 2.691941522061824799e-02 -4.319989681243896484e-02 1.768919378519058228e-01
5.555000000000000000e+03 6.736402988433837891e+00 2.375919532775878906e+01 -3.679301962256431580e-02 -1.203026846051216125e-01 -4.712871089577674866e-02 1.302084028720855713e-01
5.556000000000000000e+03 6.299729347229003906e+00 2.465794944763183594e+01 -2.744231000542640686e-02 -1.445648521184921265e-01 -5.160215124487876892e-02 1.274721175432205200e-01
5.557000000000000000e+03 7.423471069335937500e+01 1.812763595581054688e+01 5.879327654838562012e-01 5.838534832000732422e+00 1.927940249443054199e+00 4.276582598686218262e-02
5.558000000000000000e+03 1.220673847198486328e+01 -7.983905792236328125e+00 -7.079909741878509521e-02 2.235205285251140594e-02 -1.453411392867565155e-02 -2.700461819767951965e-02
5.559000000000000000e+03 1.328399753570556641e+01 -7.303025245666503906e+00 -7.698977738618850708e-02 2.362273447215557098e-02 -1.601011306047439575e-02 -1.608320139348506927e-02
5.560000000000000000e+03 6.363629150390625000e+01 1.995884132385253906e+01 8.869844079017639160e-01 5.042652606964111328e+00 1.778891086578369141e+00 -6.596857905387878418e-01
5.561000000000000000e+03 7.113744354248046875e+01 1.408560943603515625e+01 2.043557882308959961e+00 4.996780872344970703e+00 2.112101554870605469e+00 5.837151408195495605e-01
5.562000000000000000e+03 5.849491500854492188e+01 -3.960419893264770508e+00 6.657809615135192871e-01 5.305954456329345703e+00 1.791520714759826660e+00 -1.849492549896240234e+00
5.563000000000000000e+03 5.613521957397460938e+01 1.783542251586914062e+01 1.062801599502563477e+00 5.744520664215087891e+00 2.042196512222290039e+00 2.230221986770629883e+00
5.564000000000000000e+03 7.450432586669921875e+01 -2.325793266296386719e+01 -1.072401255369186401e-01 7.229631423950195312e+00 2.136717319488525391e+00 3.038286566734313965e-01
5.565000000000000000e+03 4.965321063995361328e+00 -8.492046356201171875e+00 -1.587750762701034546e-02 -1.492211688309907913e-02 -9.239886887371540070e-03 -2.629743702709674835e-02
5.566000000000000000e+03 6.057079315185546875e+01 1.978928184509277344e+01 1.381177544593811035e+00 4.070237159729003906e+00 1.635424375534057617e+00 3.931636810302734375e-01
5.567000000000000000e+03 7.320048522949218750e+01 1.631929588317871094e+01 1.060065507888793945e+00 5.506973743438720703e+00 1.970111846923828125e+00 -1.713560707867145538e-02
5.568000000000000000e+03 7.444075775146484375e+01 1.590955448150634766e+01 8.683961629867553711e-01 5.512376308441162109e+00 1.914231657981872559e+00 -3.984620273113250732e-01
5.569000000000000000e+03 7.385900115966796875e+01 2.026738929748535156e+01 2.997067272663116455e-01 6.051126956939697266e+00 1.905250072479248047e+00 1.900005042552947998e-01
5.570000000000000000e+03 3.817664718627929688e+01 -2.040360069274902344e+01 -2.246130853891372681e-01 1.424326896667480469e+00 3.599141538143157959e-01 9.432662129402160645e-01
5.571000000000000000e+03 3.738355255126953125e+01 -2.109121704101562500e+01 -5.464986711740493774e-02 1.172088384628295898e+00 3.352315425872802734e-01 7.866277694702148438e-01
5.572000000000000000e+03 5.404397010803222656e+00 1.933502769470214844e+01 -2.971925213932991028e-02 -7.722274959087371826e-02 -3.208259865641593933e-02 6.407951563596725464e-02
5.573000000000000000e+03 5.264035224914550781e+00 -1.175717735290527344e+01 -1.933568716049194336e-02 -2.958453446626663208e-02 -1.467606704682111740e-02 -4.713567346334457397e-02
5.574000000000000000e+03 5.833187580108642578e+00 -1.264072227478027344e+01 -2.195506170392036438e-02 -3.253377601504325867e-02 -1.634665206074714661e-02 -5.639183893799781799e-02
5.575000000000000000e+03 7.744712352752685547e+00 -6.627571105957031250e+00 -2.842579782009124756e-02 -9.336551011074334383e-05 -8.555749431252479553e-03 -2.196270599961280823e-02
5.576000000000000000e+03 6.452325820922851562e+00 1.766737365722656250e+01 -3.595428913831710815e-02 -4.893172904849052429e-02 -2.546580508351325989e-02 5.757543072104454041e-02
5.577000000000000000e+03 1.345459556579589844e+01 -6.282287597656250000e+00 -6.979788839817047119e-02 1.934620738029479980e-02 -1.513550337404012680e-02 -4.921150859445333481e-03
5.578000000000000000e+03 7.414237213134765625e+01 -2.146238327026367188e+01 -3.067249357700347900e-01 7.285810947418212891e+00 2.093725919723510742e+00 3.969239592552185059e-01
5.579000000000000000e+03 6.408712387084960938e+00 -2.115895462036132812e+01 -7.385306991636753082e-03 -1.003683134913444519e-01 -3.232608735561370850e-02 -1.039652898907661438e-01
5.580000000000000000e+03 5.377517700195312500e+00 -1.411097812652587891e+01 -1.743608526885509491e-02 -4.771537706255912781e-02 -1.954543776810169220e-02 -6.157383322715759277e-02
5.581000000000000000e+03 5.550018310546875000e+00 -1.480338287353515625e+01 -1.722831837832927704e-02 -5.290986597537994385e-02 -2.104145474731922150e-02 -6.764122098684310913e-02
5.582000000000000000e+03 3.706338500976562500e+01 1.901094436645507812e+01 -3.827919960021972656e-01 1.132668778300285339e-01 -8.085753768682479858e-02 -5.958608165383338928e-02
5.583000000000000000e+03 2.780925559997558594e+01 -1.474864387512207031e+01 -4.122010767459869385e-01 3.274443149566650391e-01 -2.542702667415142059e-02 3.203138709068298340e-02
5.584000000000000000e+03 6.567390441894531250e+00 1.155753517150878906e+01 1.969642564654350281e-02 -2.494854107499122620e-02 -1.575634698383510113e-03 2.382315136492252350e-02
5.585000000000000000e+03 5.204438209533691406e+00 1.246274375915527344e+01 6.155193783342838287e-03 -4.282307997345924377e-02 -1.100036595016717911e-02 2.047595195472240448e-02
5.586000000000000000e+03 7.456407928466796875e+01 -1.970577621459960938e+01 -6.434658765792846680e-01 7.898914813995361328e+00 2.176634550094604492e+00 3.210594952106475830e-01
5.587000000000000000e+03 6.185236930847167969e+00 -1.865968704223632812e+01 -1.327191200107336044e-02 -7.998201251029968262e-02 -2.797617763280868530e-02 -9.216956049203872681e-02
5.588000000000000000e+03 5.321510314941406250e+00 -1.870780372619628906e+01 -1.026472542434930801e-02 -9.355033934116363525e-02 -3.114452026784420013e-02 -8.428028970956802368e-02
5.589000000000000000e+03 5.625601577758789062e+01 -3.120459556579589844e+00 -1.044443130493164062e+00 5.579780578613281250e+00 1.360601186752319336e+00 -3.975130558013916016e+00
5.590000000000000000e+03 2.979371833801269531e+01 2.115502929687500000e+01 -3.478706479072570801e-01 2.453462220728397369e-02 -9.700080752372741699e-02 3.142049312591552734e-01
5.591000000000000000e+03 7.186066436767578125e+01 1.402860260009765625e+01 1.955248355865478516e+00 4.670711040496826172e+00 1.987787842750549316e+00 7.443731278181076050e-02
5.592000000000000000e+03 8.035862922668457031e+00 -2.121120262145996094e+01 -1.130909472703933716e-02 -7.445648312568664551e-02 -2.572967298328876495e-02 -1.165331676602363586e-01
5.593000000000000000e+03 7.191776275634765625e+00 -2.034281158447265625e+01 -1.265317481011152267e-02 -7.963936775922775269e-02 -2.768776193261146545e-02 -1.078137382864952087e-01
5.594000000000000000e+03 6.145301342010498047e+00 1.463264179229736328e+01 -1.193752139806747437e-02 -3.753516077995300293e-02 -1.484180428087711334e-02 2.759167924523353577e-02
5.595000000000000000e+03 4.663417339324951172e+00 1.419152259826660156e+01 -5.495752207934856415e-03 -4.602812603116035461e-02 -1.545716356486082077e-02 2.199000120162963867e-02
5.596000000000000000e+03 7.206359100341796875e+01 2.037247657775878906e+01 2.884074747562408447e-01 6.222903251647949219e+00 1.953393220901489258e+00 2.654978930950164795e-01
5.597000000000000000e+03 5.886113357543945312e+01 1.821358108520507812e+01 1.629710316658020020e+00 3.764650344848632812e+00 1.618308186531066895e+00 1.305047988891601562e+00
5.598000000000000000e+03 6.184599876403808594e+00 1.591277503967285156e+01 -2.490574494004249573e-02 -4.008083045482635498e-02 -1.949597150087356567e-02 3.489475324749946594e-02
5.599000000000000000e+03 4.950744152069091797e+00 -9.982075691223144531e+00 -1.662725768983364105e-02 -2.174494974315166473e-02 -1.151166204363107681e-02 -3.468606248497962952e-02
5.600000000000000000e+03 5.208721637725830078e+00 -1.112792396545410156e+01 -1.842613890767097473e-02 -2.621491812169551849e-02 -1.339231710880994797e-02 -4.328809678554534912e-02
5.601000000000000000e+03 1.040210819244384766e+01 1.606307601928710938e+01 -7.577860355377197266e-02 2.121574990451335907e-02 -1.636885665357112885e-02 5.869639664888381958e-02
5.602000000000000000e+03 6.774768066406250000e+01 -2.232215690612792969e+01 4.803734421730041504e-01 4.644443035125732422e+00 1.537444949150085449e+00 -4.184369742870330811e-01
5.603000000000000000e+03 2.283661460876464844e+01 -1.592484855651855469e+01 -2.079022526741027832e-01 2.081573605537414551e-01 7.653296779608353972e-05 -3.178641200065612793e-02
5.604000000000000000e+03 2.380201530456542969e+01 -1.449849700927734375e+01 -2.606784701347351074e-01 2.211713492870330811e-01 -1.185213867574930191e-02 2.691238559782505035e-02
5.605000000000000000e+03 2.197443580627441406e+01 -1.614816856384277344e+01 -1.884418576955795288e-01 1.925805807113647461e-01 1.241614343598484993e-03 -5.360457301139831543e-02
5.606000000000000000e+03 6.578133392333984375e+01 -2.112618446350097656e+01 2.971426844596862793e-01 4.553925991058349609e+00 1.455320596694946289e+00 -1.132719874382019043e+00
5.607000000000000000e+03 6.843158721923828125e+01 -2.297199440002441406e+01 4.215436577796936035e-01 4.919705867767333984e+00 1.602374911308288574e+00 -2.095290869474411011e-01
5.608000000000000000e+03 2.952070426940917969e+01 -1.614639663696289062e+01 -4.055860936641693115e-01 3.196778297424316406e-01 -2.577247284352779388e-02 -7.711426820605993271e-03
5.609000000000000000e+03 3.057516479492187500e+01 -1.683172416687011719e+01 -3.886470496654510498e-01 3.112300336360931396e-01 -2.322510629892349243e-02 -1.545714959502220154e-02
5.610000000000000000e+03 7.308576202392578125e+01 -2.729965209960937500e+01 1.274297833442687988e-01 6.700354099273681641e+00 2.048335313796997070e+00 1.863757222890853882e-01
5.611000000000000000e+03 6.190865516662597656e+00 2.884263420104980469e+01 1.829971559345722198e-03 -2.181069254875183105e-01 -6.488308310508728027e-02 1.397268325090408325e-01
5.612000000000000000e+03 2.780011367797851562e+01 2.072900009155273438e+01 -4.531719684600830078e-01 -1.376606873236596584e-03 -1.363645642995834351e-01 2.946171462535858154e-01
5.613000000000000000e+03 4.919248962402343750e+01 2.110944747924804688e+01 -3.522816300392150879e-01 4.881524562835693359e+00 1.358772873878479004e+00 -1.578402876853942871e+00
5.614000000000000000e+03 4.964780807495117188e+01 2.012662124633789062e+01 -4.094412624835968018e-01 5.638182163238525391e+00 1.568622350692749023e+00 -1.726859211921691895e+00
5.615000000000000000e+03 6.061193847656250000e+01 -2.494197654724121094e+01 -6.626143455505371094e-01 5.611214160919189453e+00 1.484579920768737793e+00 -3.390376269817352295e-01
5.616000000000000000e+03 5.092473220825195312e+01 2.150896072387695312e+01 -6.513198018074035645e-01 5.984486579895019531e+00 1.599950075149536133e+00 -8.386599421501159668e-01
5.617000000000000000e+03 5.015700149536132812e+01 1.979207611083984375e+01 -5.916316509246826172e-01 6.484557628631591797e+00 1.767877817153930664e+00 -1.535441279411315918e+00
5.618000000000000000e+03 2.221432685852050781e+01 2.308880805969238281e+01 -1.758046895265579224e-01 -1.224124357104301453e-01 -8.946514129638671875e-02 3.614036440849304199e-01
5.619000000000000000e+03 6.747139739990234375e+01 2.542151451110839844e+01 3.970598056912422180e-02 5.979039192199707031e+00 1.805623531341552734e+00 5.854923650622367859e-02
5.620000000000000000e+03 6.826689910888671875e+01 -2.888057518005371094e+01 1.348814517259597778e-01 5.793060302734375000e+00 1.778382539749145508e+00 -1.067735105752944946e-01
5.621000000000000000e+03 4.254772949218750000e+01 -2.138669204711914062e+01 -9.798407554626464844e-01 2.976600408554077148e+00 5.990278720855712891e-01 6.500093638896942139e-02
5.622000000000000000e+03 2.473356628417968750e+01 2.522041130065917969e+01 1.230005919933319092e-02 -6.783133000135421753e-02 -1.665938273072242737e-02 3.069904744625091553e-01
5.623000000000000000e+03 9.065577507019042969e+00 2.603633117675781250e+01 -3.053585067391395569e-02 -1.295194178819656372e-01 -4.801658168435096741e-02 1.847815960645675659e-01
5.624000000000000000e+03 4.036673736572265625e+01 -2.277576065063476562e+01 -5.638389587402343750e-01 2.293307781219482422e+00 5.188406705856323242e-01 5.103165507316589355e-01
5.625000000000000000e+03 4.056875991821289062e+01 -2.393510055541992188e+01 -5.172135829925537109e-01 2.151783466339111328e+00 4.903709590435028076e-01 2.583962082862854004e-01
5.626000000000000000e+03 3.883887863159179688e+01 -2.291741371154785156e+01 -3.288893103599548340e-01 1.823059558868408203e+00 4.482510983943939209e-01 5.702618360519409180e-01
5.627000000000000000e+03 7.055494785308837891e+00 -7.314626693725585938e+00 -2.637208625674247742e-02 -3.641413291916251183e-03 -9.004049934446811676e-03 -2.528291940689086914e-02
5.628000000000000000e+03 7.156191349029541016e+00 -6.542309284210205078e+00 -2.466655150055885315e-02 -2.019343199208378792e-03 -8.005768060684204102e-03 -1.993219740688800812e-02
5.629000000000000000e+03 6.867073822021484375e+01 -2.426361656188964844e+01 3.584334850311279297e-01 5.277238845825195312e+00 1.690701723098754883e+00 -1.165620982646942139e-01
5.630000000000000000e+03 6.913556671142578125e+01 -2.350619697570800781e+01 3.649879992008209229e-01 5.256099700927734375e+00 1.686326384544372559e+00 -1.975974626839160919e-02
5.631000000000000000e+03 7.109684753417968750e+01 1.845420455932617188e+01 5.514833331108093262e-01 6.354383468627929688e+00 2.071760177612304688e+00 4.208028912544250488e-01
5.632000000000000000e+03 1.093715572357177734e+01 1.778639984130859375e+01 -1.098533198237419128e-01 2.297603525221347809e-02 -2.606318704783916473e-02 9.560243040323257446e-02
5.633000000000000000e+03 1.114699840545654297e+01 1.692969322204589844e+01 -1.025194898247718811e-01 2.817131578922271729e-02 -2.230445295572280884e-02 7.744538038969039917e-02
5.634000000000000000e+03 7.433589935302734375e+01 -2.503950309753417969e+01 1.496537867933511734e-02 7.063445568084716797e+00 2.123523235321044922e+00 2.599815130233764648e-01
5.635000000000000000e+03 7.322137451171875000e+01 -2.508058166503906250e+01 7.008972018957138062e-02 6.703254699707031250e+00 2.032003402709960938e+00 2.888380885124206543e-01
5.636000000000000000e+03 7.212868499755859375e+01 1.872027206420898438e+01 5.591008663177490234e-01 6.131434917449951172e+00 2.007160902023315430e+00 3.232292234897613525e-01
5.637000000000000000e+03 2.759777069091796875e+01 2.185774421691894531e+01 -3.092894554138183594e-01 -2.707558311522006989e-02 -1.009095162153244019e-01 2.840340733528137207e-01
5.638000000000000000e+03 5.748582077026367188e+01 -5.029305458068847656e+00 1.864404082298278809e-01 6.054137229919433594e+00 1.872173309326171875e+00 -1.886683106422424316e+00
5.639000000000000000e+03 5.728985977172851562e+01 -4.399910449981689453e+00 -4.660506546497344971e-02 5.640262603759765625e+00 1.678097367286682129e+00 -2.442951202392578125e+00
5.640000000000000000e+03 5.719029235839843750e+01 -3.743278503417968750e+00 -2.062559723854064941e-01 5.328247547149658203e+00 1.536597490310668945e+00 -2.948051452636718750e+00
5.641000000000000000e+03 7.310215759277343750e+01 -2.188340950012207031e+01 -2.063073515892028809e-01 6.805296897888183594e+00 1.979696869850158691e+00 5.396207571029663086e-01
5.642000000000000000e+03 6.853385925292968750e+01 2.050710105895996094e+01 1.231566667556762695e-01 6.519386768341064453e+00 1.992763042449951172e+00 6.867593154311180115e-03
5.643000000000000000e+03 6.772902679443359375e+01 2.004009819030761719e+01 1.319012641906738281e-01 6.548427104949951172e+00 2.004098653793334961e+00 -1.748164892196655273e-01
5.644000000000000000e+03 1.734216499328613281e+01 -1.272291851043701172e+01 -1.439778804779052734e-01 7.054366916418075562e-02 -2.203026227653026581e-02 -6.680803000926971436e-02
5.645000000000000000e+03 1.650656700134277344e+01 -1.143685436248779297e+01 -1.405596286058425903e-01 5.875691398978233337e-02 -2.454081363976001740e-02 -5.354160070419311523e-02
5.646000000000000000e+03 6.366519451141357422e+00 -2.031765174865722656e+01 -9.606102481484413147e-03 -9.324830770492553711e-02 -3.085632249712944031e-02 -9.961648285388946533e-02
5.647000000000000000e+03 7.179407501220703125e+01 1.552304172515869141e+01 1.473727822303771973e+00 5.476920127868652344e+00 2.085194349288940430e+00 3.248689472675323486e-01
5.648000000000000000e+03 7.183718109130859375e+01 1.479084968566894531e+01 1.726977109909057617e+00 5.081565856933593750e+00 2.042562961578369141e+00 2.671664953231811523e-01
5.649000000000000000e+03 1.000982856750488281e+01 -7.182401657104492188e+00 -4.670889303088188171e-02 9.816362522542476654e-03 -1.106775924563407898e-02 -2.512097544968128204e-02
5.650000000000000000e+03 1.132217025756835938e+01 -6.612441062927246094e+00 -5.458815395832061768e-02 1.454351563006639481e-02 -1.201339066028594971e-02 -1.708974130451679230e-02
5.651000000000000000e+03 7.551679134368896484e+00 1.309549808502197266e+01 -4.003857262432575226e-03 -1.586900651454925537e-02 -5.961859133094549179e-03 2.046613767743110657e-02
5.652000000000000000e+03 6.849974155426025391e+00 1.275607204437255859e+01 5.639651790261268616e-03 -2.010420709848403931e-02 -4.339366685599088669e-03 2.416525036096572876e-02
5.653000000000000000e+03 1.814161109924316406e+01 -1.408924007415771484e+01 -1.341308504343032837e-01 8.834217488765716553e-02 -1.373660378158092499e-02 -7.134694606065750122e-02
5.654000000000000000e+03 1.346040630340576172e+01 -1.057248592376708984e+01 -9.631456434726715088e-02 3.831164166331291199e-02 -1.740087755024433136e-02 -5.312332510948181152e-02
5.655000000000000000e+03 6.366452789306640625e+01 -2.163468360900878906e+01 -9.736542403697967529e-02 5.331861972808837891e+00 1.570348858833312988e+00 -1.382938504219055176e+00
5.656000000000000000e+03 7.794559478759765625e+00 -7.325339317321777344e+00 -3.072413802146911621e-02 -1.039842027239501476e-03 -9.529193863272666931e-03 -2.596425637602806091e-02
5.657000000000000000e+03 4.076820755004882812e+01 1.903293609619140625e+01 -1.990182995796203613e-01 6.609655618667602539e-01 1.385841816663742065e-01 -2.690609097480773926e-01
5.658000000000000000e+03 1.312044715881347656e+01 1.875600624084472656e+01 -1.664445847272872925e-01 4.088580608367919922e-02 -3.766763582825660706e-02 1.389297097921371460e-01
5.659000000000000000e+03 2.675973892211914062e+01 -1.619962120056152344e+01 -3.100495338439941406e-01 3.165772259235382080e-01 1.958308741450309753e-03 -8.421554230153560638e-03
5.660000000000000000e+03 5.969647407531738281e+00 1.676375961303710938e+01 -2.689102105796337128e-02 -4.588749632239341736e-02 -2.183355577290058136e-02 4.480390995740890503e-02
5.661000000000000000e+03 5.298734188079833984e+00 1.419866466522216797e+01 -3.057128982618451118e-03 -4.500019177794456482e-02 -1.441719662398099899e-02 2.308644354343414307e-02
5.662000000000000000e+03 1.887526702880859375e+01 -1.443656539916992188e+01 -1.510385870933532715e-01 1.022782921791076660e-01 -1.462808623909950256e-02 -7.113866508007049561e-02
5.663000000000000000e+03 6.195060729980468750e+00 1.228548908233642578e+01 8.285991847515106201e-03 -3.455564752221107483e-02 -7.880896329879760742e-03 2.031369134783744812e-02
5.664000000000000000e+03 5.372097969055175781e+00 1.356965065002441406e+01 -3.086981596425175667e-03 -4.010445252060890198e-02 -1.295742951333522797e-02 2.104236371815204620e-02
5.665000000000000000e+03 6.370495319366455078e+00 1.346690845489501953e+01 -3.417170839384198189e-03 -3.340499103069305420e-02 -1.104664895683526993e-02 2.292656153440475464e-02
5.666000000000000000e+03 4.741235733032226562e+01 -2.020385742187500000e+01 -8.570919632911682129e-01 1.875160813331604004e+00 3.054206371307373047e-01 -6.163343787193298340e-01
5.667000000000000000e+03 5.816976547241210938e+00 -9.145350456237792969e+00 -2.180343307554721832e-02 -1.375235524028539658e-02 -1.066673640161752701e-02 -3.301250934600830078e-02
5.668000000000000000e+03 5.837329864501953125e+01 1.911783790588378906e+01 1.352434992790222168e+00 4.296774387359619141e+00 1.694762825965881348e+00 1.338826656341552734e+00
5.669000000000000000e+03 6.695242881774902344e+00 1.831993484497070312e+01 -4.313601180911064148e-02 -4.767271131277084351e-02 -2.724261768162250519e-02 6.482484191656112671e-02
5.670000000000000000e+03 6.814203739166259766e+00 -1.267423057556152344e+01 -2.835614234209060669e-02 -2.564308233559131622e-02 -1.619976758956909180e-02 -6.321498751640319824e-02
5.671000000000000000e+03 7.203244686126708984e+00 -1.440792179107666016e+01 -2.896691672503948212e-02 -3.216315805912017822e-02 -1.833902299404144287e-02 -7.866845279932022095e-02
5.672000000000000000e+03 7.389359283447265625e+01 1.658726882934570312e+01 8.826270103454589844e-01 5.550683498382568359e+00 1.929993152618408203e+00 -1.655684113502502441e-01
5.673000000000000000e+03 7.328064727783203125e+01 1.553994464874267578e+01 1.205041527748107910e+00 5.308775901794433594e+00 1.954145193099975586e+00 -2.321658581495285034e-01
5.674000000000000000e+03 6.365314960479736328e+00 -7.054223060607910156e+00 -2.123868837952613831e-02 -5.766637623310089111e-03 -8.101597428321838379e-03 -2.212582714855670929e-02
5.675000000000000000e+03 5.109846115112304688e+00 -7.924610137939453125e+00 -1.614931225776672363e-02 -1.185400225222110748e-02 -8.400994352996349335e-03 -2.335672266781330109e-02
5.676000000000000000e+03 7.676617622375488281e+00 -1.610321807861328125e+01 -2.774824388325214386e-02 -3.854440525174140930e-02 -1.988779567182064056e-02 -9.354212880134582520e-02
5.677000000000000000e+03 6.160525894165039062e+01 -2.136947059631347656e+01 -4.188356399536132812e-01 6.059475421905517578e+00 1.692191958427429199e+00 -1.285804986953735352e+00
5.678000000000000000e+03 6.136280822753906250e+01 -2.027459907531738281e+01 -3.095282018184661865e-01 6.267342090606689453e+00 1.787344217300415039e+00 -1.489014267921447754e+00
5.679000000000000000e+03 5.900843620300292969e+00 -1.095488357543945312e+01 -2.327661775052547455e-02 -2.166109345853328705e-02 -1.348131336271762848e-02 -4.526508972048759460e-02
5.680000000000000000e+03 1.451262474060058594e+01 1.974871635437011719e+01 -2.061903774738311768e-01 4.270474612712860107e-02 -4.904568940401077271e-02 1.878359764814376831e-01
5.681000000000000000e+03 6.511063575744628906e+00 2.221783828735351562e+01 -4.032576829195022583e-02 -1.014151275157928467e-01 -4.252226650714874268e-02 1.100974828004837036e-01
5.682000000000000000e+03 7.239117431640625000e+01 1.772475624084472656e+01 7.818937301635742188e-01 5.973677635192871094e+00 2.026671409606933594e+00 3.120868504047393799e-01
5.683000000000000000e+03 7.298741149902343750e+01 1.699696540832519531e+01 9.110121130943298340e-01 5.715874195098876953e+00 1.988065838813781738e+00 1.084888875484466553e-01
5.684000000000000000e+03 3.099483299255371094e+01 -1.973632049560546875e+01 -1.707379519939422607e-01 3.833107352256774902e-01 6.377182900905609131e-02 -4.255990497767925262e-03
5.685000000000000000e+03 3.131176757812500000e+01 -1.894157028198242188e+01 -1.908759921789169312e-01 3.519915342330932617e-01 4.833465814590454102e-02 -1.105826013372279704e-04
5.686000000000000000e+03 1.948882675170898438e+01 -1.654092216491699219e+01 -1.267483532428741455e-01 1.375300884246826172e-01 3.234520554542541504e-03 -9.179507941007614136e-02
5.687000000000000000e+03 2.082789230346679688e+01 -1.494180202484130859e+01 -1.650011390447616577e-01 1.358990818262100220e-01 -8.730616420507431030e-03 -4.496197775006294250e-02
5.688000000000000000e+03 1.563367557525634766e+01 2.159539222717285156e+01 -2.020817995071411133e-01 1.058089826256036758e-02 -5.745027214288711548e-02 2.643521130084991455e-01
5.689000000000000000e+03 7.076969909667968750e+01 -2.232802009582519531e+01 2.391207963228225708e-01 5.576981544494628906e+00 1.744830727577209473e+00 4.095754325389862061e-01
5.690000000000000000e+03 7.458022308349609375e+01 -4.720769405364990234e+00 -2.054374516010284424e-01 6.916116714477539062e+00 2.013203859329223633e+00 6.649923324584960938e-01
5.691000000000000000e+03 1.499862289428710938e+01 -1.170476245880126953e+01 -1.182427704334259033e-01 5.161854997277259827e-02 -1.998726837337017059e-02 -6.496373564004898071e-02
5.692000000000000000e+03 7.040232086181640625e+01 2.128869628906250000e+01 1.427167952060699463e-01 6.346777439117431641e+00 1.946848273277282715e+00 2.171211391687393188e-01
5.693000000000000000e+03 6.344354629516601562e+00 -2.202059555053710938e+01 -3.839757991954684258e-03 -1.130047142505645752e-01 -3.505334258079528809e-02 -1.034374758601188660e-01
5.694000000000000000e+03 9.114594459533691406e+00 2.461000061035156250e+01 -4.847470298409461975e-02 -1.035369113087654114e-01 -4.560348391532897949e-02 1.772082298994064331e-01
5.695000000000000000e+03 8.027718544006347656e+00 1.614984321594238281e+01 -4.357654228806495667e-02 -1.570356637239456177e-02 -1.778403297066688538e-02 5.073205381631851196e-02
5.696000000000000000e+03 8.997171401977539062e+00 1.534847354888916016e+01 -4.597020149230957031e-02 5.715430714190006256e-03 -1.207643095403909683e-02 4.602967202663421631e-02
5.697000000000000000e+03 6.264767456054687500e+01 -2.012138748168945312e+01 -1.403337419033050537e-01 5.684610366821289062e+00 1.663282990455627441e+00 -1.631154656410217285e+00
5.698000000000000000e+03 7.464671134948730469e+00 1.399901580810546875e+01 -1.070748828351497650e-02 -1.654542237520217896e-02 -8.175873197615146637e-03 3.022398427128791809e-02
5.699000000000000000e+03 2.802959632873535156e+01 -1.325417804718017578e+01 -4.230965673923492432e-01 3.141645193099975586e-01 -3.267962113022804260e-02 8.938030153512954712e-02
5.700000000000000000e+03 1.239343261718750000e+01 1.831928634643554688e+01 -1.465191692113876343e-01 3.904806077480316162e-02 -3.224133327603340149e-02 1.207738071680068970e-01
5.701000000000000000e+03 6.360379028320312500e+01 2.131449890136718750e+01 7.004192471504211426e-01 5.217348098754882812e+00 1.775330185890197754e+00 -3.522202074527740479e-01
5.702000000000000000e+03 3.679823303222656250e+01 -2.192493247985839844e+01 -9.203588217496871948e-02 1.072899937629699707e+00 2.942592203617095947e-01 5.709856748580932617e-01
5.703000000000000000e+03 4.725667572021484375e+01 -2.395485305786132812e+01 -3.623109757900238037e-01 2.036834001541137695e+00 5.023568868637084961e-01 -3.821321427822113037e-01
5.704000000000000000e+03 4.510912704467773438e+01 -2.273016738891601562e+01 -7.316812276840209961e-01 2.434348583221435547e+00 5.108001828193664551e-01 -4.030821025371551514e-01
5.705000000000000000e+03 6.799130249023437500e+01 -2.671309280395507812e+01 2.067895531654357910e-01 5.576099872589111328e+00 1.734866857528686523e+00 -2.023546397686004639e-01
5.706000000000000000e+03 1.360803031921386719e+01 -2.508933258056640625e+01 1.720145903527736664e-02 2.903465367853641510e-02 1.387083344161510468e-02 -1.477093249559402466e-01
5.707000000000000000e+03 6.306371307373046875e+01 -2.331614875793457031e+01 -2.473580539226531982e-01 5.483639240264892578e+00 1.570884346961975098e+00 -9.807789921760559082e-01
5.708000000000000000e+03 2.909615135192871094e+01 2.377097129821777344e+01 -7.083498686552047729e-02 3.740764036774635315e-02 -1.002820394933223724e-02 2.423364371061325073e-01
5.709000000000000000e+03 6.571686553955078125e+01 2.521838378906250000e+01 1.351233422756195068e-01 5.768276214599609375e+00 1.771019816398620605e+00 1.068512070924043655e-02
5.710000000000000000e+03 6.688919830322265625e+01 2.435787391662597656e+01 1.030969023704528809e-01 5.950539112091064453e+00 1.816090822219848633e+00 -1.341056730598211288e-02
5.711000000000000000e+03 4.824272155761718750e+01 2.247010993957519531e+01 -1.606584340333938599e-01 4.098321914672851562e+00 1.181298971176147461e+00 -1.424621224403381348e+00
5.712000000000000000e+03 3.811375427246093750e+01 -2.360451698303222656e+01 -2.394797354936599731e-01 1.548839092254638672e+00 3.928078114986419678e-01 4.777693152427673340e-01
5.713000000000000000e+03 5.070349121093750000e+01 2.298634147644042969e+01 -4.995682239532470703e-01 5.365527153015136719e+00 1.459787726402282715e+00 -8.149638772010803223e-01
5.714000000000000000e+03 6.763427734375000000e+01 2.245046043395996094e+01 1.241602078080177307e-01 6.155815124511718750e+00 1.883992552757263184e+00 -6.025008484721183777e-02
5.715000000000000000e+03 6.805638122558593750e+01 2.117214584350585938e+01 1.233083754777908325e-01 6.353311538696289062e+00 1.942986011505126953e+00 -6.821385771036148071e-02
5.716000000000000000e+03 9.688741683959960938e+00 -2.024952888488769531e+01 -2.006259560585021973e-02 -3.354413807392120361e-02 -1.608202047646045685e-02 -1.266193240880966187e-01
5.717000000000000000e+03 4.403208541870117188e+01 -2.459014320373535156e+01 -5.497667193412780762e-01 2.329268455505371094e+00 5.338505506515502930e-01 -1.897148489952087402e-01
5.718000000000000000e+03 4.819777297973632812e+01 -2.600991249084472656e+01 -1.237058788537979126e-01 2.125212907791137695e+00 6.004520654678344727e-01 -1.690110117197036743e-01
5.719000000000000000e+03 4.938730239868164062e+01 2.275349998474121094e+01 -3.700509667396545410e-01 4.737770557403564453e+00 1.310315966606140137e+00 -1.192676305770874023e+00
5.720000000000000000e+03 1.747756767272949219e+01 -1.372410297393798828e+01 -1.378297060728073120e-01 7.978705316781997681e-02 -1.741279847919940948e-02 -7.875947654247283936e-02
5.721000000000000000e+03 9.580615043640136719e+00 1.686326408386230469e+01 -7.329791784286499023e-02 4.240471404045820236e-03 -2.071723341941833496e-02 6.577388197183609009e-02
5.722000000000000000e+03 2.842081642150878906e+01 -1.649163627624511719e+01 -3.454273939132690430e-01 3.350801169872283936e-01 -3.104182891547679901e-03 -1.875375583767890930e-02
5.723000000000000000e+03 2.911681938171386719e+01 -1.549514102935791016e+01 -4.343312084674835205e-01 3.214623332023620605e-01 -3.386066108942031860e-02 2.036316692829132080e-02
5.724000000000000000e+03 1.208725738525390625e+01 -8.844276428222656250e+00 -7.540107518434524536e-02 2.478259429335594177e-02 -1.518554333597421646e-02 -3.590492531657218933e-02
5.725000000000000000e+03 1.141897487640380859e+01 -8.006993293762207031e+00 -6.338041275739669800e-02 1.836323365569114685e-02 -1.350515242666006088e-02 -2.916792221367359161e-02
5.726000000000000000e+03 7.241751861572265625e+01 -2.461459159851074219e+01 1.150308474898338318e-01 6.451690196990966797e+00 1.970016241073608398e+00 3.024347424507141113e-01
5.727000000000000000e+03 6.233997344970703125e+01 2.131161499023437500e+01 8.962001800537109375e-01 4.840558528900146484e+00 1.721027612686157227e+00 -1.266788095235824585e-01
5.728000000000000000e+03 7.166616821289062500e+01 1.692302322387695312e+01 9.925801753997802734e-01 5.961114883422851562e+00 2.086108446121215820e+00 4.107340872287750244e-01
5.729000000000000000e+03 7.245339965820312500e+01 1.626627159118652344e+01 1.192305922508239746e+00 5.575322628021240234e+00 2.030288696289062500e+00 1.700261682271957397e-01
5.730000000000000000e+03 7.421896934509277344e+00 2.360082435607910156e+01 -4.212632030248641968e-02 -1.098763495683670044e-01 -4.560080170631408691e-02 1.392804384231567383e-01
5.731000000000000000e+03 9.175924301147460938e+00 2.333573150634765625e+01 -6.273475289344787598e-02 -8.155623078346252441e-02 -4.328729584813117981e-02 1.656511574983596802e-01
5.732000000000000000e+03 6.790607929229736328e+00 1.413251304626464844e+01 -1.043837051838636398e-02 -2.217213250696659088e-02 -9.783150628209114075e-03 2.558224834501743317e-02
5.733000000000000000e+03 6.565636634826660156e+00 1.523707103729248047e+01 -2.007248438894748688e-02 -2.900163829326629639e-02 -1.472223643213510513e-02 3.398124501109123230e-02
5.734000000000000000e+03 6.758804321289062500e+00 -1.092600345611572266e+01 -2.885279245674610138e-02 -1.619819924235343933e-02 -1.351529732346534729e-02 -4.989744350314140320e-02
5.735000000000000000e+03 6.640719890594482422e+00 1.700801277160644531e+01 -3.402932360768318176e-02 -4.400109127163887024e-02 -2.340912446379661560e-02 4.907057061791419983e-02
5.736000000000000000e+03 7.090275573730468750e+01 -2.319456672668457031e+01 2.236493378877639771e-01 5.747807502746582031e+00 1.791437029838562012e+00 3.234682977199554443e-01
5.737000000000000000e+03 7.279212951660156250e+01 -2.257917022705078125e+01 -5.452297627925872803e-02 6.601041316986083984e+00 1.963955521583557129e+00 5.043591856956481934e-01
5.738000000000000000e+03 7.610855102539062500e+00 2.090341758728027344e+01 -5.819581076502799988e-02 -6.791730225086212158e-02 -3.783393278717994690e-02 1.117003932595252991e-01
5.739000000000000000e+03 1.192986583709716797e+01 -9.668528556823730469e+00 -7.580839842557907104e-02 2.437356114387512207e-02 -1.543045137077569962e-02 -4.654919356107711792e-02
5.740000000000000000e+03 7.298098087310791016e+00 -5.875327587127685547e+00 -2.334147132933139801e-02 -1.014966052025556564e-03 -7.306931074708700180e-03 -1.686128415167331696e-02
5.741000000000000000e+03 6.906693935394287109e+00 -5.014699935913085938e+00 -1.814739219844341278e-02 -1.593679655343294144e-03 -5.922321695834398270e-03 -1.241314131766557693e-02
5.742000000000000000e+03 6.098622798919677734e+00 -1.386783504486083984e+01 -2.234106510877609253e-02 -3.857915475964546204e-02 -1.827606558799743652e-02 -6.651057302951812744e-02
5.743000000000000000e+03 1.688157081604003906e+01 -1.328318977355957031e+01 -1.289961934089660645e-01 7.190444320440292358e-02 -1.712752506136894226e-02 -7.373332977294921875e-02
5.744000000000000000e+03 2.151751136779785156e+01 -1.594446182250976562e+01 -1.651131510734558105e-01 1.738121062517166138e-01 2.609682967886328697e-03 -5.165372788906097412e-02
5.745000000000000000e+03 7.109040069580078125e+01 1.950385093688964844e+01 3.663526475429534912e-01 6.344605445861816406e+00 2.013287305831909180e+00 3.297358453273773193e-01
5.746000000000000000e+03 7.172643280029296875e+01 1.804507446289062500e+01 6.943604946136474609e-01 6.111739635467529297e+00 2.041830062866210938e+00 3.757835328578948975e-01
5.747000000000000000e+03 6.560214519500732422e+00 2.300879478454589844e+01 -3.736510872840881348e-02 -1.129644215106964111e-01 -4.509885981678962708e-02 1.201544404029846191e-01
5.748000000000000000e+03 7.443977832794189453e+00 -1.524827098846435547e+01 -2.935120463371276855e-02 -3.433302417397499084e-02 -1.910526864230632782e-02 -8.560469001531600952e-02
5.749000000000000000e+03 2.758155250549316406e+01 -1.608488273620605469e+01 -3.488045632839202881e-01 3.262991309165954590e-01 -6.751630455255508423e-03 -1.199117768555879593e-02
5.750000000000000000e+03 7.152628326416015625e+01 -2.438644981384277344e+01 1.725301146507263184e-01 6.079066753387451172e+00 1.875478982925415039e+00 2.548257410526275635e-01
5.751000000000000000e+03 6.941534042358398438e+00 1.582511520385742188e+01 -2.952079288661479950e-02 -3.229843080043792725e-02 -1.854576729238033295e-02 4.276210069656372070e-02
5.752000000000000000e+03 7.715104579925537109e+00 1.534360980987548828e+01 -3.316143900156021118e-02 -1.363533176481723785e-02 -1.403903122991323471e-02 3.929777815937995911e-02
5.753000000000000000e+03 1.780488586425781250e+01 -1.604843711853027344e+01 -1.199238225817680359e-01 1.044073924422264099e-01 -4.654927179217338562e-03 -1.006118357181549072e-01
5.754000000000000000e+03 7.204553127288818359e+00 1.472388076782226562e+01 -2.211535349488258362e-02 -2.304647676646709442e-02 -1.354854926466941833e-02 3.019403852522373199e-02
5.755000000000000000e+03 6.261697769165039062e+01 -2.133221435546875000e+01 -2.250946462154388428e-01 5.644946575164794922e+00 1.625955581665039062e+00 -1.421443700790405273e+00
5.756000000000000000e+03 6.511278533935546875e+01 -2.356951522827148438e+01 8.928887546062469482e-02 5.122122287750244141e+00 1.563423275947570801e+00 -8.715651631355285645e-01
5.757000000000000000e+03 5.585552597045898438e+01 1.872755432128906250e+01 6.558317542076110840e-01 5.963312625885009766e+00 1.985743284225463867e+00 1.865631937980651855e+00
5.758000000000000000e+03 3.642041015625000000e+01 -2.041124916076660156e+01 3.619085252285003662e-02 7.441384792327880859e-01 2.340987920761108398e-01 6.080963611602783203e-01
5.759000000000000000e+03 1.067995548248291016e+01 -7.975615024566650391e+00 -5.630228668451309204e-02 1.427872478961944580e-02 -1.260706782341003418e-02 -3.080769442021846771e-02
5.760000000000000000e+03 1.300034713745117188e+01 2.073002243041992188e+01 -1.545299589633941650e-01 1.365888025611639023e-02 -4.226132482290267944e-02 1.874926537275314331e-01
5.761000000000000000e+03 8.680473327636718750e+00 -8.572077751159667969e+00 -4.064041748642921448e-02 2.023421460762619972e-03 -1.158509869128465652e-02 -3.670657426118850708e-02
5.762000000000000000e+03 7.963101387023925781e+00 -8.009652137756347656e+00 -3.311317414045333862e-02 -1.056314329616725445e-03 -1.025084685534238815e-02 -3.092864342033863068e-02
5.763000000000000000e+03 4.304610443115234375e+01 2.075920104980468750e+01 2.581310272216796875e-01 1.284726381301879883e+00 4.628572165966033936e-01 -7.447333931922912598e-01
5.764000000000000000e+03 7.198946952819824219e+00 1.887045478820800781e+01 -5.239283666014671326e-02 -4.847130551934242249e-02 -3.025924414396286011e-02 7.762520015239715576e-02
5.765000000000000000e+03 9.973743438720703125e+00 -7.910124301910400391e+00 -4.943304136395454407e-02 1.005358248949050903e-02 -1.181383710354566574e-02 -3.088046610355377197e-02
5.766000000000000000e+03 2.455984497070312500e+01 -1.644497299194335938e+01 -2.369684278964996338e-01 2.669497132301330566e-01 8.994380943477153778e-03 -3.316603973507881165e-02
5.767000000000000000e+03 2.121281623840332031e+01 -1.654267120361328125e+01 -1.649420708417892456e-01 1.817676573991775513e-01 5.047678947448730469e-03 -7.104530930519104004e-02
5.768000000000000000e+03 2.451758384704589844e+01 -1.508065509796142578e+01 -2.642241418361663818e-01 2.532350420951843262e-01 -3.296730341389775276e-03 1.484736893326044083e-02
5.769000000000000000e+03 3.517835998535156250e+01 -2.129105377197265625e+01 4.144033417105674744e-02 7.076187729835510254e-01 2.247177213430404663e-01 3.939316570758819580e-01
5.770000000000000000e+03 6.944461822509765625e+01 -2.483809471130371094e+01 3.072333335876464844e-01 5.559269428253173828e+00 1.759950757026672363e+00 -1.726342737674713135e-02
5.771000000000000000e+03 1.052796077728271484e+01 2.467499732971191406e+01 -5.723389238119125366e-02 -8.794258534908294678e-02 -4.355294257402420044e-02 2.020404338836669922e-01
5.772000000000000000e+03 1.116513252258300781e+01 2.390843772888183594e+01 -7.601473480463027954e-02 -6.442472338676452637e-02 -4.213183745741844177e-02 2.059758752584457397e-01
5.773000000000000000e+03 1.266960525512695312e+01 1.954038047790527344e+01 -1.563815772533416748e-01 2.833070419728755951e-02 -3.841526061296463013e-02 1.544193774461746216e-01
5.774000000000000000e+03 8.338558197021484375e+00 2.520541954040527344e+01 -3.510959818959236145e-02 -1.240372359752655029e-01 -4.774405062198638916e-02 1.657949388027191162e-01
5.775000000000000000e+03 7.003923034667968750e+01 1.935394287109375000e+01 3.096576035022735596e-01 6.511595249176025391e+00 2.046375751495361328e+00 3.150912523269653320e-01
5.776000000000000000e+03 3.061959457397460938e+01 -1.775140190124511719e+01 -2.966701388359069824e-01 3.245019614696502686e-01 8.349540643393993378e-03 -1.166286412626504898e-02
5.777000000000000000e+03 3.006857299804687500e+01 2.281894111633300781e+01 -1.359753310680389404e-01 5.368577316403388977e-02 -2.468686923384666443e-02 2.529026269912719727e-01
5.778000000000000000e+03 4.662982177734375000e+01 2.301888847351074219e+01 7.999505847692489624e-02 3.167530298233032227e+00 9.742575883865356445e-01 -1.330460429191589355e+00
5.779000000000000000e+03 3.486471557617187500e+01 -2.308626365661621094e+01 5.797909107059240341e-04 8.784875869750976562e-01 2.637202143669128418e-01 3.098468780517578125e-01
5.780000000000000000e+03 6.602618408203125000e+01 -2.661046981811523438e+01 8.833171427249908447e-02 5.384555339813232422e+00 1.641866087913513184e+00 -4.214885830879211426e-01
5.781000000000000000e+03 1.972135543823242188e+01 2.256418609619140625e+01 -2.084734290838241577e-01 -5.163369327783584595e-02 -7.803213596343994141e-02 3.551541566848754883e-01
5.782000000000000000e+03 1.982670211791992188e+01 2.159814262390136719e+01 -2.764108479022979736e-01 -4.681459069252014160e-02 -9.696763008832931519e-02 3.534733653068542480e-01
5.783000000000000000e+03 6.401680755615234375e+01 2.467393493652343750e+01 2.604886293411254883e-01 5.550009727478027344e+00 1.743149518966674805e+00 -4.641898442059755325e-03
5.784000000000000000e+03 2.094063186645507812e+01 2.522590446472167969e+01 -3.605326265096664429e-02 -8.956655859947204590e-02 -3.768594563007354736e-02 3.480302393436431885e-01
5.785000000000000000e+03 6.559042358398437500e+01 2.180936431884765625e+01 3.178919851779937744e-01 5.852319240570068359e+00 1.851063370704650879e+00 -2.975581884384155273e-01
5.786000000000000000e+03 1.183641338348388672e+01 -2.114218711853027344e+01 -1.753702573478221893e-02 1.493087853305041790e-03 -4.813181236386299133e-03 -1.410728394985198975e-01
5.787000000000000000e+03 1.401529121398925781e+01 -2.232221794128417969e+01 -1.111904811114072800e-02 4.585840925574302673e-02 1.042180880904197693e-02 -1.503314226865768433e-01
5.788000000000000000e+03 6.223576354980468750e+01 -2.316153717041015625e+01 -4.666710495948791504e-01 5.724490165710449219e+00 1.577345728874206543e+00 -1.064971446990966797e+00
5.789000000000000000e+03 6.206292343139648438e+01 -2.186183357238769531e+01 -4.736050367355346680e-01 5.993873596191406250e+00 1.656080603599548340e+00 -1.218733549118041992e+00
5.790000000000000000e+03 2.437139320373535156e+01 -1.783372497558593750e+01 -1.939142346382141113e-01 2.703536450862884521e-01 2.293182164430618286e-02 -6.750325858592987061e-02
5.791000000000000000e+03 2.310962867736816406e+01 -1.771830558776855469e+01 -1.709526479244232178e-01 2.356767952442169189e-01 1.941724680364131927e-02 -7.471583783626556396e-02
5.792000000000000000e+03 7.176286315917968750e+01 -2.330822181701660156e+01 1.469994485378265381e-01 6.102096557617187500e+00 1.874728798866271973e+00 3.843564689159393311e-01
5.793000000000000000e+03 1.019640922546386719e+01 1.768714332580566406e+01 -9.226507693529129028e-02 7.619858253747224808e-03 -2.539356611669063568e-02 8.489450812339782715e-02
5.794000000000000000e+03 7.947424411773681641e+00 -1.950998115539550781e+01 -1.734644174575805664e-02 -5.975158512592315674e-02 -2.312940731644630432e-02 -1.129439696669578552e-01
5.795000000000000000e+03 7.902596473693847656e+00 -1.783321380615234375e+01 -2.396653033792972565e-02 -4.781253263354301453e-02 -2.153372019529342651e-02 -1.044912636280059814e-01
5.796000000000000000e+03 2.858400154113769531e+01 -1.891631507873535156e+01 -2.016642838716506958e-01 3.412573039531707764e-01 4.187791049480438232e-02 -5.558587238192558289e-02
5.797000000000000000e+03 2.968800926208496094e+01 -1.773005676269531250e+01 -3.114804327487945557e-01 3.311826884746551514e-01 5.910668522119522095e-03 -3.796419873833656311e-02
5.798000000000000000e+03 1.195790004730224609e+01 1.914343452453613281e+01 -1.383618563413619995e-01 1.977977715432643890e-02 -3.557462617754936218e-02 1.355353593826293945e-01
5.799000000000000000e+03 1.832324409484863281e+01 -1.661813926696777344e+01 -1.095349788665771484e-01 1.170181930065155029e-01 2.244964241981506348e-03 -1.046460568904876709e-01
5.800000000000000000e+03 7.267819976806640625e+01 -2.355003547668457031e+01 3.601206094026565552e-02 6.495435237884521484e+00 1.959434151649475098e+00 4.054006636142730713e-01
5.801000000000000000e+03 7.400576114654541016e+00 -9.220879554748535156e+00 -3.269738703966140747e-02 -5.874547641724348068e-03 -1.157157961279153824e-02 -3.860188648104667664e-02
5.802000000000000000e+03 7.837192535400390625e+00 -1.697099494934082031e+01 -2.603915520012378693e-02 -4.219744354486465454e-02 -2.047097869217395782e-02 -9.817137569189071655e-02
5.803000000000000000e+03 1.286690998077392578e+01 -1.285985565185546875e+01 -8.745554834604263306e-02 3.594133257865905762e-02 -1.545426342636346817e-02 -8.321202546358108521e-02
5.804000000000000000e+03 1.385686397552490234e+01 -1.232966899871826172e+01 -1.013866886496543884e-01 4.468889534473419189e-02 -1.700933836400508881e-02 -7.604609429836273193e-02
5.805000000000000000e+03 7.159209442138671875e+01 1.911578750610351562e+01 4.486141800880432129e-01 6.232403278350830078e+00 2.004305362701416016e+00 3.284153342247009277e-01
5.806000000000000000e+03 1.218103408813476562e+01 2.231018829345703125e+01 -1.158727705478668213e-01 -2.360111847519874573e-02 -4.184216633439064026e-02 2.037809044122695923e-01
5.807000000000000000e+03 2.820747375488281250e+01 -1.599816703796386719e+01 -3.594778478145599365e-01 3.277608454227447510e-01 -9.515095502138137817e-03 -6.809538230299949646e-03
5.808000000000000000e+03 8.689146995544433594e+00 -9.222590446472167969e+00 -4.354922100901603699e-02 2.181891119107604027e-03 -1.241019926965236664e-02 -4.163726046681404114e-02
5.809000000000000000e+03 7.015415191650390625e+01 -2.316062927246093750e+01 2.967453598976135254e-01 5.501511096954345703e+00 1.739476919174194336e+00 2.030901312828063965e-01
5.810000000000000000e+03 1.176883602142333984e+01 -1.047564125061035156e+01 -7.628392428159713745e-02 2.524376846849918365e-02 -1.531204581260681152e-02 -5.552793666720390320e-02
5.811000000000000000e+03 2.786095619201660156e+01 -1.679258918762207031e+01 -3.177794814109802246e-01 3.258837461471557617e-01 2.431280212476849556e-03 -2.096349000930786133e-02
5.812000000000000000e+03 1.583091068267822266e+01 -1.345939636230468750e+01 -1.150526776909828186e-01 6.494018435478210449e-02 -1.503374613821506500e-02 -8.201339095830917358e-02
5.813000000000000000e+03 2.890578269958496094e+01 -1.630970191955566406e+01 -3.685526549816131592e-01 3.259986937046051025e-01 -1.276618707925081253e-02 -1.030006725341081619e-02
5.814000000000000000e+03 2.866662597656250000e+01 -1.582742214202880859e+01 -3.889001607894897461e-01 3.329218924045562744e-01 -1.679347828030586243e-02 -3.081832081079483032e-03
5.815000000000000000e+03 1.706425094604492188e+01 -1.440744686126708984e+01 -1.199366524815559387e-01 8.061408996582031250e-02 -1.179677061736583710e-02 -8.502638339996337891e-02
5.816000000000000000e+03 7.925088405609130859e+00 2.320513725280761719e+01 -5.115817859768867493e-02 -9.637616574764251709e-02 -4.426030442118644714e-02 1.438365280628204346e-01
5.817000000000000000e+03 1.312504577636718750e+01 -1.211613655090332031e+01 -9.051307290792465210e-02 3.819147497415542603e-02 -1.569647900760173798e-02 -7.222478836774826050e-02
5.818000000000000000e+03 1.456329917907714844e+01 -1.261046791076660156e+01 -1.049522683024406433e-01 5.179954692721366882e-02 -1.594581641256809235e-02 -7.656969875097274780e-02
5.819000000000000000e+03 7.420279026031494141e+00 2.158110046386718750e+01 -5.333761870861053467e-02 -7.791666686534881592e-02 -3.937628492712974548e-02 1.176271289587020874e-01
5.820000000000000000e+03 7.334123134613037109e+00 2.230431747436523438e+01 -4.815518110990524292e-02 -9.213822335004806519e-02 -4.208802059292793274e-02 1.224412769079208374e-01
5.821000000000000000e+03 8.810212135314941406e+00 1.754742431640625000e+01 -6.876058131456375122e-02 -1.252549607306718826e-02 -2.438582479953765869e-02 7.220782339572906494e-02
5.822000000000000000e+03 6.823560714721679688e+00 -1.179061698913574219e+01 -2.935238927602767944e-02 -2.008789405226707458e-02 -1.483208499848842621e-02 -5.571473389863967896e-02
5.823000000000000000e+03 1.469371128082275391e+01 2.144309616088867188e+01 -1.823980659246444702e-01 1.524489372968673706e-02 -5.014595389366149902e-02 2.371453791856765747e-01
5.824000000000000000e+03 1.117171955108642578e+01 -9.580272674560546875e+00 -6.765179336071014404e-02 1.976823434233665466e-02 -1.436506770551204681e-02 -4.517538100481033325e-02
5.825000000000000000e+03 6.672286987304687500e+00 -1.005286502838134766e+01 -2.849982678890228271e-02 -1.293105445802211761e-02 -1.242926437407732010e-02 -4.272310808300971985e-02
5.826000000000000000e+03 2.191410446166992188e+01 -1.746783256530761719e+01 -1.558970063924789429e-01 2.033111453056335449e-01 1.422424241900444031e-02 -8.215925842523574829e-02
5.827000000000000000e+03 2.269609451293945312e+01 -1.704501533508300781e+01 -1.789892166852951050e-01 2.186823934316635132e-01 1.190795283764600754e-02 -5.994092300534248352e-02
5.828000000000000000e+03 8.837341308593750000e+00 1.605994224548339844e+01 -5.345959961414337158e-02 -3.654396394267678261e-03 -1.713419891893863678e-02 4.952482506632804871e-02
5.829000000000000000e+03 8.450701713562011719e+00 1.972138595581054688e+01 -7.264615595340728760e-02 -3.899909928441047668e-02 -3.349357470870018005e-02 1.044744029641151428e-01
5.830000000000000000e+03 1.142804050445556641e+01 -1.966407775878906250e+01 -2.843182347714900970e-02 7.185210124589502811e-04 -8.313991129398345947e-03 -1.339701861143112183e-01
5.831000000000000000e+03 1.260280323028564453e+01 2.151065063476562500e+01 -1.349097639322280884e-01 -7.778550498187541962e-03 -4.280649498105049133e-02 1.984585970640182495e-01
5.832000000000000000e+03 1.521607685089111328e+01 -1.299228572845458984e+01 -1.144180148839950562e-01 5.708088353276252747e-02 -1.720113866031169891e-02 -8.075086772441864014e-02
5.833000000000000000e+03 7.130482482910156250e+01 1.744661521911621094e+01 8.406632542610168457e-01 6.167475223541259766e+00 2.102441549301147461e+00 4.758647680282592773e-01
5.834000000000000000e+03 7.104046630859375000e+01 1.688125610351562500e+01 9.975882172584533691e-01 6.129222393035888672e+00 2.138043165206909180e+00 5.662540793418884277e-01
5.835000000000000000e+03 1.892299270629882812e+01 -1.586296176910400391e+01 -1.350855678319931030e-01 1.193641126155853271e-01 -4.716434516012668610e-03 -8.742648363113403320e-02
5.836000000000000000e+03 1.998496627807617188e+01 -1.731419754028320312e+01 -1.295343488454818726e-01 1.558801829814910889e-01 7.903750054538249969e-03 -9.189941734075546265e-02
5.837000000000000000e+03 3.335932540893554688e+01 -2.120167541503906250e+01 -1.012718211859464645e-02 5.164672136306762695e-01 1.519020050764083862e-01 1.686570197343826294e-01
5.838000000000000000e+03 6.252446365356445312e+01 -2.238358306884765625e+01 -3.171863257884979248e-01 5.668846130371093750e+00 1.605497956275939941e+00 -1.149965405464172363e+00
5.839000000000000000e+03 3.087021064758300781e+01 -2.152075958251953125e+01 -6.224446743726730347e-02 4.371007680892944336e-01 1.124568879604339600e-01 2.079870784655213356e-03
5.840000000000000000e+03 3.304624557495117188e+01 -2.295711135864257812e+01 2.860369347035884857e-02 6.520967483520507812e-01 2.042101323604583740e-01 1.737463623285293579e-01
5.841000000000000000e+03 5.517671585083007812e+01 2.331745147705078125e+01 -1.989929378032684326e-01 5.669141769409179688e+00 1.641044735908508301e+00 4.179399013519287109e-01
5.842000000000000000e+03 1.426757812500000000e+01 2.724724388122558594e+01 -3.057312453165650368e-03 -9.943087399005889893e-02 -3.074645623564720154e-02 2.724703252315521240e-01
5.843000000000000000e+03 5.995735168457031250e+01 2.139568328857421875e+01 9.824102520942687988e-01 4.612705707550048828e+00 1.678534746170043945e+00 4.848908782005310059e-01
5.844000000000000000e+03 1.654443931579589844e+01 2.273136329650878906e+01 -1.718538850545883179e-01 -1.499672792851924896e-02 -5.605518445372581482e-02 2.965156137943267822e-01
5.845000000000000000e+03 1.889352798461914062e+01 2.620552253723144531e+01 -1.426362339407205582e-02 -7.990989834070205688e-02 -2.825205586850643158e-02 3.370796144008636475e-01
5.846000000000000000e+03 6.798587036132812500e+01 -2.485369110107421875e+01 3.077974617481231689e-01 5.291160583496093750e+00 1.679687500000000000e+00 -2.752069234848022461e-01
5.847000000000000000e+03 6.608038330078125000e+01 2.099079322814941406e+01 2.684232890605926514e-01 6.068252086639404297e+00 1.901002526283264160e+00 -3.401615619659423828e-01
5.848000000000000000e+03 1.260570716857910156e+01 2.367463684082031250e+01 -9.602732211351394653e-02 -4.463838413357734680e-02 -4.219971224665641785e-02 2.304134517908096313e-01
5.849000000000000000e+03 4.051998901367187500e+01 2.101545143127441406e+01 1.019000709056854248e-01 7.894909381866455078e-01 2.674173116683959961e-01 -4.453240931034088135e-01
5.850000000000000000e+03 1.031602764129638672e+01 -1.979635047912597656e+01 -2.234946377575397491e-02 -2.220947295427322388e-02 -1.336768176406621933e-02 -1.296061426401138306e-01
5.851000000000000000e+03 9.941994667053222656e+00 -1.905532073974609375e+01 -2.711385861039161682e-02 -2.386621758341789246e-02 -1.529402285814285278e-02 -1.229940280318260193e-01
5.852000000000000000e+03 8.069012641906738281e+00 -9.248386383056640625e+00 -3.754573315382003784e-02 -2.250873250886797905e-03 -1.193898264318704605e-02 -4.059137776494026184e-02
5.853000000000000000e+03 7.517639160156250000e+00 -8.459326744079589844e+00 -3.194034099578857422e-02 -4.033250734210014343e-03 -1.079207751899957657e-02 -3.347185254096984863e-02
5.854000000000000000e+03 1.046067237854003906e+01 2.132385444641113281e+01 -9.844367206096649170e-02 -2.984310686588287354e-02 -3.848603367805480957e-02 1.581668555736541748e-01
5.855000000000000000e+03 9.727499961853027344e+00 2.073864555358886719e+01 -8.992931246757507324e-02 -3.449508175253868103e-02 -3.732731938362121582e-02 1.390831470489501953e-01
5.856000000000000000e+03 2.640328216552734375e+01 -1.750073051452636719e+01 -2.530338466167449951e-01 3.175687193870544434e-01 1.936045661568641663e-02 -4.710233211517333984e-02
5.857000000000000000e+03 2.567245864868164062e+01 -1.803652191162109375e+01 -2.149765789508819580e-01 3.016575574874877930e-01 2.600429765880107880e-02 -6.481093168258666992e-02
5.858000000000000000e+03 2.694612884521484375e+01 -1.833882141113281250e+01 -2.190286070108413696e-01 3.266254365444183350e-01 3.227905184030532837e-02 -6.552551686763763428e-02
5.859000000000000000e+03 1.478955841064453125e+01 -1.377859973907470703e+01 -1.005738601088523865e-01 5.644235387444496155e-02 -1.323945261538028717e-02 -8.966393768787384033e-02
5.860000000000000000e+03 1.515084743499755859e+01 2.365190505981445312e+01 -1.218990236520767212e-01 -3.261439502239227295e-02 -4.635402560234069824e-02 2.825873196125030518e-01
5.861000000000000000e+03 1.408742237091064453e+01 2.325656127929687500e+01 -1.226477175951004028e-01 -2.589105628430843353e-02 -4.456163197755813599e-02 2.551645040512084961e-01
5.862000000000000000e+03 8.855921745300292969e+00 1.683630180358886719e+01 -6.158665940165519714e-02 -5.535871256142854691e-03 -2.013675868511199951e-02 6.390904635190963745e-02
5.863000000000000000e+03 7.011732578277587891e+00 1.743833732604980469e+01 -4.362417012453079224e-02 -3.546286746859550476e-02 -2.372611127793788910e-02 5.629959329962730408e-02
5.864000000000000000e+03 6.426432037353515625e+01 -2.307160568237304688e+01 -2.900614961981773376e-02 5.210304737091064453e+00 1.554389595985412598e+00 -1.046766877174377441e+00
5.865000000000000000e+03 6.384030532836914062e+01 -2.244272232055664062e+01 -1.098857074975967407e-01 5.343174934387207031e+00 1.569986820220947266e+00 -1.123186230659484863e+00
5.866000000000000000e+03 9.104556083679199219e+00 2.015978050231933594e+01 -7.999210804700851440e-02 -3.410959988832473755e-02 -3.423051163554191589e-02 1.177076250314712524e-01
5.867000000000000000e+03 7.970938682556152344e+00 2.029250717163085938e+01 -6.305138021707534790e-02 -5.272427573800086975e-02 -3.473269566893577576e-02 1.068999394774436951e-01
5.868000000000000000e+03 8.967344284057617188e+00 2.262463188171386719e+01 -6.591735035181045532e-02 -7.387653738260269165e-02 -4.193816706538200378e-02 1.537598520517349243e-01
5.869000000000000000e+03 8.810127258300781250e+00 -1.247397708892822266e+01 -4.463154450058937073e-02 -6.234221160411834717e-03 -1.525972969830036163e-02 -7.089118659496307373e-02
5.870000000000000000e+03 7.910602092742919922e+00 -1.339538288116455078e+01 -3.615068644285202026e-02 -1.857227832078933716e-02 -1.641688868403434753e-02 -7.469165325164794922e-02
5.871000000000000000e+03 8.839922904968261719e+00 -1.038935375213623047e+01 -4.801034182310104370e-02 2.556944964453577995e-03 -1.363601814955472946e-02 -5.115938931703567505e-02
5.872000000000000000e+03 7.544403076171875000e+00 1.709671401977539062e+01 -4.721701145172119141e-02 -2.898652106523513794e-02 -2.286105975508689880e-02 5.975140258669853210e-02
5.873000000000000000e+03 1.080597400665283203e+01 -1.134522819519042969e+01 -6.611061096191406250e-02 1.640606857836246490e-02 -1.491136290132999420e-02 -6.479073315858840942e-02
5.874000000000000000e+03 8.257869720458984375e+00 2.177204704284667969e+01 -6.238156929612159729e-02 -7.069148123264312744e-02 -3.992191702127456665e-02 1.303280293941497803e-01
5.875000000000000000e+03 9.648379325866699219e+00 1.956882286071777344e+01 -9.133308380842208862e-02 -2.010429836809635162e-02 -3.343121334910392761e-02 1.163581758737564087e-01
5.876000000000000000e+03 1.351706886291503906e+01 -1.961680984497070312e+01 -4.158091545104980469e-02 4.047492891550064087e-02 -3.317961236461997032e-04 -1.398394256830215454e-01
5.877000000000000000e+03 1.372797966003417969e+01 -1.862180709838867188e+01 -4.920580983161926270e-02 4.537485912442207336e-02 -1.149285235442221165e-03 -1.341343373060226440e-01
5.878000000000000000e+03 1.022713851928710938e+01 -1.021225929260253906e+01 -5.846012756228446960e-02 1.250809431076049805e-02 -1.378560904413461685e-02 -5.241734534502029419e-02
5.879000000000000000e+03 9.947577476501464844e+00 -8.615347862243652344e+00 -5.236040428280830383e-02 1.022811513394117355e-02 -1.263968739658594131e-02 -3.740907087922096252e-02
5.880000000000000000e+03 7.125363922119140625e+01 2.022844505310058594e+01 2.846513092517852783e-01 6.291131019592285156e+00 1.972734689712524414e+00 3.018594682216644287e-01
5.881000000000000000e+03 7.223287963867187500e+01 1.944461631774902344e+01 4.236339032649993896e-01 6.149340629577636719e+00 1.971892356872558594e+00 2.988474071025848389e-01
5.882000000000000000e+03 1.222560596466064453e+01 2.031255912780761719e+01 -1.399663090705871582e-01 7.091519422829151154e-03 -3.986243903636932373e-02 1.668636798858642578e-01
5.883000000000000000e+03 1.168499660491943359e+01 -1.123323726654052734e+01 -7.603386044502258301e-02 2.469119243323802948e-02 -1.540280133485794067e-02 -6.406306475400924683e-02
5.884000000000000000e+03 1.317292022705078125e+01 -1.388674163818359375e+01 -8.692394196987152100e-02 3.976120799779891968e-02 -1.414881926029920578e-02 -9.397451579570770264e-02
5.885000000000000000e+03 8.887516021728515625e+00 -1.699144172668457031e+01 -3.262183070182800293e-02 -2.745348401367664337e-02 -1.802259497344493866e-02 -1.071253493428230286e-01
5.886000000000000000e+03 3.149001121520996094e+01 -2.035759735107421875e+01 -1.040104702115058899e-01 3.986907899379730225e-01 8.840409666299819946e-02 1.443237159401178360e-02
5.887000000000000000e+03 3.138199996948242188e+01 -2.259956359863281250e+01 1.897334866225719452e-02 5.154325962066650391e-01 1.603217869997024536e-01 6.588934361934661865e-02
5.888000000000000000e+03 5.475498962402343750e+01 2.124839210510253906e+01 -1.837396472692489624e-01 6.245390415191650391e+00 1.818495273590087891e+00 8.645544052124023438e-01
5.889000000000000000e+03 5.565013504028320312e+01 2.096888542175292969e+01 1.597178727388381958e-01 5.896652221679687500e+00 1.816910982131958008e+00 1.068742036819458008e+00
5.890000000000000000e+03 1.784830284118652344e+01 -2.415784645080566406e+01 1.039939001202583313e-02 1.358292102813720703e-01 4.386857897043228149e-02 -1.514103114604949951e-01
5.891000000000000000e+03 5.978787994384765625e+01 2.015263175964355469e+01 1.272321581840515137e+00 4.263166904449462891e+00 1.660646557807922363e+00 6.862800717353820801e-01
5.892000000000000000e+03 4.245313644409179688e+01 2.296038246154785156e+01 2.740843594074249268e-01 1.481845378875732422e+00 5.267789363861083984e-01 -7.763440012931823730e-01
5.893000000000000000e+03 4.293604660034179688e+01 2.181557846069335938e+01 3.037790060043334961e-01 1.438892722129821777e+00 5.228015184402465820e-01 -8.156751990318298340e-01
5.894000000000000000e+03 3.480034255981445312e+01 2.306408119201660156e+01 6.429307907819747925e-02 2.637356221675872803e-01 9.840860962867736816e-02 1.680104061961174011e-02
5.895000000000000000e+03 3.373862457275390625e+01 2.474991416931152344e+01 1.514718830585479736e-01 2.940658926963806152e-01 1.336613297462463379e-01 3.322374075651168823e-02
5.896000000000000000e+03 6.072348785400390625e+01 2.199478530883789062e+01 8.479596376419067383e-01 4.779249668121337891e+00 1.688162684440612793e+00 3.035902976989746094e-01
5.897000000000000000e+03 1.738051223754882812e+01 2.523250770568847656e+01 -6.658977270126342773e-02 -6.154492124915122986e-02 -3.844041004776954651e-02 3.244622349739074707e-01
5.898000000000000000e+03 6.392741775512695312e+01 2.352194595336914062e+01 3.678615987300872803e-01 5.482219696044921875e+00 1.755024313926696777e+00 -6.444226950407028198e-02
5.899000000000000000e+03 1.541913127899169922e+01 -2.017997932434082031e+01 -4.605672508478164673e-02 7.703821361064910889e-02 9.294446557760238647e-03 -1.431623250246047974e-01
5.900000000000000000e+03 9.880361557006835938e+00 -1.816177940368652344e+01 -3.191566467285156250e-02 -2.120067924261093140e-02 -1.593490317463874817e-02 -1.198179945349693298e-01
5.901000000000000000e+03 9.979646682739257812e+00 -1.720801353454589844e+01 -3.697655349969863892e-02 -1.303661335259675980e-02 -1.500395033508539200e-02 -1.128832399845123291e-01
5.902000000000000000e+03 8.702033996582031250e+00 -1.953645706176757812e+01 -1.885533146560192108e-02 -4.765572026371955872e-02 -1.995331607758998871e-02 -1.170328184962272644e-01
5.903000000000000000e+03 1.768590545654296875e+01 -1.724402427673339844e+01 -9.962674975395202637e-02 1.100983843207359314e-01 3.141490044072270393e-03 -1.129009947180747986e-01
5.904000000000000000e+03 6.439123535156250000e+01 -2.157044792175292969e+01 6.076376885175704956e-02 5.083829402923583984e+00 1.543377876281738281e+00 -1.268278837203979492e+00
5.905000000000000000e+03 6.301730346679687500e+01 -2.192595672607421875e+01 -2.356536686420440674e-01 5.616702079772949219e+00 1.614314556121826172e+00 -1.272348642349243164e+00
5.906000000000000000e+03 9.103502273559570312e+00 -1.486212825775146484e+01 -4.262540116906166077e-02 -1.295819506049156189e-02 -1.667507924139499664e-02 -9.214024245738983154e-02
5.907000000000000000e+03 9.727659225463867188e+00 -9.883307456970214844e+00 -5.321899801492691040e-02 7.489726413041353226e-03 -1.371878106147050858e-02 -4.903802275657653809e-02
5.908000000000000000e+03 1.082606887817382812e+01 1.948449897766113281e+01 -1.137443855404853821e-01 -1.482815132476389408e-03 -3.456816077232360840e-02 1.296811401844024658e-01
5.909000000000000000e+03 1.086671161651611328e+01 2.257422637939453125e+01 -9.312678873538970947e-02 -4.327107593417167664e-02 -4.091935977339744568e-02 1.848125308752059937e-01
5.910000000000000000e+03 2.019603919982910156e+01 -1.820042037963867188e+01 -1.130702272057533264e-01 1.672159135341644287e-01 1.624370925128459930e-02 -1.101935580372810364e-01
5.911000000000000000e+03 2.106234359741210938e+01 -1.784000587463378906e+01 -1.317062377929687500e-01 1.876560896635055542e-01 1.678495667874813080e-02 -9.057051688432693481e-02
5.912000000000000000e+03 7.448880195617675781e+00 -1.002450466156005859e+01 -3.353669866919517517e-02 -8.061499334871768951e-03 -1.247945986688137054e-02 -4.501647129654884338e-02
5.913000000000000000e+03 1.501481246948242188e+01 -1.491485214233398438e+01 -9.446208178997039795e-02 6.217968836426734924e-02 -9.684718213975429535e-03 -1.018965989351272583e-01
5.914000000000000000e+03 1.379782867431640625e+01 -1.418628692626953125e+01 -8.680820465087890625e-02 4.554393887519836426e-02 -1.237928029149770737e-02 -9.518112987279891968e-02
5.915000000000000000e+03 1.441950988769531250e+01 -1.451494312286376953e+01 -9.542828053236007690e-02 5.337579175829887390e-02 -1.261574588716030121e-02 -1.005399450659751892e-01
5.916000000000000000e+03 8.627432823181152344e+00 1.819183158874511719e+01 -6.868726015090942383e-02 -1.919530332088470459e-02 -2.636476978659629822e-02 8.146232366561889648e-02
5.917000000000000000e+03 9.475449562072753906e+00 1.762778282165527344e+01 -7.934861630201339722e-02 2.098976256093010306e-04 -2.374161593616008759e-02 7.907622307538986206e-02
5.918000000000000000e+03 7.710661411285400391e+00 1.840162086486816406e+01 -5.662131682038307190e-02 -3.375820070505142212e-02 -2.711385488510131836e-02 7.567957788705825806e-02
5.919000000000000000e+03 9.308076858520507812e+00 1.839546966552734375e+01 -8.273699134588241577e-02 -1.202113553881645203e-02 -2.842743694782257080e-02 9.097473323345184326e-02
5.920000000000000000e+03 2.357690429687500000e+01 -1.846111106872558594e+01 -1.591666489839553833e-01 2.523506581783294678e-01 2.795520424842834473e-02 -8.093228191137313843e-02
5.921000000000000000e+03 1.169403076171875000e+01 -1.188147926330566406e+01 -7.467227429151535034e-02 2.422904781997203827e-02 -1.513296738266944885e-02 -6.966710090637207031e-02
5.922000000000000000e+03 8.807448387145996094e+00 -1.329442214965820312e+01 -4.459002986550331116e-02 -8.297597989439964294e-03 -1.586628891527652740e-02 -7.750838249921798706e-02
5.923000000000000000e+03 1.582829856872558594e+01 -1.643946456909179688e+01 -9.426756203174591064e-02 7.713536173105239868e-02 -5.139659158885478973e-03 -1.157153695821762085e-01
5.924000000000000000e+03 1.723685264587402344e+01 -1.555929374694824219e+01 -1.085903272032737732e-01 9.003487229347229004e-02 -5.566636566072702408e-03 -9.772219508886337280e-02
5.925000000000000000e+03 1.352300071716308594e+01 -1.312019729614257812e+01 -9.052819758653640747e-02 4.257703945040702820e-02 -1.438534818589687347e-02 -8.397790044546127319e-02
5.926000000000000000e+03 1.131758689880371094e+01 2.181932067871093750e+01 -1.078318655490875244e-01 -2.890901267528533936e-02 -4.102226346731185913e-02 1.820695400238037109e-01
5.927000000000000000e+03 1.814384841918945312e+01 -1.797405815124511719e+01 -9.030772745609283447e-02 1.203176155686378479e-01 9.002964012324810028e-03 -1.199487298727035522e-01
5.928000000000000000e+03 1.555152702331542969e+01 -1.909629058837890625e+01 -5.428633466362953186e-02 7.774811983108520508e-02 7.038535550236701965e-03 -1.366959959268569946e-01
5.929000000000000000e+03 8.163127899169921875e+00 2.251381301879882812e+01 -5.867490544915199280e-02 -8.007865399122238159e-02 -4.162606596946716309e-02 1.396793872117996216e-01
5.930000000000000000e+03 1.560416221618652344e+01 -1.535234642028808594e+01 -1.025066226720809937e-01 7.004481554031372070e-02 -9.738542139530181885e-03 -1.050038337707519531e-01
5.931000000000000000e+03 2.998294258117675781e+01 -2.024774742126464844e+01 -1.352511048316955566e-01 3.898153603076934814e-01 7.636927813291549683e-02 -2.718113735318183899e-02
5.932000000000000000e+03 1.201359558105468750e+01 2.454028511047363281e+01 -7.068208605051040649e-02 -6.892146915197372437e-02 -4.188106581568717957e-02 2.289370149374008179e-01
5.933000000000000000e+03 4.159530258178710938e+01 2.154151916503906250e+01 1.847480237483978271e-01 1.045654416084289551e+00 3.691207468509674072e-01 -5.710627436637878418e-01
5.934000000000000000e+03 3.038774871826171875e+01 -2.303784370422363281e+01 3.970347344875335693e-03 4.930642843246459961e-01 1.491103917360305786e-01 5.983056500554084778e-03
5.935000000000000000e+03 5.602342605590820312e+01 2.167716407775878906e+01 1.324735730886459351e-01 5.708401679992675781e+00 1.752262473106384277e+00 9.208733439445495605e-01
5.936000000000000000e+03 5.771022796630859375e+01 2.001104736328125000e+01 9.297271966934204102e-01 4.921288490295410156e+00 1.755304694175720215e+00 1.303333401679992676e+00
5.937000000000000000e+03 1.745332145690917969e+01 2.393363189697265625e+01 -1.273061931133270264e-01 -4.704020172357559204e-02 -5.230391770601272583e-02 3.274201154708862305e-01
5.938000000000000000e+03 1.933379554748535156e+01 -2.182706260681152344e+01 -3.568612411618232727e-02 1.662503033876419067e-01 3.916925564408302307e-02 -1.426264941692352295e-01
5.939000000000000000e+03 3.958796691894531250e+01 2.165767097473144531e+01 9.730407595634460449e-02 7.122973203659057617e-01 2.428804188966751099e-01 -3.850009739398956299e-01
5.940000000000000000e+03 5.758828735351562500e+01 2.162241935729980469e+01 5.621553063392639160e-01 5.179607868194580078e+00 1.722529053688049316e+00 9.456722140312194824e-01
5.941000000000000000e+03 5.843665313720703125e+01 2.062374114990234375e+01 9.498603940010070801e-01 4.755616188049316406e+00 1.711642980575561523e+00 1.015970587730407715e+00
5.942000000000000000e+03 3.721162414550781250e+01 2.258170509338378906e+01 9.001649171113967896e-02 4.482863247394561768e-01 1.614908427000045776e-01 -1.726359426975250244e-01
5.943000000000000000e+03 3.501040267944335938e+01 2.529613876342773438e+01 2.289685457944869995e-01 4.593306481838226318e-01 2.064897567033767700e-01 -8.076906204223632812e-02
5.944000000000000000e+03 3.454272460937500000e+01 2.111309814453125000e+01 -1.368423998355865479e-01 8.370989561080932617e-02 -1.593974977731704712e-02 1.049844697117805481e-01
5.945000000000000000e+03 3.366739273071289062e+01 2.142419433593750000e+01 -1.471744328737258911e-01 7.683267444372177124e-02 -2.110252901911735535e-02 1.646590530872344971e-01
5.946000000000000000e+03 1.734300422668457031e+01 -2.039777565002441406e+01 -5.244841054081916809e-02 1.147157251834869385e-01 1.868019439280033112e-02 -1.413991004228591919e-01
5.947000000000000000e+03 9.649518966674804688e+00 -1.076787948608398438e+01 -5.541112646460533142e-02 7.225182838737964630e-03 -1.445578318089246750e-02 -5.740380287170410156e-02
5.948000000000000000e+03 1.693938827514648438e+01 -1.735875511169433594e+01 -9.423956274986267090e-02 9.859793633222579956e-02 1.307514030486345291e-03 -1.192277446389198303e-01
5.949000000000000000e+03 1.193562793731689453e+01 -1.326260185241699219e+01 -7.520907372236251831e-02 2.580499462783336639e-02 -1.482122298330068588e-02 -8.797334879636764526e-02
5.950000000000000000e+03 1.220311546325683594e+01 -1.263096809387207031e+01 -7.839147746562957764e-02 2.937058731913566589e-02 -1.470626704394817352e-02 -7.900862395763397217e-02
5.951000000000000000e+03 9.772922515869140625e+00 -1.245757007598876953e+01 -5.497980862855911255e-02 5.231710150837898254e-03 -1.492443028837442398e-02 -7.352000474929809570e-02
5.952000000000000000e+03 7.909230232238769531e+00 -1.867008781433105469e+01 -2.005950920283794403e-02 -5.298347398638725281e-02 -2.191289514303207397e-02 -1.071531325578689575e-01
5.953000000000000000e+03 1.104806423187255859e+01 -1.206557273864746094e+01 -6.574574857950210571e-02 1.699424721300601959e-02 -1.462544966489076614e-02 -7.221531122922897339e-02
5.954000000000000000e+03 1.016972446441650391e+01 -1.515156364440917969e+01 -5.007166415452957153e-02 -4.835602303501218557e-04 -1.516656763851642609e-02 -9.997718036174774170e-02
5.955000000000000000e+03 9.121588706970214844e+00 2.185643196105957031e+01 -7.541655004024505615e-02 -5.597333982586860657e-02 -3.941696509718894958e-02 1.455388069152832031e-01
5.956000000000000000e+03 2.671749305725097656e+01 -1.983251762390136719e+01 -1.579812169075012207e-01 3.326731324195861816e-01 5.240757390856742859e-02 -8.349800109863281250e-02
5.957000000000000000e+03 2.769872856140136719e+01 -1.875177192687988281e+01 -2.259587198495864868e-01 3.381983935832977295e-01 3.367190062999725342e-02 -6.684186309576034546e-02
5.958000000000000000e+03 1.038720226287841797e+01 2.332101440429687500e+01 -7.605831325054168701e-02 -6.530223041772842407e-02 -4.240816086530685425e-02 1.855756342411041260e-01
5.959000000000000000e+03 6.788119506835937500e+01 -2.385592842102050781e+01 3.434915542602539062e-01 5.103065013885498047e+00 1.633966922760009766e+00 -3.304352164268493652e-01
5.960000000000000000e+03 1.003378009796142578e+01 1.843975257873535156e+01 -9.545283764600753784e-02 7.693262305110692978e-04 -2.840505354106426239e-02 9.960883110761642456e-02
5.961000000000000000e+03 8.958742141723632812e+00 1.911198234558105469e+01 -7.847181707620620728e-02 -2.218188159167766571e-02 -3.019610792398452759e-02 9.915407001972198486e-02
5.962000000000000000e+03 9.573692321777343750e+00 -1.399255371093750000e+01 -4.915643110871315002e-02 -3.019162686541676521e-03 -1.565267890691757202e-02 -8.670124411582946777e-02
5.963000000000000000e+03 1.729954147338867188e+01 -1.667340087890625000e+01 -9.731203317642211914e-02 9.689929336309432983e-02 -1.238227123394608498e-04 -1.103814169764518738e-01
5.964000000000000000e+03 1.001470184326171875e+01 2.208495903015136719e+01 -8.473954349756240845e-02 -5.073666200041770935e-02 -4.064286127686500549e-02 1.636298298835754395e-01
5.965000000000000000e+03 1.100094699859619141e+01 2.061257743835449219e+01 -1.134309321641921997e-01 -1.374548673629760742e-02 -3.815292567014694214e-02 1.544927805662155151e-01
5.966000000000000000e+03 6.748132324218750000e+01 2.077497291564941406e+01 1.609441936016082764e-01 6.378928661346435547e+00 1.961961984634399414e+00 -1.975608915090560913e-01
5.967000000000000000e+03 8.812437057495117188e+00 -2.135635566711425781e+01 -9.891650639474391937e-03 -5.823394283652305603e-02 -2.043767832219600677e-02 -1.237330511212348938e-01
5.968000000000000000e+03 1.029860019683837891e+01 2.011504554748535156e+01 -1.029362604022026062e-01 -1.417429279536008835e-02 -3.513316810131072998e-02 1.355549842119216919e-01
5.969000000000000000e+03 2.177810096740722656e+01 -1.674518585205078125e+01 -1.596739739179611206e-01 1.911034882068634033e-01 9.428853169083595276e-03 -6.446009129285812378e-02
5.970000000000000000e+03 1.942623329162597656e+01 -1.799779701232910156e+01 -1.031925752758979797e-01 1.495554745197296143e-01 1.390886958688497543e-02 -1.119098663330078125e-01
5.971000000000000000e+03 5.566699600219726562e+01 1.953704833984375000e+01 4.011096656322479248e-01 6.095937728881835938e+00 1.949114203453063965e+00 1.558303594589233398e+00
5.972000000000000000e+03 2.857398414611816406e+01 -2.095680427551269531e+01 -8.593639731407165527e-02 3.758274316787719727e-01 8.696731179952621460e-02 -5.640859529376029968e-02
5.973000000000000000e+03 2.672634506225585938e+01 -2.077194023132324219e+01 -9.760598838329315186e-02 3.418067693710327148e-01 7.326023280620574951e-02 -8.507318794727325439e-02
5.974000000000000000e+03 2.921929931640625000e+01 -2.341618728637695312e+01 1.849204860627651215e-02 4.599535763263702393e-01 1.435336917638778687e-01 -2.387449517846107483e-02
5.975000000000000000e+03 3.987160491943359375e+01 2.275820159912109375e+01 2.056842446327209473e-01 8.746981024742126465e-01 3.241147100925445557e-01 -4.415327906608581543e-01
5.976000000000000000e+03 3.793046569824218750e+01 2.013449859619140625e+01 -1.668739914894104004e-01 3.096109926700592041e-01 4.282109811902046204e-02 -1.539891660213470459e-01
5.977000000000000000e+03 3.883621597290039062e+01 1.929527282714843750e+01 -2.570326030254364014e-01 3.850786983966827393e-01 3.841382265090942383e-02 -1.869779676198959351e-01
5.978000000000000000e+03 1.940416526794433594e+01 -1.981535148620605469e+01 -7.321307808160781860e-02 1.594253629446029663e-01 2.586368471384048462e-02 -1.307362169027328491e-01
5.979000000000000000e+03 3.658898925781250000e+01 2.091771697998046875e+01 -9.583986550569534302e-02 2.360499650239944458e-01 4.206302762031555176e-02 -6.187854334712028503e-02
5.980000000000000000e+03 2.042177772521972656e+01 -1.920063972473144531e+01 -9.675784409046173096e-02 1.829172074794769287e-01 2.584780938923358917e-02 -1.157920882105827332e-01
5.981000000000000000e+03 1.060382843017578125e+01 -1.266641902923583984e+01 -6.295417994260787964e-02 1.217536814510822296e-02 -1.523364242166280746e-02 -7.831676304340362549e-02
5.982000000000000000e+03 1.571026897430419922e+01 -1.715716934204101562e+01 -7.832516729831695557e-02 7.685466855764389038e-02 -4.411504487507045269e-04 -1.208710968494415283e-01
5.983000000000000000e+03 1.517605400085449219e+01 -1.609420394897460938e+01 -8.440499007701873779e-02 6.595765799283981323e-02 -5.534199066460132599e-03 -1.131982207298278809e-01
5.984000000000000000e+03 1.016810131072998047e+01 -1.414105796813964844e+01 -5.508236214518547058e-02 4.197836387902498245e-03 -1.526535768061876297e-02 -9.190309047698974609e-02
5.985000000000000000e+03 1.402490043640136719e+01 -1.673338317871093750e+01 -6.944879144430160522e-02 5.074697360396385193e-02 -5.610545165836811066e-03 -1.198018416762351990e-01
5.986000000000000000e+03 1.402762317657470703e+01 -1.588711738586425781e+01 -8.064502477645874023e-02 5.168506503105163574e-02 -8.687987923622131348e-03 -1.151357069611549377e-01
5.987000000000000000e+03 1.153992557525634766e+01 -1.607554244995117188e+01 -5.707238242030143738e-02 1.508739776909351349e-02 -1.259549520909786224e-02 -1.129329204559326172e-01
5.988000000000000000e+03 1.752335166931152344e+01 -1.864887809753417969e+01 -8.355720341205596924e-02 1.150595694780349731e-01 9.450709447264671326e-03 -1.265773326158523560e-01
5.989000000000000000e+03 3.951010513305664062e+01 1.899213981628417969e+01 -2.993080019950866699e-01 4.904616177082061768e-01 5.734608694911003113e-02 -1.892591714859008789e-01
5.990000000000000000e+03 1.255544948577880859e+01 -1.357507610321044922e+01 -7.868137955665588379e-02 3.330085799098014832e-02 -1.361415628343820572e-02 -8.984998613595962524e-02
5.991000000000000000e+03 5.645759582519531250e+01 1.965527725219726562e+01 6.343107223510742188e-01 5.534191131591796875e+00 1.850550532341003418e+00 1.518843412399291992e+00
5.992000000000000000e+03 2.228737258911132812e+01 -1.824787330627441406e+01 -1.415973901748657227e-01 2.181433141231536865e-01 2.296377904713153839e-02 -8.604675531387329102e-02
5.993000000000000000e+03 1.667293930053710938e+01 -1.826825904846191406e+01 -7.314890623092651367e-02 9.656818956136703491e-02 7.025785278528928757e-03 -1.278504580259323120e-01
5.994000000000000000e+03 2.541933441162109375e+01 -2.097680473327636719e+01 -8.953414112329483032e-02 3.114153742790222168e-01 6.656436622142791748e-02 -1.016956418752670288e-01
5.995000000000000000e+03 2.783967399597167969e+01 -2.368804740905761719e+01 6.247736513614654541e-03 4.199590384960174561e-01 1.278620362281799316e-01 -6.410408765077590942e-02
5.996000000000000000e+03 2.294516754150390625e+01 -2.255599594116210938e+01 -2.516804076731204987e-02 2.610845267772674561e-01 7.077494263648986816e-02 -1.258730739355087280e-01
5.997000000000000000e+03 3.693088912963867188e+01 1.997293281555175781e+01 -2.132728844881057739e-01 2.073545306921005249e-01 -1.775507349520921707e-03 -8.401029556989669800e-02
5.998000000000000000e+03 2.094343757629394531e+01 -2.014019775390625000e+01 -8.144105225801467896e-02 2.021643072366714478e-01 3.621697425842285156e-02 -1.244613900780677795e-01
5.999000000000000000e+03 1.328596687316894531e+01 -1.574068546295166016e+01 -7.116697728633880615e-02 4.036152362823486328e-02 -9.241636842489242554e-03 -1.119157299399375916e-01
6.000000000000000000e+03 1.165748691558837891e+01 -1.472343921661376953e+01 -6.390611082315444946e-02 2.080849558115005493e-02 -1.292928587645292282e-02 -1.018025428056716919e-01
6.001000000000000000e+03 1.164295387268066406e+01 -1.382829380035400391e+01 -6.893770396709442139e-02 2.298318035900592804e-02 -1.378635689616203308e-02 -9.105943143367767334e-02
6.002000000000000000e+03 1.234347820281982422e+01 -1.634326553344726562e+01 -5.865645036101341248e-02 2.589444629848003387e-02 -9.828601032495498657e-03 -1.159655451774597168e-01
6.003000000000000000e+03 1.805269050598144531e+01 -1.930424499511718750e+01 -7.260341197252273560e-02 1.287038624286651611e-01 1.683013327419757843e-02 -1.328009068965911865e-01
6.004000000000000000e+03 1.124759864807128906e+01 -1.681409835815429688e+01 -4.752511158585548401e-02 8.394983597099781036e-03 -1.173903886228799820e-02 -1.166599094867706299e-01
6.005000000000000000e+03 1.717493247985839844e+01 2.181431198120117188e+01 -2.257563918828964233e-01 1.840583398006856441e-03 -6.717474758625030518e-02 2.953498959541320801e-01
6.006000000000000000e+03 1.193992137908935547e+01 -1.796876716613769531e+01 -4.442086443305015564e-02 1.661415584385395050e-02 -8.342012763023376465e-03 -1.266940534114837646e-01
6.007000000000000000e+03 2.848727416992187500e+01 -1.990480613708496094e+01 -1.678524911403656006e-01 3.579839169979095459e-01 5.703942105174064636e-02 -6.742971390485763550e-02
6.008000000000000000e+03 2.323417663574218750e+01 -1.992750167846679688e+01 -1.109177544713020325e-01 2.518410384654998779e-01 4.227698966860771179e-02 -1.020547971129417419e-01
6.009000000000000000e+03 1.569521427154541016e+01 -1.806364631652832031e+01 -7.425956428050994873e-02 7.907406985759735107e-02 1.444351510144770145e-03 -1.293796151876449585e-01
6.010000000000000000e+03 2.321870422363281250e+01 -2.160680770874023438e+01 -6.827987730503082275e-02 2.636699378490447998e-01 5.861701443791389465e-02 -1.171049699187278748e-01
6.011000000000000000e+03 2.184317588806152344e+01 -1.955602645874023438e+01 -1.054837629199028015e-01 2.176659256219863892e-01 3.365464881062507629e-02 -1.070160791277885437e-01
6.012000000000000000e+03 1.178947830200195312e+01 -1.534849357604980469e+01 -6.196275725960731506e-02 2.088957279920578003e-02 -1.232195552438497543e-02 -1.053823083639144897e-01
6.013000000000000000e+03 1.120719909667968750e+01 -1.420314407348632812e+01 -6.471921503543853760e-02 1.669310778379440308e-02 -1.440783217549324036e-02 -9.361919015645980835e-02
6.014000000000000000e+03 1.316335391998291016e+01 -1.656953811645507812e+01 -6.704239547252655029e-02 3.770902752876281738e-02 -8.800011128187179565e-03 -1.196146383881568909e-01
6.015000000000000000e+03 1.228321647644042969e+01 -2.018416595458984375e+01 -2.985130995512008667e-02 1.532853767275810242e-02 -4.356831777840852737e-03 -1.397682577371597290e-01
6.016000000000000000e+03 1.171842193603515625e+01 -1.881403732299804688e+01 -3.856130689382553101e-02 9.599315933883190155e-03 -8.688597939908504486e-03 -1.316591799259185791e-01
6.017000000000000000e+03 2.273302268981933594e+01 -1.903942680358886719e+01 -1.302026212215423584e-01 2.350669801235198975e-01 3.145930916070938110e-02 -1.000522449612617493e-01
6.018000000000000000e+03 1.283446884155273438e+01 -1.831502342224121094e+01 -4.975021257996559143e-02 3.048191592097282410e-02 -5.780488252639770508e-03 -1.317542344331741333e-01
6.019000000000000000e+03 1.488894176483154297e+01 -1.694469451904296875e+01 -7.927995175123214722e-02 6.453217566013336182e-02 -4.424332175403833389e-03 -1.223018020391464233e-01
6.020000000000000000e+03 1.100884723663330078e+01 -1.759896087646484375e+01 -4.319026693701744080e-02 1.954431179910898209e-03 -1.237075123935937881e-02 -1.223779022693634033e-01
6.021000000000000000e+03 6.836460113525390625e+01 3.839994812011718750e+01 -1.732723265886306763e-01 5.857030391693115234e+00 1.705127358436584473e+00 7.197056710720062256e-02
6.022000000000000000e+03 1.179753303527832031e+01 -3.849370574951171875e+01 8.552185446023941040e-02 -5.349858850240707397e-02 9.606979787349700928e-03 -4.358100518584251404e-02
6.023000000000000000e+03 2.549298667907714844e+01 2.468307733535766602e+00 -8.422320485115051270e-01 -1.089145317673683167e-01 -2.853439748287200928e-01 -2.547460198402404785e-01
6.024000000000000000e+03 1.545903778076171875e+01 -1.702306389808654785e+00 -3.535665571689605713e-03 -6.292475736699998379e-04 -1.249474007636308670e-03 3.633616724982857704e-03
6.025000000000000000e+03 1.549904060363769531e+01 6.570991516113281250e+00 1.087560579180717468e-01 5.536462739109992981e-02 4.923620820045471191e-02 8.656688779592514038e-02
6.026000000000000000e+03 1.888642501831054688e+01 2.162136077880859375e+00 -7.758862921036779881e-04 7.400826085358858109e-03 1.987481955438852310e-03 1.526968437246978283e-03
6.027000000000000000e+03 1.595708751678466797e+01 6.542951583862304688e+00 6.917433440685272217e-02 2.714666351675987244e-02 2.889629825949668884e-02 4.766226932406425476e-02
6.028000000000000000e+03 3.651064300537109375e+01 8.839364051818847656e+00 -7.037361152470111847e-03 -3.083713352680206299e-03 -3.036322304978966713e-03 1.324037322774529457e-03
6.029000000000000000e+03 3.782532501220703125e+01 4.637909889221191406e+00 2.148061990737915039e-02 -1.130464076995849609e-01 -2.746973559260368347e-02 6.174821779131889343e-02
6.030000000000000000e+03 1.807503128051757812e+01 6.624210357666015625e+00 -6.541565805673599243e-02 -4.444575402885675430e-03 -2.095807157456874847e-02 -2.690205909311771393e-02
6.031000000000000000e+03 2.562524795532226562e+01 1.569787693023681641e+01 -5.267040729522705078e-01 -1.503774244338274002e-02 -1.625225394964218140e-01 5.108735561370849609e-01
6.032000000000000000e+03 2.609330368041992188e+01 1.645734024047851562e+01 -1.083573579788208008e+00 1.191101670265197754e-01 -2.893390357494354248e-01 5.165051221847534180e-01
6.033000000000000000e+03 1.497761344909667969e+01 -2.219714164733886719e+00 -1.021327730268239975e-02 -1.546207698993384838e-03 -3.527845488861203194e-03 5.862542893737554550e-03
6.034000000000000000e+03 1.568020915985107422e+01 -1.730859756469726562e+00 -3.251336980611085892e-03 -3.552469192072749138e-03 -2.041141968220472336e-03 2.848510397598147392e-03
6.035000000000000000e+03 1.484853935241699219e+01 -2.716359376907348633e+00 -1.731980778276920319e-02 -5.897873779758810997e-04 -5.372878629714250565e-03 7.247595116496086121e-03
6.036000000000000000e+03 7.581309509277343750e+01 -3.955150604248046875e+01 1.780367642641067505e-02 7.392272949218750000e+00 2.223022937774658203e+00 4.412573575973510742e-02
6.037000000000000000e+03 4.759187698364257812e+00 -3.832357168197631836e+00 -7.280427962541580200e-03 -3.084233263507485390e-03 -3.109398297965526581e-03 -5.589264910668134689e-03
6.038000000000000000e+03 5.284671783447265625e+00 -4.124076843261718750e+00 -9.333815425634384155e-03 -2.950062043964862823e-03 -3.685163334012031555e-03 -7.100592833012342453e-03
6.039000000000000000e+03 4.132015705108642578e+00 -4.129254531860351562e+01 1.442934107035398483e-02 -3.545727729797363281e-01 -1.020430326461791992e-01 -1.323661021888256073e-02
6.040000000000000000e+03 1.438270854949951172e+01 -4.101933956146240234e+00 -3.790035471320152283e-02 5.171702243387699127e-03 -9.818595834076404572e-03 9.694075211882591248e-03
6.041000000000000000e+03 6.636581420898437500e+01 1.313969326019287109e+01 2.888918161392211914e+00 1.325971794128417969e+01 4.844591140747070312e+00 2.118526995182037354e-01
6.042000000000000000e+03 2.468998527526855469e+01 1.405229568481445312e+00 -2.152728438377380371e-01 -1.952215731143951416e-01 -1.231483221054077148e-01 -3.090377748012542725e-01
6.043000000000000000e+03 4.320798492431640625e+01 -4.734269142150878906e+00 3.147852182388305664e+00 6.929063320159912109e+00 3.023074626922607422e+00 8.591141700744628906e-01
6.044000000000000000e+03 7.569846630096435547e+00 -2.489330053329467773e+00 -9.567471221089363098e-03 9.313054033555090427e-05 -2.842302201315760612e-03 -4.017840605229139328e-03
6.045000000000000000e+03 7.104093074798583984e+00 -2.756073951721191406e+00 -1.069274172186851501e-02 -2.415981143712997437e-04 -3.280302044004201889e-03 -4.649201873689889908e-03
6.046000000000000000e+03 5.147212219238281250e+01 1.012130355834960938e+01 1.760452985763549805e+00 1.754224014282226562e+01 5.790807723999023438e+00 9.141260385513305664e-01
6.047000000000000000e+03 2.735360336303710938e+01 -9.097857475280761719e+00 -1.896324902772903442e-01 2.516751587390899658e-01 1.861280202865600586e-02 2.315289527177810669e-01
6.048000000000000000e+03 2.888921546936035156e+01 -3.328444063663482666e-01 1.090355992317199707e+00 3.879616558551788330e-01 4.434953033924102783e-01 1.278468817472457886e-01
6.049000000000000000e+03 4.388554382324218750e+01 -6.422310829162597656e+00 1.203455209732055664e+00 9.444515228271484375e+00 3.194391250610351562e+00 6.695073843002319336e-01
6.050000000000000000e+03 2.739250755310058594e+01 1.949068784713745117e+00 -3.931069076061248779e-01 -4.230527281761169434e-01 -2.448478937149047852e-01 -4.951540529727935791e-01
6.051000000000000000e+03 4.157103347778320312e+01 -1.458995628356933594e+01 7.532198429107666016e-01 7.252859115600585938e+00 2.401823759078979492e+00 1.636241793632507324e+00
6.052000000000000000e+03 5.882775115966796875e+01 -3.683410584926605225e-01 -1.909714579582214355e+00 1.482402682304382324e+00 -1.281935721635818481e-01 -1.391311526298522949e+00
6.053000000000000000e+03 6.705200958251953125e+01 1.398882198333740234e+01 1.354916453361511230e+00 1.064201736450195312e+01 3.599080324172973633e+00 7.853443026542663574e-01
6.054000000000000000e+03 6.969838714599609375e+01 7.741020202636718750e+00 -2.261532783508300781e+00 7.610887050628662109e+00 1.604806303977966309e+00 -9.373411536216735840e-01
6.055000000000000000e+03 1.352658462524414062e+01 -3.604032516479492188e+00 -3.071830049157142639e-02 5.368568468838930130e-03 -7.604919839650392532e-03 5.194193683564662933e-03
6.056000000000000000e+03 3.378186225891113281e+00 -3.490879440307617188e+01 1.298256497830152512e-02 -3.428122103214263916e-01 -9.894888848066329956e-02 -3.828066214919090271e-02
6.057000000000000000e+03 2.197059822082519531e+01 1.170117631554603577e-01 1.669716835021972656e-02 -7.824405282735824585e-02 -1.846406608819961548e-02 -1.463984046131372452e-02
6.058000000000000000e+03 2.236569213867187500e+01 2.243418395519256592e-01 1.462845969945192337e-02 -1.205932870507240295e-01 -3.178944811224937439e-02 -4.339279234409332275e-02
6.059000000000000000e+03 4.228200531005859375e+01 -1.788671112060546875e+01 -7.542183995246887207e-01 4.580155372619628906e+00 1.147781133651733398e+00 -1.163142323493957520e-01
6.060000000000000000e+03 2.323107481002807617e+00 -3.224084472656250000e+01 5.858984775841236115e-03 -3.572818040847778320e-01 -1.054268479347229004e-01 -3.533308580517768860e-02
6.061000000000000000e+03 7.358683776855468750e+01 -1.188485145568847656e+01 9.744361639022827148e-01 1.153604412078857422e+01 3.753144264221191406e+00 1.055888086557388306e-01
6.062000000000000000e+03 4.283955764770507812e+01 -9.391880989074707031e+00 -1.053093791007995605e+00 5.874287128448486328e+00 1.446357965469360352e+00 1.518887162208557129e+00
6.063000000000000000e+03 4.265224933624267578e+00 5.207664012908935547e+00 -3.391500934958457947e-02 2.390412613749504089e-03 -9.457379579544067383e-03 1.760343834757804871e-02
6.064000000000000000e+03 3.813992738723754883e+00 5.399293899536132812e+00 -1.246005482971668243e-02 -3.668346907943487167e-03 -4.838520195335149765e-03 2.207592129707336426e-02
6.065000000000000000e+03 5.815838813781738281e+00 -4.445434570312500000e+00 -1.223407685756683350e-02 -2.839842578396201134e-03 -4.522175528109073639e-03 -9.032964706420898438e-03
6.066000000000000000e+03 5.091098308563232422e+00 -4.750536918640136719e+00 -1.029175333678722382e-02 -4.355399869382381439e-03 -4.394145682454109192e-03 -9.088432416319847107e-03
6.067000000000000000e+03 3.044754028320312500e+00 -2.194107055664062500e+01 -1.254899427294731140e-03 -1.738639771938323975e-01 -5.253566056489944458e-02 -5.929125845432281494e-02
6.068000000000000000e+03 3.482371807098388672e+00 -1.590675258636474609e+01 -7.353483699262142181e-03 -8.076813071966171265e-02 -2.643648535013198853e-02 -5.220034345984458923e-02
6.069000000000000000e+03 7.807309722900390625e+01 9.027261734008789062e+00 -3.381539601832628250e-03 8.504092216491699219e+00 2.550213098526000977e+00 4.493088424205780029e-01
6.070000000000000000e+03 4.286625671386718750e+01 -4.021682739257812500e+00 2.589882373809814453e+00 5.793564796447753906e+00 2.515034198760986328e+00 4.918774068355560303e-01
6.071000000000000000e+03 5.797758102416992188e+01 -1.660228919982910156e+01 1.262064576148986816e+00 9.530911445617675781e+00 3.237892627716064453e+00 -4.773695766925811768e-01
6.072000000000000000e+03 5.931322860717773438e+01 -2.633638381958007812e-01 -2.111904382705688477e+00 1.750623226165771484e+00 -1.083843410015106201e-01 -8.119544982910156250e-01
6.073000000000000000e+03 5.115951538085937500e+01 2.954380989074707031e+00 4.128386974334716797e+00 9.000914573669433594e+00 3.938790321350097656e+00 2.439003884792327881e-01
6.074000000000000000e+03 6.867561340332031250e+01 8.642253875732421875e+00 -1.352714061737060547e+00 1.000606536865234375e+01 2.596005439758300781e+00 -1.105933308601379395e+00
6.075000000000000000e+03 2.290342712402343750e+01 -1.161494922637939453e+01 -2.063448131084442139e-01 8.592511713504791260e-02 -3.612590581178665161e-02 9.780561923980712891e-02
6.076000000000000000e+03 3.687259197235107422e+00 -1.442560863494873047e+01 -8.463367819786071777e-03 -6.383136659860610962e-02 -2.168842032551765442e-02 -4.857217893004417419e-02
6.077000000000000000e+03 3.218505620956420898e+00 -1.403805541992187500e+01 -7.795811630785465240e-03 -6.098211556673049927e-02 -2.063337713479995728e-02 -4.186509177088737488e-02
6.078000000000000000e+03 7.233459949493408203e+00 -3.795858144760131836e+00 -1.526432391256093979e-02 -2.793636522255837917e-04 -4.663106054067611694e-03 -7.876894436776638031e-03
6.079000000000000000e+03 1.733057785034179688e+01 -5.991020202636718750e+00 -7.795013487339019775e-02 -1.866905018687248230e-03 -2.394511364400386810e-02 3.219418972730636597e-02
6.080000000000000000e+03 1.647455024719238281e+01 -6.041009902954101562e+00 -7.843521237373352051e-02 8.720685727894306183e-03 -2.091435715556144714e-02 2.212997525930404663e-02
6.081000000000000000e+03 7.879606246948242188e+00 8.014569282531738281e+00 6.247907876968383789e-02 -4.110766947269439697e-02 6.411422509700059891e-03 3.367687761783599854e-02
6.082000000000000000e+03 6.892117500305175781e+00 8.947383880615234375e+00 3.724354133009910583e-02 -3.153049573302268982e-02 1.713914098218083382e-03 4.223345220088958740e-02
6.083000000000000000e+03 7.434587097167968750e+01 -3.643580245971679688e+01 2.104012481868267059e-02 7.090728282928466797e+00 2.133530616760253906e+00 1.574310846626758575e-02
6.084000000000000000e+03 6.615933990478515625e+01 -1.621702384948730469e+01 -5.660817027091979980e-01 3.097956895828247070e+00 7.595624923706054688e-01 -1.252146720886230469e+00
6.085000000000000000e+03 5.146431350708007812e+01 8.622344970703125000e+00 -1.514849066734313965e-01 1.536639976501464844e+01 4.564474582672119141e+00 2.035802900791168213e-01
6.086000000000000000e+03 4.070088386535644531e+00 3.652970886230468750e+01 2.233009971678256989e-02 -3.881813287734985352e-01 -1.097553670406341553e-01 5.889545753598213196e-02
6.087000000000000000e+03 2.823134613037109375e+01 2.165367603302001953e+00 -4.236639738082885742e-01 -3.390654027462005615e-01 -2.288188189268112183e-01 -4.781988561153411865e-01
6.088000000000000000e+03 3.537375640869140625e+01 -2.831488418579101562e+01 4.116981476545333862e-02 1.174194335937500000e+00 3.646092712879180908e-01 1.447707116603851318e-01
6.089000000000000000e+03 4.447100448608398438e+01 2.832474708557128906e+01 1.529172062873840332e-01 2.513887882232666016e+00 8.000415563583374023e-01 -7.307150363922119141e-01
6.090000000000000000e+03 2.841799545288085938e+01 1.394760847091674805e+00 1.372543871402740479e-01 -1.675382554531097412e-01 -9.085159748792648315e-03 -3.296226859092712402e-01
6.091000000000000000e+03 2.239677238464355469e+01 -2.723148763179779053e-01 4.300311580300331116e-02 -1.461004167795181274e-01 -3.092918917536735535e-02 -3.435805439949035645e-02
6.092000000000000000e+03 2.280604362487792969e+01 2.883387804031372070e-01 2.188048884272575378e-02 -1.338487118482589722e-01 -3.359046950936317444e-02 -8.399381488561630249e-02
6.093000000000000000e+03 8.095710754394531250e+00 9.223356246948242188e+00 3.742462769150733948e-02 -1.372104045003652573e-02 7.111075334250926971e-03 2.605088800191879272e-02
6.094000000000000000e+03 7.766149520874023438e+00 8.790758132934570312e+00 5.871881917119026184e-02 -2.452176436781883240e-02 1.025911606848239899e-02 2.350502833724021912e-02
6.095000000000000000e+03 2.139388847351074219e+01 7.798082828521728516e+00 -9.580334275960922241e-02 5.054355040192604065e-02 -1.357793714851140976e-02 -3.478321805596351624e-02
6.096000000000000000e+03 1.861352205276489258e+00 -1.275054931640625000e+01 -2.934968797490000725e-03 -5.195223912596702576e-02 -1.646616309881210327e-02 -2.219641767442226410e-02
6.097000000000000000e+03 2.611574649810791016e+00 -1.314791202545166016e+01 -4.993487615138292313e-03 -5.553357303142547607e-02 -1.815811730921268463e-02 -3.189244866371154785e-02
6.098000000000000000e+03 3.585391998291015625e+01 4.908987998962402344e+00 -5.554886162281036377e-02 -9.336631745100021362e-03 -1.946564763784408569e-02 1.502108722925186157e-01
6.099000000000000000e+03 3.636671829223632812e+01 4.469531536102294922e+00 -1.740847155451774597e-02 -6.194742023944854736e-02 -2.380676753818988800e-02 1.667932122945785522e-01
6.100000000000000000e+03 4.389558410644531250e+01 1.473746204376220703e+01 -1.044069766998291016e+00 4.492815732955932617e-01 -1.784364432096481323e-01 -1.505246311426162720e-01
6.101000000000000000e+03 3.566773223876953125e+01 7.588593482971191406e+00 -6.617608666419982910e-02 1.288389880210161209e-02 -1.598765514791011810e-02 1.295325718820095062e-02
6.102000000000000000e+03 4.955533599853515625e+01 -1.733963394165039062e+01 -1.476876139640808105e+00 3.084747195243835449e-01 -3.505204319953918457e-01 3.437746465206146240e-01
6.103000000000000000e+03 7.404319763183593750e+01 -8.833081245422363281e+00 1.003919124603271484e+00 9.236237525939941406e+00 3.072046756744384766e+00 5.304716825485229492e-01
6.104000000000000000e+03 4.901942062377929688e+01 5.324119567871093750e+00 2.055233001708984375e+00 6.558398723602294922e+00 2.584089517593383789e+00 1.976331591606140137e+00
6.105000000000000000e+03 2.298688697814941406e+01 -3.364038169384002686e-01 5.589050054550170898e-02 -2.111957073211669922e-01 -4.659156501293182373e-02 -7.334062457084655762e-02
6.106000000000000000e+03 7.428811645507812500e+01 -1.047179412841796875e+01 1.244385719299316406e+00 9.995576858520507812e+00 3.371988773345947266e+00 3.368254303932189941e-01
6.107000000000000000e+03 2.996724510192871094e+01 1.442131900787353516e+01 -8.356487154960632324e-01 3.079741820693016052e-02 -2.414553761482238770e-01 8.677286654710769653e-02
6.108000000000000000e+03 2.846802902221679688e+01 1.326852321624755859e+01 -3.572852313518524170e-01 -1.029513925313949585e-01 -1.380709856748580933e-01 9.766736766323447227e-04
6.109000000000000000e+03 5.852325057983398438e+01 -1.685003852844238281e+01 1.258605003356933594e+00 8.991018295288085938e+00 3.074887037277221680e+00 -5.745484232902526855e-01
6.110000000000000000e+03 2.263393402099609375e+01 7.648385524749755859e+00 -1.467061191797256470e-01 2.735119685530662537e-02 -3.580647706985473633e-02 -6.585718691349029541e-02
6.111000000000000000e+03 3.747151947021484375e+01 8.057754516601562500e+00 -1.929706707596778870e-02 -7.652314379811286926e-03 -8.084814064204692841e-03 8.007463067770004272e-03
6.112000000000000000e+03 4.160643386840820312e+01 -3.727220058441162109e+00 1.729820370674133301e+00 3.021853923797607422e+00 1.425502300262451172e+00 -1.783913522958755493e-01
6.113000000000000000e+03 7.396134948730468750e+01 -1.841652297973632812e+01 -9.227827787399291992e-01 8.232532501220703125e+00 2.192924976348876953e+00 4.408055841922760010e-01
6.114000000000000000e+03 6.648415374755859375e+01 6.026087760925292969e+00 -1.523137241601943970e-01 9.506030082702636719e+00 2.806114912033081055e+00 -1.117469310760498047e+00
6.115000000000000000e+03 6.696989440917968750e+01 6.399005889892578125e+00 -4.973719716072082520e-01 1.050597000122070312e+01 3.002579450607299805e+00 -1.814239501953125000e+00
6.116000000000000000e+03 7.820872497558593750e+01 3.770282030105590820e+00 -1.122021768242120743e-02 1.055620098114013672e+01 3.163494110107421875e+00 -2.524978876113891602e+00
6.117000000000000000e+03 6.383782958984375000e+01 8.602980375289916992e-01 -2.373665094375610352e+00 4.780131816864013672e+00 7.219399809837341309e-01 3.337935209274291992e+00
6.118000000000000000e+03 6.509274291992187500e+01 -1.605244255065917969e+01 -4.301001131534576416e-01 4.097449779510498047e+00 1.100204944610595703e+00 -1.452921867370605469e+00
6.119000000000000000e+03 1.687182617187500000e+01 -7.382269859313964844e+00 -1.182898283004760742e-01 2.189616672694683075e-02 -2.891809865832328796e-02 1.392511371523141861e-02
6.120000000000000000e+03 4.577401161193847656e+00 -4.465328693389892578e+00 -7.845949381589889526e-03 -4.143395926803350449e-03 -3.596803406253457069e-03 -6.998334545642137527e-03
6.121000000000000000e+03 3.665293931961059570e+00 -5.434452056884765625e+00 -6.410528905689716339e-03 -6.667966488748788834e-03 -3.923548851162195206e-03 -8.248219266533851624e-03
6.122000000000000000e+03 5.401928424835205078e+00 -5.692781448364257812e+00 -1.371678803116083145e-02 -5.464388523250818253e-03 -5.754353012889623642e-03 -1.328469347208738327e-02
6.123000000000000000e+03 4.471250534057617188e+01 1.963352966308593750e+01 4.396869838237762451e-01 1.447998642921447754e+00 5.663056969642639160e-01 -1.078224062919616699e+00
6.124000000000000000e+03 2.439912605285644531e+01 4.188804328441619873e-01 5.256652459502220154e-02 -2.707416713237762451e-01 -6.545254588127136230e-02 -2.468727678060531616e-01
6.125000000000000000e+03 2.568456840515136719e+01 -6.223627924919128418e-01 3.632894158363342285e-01 -3.971628248691558838e-01 -1.016202569007873535e-02 -1.904761493206024170e-01
6.126000000000000000e+03 4.768105697631835938e+01 -7.721548080444335938e-01 5.390105247497558594e-01 1.734757423400878906e+00 6.821303963661193848e-01 3.663951158523559570e+00
6.127000000000000000e+03 4.427811813354492188e+01 -1.670647430419921875e+01 -1.952965110540390015e-01 3.528500556945800781e+00 9.999612569808959961e-01 -2.619906663894653320e-01
6.128000000000000000e+03 4.287588882446289062e+01 -1.909156036376953125e+01 -1.061052680015563965e+00 3.836063385009765625e+00 8.325032591819763184e-01 -1.005476340651512146e-01
6.129000000000000000e+03 7.402118682861328125e+01 -3.486091613769531250e+01 4.407085105776786804e-02 7.030162334442138672e+00 2.122269868850708008e+00 4.839375615119934082e-02
6.130000000000000000e+03 5.766926193237304688e+01 -2.074164152145385742e+00 -2.449705302715301514e-01 3.560896396636962891e+00 9.947777390480041504e-01 -3.602042436599731445e+00
6.131000000000000000e+03 5.912554168701171875e+01 -2.269694566726684570e+00 9.791001677513122559e-02 3.939210891723632812e+00 1.211136341094970703e+00 -1.759780526161193848e+00
6.132000000000000000e+03 4.392766571044921875e+01 1.735628509521484375e+01 -8.338124305009841919e-02 7.154238224029541016e-01 1.896127611398696899e-01 -3.869976997375488281e-01
6.133000000000000000e+03 4.392831039428710938e+01 -9.715896099805831909e-02 -7.527049779891967773e-01 4.329322338104248047e+00 1.072985172271728516e+00 2.394415855407714844e+00
6.134000000000000000e+03 4.409331512451171875e+01 -8.017024993896484375e-01 -1.083788037300109863e+00 5.373208522796630859e+00 1.286826133728027344e+00 2.664561986923217773e+00
6.135000000000000000e+03 2.316911506652832031e+01 8.291371345520019531e+00 -1.411338895559310913e-01 3.967231512069702148e-02 -3.043847158551216125e-02 -5.448855087161064148e-02
6.136000000000000000e+03 2.246937370300292969e+01 8.168432235717773438e+00 -1.130998283624649048e-01 5.645179003477096558e-02 -1.699441112577915192e-02 -2.992560341954231262e-02
6.137000000000000000e+03 4.204685211181640625e+01 -7.933968544006347656e+00 -3.219821155071258545e-01 4.999977588653564453e+00 1.403398633003234863e+00 1.405285358428955078e+00
6.138000000000000000e+03 3.547367477416992188e+01 3.921742439270019531e+00 -1.934945210814476013e-02 -1.951380749233067036e-03 -6.390249822288751602e-03 2.283443212509155273e-01
6.139000000000000000e+03 4.030707550048828125e+01 -5.209914684295654297e+00 1.363398671150207520e+00 1.176337122917175293e+00 7.619207501411437988e-01 1.805779933929443359e-01
6.140000000000000000e+03 2.374626159667968750e+01 6.883172988891601562e-01 -4.753633216023445129e-02 -1.612105816602706909e-01 -6.262407451868057251e-02 -1.980859041213989258e-01
6.141000000000000000e+03 2.342834663391113281e+01 6.435878276824951172e-01 -1.340394653379917145e-02 -1.454865783452987671e-01 -4.766715690493583679e-02 -1.434470862150192261e-01
6.142000000000000000e+03 6.004352951049804688e+01 -3.165284991264343262e-01 -2.359020948410034180e+00 2.850913524627685547e+00 1.475677490234375000e-01 -1.756321340799331665e-01
6.143000000000000000e+03 2.210344314575195312e+00 3.590409469604492188e+01 4.722210112959146500e-03 -4.414312243461608887e-01 -1.310127079486846924e-01 3.571801632642745972e-02
6.144000000000000000e+03 6.025268554687500000e+01 1.241618394851684570e+00 -4.191761016845703125e+00 1.517689108848571777e+00 -8.022215366363525391e-01 -2.501705884933471680e-01
6.145000000000000000e+03 4.477569961547851562e+01 -1.813295555114746094e+01 -7.137784957885742188e-01 3.104020357131958008e+00 7.170725464820861816e-01 -5.321466922760009766e-01
6.146000000000000000e+03 3.285141706466674805e+00 -1.115379810333251953e+01 -8.144279941916465759e-03 -3.479437157511711121e-02 -1.288159471005201340e-02 -2.957360260188579559e-02
6.147000000000000000e+03 2.567365646362304688e+00 -1.124951553344726562e+01 -4.917202517390251160e-03 -3.677758201956748962e-02 -1.250843517482280731e-02 -2.460281364619731903e-02
6.148000000000000000e+03 1.964129924774169922e+00 3.466061019897460938e+01 6.937297061085700989e-03 -4.255044460296630859e-01 -1.255701482295989990e-01 4.004956036806106567e-02
6.149000000000000000e+03 2.949199295043945312e+01 1.412074947357177734e+01 -6.624895930290222168e-01 -5.632506683468818665e-03 -2.004366368055343628e-01 4.832852259278297424e-02
6.150000000000000000e+03 7.722954559326171875e+01 1.486111521720886230e+00 -2.171684741973876953e+00 1.006279468536376953e+01 2.367332935333251953e+00 -1.070781588554382324e+00
6.151000000000000000e+03 7.815792846679687500e+01 1.066947340965270996e+00 -1.051453828811645508e+00 1.138535594940185547e+01 3.100170612335205078e+00 -8.451423048973083496e-01
6.152000000000000000e+03 7.808270263671875000e+01 1.013776016235351562e+01 -3.913498520851135254e-01 8.092349052429199219e+00 2.310299873352050781e+00 2.604946494102478027e-01
6.153000000000000000e+03 6.250498962402343750e+01 1.596338844299316406e+01 1.864101290702819824e+00 2.267510652542114258e+00 1.239483594894409180e+00 -1.458859205245971680e+00
6.154000000000000000e+03 2.322430992126464844e+01 -1.037124752998352051e+00 1.205845177173614502e-01 -2.860190272331237793e-01 -4.963035508990287781e-02 -2.830198965966701508e-02
6.155000000000000000e+03 7.731502532958984375e+01 1.072591686248779297e+01 -6.334207653999328613e-01 8.238476753234863281e+00 2.281516790390014648e+00 -4.926351904869079590e-01
6.156000000000000000e+03 2.743336677551269531e+01 -9.393147826194763184e-01 7.858341932296752930e-01 -1.430171877145767212e-01 1.928450912237167358e-01 7.613146305084228516e-02
6.157000000000000000e+03 3.498580551147460938e+01 4.561852455139160156e+00 -1.032907888293266296e-01 6.511828303337097168e-02 -1.145175192505121231e-02 1.878601759672164917e-01
6.158000000000000000e+03 3.994147109985351562e+01 -3.952164173126220703e+00 1.346407175064086914e+00 6.052780151367187500e-01 5.855055451393127441e-01 -3.277423381805419922e-01
6.159000000000000000e+03 5.690403366088867188e+01 -2.462447929382324219e+01 -8.517637848854064941e-01 4.788120746612548828e+00 1.180907130241394043e+00 7.243154048919677734e-01
6.160000000000000000e+03 5.790898132324218750e+01 -2.332057762145996094e+01 -1.162628650665283203e+00 5.746737003326416016e+00 1.375232577323913574e+00 2.912941277027130127e-01
6.161000000000000000e+03 4.347109603881835938e+01 -1.990519714355468750e+01 -9.744579792022705078e-01 3.336521387100219727e+00 7.086189985275268555e-01 -2.397886216640472412e-01
6.162000000000000000e+03 5.353185653686523438e+01 7.811810493469238281e+00 -8.739330768585205078e-01 1.286833953857421875e+01 3.598322153091430664e+00 -2.104536741971969604e-01
6.163000000000000000e+03 6.848300933837890625e+01 1.401867103576660156e+01 1.902462840080261230e+00 8.182157516479492188e+00 3.025386333465576172e+00 1.407357692718505859e+00
6.164000000000000000e+03 2.745309591293334961e+00 2.060603904724121094e+01 -9.628385305404663086e-03 -1.148084029555320740e-01 -3.733103722333908081e-02 3.997003659605979919e-02
6.165000000000000000e+03 2.695164918899536133e+00 9.411901473999023438e+00 2.299402607604861259e-03 -3.469400480389595032e-02 -9.718380868434906006e-03 2.289693802595138550e-02
6.166000000000000000e+03 3.554379272460937500e+01 4.415128707885742188e+00 -8.459096401929855347e-02 6.369411945343017578e-03 -2.346646599471569061e-02 2.064053714275360107e-01
6.167000000000000000e+03 2.900187873840332031e+01 -7.390463829040527344e+00 -1.900367289781570435e-01 3.309809267520904541e-01 4.228325933218002319e-02 2.971034348011016846e-01
6.168000000000000000e+03 4.632082939147949219e+00 -5.898939132690429688e+00 -1.078891009092330933e-02 -7.410668767988681793e-03 -5.459873937070369720e-03 -1.256007421761751175e-02
6.169000000000000000e+03 4.807342052459716797e+00 -1.490370464324951172e+01 -1.393898669630289078e-02 -5.930612981319427490e-02 -2.197353541851043701e-02 -6.174044683575630188e-02
6.170000000000000000e+03 4.636510467529296875e+01 -1.525646686553955078e+01 -5.829907059669494629e-01 1.990479350090026855e+00 4.222465753555297852e-01 -3.025324782356619835e-03
6.171000000000000000e+03 5.994283676147460938e+01 -2.939459419250488281e+01 -3.257516324520111084e-01 4.880365371704101562e+00 1.366384029388427734e+00 5.053684115409851074e-02
6.172000000000000000e+03 1.601605987548828125e+01 -7.412563323974609375e+00 -1.066542267799377441e-01 2.522977627813816071e-02 -2.442733570933341980e-02 4.653955809772014618e-03
6.173000000000000000e+03 1.319397258758544922e+01 -5.695368766784667969e+00 -5.497035011649131775e-02 1.427816413342952728e-02 -1.220765616744756699e-02 -2.752385800704360008e-03
6.174000000000000000e+03 2.252913475036621094e+01 -1.332374382019042969e+01 -2.217103987932205200e-01 1.457170546054840088e-01 -2.279800362884998322e-02 3.706148266792297363e-02
6.175000000000000000e+03 7.371857452392578125e+01 -8.384505271911621094e+00 9.087879061698913574e-01 9.144896507263183594e+00 3.016105413436889648e+00 3.716431558132171631e-01
6.176000000000000000e+03 7.839695739746093750e+01 -2.890296697616577148e+00 -1.257184892892837524e-01 1.087346935272216797e+01 3.224325180053710938e+00 1.040157675743103027e+00
6.177000000000000000e+03 3.851838588714599609e+00 -4.806952953338623047e+00 -6.226101424545049667e-03 -5.046889185905456543e-03 -3.381897229701280594e-03 -6.504244636744260788e-03
6.178000000000000000e+03 5.963891029357910156e+00 -6.031389236450195312e+00 -1.670430414378643036e-02 -4.792522639036178589e-03 -6.449047941714525223e-03 -1.568399369716644287e-02
6.179000000000000000e+03 1.140127658843994141e+01 -2.904092597961425781e+01 3.809325397014617920e-02 -4.307551309466362000e-02 -1.494677620939910412e-03 -1.261651217937469482e-01
6.180000000000000000e+03 2.762672042846679688e+01 -1.112042045593261719e+01 -3.642966449260711670e-01 3.084549307823181152e-01 -1.675250940024852753e-02 1.710737347602844238e-01
6.181000000000000000e+03 5.884193420410156250e+01 -2.385276794433593750e+01 -1.048236846923828125e+00 5.967090606689453125e+00 1.475656151771545410e+00 1.571425120346248150e-03
6.182000000000000000e+03 5.861854553222656250e+01 -2.003763675689697266e+00 -1.356368362903594971e-01 3.276029109954833984e+00 9.421176314353942871e-01 -2.389649152755737305e+00
6.183000000000000000e+03 5.815098571777343750e+01 -1.939717769622802734e+00 -2.173295319080352783e-01 3.245942592620849609e+00 9.085838794708251953e-01 -3.020761728286743164e+00
6.184000000000000000e+03 3.382973194122314453e+00 -1.323990917205810547e+01 -8.529942482709884644e-03 -5.180582031607627869e-02 -1.810072734951972961e-02 -3.973232209682464600e-02
6.185000000000000000e+03 4.547582626342773438e+01 -1.793155860900878906e+01 -7.064195275306701660e-01 2.670391321182250977e+00 5.891914963722229004e-01 -5.374321937561035156e-01
6.186000000000000000e+03 5.213407135009765625e+01 7.510187149047851562e+00 -6.694425344467163086e-01 1.423386383056640625e+01 4.069326400756835938e+00 -5.581811070442199707e-01
6.187000000000000000e+03 8.469992637634277344e+00 3.091718673706054688e+01 2.860429137945175171e-02 -2.112805545330047607e-01 -5.480287969112396240e-02 1.675559431314468384e-01
6.188000000000000000e+03 1.915589332580566406e+01 -2.370467185974121094e+01 -7.419601315632462502e-04 1.706388890743255615e-01 5.096907913684844971e-02 -1.479203552007675171e-01
6.189000000000000000e+03 6.448927307128906250e+01 -1.648470878601074219e+01 -1.513724178075790405e-01 4.679098606109619141e+00 1.358317852020263672e+00 -1.576865911483764648e+00
6.190000000000000000e+03 2.427015686035156250e+01 2.209091567993164062e+01 -2.487133443355560303e-01 -1.488722562789916992e-01 -1.192756816744804382e-01 3.213045597076416016e-01
6.191000000000000000e+03 3.517745971679687500e+01 6.105731487274169922e+00 -1.241776347160339355e-01 5.092842131853103638e-02 -2.197476476430892944e-02 7.358304411172866821e-02
6.192000000000000000e+03 4.961281585693359375e+01 1.505316019058227539e+00 2.603412151336669922e+00 4.877294063568115234e+00 2.244211912155151367e+00 2.114130496978759766e+00
6.193000000000000000e+03 5.431046676635742188e+01 -4.913162708282470703e+00 -1.928275823593139648e+00 6.149112224578857422e+00 1.266250967979431152e+00 -2.240312814712524414e+00
6.194000000000000000e+03 4.399739456176757812e+01 -1.105262279510498047e+01 -1.092177510261535645e+00 5.469860076904296875e+00 1.313304781913757324e+00 1.270891070365905762e+00
6.195000000000000000e+03 2.620174217224121094e+01 -2.179211378097534180e+00 4.497824311256408691e-01 -2.217952907085418701e-01 6.839614361524581909e-02 1.358779817819595337e-01
6.196000000000000000e+03 6.255798339843750000e+01 1.660360145568847656e+01 1.831829786300659180e+00 2.859038352966308594e+00 1.407260417938232422e+00 -1.248463153839111328e+00
6.197000000000000000e+03 3.766553497314453125e+01 1.519701385498046875e+01 -1.337366938591003418e+00 8.379387855529785156e-02 -3.760719001293182373e-01 8.265288174152374268e-02
6.198000000000000000e+03 7.457615661621093750e+01 -8.623975753784179688e+00 8.279762864112854004e-01 8.961184501647949219e+00 2.936748027801513672e+00 8.333395719528198242e-01
6.199000000000000000e+03 3.062024116516113281e+00 -6.067608833312988281e+00 -4.953551106154918671e-03 -8.261341601610183716e-03 -3.964467905461788177e-03 -8.619726635515689850e-03
6.200000000000000000e+03 4.299106597900390625e+01 -2.031873512268066406e+01 -1.060085415840148926e+00 3.333818674087524414e+00 6.821199655532836914e-01 -9.266483038663864136e-02
6.201000000000000000e+03 3.346347427368164062e+01 3.517660856246948242e+00 -1.575816869735717773e-01 2.166657596826553345e-01 1.772522181272506714e-02 3.386680781841278076e-01
6.202000000000000000e+03 1.532026195526123047e+01 -6.718013286590576172e+00 -8.767425268888473511e-02 2.081330865621566772e-02 -2.005828358232975006e-02 2.466348232701420784e-03
6.203000000000000000e+03 3.197991752624511719e+01 -1.531760215759277344e+01 -5.582272410392761230e-01 2.217348963022232056e-01 -1.009477004408836365e-01 9.155255556106567383e-02
6.204000000000000000e+03 5.273861694335937500e+01 9.343524932861328125e+00 2.951244115829467773e-01 1.423515987396240234e+01 4.359085559844970703e+00 -2.796450853347778320e-01
6.205000000000000000e+03 1.049106788635253906e+01 1.220911407470703125e+01 4.174629691988229752e-03 4.412537813186645508e-02 1.449000276625156403e-02 2.792694792151451111e-02
6.206000000000000000e+03 5.000389575958251953e+00 -2.598051452636718750e+01 3.788358531892299652e-03 -1.861403286457061768e-01 -5.470559000968933105e-02 -8.675283938646316528e-02
6.207000000000000000e+03 3.437216567993164062e+01 4.500013828277587891e+00 -2.078560441732406616e-01 1.137742772698402405e-01 -2.822452969849109650e-02 2.064197659492492676e-01
6.208000000000000000e+03 3.884939670562744141e+00 3.426585006713867188e+01 1.950453221797943115e-02 -3.611997961997985840e-01 -1.025085747241973877e-01 7.534957677125930786e-02
6.209000000000000000e+03 2.354402923583984375e+01 2.366940879821777344e+01 -1.191814020276069641e-01 -1.195027157664299011e-01 -7.160523533821105957e-02 3.386292159557342529e-01
6.210000000000000000e+03 3.475069427490234375e+01 2.765327644348144531e+01 3.217997550964355469e-01 5.738192200660705566e-01 2.686856985092163086e-01 -9.633896499872207642e-02
6.211000000000000000e+03 6.143762207031250000e+01 -4.750395417213439941e-01 -2.660687923431396484e+00 5.287595272064208984e+00 7.880722284317016602e-01 1.037832617759704590e+00
6.212000000000000000e+03 4.845664215087890625e+01 9.181509017944335938e-01 1.999491333961486816e+00 3.156106472015380859e+00 1.546679377555847168e+00 2.944761753082275391e+00
6.213000000000000000e+03 3.331696987152099609e+00 1.182609272003173828e+01 6.519826594740152359e-03 -4.749885573983192444e-02 -1.229370851069688797e-02 1.759105361998081207e-02
6.214000000000000000e+03 3.713572740554809570e+00 -1.243636417388916016e+01 -1.017489377409219742e-02 -4.416233673691749573e-02 -1.630116812884807587e-02 -3.963324055075645447e-02
6.215000000000000000e+03 5.057110595703125000e+01 -2.506802558898925781e+01 -2.951659820973873138e-02 2.026193618774414062e+00 5.990030765533447266e-01 1.386045515537261963e-01
6.216000000000000000e+03 6.989706420898437500e+01 1.248877143859863281e+01 2.357701539993286133e+00 5.452659130096435547e+00 2.343108177185058594e+00 1.107553958892822266e+00
6.217000000000000000e+03 7.588689422607421875e+01 3.026229476928710938e+01 -3.560646623373031616e-02 6.194478034973144531e+00 1.847661495208740234e+00 1.772637963294982910e-01
6.218000000000000000e+03 3.322759151458740234e+00 2.390257453918457031e+01 -1.088736951351165771e-02 -1.660378575325012207e-01 -5.307756736874580383e-02 7.177132368087768555e-02
6.219000000000000000e+03 4.511021137237548828e+00 2.483660888671875000e+01 -1.411822810769081116e-02 -1.708749979734420776e-01 -5.549796670675277710e-02 9.867613762617111206e-02
6.220000000000000000e+03 3.532128334045410156e+00 -1.810596275329589844e+01 -5.814507603645324707e-03 -1.081728860735893250e-01 -3.419621661305427551e-02 -5.993716418743133545e-02
6.221000000000000000e+03 3.291004896163940430e+00 -1.048296546936035156e+01 -7.680434733629226685e-03 -3.007941506803035736e-02 -1.132795494049787521e-02 -2.680887281894683838e-02
6.222000000000000000e+03 4.008474349975585938e+00 -1.050098514556884766e+01 -1.129373721778392792e-02 -2.834958210587501526e-02 -1.189299579709768295e-02 -3.148319572210311890e-02
6.223000000000000000e+03 4.925855636596679688e+01 1.091690063476562500e+00 2.275599479675292969e+00 4.122006416320800781e+00 1.919281721115112305e+00 2.274079084396362305e+00
6.224000000000000000e+03 6.137622070312500000e+01 1.644833374023437500e+01 1.994718909263610840e+00 2.076288938522338867e+00 1.221302390098571777e+00 -3.373888731002807617e-01
6.225000000000000000e+03 2.863066864013671875e+01 2.282109451293945312e+01 -1.620790660381317139e-01 1.354062650352716446e-02 -4.456153139472007751e-02 2.673635184764862061e-01
6.226000000000000000e+03 3.423333358764648438e+01 -1.837115478515625000e+01 -1.838514804840087891e-01 2.859746813774108887e-01 3.063695691525936127e-02 1.706112474203109741e-01
6.227000000000000000e+03 5.755250930786132812e+01 -2.417295074462890625e+01 -1.075903058052062988e+00 5.512927055358886719e+00 1.331107139587402344e+00 5.015224814414978027e-01
6.228000000000000000e+03 9.003217697143554688e+00 1.273031520843505859e+01 -2.047767629846930504e-03 1.565504632890224457e-02 4.082183353602886200e-03 2.492053247988224030e-02
6.229000000000000000e+03 6.500749969482421875e+01 2.330085754394531250e+01 3.035305738449096680e-01 5.670072078704833984e+00 1.792080879211425781e+00 -1.277136951684951782e-01
6.230000000000000000e+03 4.175062561035156250e+01 1.801192665100097656e+01 -2.750450372695922852e-01 7.197099328041076660e-01 1.333994567394256592e-01 -2.656509280204772949e-01
6.231000000000000000e+03 3.268516540527343750e+01 2.184134292602539062e+01 -1.466803550720214844e-01 7.129297405481338501e-02 -2.261621318757534027e-02 2.025633156299591064e-01
6.232000000000000000e+03 5.023783874511718750e+01 -2.361459159851074219e+01 -1.492659896612167358e-01 1.672175645828247070e+00 4.568728804588317871e-01 -5.363087635487318039e-03
6.233000000000000000e+03 5.547574615478515625e+01 -2.592901802062988281e+01 -4.537281095981597900e-01 3.989447832107543945e+00 1.060715913772583008e+00 7.383120059967041016e-01
6.234000000000000000e+03 1.070895004272460938e+01 -7.277596473693847656e+00 -5.261383950710296631e-02 1.306684222072362900e-02 -1.186409965157508850e-02 -2.445993013679981232e-02
6.235000000000000000e+03 6.053826141357421875e+01 -1.168652343750000000e+01 6.387915015220642090e-01 8.155701637268066406e+00 2.638347864151000977e+00 1.405110508203506470e-01
6.236000000000000000e+03 4.045489120483398438e+01 -2.199970054626464844e+01 -7.211768627166748047e-01 2.435960054397583008e+00 5.144349336624145508e-01 4.852716624736785889e-01
6.237000000000000000e+03 7.441506195068359375e+01 1.485625839233398438e+01 9.276323318481445312e-01 5.326409339904785156e+00 1.876212477684020996e+00 -7.299262881278991699e-01
6.238000000000000000e+03 1.857189369201660156e+01 -2.250197792053222656e+01 -1.870791614055633545e-02 1.493735462427139282e-01 3.919968754053115845e-02 -1.466192752122879028e-01
6.239000000000000000e+03 3.868691205978393555e+00 1.991153526306152344e+01 -1.722946204245090485e-02 -9.983301907777786255e-02 -3.511874377727508545e-02 5.252027139067649841e-02
6.240000000000000000e+03 1.006462478637695312e+01 1.329112148284912109e+01 -1.921328157186508179e-02 3.404003009200096130e-02 4.448024556040763855e-03 3.069243021309375763e-02
6.241000000000000000e+03 3.553745651245117188e+01 -2.222407341003417969e+01 -3.937759250402450562e-02 8.863905072212219238e-01 2.541038691997528076e-01 3.809790611267089844e-01
6.242000000000000000e+03 7.688399505615234375e+01 -1.882227134704589844e+01 -2.680855095386505127e-01 8.283617019653320312e+00 2.404659509658813477e+00 -3.373040556907653809e-01
6.243000000000000000e+03 5.787459945678710938e+01 -4.377904415130615234e+00 3.787696957588195801e-01 5.646541118621826172e+00 1.807593226432800293e+00 -2.044737577438354492e+00
6.244000000000000000e+03 1.549418258666992188e+01 -7.790893077850341797e+00 -1.022449284791946411e-01 2.929022163152694702e-02 -2.188641205430030823e-02 -4.750245250761508942e-03
6.245000000000000000e+03 5.852126312255859375e+01 -6.142282009124755859e+00 8.890853524208068848e-01 6.718086719512939453e+00 2.282151699066162109e+00 -7.524258494377136230e-01
6.246000000000000000e+03 6.011867904663085938e+01 -2.346475028991699219e+01 -8.823029994964599609e-01 6.064686775207519531e+00 1.554715037345886230e+00 -4.232026040554046631e-01
6.247000000000000000e+03 6.092412567138671875e+01 -1.071221923828125000e+01 6.859066486358642578e-01 8.240508079528808594e+00 2.677924394607543945e+00 2.149785012006759644e-01
6.248000000000000000e+03 4.105130767822265625e+01 -2.199390220642089844e+01 -6.893702149391174316e-01 2.575683593750000000e+00 5.658940076828002930e-01 5.334510207176208496e-01
6.249000000000000000e+03 7.653765106201171875e+01 -3.151561546325683594e+01 3.680587559938430786e-02 7.569801330566406250e+00 2.281982183456420898e+00 8.610813319683074951e-02
6.250000000000000000e+03 6.605165863037109375e+01 2.349133682250976562e+01 1.964654028415679932e-01 5.867393970489501953e+00 1.819157838821411133e+00 -9.558486193418502808e-02
6.251000000000000000e+03 6.961116027832031250e+01 1.470349502563476562e+01 1.699936985969543457e+00 6.795625686645507812e+00 2.548668861389160156e+00 1.189110875129699707e+00
6.252000000000000000e+03 6.029475784301757812e+01 1.681217193603515625e+01 2.002883434295654297e+00 2.330937385559082031e+00 1.300146222114562988e+00 5.167256593704223633e-01
6.253000000000000000e+03 2.932319068908691406e+01 -1.180950164794921875e+01 -4.507984519004821777e-01 2.587053179740905762e-01 -5.762794613838195801e-02 1.582773774862289429e-01
6.254000000000000000e+03 3.410634279251098633e+00 2.325257301330566406e+01 -1.164066325873136520e-02 -1.552268564701080322e-01 -5.006025359034538269e-02 6.886866688728332520e-02
6.255000000000000000e+03 1.388319110870361328e+01 -7.464695453643798828e+00 -8.565844595432281494e-02 2.720377780497074127e-02 -1.753639988601207733e-02 -1.292166858911514282e-02
6.256000000000000000e+03 3.364335250854492188e+01 -1.802564430236816406e+01 -2.784637510776519775e-01 2.935474216938018799e-01 4.525102209299802780e-03 1.035941913723945618e-01
6.257000000000000000e+03 3.418961334228515625e+01 -1.774737167358398438e+01 -3.241327106952667236e-01 2.181146144866943359e-01 -3.180542588233947754e-02 1.308400928974151611e-01
6.258000000000000000e+03 3.399621200561523438e+01 -1.713129997253417969e+01 -3.806754052639007568e-01 1.835570931434631348e-01 -5.913549661636352539e-02 1.284283697605133057e-01
6.259000000000000000e+03 7.425904846191406250e+01 -2.056324958801269531e+01 -4.488538205623626709e-01 7.479791164398193359e+00 2.109281301498413086e+00 4.429848790168762207e-01
6.260000000000000000e+03 5.948588562011718750e+01 -2.641344070434570312e+01 -6.491717696189880371e-01 5.175629615783691406e+00 1.357937335968017578e+00 3.148251911625266075e-03
6.261000000000000000e+03 1.571133613586425781e+01 1.639070320129394531e+01 -2.065080404281616211e-01 7.870478928089141846e-02 -3.834097459912300110e-02 7.652854174375534058e-02
6.262000000000000000e+03 7.493299865722656250e+01 -5.149615764617919922e+00 -1.329941898584365845e-01 7.452353000640869141e+00 2.195807695388793945e+00 9.815286397933959961e-01
6.263000000000000000e+03 7.605818939208984375e+01 -6.482976913452148438e+00 1.791176050901412964e-01 8.379241943359375000e+00 2.567507982254028320e+00 1.423347949981689453e+00
6.264000000000000000e+03 7.644312286376953125e+01 1.583530616760253906e+01 3.517641127109527588e-01 5.876598358154296875e+00 1.868508696556091309e+00 -5.547584891319274902e-01
6.265000000000000000e+03 4.717304229736328125e+00 -1.067710971832275391e+01 -1.613206043839454651e-02 -2.653439529240131378e-02 -1.279993727803230286e-02 -3.812051191926002502e-02
6.266000000000000000e+03 7.441116333007812500e+01 -5.156961441040039062e+00 -2.125295400619506836e-01 7.143987178802490234e+00 2.079437255859375000e+00 5.586526989936828613e-01
6.267000000000000000e+03 4.739889526367187500e+01 -2.218872070312500000e+01 -6.030086278915405273e-01 1.962060809135437012e+00 4.077156484127044678e-01 -5.298725366592407227e-01
6.268000000000000000e+03 4.643507003784179688e+01 -2.207257461547851562e+01 -7.290198206901550293e-01 2.200253486633300781e+00 4.413700699806213379e-01 -5.507554411888122559e-01
6.269000000000000000e+03 5.098207092285156250e+01 -2.425902175903320312e+01 -7.653485238552093506e-02 1.890945792198181152e+00 5.443232655525207520e-01 2.309592068195343018e-01
6.270000000000000000e+03 1.022942543029785156e+01 1.265651512145996094e+01 -3.320480696856975555e-03 2.791134454309940338e-02 7.377258967608213425e-03 2.527303248643875122e-02
6.271000000000000000e+03 3.498519134521484375e+01 2.192464447021484375e+01 -4.488830268383026123e-02 1.895882040262222290e-01 4.340996965765953064e-02 3.556051105260848999e-02
6.272000000000000000e+03 4.837603569030761719e+00 1.816980552673339844e+01 -2.249091863632202148e-02 -7.107520848512649536e-02 -2.806983888149261475e-02 4.594644531607627869e-02
6.273000000000000000e+03 6.108385848999023438e+01 -1.188854789733886719e+01 5.296301245689392090e-01 8.023558616638183594e+00 2.565956830978393555e+00 2.295853756368160248e-02
6.274000000000000000e+03 2.411231994628906250e+01 2.450464439392089844e+01 -5.834172293543815613e-02 -9.010344743728637695e-02 -4.453355073928833008e-02 3.217656612396240234e-01
6.275000000000000000e+03 1.864432907104492188e+01 2.378515815734863281e+01 -1.398966014385223389e-01 -5.247254297137260437e-02 -5.771074444055557251e-02 3.433510065078735352e-01
6.276000000000000000e+03 7.474557495117187500e+01 -2.041376495361328125e+01 -4.333696365356445312e-01 7.765344619750976562e+00 2.199592351913452148e+00 2.883235216140747070e-01
6.277000000000000000e+03 6.941793060302734375e+01 1.625948715209960938e+01 9.145944714546203613e-01 7.071296691894531250e+00 2.395767211914062500e+00 8.072919845581054688e-01
6.278000000000000000e+03 7.024063110351562500e+01 1.625132560729980469e+01 1.109585404396057129e+00 6.405820846557617188e+00 2.254621982574462891e+00 7.821487188339233398e-01
6.279000000000000000e+03 3.529987335205078125e+01 2.083475875854492188e+01 -1.512998044490814209e-01 1.046410277485847473e-01 -1.399763394147157669e-02 5.412523820996284485e-02
6.280000000000000000e+03 3.884159851074218750e+01 1.859844398498535156e+01 -4.180639684200286865e-01 3.555721044540405273e-01 -1.874755881726741791e-02 -1.639915704727172852e-01
6.281000000000000000e+03 3.818819427490234375e+01 2.102740478515625000e+01 -3.074293211102485657e-02 4.440875351428985596e-01 1.240033805370330811e-01 -2.194696664810180664e-01
6.282000000000000000e+03 3.626016998291015625e+01 2.240000152587890625e+01 4.146103933453559875e-02 3.069936931133270264e-01 1.045364215970039368e-01 -9.111125767230987549e-02
6.283000000000000000e+03 6.073219680786132812e+01 1.785252189636230469e+01 1.860470294952392578e+00 3.019829273223876953e+00 1.464089870452880859e+00 2.448815256357192993e-01
6.284000000000000000e+03 7.626866912841796875e+01 -3.612146139144897461e+00 -1.925756633281707764e-01 7.930321216583251953e+00 2.321323633193969727e+00 1.327976942062377930e+00
6.285000000000000000e+03 7.595063781738281250e+01 -4.214056968688964844e+00 -1.190448701381683350e-01 7.796237468719482422e+00 2.303157806396484375e+00 1.329106092453002930e+00
6.286000000000000000e+03 6.336645507812500000e+01 -1.812307357788085938e+01 -5.094208754599094391e-03 5.380918979644775391e+00 1.612747430801391602e+00 -1.696200013160705566e+00
6.287000000000000000e+03 4.164427566528320312e+01 -2.210446929931640625e+01 -8.377801179885864258e-01 2.683320760726928711e+00 5.536622405052185059e-01 2.749033272266387939e-01
6.288000000000000000e+03 1.141128158569335938e+01 -7.274701118469238281e+00 -5.885290354490280151e-02 1.687339320778846741e-02 -1.259385328739881516e-02 -2.315569855272769928e-02
6.289000000000000000e+03 6.745059204101562500e+01 2.149834442138671875e+01 1.466960608959197998e-01 6.230371952056884766e+00 1.913120388984680176e+00 -1.587814986705780029e-01
6.290000000000000000e+03 5.791029357910156250e+01 -5.413788795471191406e+00 4.705504477024078369e-01 6.217767715454101562e+00 2.006495475769042969e+00 -1.467868328094482422e+00
6.291000000000000000e+03 5.795401382446289062e+01 -4.918868541717529297e+00 4.520717859268188477e-01 5.911064147949218750e+00 1.908940672874450684e+00 -1.727422237396240234e+00
6.292000000000000000e+03 5.853095245361328125e+01 -5.493961811065673828e+00 7.581979036331176758e-01 6.374954223632812500e+00 2.139945507049560547e+00 -1.087584853172302246e+00
6.293000000000000000e+03 2.387500000000000000e+01 -2.231827545166015625e+01 -4.226424917578697205e-02 2.873426079750061035e-01 7.352350652217864990e-02 -1.194557622075080872e-01
6.294000000000000000e+03 4.684733963012695312e+01 2.155963706970214844e+01 1.848112344741821289e-01 3.136718750000000000e+00 9.964590072631835938e-01 -1.559526324272155762e+00
6.295000000000000000e+03 5.713807296752929688e+01 2.336171913146972656e+01 1.631903499364852905e-01 5.402413845062255859e+00 1.669681310653686523e+00 6.266996264457702637e-01
6.296000000000000000e+03 7.063459777832031250e+01 1.777730751037597656e+01 6.594356298446655273e-01 6.423052310943603516e+00 2.124746322631835938e+00 4.960591793060302734e-01
6.297000000000000000e+03 4.163548660278320312e+01 1.734690666198730469e+01 -4.545445442199707031e-01 6.098954081535339355e-01 4.660526663064956665e-02 -1.691634804010391235e-01
6.298000000000000000e+03 5.809909820556640625e+01 2.610931396484375000e+01 3.253685683012008667e-02 5.263866901397705078e+00 1.588921070098876953e+00 2.827925682067871094e-01
6.299000000000000000e+03 3.547459793090820312e+01 2.432714843750000000e+01 1.767415553331375122e-01 4.206762015819549561e-01 1.792253255844116211e-01 -8.940020203590393066e-02
6.300000000000000000e+03 3.559634399414062500e+01 2.339965438842773438e+01 1.326672136783599854e-01 3.640549182891845703e-01 1.490166336297988892e-01 -7.471095770597457886e-02
6.301000000000000000e+03 4.511392211914062500e+01 -2.449658775329589844e+01 -4.874154925346374512e-01 2.285130977630615234e+00 5.393146872520446777e-01 -2.978313565254211426e-01
6.302000000000000000e+03 4.618101882934570312e+01 -2.307059669494628906e+01 -5.678505301475524902e-01 2.208476543426513672e+00 4.921878278255462646e-01 -4.522758126258850098e-01
6.303000000000000000e+03 4.717567062377929688e+01 -2.311114692687988281e+01 -5.167314410209655762e-01 1.991653323173522949e+00 4.424765706062316895e-01 -4.925585687160491943e-01
6.304000000000000000e+03 5.737046432495117188e+01 1.739273452758789062e+01 1.510285258293151855e+00 4.466271877288818359e+00 1.792967200279235840e+00 2.065167903900146484e+00
6.305000000000000000e+03 5.694881057739257812e+01 1.820203018188476562e+01 1.190364599227905273e+00 4.997619628906250000e+00 1.856395363807678223e+00 1.982684016227722168e+00
6.306000000000000000e+03 5.471284484863281250e+01 2.035475540161132812e+01 -3.352478891611099243e-02 6.448711395263671875e+00 1.924555897712707520e+00 1.119938731193542480e+00
6.307000000000000000e+03 7.587731933593750000e+01 -3.085884475708007812e+01 5.239041522145271301e-02 7.423854827880859375e+00 2.242873668670654297e+00 1.079739183187484741e-01
6.308000000000000000e+03 8.150820732116699219e+00 -2.741949462890625000e+01 1.335791125893592834e-02 -1.205561608076095581e-01 -3.215947374701499939e-02 -1.134342476725578308e-01
6.309000000000000000e+03 3.105902290344238281e+01 -1.330942630767822266e+01 -5.529735088348388672e-01 1.957256942987442017e-01 -1.071743518114089966e-01 1.404591500759124756e-01
6.310000000000000000e+03 4.981911849975585938e+01 2.159314918518066406e+01 -4.072398841381072998e-01 5.199839115142822266e+00 1.437779784202575684e+00 -1.342358231544494629e+00
6.311000000000000000e+03 3.973262405395507812e+01 2.032029914855957031e+01 -7.291813194751739502e-02 5.804007649421691895e-01 1.522447913885116577e-01 -2.859184443950653076e-01
6.312000000000000000e+03 2.364190483093261719e+01 2.549934768676757812e+01 1.333492528647184372e-02 -8.594302833080291748e-02 -2.178242988884449005e-02 3.187955021858215332e-01
6.313000000000000000e+03 4.449182510375976562e+01 -2.363999748229980469e+01 -6.108450889587402344e-01 2.389631986618041992e+00 5.336360931396484375e-01 -3.033569157123565674e-01
6.314000000000000000e+03 8.086256027221679688e+00 -8.601722717285156250e+00 -3.757045418024063110e-02 -4.998471122235059738e-04 -1.142109092324972153e-02 -3.605900332331657410e-02
6.315000000000000000e+03 3.340682983398437500e+01 2.603378295898437500e+01 2.232734858989715576e-01 3.709869086742401123e-01 1.782781183719635010e-01 1.774784736335277557e-02
6.316000000000000000e+03 7.030134582519531250e+01 2.034371566772460938e+01 2.391880601644515991e-01 6.412195205688476562e+00 1.995414972305297852e+00 2.765126526355743408e-01
6.317000000000000000e+03 6.969429779052734375e+01 2.001171875000000000e+01 2.082688510417938232e-01 6.538841724395751953e+00 2.024133205413818359e+00 2.189424186944961548e-01
6.318000000000000000e+03 6.213999938964843750e+01 -2.419429016113281250e+01 -4.605323970317840576e-01 5.658074378967285156e+00 1.559262633323669434e+00 -7.488595247268676758e-01
6.319000000000000000e+03 7.465179443359375000e+01 -2.104512977600097656e+01 -4.091500937938690186e-01 7.560779094696044922e+00 2.145488739013671875e+00 3.375788331031799316e-01
6.320000000000000000e+03 6.124663162231445312e+01 -1.142441844940185547e+01 5.544069409370422363e-01 8.050790786743164062e+00 2.581559181213378906e+00 7.314062118530273438e-02
6.321000000000000000e+03 1.049475288391113281e+01 -9.439832687377929688e+00 -6.088570877909660339e-02 1.441129948943853378e-02 -1.394232176244258881e-02 -4.503529891371726990e-02
6.322000000000000000e+03 2.948443031311035156e+01 -1.499356079101562500e+01 -4.419241249561309814e-01 3.072443306446075439e-01 -4.040393605828285217e-02 3.567947074770927429e-02
6.323000000000000000e+03 8.797012329101562500e+00 1.331922817230224609e+01 -1.112462393939495087e-02 1.949291559867560863e-03 -2.752599772065877914e-03 2.454852126538753510e-02
6.324000000000000000e+03 4.998167514801025391e+00 1.874584960937500000e+01 -2.685396187007427216e-02 -7.652374356985092163e-02 -3.101331181824207306e-02 5.343449860811233521e-02
6.325000000000000000e+03 5.493544101715087891e+00 1.830980682373046875e+01 -2.884827554225921631e-02 -6.418205052614212036e-02 -2.790909819304943085e-02 5.554733052849769592e-02
6.326000000000000000e+03 7.662465095520019531e+00 2.724052810668945312e+01 -1.278325915336608887e-02 -1.684355884790420532e-01 -5.436565726995468140e-02 1.651121824979782104e-01
6.327000000000000000e+03 1.571416854858398438e+01 2.088747024536132812e+01 -2.261096239089965820e-01 3.113615326583385468e-02 -5.849204212427139282e-02 2.380082160234451294e-01
6.328000000000000000e+03 2.064179611206054688e+01 2.353829765319824219e+01 -1.434925794601440430e-01 -8.115522563457489014e-02 -6.739433854818344116e-02 3.606300055980682373e-01
6.329000000000000000e+03 1.592038345336914062e+01 1.950094032287597656e+01 -2.569882571697235107e-01 5.730230361223220825e-02 -5.990578234195709229e-02 2.038254290819168091e-01
6.330000000000000000e+03 7.460023498535156250e+01 1.930230712890625000e+01 3.757775425910949707e-01 5.939323902130126953e+00 1.894530415534973145e+00 7.981748133897781372e-02
6.331000000000000000e+03 1.216845989227294922e+01 1.507116317749023438e+01 -7.997808605432510376e-02 5.123748630285263062e-02 -8.622178807854652405e-03 5.241004750132560730e-02
6.332000000000000000e+03 5.767526245117187500e+01 1.863469314575195312e+01 1.281192183494567871e+00 4.583430290222167969e+00 1.759386777877807617e+00 1.639111757278442383e+00
6.333000000000000000e+03 5.996214294433593750e+01 -8.778391838073730469e+00 9.383985996246337891e-01 8.228494644165039062e+00 2.750067949295043945e+00 2.898329496383666992e-01
6.334000000000000000e+03 3.161555290222167969e+01 -1.307947540283203125e+01 -5.852388739585876465e-01 1.357223987579345703e-01 -1.348549425601959229e-01 1.826233416795730591e-01
6.335000000000000000e+03 7.448126983642578125e+01 -6.167792797088623047e+00 3.790752589702606201e-02 7.742019653320312500e+00 2.333978176116943359e+00 8.257911205291748047e-01
6.336000000000000000e+03 8.126410484313964844e+00 -9.932718276977539062e+00 -3.973797336220741272e-02 -3.366917138919234276e-03 -1.293146703392267227e-02 -4.655458033084869385e-02
6.337000000000000000e+03 9.258722305297851562e+00 -9.778518676757812500e+00 -4.964901506900787354e-02 5.771955475211143494e-03 -1.316311862319707870e-02 -4.638681933283805847e-02
6.338000000000000000e+03 9.880884170532226562e+00 -9.289011955261230469e+00 -5.373950675129890442e-02 1.025063917040824890e-02 -1.304665952920913696e-02 -4.353237897157669067e-02
6.339000000000000000e+03 7.488027191162109375e+01 -2.475617599487304688e+01 -2.349771745502948761e-02 7.237963199615478516e+00 2.164339780807495117e+00 2.520846426486968994e-01
6.340000000000000000e+03 7.486734771728515625e+01 -2.535575675964355469e+01 3.183886781334877014e-02 7.217698097229003906e+00 2.174860954284667969e+00 2.378773540258407593e-01
6.341000000000000000e+03 6.988515472412109375e+01 -2.393935585021972656e+01 3.121450841426849365e-01 5.530479431152343750e+00 1.752787351608276367e+00 1.222571879625320435e-01
6.342000000000000000e+03 2.469997787475585938e+01 -2.012203788757324219e+01 -1.227346062660217285e-01 2.907067239284515381e-01 5.039164051413536072e-02 -9.657363593578338623e-02
6.343000000000000000e+03 7.389029693603515625e+01 1.871409606933593750e+01 5.151138305664062500e-01 5.915737628936767578e+00 1.929255485534667969e+00 1.173444315791130066e-01
6.344000000000000000e+03 8.324810028076171875e+00 -1.060307598114013672e+01 -4.117168858647346497e-02 -3.492658259347081184e-03 -1.339930389076471329e-02 -5.347875505685806274e-02
6.345000000000000000e+03 8.456615447998046875e+00 1.483626842498779297e+01 -3.136014565825462341e-02 -7.508632726967334747e-03 -1.166063360869884491e-02 3.695345669984817505e-02
6.346000000000000000e+03 3.541862869262695312e+01 2.265875625610351562e+01 3.652009740471839905e-02 2.710970342159271240e-01 9.228513389825820923e-02 -2.789251878857612610e-02
6.347000000000000000e+03 2.232143592834472656e+01 -2.038343620300292969e+01 -9.272305667400360107e-02 2.370090484619140625e-01 4.328579828143119812e-02 -1.179598420858383179e-01
6.348000000000000000e+03 3.170690917968750000e+01 -2.126492309570312500e+01 -4.960646107792854309e-02 4.575599133968353271e-01 1.223860383033752441e-01 5.595652386546134949e-02
6.349000000000000000e+03 7.323853302001953125e+01 1.804269790649414062e+01 6.841580867767333984e-01 5.896367549896240234e+00 1.974157691001892090e+00 1.888390332460403442e-01
6.350000000000000000e+03 9.049669265747070312e+00 -2.423120117187500000e+01 3.514069598168134689e-03 -7.491620630025863647e-02 -2.142064087092876434e-02 -1.284876614809036255e-01
6.351000000000000000e+03 7.269693374633789062e+00 1.989989280700683594e+01 -5.514819547533988953e-02 -5.842750892043113708e-02 -3.407271206378936768e-02 9.206292033195495605e-02
6.352000000000000000e+03 7.798417568206787109e+00 1.932235145568847656e+01 -6.093962490558624268e-02 -4.204427450895309448e-02 -3.089516982436180115e-02 8.993177860975265503e-02
6.353000000000000000e+03 8.239123344421386719e+00 1.748865890502929688e+01 -5.911241471767425537e-02 -1.961372047662734985e-02 -2.361784130334854126e-02 6.901356577873229980e-02
6.354000000000000000e+03 1.083394527435302734e+01 -1.842267990112304688e+01 -3.499390929937362671e-02 -3.817159449681639671e-03 -1.164332032203674316e-02 -1.250759214162826538e-01
6.355000000000000000e+03 2.927976417541503906e+01 -1.998087310791015625e+01 -1.416564136743545532e-01 3.632904291152954102e-01 6.649020314216613770e-02 -4.445853084325790405e-02
6.356000000000000000e+03 1.156711864471435547e+01 -1.242765235900878906e+01 -7.309020310640335083e-02 2.208452485501766205e-02 -1.530170347541570663e-02 -7.893949002027511597e-02
6.357000000000000000e+03 1.128940296173095703e+01 -1.299037551879882812e+01 -6.837507337331771851e-02 1.998244039714336395e-02 -1.451778877526521683e-02 -8.183064311742782593e-02
6.358000000000000000e+03 8.094243049621582031e+00 1.796738433837890625e+01 -6.100899353623390198e-02 -2.713165804743766785e-02 -2.644219622015953064e-02 7.356098294258117676e-02
6.359000000000000000e+03 8.862388610839843750e+00 -1.092792892456054688e+01 -4.641531407833099365e-02 -5.381861119531095028e-04 -1.408604998141527176e-02 -5.829559266567230225e-02
6.360000000000000000e+03 1.633363342285156250e+01 -1.689087104797363281e+01 -8.638086169958114624e-02 8.681853115558624268e-02 1.313012180617079139e-04 -1.194261610507965088e-01
6.361000000000000000e+03 7.292427539825439453e+00 1.795000267028808594e+01 -4.901411384344100952e-02 -3.834591805934906006e-02 -2.620800957083702087e-02 6.676387041807174683e-02
6.362000000000000000e+03 1.107221984863281250e+01 -1.362060737609863281e+01 -6.454673409461975098e-02 1.549351494759321213e-02 -1.471596583724021912e-02 -8.937142789363861084e-02
6.363000000000000000e+03 7.339351654052734375e+01 2.327241134643554688e+01 6.136282905936241150e-02 6.153568744659423828e+00 1.864479422569274902e+00 2.414481043815612793e-01
6.364000000000000000e+03 7.167487335205078125e+01 2.377758407592773438e+01 3.205150738358497620e-02 6.188013076782226562e+00 1.866019368171691895e+00 2.261114567518234253e-01
6.365000000000000000e+03 3.878360366821289062e+01 1.077974700927734375e+01 5.387185141444206238e-03 -5.138524575158953667e-04 1.461999723687767982e-03 -8.550504571758210659e-04
6.366000000000000000e+03 3.957522964477539062e+01 1.056512928009033203e+01 5.135019775480031967e-03 2.970266905322205275e-05 1.549416687339544296e-03 -2.190087921917438507e-03
6.367000000000000000e+03 4.090800857543945312e+01 1.034381008148193359e+01 9.998265159083530307e-05 1.361779985018074512e-03 4.385287757031619549e-04 7.296444382518529892e-04
6.368000000000000000e+03 3.851947784423828125e+01 9.862163543701171875e+00 -6.830060738138854504e-04 -4.999093711376190186e-03 -1.704629859887063503e-03 -1.560309319756925106e-03
6.369000000000000000e+03 4.172409439086914062e+01 9.294953346252441406e+00 -8.231016690842807293e-04 3.256397612858563662e-04 -1.492385636083781719e-04 5.224751075729727745e-04
6.370000000000000000e+03 4.155122756958007812e+01 1.012382030487060547e+01 -1.393486854794900864e-05 -9.978502057492733002e-04 -3.035355184692889452e-04 -9.289623267250135541e-05
6.371000000000000000e+03 4.225697326660156250e+01 9.941902160644531250e+00 2.321429055882617831e-04 2.791878068819642067e-04 1.533992181066423655e-04 -1.303900498896837234e-04
6.372000000000000000e+03 3.865528106689453125e+01 1.028447341918945312e+01 -3.527146182022988796e-04 -2.040609484538435936e-03 -7.179972017183899879e-04 -5.188247188925743103e-03
6.373000000000000000e+03 4.028055191040039062e+01 1.048345947265625000e+01 1.264789490960538387e-03 7.565540727227926254e-04 6.064031040295958519e-04 -2.455858048051595688e-03
6.374000000000000000e+03 3.979833984375000000e+01 9.753077507019042969e+00 -2.654581796377897263e-03 -9.254788747057318687e-04 -1.074018189683556557e-03 -7.951251463964581490e-04
6.375000000000000000e+03 4.048064422607421875e+01 9.892707824707031250e+00 1.726500806398689747e-03 2.956296317279338837e-03 1.404839102178812027e-03 -1.673788414336740971e-03
6.376000000000000000e+03 4.102310943603515625e+01 9.477449417114257812e+00 -2.262615307699888945e-04 1.759335747919976711e-03 4.599222738761454821e-04 -1.814526156522333622e-03
6.377000000000000000e+03 3.913888168334960938e+01 9.795186042785644531e+00 5.127219483256340027e-03 4.155730362981557846e-03 2.784884767606854439e-03 -1.685493625700473785e-03
6.378000000000000000e+03 1.478255176544189453e+01 1.125994801521301270e+00 -1.424393940396839753e-05 -1.560615055495873094e-05 -8.955026714829728007e-06 1.860049815149977803e-05
6.379000000000000000e+03 1.406890583038330078e+01 1.073610067367553711e+00 4.233322688378393650e-04 1.452931028325110674e-04 1.705876202322542667e-04 1.840653858380392194e-04
6.380000000000000000e+03 1.411068916320800781e+01 3.298048675060272217e-01 -1.094244726118631661e-04 1.193677453557029366e-04 2.982982096000341699e-06 -4.130191882723011076e-05
6.381000000000000000e+03 1.334397411346435547e+01 1.023863434791564941e+00 -1.154895435320213437e-04 -3.076778375543653965e-04 -1.269502099603414536e-04 -3.567683743312954903e-04
6.382000000000000000e+03 1.484494400024414062e+01 3.804935514926910400e-01 4.303927198634482920e-06 -6.597143510589376092e-05 -1.850025364547036588e-05 -2.558485175541136414e-05
6.383000000000000000e+03 1.336514949798583984e+01 2.817863523960113525e-01 4.350692324806004763e-05 1.778216301318025216e-06 1.358554163743974641e-05 1.423556968802586198e-04
6.384000000000000000e+03 1.038163661956787109e+01 3.719484806060791016e-01 3.608522092690691352e-05 4.124026163481175900e-04 1.345463533652946353e-04 3.764519351534545422e-05
6.385000000000000000e+03 1.112833786010742188e+01 3.352923989295959473e-01 -4.378795438242377713e-06 -4.045279929414391518e-04 -1.226720341946929693e-04 -3.924407792510464787e-05
6.386000000000000000e+03 1.187404060363769531e+01 3.023687005043029785e-01 -1.196979582118729013e-07 3.536770818755030632e-04 1.060672220773994923e-04 7.873003778513520956e-05
6.387000000000000000e+03 1.187335777282714844e+01 1.043116807937622070e+00 9.494235564488917589e-05 -4.313222307246178389e-04 -1.009139596135355532e-04 -2.011195319937542081e-04
6.388000000000000000e+03 1.261872673034667969e+01 2.733090519905090332e-01 8.160293873515911400e-06 -2.013296616496518254e-04 -5.795081233372911811e-05 -1.318474824074655771e-04
6.389000000000000000e+03 1.261125278472900391e+01 1.014356493949890137e+00 -9.921562195813748986e-06 3.611320280469954014e-04 1.053631422109901905e-04 3.316919028293341398e-04
6.390000000000000000e+03 1.039453697204589844e+01 1.112098097801208496e+00 -1.359431480523198843e-04 -4.210789920762181282e-04 -1.671066420385614038e-04 -1.077512933989055455e-04
6.391000000000000000e+03 1.113444709777832031e+01 1.075741291046142578e+00 2.224772470071911812e-05 4.329674120526760817e-04 1.365645439364016056e-04 7.313045352930203080e-05
6.392000000000000000e+03 5.544353008270263672e+00 1.129850029945373535e+00 4.803095944225788116e-03 1.748410519212484360e-03 1.965451985597610474e-03 2.832887228578329086e-03
6.393000000000000000e+03 4.790751457214355469e+00 1.129850029945373535e+00 1.916624372825026512e-03 -7.133126928238198161e-05 5.535879172384738922e-04 -4.347494686953723431e-04
6.394000000000000000e+03 4.676749229431152344e+00 3.898500204086303711e-01 1.977734733372926712e-03 2.773788291960954666e-03 1.425456954166293144e-03 2.403889317065477371e-03
6.395000000000000000e+03 5.432579994201660156e+00 3.898500204086303711e-01 -7.320865406654775143e-04 -4.174137720838189125e-04 -3.448500938247889280e-04 -4.801261238753795624e-04
6.396000000000000000e+03 1.112103080749511719e+01 -4.428110718727111816e-01 -4.046818707138299942e-03 7.989964797161519527e-05 -1.190075767226517200e-03 2.149682550225406885e-04
6.397000000000000000e+03 1.187371921539306641e+01 -4.752737879753112793e-01 -3.793422132730484009e-03 9.609845437807962298e-05 -1.109197037294507027e-03 4.266221076250076294e-04
6.398000000000000000e+03 1.111492252349853516e+01 -1.183259963989257812e+00 -8.562854491174221039e-03 6.784113356843590736e-04 -2.365333028137683868e-03 2.769130223896354437e-04
6.399000000000000000e+03 1.262644767761230469e+01 -5.069373250007629395e-01 -2.891298150643706322e-03 1.469558919779956341e-04 -8.233026601374149323e-04 7.146974676288664341e-04
6.400000000000000000e+03 1.035515594482421875e+01 -1.148333072662353516e+00 -7.620847783982753754e-03 4.884795635007321835e-04 -2.139710355550050735e-03 -5.436073988676071167e-04
6.401000000000000000e+03 1.036805534362792969e+01 -4.081833958625793457e-01 -3.987623844295740128e-03 9.689907892607152462e-05 -1.167217385955154896e-03 3.337919770274311304e-05
6.402000000000000000e+03 1.263392257690429688e+01 -1.248021602630615234e+00 -7.928708568215370178e-03 6.110325921326875687e-04 -2.195302629843354225e-03 1.799119520001113415e-03
6.403000000000000000e+03 1.187440204620361328e+01 -1.216021895408630371e+00 -8.339895866811275482e-03 5.023652338422834873e-04 -2.351259114220738411e-03 1.116493251174688339e-03
6.404000000000000000e+03 3.690422439575195312e+01 1.020223522186279297e+01 5.770232994109392166e-03 -1.623194781132042408e-03 1.244111452251672745e-03 2.409827662631869316e-03
6.405000000000000000e+03 3.796553421020507812e+01 1.098825454711914062e+01 7.988505996763706207e-03 1.950291683897376060e-03 2.981639234349131584e-03 -2.627911046147346497e-03
6.406000000000000000e+03 3.791804885864257812e+01 1.050252246856689453e+01 2.521849470213055611e-03 1.096741412766277790e-03 1.085577299818396568e-03 4.275567363947629929e-03
6.407000000000000000e+03 3.733737182617187500e+01 1.076026248931884766e+01 2.229086821898818016e-04 -5.171552766114473343e-03 -1.484593260101974010e-03 4.000905028078705072e-04
6.408000000000000000e+03 3.674065399169921875e+01 1.102671718597412109e+01 4.197033587843179703e-03 1.135159749537706375e-03 1.599658047780394554e-03 2.225698204711079597e-03
6.409000000000000000e+03 3.630093765258789062e+01 1.034548854827880859e+01 5.899297320866025984e-06 5.654193460941314697e-03 1.698027830570936203e-03 4.811805207282304764e-03
6.410000000000000000e+03 3.774382019042968750e+01 1.002957153320312500e+01 3.035389119759202003e-03 -2.644799882546067238e-03 1.171767653431743383e-04 -5.319188348948955536e-04
6.411000000000000000e+03 1.532617664337158203e+01 -1.230204224586486816e+00 -1.692919031484052539e-04 -9.785889415070414543e-04 -3.443642635829746723e-04 1.061854185536503792e-03
6.412000000000000000e+03 1.546412372589111328e+01 -1.145073413848876953e+00 1.122239511460065842e-03 2.627742942422628403e-03 1.124994712881743908e-03 -7.850665133446455002e-04
6.413000000000000000e+03 1.425182247161865234e+01 -3.902684152126312256e-01 -1.086840438802028075e-05 -3.925611090380698442e-04 -1.210288537549786270e-04 3.330050094518810511e-04
6.414000000000000000e+03 1.512440299987792969e+01 -8.298792243003845215e-01 -2.946711902040988207e-04 7.818789526936598122e-06 -8.605571929365396500e-05 -6.705459672957658768e-04
6.415000000000000000e+03 1.499323558807373047e+01 -3.236857652664184570e-01 2.684526261873543262e-04 1.662336289882659912e-04 1.304058678215369582e-04 -2.206064091296866536e-04
6.416000000000000000e+03 1.343327617645263672e+01 -4.957430660724639893e-01 -1.434149453416466713e-03 -5.473557030200026929e-05 -4.466654791031032801e-04 7.833682466298341751e-04
6.417000000000000000e+03 1.345798492431640625e+01 -1.237600922584533691e+00 -6.558883003890514374e-03 -2.390679292147979140e-04 -2.039385261014103889e-03 1.943443669006228447e-03
6.418000000000000000e+03 1.458326053619384766e+01 -9.111518859863281250e-01 -2.258953405544161797e-03 -7.766508497297763824e-04 -9.106813231483101845e-04 6.412752554751932621e-04
6.419000000000000000e+03 1.425705051422119141e+01 -1.277629494667053223e+00 -5.034723319113254547e-03 -8.934386423788964748e-04 -1.778448582626879215e-03 2.117885509505867958e-03
6.420000000000000000e+03 1.492532062530517578e+01 -1.292750954627990723e+00 -2.637054538354277611e-03 -1.202948158606886864e-03 -1.152000739239156246e-03 2.160164760425686836e-03
