# el_label, x, y, sXX, sYY, sZZ, sXY
1.000000000000000000e+00 5.183447265625000000e+01 1.128087902069091797e+01 -6.089670181274414062e+00 -2.366208314895629883e+00 -2.536763668060302734e+00 -2.603763341903686523e+00
2.000000000000000000e+00 5.163555145263671875e+01 1.127396678924560547e+01 -1.145555377006530762e+00 9.893902540206909180e-01 -4.684953764081001282e-02 8.367807269096374512e-01
3.000000000000000000e+00 5.143662643432617188e+01 1.126705551147460938e+01 -2.215543508529663086e+00 -4.616706669330596924e-01 -8.031643033027648926e-01 -3.230051696300506592e-02
4.000000000000000000e+00 5.123770523071289062e+01 1.126014328002929688e+01 -2.064718008041381836e+00 3.209641277790069580e-01 -5.231261849403381348e-01 9.848601371049880981e-02
5.000000000000000000e+00 5.184218597412109375e+01 1.122304821014404297e+01 9.893217086791992188e+00 -2.514720678329467773e+00 2.213548898696899414e+00 1.130032300949096680e+00
6.000000000000000000e+00 5.164840698242187500e+01 1.117758178710937500e+01 2.825926780700683594e+00 1.238233670592308044e-01 8.849250078201293945e-01 1.010982275009155273e+00
7.000000000000000000e+00 5.145462799072265625e+01 1.113211631774902344e+01 2.990252494812011719e+00 7.726070880889892578e-01 1.128857851028442383e+00 1.673198223114013672e+00
8.000000000000000000e+00 5.126084518432617188e+01 1.108665084838867188e+01 1.837185978889465332e+00 1.557286083698272705e-01 5.978744029998779297e-01 7.288181781768798828e-01
9.000000000000000000e+00 5.186100006103515625e+01 1.116782188415527344e+01 1.580517959594726562e+01 1.479165673255920410e+00 5.185303688049316406e+00 8.116572380065917969e+00
1.000000000000000000e+01 5.167975997924804688e+01 1.108553791046142578e+01 9.150673866271972656e+00 1.179008364677429199e+00 3.098904609680175781e+00 4.511970996856689453e+00
1.100000000000000000e+01 5.149852371215820312e+01 1.100325393676757812e+01 5.877096176147460938e+00 1.619994997978210449e+00 2.249127388000488281e+00 3.452849388122558594e+00
1.200000000000000000e+01 5.131728363037109375e+01 1.092096996307373047e+01 5.053477287292480469e+00 1.884861469268798828e+00 2.081501722335815430e+00 3.035445690155029297e+00
1.300000000000000000e+01 5.189019393920898438e+01 1.111730861663818359e+01 1.809010696411132812e+01 8.208287239074707031e+00 7.889518260955810547e+00 1.377990913391113281e+01
1.400000000000000000e+01 5.172841644287109375e+01 1.100134849548339844e+01 1.109659576416015625e+01 4.795573234558105469e+00 4.767650604248046875e+00 8.770801544189453125e+00
1.500000000000000000e+01 5.156664276123046875e+01 1.088538837432861328e+01 8.532313346862792969e+00 4.366839408874511719e+00 3.869745969772338867e+00 6.588397502899169922e+00
1.600000000000000000e+01 5.140486526489257812e+01 1.076942825317382812e+01 6.355501174926757812e+00 3.844407558441162109e+00 3.059972763061523438e+00 5.372300624847412109e+00
1.700000000000000000e+01 5.192865371704101562e+01 1.107343673706054688e+01 1.637488174438476562e+01 1.615940093994140625e+01 9.760284423828125000e+00 1.778636550903320312e+01
1.800000000000000000e+01 5.179251861572265625e+01 1.092822837829589844e+01 1.144682312011718750e+01 1.078549575805664062e+01 6.669695854187011719e+00 1.199775791168212891e+01
1.900000000000000000e+01 5.165638351440429688e+01 1.078302097320556641e+01 8.391931533813476562e+00 8.275298118591308594e+00 5.000168800354003906e+00 9.353565216064453125e+00
2.000000000000000000e+01 5.152024841308593750e+01 1.063781356811523438e+01 6.912797927856445312e+00 7.612873554229736328e+00 4.357701301574707031e+00 7.814375877380371094e+00
2.100000000000000000e+01 5.197491455078125000e+01 1.103788185119628906e+01 1.374094104766845703e+01 2.542037773132324219e+01 1.174839591979980469e+01 1.896717453002929688e+01
2.200000000000000000e+01 5.186961364746093750e+01 1.086897182464599609e+01 9.454838752746582031e+00 1.707036018371582031e+01 7.957559585571289062e+00 1.379072570800781250e+01
2.300000000000000000e+01 5.176432037353515625e+01 1.070006179809570312e+01 7.472690582275390625e+00 1.404546928405761719e+01 6.455448150634765625e+00 1.092562770843505859e+01
2.400000000000000000e+01 5.165902328491210938e+01 1.053115081787109375e+01 5.560602188110351562e+00 1.163315486907958984e+01 5.158126831054687500e+00 9.182830810546875000e+00
2.500000000000000000e+01 5.202720260620117188e+01 1.101200294494628906e+01 1.004359340667724609e+01 3.361590576171875000e+01 1.309784984588623047e+01 1.774525833129882812e+01
2.600000000000000000e+01 5.195676422119140625e+01 1.082583999633789062e+01 7.529850959777832031e+00 2.396331024169921875e+01 9.447948455810546875e+00 1.347014427185058594e+01
2.700000000000000000e+01 5.188632965087890625e+01 1.063967609405517578e+01 5.299509525299072266e+00 1.939676475524902344e+01 7.408882617950439453e+00 1.120711231231689453e+01
2.800000000000000000e+01 5.181589126586914062e+01 1.045351314544677734e+01 3.948888778686523438e+00 1.728608703613281250e+01 6.370492458343505859e+00 9.362648963928222656e+00
2.900000000000000000e+01 5.208352661132812500e+01 1.099678707122802734e+01 7.790333271026611328e+00 4.063051223754882812e+01 1.452625370025634766e+01 1.413622093200683594e+01
3.000000000000000000e+01 5.205064010620117188e+01 1.080047988891601562e+01 5.353880882263183594e+00 2.961827659606933594e+01 1.049164676666259766e+01 1.163687515258789062e+01
3.100000000000000000e+01 5.201774978637695312e+01 1.060417175292968750e+01 3.659146785736083984e+00 2.472769546508789062e+01 8.516052246093750000e+00 9.760042190551757812e+00
3.200000000000000000e+01 5.198486328125000000e+01 1.040786552429199219e+01 2.350290060043334961e+00 2.172595787048339844e+01 7.222874164581298828e+00 8.742147445678710938e+00
3.300000000000000000e+01 5.214173507690429688e+01 1.099281501770019531e+01 6.842653751373291016e+00 4.510463333129882812e+01 1.558418655395507812e+01 9.368689537048339844e+00
3.400000000000000000e+01 5.214765167236328125e+01 1.079386043548583984e+01 4.420711040496826172e+00 3.409501647949218750e+01 1.155471897125244141e+01 8.331040382385253906e+00
3.500000000000000000e+01 5.215356826782226562e+01 1.059490489959716797e+01 2.581331491470336914e+00 2.862471008300781250e+01 9.361812591552734375e+00 7.427065849304199219e+00
3.600000000000000000e+01 5.215948486328125000e+01 1.039594936370849609e+01 1.498481154441833496e+00 2.515809631347656250e+01 7.996973514556884766e+00 6.428293228149414062e+00
3.700000000000000000e+01 5.219960021972656250e+01 1.100023937225341797e+01 8.100273132324218750e+00 4.716772842407226562e+01 1.658040046691894531e+01 4.113606452941894531e+00
3.800000000000000000e+01 5.224409866333007812e+01 1.080623340606689453e+01 4.591596603393554688e+00 3.664154815673828125e+01 1.236994266510009766e+01 4.654995918273925781e+00
3.900000000000000000e+01 5.228859710693359375e+01 1.061222743988037109e+01 2.845763921737670898e+00 3.102728652954101562e+01 1.016191482543945312e+01 4.128652095794677734e+00
4.000000000000000000e+01 5.233309173583984375e+01 1.041822147369384766e+01 1.344224572181701660e+00 2.752520179748535156e+01 8.660827636718750000e+00 3.806551694869995117e+00
4.100000000000000000e+01 5.225492477416992188e+01 1.101877593994140625e+01 1.078102493286132812e+01 4.698254394531250000e+01 1.732907104492187500e+01 -3.079277276992797852e-01
4.200000000000000000e+01 5.233629989624023438e+01 1.083712768554687500e+01 6.490761280059814453e+00 3.727437210083007812e+01 1.312953948974609375e+01 8.911659717559814453e-01
4.300000000000000000e+01 5.241767501831054688e+01 1.065547943115234375e+01 3.988425731658935547e+00 3.189898300170898438e+01 1.076622295379638672e+01 1.069563269615173340e+00
4.400000000000000000e+01 5.249905395507812500e+01 1.047383213043212891e+01 2.654198408126831055e+00 2.838922309875488281e+01 9.313026428222656250e+00 9.713340997695922852e-01
4.500000000000000000e+01 5.230558395385742188e+01 1.104771709442138672e+01 1.486334037780761719e+01 4.505741119384765625e+01 1.797622489929199219e+01 -3.470657825469970703e+00
4.600000000000000000e+01 5.242073059082031250e+01 1.088536357879638672e+01 9.253906250000000000e+00 3.645143127441406250e+01 1.371160125732421875e+01 -2.011939764022827148e+00
4.700000000000000000e+01 5.253588104248046875e+01 1.072300910949707031e+01 6.569223880767822266e+00 3.116435050964355469e+01 1.132007217407226562e+01 -1.520342350006103516e+00
4.800000000000000000e+01 5.265103149414062500e+01 1.056065559387207031e+01 4.563164234161376953e+00 2.788491249084472656e+01 9.734422683715820312e+00 -1.124354958534240723e+00
4.900000000000000000e+01 5.234964370727539062e+01 1.108595752716064453e+01 1.927964210510253906e+01 4.247274780273437500e+01 1.852571678161621094e+01 -4.909481525421142578e+00
5.000000000000000000e+01 5.249417114257812500e+01 1.094909763336181641e+01 1.282132720947265625e+01 3.428281402587890625e+01 1.413124179840087891e+01 -3.747536420822143555e+00
5.100000000000000000e+01 5.263869476318359375e+01 1.081223773956298828e+01 9.591650962829589844e+00 2.967000007629394531e+01 1.177849578857421875e+01 -2.976814508438110352e+00
5.200000000000000000e+01 5.278321838378906250e+01 1.067537784576416016e+01 7.514577865600585938e+00 2.612667655944824219e+01 1.009237670898437500e+01 -2.589963436126708984e+00
5.300000000000000000e+01 5.238542938232421875e+01 1.113203716278076172e+01 2.321623229980468750e+01 3.931715011596679688e+01 1.876001358032226562e+01 -4.849088191986083984e+00
5.400000000000000000e+01 5.255381393432617188e+01 1.102589702606201172e+01 1.653305435180664062e+01 3.214265441894531250e+01 1.460271263122558594e+01 -3.919682025909423828e+00
5.500000000000000000e+01 5.272219467163085938e+01 1.091975784301757812e+01 1.273856353759765625e+01 2.717975616455078125e+01 1.197549629211425781e+01 -3.320968866348266602e+00
5.600000000000000000e+01 5.289057540893554688e+01 1.081361675262451172e+01 1.033488273620605469e+01 2.459938621520996094e+01 1.048027992248535156e+01 -2.781964540481567383e+00
5.700000000000000000e+01 5.241157150268554688e+01 1.118419647216796875e+01 2.658517646789550781e+01 3.741016006469726562e+01 1.919860076904296875e+01 -3.305331945419311523e+00
5.800000000000000000e+01 5.259738159179687500e+01 1.111283016204833984e+01 1.944238853454589844e+01 2.939960479736328125e+01 1.465259838104248047e+01 -2.894343852996826172e+00
5.900000000000000000e+01 5.278318786621093750e+01 1.104146289825439453e+01 1.552706241607666016e+01 2.567105865478515625e+01 1.235943603515625000e+01 -2.316190481185913086e+00
6.000000000000000000e+01 5.296899795532226562e+01 1.097009563446044922e+01 1.272451305389404297e+01 2.216958236694335938e+01 1.046822834014892578e+01 -1.898675918579101562e+00
6.100000000000000000e+01 5.242706680297851562e+01 1.124044418334960938e+01 2.831725883483886719e+01 3.531470489501953125e+01 1.908959007263183594e+01 -9.459960460662841797e-01
6.200000000000000000e+01 5.262321090698242188e+01 1.120657539367675781e+01 2.151264572143554688e+01 2.846452140808105469e+01 1.499315071105957031e+01 -7.769848108291625977e-01
6.300000000000000000e+01 5.281935119628906250e+01 1.117270660400390625e+01 1.716360282897949219e+01 2.371405792236328125e+01 1.226329898834228516e+01 -4.368609786033630371e-01
6.400000000000000000e+01 5.301549148559570312e+01 1.113883781433105469e+01 1.445757675170898438e+01 2.140148162841796875e+01 1.075771713256835938e+01 -2.524101734161376953e-01
6.500000000000000000e+01 5.243133163452148438e+01 1.129863166809082031e+01 2.898649978637695312e+01 3.548893356323242188e+01 1.934263038635253906e+01 1.775520086288452148e+00
6.600000000000000000e+01 5.263031387329101562e+01 1.130355358123779297e+01 2.181121063232421875e+01 2.744517135620117188e+01 1.477691459655761719e+01 1.897903680801391602e+00
6.700000000000000000e+01 5.282929611206054688e+01 1.130847644805908203e+01 1.775134658813476562e+01 2.386574554443359375e+01 1.248512744903564453e+01 1.779184937477111816e+00
6.800000000000000000e+01 5.302827835083007812e+01 1.131339931488037109e+01 1.479983520507812500e+01 2.047635078430175781e+01 1.058285522460937500e+01 1.904480814933776855e+00
6.900000000000000000e+01 5.242419433593750000e+01 1.135653686523437500e+01 2.766726875305175781e+01 3.572455215454101562e+01 1.901754570007324219e+01 4.639602661132812500e+00
7.000000000000000000e+01 5.261842346191406250e+01 1.140006256103515625e+01 2.093774795532226562e+01 2.867717170715332031e+01 1.488447570800781250e+01 4.213386535644531250e+00
7.100000000000000000e+01 5.281264877319335938e+01 1.144358921051025391e+01 1.665377044677734375e+01 2.401504325866699219e+01 1.220064449310302734e+01 4.107925415039062500e+00
7.200000000000000000e+01 5.300687408447265625e+01 1.148711490631103516e+01 1.413616466522216797e+01 2.157228279113769531e+01 1.071253395080566406e+01 3.688651800155639648e+00
7.300000000000000000e+01 5.240593719482421875e+01 1.141194915771484375e+01 2.540017890930175781e+01 3.790192413330078125e+01 1.899063110351562500e+01 6.615420818328857422e+00
7.400000000000000000e+01 5.258798980712890625e+01 1.149241638183593750e+01 1.822636604309082031e+01 3.007705688476562500e+01 1.449102687835693359e+01 6.114505290985107422e+00
7.500000000000000000e+01 5.277004241943359375e+01 1.157288360595703125e+01 1.472669410705566406e+01 2.583097648620605469e+01 1.216730117797851562e+01 5.412725925445556641e+00
7.600000000000000000e+01 5.295209503173828125e+01 1.165335178375244141e+01 1.199904155731201172e+01 2.266445732116699219e+01 1.039904975891113281e+01 5.244503021240234375e+00
7.700000000000000000e+01 5.237725067138671875e+01 1.146275234222412109e+01 2.136330413818359375e+01 4.031091308593750000e+01 1.850226593017578125e+01 7.821467399597167969e+00
7.800000000000000000e+01 5.254017639160156250e+01 1.157708835601806641e+01 1.503008460998535156e+01 3.263489151000976562e+01 1.429949283599853516e+01 6.505965232849121094e+00
7.900000000000000000e+01 5.270310211181640625e+01 1.169142436981201172e+01 1.150787258148193359e+01 2.761592674255371094e+01 1.173713970184326172e+01 5.900801181793212891e+00
8.000000000000000000e+01 5.286603164672851562e+01 1.180576133728027344e+01 9.552165031433105469e+00 2.448749351501464844e+01 1.021189785003662109e+01 5.487267971038818359e+00
8.100000000000000000e+01 5.233922958374023438e+01 1.150700664520263672e+01 1.708499526977539062e+01 4.329703903198242188e+01 1.811461067199707031e+01 7.285459518432617188e+00
8.200000000000000000e+01 5.247681045532226562e+01 1.165084457397460938e+01 1.097709083557128906e+01 3.493239212036132812e+01 1.377284526824951172e+01 5.690345287322998047e+00
8.300000000000000000e+01 5.261439132690429688e+01 1.179468441009521484e+01 8.367066383361816406e+00 2.966842651367187500e+01 1.141064739227294922e+01 4.862127780914306641e+00
8.400000000000000000e+01 5.275197219848632812e+01 1.193852329254150391e+01 6.465165615081787109e+00 2.591829872131347656e+01 9.715039253234863281e+00 4.598503112792968750e+00
8.500000000000000000e+01 5.229332733154296875e+01 1.154302120208740234e+01 1.230410957336425781e+01 4.602045822143554688e+01 1.749736976623535156e+01 5.064325809478759766e+00
8.600000000000000000e+01 5.240030670166015625e+01 1.171086978912353516e+01 7.537799835205078125e+00 3.647440338134765625e+01 1.320366096496582031e+01 3.354350090026855469e+00
8.700000000000000000e+01 5.250728988647460938e+01 1.187871932983398438e+01 5.221229553222656250e+00 3.111319923400878906e+01 1.090032863616943359e+01 2.740734100341796875e+00
8.800000000000000000e+01 5.261426925659179688e+01 1.204656791687011719e+01 3.851391553878784180e+00 2.710526275634765625e+01 9.286995887756347656e+00 2.478293895721435547e+00
8.900000000000000000e+01 5.224130249023437500e+01 1.156942176818847656e+01 8.293649673461914062e+00 4.721440505981445312e+01 1.665241622924804688e+01 1.328009486198425293e+00
9.000000000000000000e+01 5.231359481811523438e+01 1.175487136840820312e+01 4.896573066711425781e+00 3.704959869384765625e+01 1.258385181427001953e+01 -2.278173714876174927e-01
9.100000000000000000e+01 5.238589096069335938e+01 1.194032096862792969e+01 2.945037364959716797e+00 3.104275321960449219e+01 1.019633769989013672e+01 -1.932340264320373535e-01
9.200000000000000000e+01 5.245818710327148438e+01 1.212577056884765625e+01 2.075462102890014648e+00 2.757303047180175781e+01 8.894547462463378906e+00 -2.626987695693969727e-01
9.300000000000000000e+01 5.218513107299804688e+01 1.158520030975341797e+01 6.014265537261962891e+00 4.693762588500976562e+01 1.588556766510009766e+01 -3.939905405044555664e+00
9.400000000000000000e+01 5.221998214721679688e+01 1.178116893768310547e+01 3.239109516143798828e+00 3.541544723510742188e+01 1.159636688232421875e+01 -4.064627647399902344e+00
9.500000000000000000e+01 5.225482940673828125e+01 1.197713756561279297e+01 2.145818471908569336e+00 2.986457443237304688e+01 9.603117942810058594e+00 -3.763475179672241211e+00
9.600000000000000000e+01 5.228968048095703125e+01 1.217310619354248047e+01 1.090014815330505371e+00 2.591923713684082031e+01 8.102775573730468750e+00 -3.130651235580444336e+00
9.700000000000000000e+01 5.212696838378906250e+01 1.158975410461425781e+01 4.893281936645507812e+00 4.366744995117187500e+01 1.456822013854980469e+01 -9.161900520324707031e+00
9.800000000000000000e+01 5.212303924560546875e+01 1.178875827789306641e+01 3.732764244079589844e+00 3.234880065917968750e+01 1.082446956634521484e+01 -8.138109207153320312e+00
9.900000000000000000e+01 5.211911010742187500e+01 1.198776245117187500e+01 1.947887301445007324e+00 2.653603553771972656e+01 8.545177459716796875e+00 -6.739650726318359375e+00
1.000000000000000000e+02 5.211518478393554688e+01 1.218676662445068359e+01 1.621761441230773926e+00 2.325206184387207031e+01 7.462147235870361328e+00 -6.120098114013671875e+00
1.010000000000000000e+02 5.206902694702148438e+01 1.158290863037109375e+01 6.888909816741943359e+00 3.827658843994140625e+01 1.354964923858642578e+01 -1.403541946411132812e+01
1.020000000000000000e+02 5.202647018432617188e+01 1.177734947204589844e+01 4.344438076019287109e+00 2.710880851745605469e+01 9.435974121093750000e+00 -1.095382499694824219e+01
1.030000000000000000e+02 5.198391723632812500e+01 1.197179031372070312e+01 3.792870521545410156e+00 2.217034339904785156e+01 7.788964271545410156e+00 -9.263823509216308594e+00
1.040000000000000000e+02 5.194136428833007812e+01 1.216623115539550781e+01 2.102164030075073242e+00 1.899393272399902344e+01 6.328828811645507812e+00 -7.827676296234130859e+00
1.050000000000000000e+02 5.201352310180664062e+01 1.156492614746093750e+01 8.868066787719726562e+00 3.030637931823730469e+01 1.175233364105224609e+01 -1.698350143432617188e+01
1.060000000000000000e+02 5.193396759033203125e+01 1.174737930297851562e+01 7.137423038482666016e+00 2.089843940734863281e+01 8.410758972167968750e+00 -1.244543838500976562e+01
1.070000000000000000e+02 5.185441207885742188e+01 1.192983150482177734e+01 4.687389850616455078e+00 1.668856620788574219e+01 6.412786960601806641e+00 -1.013379573822021484e+01
1.080000000000000000e+02 5.177485656738281250e+01 1.211228370666503906e+01 4.360511779785156250e+00 1.437331962585449219e+01 5.620149612426757812e+00 -8.706832885742187500e+00
1.090000000000000000e+02 5.196257781982421875e+01 1.153649330139160156e+01 1.275580883026123047e+01 2.148173713684082031e+01 1.027126407623291016e+01 -1.730599021911621094e+01
1.100000000000000000e+02 5.184905624389648438e+01 1.169999027252197266e+01 8.339474678039550781e+00 1.391833782196044922e+01 6.677343845367431641e+00 -1.214783096313476562e+01
1.110000000000000000e+02 5.173553466796875000e+01 1.186348724365234375e+01 6.975038051605224609e+00 1.110045814514160156e+01 5.422648906707763672e+00 -9.323137283325195312e+00
1.120000000000000000e+02 5.162201690673828125e+01 1.202698421478271484e+01 4.642516613006591797e+00 9.792434692382812500e+00 4.330485820770263672e+00 -7.956511974334716797e+00
1.130000000000000000e+02 5.191813278198242188e+01 1.149869537353515625e+01 1.470255756378173828e+01 1.209249114990234375e+01 8.038515090942382812e+00 -1.509741687774658203e+01
1.140000000000000000e+02 5.177498626708984375e+01 1.163699340820312500e+01 9.573481559753417969e+00 7.587122440338134766e+00 5.148180961608886719e+00 -9.530788421630859375e+00
1.150000000000000000e+02 5.163183593750000000e+01 1.177529144287109375e+01 6.892313957214355469e+00 6.241615772247314453e+00 3.940179109573364258e+00 -7.437049388885498047e+00
1.160000000000000000e+02 5.148868560791015625e+01 1.191358947753906250e+01 5.786451816558837891e+00 5.593954086303710938e+00 3.414121627807617188e+00 -5.796538829803466797e+00
1.170000000000000000e+02 5.188188934326171875e+01 1.145297527313232422e+01 1.434797763824462891e+01 4.115893363952636719e+00 5.539161205291748047e+00 -1.011293029785156250e+01
1.180000000000000000e+02 5.171457672119140625e+01 1.156079387664794922e+01 8.394911766052246094e+00 2.645165920257568359e+00 3.312023401260375977e+00 -5.798028945922851562e+00
1.190000000000000000e+02 5.154726791381835938e+01 1.166861248016357422e+01 5.589099884033203125e+00 2.704721927642822266e+00 2.488146543502807617e+00 -4.192918777465820312e+00
1.200000000000000000e+02 5.137995529174804688e+01 1.177643108367919922e+01 4.434815406799316406e+00 3.024413108825683594e+00 2.237768650054931641e+00 -3.745515346527099609e+00
1.210000000000000000e+02 5.185522842407226562e+01 1.140108013153076172e+01 1.055846786499023438e+01 -1.688448190689086914e+00 2.661005735397338867e+00 -3.062267780303955078e+00
1.220000000000000000e+02 5.167014312744140625e+01 1.147430133819580078e+01 3.250442266464233398e+00 2.144895046949386597e-01 1.039479494094848633e+00 -1.613350272178649902e+00
1.230000000000000000e+02 5.148505783081054688e+01 1.154752254486083984e+01 3.024768352508544922e+00 1.661032676696777344e+00 1.405740261077880859e+00 -2.151402235031127930e+00
1.240000000000000000e+02 5.129997253417968750e+01 1.162074470520019531e+01 2.175242185592651367e+00 1.230686828494071960e-01 6.894932389259338379e-01 -1.151075363159179688e+00
1.250000000000000000e+02 5.183916854858398438e+01 1.134499073028564453e+01 -4.219903945922851562e+00 -3.889137744903564453e+00 -2.432712316513061523e+00 2.820264816284179688e+00
1.260000000000000000e+02 5.164337921142578125e+01 1.138081932067871094e+01 -4.576861262321472168e-01 1.875572085380554199e+00 4.253658056259155273e-01 -6.092747449874877930e-01
1.270000000000000000e+02 5.144758605957031250e+01 1.141664695739746094e+01 -1.567656159400939941e+00 -1.086733460426330566e+00 -7.963168621063232422e-01 7.949903607368469238e-02
1.280000000000000000e+02 5.125179672241210938e+01 1.145247650146484375e+01 -1.647478699684143066e+00 8.330047726631164551e-01 -2.443421930074691772e-01 1.488835960626602173e-01
1.290000000000000000e+02 5.024059677124023438e+01 1.108203983306884766e+01 -1.325681805610656738e-01 -5.005350708961486816e-01 -1.899309605360031128e-01 -3.905694484710693359e-01
1.300000000000000000e+02 5.017802429199218750e+01 1.088915348052978516e+01 -4.645949974656105042e-02 -8.634544610977172852e-01 -2.729741930961608887e-01 -4.248272180557250977e-01
1.310000000000000000e+02 5.351985168457031250e+01 1.144023799896240234e+01 1.044135284423828125e+01 1.623743438720703125e+01 8.003636360168457031e+00 2.916980981826782227e+00
1.320000000000000000e+02 5.320071411132812500e+01 1.114711952209472656e+01 1.264694976806640625e+01 1.886920356750488281e+01 9.454846382141113281e+00 2.284528464078903198e-01
1.330000000000000000e+02 5.314450454711914062e+01 1.173990631103515625e+01 1.026363277435302734e+01 2.035467338562011719e+01 9.185491561889648438e+00 4.810897350311279297e+00
1.340000000000000000e+02 5.295112991333007812e+01 1.214894008636474609e+01 4.950537681579589844e+00 2.297014999389648438e+01 8.376206398010253906e+00 4.326147556304931641e+00
1.350000000000000000e+02 5.022591781616210938e+01 1.282533264160156250e+01 -2.849595546722412109e+00 -4.605163335800170898e-01 -9.930335879325866699e-01 1.622019767761230469e+00
1.360000000000000000e+02 5.192876052856445312e+01 1.271510124206542969e+01 1.050685286521911621e+00 1.623911476135253906e+01 5.186939716339111328e+00 -5.710069656372070312e+00
1.370000000000000000e+02 5.229464721679687500e+01 9.877540588378906250e+00 -6.213145256042480469e-01 2.120334815979003906e+01 6.174609661102294922e+00 3.851333141326904297e+00
1.380000000000000000e+02 5.171053695678710938e+01 1.026772594451904297e+01 3.081800937652587891e+00 1.477907943725585938e+01 5.358263969421386719e+00 8.428155899047851562e+00
1.390000000000000000e+02 5.106835937500000000e+01 1.104798603057861328e+01 1.377587080001831055e+00 5.480936765670776367e-01 5.777041912078857422e-01 4.956755936145782471e-01
1.400000000000000000e+02 5.097562789916992188e+01 1.002901268005371094e+01 2.798337221145629883e+00 5.647103309631347656e+00 2.533632040023803711e+00 4.672769069671630859e+00
1.410000000000000000e+02 5.176148223876953125e+01 9.942997932434082031e+00 1.124973893165588379e+00 1.530635452270507812e+01 4.929398536682128906e+00 6.984983444213867188e+00
1.420000000000000000e+02 5.309634017944335938e+01 1.070652484893798828e+01 8.456599235534667969e+00 2.164240646362304688e+01 9.029701232910156250e+00 -2.366079330444335938e+00
1.430000000000000000e+02 5.321525192260742188e+01 1.153938674926757812e+01 1.188097667694091797e+01 1.878353118896484375e+01 9.199352264404296875e+00 3.771521091461181641e+00
1.440000000000000000e+02 5.302014160156250000e+01 1.191459560394287109e+01 7.993347167968750000e+00 2.204270935058593750e+01 9.010816574096679688e+00 5.238669872283935547e+00
1.450000000000000000e+02 5.285597991943359375e+01 1.247471332550048828e+01 1.890372991561889648e+00 2.152521133422851562e+01 7.024675369262695312e+00 2.161062240600585938e+00
1.460000000000000000e+02 5.254677200317382812e+01 1.232221031188964844e+01 1.371039628982543945e+00 2.425218200683593750e+01 7.686966419219970703e+00 2.204543724656105042e-02
1.470000000000000000e+02 5.148025894165039062e+01 1.222268581390380859e+01 4.349669933319091797e+00 8.642863273620605469e+00 3.897759675979614258e+00 -6.652721881866455078e+00
1.480000000000000000e+02 5.130181503295898438e+01 1.207898807525634766e+01 3.613976001739501953e+00 4.923846244812011719e+00 2.561346530914306641e+00 -4.751918315887451172e+00
1.490000000000000000e+02 5.079294204711914062e+01 1.278109169006347656e+01 1.634363293647766113e+00 5.670020103454589844e+00 2.191314935684204102e+00 -3.872272968292236328e+00
1.500000000000000000e+02 5.038471221923828125e+01 1.280798816680908203e+01 -2.059572041034698486e-01 4.165077209472656250e+00 1.187736034393310547e+00 -2.425895214080810547e+00
1.510000000000000000e+02 5.025237655639648438e+01 1.239307403564453125e+01 -6.357910633087158203e-01 -8.166410923004150391e-01 -4.357296526432037354e-01 3.227249905467033386e-02
1.520000000000000000e+02 5.059070968627929688e+01 1.278883171081542969e+01 8.348634839057922363e-01 3.851243734359741211e+00 1.405832171440124512e+00 -2.950812578201293945e+00
1.530000000000000000e+02 5.046357727050781250e+01 1.154097080230712891e+01 -4.392803013324737549e-01 -9.632483869791030884e-02 -1.606815308332443237e-01 3.084466159343719482e-01
1.540000000000000000e+02 5.026764678955078125e+01 1.155413818359375000e+01 -1.125774085521697998e-01 -1.522140949964523315e-01 -7.943744957447052002e-02 1.288236826658248901e-01
1.550000000000000000e+02 5.117773056030273438e+01 1.189651775360107422e+01 3.609599351882934570e+00 1.778459429740905762e+00 1.616417646408081055e+00 -2.597694635391235352e+00
1.560000000000000000e+02 5.105672836303710938e+01 1.148538589477539062e+01 -1.510327339172363281e+00 -5.288422703742980957e-01 -6.117508411407470703e-01 2.612840831279754639e-01
1.570000000000000000e+02 5.211606979370117188e+01 1.236924839019775391e+01 7.473998665809631348e-01 2.077492141723632812e+01 6.456696510314941406e+00 -5.377786636352539062e+00
1.580000000000000000e+02 5.169144821166992188e+01 1.231439876556396484e+01 2.735944509506225586e+00 1.281055164337158203e+01 4.663949012756347656e+00 -7.298751354217529297e+00
1.590000000000000000e+02 5.067717361450195312e+01 1.175424861907958984e+01 5.529564023017883301e-01 5.109218955039978027e-01 3.191635012626647949e-01 7.763824611902236938e-02
1.600000000000000000e+02 5.104348373413085938e+01 1.125670719146728516e+01 -1.889698147773742676e+00 -1.253507584333419800e-01 -6.045146584510803223e-01 -8.164654672145843506e-02
1.610000000000000000e+02 5.065836715698242188e+01 1.126704692840576172e+01 -1.158267140388488770e+00 8.855041861534118652e-02 -3.209150433540344238e-01 -2.624337077140808105e-01
1.620000000000000000e+02 5.121849441528320312e+01 1.064042472839355469e+01 5.166490554809570312e+00 3.813966035842895508e+00 2.694136857986450195e+00 4.409935951232910156e+00
1.630000000000000000e+02 5.151925659179687500e+01 1.017194271087646484e+01 3.235738515853881836e+00 1.151395893096923828e+01 4.424909114837646484e+00 7.420189857482910156e+00
1.640000000000000000e+02 5.237558364868164062e+01 1.023506736755371094e+01 6.722908616065979004e-01 2.525523376464843750e+01 7.778257369995117188e+00 3.272642612457275391e+00
1.650000000000000000e+02 5.256451797485351562e+01 1.027218246459960938e+01 1.219882607460021973e+00 2.576023101806640625e+01 8.094034194946289062e+00 1.329655647277832031e+00
1.660000000000000000e+02 5.317782592773437500e+01 1.087067985534667969e+01 1.052393054962158203e+01 2.044462585449218750e+01 9.290567398071289062e+00 -1.603274106979370117e+00
1.670000000000000000e+02 5.011545562744140625e+01 1.070942020416259766e+01 4.473525658249855042e-02 -9.989390969276428223e-01 -2.862611413002014160e-01 -2.218051850795745850e-01
1.680000000000000000e+02 5.025901031494140625e+01 1.130229949951171875e+01 -1.910009682178497314e-01 -1.481122672557830811e-01 -1.017339751124382019e-01 -1.687690019607543945e-01
1.690000000000000000e+02 4.975848007202148438e+01 1.004475593566894531e+01 1.474905461072921753e-01 2.716837227344512939e-01 1.257522851228713989e-01 3.387495279312133789e-01
1.700000000000000000e+02 5.085266494750976562e+01 1.125932884216308594e+01 -1.583305716514587402e+00 1.297560632228851318e-01 -4.360648989677429199e-01 -1.002090722322463989e-01
1.710000000000000000e+02 5.086116027832031250e+01 1.151121425628662109e+01 -1.318785786628723145e+00 2.910436093807220459e-01 -3.083226382732391357e-01 2.157597541809082031e-01
1.720000000000000000e+02 5.032996749877929688e+01 1.002239799499511719e+01 1.405134320259094238e+00 2.038465023040771484e+00 1.033079743385314941e+00 2.098972797393798828e+00
1.730000000000000000e+02 4.983085250854492188e+01 1.020371437072753906e+01 3.194558918476104736e-01 1.311906278133392334e-01 1.351939588785171509e-01 7.397585362195968628e-02
1.740000000000000000e+02 5.167551803588867188e+01 1.252811145782470703e+01 2.277606487274169922e+00 1.296741294860839844e+01 4.573505878448486328e+00 -6.877048015594482422e+00
1.750000000000000000e+02 5.323637390136718750e+01 1.043357181549072266e+01 5.731225967407226562e+00 2.025287818908691406e+01 7.795231342315673828e+00 -2.098790168762207031e+00
1.760000000000000000e+02 5.188365936279296875e+01 1.018926525115966797e+01 1.851726412773132324e+00 1.849301528930664062e+01 6.103422641754150391e+00 7.711419582366943359e+00
1.770000000000000000e+02 5.233055877685546875e+01 1.009675502777099609e+01 -3.965627402067184448e-02 2.324563598632812500e+01 6.961793899536132812e+00 3.885241985321044922e+00
1.780000000000000000e+02 5.345404815673828125e+01 1.161871337890625000e+01 1.012572097778320312e+01 1.708173942565917969e+01 8.162238121032714844e+00 3.720641613006591797e+00
1.790000000000000000e+02 5.075237655639648438e+01 1.005577754974365234e+01 2.559676170349121094e+00 4.040408134460449219e+00 1.980025291442871094e+00 3.599442720413208008e+00
1.800000000000000000e+02 5.274266052246093750e+01 1.036403656005859375e+01 3.084488153457641602e+00 2.529592704772949219e+01 8.514124870300292969e+00 -8.742435574531555176e-01
1.810000000000000000e+02 5.136068725585937500e+01 1.046794795989990234e+01 5.027057647705078125e+00 6.725205421447753906e+00 3.525678873062133789e+00 6.496791839599609375e+00
1.820000000000000000e+02 5.289422988891601562e+01 1.047115325927734375e+01 5.061633110046386719e+00 2.424884414672851562e+01 8.793143272399902344e+00 -1.907182693481445312e+00
1.830000000000000000e+02 5.272335433959960938e+01 1.220185661315917969e+01 3.089951038360595703e+00 2.449360656738281250e+01 8.275067329406738281e+00 2.605650901794433594e+00
1.840000000000000000e+02 5.128427505493164062e+01 1.244277858734130859e+01 2.557018041610717773e+00 7.525604724884033203e+00 3.024786710739135742e+00 -5.560395717620849609e+00
1.850000000000000000e+02 5.110478973388671875e+01 1.168925094604492188e+01 1.389979720115661621e+00 1.045894861221313477e+00 7.307623624801635742e-01 -9.495718479156494141e-01
1.860000000000000000e+02 5.326367950439453125e+01 1.217350673675537109e+01 5.408155441284179688e+00 1.919548797607421875e+01 7.381093025207519531e+00 4.750350952148437500e+00
1.870000000000000000e+02 5.328007125854492188e+01 1.101240921020507812e+01 1.124562549591064453e+01 1.873123168945312500e+01 8.993057250976562500e+00 -5.187595486640930176e-01
1.880000000000000000e+02 5.233089828491210938e+01 1.236912250518798828e+01 7.551620006561279297e-01 2.345767974853515625e+01 7.263852596282958984e+00 -2.806363582611083984e+00
1.890000000000000000e+02 5.213120269775390625e+01 1.270633983612060547e+01 1.541084349155426025e-01 1.815387725830078125e+01 5.492395877838134766e+00 -4.302352905273437500e+00
1.900000000000000000e+02 5.245974349975585938e+01 9.948037147521972656e+00 -5.204403400421142578e-01 2.272094154357910156e+01 6.660150051116943359e+00 2.874349832534790039e+00
1.910000000000000000e+02 5.331856536865234375e+01 1.201055717468261719e+01 7.215473175048828125e+00 1.884966087341308594e+01 7.819540023803710938e+00 4.912998676300048828e+00
1.920000000000000000e+02 5.285299682617187500e+01 1.228455638885498047e+01 3.175203561782836914e+00 2.297461318969726562e+01 7.844945430755615234e+00 2.890343189239501953e+00
1.930000000000000000e+02 5.332062530517578125e+01 1.059271240234375000e+01 6.760123252868652344e+00 1.951618957519531250e+01 7.882894039154052734e+00 -1.873871326446533203e+00
1.940000000000000000e+02 5.347458648681640625e+01 1.092661285400390625e+01 9.561014175415039062e+00 1.730962944030761719e+01 8.061193466186523438e+00 -5.857520699501037598e-01
1.950000000000000000e+02 5.316662216186523438e+01 1.229822921752929688e+01 4.231088638305664062e+00 1.991654777526855469e+01 7.244290828704833984e+00 4.327404499053955078e+00
1.960000000000000000e+02 5.264215469360351562e+01 1.003269767761230469e+01 2.509509623050689697e-01 2.336216354370117188e+01 7.083934307098388672e+00 1.235278606414794922e+00
1.970000000000000000e+02 5.265773391723632812e+01 1.254779243469238281e+01 9.228919744491577148e-01 2.187531471252441406e+01 6.839462280273437500e+00 3.757863044738769531e-01
1.980000000000000000e+02 5.322839355468750000e+01 1.133377075195312500e+01 1.284757709503173828e+01 1.885181617736816406e+01 9.509818077087402344e+00 2.097016096115112305e+00
1.990000000000000000e+02 5.282399749755859375e+01 1.011893844604492188e+01 1.148080110549926758e+00 2.351632690429687500e+01 7.399322032928466797e+00 -9.260918200016021729e-02
2.000000000000000000e+02 5.213371276855468750e+01 9.867523193359375000e+00 -4.368242919445037842e-01 2.016936874389648438e+01 5.919763088226318359e+00 5.210637092590332031e+00
2.010000000000000000e+02 5.024740982055664062e+01 1.260578155517578125e+01 1.313780426979064941e+00 6.315314173698425293e-01 5.835935473442077637e-01 -1.128065586090087891e+00
2.020000000000000000e+02 5.195862197875976562e+01 9.904270172119140625e+00 2.033674716949462891e-01 1.840389060974121094e+01 5.582177639007568359e+00 6.241309642791748047e+00
2.030000000000000000e+02 5.134819030761718750e+01 1.275927639007568359e+01 2.037716627120971680e+00 8.596982002258300781e+00 3.190409421920776367e+00 -5.810150623321533203e+00
2.040000000000000000e+02 5.021909332275390625e+01 1.038258552551269531e+01 7.592104673385620117e-01 3.828993141651153564e-01 3.426329493522644043e-01 9.529052376747131348e-01
2.050000000000000000e+02 5.053046035766601562e+01 1.003474903106689453e+01 2.006866693496704102e+00 2.867772579193115234e+00 1.462391853332519531e+00 2.889473676681518555e+00
2.060000000000000000e+02 5.039602661132812500e+01 1.050201320648193359e+01 1.405492067337036133e+00 1.001768112182617188e+00 7.221780419349670410e-01 1.075997352600097656e+00
2.070000000000000000e+02 5.154344177246093750e+01 9.953797340393066406e+00 1.949471831321716309e+00 1.252257919311523438e+01 4.341615200042724609e+00 6.688261985778808594e+00
2.080000000000000000e+02 5.114712524414062500e+01 1.027654266357421875e+01 3.793025493621826172e+00 6.162351131439208984e+00 2.986613035202026367e+00 5.244332790374755859e+00
2.090000000000000000e+02 5.097309875488281250e+01 1.279233741760253906e+01 1.381037950515747070e+00 5.736591339111328125e+00 2.135288715362548828e+00 -4.488665103912353516e+00
2.100000000000000000e+02 5.211930084228515625e+01 1.253518104553222656e+01 8.431198596954345703e-01 1.980066299438476562e+01 6.193134784698486328e+00 -5.058641910552978516e+00
2.110000000000000000e+02 5.129758071899414062e+01 1.011457729339599609e+01 3.267179727554321289e+00 8.451055526733398438e+00 3.515470743179321289e+00 6.253154754638671875e+00
2.120000000000000000e+02 5.154130172729492188e+01 1.035738754272460938e+01 4.423762321472167969e+00 1.074236202239990234e+01 4.549837112426757812e+00 7.986144542694091797e+00
2.130000000000000000e+02 5.115616607666015625e+01 1.277197647094726562e+01 2.003258228302001953e+00 7.842386722564697266e+00 2.953693389892578125e+00 -5.401014804840087891e+00
2.140000000000000000e+02 4.997993850708007812e+01 1.020582389831542969e+01 6.464066505432128906e-01 1.641798615455627441e-01 2.431759536266326904e-01 6.041259765625000000e-01
2.150000000000000000e+02 5.049789428710937500e+01 1.028229808807373047e+01 1.737614989280700684e+00 1.887784481048583984e+00 1.087619781494140625e+00 2.033835649490356445e+00
2.160000000000000000e+02 5.031294250488281250e+01 1.022009849548339844e+01 1.438763856887817383e+00 1.574232935905456543e+00 9.038990139961242676e-01 1.844715118408203125e+00
2.170000000000000000e+02 5.045597839355468750e+01 1.195855808258056641e+01 5.205916166305541992e-01 1.414643973112106323e-01 1.986168026924133301e-01 -8.935270458459854126e-02
2.180000000000000000e+02 5.026037597656250000e+01 1.197573757171630859e+01 -1.392497718334197998e-01 -1.027396917343139648e+00 -3.499940037727355957e-01 2.947708964347839355e-01
2.190000000000000000e+02 5.045087814331054688e+01 1.215884971618652344e+01 2.763435244560241699e-01 3.559268414974212646e-01 1.896811127662658691e-01 -5.048200488090515137e-02
2.200000000000000000e+02 5.067395019531250000e+01 1.253594875335693359e+01 1.157322764396667480e+00 3.973385572433471680e+00 1.539212465286254883e+00 -2.875210046768188477e+00
2.210000000000000000e+02 5.066276550292968750e+01 1.152830410003662109e+01 -9.544735550880432129e-01 -7.273802161216735840e-02 -3.081634640693664551e-01 4.080828726291656494e-01
2.220000000000000000e+02 5.004333496093750000e+01 1.051081085205078125e+01 1.029414534568786621e-01 -7.510067224502563477e-01 -1.944195777177810669e-01 -5.525512993335723877e-02
2.230000000000000000e+02 5.107796859741210938e+01 1.229924964904785156e+01 3.350443363189697266e+00 4.437585353851318359e+00 2.336408615112304688e+00 -4.006743431091308594e+00
2.240000000000000000e+02 5.145208740234375000e+01 1.259677410125732422e+01 2.796679973602294922e+00 9.812658309936523438e+00 3.782801628112792969e+00 -6.186869144439697266e+00
2.250000000000000000e+02 5.030294799804687500e+01 1.072303676605224609e+01 2.489994913339614868e-01 -1.199440807104110718e-01 3.871662169694900513e-02 -7.479831576347351074e-02
2.260000000000000000e+02 5.112320709228515625e+01 1.083891391754150391e+01 3.773327827453613281e+00 1.334781885147094727e+00 1.532432913780212402e+00 2.111741781234741211e+00
2.270000000000000000e+02 5.049056625366210938e+01 1.079928588867187500e+01 6.591106653213500977e-01 5.510849356651306152e-01 3.630586862564086914e-01 8.823040872812271118e-02
2.280000000000000000e+02 5.090442276000976562e+01 1.254430675506591797e+01 1.364646434783935547e+00 4.554517269134521484e+00 1.775749087333679199e+00 -3.588638067245483398e+00
2.290000000000000000e+02 5.089947128295898438e+01 1.217579555511474609e+01 1.648551225662231445e+00 2.793063163757324219e+00 1.332484364509582520e+00 -2.154807567596435547e+00
2.300000000000000000e+02 5.072660446166992188e+01 1.037003517150878906e+01 2.615167379379272461e+00 2.826151371002197266e+00 1.632395625114440918e+00 2.667217016220092773e+00
2.310000000000000000e+02 5.095159149169921875e+01 1.196482944488525391e+01 2.413365602493286133e+00 2.290066003799438477e+00 1.411029458045959473e+00 -1.799036264419555664e+00
2.320000000000000000e+02 5.045530700683593750e+01 1.235948848724365234e+01 8.227004408836364746e-01 1.492330431938171387e+00 6.945092678070068359e-01 -1.345626354217529297e+00
2.330000000000000000e+02 5.067531967163085938e+01 1.102949237823486328e+01 3.864942789077758789e-01 4.819004535675048828e-01 2.605184018611907959e-01 -2.127614617347717285e-01
2.340000000000000000e+02 5.059616851806640625e+01 1.060166263580322266e+01 1.849018216133117676e+00 1.039368033409118652e+00 8.665158748626708984e-01 1.175882816314697266e+00
2.350000000000000000e+02 4.994704055786132812e+01 1.003099060058593750e+01 6.305350065231323242e-01 7.169324159622192383e-01 4.042402207851409912e-01 8.186718225479125977e-01
2.360000000000000000e+02 5.013776397705078125e+01 1.002326965332031250e+01 1.173755526542663574e+00 1.350424408912658691e+00 7.572540044784545898e-01 1.609573841094970703e+00
2.370000000000000000e+02 4.992403030395507812e+01 1.034711647033691406e+01 -1.063607260584831238e-01 -3.211914896965026855e-01 -1.282656639814376831e-01 9.398382157087326050e-02
2.380000000000000000e+02 5.108678054809570312e+01 1.262568664550781250e+01 2.530857801437377930e+00 6.494863986968994141e+00 2.707716464996337891e+00 -4.819136142730712891e+00
2.390000000000000000e+02 5.153070449829101562e+01 1.275591373443603516e+01 1.743345737457275391e+00 1.189300727844238281e+01 4.090906143188476562e+00 -6.273954391479492188e+00
2.400000000000000000e+02 5.172350311279296875e+01 1.272735309600830078e+01 1.513881325721740723e+00 1.333913135528564453e+01 4.455904006958007812e+00 -5.850652694702148438e+00
2.410000000000000000e+02 5.190971755981445312e+01 1.235260391235351562e+01 2.089315414428710938e+00 1.774139595031738281e+01 5.949213504791259766e+00 -7.177108287811279297e+00
2.420000000000000000e+02 5.043978118896484375e+01 1.257443237304687500e+01 4.345413297414779663e-02 1.056471467018127441e+00 3.299776911735534668e-01 -6.625521779060363770e-01
2.430000000000000000e+02 5.190680694580078125e+01 1.253139972686767578e+01 1.173038005828857422e+00 1.654991340637207031e+01 5.316885471343994141e+00 -6.264285087585449219e+00
2.440000000000000000e+02 5.025438690185546875e+01 1.218438720703125000e+01 5.472573041915893555e-01 -9.955786466598510742e-01 -1.344964057207107544e-01 -2.230751365423202515e-01
2.450000000000000000e+02 5.026702117919921875e+01 1.176661109924316406e+01 4.496664181351661682e-02 -5.279396176338195801e-01 -1.448918879032135010e-01 2.082585245370864868e-01
2.460000000000000000e+02 5.046551895141601562e+01 1.175534915924072266e+01 -1.174561120569705963e-02 -3.145384192466735840e-01 -9.788521379232406616e-02 5.775960087776184082e-01
2.470000000000000000e+02 5.089474487304687500e+01 1.173961734771728516e+01 1.003718256950378418e+00 1.197156757116317749e-01 3.370301723480224609e-01 -3.683489561080932617e-02
2.480000000000000000e+02 5.098250579833984375e+01 1.049663066864013672e+01 3.684466123580932617e+00 2.928856849670410156e+00 1.983996868133544922e+00 3.377303600311279297e+00
2.490000000000000000e+02 5.116136169433593750e+01 9.960651397705078125e+00 2.853638172149658203e+00 7.750748634338378906e+00 3.181316137313842773e+00 5.528659820556640625e+00
2.500000000000000000e+02 5.133581542968750000e+01 9.939525604248046875e+00 2.609106063842773438e+00 9.852231979370117188e+00 3.738401412963867188e+00 6.438259601593017578e+00
2.510000000000000000e+02 5.220567703247070312e+01 9.992568016052246094e+00 -1.926777809858322144e-01 2.164403152465820312e+01 6.435406208038330078e+00 4.774102210998535156e+00
2.520000000000000000e+02 5.298394012451171875e+01 1.021608161926269531e+01 2.467392921447753906e+00 2.230476570129394531e+01 7.431647777557373047e+00 -1.130532264709472656e+00
2.530000000000000000e+02 5.312698745727539062e+01 1.031058692932128906e+01 3.635843515396118164e+00 2.174112701416015625e+01 7.613091468811035156e+00 -1.785537481307983398e+00
2.540000000000000000e+02 5.306132125854492188e+01 1.051159858703613281e+01 6.115101814270019531e+00 2.241796875000000000e+01 8.559921264648437500e+00 -2.182322025299072266e+00
2.550000000000000000e+02 5.340251159667968750e+01 1.075739860534667969e+01 8.185521125793457031e+00 1.798054313659667969e+01 7.849819660186767578e+00 -1.331988573074340820e+00
2.560000000000000000e+02 5.352578353881835938e+01 1.110175895690917969e+01 1.020591163635253906e+01 1.623106956481933594e+01 7.931094169616699219e+00 7.122421264648437500e-01
2.570000000000000000e+02 5.355035400390625000e+01 1.127748775482177734e+01 1.009345436096191406e+01 1.625142669677734375e+01 7.903464317321777344e+00 1.768136501312255859e+00
2.580000000000000000e+02 5.340006637573242188e+01 1.131345176696777344e+01 1.136027526855468750e+01 1.689236640930175781e+01 8.475792884826660156e+00 1.879979252815246582e+00
2.590000000000000000e+02 5.338298034667968750e+01 1.181981754302978516e+01 8.794256210327148438e+00 1.788669395446777344e+01 8.004284858703613281e+00 4.702020645141601562e+00
2.600000000000000000e+02 5.310967254638671875e+01 1.204396152496337891e+01 6.725294113159179688e+00 2.083160018920898438e+01 8.267068862915039062e+00 4.935957431793212891e+00
2.610000000000000000e+02 5.302669143676757812e+01 1.239924716949462891e+01 3.184016466140747070e+00 2.050051307678222656e+01 7.105359077453613281e+00 3.694139480590820312e+00
2.620000000000000000e+02 5.232094955444335938e+01 1.269594764709472656e+01 2.613054513931274414e-01 1.949063682556152344e+01 5.925582408905029297e+00 -2.941132545471191406e+00
2.630000000000000000e+02 5.248247528076171875e+01 1.264179325103759766e+01 2.958608269691467285e-01 2.128986358642578125e+01 6.475717067718505859e+00 -1.491754055023193359e+00
2.640000000000000000e+02 5.068838119506835938e+01 1.078345489501953125e+01 1.685507893562316895e+00 8.322089314460754395e-01 7.553150653839111328e-01 6.035546064376831055e-01
2.650000000000000000e+02 5.046070861816406250e+01 1.127917575836181641e+01 -6.188303828239440918e-01 4.510479047894477844e-03 -1.842959821224212646e-01 -3.108364641666412354e-01
2.660000000000000000e+02 5.046405792236328125e+01 1.103759288787841797e+01 -5.820942670106887817e-02 8.336013555526733398e-02 7.545211818069219589e-03 -5.198238492012023926e-01
2.670000000000000000e+02 5.090390014648437500e+01 1.077252292633056641e+01 2.697686910629272461e+00 1.391728639602661133e+00 1.226824641227722168e+00 1.428988456726074219e+00
2.680000000000000000e+02 5.286790466308593750e+01 1.205815505981445312e+01 5.491026401519775391e+00 2.401721382141113281e+01 8.852472305297851562e+00 4.439136981964111328e+00
2.690000000000000000e+02 5.220660781860351562e+01 1.021821784973144531e+01 4.674386084079742432e-01 2.366757774353027344e+01 7.240505218505859375e+00 5.762023448944091797e+00
2.700000000000000000e+02 5.206237030029296875e+01 1.010192680358886719e+01 6.811270117759704590e-01 2.077999687194824219e+01 6.438336849212646484e+00 6.289137840270996094e+00
2.710000000000000000e+02 5.068535614013671875e+01 1.230950355529785156e+01 1.506415605545043945e+00 1.913526296615600586e+00 1.025982618331909180e+00 -1.521006345748901367e+00
2.720000000000000000e+02 5.087462234497070312e+01 1.102716541290283203e+01 8.696179986000061035e-01 1.731841266155242920e-01 3.128406405448913574e-01 1.466187462210655212e-02
2.730000000000000000e+02 5.014683151245117188e+01 1.020991992950439453e+01 8.940056562423706055e-01 5.909586548805236816e-01 4.454893171787261963e-01 1.123778939247131348e+00
2.740000000000000000e+02 5.299372863769531250e+01 1.225940418243408203e+01 4.122225761413574219e+00 2.132148933410644531e+01 7.633114337921142578e+00 3.960236787796020508e+00
2.750000000000000000e+02 5.336206817626953125e+01 1.114568233489990234e+01 1.133773326873779297e+01 1.783745384216308594e+01 8.752555847167968750e+00 6.483998894691467285e-01
2.760000000000000000e+02 5.232848358154296875e+01 1.254268264770507812e+01 2.264171987771987915e-01 2.120111846923828125e+01 6.428260803222656250e+00 -2.635532379150390625e+00
2.770000000000000000e+02 5.313022994995117188e+01 1.218832015991210938e+01 5.002884864807128906e+00 2.043824768066406250e+01 7.632339954376220703e+00 4.586794376373291016e+00
2.780000000000000000e+02 5.063879013061523438e+01 1.212857246398925781e+01 1.032871007919311523e+00 1.426137804985046387e+00 7.377026677131652832e-01 -1.097409009933471680e+00
2.790000000000000000e+02 5.078595352172851562e+01 1.203913021087646484e+01 1.737773895263671875e+00 9.483953714370727539e-01 8.058507442474365234e-01 -1.201203465461730957e+00
2.800000000000000000e+02 5.065092849731445312e+01 1.195514106750488281e+01 5.799217224121093750e-01 4.464631080627441406e-01 3.079154491424560547e-01 5.521821975708007812e-02
2.810000000000000000e+02 5.016643524169921875e+01 9.774750709533691406e+00 1.482069492340087891e+00 2.157009601593017578e+00 1.091723680496215820e+00 2.131544828414916992e+00
2.820000000000000000e+02 4.911719894409179688e+01 6.830264568328857422e+00 9.229092597961425781e-01 3.416099786758422852e+00 1.301702737808227539e+00 1.286615967750549316e+00
2.830000000000000000e+02 5.203258895874023438e+01 4.544923305511474609e+00 2.929748296737670898e+00 1.199235630035400391e+01 4.476631164550781250e+00 2.955227196216583252e-01
2.840000000000000000e+02 5.357450866699218750e+01 2.283653259277343750e+00 5.126409530639648438e+00 1.907136154174804688e+01 7.259331703186035156e+00 -2.413584947586059570e+00
2.850000000000000000e+02 5.402689743041992188e+01 3.517468214035034180e+00 2.973622322082519531e+00 2.672478866577148438e+01 8.909523010253906250e+00 -1.254099607467651367e+00
2.860000000000000000e+02 5.480082321166992188e+01 6.023064613342285156e+00 1.686584949493408203e+00 1.561650657653808594e+01 5.190927505493164062e+00 4.233087539672851562e+00
2.870000000000000000e+02 5.171654129028320312e+01 9.621416091918945312e+00 2.523541152477264404e-01 1.457162094116210938e+01 4.447192668914794922e+00 5.719100475311279297e+00
2.880000000000000000e+02 5.001014328002929688e+01 6.736062049865722656e+00 8.827329277992248535e-01 6.217017173767089844e+00 2.129925012588500977e+00 1.482643365859985352e+00
2.890000000000000000e+02 4.868410873413085938e+01 8.108274459838867188e+00 3.022145330905914307e-01 6.896789669990539551e-01 2.975680530071258545e-01 3.876650929450988770e-01
2.900000000000000000e+02 5.431651687622070312e+01 4.775132179260253906e+00 1.297211170196533203e+00 2.291953468322753906e+01 7.265023708343505859e+00 4.199376106262207031e+00
2.910000000000000000e+02 4.803625488281250000e+01 5.834225177764892578e+00 1.090235114097595215e+00 1.133461833000183105e+00 6.671091318130493164e-01 8.530156612396240234e-01
2.920000000000000000e+02 4.517230987548828125e+01 3.593966722488403320e+00 1.033671975135803223e+00 1.066196560859680176e+00 6.299605369567871094e-01 1.247261166572570801e+00
2.930000000000000000e+02 4.749874496459960938e+01 -1.069767251610755920e-01 8.496485352516174316e-01 1.309484124183654785e+00 6.477398276329040527e-01 3.624749898910522461e+00
2.940000000000000000e+02 4.661740112304687500e+01 -2.887158393859863281e+00 -1.205868005752563477e+00 1.034329533576965332e+00 -5.146153271198272705e-02 3.401273488998413086e+00
2.950000000000000000e+02 4.942181015014648438e+01 -3.648652791976928711e+00 -6.774262905120849609e+00 -9.359487295150756836e-01 -2.313063383102416992e+00 2.635824441909790039e+00
2.960000000000000000e+02 4.846401214599609375e+01 -1.839449286460876465e+00 -4.035970568656921387e-01 -3.503969311714172363e-01 -2.261981964111328125e-01 2.998875617980957031e+00
2.970000000000000000e+02 5.286828231811523438e+01 1.076557397842407227e+00 2.049198865890502930e+00 1.096917724609375000e+01 3.905512809753417969e+00 5.256712436676025391e-01
2.980000000000000000e+02 4.601816940307617188e+01 2.546516418457031250e+00 1.817560315132141113e+00 1.117269158363342285e+00 8.804488182067871094e-01 2.048263072967529297e+00
2.990000000000000000e+02 4.327411270141601562e+01 1.598152399063110352e+00 -4.866705741733312607e-03 1.312886834144592285e+00 3.924060463905334473e-01 1.005921602249145508e+00
3.000000000000000000e+02 4.338323211669921875e+01 -1.096097946166992188e+00 -4.441772699356079102e-01 3.387017488479614258e+00 8.828520774841308594e-01 6.162137389183044434e-01
3.010000000000000000e+02 3.791754531860351562e+01 4.494492411613464355e-01 -2.612794935703277588e-01 -3.677863776683807373e-01 -1.887197643518447876e-01 -1.051511894911527634e-02
3.020000000000000000e+02 3.444705581665039062e+01 -1.990597009658813477e+00 2.836499512195587158e-01 -1.946456544101238251e-02 7.925561815500259399e-02 -1.399169266223907471e-01
3.030000000000000000e+02 3.535419845581054688e+01 -2.991151571273803711e+00 1.277946978807449341e-01 -3.833451271057128906e-01 -7.666512578725814819e-02 8.172417059540748596e-03
3.040000000000000000e+02 3.703918838500976562e+01 -5.188023090362548828e+00 -2.423037439584732056e-01 -1.520042419433593750e+00 -5.287038683891296387e-01 6.193277239799499512e-01
3.050000000000000000e+02 3.845025634765625000e+01 -2.735376596450805664e+00 6.321565508842468262e-01 -5.891264677047729492e-01 1.290902029722929001e-02 -6.331979036331176758e-01
3.060000000000000000e+02 3.851584243774414062e+01 -7.504395484924316406e+00 -7.242980599403381348e-01 -1.832380890846252441e+00 -7.670036554336547852e-01 1.288930535316467285e+00
3.070000000000000000e+02 4.057009506225585938e+01 -1.528711795806884766e+00 4.003867208957672119e-01 -1.477176547050476074e-01 7.580071687698364258e-02 -4.960721731185913086e-01
3.080000000000000000e+02 3.980629730224609375e+01 -3.939042389392852783e-01 -1.372492313385009766e+00 -1.520538926124572754e-01 -4.573638737201690674e-01 -5.067469477653503418e-01
3.090000000000000000e+02 3.677925872802734375e+01 -4.913328588008880615e-01 1.798288226127624512e-01 -3.623977601528167725e-01 -5.477067828178405762e-02 -2.256236076354980469e-01
3.100000000000000000e+02 3.354816436767578125e+01 -1.100669741630554199e+00 5.059695243835449219e-01 9.696150571107864380e-02 1.808793097734451294e-01 -2.176704704761505127e-01
3.110000000000000000e+02 3.308957290649414062e+01 3.968124091625213623e-02 7.172727584838867188e-01 1.800919324159622192e-02 2.205845713615417480e-01 -6.337543163681402802e-05
3.120000000000000000e+02 3.767183303833007812e+01 2.483301162719726562e+00 1.907132938504219055e-02 -3.466407954692840576e-01 -9.827084094285964966e-02 1.326679904013872147e-02
3.130000000000000000e+02 3.546890640258789062e+01 3.384639978408813477e+00 -3.278231993317604065e-02 -2.125407569110393524e-02 -1.621091924607753754e-02 1.711110323667526245e-01
3.140000000000000000e+02 3.015422248840332031e+01 4.601873874664306641e+00 -6.520183682441711426e-01 -1.747619509696960449e-01 -2.480341047048568726e-01 -3.434226512908935547e-01
3.150000000000000000e+02 2.899686050415039062e+01 3.859583377838134766e+00 -8.704755902290344238e-01 -3.142335414886474609e-01 -3.554127514362335205e-01 -5.861390829086303711e-01
3.160000000000000000e+02 2.784434890747070312e+01 3.218238115310668945e+00 -1.142758369445800781e+00 -4.157378971576690674e-01 -4.675488770008087158e-01 -5.774599909782409668e-01
3.170000000000000000e+02 2.707770538330078125e+01 2.633767127990722656e+00 -8.029531240463256836e-01 -2.961677014827728271e-01 -3.297362327575683594e-01 -5.631460547447204590e-01
3.180000000000000000e+02 3.868912887573242188e+01 4.952785491943359375e+00 1.389598287642002106e-02 -2.790165878832340240e-02 -4.201702773571014404e-03 -6.553996936418116093e-04
3.190000000000000000e+02 3.812473678588867188e+01 3.727998971939086914e+00 -1.433079224079847336e-02 -1.504422873258590698e-01 -4.943192377686500549e-02 1.997034065425395966e-02
3.200000000000000000e+02 3.660559463500976562e+01 9.229928970336914062e+00 3.862912533804774284e-03 -3.149413736537098885e-03 2.140496508218348026e-04 4.535560496151447296e-03
3.210000000000000000e+02 3.765461730957031250e+01 9.263647079467773438e+00 2.262609777972102165e-03 -6.509779486805200577e-03 -1.274150912649929523e-03 -4.718953743577003479e-03
3.220000000000000000e+02 3.376026535034179688e+01 7.099138736724853516e+00 -1.351952552795410156e-01 1.890239036583807319e-05 -4.055290669202804565e-02 -6.367723108269274235e-04
3.230000000000000000e+02 3.485064697265625000e+01 8.199574470520019531e+00 -7.229562383145093918e-03 4.994335584342479706e-03 -6.705680862069129944e-04 -5.230018723523244262e-05
3.240000000000000000e+02 3.748924636840820312e+01 5.331965923309326172e+00 -1.506260596215724945e-03 -7.511004805564880371e-02 -2.298489212989807129e-02 5.694785714149475098e-02
3.250000000000000000e+02 3.926022720336914062e+01 6.127358436584472656e+00 -3.072798484936356544e-03 -4.077435471117496490e-03 -2.145070116966962814e-03 1.005511265248060226e-02
3.260000000000000000e+02 4.042523574829101562e+01 7.470777034759521484e+00 1.434065517969429493e-03 1.059218123555183411e-02 3.607873804867267609e-03 2.202052157372236252e-03
3.270000000000000000e+02 4.044031143188476562e+01 8.688855171203613281e+00 -8.300415356643497944e-04 4.270780365914106369e-03 1.032221596688032150e-03 -2.107627922669053078e-03
3.280000000000000000e+02 2.545454597473144531e+01 1.591613173484802246e+00 -2.071421593427658081e-01 -2.099989950656890869e-01 -1.251423507928848267e-01 -2.696196138858795166e-01
3.290000000000000000e+02 2.550819206237792969e+01 4.165984094142913818e-01 8.443593233823776245e-02 -2.460108697414398193e-01 -4.847247898578643799e-02 -2.397137731313705444e-01
3.300000000000000000e+02 2.722365379333496094e+01 -3.850944995880126953e+00 1.438937634229660034e-01 9.253944456577301025e-02 7.092996686697006226e-02 2.202830016613006592e-01
3.310000000000000000e+02 2.564657402038574219e+01 -4.909654140472412109e+00 -1.101849600672721863e-01 -2.785355150699615479e-01 -1.166161373257637024e-01 2.384536713361740112e-01
3.320000000000000000e+02 2.550299072265625000e+01 -6.336196899414062500e+00 -1.059800460934638977e-01 -3.411735296249389648e-01 -1.341460645198822021e-01 2.088768333196640015e-01
3.330000000000000000e+02 2.698405647277832031e+01 -6.293712139129638672e+00 -1.226360797882080078e-01 7.465180754661560059e-02 -1.439528353512287140e-02 2.521077394485473633e-01
3.340000000000000000e+02 3.113168144226074219e+01 -6.742317676544189453e+00 2.624485641717910767e-03 3.346045315265655518e-01 1.011686995625495911e-01 -4.066815599799156189e-02
3.350000000000000000e+02 3.219227600097656250e+01 -1.102420234680175781e+01 -4.143590033054351807e-01 3.972105309367179871e-02 -1.123913899064064026e-01 1.991206407546997070e-01
3.360000000000000000e+02 3.488891983032226562e+01 -1.255764007568359375e+01 -4.484385848045349121e-01 -3.267040848731994629e-01 -2.325427979230880737e-01 4.448299705982208252e-01
3.370000000000000000e+02 3.666217422485351562e+01 -1.464937305450439453e+01 -7.072176933288574219e-01 -4.554359614849090576e-01 -3.487960994243621826e-01 6.822954416275024414e-01
3.380000000000000000e+02 3.400869369506835938e+01 -1.150988864898681641e+01 -4.331844151020050049e-01 -2.761427164077758789e-01 -2.127981334924697876e-01 2.997643649578094482e-01
3.390000000000000000e+02 2.468229866027832031e+01 5.955672264099121094e-01 4.982709512114524841e-02 -2.359385788440704346e-01 -5.583344399929046631e-02 -2.221104800701141357e-01
3.400000000000000000e+02 2.414105415344238281e+01 1.782999038696289062e+00 -1.309017986059188843e-01 -1.041878312826156616e-01 -7.052689045667648315e-02 -1.200357377529144287e-01
3.410000000000000000e+02 2.352084732055664062e+01 1.860120177268981934e+00 -3.728866577148437500e-02 -1.095087546855211258e-02 -1.447186153382062912e-02 -2.634360268712043762e-02
3.420000000000000000e+02 2.156728363037109375e+01 9.019557237625122070e-01 -6.993055343627929688e-03 -2.566407248377799988e-02 -9.797138161957263947e-03 -1.008670311421155930e-03
3.430000000000000000e+02 2.264192390441894531e+01 1.930945158004760742e+00 -2.680455148220062256e-02 -2.350013516843318939e-02 -1.509140618145465851e-02 -9.164439514279365540e-03
3.440000000000000000e+02 2.082454109191894531e+01 2.204359531402587891e+00 -9.208599105477333069e-03 4.526035860180854797e-03 -1.404768787324428558e-03 9.043999947607517242e-03
3.450000000000000000e+02 1.794918632507324219e+01 2.543397188186645508e+00 3.750933334231376648e-02 1.777515560388565063e-02 1.658534817397594452e-02 7.497212849557399750e-03
3.460000000000000000e+02 2.000754165649414062e+01 2.337201595306396484e+00 -9.065439924597740173e-03 -2.366469008848071098e-03 -3.429572563618421555e-03 -9.766401723027229309e-03
3.470000000000000000e+02 1.982037734985351562e+01 1.557845950126647949e+00 -2.929080277681350708e-02 1.543147210031747818e-02 -4.157799296081066132e-03 -4.222000949084758759e-03
3.480000000000000000e+02 2.291537094116210938e+01 -4.359256625175476074e-01 1.009075995534658432e-02 -1.645670682191848755e-01 -4.634289070963859558e-02 -5.011413246393203735e-02
3.490000000000000000e+02 2.373936653137207031e+01 -1.463109612464904785e+00 1.271277964115142822e-01 -2.473738938570022583e-01 -3.607382997870445251e-02 -1.865271851420402527e-02
3.500000000000000000e+02 2.595245552062988281e+01 -9.224216461181640625e+00 -2.453390657901763916e-01 3.869469091296195984e-02 -6.199331209063529968e-02 6.743524968624114990e-02
3.510000000000000000e+02 2.349011802673339844e+01 -1.035546398162841797e+01 -3.603827655315399170e-01 -3.818309679627418518e-02 -1.195697635412216187e-01 5.348127707839012146e-02
3.520000000000000000e+02 2.471302223205566406e+01 -9.544799804687500000e+00 -4.026132524013519287e-01 -9.557985700666904449e-03 -1.236513704061508179e-01 5.796591565012931824e-02
3.530000000000000000e+02 2.264727401733398438e+01 -9.267495155334472656e+00 -4.555219113826751709e-01 -8.547672629356384277e-02 -1.622995883226394653e-01 9.058271348476409912e-02
3.540000000000000000e+02 2.224916267395019531e+01 -1.141568660736083984e+01 -2.683738470077514648e-01 -1.504671387374401093e-02 -8.502617478370666504e-02 -1.798270829021930695e-02
3.550000000000000000e+02 2.168311119079589844e+01 -1.605789947509765625e+01 -1.834308803081512451e-01 1.063484996557235718e-01 -2.312471345067024231e-02 -9.001295268535614014e-02
3.560000000000000000e+02 2.233112716674804688e+01 -1.787081718444824219e+01 -1.436846554279327393e-01 1.370995938777923584e-01 -1.975517719984054565e-03 -1.083113923668861389e-01
3.570000000000000000e+02 1.902160835266113281e+01 -1.888126373291015625e+01 -7.825766503810882568e-02 8.265417069196701050e-02 1.318952883593738079e-03 -1.427146196365356445e-01
3.580000000000000000e+02 2.003500938415527344e+01 -2.470239830017089844e+01 1.570009067654609680e-02 1.234510689973831177e-01 4.174534603953361511e-02 -1.643989980220794678e-01
3.590000000000000000e+02 2.168842697143554688e+01 -2.831883049011230469e+01 8.987054973840713501e-02 1.837752014398574829e-01 8.209372311830520630e-02 -1.420599967241287231e-01
3.600000000000000000e+02 1.983436775207519531e+01 -3.324888992309570312e+01 1.421608179807662964e-01 1.613645851612091064e-01 9.105762094259262085e-02 -1.095755472779273987e-01
3.610000000000000000e+02 1.852352714538574219e+01 -3.588441467285156250e+01 1.569154113531112671e-01 1.100968644022941589e-01 8.010368049144744873e-02 -7.902643084526062012e-02
3.620000000000000000e+02 1.589978790283203125e+01 -3.771111679077148438e+01 1.273131966590881348e-01 4.193167015910148621e-02 5.077346041798591614e-02 -5.454611033201217651e-02
3.630000000000000000e+02 1.717861938476562500e+01 -4.087300109863281250e+01 1.571540385484695435e-01 7.700565457344055176e-02 7.024790346622467041e-02 -2.486116625368595123e-02
3.640000000000000000e+02 2.202733802795410156e+01 -4.082855606079101562e+01 2.086255848407745361e-01 2.411254197359085083e-01 1.349252909421920776e-01 -1.472731959074735641e-02
3.650000000000000000e+02 2.200070762634277344e+01 -3.759846878051757812e+01 1.952523440122604370e-01 2.407940626144409180e-01 1.308139264583587646e-01 -5.609317868947982788e-02
3.660000000000000000e+02 2.284996414184570312e+01 -3.465774154663085938e+01 1.873476952314376831e-01 2.544744014739990234e-01 1.325466334819793701e-01 -7.159091532230377197e-02
3.670000000000000000e+02 2.361337661743164062e+01 -3.197884178161621094e+01 1.614750921726226807e-01 2.672124505043029785e-01 1.286062598228454590e-01 -1.042397767305374146e-01
3.680000000000000000e+02 2.500266265869140625e+01 -2.714694786071777344e+01 8.460250496864318848e-02 2.747805714607238770e-01 1.078149229288101196e-01 -1.238356679677963257e-01
3.690000000000000000e+02 2.354774475097656250e+01 -2.389855575561523438e+01 -1.774843549355864525e-03 2.133233249187469482e-01 6.346454471349716187e-02 -1.436651796102523804e-01
3.700000000000000000e+02 2.422071647644042969e+01 -1.980597496032714844e+01 -1.378554850816726685e-01 2.001670897006988525e-01 1.869348436594009399e-02 -1.202389672398567200e-01
3.710000000000000000e+02 2.622516250610351562e+01 -1.657796478271484375e+01 -2.273349463939666748e-01 2.182991206645965576e-01 -2.710750326514244080e-03 -1.485313940793275833e-02
3.720000000000000000e+02 2.696689987182617188e+01 -1.361421775817871094e+01 -3.539970219135284424e-01 1.977610141038894653e-01 -4.687079787254333496e-02 9.962704032659530640e-02
3.730000000000000000e+02 1.955722427368164062e+01 -6.553551673889160156e+00 -6.195460259914398193e-02 -1.919369772076606750e-02 -2.434448897838592529e-02 6.775674968957901001e-02
3.740000000000000000e+02 1.857202148437500000e+01 -5.586133956909179688e+00 -5.874631926417350769e-02 -3.499457612633705139e-02 -2.812226861715316772e-02 1.889804005622863770e-02
3.750000000000000000e+02 1.484689903259277344e+01 -3.229208946228027344e+00 -1.706073246896266937e-02 -1.521650818176567554e-03 -5.574714858084917068e-03 4.685619845986366272e-03
3.760000000000000000e+02 1.181715393066406250e+01 -1.946086287498474121e+00 -8.883214555680751801e-03 7.367682992480695248e-04 -2.443933859467506409e-03 1.005298690870404243e-03
3.770000000000000000e+02 1.027488613128662109e+01 -2.431459903717041016e+00 -1.064981613308191299e-02 1.220877980813384056e-03 -2.828681375831365585e-03 -3.732414043042808771e-04
3.780000000000000000e+02 7.796917915344238281e+00 -5.210343360900878906e+00 -1.126634236425161362e-02 -1.001927768811583519e-03 -3.680481109768152237e-03 -8.821879513561725616e-03
3.790000000000000000e+02 7.000966548919677734e+00 -9.580975532531738281e+00 -4.119214415550231934e-02 -7.612685672938823700e-03 -1.464144978672266006e-02 -4.033794999122619629e-02
3.800000000000000000e+02 7.246148586273193359e+00 -1.252632331848144531e+01 -3.531162068247795105e-02 -2.295058034360408783e-02 -1.747865974903106689e-02 -6.164257228374481201e-02
3.810000000000000000e+02 6.618053913116455078e+00 -1.897506332397460938e+01 -1.061453856527805328e-02 -7.730010896921157837e-02 -2.637439407408237457e-02 -9.577169269323348999e-02
3.820000000000000000e+02 7.126533985137939453e+00 -2.240225219726562500e+01 -3.600402502343058586e-03 -1.030502021312713623e-01 -3.199518099427223206e-02 -1.132035255432128906e-01
3.830000000000000000e+02 5.646213531494140625e+00 -2.482025909423828125e+01 4.519521724432706833e-03 -1.655666083097457886e-01 -4.831412807106971741e-02 -9.294463694095611572e-02
3.840000000000000000e+02 6.964661121368408203e+00 -3.227299118041992188e+01 2.833510190248489380e-02 -2.000006288290023804e-01 -5.149965733289718628e-02 -8.166752755641937256e-02
3.850000000000000000e+02 3.984021902084350586e+00 -3.418468475341796875e+01 1.853409968316555023e-02 -3.191740512847900391e-01 -9.019198268651962280e-02 -4.871840402483940125e-02
3.860000000000000000e+02 6.235126972198486328e+00 -3.793446731567382812e+01 3.392684459686279297e-02 -2.492906302213668823e-01 -6.460914015769958496e-02 -4.593316465616226196e-02
3.870000000000000000e+02 8.079648971557617188e+00 -4.110834503173828125e+01 4.049477726221084595e-02 -2.072821408510208130e-01 -5.003621056675910950e-02 -1.626403443515300751e-02
3.880000000000000000e+02 8.902559280395507812e+00 -3.572316360473632812e+01 5.669569969177246094e-02 -1.663650125265121460e-01 -3.290079534053802490e-02 -6.971438229084014893e-02
3.890000000000000000e+02 8.693511009216308594e+00 -3.017583847045898438e+01 3.511880710721015930e-02 -1.377523690462112427e-01 -3.079007007181644440e-02 -1.123302951455116272e-01
3.900000000000000000e+02 1.006982612609863281e+01 -2.789648056030273438e+01 2.762198634445667267e-02 -9.895250201225280762e-02 -2.139915525913238525e-02 -1.334010958671569824e-01
3.910000000000000000e+02 9.290425300598144531e+00 -2.422651863098144531e+01 3.642245428636670113e-03 -8.767370134592056274e-02 -2.520943619310855865e-02 -1.364592313766479492e-01
3.920000000000000000e+02 9.376489639282226562e+00 -2.289088821411132812e+01 -6.152121350169181824e-03 -7.020278275012969971e-02 -2.290647104382514954e-02 -1.230802908539772034e-01
3.930000000000000000e+02 1.023569774627685547e+01 -1.784757995605468750e+01 -3.740118816494941711e-02 -2.486454881727695465e-02 -1.867972128093242645e-02 -1.212950721383094788e-01
3.940000000000000000e+02 1.072671318054199219e+01 -1.287393856048583984e+01 -6.580223143100738525e-02 1.068876776844263077e-02 -1.653403975069522858e-02 -8.717991411685943604e-02
3.950000000000000000e+02 1.097148513793945312e+01 -9.799262046813964844e+00 -8.587945252656936646e-02 1.229024492204189301e-02 -2.207676321268081665e-02 -4.911362379789352417e-02
3.960000000000000000e+02 1.293697929382324219e+01 -6.012864112854003906e+00 -5.637828260660171509e-02 7.075826637446880341e-03 -1.479073613882064819e-02 -1.439719647169113159e-02
3.970000000000000000e+02 1.571732807159423828e+01 -2.050184249877929688e+00 9.982477873563766479e-03 5.619922652840614319e-03 4.680720157921314240e-03 1.978148473426699638e-03
3.980000000000000000e+02 1.142787742614746094e+01 -3.451528310775756836e+00 -1.979509554803371429e-02 4.298435524106025696e-03 -4.648998379707336426e-03 6.234729662537574768e-04
3.990000000000000000e+02 2.157439041137695312e+01 -8.461809158325195312e+00 -2.436519563198089600e-01 -4.888712987303733826e-02 -8.776172250509262085e-02 1.376581341028213501e-01
4.000000000000000000e+02 1.501498985290527344e+01 -2.071103811264038086e+00 -4.068369045853614807e-03 -5.384981166571378708e-03 -2.836005063727498055e-03 4.031479358673095703e-03
4.010000000000000000e+02 9.644188880920410156e+00 -2.980484247207641602e+00 -8.840465918183326721e-03 9.030277142301201820e-04 -2.381231402978301048e-03 -6.218169583007693291e-04
4.020000000000000000e+02 8.121917724609375000e+00 -1.849636316299438477e+00 -1.407349132932722569e-03 2.146257320418953896e-03 2.216724969912320375e-04 4.824058560188859701e-04
4.030000000000000000e+02 5.058387756347656250e+00 -2.523497343063354492e+00 -2.531585516408085823e-03 -1.337974797934293747e-03 -1.160868094302713871e-03 -2.651751274242997169e-03
4.040000000000000000e+02 5.660219669342041016e+00 -2.999627351760864258e+00 -3.742013359442353249e-03 -5.258987657725811005e-04 -1.280373660847544670e-03 -1.545739942230284214e-03
4.050000000000000000e+02 1.910526514053344727e+00 -1.977115511894226074e+00 -5.549959023483097553e-04 -1.099678804166615009e-03 -4.964023828506469727e-04 6.361028645187616348e-04
4.060000000000000000e+02 4.458250522613525391e+00 -2.160153627395629883e+00 -1.806609070627018809e-04 -6.399241392500698566e-04 -2.461755066178739071e-04 1.010304084047675133e-03
4.070000000000000000e+02 6.088181138038635254e-01 -5.071405410766601562e+00 -2.631131093949079514e-03 2.710562432184815407e-03 2.382935599598567933e-05 -5.470492033055052161e-05
4.080000000000000000e+02 1.684832811355590820e+00 -8.066799163818359375e+00 7.511532749049365520e-04 -9.337801486253738403e-03 -2.575994469225406647e-03 -7.647122722119092941e-03
4.090000000000000000e+02 4.278771877288818359e+00 -1.081388664245605469e+01 -8.656521327793598175e-03 -2.529850229620933533e-02 -1.018650736659765244e-02 -3.347397968173027039e-02
4.100000000000000000e+02 4.865580081939697266e+00 -8.256958961486816406e+00 -1.958201080560684204e-02 -1.298352889716625214e-02 -9.769662283360958099e-03 -2.096406556665897369e-02
4.110000000000000000e+02 5.458397388458251953e+00 -5.183442115783691406e+00 -1.185559481382369995e-02 -5.613648798316717148e-03 -5.240773316472768784e-03 -1.076301001012325287e-02
4.120000000000000000e+02 3.902662277221679688e+00 -1.856049776077270508e+00 2.575706457719206810e-04 -8.069186587817966938e-04 -1.648044126341119409e-04 -4.620085819624364376e-04
4.130000000000000000e+02 2.808232307434082031e+00 -2.659287691116333008e+00 -3.790398361161351204e-03 -9.153146529570221901e-04 -1.411713892593979836e-03 1.127761788666248322e-03
4.140000000000000000e+02 5.677769780158996582e-01 -9.330817222595214844e+00 2.379940357059240341e-03 -9.868788532912731171e-03 -2.246654359623789787e-03 -3.796574193984270096e-03
4.150000000000000000e+02 1.758796930313110352e+00 -1.079713344573974609e+01 9.794771904125809669e-04 -2.564076147973537445e-02 -7.398385554552078247e-03 -1.439647097140550613e-02
4.160000000000000000e+02 4.430940628051757812e+00 -1.217911052703857422e+01 -1.806507073342800140e-02 -3.656161203980445862e-02 -1.638800464570522308e-02 -4.059526324272155762e-02
4.170000000000000000e+02 4.007230281829833984e+00 -9.499840736389160156e+00 -1.687517017126083374e-02 -1.920612715184688568e-02 -1.082438882440328598e-02 -2.253665961325168610e-02
4.180000000000000000e+02 5.871562957763671875e-01 -1.212093353271484375e+01 3.334197681397199631e-03 -3.266955912113189697e-02 -8.800608105957508087e-03 -5.913359113037586212e-03
4.190000000000000000e+02 1.800588130950927734e+00 -1.350819301605224609e+01 1.870603067800402641e-03 -5.179131031036376953e-02 -1.497621182352304459e-02 -2.101146429777145386e-02
4.200000000000000000e+02 5.834659099578857422e+00 -1.810764122009277344e+01 -2.102138474583625793e-02 -8.478379249572753906e-02 -3.174155205488204956e-02 -8.894745260477066040e-02
4.210000000000000000e+02 5.749509334564208984e+00 -1.361467742919921875e+01 -2.304247207939624786e-02 -4.164848849177360535e-02 -1.940728724002838135e-02 -5.937932804226875305e-02
4.220000000000000000e+02 5.951743721961975098e-01 -1.630536460876464844e+01 -7.026437669992446899e-03 -8.983927965164184570e-02 -2.905971556901931763e-02 -1.031911838799715042e-02
4.230000000000000000e+02 1.831694245338439941e+00 -1.757336044311523438e+01 -8.071374148130416870e-03 -1.078230366110801697e-01 -3.476832434535026550e-02 -3.225258365273475647e-02
4.240000000000000000e+02 1.972391128540039062e+00 -2.024244880676269531e+01 -8.072929456830024719e-03 -1.525740176439285278e-01 -4.819408059120178223e-02 -3.877366706728935242e-02
4.250000000000000000e+02 9.063423871994018555e-01 -2.758900642395019531e+01 -4.087436012923717499e-03 -3.177469372749328613e-01 -9.655031561851501465e-02 -1.871797256171703339e-02
4.260000000000000000e+02 2.685873746871948242e+00 -2.751823425292968750e+01 6.498254369944334030e-03 -2.686063647270202637e-01 -7.863243669271469116e-02 -5.543326959013938904e-02
4.270000000000000000e+02 8.592543005943298340e-01 -3.475136947631835938e+01 4.482442047446966171e-03 -4.401353895664215088e-01 -1.306958943605422974e-01 -8.583434857428073883e-03
4.280000000000000000e+02 8.184738755226135254e-01 -3.617782211303710938e+01 -3.193696029484272003e-03 -4.524670541286468506e-01 -1.366982311010360718e-01 -6.621763110160827637e-03
4.290000000000000000e+02 1.227842926979064941e+00 -4.000252914428710938e+01 1.150096766650676727e-02 -4.467198550701141357e-01 -1.305656582117080688e-01 9.821597486734390259e-03
4.300000000000000000e+02 2.004292488098144531e+00 -4.159993362426757812e+01 -1.260265521705150604e-02 -4.416020810604095459e-01 -1.362614184617996216e-01 3.743581473827362061e-03
4.310000000000000000e+02 1.248901462554931641e+01 -4.115085983276367188e+01 9.290365874767303467e-02 -7.478167861700057983e-02 5.436593666672706604e-03 -1.018228754401206970e-02
4.320000000000000000e+02 1.223241996765136719e+01 -3.832995605468750000e+01 8.933269232511520386e-02 -7.810997962951660156e-02 3.366814227774739265e-03 -5.197010934352874756e-02
4.330000000000000000e+02 1.162048625946044922e+01 -3.533674621582031250e+01 7.736030220985412598e-02 -8.507166802883148193e-02 -2.313410397619009018e-03 -7.876189798116683960e-02
4.340000000000000000e+02 1.387833499908447266e+01 -3.250574111938476562e+01 8.047713339328765869e-02 -2.584568411111831665e-02 1.638943515717983246e-02 -1.085897758603096008e-01
4.350000000000000000e+02 1.225603008270263672e+01 -2.866518402099609375e+01 4.507616162300109863e-02 -5.133010447025299072e-02 -1.876183785498142242e-03 -1.311299949884414673e-01
4.360000000000000000e+02 1.040417480468750000e+01 -2.373472213745117188e+01 -1.045175269246101379e-02 -6.449524313211441040e-02 -2.248409949243068695e-02 -1.459943801164627075e-01
4.370000000000000000e+02 1.319051361083984375e+01 -2.204254722595214844e+01 -1.433758717030286789e-02 2.894729841500520706e-03 -3.432857105508446693e-03 -1.510137766599655151e-01
4.380000000000000000e+02 1.575758266448974609e+01 -1.565681457519531250e+01 -1.168865114450454712e-01 4.082664102315902710e-02 -2.281796000897884369e-02 -1.229982450604438782e-01
4.390000000000000000e+02 1.410448741912841797e+01 -1.299378395080566406e+01 -1.218189001083374023e-01 3.195092454552650452e-02 -2.696039341390132904e-02 -8.266411721706390381e-02
4.400000000000000000e+02 1.734938430786132812e+01 -8.950667381286621094e+00 -1.783877313137054443e-01 3.390025347471237183e-02 -4.334624484181404114e-02 -1.006745453923940659e-02
4.410000000000000000e+02 1.566830635070800781e+01 -6.207228660583496094e+00 -8.567827194929122925e-02 7.433319464325904846e-03 -2.347348630428314209e-02 -3.918538568541407585e-04
4.420000000000000000e+02 1.662991333007812500e+01 -3.801681280136108398e+00 -2.117476798593997955e-02 -1.261460687965154648e-02 -1.013681292533874512e-02 3.013940295204520226e-03
4.430000000000000000e+02 1.611672973632812500e+01 -3.370476913452148438e+01 1.019179373979568481e-01 3.856859728693962097e-02 4.214596003293991089e-02 -1.062845513224601746e-01
4.440000000000000000e+02 1.720299339294433594e+01 -3.163151931762695312e+01 1.113274693489074707e-01 6.720020622014999390e-02 5.355830490589141846e-02 -1.213721558451652527e-01
4.450000000000000000e+02 1.570591259002685547e+01 -2.803030395507812500e+01 6.341747194528579712e-02 3.044371679425239563e-02 2.815835736691951752e-02 -1.448278576135635376e-01
4.460000000000000000e+02 1.442966079711914062e+01 -2.474117088317871094e+01 1.983016170561313629e-02 1.284673158079385757e-02 9.803067892789840698e-03 -1.535474061965942383e-01
4.470000000000000000e+02 1.542744350433349609e+01 -2.089733314514160156e+01 -3.235388174653053284e-02 4.370840266346931458e-02 3.406356321647763252e-03 -1.588893830776214600e-01
4.480000000000000000e+02 1.861361312866210938e+01 -1.715706443786621094e+01 -1.188481152057647705e-01 8.166812360286712646e-02 -1.115399785339832306e-02 -1.351482123136520386e-01
4.490000000000000000e+02 2.077525520324707031e+01 -1.450453662872314453e+01 -1.690490096807479858e-01 7.371012866497039795e-02 -2.860166691243648529e-02 -7.886388897895812988e-02
4.500000000000000000e+02 1.975895118713378906e+01 -8.357953071594238281e+00 -1.731141805648803711e-01 1.133134867995977402e-02 -4.853485152125358582e-02 6.132983788847923279e-02
4.510000000000000000e+02 2.064341926574707031e+01 -9.352988243103027344e+00 -3.108682036399841309e-01 3.046375350095331669e-04 -9.316906332969665527e-02 2.076478302478790283e-02
4.520000000000000000e+02 2.653109550476074219e+01 -4.103757476806640625e+01 2.592535912990570068e-01 4.611738920211791992e-01 2.161282449960708618e-01 -1.558639667928218842e-02
4.530000000000000000e+02 2.574567985534667969e+01 -3.831854248046875000e+01 2.371882051229476929e-01 3.894346058368682861e-01 1.879868358373641968e-01 -3.181254863739013672e-02
4.540000000000000000e+02 2.616676712036132812e+01 -3.570804214477539062e+01 2.158767729997634888e-01 3.960412144660949707e-01 1.835753917694091797e-01 -6.355153769254684448e-02
4.550000000000000000e+02 2.663414764404296875e+01 -3.302246475219726562e+01 2.035505175590515137e-01 4.156159162521362305e-01 1.857499331235885620e-01 -6.900405138731002808e-02
4.560000000000000000e+02 2.748407936096191406e+01 -2.796770477294921875e+01 1.246506124734878540e-01 4.180040061473846436e-01 1.627963781356811523e-01 -7.746762037277221680e-02
4.570000000000000000e+02 2.575570297241210938e+01 -2.502868652343750000e+01 4.869737103581428528e-02 3.013154864311218262e-01 1.050038561224937439e-01 -1.148645728826522827e-01
4.580000000000000000e+02 2.596621704101562500e+01 -1.986783218383789062e+01 -1.137954369187355042e-01 2.317782640457153320e-01 3.539485111832618713e-02 -8.339693397283554077e-02
4.590000000000000000e+02 2.833367729187011719e+01 -1.572452735900878906e+01 -3.011897504329681396e-01 2.522435188293457031e-01 -1.468386221677064896e-02 2.184816822409629822e-02
4.600000000000000000e+02 3.105777740478515625e+01 -1.156848430633544922e+01 -3.954710662364959717e-01 1.429988145828247070e-01 -7.574167102575302124e-02 1.810195595026016235e-01
4.610000000000000000e+02 3.067563629150390625e+01 -8.623529434204101562e+00 -2.176931351423263550e-01 2.095831781625747681e-01 -2.432985696941614151e-03 1.234599649906158447e-01
4.620000000000000000e+02 2.868408584594726562e+01 -1.047330570220947266e+01 -3.469142615795135498e-01 1.854843944311141968e-01 -4.842896014451980591e-02 1.933934539556503296e-01
4.630000000000000000e+02 2.568474960327148438e+01 -7.707480907440185547e+00 -5.200304463505744934e-02 -1.202187538146972656e-01 -5.166653916239738464e-02 1.202546805143356323e-01
4.640000000000000000e+02 2.895480155944824219e+01 -3.961447525024414062e+01 2.664715647697448730e-01 5.825785398483276367e-01 2.547150254249572754e-01 -2.536786906421184540e-02
4.650000000000000000e+02 2.948583221435546875e+01 -3.671477508544921875e+01 2.585813105106353760e-01 6.086865067481994629e-01 2.601803541183471680e-01 -3.084421902894973755e-02
4.660000000000000000e+02 2.974847793579101562e+01 -3.385536575317382812e+01 2.140823006629943848e-01 5.929928421974182129e-01 2.421225458383560181e-01 -4.939346760511398315e-02
4.670000000000000000e+02 2.993467330932617188e+01 -3.108751106262207031e+01 1.849615871906280518e-01 5.869522690773010254e-01 2.315741479396820068e-01 -3.802077472209930420e-02
4.680000000000000000e+02 3.006388664245605469e+01 -2.847304725646972656e+01 1.221393644809722900e-01 5.226220488548278809e-01 1.934284269809722900e-01 -4.700592532753944397e-02
4.690000000000000000e+02 2.932028007507324219e+01 -2.282094955444335938e+01 -2.656578086316585541e-02 3.650799989700317383e-01 1.015542671084403992e-01 -6.322059035301208496e-02
4.700000000000000000e+02 2.822280502319335938e+01 -2.111186981201171875e+01 -9.610160440206527710e-02 3.059568107128143311e-01 6.295656412839889526e-02 -7.056991010904312134e-02
4.710000000000000000e+02 3.211054992675781250e+01 -1.699958038330078125e+01 -3.984827399253845215e-01 2.457966208457946777e-01 -4.580583423376083374e-02 4.970772936940193176e-02
4.720000000000000000e+02 3.289887237548828125e+01 -1.219266700744628906e+01 -4.168666601181030273e-01 -3.654845058917999268e-02 -1.360245347023010254e-01 2.545397579669952393e-01
4.730000000000000000e+02 3.271373748779296875e+01 -4.080360794067382812e+01 2.975049018859863281e-01 8.016944527626037598e-01 3.297598063945770264e-01 -6.992884445935487747e-04
4.740000000000000000e+02 3.292185974121093750e+01 -3.444422531127929688e+01 2.344877421855926514e-01 8.240537643432617188e-01 3.175624608993530273e-01 -1.190754864364862442e-02
4.750000000000000000e+02 3.281052017211914062e+01 -3.150613021850585938e+01 1.707392632961273193e-01 7.809526920318603516e-01 2.855075895786285400e-01 -1.569655910134315491e-02
4.760000000000000000e+02 3.273147964477539062e+01 -2.864026832580566406e+01 1.195697411894798279e-01 7.516197562217712402e-01 2.613568603992462158e-01 2.582983113825321198e-02
4.770000000000000000e+02 3.092503547668457031e+01 -2.436130332946777344e+01 2.806203998625278473e-02 4.973744750022888184e-01 1.576309502124786377e-01 1.312449481338262558e-02
4.780000000000000000e+02 3.121433448791503906e+01 -1.908907127380371094e+01 -2.109869271516799927e-01 3.039419949054718018e-01 2.788651920855045319e-02 -2.895774878561496735e-02
4.790000000000000000e+02 3.818840789794921875e+01 -1.744721031188964844e+01 -4.339628517627716064e-01 -1.735751181840896606e-01 -1.822613924741744995e-01 8.470189571380615234e-01
4.800000000000000000e+02 3.585208511352539062e+01 -1.685591888427734375e+01 -4.332973361015319824e-01 1.445799767971038818e-01 -8.661521226167678833e-02 1.634920388460159302e-01
4.810000000000000000e+02 3.673885726928710938e+01 -3.783419036865234375e+01 2.868073582649230957e-01 1.120875835418701172e+00 4.223049581050872803e-01 -4.690313711762428284e-03
4.820000000000000000e+02 3.618996047973632812e+01 -3.467393112182617188e+01 2.219657003879547119e-01 1.070306181907653809e+00 3.876815438270568848e-01 -1.373698096722364426e-02
4.830000000000000000e+02 3.562829589843750000e+01 -3.167851257324218750e+01 1.549017429351806641e-01 1.031388282775878906e+00 3.558869957923889160e-01 2.280971780419349670e-02
4.840000000000000000e+02 3.523675918579101562e+01 -2.891876411437988281e+01 7.505842298269271851e-02 9.434882998466491699e-01 3.055640161037445068e-01 5.533729866147041321e-02
4.850000000000000000e+02 3.433076858520507812e+01 -2.482288932800292969e+01 1.048447191715240479e-02 8.037137985229492188e-01 2.442594766616821289e-01 1.513341963291168213e-01
4.860000000000000000e+02 3.524806594848632812e+01 -2.109362030029296875e+01 -3.708052262663841248e-02 6.569505929946899414e-01 1.859610080718994141e-01 2.823280096054077148e-01
4.870000000000000000e+02 3.725596618652343750e+01 -4.096655654907226562e+01 3.087021112442016602e-01 1.170181870460510254e+00 4.436651766300201416e-01 -6.371316500008106232e-03
4.880000000000000000e+02 4.055112075805664062e+01 -3.766625595092773438e+01 2.936145365238189697e-01 1.481710195541381836e+00 5.325974225997924805e-01 -1.259760465472936630e-02
4.890000000000000000e+02 3.940896987915039062e+01 -3.445264816284179688e+01 2.137246727943420410e-01 1.367450356483459473e+00 4.743524789810180664e-01 -8.177241310477256775e-03
4.900000000000000000e+02 4.220026397705078125e+01 -3.198189926147460938e+01 1.163739785552024841e-01 1.566290140151977539e+00 5.047992467880249023e-01 -4.917968064546585083e-02
4.910000000000000000e+02 3.727701568603515625e+01 -2.888634490966796875e+01 2.659166418015956879e-02 1.231151819229125977e+00 3.773230314254760742e-01 9.147264808416366577e-02
4.920000000000000000e+02 3.993511962890625000e+01 -2.366985702514648438e+01 -3.453702628612518311e-01 1.771365761756896973e+00 4.277986586093902588e-01 3.361806869506835938e-01
4.930000000000000000e+02 4.164041137695312500e+01 -1.919978523254394531e+01 -1.319423079490661621e+00 2.887351274490356445e+00 4.703784584999084473e-01 4.975801408290863037e-01
4.940000000000000000e+02 3.752820205688476562e+01 -1.572020530700683594e+01 -1.231135964393615723e+00 -6.184853315353393555e-01 -5.548864006996154785e-01 6.348821520805358887e-01
4.950000000000000000e+02 4.121165847778320312e+01 -1.724821662902832031e+01 -1.178616192191839218e-02 4.828583717346191406e+00 1.445039272308349609e+00 9.036294817924499512e-01
4.960000000000000000e+02 4.184769821166992188e+01 -4.088133621215820312e+01 3.149296045303344727e-01 1.599947214126586914e+00 5.744630694389343262e-01 1.536961179226636887e-03
4.970000000000000000e+02 4.379444122314453125e+01 -3.703192520141601562e+01 2.917735576629638672e-01 1.792294621467590332e+00 6.252204775810241699e-01 2.683856757357716560e-03
4.980000000000000000e+02 4.219195175170898438e+01 -3.415857315063476562e+01 1.885904222726821899e-01 1.608267903327941895e+00 5.390574932098388672e-01 -1.745839603245258331e-02
4.990000000000000000e+02 4.536680603027343750e+01 -3.168037033081054688e+01 1.501269191503524780e-01 1.839491248130798340e+00 5.968854427337646484e-01 -2.556730806827545166e-02
5.000000000000000000e+02 4.519482040405273438e+01 -2.513544082641601562e+01 -3.644611239433288574e-01 1.929332852363586426e+00 4.694615006446838379e-01 -2.323296815156936646e-01
5.010000000000000000e+02 4.298191452026367188e+01 -2.490883064270019531e+01 -3.617370128631591797e-01 1.913901805877685547e+00 4.656494259834289551e-01 -6.440700590610504150e-02
5.020000000000000000e+02 4.315849685668945312e+01 -1.910061073303222656e+01 -8.224652409553527832e-01 3.288612365722656250e+00 7.398441433906555176e-01 -2.642457485198974609e-01
5.030000000000000000e+02 4.687078857421875000e+01 -1.664702987670898438e+01 -9.652026891708374023e-01 1.403578400611877441e+00 1.315127313137054443e-01 -2.323237061500549316e-01
5.040000000000000000e+02 5.000998306274414062e+01 -1.559015178680419922e+01 -9.997119307518005371e-01 -5.384786128997802734e-01 -4.614571630954742432e-01 9.901363253593444824e-01
5.050000000000000000e+02 4.716121673583984375e+01 -1.223783111572265625e+01 -5.550799369812011719e-01 5.224302411079406738e-01 -9.794913232326507568e-03 -2.291664946824312210e-03
5.060000000000000000e+02 4.603663253784179688e+01 -1.261964130401611328e+01 -5.042794346809387207e-01 2.082403182983398438e+00 4.734371006488800049e-01 2.317474037408828735e-01
5.070000000000000000e+02 4.801050949096679688e+01 -1.345012378692626953e+01 -4.970796704292297363e-01 5.975941568613052368e-02 -1.311960816383361816e-01 5.433607101440429688e-01
5.080000000000000000e+02 4.528510284423828125e+01 -8.468973159790039062e+00 5.056011676788330078e-01 6.338026523590087891e+00 2.053088188171386719e+00 -1.135325551033020020e+00
5.090000000000000000e+02 4.359284591674804688e+01 -4.705213546752929688e+00 2.727596759796142578e+00 8.673995018005371094e+00 3.420477628707885742e+00 1.404944658279418945e+00
5.100000000000000000e+02 4.469900894165039062e+01 -3.695637464523315430e+00 2.907493591308593750e+00 1.068426418304443359e+01 4.077527046203613281e+00 3.204995632171630859e+00
5.110000000000000000e+02 4.614386749267578125e+01 -4.052865219116210938e+01 3.152578473091125488e-01 2.105723142623901367e+00 7.262942790985107422e-01 -1.084273681044578552e-03
5.120000000000000000e+02 4.610251235961914062e+01 -3.571611022949218750e+01 2.480081915855407715e-01 1.960424661636352539e+00 6.625298261642456055e-01 -5.492893047630786896e-03
5.130000000000000000e+02 4.768695449829101562e+01 -3.378548812866210938e+01 2.218638509511947632e-01 2.222202539443969727e+00 7.332198619842529297e-01 1.075937971472740173e-02
5.140000000000000000e+02 4.967760848999023438e+01 -2.970891571044921875e+01 1.109646707773208618e-01 2.265058755874633789e+00 7.128069996833801270e-01 8.628237247467041016e-02
5.150000000000000000e+02 4.846242141723632812e+01 -2.685957717895507812e+01 -1.344388350844383240e-02 1.963820099830627441e+00 5.851128697395324707e-01 -6.292503327131271362e-02
5.160000000000000000e+02 4.736965942382812500e+01 -2.279273796081542969e+01 -4.289723336696624756e-01 1.800486922264099121e+00 4.114543795585632324e-01 -3.735498785972595215e-01
5.170000000000000000e+02 4.571107482910156250e+01 -1.938074684143066406e+01 -9.296685457229614258e-01 2.158227443695068359e+00 3.685676753520965576e-01 -4.190432131290435791e-01
5.180000000000000000e+02 4.899869918823242188e+01 -1.669543266296386719e+01 -1.293811202049255371e+00 2.034574002027511597e-01 -3.271061480045318604e-01 2.158397138118743896e-01
5.190000000000000000e+02 4.796749114990234375e+01 -1.560772895812988281e+01 -7.090820670127868652e-01 6.878654956817626953e-01 -6.364962086081504822e-03 3.126064836978912354e-01
5.200000000000000000e+02 4.903812408447265625e+01 -3.873781967163085938e+01 3.041428625583648682e-01 2.497309923171997070e+00 8.404358625411987305e-01 3.051675111055374146e-02
5.210000000000000000e+02 5.051504898071289062e+01 -3.581403732299804688e+01 2.392694354057312012e-01 2.661892175674438477e+00 8.703485131263732910e-01 9.104882925748825073e-02
5.220000000000000000e+02 5.154838943481445312e+01 -3.313290405273437500e+01 1.651680022478103638e-01 2.790558815002441406e+00 8.867180943489074707e-01 1.564242839813232422e-01
5.230000000000000000e+02 5.221014785766601562e+01 -3.054554939270019531e+01 1.006341949105262756e-01 2.805549860000610352e+00 8.718552589416503906e-01 2.778539061546325684e-01
5.240000000000000000e+02 4.957799530029296875e+01 -2.444559860229492188e+01 -4.828056320548057556e-02 1.746858000755310059e+00 5.095732212066650391e-01 -3.901242837309837341e-02
5.250000000000000000e+02 5.216953277587890625e+01 -2.304038810729980469e+01 -1.636462360620498657e-01 1.629676938056945801e+00 4.398092329502105713e-01 5.592777132987976074e-01
5.260000000000000000e+02 4.803366470336914062e+01 -1.957965087890625000e+01 -8.826849460601806641e-01 1.349863767623901367e+00 1.401536315679550171e-01 -4.540133774280548096e-01
5.270000000000000000e+02 5.000918960571289062e+01 -1.781666755676269531e+01 -1.366255879402160645e+00 2.781762480735778809e-01 -3.264238834381103516e-01 5.754674077033996582e-01
5.280000000000000000e+02 5.296350860595703125e+01 -4.067623138427734375e+01 2.564736008644104004e-01 3.032650709152221680e+00 9.867372512817382812e-01 2.629683911800384521e-02
5.290000000000000000e+02 5.383084869384765625e+01 -3.727642059326171875e+01 2.150314152240753174e-01 3.206572771072387695e+00 1.026481270790100098e+00 9.701732546091079712e-02
5.300000000000000000e+02 5.456085205078125000e+01 -3.423660278320312500e+01 1.250751167535781860e-01 3.327786445617675781e+00 1.035858511924743652e+00 1.634278744459152222e-01
5.310000000000000000e+02 5.509908676147460938e+01 -3.134188079833984375e+01 -2.391537092626094818e-02 3.462203979492187500e+00 1.031486630439758301e+00 2.779852151870727539e-01
5.320000000000000000e+02 5.266995620727539062e+01 -2.561882972717285156e+01 -5.571247637271881104e-02 2.269383430480957031e+00 6.641013026237487793e-01 6.343490481376647949e-01
5.330000000000000000e+02 5.439219665527343750e+01 -2.015487480163574219e+01 -1.676090359687805176e+00 1.240140438079833984e+00 -1.307849586009979248e-01 2.366156578063964844e+00
5.340000000000000000e+02 5.308392333984375000e+01 -1.872924804687500000e+01 -3.234717607498168945e+00 -1.452615857124328613e+00 -1.406200051307678223e+00 1.487259149551391602e+00
5.350000000000000000e+02 5.739611816406250000e+01 -4.104114151000976562e+01 1.906254738569259644e-01 3.854818344116210938e+00 1.213633179664611816e+00 1.434708386659622192e-02
5.360000000000000000e+02 5.744355773925781250e+01 -3.807575225830078125e+01 1.498093307018280029e-01 3.859815597534179688e+00 1.202887415885925293e+00 6.082900613546371460e-02
5.370000000000000000e+02 5.782368087768554688e+01 -3.509440994262695312e+01 7.227993011474609375e-02 3.975215196609497070e+00 1.214248538017272949e+00 1.350207179784774780e-01
5.380000000000000000e+02 5.827117156982421875e+01 -3.212257766723632812e+01 -6.226066872477531433e-02 4.123329162597656250e+00 1.218320488929748535e+00 1.642953455448150635e-01
5.390000000000000000e+02 5.569758605957031250e+01 -2.882608032226562500e+01 -1.631497889757156372e-01 3.594431638717651367e+00 1.029384493827819824e+00 4.805779457092285156e-01
5.400000000000000000e+02 5.831647109985351562e+01 -2.505972671508789062e+01 -6.172391772270202637e-01 4.917631149291992188e+00 1.290117621421813965e+00 3.506727814674377441e-01
5.410000000000000000e+02 5.687560653686523438e+01 -1.855080223083496094e+01 9.646174907684326172e-01 9.869072914123535156e+00 3.250107049942016602e+00 3.235704600811004639e-01
5.420000000000000000e+02 5.545254135131835938e+01 -1.168906307220458984e+01 1.068081974983215332e+00 9.120336532592773438e+00 3.056525468826293945e+00 -2.003557443618774414e+00
5.430000000000000000e+02 5.574679183959960938e+01 -1.314256572723388672e+01 3.309338092803955078e-01 1.092885208129882812e+01 3.377935886383056641e+00 -1.918293118476867676e+00
5.440000000000000000e+02 5.709460449218750000e+01 -1.004986667633056641e+01 7.675774097442626953e-01 7.558238983154296875e+00 2.497744798660278320e+00 -4.212529361248016357e-01
5.450000000000000000e+02 5.682246017456054688e+01 -6.669692516326904297e+00 1.316232085227966309e-01 6.021218299865722656e+00 1.845852375030517578e+00 -1.149352073669433594e+00
5.460000000000000000e+02 5.528258514404296875e+01 -1.624411940574645996e+00 -2.893856048583984375e+00 7.816953182220458984e+00 1.476929187774658203e+00 -5.074042320251464844e+00
5.470000000000000000e+02 5.875620269775390625e+01 1.706559419631958008e+00 -6.690664291381835938e+00 -1.377839088439941406e+00 -2.420551061630249023e+00 -3.085435152053833008e+00
5.480000000000000000e+02 5.767433166503906250e+01 1.059667587280273438e+00 -6.865904331207275391e+00 -1.519292473793029785e+00 -2.515558958053588867e+00 -3.349507331848144531e+00
5.490000000000000000e+02 6.163516616821289062e+01 -4.115329360961914062e+01 1.356552094221115112e-01 4.693156242370605469e+00 1.448643445968627930e+00 1.522525120526552200e-02
5.500000000000000000e+02 6.115813827514648438e+01 -3.590520858764648438e+01 5.765682458877563477e-02 4.516914367675781250e+00 1.372371315956115723e+00 4.411333426833152771e-02
5.510000000000000000e+02 6.240650558471679688e+01 -3.045637512207031250e+01 -1.228345558047294617e-01 4.868715286254882812e+00 1.423764228820800781e+00 -9.988260269165039062e-02
5.520000000000000000e+02 6.042833709716796875e+01 -2.850238800048828125e+01 -2.547015249729156494e-01 4.779321670532226562e+00 1.357385993003845215e+00 1.454172004014253616e-02
5.530000000000000000e+02 6.150078201293945312e+01 -2.348103141784667969e+01 -5.129681825637817383e-01 5.662121772766113281e+00 1.544746041297912598e+00 -6.298728585243225098e-01
5.540000000000000000e+02 6.106043243408203125e+01 -1.897127532958984375e+01 2.931201159954071045e-01 6.352473258972167969e+00 1.993677973747253418e+00 -1.530935287475585938e+00
5.550000000000000000e+02 6.030397415161132812e+01 -1.545335674285888672e+01 4.925725758075714111e-01 7.168359279632568359e+00 2.298279523849487305e+00 -5.146628618240356445e-01
5.560000000000000000e+02 6.018502044677734375e+01 -1.299118232727050781e+01 4.122501909732818604e-01 7.741639614105224609e+00 2.446166992187500000e+00 -2.770532667636871338e-02
5.570000000000000000e+02 6.243198394775390625e+01 -9.902831077575683594e+00 5.866394639015197754e-01 8.114298820495605469e+00 2.610281467437744141e+00 -3.041815459728240967e-01
5.580000000000000000e+02 6.056177520751953125e+01 -7.696666717529296875e+00 1.220190882682800293e+00 8.117908477783203125e+00 2.801429748535156250e+00 6.907004117965698242e-01
5.590000000000000000e+02 5.923361206054687500e+01 -4.115832805633544922e+00 1.066172719001770020e+00 5.446072101593017578e+00 1.953673362731933594e+00 -1.164124727249145508e+00
5.600000000000000000e+02 6.375850296020507812e+01 -1.315011858940124512e+00 -4.225283622741699219e+00 7.528325557708740234e+00 9.909124970436096191e-01 4.071420669555664062e+00
5.610000000000000000e+02 6.197189712524414062e+01 4.194400310516357422e+00 -9.849112033843994141e-01 8.731131553649902344e-01 -3.353942930698394775e-02 2.528863213956356049e-02
5.620000000000000000e+02 6.434051513671875000e+01 7.449328422546386719e+00 7.355189919471740723e-01 5.159836769104003906e+00 1.768606781959533691e+00 2.122864723205566406e+00
5.630000000000000000e+02 6.282390213012695312e+01 5.271892547607421875e+00 3.995686769485473633e-02 1.656780481338500977e+00 5.090212225914001465e-01 6.571775674819946289e-01
5.640000000000000000e+02 6.384507369995117188e+01 4.459728240966796875e+00 -3.907754123210906982e-01 3.818618774414062500e+00 1.028352975845336914e+00 1.145800590515136719e+00
5.650000000000000000e+02 6.393955230712890625e+01 -3.974111557006835938e+01 1.015793606638908386e-01 5.038683414459228516e+00 1.542078852653503418e+00 4.621679428964853287e-03
5.660000000000000000e+02 6.435960388183593750e+01 -3.688058090209960938e+01 8.332652598619461060e-02 5.213637828826904297e+00 1.589089274406433105e+00 2.138982061296701431e-03
5.670000000000000000e+02 6.460949707031250000e+01 -3.407289505004882812e+01 5.249868333339691162e-02 5.180929183959960938e+00 1.570028305053710938e+00 -3.238929063081741333e-02
5.680000000000000000e+02 6.354706954956054688e+01 -2.850837326049804688e+01 -8.245602250099182129e-02 5.132076263427734375e+00 1.514886140823364258e+00 -2.005246281623840332e-01
5.690000000000000000e+02 6.624881744384765625e+01 -2.255698204040527344e+01 2.981397509574890137e-01 4.597795486450195312e+00 1.468780636787414551e+00 -7.215762734413146973e-01
5.700000000000000000e+02 6.451782226562500000e+01 -1.970751380920410156e+01 3.831066191196441650e-02 4.652422904968261719e+00 1.407220125198364258e+00 -1.485792279243469238e+00
5.710000000000000000e+02 6.400587463378906250e+01 -1.665042495727539062e+01 -2.106872797012329102e-01 4.936777114868164062e+00 1.417826890945434570e+00 -1.446375727653503418e+00
5.720000000000000000e+02 6.540905761718750000e+01 -1.258462524414062500e+01 4.886402785778045654e-01 2.912092924118041992e+00 1.020219922065734863e+00 -1.248105287551879883e+00
5.730000000000000000e+02 6.271323394775390625e+01 -1.248937129974365234e+01 -3.230226784944534302e-02 6.847792625427246094e+00 2.044646978378295898e+00 -6.403368115425109863e-01
5.740000000000000000e+02 6.370748519897460938e+01 -9.608079910278320312e+00 9.951075315475463867e-01 8.817320823669433594e+00 2.943728446960449219e+00 -1.966683268547058105e+00
5.750000000000000000e+02 6.317641830444335938e+01 -6.894050121307373047e+00 5.108329653739929199e-01 1.193982887268066406e+01 3.735198736190795898e+00 -6.161406636238098145e-01
5.760000000000000000e+02 6.301361083984375000e+01 -5.449677467346191406e+00 6.814876794815063477e-01 1.342303752899169922e+01 4.231357574462890625e+00 6.093137860298156738e-01
5.770000000000000000e+02 6.103270721435546875e+01 -4.476868629455566406e+00 1.869979143142700195e+00 7.294893264770507812e+00 2.749461650848388672e+00 1.465189903974533081e-01
5.780000000000000000e+02 6.427149963378906250e+01 -2.401260614395141602e+00 -2.328469514846801758e+00 5.919748306274414062e+00 1.077383637428283691e+00 4.657815456390380859e+00
5.790000000000000000e+02 6.620626831054687500e+01 -2.455682039260864258e+00 -6.935953617095947266e+00 -1.343712925910949707e+00 -2.483899831771850586e+00 2.843670606613159180e+00
5.800000000000000000e+02 6.823249816894531250e+01 -2.394286155700683594e+00 -4.638370513916015625e+00 3.829660415649414062e+00 -2.426129877567291260e-01 -7.493983507156372070e-01
5.810000000000000000e+02 6.812165069580078125e+01 -4.355985641479492188e+00 -1.816712856292724609e+00 8.084195852279663086e-01 -3.024879693984985352e-01 2.059001624584197998e-01
5.820000000000000000e+02 6.905324554443359375e+01 -5.372156143188476562e+00 -5.561086162924766541e-02 1.911705255508422852e+00 5.568283200263977051e-01 -9.045192599296569824e-01
5.830000000000000000e+02 7.163505554199218750e+01 -6.765846252441406250e+00 2.602859437465667725e-01 6.585655212402343750e+00 2.053782224655151367e+00 -1.703983783721923828e+00
5.840000000000000000e+02 7.344035339355468750e+01 -1.060448169708251953e+01 1.337814569473266602e+00 1.149639511108398438e+01 3.850262880325317383e+00 -1.852760612964630127e-01
5.850000000000000000e+02 7.956999206542968750e+01 -1.115788078308105469e+01 -1.594282500445842743e-02 6.792361259460449219e+00 2.032925605773925781e+00 3.274159878492355347e-02
5.860000000000000000e+02 7.874776458740234375e+01 -1.088717937469482422e+01 1.420118659734725952e-01 7.648190975189208984e+00 2.337060928344726562e+00 3.933310210704803467e-01
5.870000000000000000e+02 7.946025085449218750e+01 -9.960165977478027344e+00 1.361556053161621094e-01 7.443541049957275391e+00 2.273909091949462891e+00 2.889153659343719482e-01
5.880000000000000000e+02 7.813072967529296875e+01 -5.754876613616943359e+00 6.367782503366470337e-02 9.495117187500000000e+00 2.867638587951660156e+00 1.215480327606201172e+00
5.890000000000000000e+02 7.410419464111328125e+01 -2.409868240356445312e+00 -4.143263101577758789e-01 4.797016620635986328e+00 1.314807057380676270e+00 -1.516285836696624756e-01
5.900000000000000000e+02 7.177709960937500000e+01 -7.982216775417327881e-02 -2.448795795440673828e+00 3.957786798477172852e+00 4.526973068714141846e-01 -5.308258533477783203e+00
5.910000000000000000e+02 6.998178100585937500e+01 1.282252192497253418e+00 7.551316022872924805e-01 8.475765228271484375e+00 2.769268989562988281e+00 -3.582288503646850586e+00
5.920000000000000000e+02 6.951609039306640625e+01 2.573689222335815430e+00 3.338454008102416992e+00 1.297393608093261719e+01 4.893717288970947266e+00 -4.274335861206054688e+00
5.930000000000000000e+02 6.854885864257812500e+01 5.038395404815673828e+00 1.056410908699035645e+00 1.399259662628173828e+01 4.514702320098876953e+00 -1.408454775810241699e+00
5.940000000000000000e+02 6.622203826904296875e+01 9.164118766784667969e+00 1.137345552444458008e+00 1.484545803070068359e+01 4.794841289520263672e+00 9.170327782630920410e-01
5.950000000000000000e+02 6.757855224609375000e+01 -4.086056518554687500e+01 9.529177099466323853e-02 5.725354194641113281e+00 1.746193766593933105e+00 1.518162526190280914e-02
5.960000000000000000e+02 6.760954284667968750e+01 -3.767100143432617188e+01 9.356303513050079346e-02 5.725029468536376953e+00 1.745577692985534668e+00 2.477615699172019958e-02
5.970000000000000000e+02 6.752033233642578125e+01 -3.472952270507812500e+01 9.176190197467803955e-02 5.749168395996093750e+00 1.752279162406921387e+00 2.771696075797080994e-02
5.980000000000000000e+02 6.751380920410156250e+01 -3.212454986572265625e+01 8.842641115188598633e-02 5.626310348510742188e+00 1.714421033859252930e+00 -2.933411300182342529e-02
5.990000000000000000e+02 6.602033233642578125e+01 -2.748449897766113281e+01 1.167684420943260193e-01 5.282678127288818359e+00 1.619833946228027344e+00 -2.350989133119583130e-01
6.000000000000000000e+02 6.768562316894531250e+01 -2.241172409057617188e+01 4.080488979816436768e-01 4.581434726715087891e+00 1.496845006942749023e+00 -3.437933623790740967e-01
6.010000000000000000e+02 6.593672180175781250e+01 -1.957527160644531250e+01 2.029637247323989868e-01 4.008525848388671875e+00 1.263446927070617676e+00 -1.239810943603515625e+00
6.020000000000000000e+02 6.825271606445312500e+01 -1.523676776885986328e+01 -1.573117852210998535e+00 -8.587428927421569824e-02 -4.976976215839385986e-01 6.274016499519348145e-01
6.030000000000000000e+02 6.746955871582031250e+01 -1.617288970947265625e+01 -1.600548148155212402e+00 1.654497504234313965e+00 1.618479564785957336e-02 -7.154865264892578125e-01
6.040000000000000000e+02 6.731981658935546875e+01 -1.424742794036865234e+01 -5.229986906051635742e-01 4.844906032085418701e-01 -1.155242044478654861e-02 1.271579321473836899e-02
6.050000000000000000e+02 6.663426208496093750e+01 -1.526193141937255859e+01 -8.558080792427062988e-01 2.097645044326782227e+00 3.725511133670806885e-01 -5.019357204437255859e-01
6.060000000000000000e+02 7.186130523681640625e+01 -4.096892929077148438e+01 6.619189679622650146e-02 6.584946155548095703e+00 1.995341420173645020e+00 3.507134737446904182e-03
6.070000000000000000e+02 7.089980316162109375e+01 -3.786967849731445312e+01 7.018304616212844849e-02 6.383221626281738281e+00 1.936021447181701660e+00 4.043554514646530151e-02
6.080000000000000000e+02 6.977876281738281250e+01 -3.222523117065429688e+01 1.197834461927413940e-01 6.088187217712402344e+00 1.862391233444213867e+00 7.836413383483886719e-02
6.090000000000000000e+02 6.959591674804687500e+01 -2.992573547363281250e+01 1.410920917987823486e-01 5.876719951629638672e+00 1.805343627929687500e+00 8.309961296617984772e-03
6.100000000000000000e+02 7.179612731933593750e+01 -2.333853340148925781e+01 1.514948159456253052e-01 6.065182685852050781e+00 1.865003347396850586e+00 4.994479715824127197e-01
6.110000000000000000e+02 7.019324493408203125e+01 -2.044273567199707031e+01 3.584070503711700439e-01 4.593008518218994141e+00 1.485424757003784180e+00 5.840437412261962891e-01
6.120000000000000000e+02 7.140888214111328125e+01 -1.577357292175292969e+01 -1.091869920492172241e-01 6.637519359588623047e+00 1.958499789237976074e+00 2.807464361190795898e+00
6.130000000000000000e+02 7.493222808837890625e+01 -4.025331497192382812e+01 4.771291092038154602e-02 7.190020561218261719e+00 2.171320199966430664e+00 -2.359609492123126984e-02
6.140000000000000000e+02 7.351460266113281250e+01 -3.781870651245117188e+01 4.010671377182006836e-02 6.811606884002685547e+00 2.055514097213745117e+00 2.219682186841964722e-02
6.150000000000000000e+02 7.372607421875000000e+01 -3.600141525268554688e+01 6.553059071302413940e-02 6.877303123474121094e+00 2.082849979400634766e+00 4.884666576981544495e-02
6.160000000000000000e+02 7.356048583984375000e+01 -3.171877479553222656e+01 9.048815071582794189e-02 6.882206916809082031e+00 2.091808557510375977e+00 1.295468807220458984e-01
6.170000000000000000e+02 7.523236846923828125e+01 -2.766798019409179688e+01 3.603942692279815674e-02 7.261132240295410156e+00 2.189151525497436523e+00 1.862781345844268799e-01
6.180000000000000000e+02 7.286826324462890625e+01 -2.171877098083496094e+01 -1.591866612434387207e-01 6.599158763885498047e+00 1.931991577148437500e+00 7.771645784378051758e-01
6.190000000000000000e+02 7.802812194824218750e+01 -1.526003170013427734e+01 1.457821577787399292e-01 7.984250068664550781e+00 2.439009666442871094e+00 -5.747260451316833496e-01
6.200000000000000000e+02 7.934812164306640625e+01 -1.530895996093750000e+01 -3.043548204004764557e-02 7.398298263549804688e+00 2.210358858108520508e+00 -2.266296148300170898e-01
6.210000000000000000e+02 7.379174804687500000e+01 -1.175742530822753906e+01 1.117446303367614746e+00 1.101333045959472656e+01 3.639233112335205078e+00 3.558605313301086426e-01
6.220000000000000000e+02 7.433999633789062500e+01 -1.274810314178466797e+01 1.365368843078613281e+00 1.020088481903076172e+01 3.469876050949096680e+00 1.131461784243583679e-01
6.230000000000000000e+02 7.213156890869140625e+01 -1.471031856536865234e+01 2.193293333053588867e+00 1.329636478424072266e+01 4.646897315979003906e+00 2.316521167755126953e+00
6.240000000000000000e+02 7.795672607421875000e+01 -4.163598632812500000e+01 8.039076626300811768e-02 7.718300342559814453e+00 2.339607477188110352e+00 2.247648499906063080e-02
6.250000000000000000e+02 7.918994140625000000e+01 -3.740693283081054688e+01 -3.229130059480667114e-02 7.902654647827148438e+00 2.361109018325805664e+00 4.576988890767097473e-02
6.260000000000000000e+02 7.732868957519531250e+01 -3.800250244140625000e+01 -2.548429556190967560e-02 7.618034839630126953e+00 2.277765035629272461e+00 8.632949739694595337e-02
6.270000000000000000e+02 7.930021667480468750e+01 -3.468556976318359375e+01 -1.726636290550231934e-02 8.028136253356933594e+00 2.403260946273803711e+00 3.248658031225204468e-02
6.280000000000000000e+02 7.788237762451171875e+01 -3.435273361206054688e+01 5.908546969294548035e-03 7.790182113647460938e+00 2.338827133178710938e+00 4.880055412650108337e-02
6.290000000000000000e+02 7.801653289794921875e+01 -3.303393936157226562e+01 -4.695591051131486893e-03 7.817798614501953125e+00 2.343930959701538086e+00 6.211397424340248108e-02
6.300000000000000000e+02 7.814514160156250000e+01 -3.175484085083007812e+01 3.433657065033912659e-02 7.892818450927734375e+00 2.378146409988403320e+00 8.137796819210052490e-02
6.310000000000000000e+02 7.813219451904296875e+01 -2.648370552062988281e+01 3.847389295697212219e-02 8.155525207519531250e+00 2.458199501037597656e+00 1.469240188598632812e-01
6.320000000000000000e+02 7.814315795898437500e+01 -2.373173713684082031e+01 1.917501538991928101e-02 8.324297904968261719e+00 2.503041982650756836e+00 1.094423681497573853e-01
6.330000000000000000e+02 7.673007965087890625e+01 -2.103052520751953125e+01 -3.279040753841400146e-01 8.130621910095214844e+00 2.340815305709838867e+00 -4.017839673906564713e-03
6.340000000000000000e+02 7.803928375244140625e+01 -2.094505882263183594e+01 -6.700988113880157471e-02 8.432738304138183594e+00 2.509718656539916992e+00 -6.396089494228363037e-02
6.350000000000000000e+02 7.936441802978515625e+01 -5.643646717071533203e+00 -3.669844195246696472e-02 1.023189163208007812e+01 3.058557748794555664e+00 5.016127228736877441e-01
6.360000000000000000e+02 7.815019989013671875e+01 -4.345571517944335938e+00 -3.346627578139305115e-02 1.003465270996093750e+01 3.000355720520019531e+00 1.224171638488769531e+00
6.370000000000000000e+02 7.329785919189453125e+01 -1.502240896224975586e+00 -1.295080900192260742e+00 2.592545270919799805e+00 3.892393112182617188e-01 -1.557815790176391602e+00
6.380000000000000000e+02 7.314765167236328125e+01 2.651861608028411865e-01 -4.757875442504882812e+00 -7.610265016555786133e-01 -1.655670523643493652e+00 -2.030762672424316406e+00
6.390000000000000000e+02 7.214940643310546875e+01 8.735566139221191406e-01 -4.393031597137451172e+00 3.644853532314300537e-01 -1.208563804626464844e+00 -2.216803312301635742e+00
6.400000000000000000e+02 7.935099792480468750e+01 -2.822354316711425781e+00 -3.677532449364662170e-02 1.249511432647705078e+01 3.737501621246337891e+00 4.982107281684875488e-01
6.410000000000000000e+02 7.813497161865234375e+01 5.702564716339111328e-01 -1.103180408477783203e+00 1.151953887939453125e+01 3.124907732009887695e+00 -5.020875930786132812e-01
6.420000000000000000e+02 7.489714813232421875e+01 1.776681661605834961e+00 -3.506043434143066406e+00 2.013452053070068359e+00 -4.477774500846862793e-01 -1.171910166740417480e+00
6.430000000000000000e+02 7.942250823974609375e+01 1.546690464019775391e+00 -2.120057642459869385e-01 1.332700347900390625e+01 3.934499263763427734e+00 -5.503843426704406738e-01
6.440000000000000000e+02 7.707402038574218750e+01 2.116194725036621094e+00 -1.707050442695617676e+00 1.042995738983154297e+01 2.616872072219848633e+00 -1.726548075675964355e+00
6.450000000000000000e+02 7.595070648193359375e+01 4.673791408538818359e+00 1.701136492192745209e-02 1.448318290710449219e+01 4.350058555603027344e+00 7.434117794036865234e-02
6.460000000000000000e+02 7.583109283447265625e+01 3.442907571792602539e+00 -1.714264452457427979e-01 9.914874076843261719e+00 2.923034429550170898e+00 -7.049940526485443115e-02
6.470000000000000000e+02 7.591369628906250000e+01 2.114951848983764648e+00 -2.696592330932617188e+00 7.221475601196289062e+00 1.357465028762817383e+00 -5.602245330810546875e-01
6.480000000000000000e+02 7.951854705810546875e+01 4.323159694671630859e+00 1.927593350410461426e-01 8.930598258972167969e+00 2.737007379531860352e+00 -9.522100687026977539e-01
6.490000000000000000e+02 7.886219787597656250e+01 6.277875900268554688e+00 5.032710433006286621e-01 7.218909740447998047e+00 2.316654205322265625e+00 -1.378531694412231445e+00
6.500000000000000000e+02 7.606355285644531250e+01 5.888936042785644531e+00 8.957215547561645508e-01 1.756792449951171875e+01 5.539093971252441406e+00 -1.650348901748657227e+00
6.510000000000000000e+02 7.943112945556640625e+01 8.254780769348144531e+00 -2.544667012989521027e-02 5.028860092163085938e+00 1.501024007797241211e+00 2.032228410243988037e-01
6.520000000000000000e+02 7.823313903808593750e+01 1.095127010345458984e+01 -2.280620932579040527e-01 7.042392253875732422e+00 2.044299125671386719e+00 2.362580224871635437e-02
6.530000000000000000e+02 7.338223266601562500e+01 1.156895732879638672e+01 1.638011336326599121e+00 3.441663503646850586e+00 1.523902416229248047e+00 -2.774758100509643555e+00
6.540000000000000000e+02 7.458826446533203125e+01 1.009694671630859375e+01 9.319362789392471313e-02 5.597827911376953125e+00 1.707306504249572754e+00 -3.303845405578613281e+00
6.550000000000000000e+02 7.940887451171875000e+01 1.108242321014404297e+01 -2.570475637912750244e-01 6.282383918762207031e+00 1.807600855827331543e+00 1.428590565919876099e-01
6.560000000000000000e+02 7.817755889892578125e+01 1.231454563140869141e+01 -3.108242154121398926e-01 6.715746879577636719e+00 1.921476840972900391e+00 -1.496566683053970337e-01
6.570000000000000000e+02 7.520738220214843750e+01 1.592185592651367188e+01 6.103446483612060547e-01 5.509746074676513672e+00 1.836027145385742188e+00 -4.929620921611785889e-01
6.580000000000000000e+02 7.177752685546875000e+01 2.147597122192382812e+01 1.895754039287567139e-01 6.326057434082031250e+00 1.954689860343933105e+00 3.857940435409545898e-01
6.590000000000000000e+02 6.089155197143554688e+01 3.149219512939453125e+01 -2.094355076551437378e-01 5.221838951110839844e+00 1.503720998764038086e+00 -2.500725165009498596e-02
6.600000000000000000e+02 5.782558441162109375e+01 3.499637985229492188e+01 -2.163288444280624390e-01 4.694953441619873047e+00 1.343587398529052734e+00 -1.240408495068550110e-01
6.610000000000000000e+02 5.379480361938476562e+01 3.785823822021484375e+01 -1.123401001095771790e-01 3.965711355209350586e+00 1.156011343002319336e+00 -1.359878331422805786e-01
6.620000000000000000e+02 5.277560424804687500e+01 4.085943603515625000e+01 -7.313350588083267212e-02 3.786313772201538086e+00 1.113954067230224609e+00 -6.012691557407379150e-02
6.630000000000000000e+02 4.779278945922851562e+01 4.077921295166015625e+01 1.129239946603775024e-01 2.921247482299804688e+00 9.102514386177062988e-01 -7.411844283342361450e-02
6.640000000000000000e+02 4.360815048217773438e+01 3.765298843383789062e+01 2.905026972293853760e-01 2.049252271652221680e+00 7.019265294075012207e-01 -1.704092025756835938e-01
6.650000000000000000e+02 4.386494827270507812e+01 3.505950927734375000e+01 2.515608668327331543e-01 2.139997959136962891e+00 7.174676656723022461e-01 -2.855605781078338623e-01
6.660000000000000000e+02 4.324100494384765625e+01 3.257923126220703125e+01 2.702617049217224121e-01 1.978884696960449219e+00 6.747438907623291016e-01 -3.524020612239837646e-01
6.670000000000000000e+02 4.261137390136718750e+01 2.746748352050781250e+01 2.919577062129974365e-01 1.544916272163391113e+00 5.510622262954711914e-01 -5.042290687561035156e-01
6.680000000000000000e+02 4.463035964965820312e+01 2.300916099548339844e+01 2.163682281970977783e-01 1.585528492927551270e+00 5.405690073966979980e-01 -7.826451659202575684e-01
6.690000000000000000e+02 4.352614212036132812e+01 1.966546630859375000e+01 -5.385706946253776550e-02 8.550786375999450684e-01 2.403664588928222656e-01 -4.256377220153808594e-01
6.700000000000000000e+02 4.330508041381835938e+01 1.669811248779296875e+01 -5.026747584342956543e-01 4.495702087879180908e-01 -1.593136601150035858e-02 -1.261309385299682617e-01
6.710000000000000000e+02 3.856863784790039062e+01 1.388213443756103516e+01 -1.055100083351135254e+00 1.798257976770401001e-01 -2.625822722911834717e-01 2.675298750400543213e-01
6.720000000000000000e+02 4.417232131958007812e+01 1.301977252960205078e+01 -9.325708746910095215e-01 -3.193088620901107788e-02 -2.893505394458770752e-01 -4.260697662830352783e-01
6.730000000000000000e+02 4.466696166992187500e+01 1.467109107971191406e+01 -1.279864788055419922e+00 2.843164205551147461e-01 -2.986645102500915527e-01 -3.408377170562744141e-01
6.740000000000000000e+02 4.401968002319335938e+01 1.192886066436767578e+01 -6.073735952377319336e-01 -2.296752780675888062e-01 -2.511146664619445801e-01 -4.023094475269317627e-01
6.750000000000000000e+02 7.933839416503906250e+01 1.525631141662597656e+01 3.807265311479568481e-02 5.882859230041503906e+00 1.776279568672180176e+00 -1.504613161087036133e-01
6.760000000000000000e+02 7.931346893310546875e+01 1.665473175048828125e+01 1.713942550122737885e-02 5.640692234039306641e+00 1.697349548339843750e+00 -9.448236972093582153e-02
6.770000000000000000e+02 7.328166198730468750e+01 2.306182289123535156e+01 3.138918429613113403e-02 6.231466770172119141e+00 1.878856778144836426e+00 3.701033890247344971e-01
6.780000000000000000e+02 7.070800018310546875e+01 2.399311065673828125e+01 -1.661104336380958557e-02 6.376540184020996094e+00 1.907978773117065430e+00 3.048083186149597168e-01
6.790000000000000000e+02 6.589311218261718750e+01 2.773501586914062500e+01 -1.029208078980445862e-01 5.910974979400634766e+00 1.742416262626647949e+00 7.967144995927810669e-02
6.800000000000000000e+02 6.385653305053710938e+01 3.093713569641113281e+01 -2.002753466367721558e-01 5.595029830932617188e+00 1.618426442146301270e+00 4.059567302465438843e-02
6.810000000000000000e+02 6.141122436523437500e+01 3.465422439575195312e+01 -2.390037775039672852e-01 5.237998485565185547e+00 1.499698519706726074e+00 -1.662774384021759033e-02
6.820000000000000000e+02 7.802262115478515625e+01 1.509327888488769531e+01 5.132323876023292542e-02 5.970205307006835938e+00 1.806458592414855957e+00 -3.940330743789672852e-01
6.830000000000000000e+02 7.785456848144531250e+01 2.076330566406250000e+01 8.352489024400711060e-02 5.716111183166503906e+00 1.739890813827514648e+00 1.259492039680480957e-01
6.840000000000000000e+02 7.433887481689453125e+01 2.494171714782714844e+01 -3.688874840736389160e-02 6.162863731384277344e+00 1.837792515754699707e+00 3.488500416278839111e-01
6.850000000000000000e+02 6.990258789062500000e+01 2.647812843322753906e+01 -9.377855807542800903e-02 6.225710391998291016e+00 1.839579463005065918e+00 2.465741485357284546e-01
6.860000000000000000e+02 6.644334411621093750e+01 3.023883628845214844e+01 -1.874944865703582764e-01 5.815782070159912109e+00 1.688486337661743164e+00 1.354637444019317627e-01
6.870000000000000000e+02 6.472371673583984375e+01 3.396616363525390625e+01 -2.343444526195526123e-01 5.576547622680664062e+00 1.602661013603210449e+00 6.877627968788146973e-02
6.880000000000000000e+02 6.197849273681640625e+01 3.786952590942382812e+01 -2.484360933303833008e-01 5.211607933044433594e+00 1.488951444625854492e+00 -4.611874930560588837e-03
6.890000000000000000e+02 5.760067367553710938e+01 4.105322265625000000e+01 -2.027157843112945557e-01 4.603214740753173828e+00 1.320149660110473633e+00 -1.126154977828264236e-02
6.900000000000000000e+02 7.928023529052734375e+01 2.085880279541015625e+01 -8.522819727659225464e-03 5.513217449188232422e+00 1.651408314704895020e+00 4.407928884029388428e-02
6.910000000000000000e+02 7.923680114746093750e+01 2.366319465637207031e+01 -2.463258244097232819e-02 5.756542205810546875e+00 1.719572782516479492e+00 7.649914175271987915e-02
6.920000000000000000e+02 7.425765991210937500e+01 2.663907814025878906e+01 -6.093484163284301758e-02 6.176057338714599609e+00 1.834536671638488770e+00 3.180710971355438232e-01
6.930000000000000000e+02 7.171631622314453125e+01 3.020189476013183594e+01 -1.157345622777938843e-01 6.178694248199462891e+00 1.818887948989868164e+00 2.462548166513442993e-01
6.940000000000000000e+02 6.746668243408203125e+01 3.288803863525390625e+01 -2.055478245019912720e-01 5.859070777893066406e+00 1.696056842803955078e+00 1.335666924715042114e-01
6.950000000000000000e+02 6.607660675048828125e+01 3.723972320556640625e+01 -2.196921855211257935e-01 5.680411338806152344e+00 1.638215661048889160e+00 5.846594274044036865e-02
6.960000000000000000e+02 6.237583160400390625e+01 4.098790359497070312e+01 -2.445549964904785156e-01 5.229150295257568359e+00 1.495378613471984863e+00 -1.279647182673215866e-02
6.970000000000000000e+02 7.778227996826171875e+01 2.217321395874023438e+01 1.371876429766416550e-02 5.792416095733642578e+00 1.741840481758117676e+00 1.694649606943130493e-01
6.980000000000000000e+02 7.923348236083984375e+01 2.786920166015625000e+01 2.581903897225856781e-02 6.162734985351562500e+00 1.856566190719604492e+00 6.979205459356307983e-02
6.990000000000000000e+02 7.290496063232421875e+01 3.201383209228515625e+01 -1.212140768766403198e-01 6.174118041992187500e+00 1.815871238708496094e+00 2.279346883296966553e-01
7.000000000000000000e+02 7.114784240722656250e+01 3.364738082885742188e+01 -1.371465027332305908e-01 6.119423866271972656e+00 1.794683098793029785e+00 1.794780343770980835e-01
7.010000000000000000e+02 6.916706848144531250e+01 3.568033218383789062e+01 -1.778745055198669434e-01 5.924980640411376953e+00 1.724131822586059570e+00 1.303399056196212769e-01
7.020000000000000000e+02 7.764503479003906250e+01 2.647378349304199219e+01 6.892975885421037674e-03 6.076827526092529297e+00 1.825116157531738281e+00 2.048705220222473145e-01
7.030000000000000000e+02 7.927082824707031250e+01 3.202496719360351562e+01 -1.603600755333900452e-02 6.484064102172851562e+00 1.940408468246459961e+00 5.231587216258049011e-02
7.040000000000000000e+02 7.421643829345703125e+01 3.349203109741210938e+01 -6.511980295181274414e-02 6.245363235473632812e+00 1.854073047637939453e+00 1.763414293527603149e-01
7.050000000000000000e+02 7.927199554443359375e+01 3.064194297790527344e+01 1.757155917584896088e-02 6.387837886810302734e+00 1.921622872352600098e+00 5.216224491596221924e-02
7.060000000000000000e+02 7.531629943847656250e+01 3.599246215820312500e+01 -7.565218955278396606e-02 6.332798480987548828e+00 1.877143859863281250e+00 1.169066950678825378e-01
7.070000000000000000e+02 7.198777770996093750e+01 4.071351242065429688e+01 -1.130421385169029236e-01 6.117613792419433594e+00 1.801371455192565918e+00 3.783707320690155029e-02
7.080000000000000000e+02 6.719680786132812500e+01 4.072828292846679688e+01 -2.047820538282394409e-01 5.734478473663330078e+00 1.658908963203430176e+00 3.366506844758987427e-02
7.090000000000000000e+02 7.773229217529296875e+01 3.331651687622070312e+01 -2.465352974832057953e-02 6.434543132781982422e+00 1.922966957092285156e+00 1.240345984697341919e-01
7.100000000000000000e+02 7.913844299316406250e+01 3.753313064575195312e+01 -3.144276095554232597e-03 6.687862873077392578e+00 2.005415678024291992e+00 4.460792988538742065e-03
7.110000000000000000e+02 7.855360412597656250e+01 4.015882492065429688e+01 -1.757793687283992767e-02 6.663323402404785156e+00 1.993723750114440918e+00 -2.245641499757766724e-02
7.120000000000000000e+02 7.572789001464843750e+01 4.039726638793945312e+01 -3.486726060509681702e-02 6.473370552062988281e+00 1.931550979614257812e+00 7.367496937513351440e-02
7.130000000000000000e+02 4.277066040039062500e+01 4.076001739501953125e+01 3.198837935924530029e-01 1.941658735275268555e+00 6.784627437591552734e-01 -6.105985119938850403e-02
7.140000000000000000e+02 4.020569992065429688e+01 3.332876205444335938e+01 3.638144433498382568e-01 1.380800843238830566e+00 5.233845710754394531e-01 -2.069710940122604370e-01
7.150000000000000000e+02 3.974238967895507812e+01 3.052017974853515625e+01 3.765928149223327637e-01 1.231135010719299316e+00 4.823183417320251465e-01 -2.819044589996337891e-01
7.160000000000000000e+02 3.892786788940429688e+01 2.230013847351074219e+01 -2.015460655093193054e-02 5.212417840957641602e-01 1.503261625766754150e-01 -1.768847852945327759e-01
7.170000000000000000e+02 4.034534835815429688e+01 1.957013702392578125e+01 -2.316345721483230591e-01 5.377050638198852539e-01 9.182115644216537476e-02 -1.680923700332641602e-01
7.180000000000000000e+02 4.004142761230468750e+01 1.542503166198730469e+01 -9.478960633277893066e-01 4.026691913604736328e-01 -1.635680645704269409e-01 6.629193574190139771e-02
7.190000000000000000e+02 3.664963150024414062e+01 1.379176616668701172e+01 -1.849026441574096680e+00 -1.833441853523254395e-01 -6.097111701965332031e-01 5.917882323265075684e-01
7.200000000000000000e+02 3.844261169433593750e+01 1.309731197357177734e+01 -9.162483215332031250e-01 1.264392435550689697e-01 -2.369427233934402466e-01 3.454985320568084717e-01
7.210000000000000000e+02 3.774584960937500000e+01 4.073887252807617188e+01 4.505040049552917480e-01 1.209948658943176270e+00 4.981357753276824951e-01 -3.891206532716751099e-02
7.220000000000000000e+02 3.763758468627929688e+01 3.731140518188476562e+01 4.296420514583587646e-01 1.145968675613403320e+00 4.726832211017608643e-01 -9.219742566347122192e-02
7.230000000000000000e+02 3.698466873168945312e+01 3.407889175415039062e+01 4.344061911106109619e-01 9.467523097991943359e-01 4.143475592136383057e-01 -1.390988230705261230e-01
7.240000000000000000e+02 3.643921279907226562e+01 3.097823333740234375e+01 3.922740221023559570e-01 7.528082132339477539e-01 3.435246646404266357e-01 -1.138977482914924622e-01
7.250000000000000000e+02 3.578683471679687500e+01 2.243152809143066406e+01 -6.542073935270309448e-02 2.532262206077575684e-01 5.634164810180664062e-02 3.468116372823715210e-02
7.260000000000000000e+02 3.769049453735351562e+01 2.077092933654785156e+01 -1.887218952178955078e-01 2.610932290554046631e-01 2.171139791607856750e-02 -5.141097307205200195e-02
7.270000000000000000e+02 3.598404693603515625e+01 1.552179145812988281e+01 -1.170827627182006836e+00 -2.006377875804901123e-01 -4.114395976066589355e-01 1.126960813999176025e-01
7.280000000000000000e+02 3.568812942504882812e+01 1.387364959716796875e+01 -1.953895688056945801e+00 -5.955941677093505859e-01 -7.648469805717468262e-01 7.634575366973876953e-01
7.290000000000000000e+02 3.710293960571289062e+01 1.324709129333496094e+01 -1.006139278411865234e+00 -1.625928431749343872e-01 -3.506196439266204834e-01 6.047113537788391113e-01
7.300000000000000000e+02 3.348207855224609375e+01 3.748260116577148438e+01 4.841701984405517578e-01 6.388909220695495605e-01 3.369183540344238281e-01 -1.244749967008829117e-02
7.310000000000000000e+02 3.370331573486328125e+01 3.465354537963867188e+01 4.535630941390991211e-01 6.417471766471862793e-01 3.285930752754211426e-01 -2.025418728590011597e-02
7.320000000000000000e+02 3.298074340820312500e+01 3.177886962890625000e+01 3.866113722324371338e-01 4.802637398242950439e-01 2.600625455379486084e-01 1.279213931411504745e-02
7.330000000000000000e+02 3.388786315917968750e+01 2.726879310607910156e+01 2.386720776557922363e-01 3.700418770313262939e-01 1.826141923666000366e-01 4.461480677127838135e-02
7.340000000000000000e+02 3.596820068359375000e+01 2.433355712890625000e+01 1.146542951464653015e-01 4.057224392890930176e-01 1.561130136251449585e-01 -5.368336662650108337e-02
7.350000000000000000e+02 3.526016616821289062e+01 2.118774795532226562e+01 -1.613543629646301270e-01 9.894642978906631470e-02 -1.872237771749496460e-02 1.082529798150062561e-01
7.360000000000000000e+02 3.043838310241699219e+01 1.665856742858886719e+01 -7.700251340866088867e-01 2.698314376175403595e-02 -2.229125946760177612e-01 3.350067734718322754e-01
7.370000000000000000e+02 3.104228591918945312e+01 1.315195846557617188e+01 -5.777972936630249023e-01 -1.210468187928199768e-01 -2.096532285213470459e-01 -2.265471369028091431e-01
7.380000000000000000e+02 3.356553268432617188e+01 1.469051361083984375e+01 -1.933022856712341309e+00 -2.432951629161834717e-01 -6.528953909873962402e-01 6.124670058488845825e-02
7.390000000000000000e+02 3.271356964111328125e+01 4.071937179565429688e+01 4.982228875160217285e-01 5.860185027122497559e-01 3.252724111080169678e-01 3.703727852553129196e-03
7.400000000000000000e+02 2.974999237060546875e+01 3.304712677001953125e+01 3.884571492671966553e-01 2.289520800113677979e-01 1.852227598428726196e-01 1.080549731850624084e-01
7.410000000000000000e+02 2.874940299987792969e+01 3.029298591613769531e+01 2.917003929615020752e-01 1.409605145454406738e-01 1.297982782125473022e-01 1.612353920936584473e-01
7.420000000000000000e+02 3.030837440490722656e+01 2.674407577514648438e+01 1.438535600900650024e-01 1.131161898374557495e-01 7.709092646837234497e-02 1.767139583826065063e-01
7.430000000000000000e+02 2.759848976135253906e+01 2.168425941467285156e+01 -3.005540072917938232e-01 -3.302775323390960693e-02 -1.000745296478271484e-01 2.721392512321472168e-01
7.440000000000000000e+02 2.838868522644042969e+01 2.056768798828125000e+01 -4.280667901039123535e-01 9.203177876770496368e-03 -1.256590783596038818e-01 2.947834134101867676e-01
7.450000000000000000e+02 2.767984199523925781e+01 1.630786514282226562e+01 -6.744033694267272949e-01 8.389613032341003418e-02 -1.771521717309951782e-01 3.508757650852203369e-01
7.460000000000000000e+02 2.928961181640625000e+01 1.316532707214355469e+01 -3.929125368595123291e-01 -1.156448870897293091e-01 -1.525672227144241333e-01 -1.105719953775405884e-01
7.470000000000000000e+02 2.757578849792480469e+01 1.049449348449707031e+01 -1.951275169849395752e-01 -1.679401099681854248e-01 -1.089202836155891418e-01 -1.945455521345138550e-01
7.480000000000000000e+02 2.880261993408203125e+01 1.141078376770019531e+01 -2.158092856407165527e-01 -1.772013902664184570e-01 -1.179032027721405029e-01 -1.708832383155822754e-01
7.490000000000000000e+02 2.769649696350097656e+01 4.075108337402343750e+01 4.677359163761138916e-01 2.244119048118591309e-01 2.076443433761596680e-01 1.834861934185028076e-02
7.500000000000000000e+02 2.743293952941894531e+01 3.733851623535156250e+01 4.357785582542419434e-01 1.839172542095184326e-01 1.859087347984313965e-01 6.814120709896087646e-02
7.510000000000000000e+02 2.660309028625488281e+01 3.415903854370117188e+01 3.643396198749542236e-01 1.018689796328544617e-01 1.398625820875167847e-01 1.279785484075546265e-01
7.520000000000000000e+02 2.566847610473632812e+01 3.120469474792480469e+01 2.735105454921722412e-01 1.595623232424259186e-02 8.684003353118896484e-02 1.966432183980941772e-01
7.530000000000000000e+02 2.738725662231445312e+01 2.558619880676269531e+01 3.171925246715545654e-02 -5.526246968656778336e-03 7.857901975512504578e-03 2.512670159339904785e-01
7.540000000000000000e+02 2.597913360595703125e+01 2.235803794860839844e+01 -2.383781373500823975e-01 -9.355376660823822021e-02 -9.957957267761230469e-02 2.934060692787170410e-01
7.550000000000000000e+02 2.539024734497070312e+01 1.615967750549316406e+01 -8.494483828544616699e-01 1.265797298401594162e-02 -2.510371208190917969e-01 5.000551342964172363e-01
7.560000000000000000e+02 2.645066642761230469e+01 1.626379203796386719e+01 -7.406096458435058594e-01 1.595278233289718628e-01 -1.743245422840118408e-01 4.161325395107269287e-01
7.570000000000000000e+02 2.528105926513671875e+01 1.492826652526855469e+01 7.965848635649308562e-05 2.390568703413009644e-01 7.174096256494522095e-02 3.076738417148590088e-01
7.580000000000000000e+02 2.446278190612792969e+01 1.316586589813232422e+01 1.869302093982696533e-01 3.730238378047943115e-01 1.679862141609191895e-01 2.159038335084915161e-01
7.590000000000000000e+02 2.540855979919433594e+01 1.386366748809814453e+01 9.163127094507217407e-02 2.916082441806793213e-01 1.149718537926673889e-01 1.592599749565124512e-01
7.600000000000000000e+02 2.353511047363281250e+01 1.225725650787353516e+01 1.502371579408645630e-01 2.000138312578201294e-01 1.050752997398376465e-01 1.766148060560226440e-01
7.610000000000000000e+02 2.090785980224609375e+01 1.023546028137207031e+01 8.013077825307846069e-02 7.000947743654251099e-02 4.504207521677017212e-02 7.715106010437011719e-02
7.620000000000000000e+02 1.968565750122070312e+01 6.103965282440185547e+00 -1.232944130897521973e-01 1.618076115846633911e-03 -3.650290146470069885e-02 -5.039077997207641602e-02
7.630000000000000000e+02 2.175427055358886719e+01 5.803960323333740234e+00 -1.249265894293785095e-01 2.115183882415294647e-02 -3.113242425024509430e-02 -5.785399675369262695e-02
7.640000000000000000e+02 2.256271171569824219e+01 6.322570800781250000e+00 -1.171493157744407654e-01 1.385935489088296890e-02 -3.098698891699314117e-02 -6.939849257469177246e-02
7.650000000000000000e+02 2.327443885803222656e+01 5.836850643157958984e+00 -1.073494777083396912e-01 -1.164493989199399948e-02 -3.569832444190979004e-02 -8.085407316684722900e-02
7.660000000000000000e+02 2.472099685668945312e+01 7.499324798583984375e+00 -1.687398999929428101e-01 -1.084236279129981995e-01 -8.314906060695648193e-02 -1.374909579753875732e-01
7.670000000000000000e+02 2.522456932067871094e+01 1.094491767883300781e+01 -1.040335074067115784e-01 2.831859700381755829e-02 -2.271447330713272095e-02 -8.994296193122863770e-02
7.680000000000000000e+02 2.324487304687500000e+01 3.775337600708007812e+01 3.654778599739074707e-01 3.373650601133704185e-03 1.106554493308067322e-01 9.541556984186172485e-02
7.690000000000000000e+02 2.094469261169433594e+01 3.444195556640625000e+01 2.666757106781005859e-01 -7.375260442495346069e-02 5.787692964076995850e-02 1.815232187509536743e-01
7.700000000000000000e+02 2.104905509948730469e+01 3.068266487121582031e+01 1.860729306936264038e-01 -7.668887823820114136e-02 3.281521424651145935e-02 2.473662048578262329e-01
7.710000000000000000e+02 2.234644699096679688e+01 2.815941047668457031e+01 1.119371652603149414e-01 -7.436907291412353516e-02 1.127042621374130249e-02 2.788197398185729980e-01
7.720000000000000000e+02 2.052869224548339844e+01 2.234741592407226562e+01 -2.162889242172241211e-01 -7.394444197416305542e-02 -8.707001060247421265e-02 3.234511911869049072e-01
7.730000000000000000e+02 2.305080223083496094e+01 1.833817100524902344e+01 -6.630499958992004395e-01 -2.637957632541656494e-01 -2.780537307262420654e-01 3.151223063468933105e-01
7.740000000000000000e+02 2.034795379638671875e+01 1.581943893432617188e+01 -3.541114330291748047e-01 -3.207981958985328674e-02 -1.158573776483535767e-01 -4.679586738348007202e-02
7.750000000000000000e+02 1.627378654479980469e+01 1.379102802276611328e+01 -4.457771033048629761e-02 3.888718783855438232e-02 -1.707157236523926258e-03 2.615616656839847565e-02
7.760000000000000000e+02 1.320631980895996094e+01 1.267632007598876953e+01 -1.669150369707494974e-04 5.385948717594146729e-02 1.610777154564857483e-02 4.012899100780487061e-02
7.770000000000000000e+02 7.978805065155029297e+00 1.417798423767089844e+01 -1.278986316174268723e-02 -6.331887561827898026e-03 -5.736525170505046844e-03 2.684679441154003143e-02
7.780000000000000000e+02 6.172416210174560547e-01 1.350252628326416016e+01 -1.504912390373647213e-03 -5.429830402135848999e-02 -1.674096472561359406e-02 2.376608783379197121e-03
7.790000000000000000e+02 1.932326555252075195e+00 1.487419509887695312e+01 -2.543566748499870300e-03 -5.708332359790802002e-02 -1.788806729018688202e-02 8.178126998245716095e-03
7.800000000000000000e+02 6.139062643051147461e-01 9.256619453430175781e+00 4.450412525329738855e-04 -2.870544791221618652e-02 -8.478121832013130188e-03 4.965651780366897583e-03
7.810000000000000000e+02 1.696404218673706055e+00 1.068341636657714844e+01 5.296992603689432144e-03 -3.927928209304809570e-02 -1.019468717277050018e-02 8.481908589601516724e-03
7.820000000000000000e+02 5.913344621658325195e-01 6.378463268280029297e+00 -1.207749475724995136e-03 -6.794164888560771942e-03 -2.400574274361133575e-03 3.466190071776509285e-03
7.830000000000000000e+02 4.642834186553955078e+00 3.660341262817382812e+00 -1.289181876927614212e-02 -6.091805989854037762e-04 -4.050299990922212601e-03 2.607664791867136955e-04
7.840000000000000000e+02 6.516260147094726562e+00 6.213997840881347656e+00 -7.192804664373397827e-02 -1.522202324122190475e-02 -2.614502049982547760e-02 6.691275537014007568e-02
7.850000000000000000e+02 6.083998680114746094e+00 7.022182464599609375e+00 -1.614045538008213043e-02 -1.919445581734180450e-02 -1.060047280043363571e-02 4.870355874300003052e-02
7.860000000000000000e+02 8.414835929870605469e+00 6.739502429962158203e+00 -2.246708981692790985e-02 -6.595992296934127808e-02 -2.652810513973236084e-02 8.727528154850006104e-02
7.870000000000000000e+02 7.587675094604492188e+00 7.787837982177734375e+00 2.846320718526840210e-02 -5.306792631745338440e-02 -7.381416391581296921e-03 6.468474119901657104e-02
7.880000000000000000e+02 9.276770591735839844e+00 6.749680042266845703e+00 8.422358334064483643e-02 -3.947224467992782593e-02 1.342540048062801361e-02 2.771376259624958038e-02
7.890000000000000000e+02 1.303962993621826172e+01 1.064767551422119141e+01 6.162116304039955139e-02 7.037025690078735352e-02 3.959742560982704163e-02 6.574046611785888672e-02
7.900000000000000000e+02 1.114531517028808594e+01 8.676380157470703125e+00 5.859035626053810120e-02 9.624038636684417725e-02 4.644922167062759399e-02 6.610427796840667725e-02
7.910000000000000000e+02 1.205273437500000000e+01 9.645746231079101562e+00 6.577412784099578857e-02 7.890234142541885376e-02 4.340294003486633301e-02 7.125211507081985474e-02
7.920000000000000000e+02 1.510977840423583984e+01 1.270065593719482422e+01 1.552188210189342499e-02 4.749448969960212708e-02 1.890491135418415070e-02 4.742373526096343994e-02
7.930000000000000000e+02 2.276107978820800781e+01 4.091204452514648438e+01 3.787489533424377441e-01 -1.570498012006282806e-02 1.089131981134414673e-01 3.692884370684623718e-02
7.940000000000000000e+02 1.927377700805664062e+01 3.731206893920898438e+01 2.709152102470397949e-01 -1.107148900628089905e-01 4.806009680032730103e-02 1.177898272871971130e-01
7.950000000000000000e+02 1.893128967285156250e+01 3.301167297363281250e+01 2.113252431154251099e-01 -1.016016453504562378e-01 3.291708230972290039e-02 2.067340463399887085e-01
7.960000000000000000e+02 1.719073295593261719e+01 3.133892631530761719e+01 1.397851109504699707e-01 -1.219192594289779663e-01 5.359755363315343857e-03 2.316582202911376953e-01
7.970000000000000000e+02 1.862683486938476562e+01 2.620488357543945312e+01 -1.023027114570140839e-03 -8.437526226043701172e-02 -2.561948634684085846e-02 3.023645877838134766e-01
7.980000000000000000e+02 1.744145965576171875e+01 2.024378395080566406e+01 -2.666181027889251709e-01 3.445342555642127991e-02 -6.964940577745437622e-02 2.318483889102935791e-01
7.990000000000000000e+02 1.901017761230468750e+01 1.523141479492187500e+01 -1.950447112321853638e-01 2.979548834264278412e-02 -4.957476630806922913e-02 -3.050385601818561554e-02
8.000000000000000000e+02 1.729125595092773438e+01 1.672626495361328125e+01 -2.496346235275268555e-01 7.525141537189483643e-02 -5.231496319174766541e-02 6.232420727610588074e-02
8.010000000000000000e+02 1.789860916137695312e+01 4.072417831420898438e+01 2.599131762981414795e-01 -1.302051544189453125e-01 3.891240805387496948e-02 3.831103444099426270e-02
8.020000000000000000e+02 1.647476005554199219e+01 3.559405517578125000e+01 1.948683559894561768e-01 -1.447684317827224731e-01 1.502997614443302155e-02 1.435248255729675293e-01
8.030000000000000000e+02 1.497558593750000000e+01 3.322287750244140625e+01 1.275774091482162476e-01 -1.541975140571594238e-01 -7.986031472682952881e-03 1.861759275197982788e-01
8.040000000000000000e+02 1.556978416442871094e+01 2.962610244750976562e+01 6.006113439798355103e-02 -1.217446327209472656e-01 -1.850504986941814423e-02 2.445633709430694580e-01
8.050000000000000000e+02 1.558003997802734375e+01 2.641024971008300781e+01 -2.508826367557048798e-02 -8.503028750419616699e-02 -3.303556516766548157e-02 2.694889307022094727e-01
8.060000000000000000e+02 1.581964492797851562e+01 2.365991401672363281e+01 -1.244905665516853333e-01 -3.325761482119560242e-02 -4.732445627450942993e-02 2.643544673919677734e-01
8.070000000000000000e+02 1.490764904022216797e+01 2.044555854797363281e+01 -1.939606368541717529e-01 3.369017690420150757e-02 -4.808114096522331238e-02 1.836427301168441772e-01
8.080000000000000000e+02 1.448744392395019531e+01 1.736080932617187500e+01 -1.666894406080245972e-01 5.968885868787765503e-02 -3.210017830133438110e-02 9.546272456645965576e-02
8.090000000000000000e+02 1.293626308441162109e+01 4.072472763061523438e+01 1.610359102487564087e-01 -2.032279819250106812e-01 -1.265762187540531158e-02 3.921070694923400879e-02
8.100000000000000000e+02 1.297678089141845703e+01 3.738784790039062500e+01 1.442429125308990479e-01 -1.927783489227294922e-01 -1.456062868237495422e-02 1.001684963703155518e-01
8.110000000000000000e+02 1.227973556518554688e+01 3.446251296997070312e+01 1.060248985886573792e-01 -1.889754533767700195e-01 -2.488516643643379211e-02 1.489948332309722900e-01
8.120000000000000000e+02 1.239785289764404297e+01 2.980074310302734375e+01 3.123843297362327576e-02 -1.429264247417449951e-01 -3.350639715790748596e-02 2.067500501871109009e-01
8.130000000000000000e+02 1.292368984222412109e+01 2.511705780029296875e+01 -5.554013699293136597e-02 -7.108700275421142578e-02 -3.798814117908477783e-02 2.271168380975723267e-01
8.140000000000000000e+02 1.212976074218750000e+01 1.923680496215820312e+01 -1.265105903148651123e-01 1.212074700742959976e-02 -3.431695699691772461e-02 1.233031749725341797e-01
8.150000000000000000e+02 1.212514781951904297e+01 1.547607707977294922e+01 -8.269903808832168579e-02 4.119274765253067017e-02 -1.245188713073730469e-02 5.241785943508148193e-02
8.160000000000000000e+02 8.222073554992675781e+00 4.093269348144531250e+01 6.742713600397109985e-02 -2.789109647274017334e-01 -6.344515085220336914e-02 2.297268249094486237e-02
8.170000000000000000e+02 9.106413841247558594e+00 3.785501480102539062e+01 8.315470069646835327e-02 -2.552107274532318115e-01 -5.161680281162261963e-02 7.556743919849395752e-02
8.180000000000000000e+02 9.397976875305175781e+00 3.489581680297851562e+01 7.699157297611236572e-02 -2.251155525445938110e-01 -4.443719238042831421e-02 1.181687638163566589e-01
8.190000000000000000e+02 7.127372741699218750e+00 3.027330398559570312e+01 1.663596741855144501e-02 -2.053245306015014648e-01 -5.660656839609146118e-02 1.369501203298568726e-01
8.200000000000000000e+02 9.388739585876464844e+00 2.679323005676269531e+01 -2.542590536177158356e-02 -1.232807338237762451e-01 -4.461199045181274414e-02 1.726093590259552002e-01
8.210000000000000000e+02 8.316812515258789062e+00 2.391098213195800781e+01 -4.614894837141036987e-02 -9.427972137928009033e-02 -4.212860018014907837e-02 1.386292576789855957e-01
8.220000000000000000e+02 9.264286041259765625e+00 1.869683647155761719e+01 -7.443440705537796021e-02 -1.499660406261682510e-02 -2.682930231094360352e-02 8.286873251199722290e-02
8.230000000000000000e+02 8.668163299560546875e+00 1.592032241821289062e+01 -4.290727153420448303e-02 -1.249155146069824696e-03 -1.324692741036415100e-02 4.559215158224105835e-02
8.240000000000000000e+02 5.040621280670166016e+00 4.028790664672851562e+01 2.263846807181835175e-02 -3.493846654891967773e-01 -9.802386164665222168e-02 3.196724131703376770e-02
8.250000000000000000e+02 6.339468479156494141e+00 3.795525360107421875e+01 4.649516195058822632e-02 -2.942650616168975830e-01 -7.433097064495086670e-02 5.838494747877120972e-02
8.260000000000000000e+02 6.973112583160400391e+00 3.454366683959960938e+01 4.167770594358444214e-02 -2.616751194000244141e-01 -6.599922478199005127e-02 1.028146445751190186e-01
8.270000000000000000e+02 5.144250869750976562e+00 2.891753578186035156e+01 2.999727148562669754e-03 -2.137702703475952148e-01 -6.323116272687911987e-02 1.102259084582328796e-01
8.280000000000000000e+02 6.358354568481445312e+00 2.184674835205078125e+01 -3.719688951969146729e-02 -8.835045993328094482e-02 -3.766420483589172363e-02 9.389451891183853149e-02
8.290000000000000000e+02 5.902416706085205078e+00 2.035513687133789062e+01 -3.261156007647514343e-02 -7.412874698638916016e-02 -3.202209249138832092e-02 7.159718871116638184e-02
8.300000000000000000e+02 5.486635208129882812e+00 1.686847877502441406e+01 -2.561454474925994873e-02 -4.735583066940307617e-02 -2.189111337065696716e-02 3.341211006045341492e-02
8.310000000000000000e+02 4.488805770874023438e+00 1.642403984069824219e+01 -8.693942800164222717e-03 -5.185656622052192688e-02 -1.816515251994132996e-02 2.497038058936595917e-02
8.320000000000000000e+02 2.036189794540405273e+00 4.163641738891601562e+01 -2.733014756813645363e-03 -4.452524185180664062e-01 -1.343956291675567627e-01 -7.049404666759073734e-04
8.330000000000000000e+02 2.623542308807373047e+00 3.801347732543945312e+01 1.145267114043235779e-02 -4.021579623222351074e-01 -1.172115877270698547e-01 1.736827753484249115e-02
8.340000000000000000e+02 2.064001083374023438e+00 3.330097198486328125e+01 5.161602050065994263e-03 -3.514083921909332275e-01 -1.038740351796150208e-01 3.751960396766662598e-02
8.350000000000000000e+02 2.170736074447631836e+00 3.191391944885253906e+01 4.804308060556650162e-03 -3.223566412925720215e-01 -9.526570141315460205e-02 4.815665632486343384e-02
8.360000000000000000e+02 2.119092226028442383e+00 2.762476730346679688e+01 -8.204274927265942097e-04 -2.321994006633758545e-01 -6.990595161914825439e-02 5.139175802469253540e-02
8.370000000000000000e+02 2.043912649154663086e+00 2.479152297973632812e+01 -3.465646877884864807e-03 -1.737627536058425903e-01 -5.316852033138275146e-02 4.401212185621261597e-02
8.380000000000000000e+02 1.962848663330078125e+00 2.061511611938476562e+01 -6.035526748746633530e-03 -1.054465547204017639e-01 -3.344462439417839050e-02 2.697946876287460327e-02
8.390000000000000000e+02 1.925036907196044922e+00 1.776576614379882812e+01 -5.263481289148330688e-03 -7.493895292282104492e-02 -2.406072989106178284e-02 1.502047665417194366e-02
8.400000000000000000e+02 6.459513306617736816e-01 1.775940895080566406e+01 1.827954474720172584e-05 -7.470039278268814087e-02 -2.240463532507419586e-02 4.546231124550104141e-03
8.410000000000000000e+02 1.936180591583251953e+00 7.724202156066894531e+00 -3.479070728644728661e-03 -1.823751069605350494e-02 -6.514974404126405716e-03 1.370529085397720337e-02
8.420000000000000000e+02 4.563566148281097412e-01 3.488013267517089844e+00 -1.365105272270739079e-03 3.484300803393125534e-03 6.357586244121193886e-04 -2.144586032954975963e-04
8.430000000000000000e+02 3.337273597717285156e+00 1.883428931236267090e+00 1.862478209659457207e-03 -1.241650199517607689e-03 1.862484059529379010e-04 6.323682027868926525e-04
8.440000000000000000e+02 1.230348348617553711e+00 3.092921018600463867e+00 4.169145249761641026e-04 5.521850107470527291e-05 1.416399027220904827e-04 -6.178746116347610950e-04
8.450000000000000000e+02 2.585094928741455078e+00 1.907451272010803223e+00 -1.513502560555934906e-03 -1.489943009801208973e-03 -9.010336943902075291e-04 -1.536840223707258701e-03
8.460000000000000000e+02 2.315381813049316406e+01 1.682088279724121094e+01 -1.257500171661376953e+00 -2.311248779296875000e-01 -4.465875029563903809e-01 9.294184297323226929e-02
8.470000000000000000e+02 2.442124557495117188e+01 1.653939056396484375e+01 -1.224256515502929688e+00 -4.613159596920013428e-01 -5.056717395782470703e-01 4.281999468803405762e-01
8.480000000000000000e+02 2.085976791381835938e+01 9.227634429931640625e+00 3.077216818928718567e-02 8.204892277717590332e-02 3.384632617235183716e-02 6.465400010347366333e-02
8.490000000000000000e+02 1.887853240966796875e+01 6.197409152984619141e+00 -1.047397851943969727e-01 2.360689453780651093e-02 -2.433986775577068329e-02 -2.136036567389965057e-02
8.500000000000000000e+02 1.733469581604003906e+01 6.164964675903320312e+00 -6.663972139358520508e-02 4.299039021134376526e-02 -7.094799075275659561e-03 -2.652913890779018402e-02
8.510000000000000000e+02 4.634409332275390625e+01 1.430590915679931641e+01 -1.813490390777587891e+00 -6.585831642150878906e-01 -7.416220903396606445e-01 -1.105322480201721191e+00
8.520000000000000000e+02 4.929549789428710938e+01 1.534800338745117188e+01 1.295110225677490234e+00 3.548611640930175781e+00 1.453116536140441895e+00 -3.069540023803710938e+00
8.530000000000000000e+02 4.740981292724609375e+01 1.508441925048828125e+01 -1.996572136878967285e+00 -7.165237069129943848e-01 -8.139287829399108887e-01 -1.156569361686706543e+00
8.540000000000000000e+02 5.060234832763671875e+01 1.309691047668457031e+01 1.524046063423156738e+00 5.123894214630126953e+00 1.994382023811340332e+00 -3.081089973449707031e+00
8.550000000000000000e+02 5.273936080932617188e+01 1.785014915466308594e+01 -9.177823662757873535e-01 7.537462234497070312e+00 1.985903978347778320e+00 -2.021879255771636963e-01
8.560000000000000000e+02 5.316180801391601562e+01 2.058288002014160156e+01 -6.128523945808410645e-01 5.807906627655029297e+00 1.558516263961791992e+00 -2.525684535503387451e-01
8.570000000000000000e+02 5.332154846191406250e+01 2.387558555603027344e+01 -4.150998592376708984e-01 4.819317340850830078e+00 1.321265220642089844e+00 -4.149231612682342529e-01
8.580000000000000000e+02 5.419929504394531250e+01 2.913111114501953125e+01 -2.136177271604537964e-01 4.402863979339599609e+00 1.256773829460144043e+00 -3.326533138751983643e-01
8.590000000000000000e+02 5.403277206420898438e+01 3.220511627197265625e+01 -1.670497655868530273e-01 4.207394599914550781e+00 1.212103486061096191e+00 -2.883808314800262451e-01
8.600000000000000000e+02 5.438055801391601562e+01 3.513431167602539062e+01 -1.546354293823242188e-01 4.188862800598144531e+00 1.210268139839172363e+00 -2.279621809720993042e-01
8.610000000000000000e+02 5.796833801269531250e+01 1.064914417266845703e+01 -1.865768283605575562e-01 -1.069261908531188965e+00 -3.767516016960144043e-01 -6.152170300483703613e-01
8.620000000000000000e+02 5.891212463378906250e+01 1.165336608886718750e+01 6.455558538436889648e-02 -6.047725677490234375e-01 -1.620650887489318848e-01 -1.613837778568267822e-01
8.630000000000000000e+02 6.111536026000976562e+01 1.345579624176025391e+01 6.018596142530441284e-02 1.439690142869949341e-01 6.124649196863174438e-02 2.700929529964923859e-02
8.640000000000000000e+02 5.997411727905273438e+01 1.261169624328613281e+01 6.332712620496749878e-02 -6.532998383045196533e-02 -6.008573109284043312e-04 1.041103154420852661e-01
8.650000000000000000e+02 5.974151611328125000e+01 1.790111541748046875e+01 1.705184578895568848e+00 3.694592475891113281e+00 1.619933128356933594e+00 8.769837617874145508e-01
8.660000000000000000e+02 5.825320816040039062e+01 2.061445617675781250e+01 5.716742277145385742e-01 5.074881553649902344e+00 1.693966746330261230e+00 7.169960141181945801e-01
8.670000000000000000e+02 5.993621826171875000e+01 2.540987777709960938e+01 5.101707205176353455e-02 5.227395057678222656e+00 1.583523631095886230e+00 4.178262874484062195e-02
8.680000000000000000e+02 6.052593612670898438e+01 2.836267280578613281e+01 -1.262633651494979858e-01 5.309807300567626953e+00 1.555063247680664062e+00 -4.104417562484741211e-02
8.690000000000000000e+02 5.746699523925781250e+01 2.892936515808105469e+01 -1.875499933958053589e-01 4.900659561157226562e+00 1.413932800292968750e+00 -1.248027831315994263e-01
8.700000000000000000e+02 5.761479568481445312e+01 3.191225051879882812e+01 -2.125955224037170410e-01 4.849723339080810547e+00 1.391138315200805664e+00 -1.615312546491622925e-01
8.710000000000000000e+02 5.378540420532226562e+01 1.087014865875244141e+01 7.673690319061279297e+00 1.488862133026123047e+01 6.768693447113037109e+00 -7.389073073863983154e-02
8.720000000000000000e+02 6.239138031005859375e+01 1.413828659057617188e+01 1.072539567947387695e+00 3.766824305057525635e-01 4.347665905952453613e-01 -6.187117099761962891e-01
8.730000000000000000e+02 6.374248123168945312e+01 1.433895206451416016e+01 3.193613767623901367e+00 3.324669599533081055e+00 1.955484986305236816e+00 -2.898610353469848633e+00
8.740000000000000000e+02 6.694312286376953125e+01 1.347482585906982422e+01 2.264772653579711914e+00 1.146172142028808594e+01 4.117948532104492188e+00 1.257057905197143555e+00
8.750000000000000000e+02 6.593345642089843750e+01 1.036314010620117188e+01 1.510866403579711914e+00 1.960114479064941406e+01 6.333603382110595703e+00 1.895682573318481445e+00
8.760000000000000000e+02 6.677792358398437500e+01 6.728078365325927734e+00 -9.959682822227478027e-01 1.086792373657226562e+01 2.961586713790893555e+00 -1.767645478248596191e+00
8.770000000000000000e+02 6.831446075439453125e+01 6.793131828308105469e+00 -1.226648569107055664e+00 1.111033248901367188e+01 2.965105056762695312e+00 -2.561249732971191406e+00
8.780000000000000000e+02 7.055838012695312500e+01 8.212188720703125000e+00 -2.289272069931030273e+00 1.602406144142150879e+00 -2.060597687959671021e-01 -1.191687464714050293e+00
8.790000000000000000e+02 7.147046661376953125e+01 9.093999862670898438e+00 -3.822062492370605469e+00 -8.960484862327575684e-01 -1.415433287620544434e+00 -1.734074234962463379e+00
8.800000000000000000e+02 6.592308807373046875e+01 1.166637134552001953e+01 2.889709234237670898e+00 2.271231460571289062e+01 7.680607318878173828e+00 -1.700017213821411133e+00
8.810000000000000000e+02 6.556494140625000000e+01 1.293318557739257812e+01 4.263995170593261719e+00 1.553385162353515625e+01 5.939353942871093750e+00 -4.671048164367675781e+00
8.820000000000000000e+02 5.602891159057617188e+01 -7.529373764991760254e-01 -7.174385786056518555e-01 4.316707611083984375e+00 1.079780697822570801e+00 -6.414978981018066406e+00
8.830000000000000000e+02 5.677299118041992188e+01 2.390512228012084961e-01 -2.887320756912231445e+00 4.749165773391723633e-01 -7.237212657928466797e-01 -4.095880508422851562e+00
8.840000000000000000e+02 5.503931808471679688e+01 -9.184834361076354980e-02 -2.375912666320800781e+00 1.046194839477539062e+01 2.425810813903808594e+00 -6.786270618438720703e+00
8.850000000000000000e+02 5.446962356567382812e+01 -5.239860534667968750e+00 -1.972682595252990723e+00 5.655081748962402344e+00 1.104719638824462891e+00 -1.771858453750610352e+00
8.860000000000000000e+02 5.166617965698242188e+01 -5.621904850006103516e+00 -1.384358286857604980e+00 9.622561931610107422e-01 -1.266306191682815552e-01 3.424119055271148682e-01
8.870000000000000000e+02 5.258163833618164062e+01 -6.709685802459716797e+00 -1.096938028931617737e-01 2.633220195770263672e+00 7.570579648017883301e-01 -1.044164180755615234e+00
8.880000000000000000e+02 5.337791061401367188e+01 -7.874208450317382812e+00 8.057108521461486816e-01 3.912898540496826172e+00 1.415582776069641113e+00 -1.772047996520996094e+00
8.890000000000000000e+02 5.743333816528320312e+01 -7.444513320922851562e+00 3.156717121601104736e-01 6.643695831298828125e+00 2.087810277938842773e+00 -5.908581614494323730e-01
8.900000000000000000e+02 5.350095748901367188e+01 5.136620998382568359e+00 1.437844514846801758e+00 1.869762802124023438e+01 6.040641784667968750e+00 1.440792679786682129e-01
8.910000000000000000e+02 5.627370834350585938e+01 9.138298988342285156e+00 -6.729798913002014160e-01 2.223433256149291992e+00 4.651360213756561279e-01 -2.931922078132629395e-01
8.920000000000000000e+02 5.714460372924804688e+01 9.665598869323730469e+00 -6.437725424766540527e-01 -8.481721282005310059e-01 -4.475834071636199951e-01 -9.510538578033447266e-01
8.930000000000000000e+02 2.820120239257812500e+01 1.845327496528625488e+00 -1.041573584079742432e-01 -1.788194477558135986e-01 -8.489304035902023315e-02 -3.590393960475921631e-01
8.940000000000000000e+02 3.020126342773437500e+01 -1.225779771804809570e+00 8.126826286315917969e-01 1.510582089424133301e+00 6.969794034957885742e-01 7.146610021591186523e-01
8.950000000000000000e+02 2.624560356140136719e+01 1.524712920188903809e+00 -1.570647060871124268e-01 -2.292243093252182007e-01 -1.158867031335830688e-01 -3.769767582416534424e-01
8.960000000000000000e+02 3.172001457214355469e+01 -1.257523596286773682e-01 1.476483941078186035e+00 4.748978912830352783e-01 5.854145884513854980e-01 2.275196909904479980e-01
8.970000000000000000e+02 3.052266693115234375e+01 1.734718680381774902e-02 1.440435051918029785e+00 1.122207760810852051e+00 7.687928080558776855e-01 3.429426252841949463e-01
8.980000000000000000e+02 3.304149627685546875e+01 4.610068321228027344e+00 -2.628898322582244873e-01 1.302639245986938477e-01 -3.978777304291725159e-02 8.668860048055648804e-02
8.990000000000000000e+02 3.918074417114257812e+01 -8.687074661254882812e+00 -8.125298023223876953e-01 -1.447310090065002441e+00 -6.779519915580749512e-01 1.091418504714965820e+00
9.000000000000000000e+02 4.214081573486328125e+01 -5.578188419342041016e+00 1.764259099960327148e+00 3.305035829544067383e+00 1.520788431167602539e+00 6.134762167930603027e-01
9.010000000000000000e+02 4.117511749267578125e+01 -1.434828376770019531e+01 6.550297886133193970e-02 6.776247978210449219e+00 2.052525281906127930e+00 6.212448477745056152e-01
9.020000000000000000e+02 4.109701156616210938e+01 -1.561878013610839844e+01 1.158183217048645020e+00 6.999598503112792969e+00 2.447334527969360352e+00 1.170296907424926758e+00
9.030000000000000000e+02 3.245027542114257812e+01 -9.235197067260742188e+00 -1.323200464248657227e-01 -5.729831755161285400e-03 -4.141496494412422180e-02 9.775495529174804688e-02
9.040000000000000000e+02 2.994275665283203125e+01 -7.269811630249023438e+00 -1.101659834384918213e-01 2.710819244384765625e-01 4.827478155493736267e-02 9.198383241891860962e-02
9.050000000000000000e+02 3.061712646484375000e+01 -5.413291931152343750e+00 -8.246182464063167572e-03 5.115306377410888672e-01 1.509853452444076538e-01 -1.188975498080253601e-01
9.060000000000000000e+02 2.899810791015625000e+01 -1.083098530769348145e+00 7.969773411750793457e-01 3.131145238876342773e-01 3.330275714397430420e-01 1.900657862424850464e-01
9.070000000000000000e+02 5.065725326538085938e+01 -4.532333850860595703e+00 -4.509976387023925781e+00 -5.102164149284362793e-01 -1.506057858467102051e+00 1.654397368431091309e+00
9.080000000000000000e+02 5.489574813842773438e+01 -1.030554676055908203e+01 1.105185866355895996e+00 6.992390155792236328e+00 2.429272890090942383e+00 -2.323454856872558594e+00
9.090000000000000000e+02 5.632272338867187500e+01 -1.720439147949218750e+01 1.290567398071289062e+00 1.315241909027099609e+01 4.332895755767822266e+00 1.073893547058105469e+00
9.100000000000000000e+02 5.547054672241210938e+01 -1.919767570495605469e+01 -1.490314722061157227e+00 5.951650619506835938e+00 1.338400840759277344e+00 2.608383178710937500e+00
9.110000000000000000e+02 6.021099472045898438e+01 -2.001688575744628906e+01 -8.667621612548828125e-01 6.545848369598388672e+00 1.703725934028625488e+00 -1.360201835632324219e+00
9.120000000000000000e+02 7.159035491943359375e+01 -8.649070739746093750e+00 1.846592307090759277e+00 1.007802963256835938e+01 3.577386617660522461e+00 -3.366508483886718750e+00
9.130000000000000000e+02 7.207322692871093750e+01 -9.940629959106445312e+00 1.296893000602722168e+00 1.363541793823242188e+01 4.479693412780761719e+00 -1.887844920158386230e+00
9.140000000000000000e+02 7.681019592285156250e+01 -1.070364952087402344e+01 6.669145822525024414e-01 8.436128616333007812e+00 2.730912923812866211e+00 7.469666004180908203e-01
9.150000000000000000e+02 7.229489135742187500e+01 -1.127821445465087891e+01 3.399855792522430420e-01 1.362389564514160156e+01 4.189164161682128906e+00 -6.868433952331542969e-01
9.160000000000000000e+02 7.246794891357421875e+01 -1.255234909057617188e+01 5.653631091117858887e-01 1.400128746032714844e+01 4.369995117187500000e+00 3.652208447456359863e-01
9.170000000000000000e+02 7.191970825195312500e+01 -1.769290351867675781e+01 -9.268965125083923340e-01 7.588566780090332031e+00 1.998501062393188477e+00 2.125915050506591797e+00
9.180000000000000000e+02 6.926585388183593750e+01 -1.621799087524414062e+01 -2.271379947662353516e+00 -3.830752670764923096e-01 -7.963365912437438965e-01 9.948585033416748047e-01
9.190000000000000000e+02 7.586302947998046875e+01 1.054792881011962891e+01 -7.602148652076721191e-01 8.873294830322265625e+00 2.433923959732055664e+00 -2.387384891510009766e+00
9.200000000000000000e+02 7.573551177978515625e+01 7.835799217224121094e+00 3.850072860717773438e+00 1.611293983459472656e+01 5.988903999328613281e+00 -5.169665336608886719e+00
9.210000000000000000e+02 6.935305023193359375e+01 5.936540126800537109e+00 4.135188460350036621e-01 1.345088672637939453e+01 4.159321308135986328e+00 7.175087928771972656e-02
9.220000000000000000e+02 7.105738830566406250e+01 1.076667881011962891e+01 1.261908054351806641e+00 2.234274625778198242e+00 1.048854827880859375e+00 3.586469888687133789e-01
9.230000000000000000e+02 7.111647033691406250e+01 1.300849151611328125e+01 2.642743110656738281e+00 4.064799785614013672e+00 2.012262821197509766e+00 3.760085403919219971e-01
9.240000000000000000e+02 7.071660614013671875e+01 1.765030860900878906e+01 7.932451963424682617e-01 6.488893508911132812e+00 2.184641599655151367e+00 6.001663208007812500e-01
9.250000000000000000e+02 6.929148101806640625e+01 1.734118461608886719e+01 8.337996602058410645e-01 7.089964866638183594e+00 2.377129316329956055e+00 7.361754775047302246e-01
9.260000000000000000e+02 6.787310791015625000e+01 1.699695014953613281e+01 3.715004920959472656e-01 8.066205024719238281e+00 2.531311511993408203e+00 4.212733209133148193e-01
9.270000000000000000e+02 6.714663696289062500e+01 1.984330368041992188e+01 2.325211316347122192e-01 6.710626125335693359e+00 2.082944154739379883e+00 -2.729731202125549316e-01
9.280000000000000000e+02 6.900634765625000000e+01 1.899513053894042969e+01 2.391623407602310181e-01 7.040679454803466797e+00 2.183952569961547852e+00 3.201611638069152832e-01
9.290000000000000000e+02 4.215501785278320312e+01 7.685903310775756836e-01 -8.778816461563110352e-01 7.675352692604064941e-01 -3.310391306877136230e-02 -1.664905548095703125e-01
9.300000000000000000e+02 7.100232696533203125e+01 1.406078338623046875e-01 -4.351880550384521484e+00 6.257171154022216797e+00 5.715872645378112793e-01 -4.825055122375488281e+00
9.310000000000000000e+02 4.981818771362304688e+01 3.876053333282470703e+00 3.402683258056640625e+00 5.114075660705566406e+00 2.555027723312377930e+00 1.551363468170166016e+00
9.320000000000000000e+02 4.888987731933593750e+01 -4.650367796421051025e-01 6.975810527801513672e-01 1.991732239723205566e+00 8.067939877510070801e-01 3.104839563369750977e+00
9.330000000000000000e+02 4.995216369628906250e+01 1.349969029426574707e+00 2.563824653625488281e+00 4.419172763824462891e+00 2.094899177551269531e+00 2.301633834838867188e+00
9.340000000000000000e+02 4.606062698364257812e+01 4.588366031646728516e+00 1.035964965820312500e+00 5.807129144668579102e-01 4.850033521652221680e-01 8.777220249176025391e-01
9.350000000000000000e+02 6.905909729003906250e+01 3.805427551269531250e+00 2.720212697982788086e+00 1.691713905334472656e+01 5.891205787658691406e+00 -2.406605958938598633e+00
9.360000000000000000e+02 5.987394332885742188e+01 2.421222209930419922e+00 -4.261930465698242188e+00 -7.328845262527465820e-01 -1.498444437980651855e+00 -1.883165478706359863e+00
9.370000000000000000e+02 6.055986404418945312e+01 1.390086531639099121e+00 -4.274908065795898438e+00 2.081852674484252930e+00 -6.579166650772094727e-01 3.188435686752200127e-03
9.380000000000000000e+02 6.535091400146484375e+01 -1.554911136627197266e+00 -4.240593910217285156e+00 3.326882421970367432e-01 -1.172371625900268555e+00 3.587760448455810547e+00
9.390000000000000000e+02 6.462359619140625000e+01 -5.785117745399475098e-01 -1.980885267257690430e+00 4.954808712005615234e+00 8.921770453453063965e-01 4.983026504516601562e+00
9.400000000000000000e+02 6.936791992187500000e+01 -1.652176022529602051e+00 -3.503065586090087891e+00 5.694162845611572266e+00 6.573290824890136719e-01 -2.482297420501708984e+00
9.410000000000000000e+02 3.003606414794921875e+01 -2.595165014266967773e+00 9.562450461089611053e-03 1.185104608535766602e+00 3.584001064300537109e-01 6.991264224052429199e-02
9.420000000000000000e+02 2.518564033508300781e+01 -3.171603441238403320e+00 1.752307415008544922e-01 -2.770343422889709473e-01 -3.054107725620269775e-02 7.346966862678527832e-02
9.430000000000000000e+02 5.692030334472656250e+01 -3.177873373031616211e+00 -8.006148934364318848e-01 4.866485118865966797e+00 1.219761013984680176e+00 -3.468386411666870117e+00
9.440000000000000000e+02 5.305653381347656250e+01 -1.903385877609252930e+00 -3.281464338302612305e+00 7.433733463287353516e+00 1.245680689811706543e+00 -2.043507814407348633e+00
9.450000000000000000e+02 7.173299407958984375e+01 -4.875500202178955078e+00 -1.054605841636657715e+00 5.577731609344482422e+00 1.356937766075134277e+00 -1.326692581176757812e+00
9.460000000000000000e+02 7.080645751953125000e+01 -5.663915634155273438e+00 -1.573712974786758423e-01 4.860537528991699219e+00 1.410949945449829102e+00 -1.575329422950744629e+00
9.470000000000000000e+02 7.346981811523437500e+01 -5.615314006805419922e+00 -2.905958890914916992e-01 7.074696540832519531e+00 2.035230159759521484e+00 1.367948800325393677e-01
9.480000000000000000e+02 6.713989257812500000e+00 -8.947916984558105469e+00 -2.172251604497432709e-02 -9.256927296519279480e-03 -9.293832816183567047e-03 -2.877234853804111481e-02
9.490000000000000000e+02 1.271539115905761719e+01 -1.028096199035644531e+01 -1.064302697777748108e-01 2.287601493299007416e-02 -2.506627701222896576e-02 -4.535473883152008057e-02
9.500000000000000000e+02 1.355879497528076172e+01 -1.509875869750976562e+01 -9.364903718233108521e-02 2.681448124349117279e-02 -2.005036734044551849e-02 -1.145889610052108765e-01
9.510000000000000000e+02 8.441357612609863281e+00 -1.490401744842529297e+01 -3.467495739459991455e-02 -2.214684523642063141e-02 -1.704654097557067871e-02 -9.122785180807113647e-02
9.520000000000000000e+02 2.567963981628417969e+01 -1.341830444335937500e+01 -3.133517205715179443e-01 1.356553286314010620e-01 -5.330891534686088562e-02 3.786986321210861206e-02
9.530000000000000000e+02 1.733123016357421875e+01 -7.389846324920654297e+00 -1.327199339866638184e-01 1.214127521961927414e-02 -3.617359697818756104e-02 8.488588035106658936e-03
9.540000000000000000e+02 8.592399597167968750e+00 -4.924591064453125000e+00 -3.246786445379257202e-02 2.307398535776883364e-04 -9.671136736869812012e-03 -1.473460067063570023e-02
9.550000000000000000e+02 1.177981853485107422e+01 -6.536805152893066406e+00 -5.832882598042488098e-02 9.583448059856891632e-03 -1.462361309677362442e-02 -2.024365030229091644e-02
9.560000000000000000e+02 8.851811408996582031e+00 -1.812334299087524414e+00 -7.859289646148681641e-03 -2.254209015518426895e-03 -3.034049645066261292e-03 -3.662732662633061409e-03
9.570000000000000000e+02 7.066483974456787109e+00 -1.616676139831542969e+01 -2.483448944985866547e-02 -5.068181455135345459e-02 -2.265489101409912109e-02 -8.732417970895767212e-02
9.580000000000000000e+02 8.731621742248535156e+00 -1.758534431457519531e+01 -2.937110699713230133e-02 -4.072730615735054016e-02 -2.102952450513839722e-02 -1.116156950592994690e-01
9.590000000000000000e+02 1.659204673767089844e+01 -1.487730884552001953e+01 -1.147467270493507385e-01 5.607073381543159485e-02 -1.760279946029186249e-02 -1.237964034080505371e-01
9.600000000000000000e+02 2.301505088806152344e+01 -1.501521301269531250e+01 -1.915149986743927002e-01 1.150693967938423157e-01 -2.293368056416511536e-02 -4.006296396255493164e-02
9.610000000000000000e+02 2.991047286987304688e+01 -1.167856502532958984e+01 -4.092460572719573975e-01 1.984078139066696167e-01 -6.325148046016693115e-02 1.837763190269470215e-01
9.620000000000000000e+02 1.012572288513183594e+01 -2.174714851379394531e+01 -2.285824716091156006e-02 -5.818870663642883301e-02 -2.431408502161502838e-02 -1.422974765300750732e-01
9.630000000000000000e+02 5.063181400299072266e+00 -2.184303665161132812e+01 -8.401217870414257050e-03 -1.380226910114288330e-01 -4.392717033624649048e-02 -9.073177725076675415e-02
9.640000000000000000e+02 1.202681541442871094e+01 -1.658323287963867188e+01 -5.807464197278022766e-02 4.012237768620252609e-03 -1.621872186660766602e-02 -1.237575262784957886e-01
9.650000000000000000e+02 1.696115112304687500e+01 -1.594702816009521484e+01 -1.181766092777252197e-01 6.377810239791870117e-02 -1.631955243647098541e-02 -1.226429641246795654e-01
9.660000000000000000e+02 2.418003463745117188e+01 -2.181814956665039062e+01 -2.743211202323436737e-02 2.234063744544982910e-01 5.879228189587593079e-02 -1.303390264511108398e-01
9.670000000000000000e+02 2.063784027099609375e+01 -1.836195755004882812e+01 -1.151874586939811707e-01 1.175351962447166443e-01 7.043218356557190418e-04 -1.412038356065750122e-01
9.680000000000000000e+02 2.976055145263671875e+01 -1.654416275024414062e+01 -4.312677383422851562e-01 2.698436081409454346e-01 -4.842724278569221497e-02 4.691676236689090729e-03
9.690000000000000000e+02 3.366839599609375000e+01 -1.638922500610351562e+01 -4.354458749294281006e-01 2.067241668701171875e-01 -6.861651688814163208e-02 3.099900670349597931e-02
9.700000000000000000e+02 4.273051452636718750e+01 -1.587426757812500000e+01 4.836764037609100342e-01 3.519146442413330078e+00 1.200846791267395020e+00 1.597881168127059937e-01
9.710000000000000000e+02 5.784244918823242188e+01 -1.657411003112792969e+01 1.236538887023925781e+00 8.496780395507812500e+00 2.919995784759521484e+00 -1.852078288793563843e-01
9.720000000000000000e+02 6.018738937377929688e+01 -1.809043121337890625e+01 7.793979346752166748e-02 6.741978645324707031e+00 2.045975446701049805e+00 -1.113667368888854980e+00
9.730000000000000000e+02 7.569129943847656250e+01 -1.549923229217529297e+01 2.537584602832794189e-01 8.858097076416015625e+00 2.733556509017944336e+00 -7.380651235580444336e-01
9.740000000000000000e+02 7.407099151611328125e+01 -1.453061294555664062e+01 1.689598202705383301e+00 9.547861099243164062e+00 3.371237754821777344e+00 -1.357475221157073975e-01
9.750000000000000000e+02 6.636269378662109375e+01 -1.336209869384765625e+01 1.652745157480239868e-02 1.266181349754333496e+00 3.848126232624053955e-01 -5.289554595947265625e-01
9.760000000000000000e+02 6.142370986938476562e+01 -1.518680572509765625e+01 2.091198265552520752e-01 6.821095466613769531e+00 2.109064579010009766e+00 -7.956318855285644531e-01
9.770000000000000000e+02 5.717461013793945312e+01 -1.409691333770751953e+01 6.084744334220886230e-01 1.009009838104248047e+01 3.209572076797485352e+00 -5.036934614181518555e-01
9.780000000000000000e+02 7.374851989746093750e+01 -1.745197486877441406e+01 -7.257043123245239258e-01 8.441866874694824219e+00 2.314848661422729492e+00 8.611723780632019043e-02
9.790000000000000000e+02 9.671216011047363281e+00 -2.591238784790039062e+01 6.021036766469478607e-03 -8.748308569192886353e-02 -2.443861402571201324e-02 -1.273743957281112671e-01
9.800000000000000000e+02 6.528758525848388672e+00 -2.353836822509765625e+01 -4.213965963572263718e-03 -1.293085962533950806e-01 -4.005676880478858948e-02 -1.105080172419548035e-01
9.810000000000000000e+02 1.117878818511962891e+01 -2.270588684082031250e+01 -1.481468440033495426e-03 -4.281867668032646179e-02 -1.329004298895597458e-02 -1.387362480163574219e-01
9.820000000000000000e+02 2.255698013305664062e+01 -2.603236007690429688e+01 6.582423299551010132e-02 2.155951708555221558e-01 8.442582190036773682e-02 -1.372089982032775879e-01
9.830000000000000000e+02 4.058849334716796875e+01 -2.126916694641113281e+01 -6.312997937202453613e-01 2.046307325363159180e+00 4.245022535324096680e-01 3.467942476272583008e-01
9.840000000000000000e+02 4.219570159912109375e+01 -2.106855773925781250e+01 -6.403505802154541016e-01 2.488668203353881836e+00 5.544953346252441406e-01 1.471756994724273682e-01
9.850000000000000000e+02 4.988294219970703125e+01 -2.010931777954101562e+01 -8.075765371322631836e-01 8.206774592399597168e-01 3.930279053747653961e-03 -2.855463027954101562e-01
9.860000000000000000e+02 6.459305572509765625e+01 -2.123072242736816406e+01 1.491704490035772324e-02 4.794189453125000000e+00 1.442731976509094238e+00 -1.214423060417175293e+00
9.870000000000000000e+02 6.752114105224609375e+01 -2.080670547485351562e+01 5.251923799514770508e-01 3.906258344650268555e+00 1.329435229301452637e+00 -5.040564537048339844e-01
9.880000000000000000e+02 7.543407440185546875e+01 -2.121840858459472656e+01 -3.022705316543579102e-01 7.890339374542236328e+00 2.276420593261718750e+00 2.479351162910461426e-01
9.890000000000000000e+02 1.075356388092041016e+01 -2.993090629577636719e+01 3.837499395012855530e-02 -8.633167296648025513e-02 -1.438700407743453979e-02 -1.177176535129547119e-01
9.900000000000000000e+02 1.151110935211181641e+01 -2.512351417541503906e+01 2.073240280151367188e-02 -5.232314392924308777e-02 -9.477222338318824768e-03 -1.432445645332336426e-01
9.910000000000000000e+02 1.667777442932128906e+01 -2.585457801818847656e+01 2.790173888206481934e-02 5.340139195322990417e-02 2.439093962311744690e-02 -1.674675196409225464e-01
9.920000000000000000e+02 2.431798362731933594e+01 -2.947875785827636719e+01 1.380985528230667114e-01 2.931636869907379150e-01 1.293786615133285522e-01 -1.060134470462799072e-01
9.930000000000000000e+02 1.914147186279296875e+01 -2.705488967895507812e+01 6.797587126493453979e-02 1.200581938028335571e-01 5.641021952033042908e-02 -1.474186778068542480e-01
9.940000000000000000e+02 2.785527610778808594e+01 -2.573177909851074219e+01 5.767315998673439026e-02 3.719480633735656738e-01 1.288863718509674072e-01 -8.568467199802398682e-02
9.950000000000000000e+02 3.010363197326660156e+01 -2.610691070556640625e+01 8.697754889726638794e-02 5.139148831367492676e-01 1.802677214145660400e-01 -3.968241810798645020e-02
9.960000000000000000e+02 3.228776550292968750e+01 -2.609678840637207031e+01 5.443104729056358337e-02 6.265393495559692383e-01 2.042911201715469360e-01 3.093975409865379333e-02
9.970000000000000000e+02 3.253324127197265625e+01 -2.295203018188476562e+01 2.009425312280654907e-02 4.725190401077270508e-01 1.477839797735214233e-01 7.093709707260131836e-02
9.980000000000000000e+02 4.276204681396484375e+01 -2.290730857849121094e+01 -7.103583812713623047e-01 2.130244016647338867e+00 4.259657263755798340e-01 -6.798800081014633179e-02
9.990000000000000000e+02 4.748921203613281250e+01 -2.481959342956542969e+01 -2.147396355867385864e-01 1.774165987968444824e+00 4.678279161453247070e-01 -2.577215135097503662e-01
1.000000000000000000e+03 5.136273574829101562e+01 -2.458639717102050781e+01 -8.059726655483245850e-02 1.767341971397399902e+00 5.060234069824218750e-01 3.149646222591400146e-01
1.001000000000000000e+03 5.365305328369140625e+01 -2.439145660400390625e+01 -1.606630235910415649e-01 2.663532495498657227e+00 7.508608102798461914e-01 7.697049379348754883e-01
1.002000000000000000e+03 5.605059814453125000e+01 -2.452915000915527344e+01 -7.917201519012451172e-01 4.733634948730468750e+00 1.182574510574340820e+00 9.945077896118164062e-01
1.003000000000000000e+03 6.491689300537109375e+01 -2.542244148254394531e+01 6.076751649379730225e-02 5.102556705474853516e+00 1.548997282981872559e+00 -5.074938535690307617e-01
1.004000000000000000e+03 6.783678436279296875e+01 -2.410276031494140625e+01 3.308579325675964355e-01 4.985497951507568359e+00 1.594906806945800781e+00 -2.654130756855010986e-01
1.005000000000000000e+03 7.147897338867187500e+01 -2.467469596862792969e+01 1.320272982120513916e-01 6.022677898406982422e+00 1.846411585807800293e+00 2.389210611581802368e-01
1.006000000000000000e+03 7.586038970947265625e+01 -2.514182853698730469e+01 -6.053546071052551270e-02 7.557780742645263672e+00 2.249173641204833984e+00 2.598664760589599609e-01
1.007000000000000000e+03 2.380390167236328125e+00 -2.295109558105468750e+01 -8.956125006079673767e-03 -1.931595206260681152e-01 -6.063469499349594116e-02 -4.927619546651840210e-02
1.008000000000000000e+03 7.815808868408203125e+01 -2.511456871032714844e+01 -6.050336360931396484e-02 8.249060630798339844e+00 2.456567287445068359e+00 1.261035948991775513e-01
1.009000000000000000e+03 8.009428977966308594e+00 -3.372908782958984375e+01 3.669174388051033020e-02 -1.746145784854888916e-01 -4.137685149908065796e-02 -8.427727222442626953e-02
1.010000000000000000e+03 5.363946914672851562e+00 -3.310481643676757812e+01 1.722316257655620575e-02 -2.574631571769714355e-01 -7.207199931144714355e-02 -6.731662899255752563e-02
1.011000000000000000e+03 1.461841487884521484e+01 -3.020016479492187500e+01 6.168564781546592712e-02 -2.175633329898118973e-03 1.785300299525260925e-02 -1.366555392742156982e-01
1.012000000000000000e+03 2.081452751159667969e+01 -3.073273086547851562e+01 1.304194182157516479e-01 1.777217090129852295e-01 9.244233369827270508e-02 -1.145635396242141724e-01
1.013000000000000000e+03 2.707789993286132812e+01 -3.041996002197265625e+01 1.567116081714630127e-01 4.007651805877685547e-01 1.672430336475372314e-01 -8.719950914382934570e-02
1.014000000000000000e+03 3.603102493286132812e+01 -2.689287567138671875e+01 -1.804320886731147766e-02 9.901074767112731934e-01 2.916192710399627686e-01 1.141838282346725464e-01
1.015000000000000000e+03 3.904916381835937500e+01 -2.810580062866210938e+01 -9.290209412574768066e-02 1.360405921936035156e+00 3.802511394023895264e-01 4.260199517011642456e-02
1.016000000000000000e+03 4.550904846191406250e+01 -2.785282135009765625e+01 -4.486000910401344299e-02 1.804644346237182617e+00 5.279353260993957520e-01 -1.413476169109344482e-01
1.017000000000000000e+03 5.211509704589843750e+01 -2.814301300048828125e+01 2.417493239045143127e-02 2.548373937606811523e+00 7.717646360397338867e-01 3.375171124935150146e-01
1.018000000000000000e+03 5.634303283691406250e+01 -2.698991966247558594e+01 -4.790005981922149658e-01 4.238203525543212891e+00 1.127760887145996094e+00 4.682014286518096924e-01
1.019000000000000000e+03 6.776087951660156250e+01 -2.780264282226562500e+01 1.534550487995147705e-01 5.461120128631591797e+00 1.684372544288635254e+00 -1.330794394016265869e-01
1.020000000000000000e+03 7.108802795410156250e+01 -2.774981498718261719e+01 1.989817172288894653e-01 6.090398311614990234e+00 1.886813998222351074e+00 1.043784543871879578e-01
1.021000000000000000e+03 7.562169647216796875e+01 -2.627077102661132812e+01 9.839529544115066528e-02 7.363904476165771484e+00 2.238689899444580078e+00 2.628406286239624023e-01
1.022000000000000000e+03 2.623672246932983398e+00 -2.897114181518554688e+01 -6.930779200047254562e-04 -2.948847115039825439e-01 -8.867333829402923584e-02 -4.641887173056602478e-02
1.023000000000000000e+03 7.812156677246093750e+01 -2.917247390747070312e+01 4.792489483952522278e-02 8.009523391723632812e+00 2.417234420776367188e+00 1.113555729389190674e-01
1.024000000000000000e+03 2.641036033630371094e+00 -3.339556503295898438e+01 1.122860889881849289e-02 -3.537872433662414551e-01 -1.027675867080688477e-01 -3.789331018924713135e-02
1.025000000000000000e+03 1.127148914337158203e+01 -3.238590621948242188e+01 5.702234432101249695e-02 -8.721601217985153198e-02 -9.058101102709770203e-03 -1.104083135724067688e-01
1.026000000000000000e+03 1.432570648193359375e+01 -3.494743347167968750e+01 9.790581464767456055e-02 -1.544452924281358719e-02 2.473838627338409424e-02 -9.423637390136718750e-02
1.027000000000000000e+03 3.828795623779296875e+01 -3.142794036865234375e+01 8.859726041555404663e-02 1.269803404808044434e+00 4.075201749801635742e-01 5.356526933610439301e-03
1.028000000000000000e+03 4.035506439208984375e+01 -3.042018699645996094e+01 5.695688724517822266e-02 1.496241569519042969e+00 4.659595489501953125e-01 3.102987306192517281e-03
1.029000000000000000e+03 6.153285217285156250e+01 -3.300967025756835938e+01 -2.482139877974987030e-02 4.751022815704345703e+00 1.417860507965087891e+00 1.491637341678142548e-02
1.030000000000000000e+03 6.501602935791015625e+01 -3.155982398986816406e+01 4.318555444478988647e-02 5.297861099243164062e+00 1.602313995361328125e+00 -4.698722809553146362e-02
1.031000000000000000e+03 7.175219726562500000e+01 -3.196889495849609375e+01 1.209145113825798035e-01 6.389071941375732422e+00 1.952995896339416504e+00 8.265648037195205688e-02
1.032000000000000000e+03 7.583545684814453125e+01 -3.082905578613281250e+01 6.086934357881546021e-02 7.371503829956054688e+00 2.229712009429931641e+00 1.488462984561920166e-01
1.033000000000000000e+03 2.665718078613281250e+00 -3.040855216979980469e+01 7.184072397649288177e-03 -3.136601448059082031e-01 -9.194282442331314087e-02 -4.735037311911582947e-02
1.034000000000000000e+03 8.865062713623046875e+00 -3.838333511352539062e+01 5.192312970757484436e-02 -1.803673356771469116e-01 -3.853325918316841125e-02 -3.788747265934944153e-02
1.035000000000000000e+03 4.408856582641601562e+01 -3.337796401977539062e+01 1.995974928140640259e-01 1.828863859176635742e+00 6.085383892059326172e-01 -1.915265922434628010e-03
1.036000000000000000e+03 7.471945190429687500e+01 -3.482361221313476562e+01 1.379035413265228271e-02 7.083625316619873047e+00 2.129224777221679688e+00 7.465817779302597046e-02
1.037000000000000000e+03 2.582758188247680664e+00 -3.482138442993164062e+01 6.921551655977964401e-03 -3.807449638843536377e-01 -1.121470183134078979e-01 -2.501128613948822021e-02
1.038000000000000000e+03 3.294758224487304688e+01 -3.753012466430664062e+01 2.694234251976013184e-01 8.233512043952941895e-01 3.278324007987976074e-01 -2.101033553481101990e-02
1.039000000000000000e+03 6.088692855834960938e+01 -3.856236648559570312e+01 1.050549671053886414e-01 4.494795322418212891e+00 1.379955053329467773e+00 5.191309005022048950e-02
1.040000000000000000e+03 7.325476837158203125e+01 -6.873430252075195312e+00 2.544889748096466064e-01 7.958688735961914062e+00 2.463953256607055664e+00 6.874328851699829102e-02
1.041000000000000000e+03 7.248397827148437500e+01 -7.917137622833251953e+00 8.794732093811035156e-01 9.010049819946289062e+00 2.966856956481933594e+00 -6.469465494155883789e-01
1.042000000000000000e+03 3.929072570800781250e+01 -3.923719882965087891e+00 1.246586084365844727e+00 -2.967748045921325684e-01 2.849434018135070801e-01 -4.813507199287414551e-01
1.043000000000000000e+03 6.316481018066406250e+01 -4.070053577423095703e+00 2.774481296539306641e+00 1.407133674621582031e+01 5.053745269775390625e+00 2.996212482452392578e+00
1.044000000000000000e+03 6.205041503906250000e+01 -3.510633707046508789e+00 1.038858175277709961e+00 8.247734069824218750e+00 2.785977602005004883e+00 1.302578151226043701e-01
1.045000000000000000e+03 6.717897033691406250e+01 -3.354397058486938477e+00 -3.958446502685546875e+00 -2.381130903959274292e-01 -1.258967876434326172e+00 1.834107995033264160e+00
1.046000000000000000e+03 7.551660156250000000e+01 1.460417366027832031e+01 7.167212367057800293e-01 5.531985282897949219e+00 1.874611973762512207e+00 -7.913392186164855957e-01
1.047000000000000000e+03 7.451535797119140625e+01 1.165699481964111328e+01 -2.871637344360351562e-01 5.025988101959228516e+00 1.421647310256958008e+00 -2.917820453643798828e+00
1.048000000000000000e+03 6.764024353027343750e+01 9.498940467834472656e+00 -7.146108895540237427e-02 1.236941623687744141e+01 3.689386606216430664e+00 -1.149825930595397949e+00
1.049000000000000000e+03 6.401399993896484375e+01 2.001361656188964844e+01 7.615705728530883789e-01 5.564277648925781250e+00 1.897754430770874023e+00 -5.352277159690856934e-01
1.050000000000000000e+03 6.489111328125000000e+01 2.138267707824707031e+01 2.799102067947387695e-01 6.010213375091552734e+00 1.887037038803100586e+00 -2.927328646183013916e-01
1.051000000000000000e+03 6.371068954467773438e+01 2.263025856018066406e+01 4.169650673866271973e-01 5.635976314544677734e+00 1.815882444381713867e+00 -2.043818235397338867e-01
1.052000000000000000e+03 6.139979553222656250e+01 1.704741859436035156e+01 2.058332204818725586e+00 3.179223060607910156e+00 1.571266651153564453e+00 -1.188261583447456360e-01
1.053000000000000000e+03 6.379014587402343750e+01 1.623631668090820312e+01 1.219895839691162109e+00 5.486978054046630859e+00 2.012062072753906250e+00 -2.293469429016113281e+00
1.054000000000000000e+03 5.839617919921875000e+01 1.271723079681396484e+01 1.481247544288635254e+00 8.359721899032592773e-01 6.951659321784973145e-01 1.481739759445190430e+00
1.055000000000000000e+03 5.775456237792968750e+01 1.547142601013183594e+01 1.692276477813720703e+00 3.877868413925170898e+00 1.671043515205383301e+00 2.669956922531127930e+00
1.056000000000000000e+03 5.777220153808593750e+01 2.250409317016601562e+01 1.081808209419250488e-01 5.153168201446533203e+00 1.578404664993286133e+00 3.091094195842742920e-01
1.057000000000000000e+03 5.665251541137695312e+01 2.400058555603027344e+01 -6.509884446859359741e-02 5.125714778900146484e+00 1.518184781074523926e+00 7.364016026258468628e-02
1.058000000000000000e+03 5.728570938110351562e+01 2.611164283752441406e+01 -1.415005773305892944e-01 5.031309127807617188e+00 1.466942548751831055e+00 -3.581263870000839233e-02
1.059000000000000000e+03 5.960401916503906250e+01 1.486155033111572266e+01 1.767499566078186035e+00 1.624464869499206543e+00 1.017589330673217773e+00 1.478096365928649902e+00
1.060000000000000000e+03 5.352345657348632812e+01 1.626700210571289062e+01 -7.590851783752441406e-01 9.138602256774902344e+00 2.513854980468750000e+00 8.343563079833984375e-01
1.061000000000000000e+03 5.086079788208007812e+01 1.788988685607910156e+01 -7.202277779579162598e-01 6.083652019500732422e+00 1.609027385711669922e+00 -1.844227313995361328e+00
1.062000000000000000e+03 4.643582534790039062e+01 1.599394798278808594e+01 -2.376763671636581421e-01 1.679630577564239502e-01 -2.091399393975734711e-02 -5.662669539451599121e-01
1.063000000000000000e+03 4.400358200073242188e+01 1.575633716583251953e+01 -8.765617609024047852e-01 3.869109153747558594e-01 -1.468952596187591553e-01 -3.146104514598846436e-02
1.064000000000000000e+03 4.815391159057617188e+01 1.601144981384277344e+01 -1.627852171659469604e-01 2.200095057487487793e-01 1.716729067265987396e-02 -1.877615332603454590e+00
1.065000000000000000e+03 7.521932983398437500e+01 1.802642059326171875e+01 5.476608872413635254e-01 5.621479988098144531e+00 1.850742220878601074e+00 -7.050247490406036377e-02
1.066000000000000000e+03 5.955687332153320312e+01 2.104071617126464844e+01 7.127244472503662109e-01 4.852487087249755859e+00 1.669563412666320801e+00 4.320008754730224609e-01
1.067000000000000000e+03 5.672373962402343750e+01 1.852643966674804688e+01 5.123770833015441895e-01 5.503808975219726562e+00 1.804855823516845703e+00 1.511828660964965820e+00
1.068000000000000000e+03 5.404796218872070312e+01 1.921909904479980469e+01 -5.831618905067443848e-01 6.561186313629150391e+00 1.793407320976257324e+00 3.539874851703643799e-01
1.069000000000000000e+03 5.019351196289062500e+01 1.992177963256835938e+01 -6.028269529342651367e-01 4.599573135375976562e+00 1.199023842811584473e+00 -1.469312548637390137e+00
1.070000000000000000e+03 4.638010787963867188e+01 2.009855461120605469e+01 3.107388913631439209e-01 1.681983947753906250e+00 5.978168845176696777e-01 -1.211462259292602539e+00
1.071000000000000000e+03 4.452115249633789062e+01 1.851519203186035156e+01 -2.734956331551074982e-02 8.015281558036804199e-01 2.322535812854766846e-01 -5.162851810455322266e-01
1.072000000000000000e+03 4.674660110473632812e+01 1.899511718750000000e+01 2.046521306037902832e-01 1.368654131889343262e+00 4.719918966293334961e-01 -1.173404574394226074e+00
1.073000000000000000e+03 4.756529617309570312e+01 2.036622810363769531e+01 -1.909067854285240173e-03 2.478046894073486328e+00 7.428413033485412598e-01 -1.372037529945373535e+00
1.074000000000000000e+03 3.972155380249023438e+01 1.598827743530273438e+01 -8.549475073814392090e-01 4.030728936195373535e-01 -1.355623900890350342e-01 2.908432111144065857e-02
1.075000000000000000e+03 3.599034881591796875e+01 1.818664550781250000e+01 -5.357028245925903320e-01 -8.206173777580261230e-02 -1.853293627500534058e-01 3.639375045895576477e-02
1.076000000000000000e+03 3.323536300659179688e+01 1.655739974975585938e+01 -8.377406001091003418e-01 -2.909587621688842773e-01 -3.386098146438598633e-01 3.840821683406829834e-01
1.077000000000000000e+03 2.753807067871093750e+01 1.764822578430175781e+01 -7.551888823509216309e-01 1.210807561874389648e-01 -1.902324408292770386e-01 3.444879055023193359e-01
1.078000000000000000e+03 7.466694641113281250e+01 2.332683944702148438e+01 7.476592808961868286e-02 6.102089405059814453e+00 1.853056669235229492e+00 3.529759347438812256e-01
1.079000000000000000e+03 7.195611572265625000e+01 2.316439056396484375e+01 4.850777040701359510e-04 6.253692150115966797e+00 1.876253128051757812e+00 3.860849738121032715e-01
1.080000000000000000e+03 5.548051834106445312e+01 2.284247779846191406e+01 -2.392775714397430420e-01 5.248783588409423828e+00 1.502851843833923340e+00 1.024153828620910645e-01
1.081000000000000000e+03 5.054880905151367188e+01 2.500937843322753906e+01 -2.474627643823623657e-01 3.868886947631835938e+00 1.086427330970764160e+00 -7.257791161537170410e-01
1.082000000000000000e+03 4.638608551025390625e+01 2.377138710021972656e+01 5.367375165224075317e-02 2.349579334259033203e+00 7.209759354591369629e-01 -9.845797419548034668e-01
1.083000000000000000e+03 4.330224227905273438e+01 2.498659706115722656e+01 1.944728493690490723e-01 1.510467529296875000e+00 5.114821195602416992e-01 -6.002157926559448242e-01
1.084000000000000000e+03 4.572618865966796875e+01 2.146008682250976562e+01 1.397682726383209229e-01 1.743813395500183105e+00 5.650745034217834473e-01 -9.645421504974365234e-01
1.085000000000000000e+03 4.930027770996093750e+01 2.380483627319335938e+01 -1.230295374989509583e-01 3.509595394134521484e+00 1.015969753265380859e+00 -1.017864704132080078e+00
1.086000000000000000e+03 4.231457901000976562e+01 1.888236045837402344e+01 -1.731005162000656128e-01 6.880847811698913574e-01 1.544952839612960815e-01 -2.857904136180877686e-01
1.087000000000000000e+03 3.261919403076171875e+01 2.244525527954101562e+01 -1.005921885371208191e-01 5.684360116720199585e-02 -1.312457583844661713e-02 2.160968780517578125e-01
1.088000000000000000e+03 2.586718940734863281e+01 2.055481910705566406e+01 -4.061935245990753174e-01 -1.067613661289215088e-01 -1.538864672183990479e-01 2.402417808771133423e-01
1.089000000000000000e+03 2.122434043884277344e+01 1.953506088256835938e+01 -4.293780028820037842e-01 -1.008480042219161987e-01 -1.590678095817565918e-01 3.370606303215026855e-01
1.090000000000000000e+03 1.869570159912109375e+01 1.877544212341308594e+01 -3.702692091464996338e-01 5.836896970868110657e-02 -9.357006847858428955e-02 1.852899491786956787e-01
1.091000000000000000e+03 1.633123016357421875e+01 2.164977645874023438e+01 -1.988569200038909912e-01 1.155487261712551117e-02 -5.619061738252639771e-02 2.431551665067672729e-01
1.092000000000000000e+03 1.347071361541748047e+01 1.913783645629882812e+01 -1.576308310031890869e-01 3.672462329268455505e-02 -3.627186268568038940e-02 1.327802985906600952e-01
1.093000000000000000e+03 9.982795715332031250e+00 2.415041160583496094e+01 -5.939719825983047485e-02 -7.531297951936721802e-02 -4.041305184364318848e-02 1.660864502191543579e-01
1.094000000000000000e+03 6.526839733123779297e-01 2.059693145751953125e+01 -3.685044066514819860e-04 -1.043172553181648254e-01 -3.140572831034660339e-02 8.858452551066875458e-03
1.095000000000000000e+03 6.761367034912109375e+01 2.496265411376953125e+01 -4.532364197075366974e-03 6.145477771759033203e+00 1.842283606529235840e+00 1.083287224173545837e-01
1.096000000000000000e+03 5.472584152221679688e+01 2.641296195983886719e+01 -2.766258418560028076e-01 4.704719066619873047e+00 1.328428030014038086e+00 -2.803633511066436768e-01
1.097000000000000000e+03 5.129664230346679688e+01 2.831783866882324219e+01 -1.621665507555007935e-01 3.802659988403320312e+00 1.092148065567016602e+00 -5.068013072013854980e-01
1.098000000000000000e+03 4.746403121948242188e+01 2.846343040466308594e+01 3.538570553064346313e-02 2.816324472427368164e+00 8.555130362510681152e-01 -6.906642317771911621e-01
1.099000000000000000e+03 4.537327575683593750e+01 2.757090950012207031e+01 1.303926557302474976e-01 2.257824420928955078e+00 7.164651155471801758e-01 -6.754243373870849609e-01
1.100000000000000000e+03 4.912438964843750000e+01 2.673033142089843750e+01 -5.647237226366996765e-02 3.331801414489746094e+00 9.825987219810485840e-01 -7.662684917449951172e-01
1.101000000000000000e+03 4.015211486816406250e+01 2.229197120666503906e+01 6.085543334484100342e-02 6.756927371025085449e-01 2.209644615650177002e-01 -2.829974591732025146e-01
1.102000000000000000e+03 3.674421310424804688e+01 2.213209342956542969e+01 -7.953247427940368652e-02 2.987172305583953857e-01 6.575542688369750977e-02 -3.133883327245712280e-02
1.103000000000000000e+03 3.494298934936523438e+01 2.546711921691894531e+01 2.011084854602813721e-01 3.755134642124176025e-01 1.729865819215774536e-01 -2.951353089883923531e-03
1.104000000000000000e+03 2.843030738830566406e+01 2.301816940307617188e+01 -1.855453997850418091e-01 -1.571038179099559784e-02 -6.037673354148864746e-02 2.822141051292419434e-01
1.105000000000000000e+03 2.340780067443847656e+01 2.430456924438476562e+01 -7.874732464551925659e-02 -9.736403077840805054e-02 -5.283340439200401306e-02 3.102878928184509277e-01
1.106000000000000000e+03 2.244329643249511719e+01 2.231882476806640625e+01 -2.036307603120803833e-01 -1.198698729276657104e-01 -9.705018997192382812e-02 3.357484638690948486e-01
1.107000000000000000e+03 1.989544486999511719e+01 2.444290161132812500e+01 -9.392344951629638672e-02 -8.497378975152969360e-02 -5.366916954517364502e-02 3.378709852695465088e-01
1.108000000000000000e+03 1.694187927246093750e+01 2.272110176086425781e+01 -1.582927554845809937e-01 -3.003219515085220337e-02 -5.649748444557189941e-02 2.856266200542449951e-01
1.109000000000000000e+03 4.862723350524902344e+00 2.478885078430175781e+01 -1.623637042939662933e-02 -1.446011364459991455e-01 -4.825124889612197876e-02 9.176635742187500000e-02
1.110000000000000000e+03 6.691079735755920410e-01 2.340995216369628906e+01 -7.834492134861648083e-04 -1.521467715501785278e-01 -4.587906599044799805e-02 1.334303058683872223e-02
1.111000000000000000e+03 7.067257690429687500e+01 2.833635520935058594e+01 -1.565432846546173096e-01 6.134197235107421875e+00 1.793296098709106445e+00 2.713169753551483154e-01
1.112000000000000000e+03 6.868278503417968750e+01 2.936026763916015625e+01 -1.460468620061874390e-01 6.051430225372314453e+00 1.771615028381347656e+00 1.928170174360275269e-01
1.113000000000000000e+03 5.049087524414062500e+01 3.312516021728515625e+01 -5.545214191079139709e-02 3.453374385833740234e+00 1.019376635551452637e+00 -3.532626628875732422e-01
1.114000000000000000e+03 4.627012634277343750e+01 3.178132247924804688e+01 1.457052081823348999e-01 2.508473396301269531e+00 7.962535619735717773e-01 -4.808252751827239990e-01
1.115000000000000000e+03 4.918736648559570312e+01 3.045793342590332031e+01 -1.127511262893676758e-02 3.284724950790405273e+00 9.820349812507629395e-01 -5.434408187866210938e-01
1.116000000000000000e+03 3.173549461364746094e+01 2.906370353698730469e+01 3.022718727588653564e-01 2.748744487762451172e-01 1.731438934803009033e-01 8.843204379081726074e-02
1.117000000000000000e+03 2.504756355285644531e+01 2.819746589660644531e+01 1.520913094282150269e-01 -3.541167080402374268e-02 3.500388935208320618e-02 2.558920383453369141e-01
1.118000000000000000e+03 1.898332214355468750e+01 2.934944534301757812e+01 9.375510364770889282e-02 -9.699996560811996460e-02 -9.734581108205020428e-04 2.724515795707702637e-01
1.119000000000000000e+03 1.222143745422363281e+01 2.675541305541992188e+01 -2.560981363058090210e-02 -1.010154113173484802e-01 -3.798756748437881470e-02 2.174816131591796875e-01
1.120000000000000000e+03 9.023906707763671875e+00 2.973024940490722656e+01 1.702589541673660278e-02 -1.699227839708328247e-01 -4.586906358599662781e-02 1.633490920066833496e-01
1.121000000000000000e+03 6.655077934265136719e+00 2.862350845336914062e+01 3.534300252795219421e-03 -1.860905140638351440e-01 -5.476686730980873108e-02 1.332006156444549561e-01
1.122000000000000000e+03 7.055419087409973145e-01 2.764734458923339844e+01 4.663951403927057981e-04 -2.515285313129425049e-01 -7.531864196062088013e-02 1.802301965653896332e-02
1.123000000000000000e+03 4.710654449462890625e+01 3.439296722412109375e+01 1.333357542753219604e-01 2.702962875366210938e+00 8.508895635604858398e-01 -3.879631161689758301e-01
1.124000000000000000e+03 2.351735877990722656e+01 3.484122467041015625e+01 3.278008103370666504e-01 4.198433016426861286e-04 9.846619516611099243e-02 1.549613028764724731e-01
1.125000000000000000e+03 1.179975891113281250e+01 3.188723373413085938e+01 6.599118560552597046e-02 -1.707047373056411743e-01 -3.141406551003456116e-02 1.762020289897918701e-01
1.126000000000000000e+03 7.243728041648864746e-01 3.048186492919921875e+01 1.306716003455221653e-03 -3.224852383136749268e-01 -9.635356068611145020e-02 1.794477365911006927e-02
1.127000000000000000e+03 7.309328460693359375e+01 3.521522521972656250e+01 -1.124359890818595886e-01 6.183373928070068359e+00 1.821281433105468750e+00 1.564778685569763184e-01
1.128000000000000000e+03 4.777767181396484375e+01 3.743419647216796875e+01 8.565232157707214355e-02 2.902855873107910156e+00 8.965525031089782715e-01 -2.223279625177383423e-01
1.129000000000000000e+03 5.106863975524902344e+00 3.389331436157226562e+01 2.074688673019409180e-02 -2.870257496833801270e-01 -7.988365739583969116e-02 8.326312154531478882e-02
1.130000000000000000e+03 6.445109844207763672e-01 3.466728591918945312e+01 2.452185377478599548e-03 -4.113577306270599365e-01 -1.226716637611389160e-01 1.133500598371028900e-02
1.131000000000000000e+03 7.524485778808593750e+01 3.804122924804687500e+01 -7.092069834470748901e-02 6.373025417327880859e+00 1.890631437301635742e+00 8.322217315435409546e-02
1.132000000000000000e+03 7.200486755371093750e+01 3.757805252075195312e+01 -1.311558485031127930e-01 6.121605873107910156e+00 1.797134995460510254e+00 1.086182221770286560e-01
1.133000000000000000e+03 5.781010437011718750e+01 3.808493041992187500e+01 -2.120905071496963501e-01 4.641584396362304688e+00 1.328848123550415039e+00 -7.361635565757751465e-02
1.134000000000000000e+03 7.834281325340270996e-01 3.735432434082031250e+01 3.853662172332406044e-03 -4.419398903846740723e-01 -1.314258724451065063e-01 2.603806322440505028e-03
1.135000000000000000e+03 3.270913362503051758e+00 1.481941890716552734e+01 -7.777714054100215435e-04 -5.180804803967475891e-02 -1.577574573457241058e-02 1.383446343243122101e-02
1.136000000000000000e+03 3.557365894317626953e+00 1.044020938873291016e+01 3.025828860700130463e-03 -3.650943189859390259e-02 -1.004508044570684433e-02 2.061362564563751221e-02
1.137000000000000000e+03 8.369138717651367188e+00 9.883284568786621094e+00 1.716531813144683838e-02 -2.748772734776139259e-03 4.324963316321372986e-03 8.282795548439025879e-03
1.138000000000000000e+03 1.049010181427001953e+01 9.917471885681152344e+00 3.944677114486694336e-02 6.388669461011886597e-02 3.100003860890865326e-02 3.635755926370620728e-02
1.139000000000000000e+03 1.228750801086425781e+01 1.359205341339111328e+01 -2.625809051096439362e-02 4.487994685769081116e-02 5.586557090282440186e-03 3.237021714448928833e-02
1.140000000000000000e+03 5.939040184020996094e+00 9.141863822937011719e+00 1.437241770327091217e-02 -3.018414229154586792e-02 -4.743517376482486725e-03 2.877077646553516388e-02
1.141000000000000000e+03 2.236225700378417969e+01 1.024420833587646484e+01 3.735492751002311707e-02 1.108569726347923279e-01 4.446357116103172302e-02 6.327782571315765381e-02
1.142000000000000000e+03 4.583256149291992188e+01 -9.755178451538085938e+00 6.820993870496749878e-02 4.113762378692626953e+00 1.254591703414916992e+00 -1.072722911834716797e+00
1.143000000000000000e+03 4.405187225341796875e+01 -1.079767036437988281e+01 -9.060346484184265137e-01 4.522979259490966797e+00 1.085083365440368652e+00 8.845854997634887695e-01
1.144000000000000000e+03 4.260592269897460938e+01 -1.466710662841796875e+01 7.435134053230285645e-01 4.267810344696044922e+00 1.503397107124328613e+00 1.082406401634216309e+00
1.145000000000000000e+03 4.286507034301757812e+01 -1.371663570404052734e+01 -1.589203178882598877e-01 4.597061157226562500e+00 1.331442356109619141e+00 1.205548644065856934e+00
1.146000000000000000e+03 4.184421920776367188e+01 -1.135181713104248047e+01 -9.776954650878906250e-01 4.191756725311279297e+00 9.642183780670166016e-01 1.488375186920166016e+00
1.147000000000000000e+03 4.083276367187500000e+01 -1.227095508575439453e+01 1.177080869674682617e-01 4.895196914672851562e+00 1.503871560096740723e+00 2.394078671932220459e-01
1.148000000000000000e+03 6.189717483520507812e+01 -7.228264808654785156e+00 7.959434390068054199e-01 1.006865787506103516e+01 3.259380340576171875e+00 2.200193703174591064e-01
1.149000000000000000e+03 6.115094375610351562e+01 -1.014636230468750000e+01 6.103737354278564453e-01 8.233205795288085938e+00 2.653073787689208984e+00 4.390863478183746338e-01
1.150000000000000000e+03 4.933089065551757812e+01 9.115489006042480469e+00 3.485872149467468262e-01 1.162496328353881836e+00 4.533250629901885986e-01 6.753203868865966797e-01
1.151000000000000000e+03 4.697389984130859375e+01 5.446840763092041016e+00 8.266652822494506836e-01 4.632790386676788330e-01 3.869833052158355713e-01 5.737577080726623535e-01
1.152000000000000000e+03 4.427553176879882812e+01 2.552959203720092773e+00 9.560790657997131348e-01 1.531003475189208984e+00 7.461247444152832031e-01 1.261840224266052246e+00
1.153000000000000000e+03 3.957839584350585938e+01 7.111043453216552734e+00 7.795255514793097973e-04 8.713721181266009808e-04 4.952693125233054161e-04 1.654461608268320560e-03
1.154000000000000000e+03 4.110165405273437500e+01 8.446082115173339844e+00 -2.500876435078680515e-04 1.647184486500918865e-03 4.191290645394474268e-04 1.077704480849206448e-03
1.155000000000000000e+03 3.974760055541992188e+01 8.924108505249023438e+00 -1.293077948503196239e-03 8.836471824906766415e-04 -1.228292385349050164e-04 -7.612594054080545902e-04
1.156000000000000000e+03 3.920945739746093750e+01 8.215932846069335938e+00 -1.908410922624170780e-03 2.271377481520175934e-03 1.088899443857371807e-04 -4.811014514416456223e-03
1.157000000000000000e+03 3.910822677612304688e+01 9.168697357177734375e+00 -1.525388448499143124e-03 1.577059039846062660e-03 1.550116212456487119e-05 -4.720505326986312866e-03
1.158000000000000000e+03 3.847309494018554688e+01 9.287780761718750000e+00 -1.926896511577069759e-03 -1.366003649309277534e-03 -9.878700366243720055e-04 -9.418685658602043986e-05
1.159000000000000000e+03 3.255775833129882812e+01 6.138532161712646484e+00 -2.385689467191696167e-01 2.272690646350383759e-02 -6.475260853767395020e-02 -7.886341214179992676e-02
1.160000000000000000e+03 2.927371597290039062e+01 3.086277246475219727e+00 -6.184854507446289062e-01 9.622510988265275955e-04 -1.852569580078125000e-01 -2.582319378852844238e-01
1.161000000000000000e+03 2.518942832946777344e+01 2.399527311325073242e+00 -4.273352921009063721e-01 -3.642878308892250061e-02 -1.391292214393615723e-01 -1.756913512945175171e-01
1.162000000000000000e+03 2.470903778076171875e+01 1.690322041511535645e+00 -2.272357642650604248e-01 -9.386841952800750732e-02 -9.633125364780426025e-02 -1.755519807338714600e-01
1.163000000000000000e+03 2.649878883361816406e+01 2.207266092300415039e+00 -4.595247805118560791e-01 -2.992545664310455322e-01 -2.276338040828704834e-01 -3.317351341247558594e-01
1.164000000000000000e+03 2.573888015747070312e+01 2.312623262405395508e+00 -5.680769681930541992e-01 -1.265528053045272827e-01 -2.083889245986938477e-01 -3.338748514652252197e-01
1.165000000000000000e+03 1.890329933166503906e+01 1.887425541877746582e+00 -1.745106093585491180e-02 -1.532941218465566635e-02 -9.834141470491886139e-03 -1.186411827802658081e-02
1.166000000000000000e+03 1.828554916381835938e+01 2.640814065933227539e+00 -7.007550913840532303e-03 -6.735275033861398697e-03 -4.122847691178321838e-03 1.155111938714981079e-02
1.167000000000000000e+03 2.112708663940429688e+01 -9.931987524032592773e-02 -8.269030600786209106e-03 -1.346453092992305756e-02 -6.520068272948265076e-03 -2.281784638762474060e-02
1.168000000000000000e+03 2.206752204895019531e+01 -1.153265833854675293e+00 1.886037550866603851e-02 -6.769058853387832642e-02 -1.464906334877014160e-02 1.441821828484535217e-02
1.169000000000000000e+03 2.375018882751464844e+01 -3.381136417388916016e+00 -5.511288717389106750e-02 -3.215402066707611084e-01 -1.129959300160408020e-01 1.914624273777008057e-01
1.170000000000000000e+03 2.053820800781250000e+01 -7.543560028076171875e+00 -1.711313873529434204e-01 -7.606808096170425415e-02 -7.415983825922012329e-02 7.109588384628295898e-02
1.171000000000000000e+03 1.758403587341308594e+01 -4.654930114746093750e+00 -2.024362608790397644e-02 1.205033622682094574e-03 -5.711577832698822021e-03 2.800352685153484344e-02
1.172000000000000000e+03 1.336848640441894531e+01 -2.052145719528198242e+00 -9.254246018826961517e-03 3.034833644051104784e-04 -2.685228595510125160e-03 3.455442143604159355e-03
1.173000000000000000e+03 1.257812786102294922e+01 -2.014596939086914062e+00 -1.072994526475667953e-02 7.969407597556710243e-04 -2.979901386424899101e-03 -6.880740402266383171e-04
1.174000000000000000e+03 1.032919788360595703e+01 -1.820784091949462891e+00 -8.251512423157691956e-03 -8.656607824377715588e-04 -2.735151909291744232e-03 -2.544368384405970573e-03
1.175000000000000000e+03 1.166455173492431641e+01 -2.684528589248657227e+00 -1.552941091358661652e-02 1.059389673173427582e-03 -4.341006278991699219e-03 -1.765565830282866955e-03
1.176000000000000000e+03 1.016909313201904297e+01 -3.027608156204223633e+00 -1.437246054410934448e-02 2.445259131491184235e-03 -3.578160423785448074e-03 -3.482118016108870506e-03
1.177000000000000000e+03 7.416296482086181641e+00 -1.911020278930664062e+00 -7.733431644737720490e-03 -2.271801466122269630e-03 -3.001570003107190132e-03 -2.028765156865119934e-03
1.178000000000000000e+03 6.798017024993896484e+00 -2.135617256164550781e+00 1.405488583259284496e-03 1.439488492906093597e-03 8.534931112080812454e-04 -9.570448310114443302e-04
1.179000000000000000e+03 1.802327752113342285e+00 -5.334483146667480469e+00 5.716177984140813351e-04 -2.260932233184576035e-03 -5.067943129688501358e-04 -2.660605590790510178e-03
1.180000000000000000e+03 1.175357222557067871e+00 -2.101754903793334961e+00 1.023680088110268116e-03 1.500205136835575104e-03 7.571655442006886005e-04 1.714833313599228859e-03
1.181000000000000000e+03 4.002128243446350098e-01 -2.186558961868286133e+00 -1.486757071688771248e-03 1.358819194138050079e-03 -3.838136035483330488e-05 1.829712418839335442e-04
1.182000000000000000e+03 4.913486480712890625e+00 -4.020882797241210938e+01 1.428243424743413925e-02 -3.336382806301116943e-01 -9.580674767494201660e-02 -2.544549480080604553e-02
1.183000000000000000e+03 7.664647102355957031e-01 -3.873361587524414062e+01 -9.251427836716175079e-03 -4.578574597835540771e-01 -1.401326656341552734e-01 7.588758599013090134e-04
1.184000000000000000e+03 8.820310831069946289e-01 -3.332009124755859375e+01 4.756696289405226707e-04 -4.226332902908325195e-01 -1.266472935676574707e-01 -1.202101446688175201e-02
1.185000000000000000e+03 9.101669192314147949e-01 -3.189201736450195312e+01 3.300697542726993561e-03 -4.014482498168945312e-01 -1.194442659616470337e-01 -1.549084018915891647e-02
1.186000000000000000e+03 8.860423564910888672e-01 -2.902821922302246094e+01 3.955825231969356537e-03 -3.480472564697265625e-01 -1.032274290919303894e-01 -1.894832402467727661e-02
1.187000000000000000e+03 9.369024038314819336e-01 -2.614290809631347656e+01 5.289438180625438690e-03 -2.888534367084503174e-01 -8.506920188665390015e-02 -1.928321458399295807e-02
1.188000000000000000e+03 2.127211332321166992e+00 -2.157973861694335938e+01 4.947048611938953400e-03 -1.750096231698989868e-01 -5.101877078413963318e-02 -4.198074340820312500e-02
1.189000000000000000e+03 1.883080720901489258e+00 -1.891231727600097656e+01 5.052566062659025192e-03 -1.300283223390579224e-01 -3.749272972345352173e-02 -3.424673527479171753e-02
1.190000000000000000e+03 1.789730787277221680e+00 -1.215237808227539062e+01 -6.756674963980913162e-03 -3.834677487611770630e-02 -1.353103481233119965e-02 -1.838547736406326294e-02
1.191000000000000000e+03 1.698412299156188965e+00 -6.703566551208496094e+00 -4.395346157252788544e-03 -4.569220356643199921e-03 -2.689369954168796539e-03 -3.119404660537838936e-03
1.192000000000000000e+03 2.160310268402099609e+00 -2.854581594467163086e+00 -1.419082982465624809e-04 2.636773861013352871e-04 3.653073144960217178e-05 8.661064784973859787e-04
1.193000000000000000e+03 7.885157775878906250e+01 3.878067398071289062e+01 -9.997115470468997955e-03 6.681592464447021484e+00 2.001478672027587891e+00 -7.477234117686748505e-03
1.194000000000000000e+03 7.749153137207031250e+01 3.774322509765625000e+01 -4.727235808968544006e-02 6.566475391387939453e+00 1.955760955810546875e+00 5.524380132555961609e-02
1.195000000000000000e+03 7.916595458984375000e+01 3.480720520019531250e+01 -3.786546410992741585e-03 6.629267692565917969e+00 1.987644433975219727e+00 3.665962070226669312e-02
1.196000000000000000e+03 7.925442504882812500e+01 2.926023292541503906e+01 -3.127724677324295044e-02 6.281529903411865234e+00 1.875075697898864746e+00 6.443660706281661987e-02
1.197000000000000000e+03 7.768682098388671875e+01 2.789388275146484375e+01 -3.641610592603683472e-02 6.170779705047607422e+00 1.840309143066406250e+00 1.896733641624450684e-01
1.198000000000000000e+03 7.765304565429687500e+01 2.504040718078613281e+01 -2.314868755638599396e-02 5.985099315643310547e+00 1.788585186004638672e+00 2.085332870483398438e-01
1.199000000000000000e+03 7.929359436035156250e+01 1.945596122741699219e+01 4.371882230043411255e-02 5.458376407623291016e+00 1.650628566741943359e+00 1.398142613470554352e-02
1.200000000000000000e+03 7.790349578857421875e+01 1.792929649353027344e+01 1.593120098114013672e-01 5.661926746368408203e+00 1.746371746063232422e+00 -9.766580909490585327e-02
1.201000000000000000e+03 7.810649871826171875e+01 1.369142150878906250e+01 -6.421318650245666504e-02 6.328241825103759766e+00 1.879208564758300781e+00 -4.836314618587493896e-01
1.202000000000000000e+03 7.941913604736328125e+01 9.688289642333984375e+00 1.246186122298240662e-01 5.713028430938720703e+00 1.751294136047363281e+00 3.427827358245849609e-01
1.203000000000000000e+03 7.735295104980468750e+01 7.795434951782226562e+00 2.064505338668823242e+00 9.959923744201660156e+00 3.607328653335571289e+00 -1.018165349960327148e+00
1.204000000000000000e+03 7.705841827392578125e+01 5.313564777374267578e+00 1.212566614151000977e+00 1.190511703491210938e+01 3.935305118560791016e+00 -2.828608989715576172e+00
1.205000000000000000e+03 7.844162750244140625e+01 3.235564947128295898e+00 -2.514248490333557129e-01 1.076139926910400391e+01 3.152992486953735352e+00 -2.112630844116210938e+00
1.206000000000000000e+03 7.931639862060546875e+01 1.285337060689926147e-01 -2.331531494855880737e-01 1.373529720306396484e+01 4.050643444061279297e+00 -2.720095030963420868e-02
1.207000000000000000e+03 7.749547576904296875e+01 -2.511444687843322754e-01 -1.109044432640075684e+00 9.958061218261718750e+00 2.654705047607421875e+00 5.041146278381347656e-01
1.208000000000000000e+03 7.933669281005859375e+01 -7.079615116119384766e+00 4.793421179056167603e-02 9.149365425109863281e+00 2.759189844131469727e+00 5.026313662528991699e-01
1.209000000000000000e+03 7.796845245361328125e+01 -8.864942550659179688e+00 2.802348136901855469e-01 8.367024421691894531e+00 2.594177722930908203e+00 9.456464648246765137e-01
1.210000000000000000e+03 7.938579559326171875e+01 -1.389865779876708984e+01 8.324655890464782715e-02 6.983958721160888672e+00 2.120161533355712891e+00 -1.783541589975357056e-01
1.211000000000000000e+03 7.934798431396484375e+01 -1.672115135192871094e+01 4.652784392237663269e-02 7.876528739929199219e+00 2.376916885375976562e+00 -2.465667426586151123e-01
1.212000000000000000e+03 7.806844329833984375e+01 -1.672421264648437500e+01 -1.520313322544097900e-01 8.210720062255859375e+00 2.417606592178344727e+00 -5.257434844970703125e-01
1.213000000000000000e+03 7.809722137451171875e+01 -2.234490776062011719e+01 -1.316935420036315918e-01 8.386633872985839844e+00 2.476482152938842773e+00 3.997174650430679321e-02
1.214000000000000000e+03 7.938156890869140625e+01 -2.647903633117675781e+01 -3.798700496554374695e-02 8.517240524291992188e+00 2.543776035308837891e+00 4.468134045600891113e-02
1.215000000000000000e+03 7.810071563720703125e+01 -2.783608818054199219e+01 -1.451281271874904633e-02 8.072383880615234375e+00 2.417361259460449219e+00 1.249296218156814575e-01
1.216000000000000000e+03 7.817524719238281250e+01 -3.047749710083007812e+01 -1.886897347867488861e-02 7.960095882415771484e+00 2.382368087768554688e+00 8.321584761142730713e-02
1.217000000000000000e+03 7.925645446777343750e+01 -3.605102539062500000e+01 2.004595659673213959e-02 7.973122119903564453e+00 2.397950410842895508e+00 2.064231224358081818e-02
1.218000000000000000e+03 7.636361694335937500e+01 -3.681651306152343750e+01 -1.663512364029884338e-02 7.479694366455078125e+00 2.238917827606201172e+00 6.617081910371780396e-02
1.219000000000000000e+03 7.864424896240234375e+01 -4.007949447631835938e+01 -3.319068625569343567e-02 7.750509738922119141e+00 2.315195798873901367e+00 6.740149110555648804e-02
1.220000000000000000e+03 3.751276731491088867e-01 2.155357122421264648e+00 1.107421703636646271e-03 2.320144558325409889e-03 1.028269878588616848e-03 -5.590607179328799248e-04
1.221000000000000000e+03 5.460838079452514648e-01 4.912451267242431641e+00 -2.187208010582253337e-04 5.190391093492507935e-04 9.009549830807372928e-05 2.032822929322719574e-03
1.222000000000000000e+03 1.762978792190551758e+00 6.211115837097167969e+00 -8.696641307324171066e-04 -8.554655127227306366e-03 -2.827295800670981407e-03 1.184109784662723541e-02
1.223000000000000000e+03 1.833755016326904297e+00 9.261631965637207031e+00 4.487074620556086302e-04 -2.920638024806976318e-02 -8.627302013337612152e-03 1.761323958635330200e-02
1.224000000000000000e+03 5.878671407699584961e-01 1.209409809112548828e+01 1.716785482130944729e-03 -4.904962331056594849e-02 -1.419985108077526093e-02 2.120435470715165138e-03
1.225000000000000000e+03 1.753194093704223633e+00 1.205723667144775391e+01 -7.620596443302929401e-04 -4.354801401495933533e-02 -1.329302228987216949e-02 9.125750511884689331e-03
1.226000000000000000e+03 6.467894911766052246e-01 1.633470726013183594e+01 -1.487281057052314281e-03 -6.601755321025848389e-02 -2.025145106017589569e-02 3.344704862684011459e-03
1.227000000000000000e+03 6.469779014587402344e-01 1.918214607238769531e+01 -1.788918627426028252e-03 -8.718502521514892578e-02 -2.669218182563781738e-02 6.861331872642040253e-03
1.228000000000000000e+03 6.609849929809570312e-01 2.200505447387695312e+01 -1.520674908533692360e-03 -1.259712129831314087e-01 -3.824756667017936707e-02 1.125560328364372253e-02
1.229000000000000000e+03 6.776023507118225098e-01 2.481655311584472656e+01 -7.737308042123913765e-04 -1.823686510324478149e-01 -5.494271218776702881e-02 1.534702256321907043e-02
1.230000000000000000e+03 6.900067329406738281e-01 2.622943687438964844e+01 -1.150715630501508713e-03 -2.159623503684997559e-01 -6.513392180204391479e-02 1.699449308216571808e-02
1.231000000000000000e+03 7.196125388145446777e-01 2.906586265563964844e+01 -8.373068994842469692e-04 -2.873553037643432617e-01 -8.645778149366378784e-02 1.805736683309078217e-02
1.232000000000000000e+03 2.172264814376831055e+00 2.905700111389160156e+01 1.182466163299977779e-03 -2.629780769348144531e-01 -7.853867858648300171e-02 5.263548344373703003e-02
1.233000000000000000e+03 6.749143004417419434e-01 3.328815841674804688e+01 -4.380783939268440008e-04 -3.838990628719329834e-01 -1.153011396527290344e-01 1.403676252812147141e-02
1.234000000000000000e+03 6.846169233322143555e-01 3.601422882080078125e+01 9.059137082658708096e-04 -4.326753318309783936e-01 -1.295308321714401245e-01 8.186791092157363892e-03
1.235000000000000000e+03 1.337101697921752930e+00 4.007093048095703125e+01 5.027564242482185364e-03 -4.462531208992004395e-01 -1.323676705360412598e-01 -1.437457278370857239e-03
1.236000000000000000e+03 4.123785018920898438e+00 1.861319422721862793e+00 -1.983091933652758598e-03 -1.815379131585359573e-03 -1.139541389420628548e-03 -3.901818417944014072e-04
1.237000000000000000e+03 4.170431613922119141e+00 2.568116903305053711e+00 1.404930138960480690e-03 -1.043531927280128002e-03 1.084194664144888520e-04 1.584690995514392853e-03
1.238000000000000000e+03 1.850155472755432129e+00 1.950365543365478516e+00 9.859302081167697906e-04 -2.833852486219257116e-04 2.107634791173040867e-04 -7.808809750713407993e-04
1.239000000000000000e+03 1.116487860679626465e+00 2.040757179260253906e+00 -4.891520948149263859e-04 5.410697194747626781e-04 1.557529139972757548e-05 -1.498920028097927570e-03
1.240000000000000000e+03 2.555280923843383789e+00 2.706816196441650391e+00 4.595357750076800585e-04 -1.033788081258535385e-03 -1.722757006064057350e-04 -3.587568644434213638e-04
1.241000000000000000e+03 5.134756565093994141e+00 4.226775646209716797e+00 -2.030565403401851654e-02 3.785833483561873436e-03 -4.955946467816829681e-03 9.497100254520773888e-04
1.242000000000000000e+03 5.596672534942626953e+00 4.872812747955322266e+00 -4.146650061011314392e-02 2.692727139219641685e-03 -1.163213234394788742e-02 1.053752750158309937e-02
1.243000000000000000e+03 6.026912212371826172e+00 5.591052055358886719e+00 -4.967226088047027588e-02 1.321181282401084900e-02 -1.093813497573137283e-02 2.726509235799312592e-02
1.244000000000000000e+03 1.024674129486083984e+01 6.766518115997314453e+00 1.749084517359733582e-02 1.958977729082107544e-01 6.401658058166503906e-02 1.946347951889038086e-02
1.245000000000000000e+03 8.376990318298339844e+00 7.779445648193359375e+00 7.275585085153579712e-02 -3.676699846982955933e-02 1.079665496945381165e-02 3.129252418875694275e-02
1.246000000000000000e+03 1.405286312103271484e+01 1.166335868835449219e+01 5.167395249009132385e-02 6.024435162544250488e-02 3.357549011707305908e-02 5.605640262365341187e-02
1.247000000000000000e+03 1.761969184875488281e+01 1.464373779296875000e+01 -1.084273084998130798e-01 2.146857790648937225e-02 -2.608761936426162720e-02 1.134306378662586212e-02
1.248000000000000000e+03 2.169988632202148438e+01 1.638334846496582031e+01 -6.192138195037841797e-01 2.107242308557033539e-02 -1.794424206018447876e-01 -1.099110841751098633e-01
1.249000000000000000e+03 1.991309547424316406e+01 9.541766166687011719e+00 5.782948061823844910e-02 5.218726396560668945e-02 3.300502523779869080e-02 5.260972678661346436e-02
1.250000000000000000e+03 1.772345161437988281e+01 7.862009525299072266e+00 3.280154988169670105e-02 3.488139435648918152e-02 2.030488289892673492e-02 5.084813013672828674e-02
1.251000000000000000e+03 1.609663391113281250e+01 6.888907432556152344e+00 1.340191960334777832e-01 3.034699708223342896e-02 4.930985718965530396e-02 4.030668362975120544e-02
1.252000000000000000e+03 1.518055057525634766e+01 6.308747768402099609e+00 4.789232462644577026e-02 5.071165412664413452e-02 2.958119288086891174e-02 1.013359501957893372e-01
1.253000000000000000e+03 1.807144737243652344e+01 6.187762737274169922e+00 -8.471851795911788940e-02 -3.656517714262008667e-02 -3.638510778546333313e-02 -3.823743388056755066e-02
1.254000000000000000e+03 1.660033035278320312e+01 6.247000217437744141e+00 -8.994395285844802856e-02 -2.095141448080539703e-02 -3.326860815286636353e-02 -5.255834385752677917e-02
1.255000000000000000e+03 1.581720829010009766e+01 6.253249168395996094e+00 4.120576009154319763e-02 7.719395216554403305e-03 1.467754691839218140e-02 6.345086544752120972e-02
1.256000000000000000e+03 1.848836708068847656e+01 7.347810268402099609e+00 2.959988825023174286e-02 1.391311991028487682e-03 9.297359734773635864e-03 1.077863294631242752e-02
1.257000000000000000e+03 2.049422645568847656e+01 6.053802967071533203e+00 -1.252060383558273315e-01 2.152599953114986420e-02 -3.110401332378387451e-02 -4.401814192533493042e-02
1.258000000000000000e+03 2.121579170227050781e+01 5.915682315826416016e+00 -1.263289600610733032e-01 1.897778920829296112e-02 -3.220535069704055786e-02 -6.048069149255752563e-02
1.259000000000000000e+03 2.273657989501953125e+01 5.786478996276855469e+00 -1.093092411756515503e-01 6.994831375777721405e-03 -3.069432266056537628e-02 -6.746268272399902344e-02
1.260000000000000000e+03 2.395848274230957031e+01 5.890224933624267578e+00 -9.057305008172988892e-02 -1.012343093752861023e-01 -5.754220858216285706e-02 -9.239507466554641724e-02
1.261000000000000000e+03 2.564079093933105469e+01 8.384914398193359375e+00 -1.756733208894729614e-01 -1.381891667842864990e-01 -9.415874630212783813e-02 -1.690070480108261108e-01
1.262000000000000000e+03 2.997382164001464844e+01 1.223662090301513672e+01 -3.215445578098297119e-01 -1.319984644651412964e-01 -1.360629051923751831e-01 -1.685770601034164429e-01
1.263000000000000000e+03 3.220833587646484375e+01 1.408395290374755859e+01 -1.172241091728210449e+00 -1.542262583971023560e-01 -3.979402184486389160e-01 -1.972060054540634155e-01
1.264000000000000000e+03 3.640581130981445312e+01 1.334823799133300781e+01 -1.127166986465454102e+00 -6.323306560516357422e-01 -5.278493165969848633e-01 7.350077629089355469e-01
1.265000000000000000e+03 3.775558090209960938e+01 1.317887210845947266e+01 -9.838269352912902832e-01 4.571309313178062439e-02 -2.814341485500335693e-01 4.115779697895050049e-01
1.266000000000000000e+03 3.997228240966796875e+01 1.284365367889404297e+01 -8.218130469322204590e-01 1.965964883565902710e-01 -1.875649690628051758e-01 1.395218670368194580e-01
1.267000000000000000e+03 4.076189422607421875e+01 1.268241977691650391e+01 -8.092322945594787598e-01 1.751060187816619873e-01 -1.902378797531127930e-01 3.363757207989692688e-02
1.268000000000000000e+03 4.237444305419921875e+01 1.230240345001220703e+01 -7.737237811088562012e-01 1.754897236824035645e-01 -1.794702112674713135e-01 -1.608085185289382935e-01
1.269000000000000000e+03 4.310609436035156250e+01 1.208709907531738281e+01 -7.289698123931884766e-01 1.175920218229293823e-01 -1.834133416414260864e-01 -2.264852374792098999e-01
1.270000000000000000e+03 4.530326461791992188e+01 1.345949363708496094e+01 -1.154611110687255859e+00 -4.529886841773986816e-01 -4.822799563407897949e-01 -6.979885697364807129e-01
1.271000000000000000e+03 5.242120361328125000e+01 1.299582958221435547e+01 -1.939417719841003418e-01 1.810619163513183594e+01 5.373674869537353516e+00 -2.218087911605834961e+00
1.272000000000000000e+03 5.219889450073242188e+01 1.304293918609619141e+01 9.424742311239242554e-02 1.663916969299316406e+01 5.020025253295898438e+00 -3.358608245849609375e+00
1.273000000000000000e+03 5.335994338989257812e+01 1.006765174865722656e+01 2.412567615509033203e+00 1.922697639465332031e+01 6.491863250732421875e+00 -1.504846096038818359e+00
1.274000000000000000e+03 5.372315979003906250e+01 1.065530776977539062e+01 6.640312194824218750e+00 1.592163658142089844e+01 6.768584728240966797e+00 -8.938593864440917969e-01
1.275000000000000000e+03 5.382565307617187500e+01 1.109166240692138672e+01 8.454846382141113281e+00 1.441499900817871094e+01 6.860953807830810547e+00 9.943500757217407227e-01
1.276000000000000000e+03 5.378077697753906250e+01 1.175480747222900391e+01 8.059289932250976562e+00 1.458769416809082031e+01 6.794095516204833984e+00 3.952372312545776367e+00
1.277000000000000000e+03 5.383388900756835938e+01 1.154151439666748047e+01 8.722849845886230469e+00 1.432142734527587891e+01 6.913283348083496094e+00 3.082073926925659180e+00
1.278000000000000000e+03 5.314511108398437500e+01 1.257455539703369141e+01 2.555135011672973633e+00 1.951369857788085938e+01 6.620649814605712891e+00 3.524772644042968750e+00
1.279000000000000000e+03 4.996992492675781250e+01 9.759217262268066406e+00 1.104405403137207031e+00 1.669258713722229004e+00 8.320992588996887207e-01 1.393477916717529297e+00
1.280000000000000000e+03 6.510290527343750000e+01 8.448174476623535156e+00 1.410219550132751465e+00 1.164101219177246094e+01 3.915369510650634766e+00 3.009627342224121094e+00
1.281000000000000000e+03 6.358361434936523438e+01 6.380761623382568359e+00 4.791336357593536377e-01 3.035092830657958984e+00 1.054267883300781250e+00 1.097063779830932617e+00
1.282000000000000000e+03 6.097113800048828125e+01 3.233679533004760742e+00 -2.439267873764038086e+00 4.885734245181083679e-02 -7.171231508255004883e-01 -9.212837815284729004e-01
1.283000000000000000e+03 5.854308319091796875e+01 2.158563584089279175e-01 -2.528955936431884766e+00 4.187807142734527588e-01 -6.330525875091552734e-01 -1.391194939613342285e+00
1.284000000000000000e+03 5.541014480590820312e+01 7.188200473785400391e+00 2.767097651958465576e-01 8.135004997253417969e+00 2.523514270782470703e+00 2.539469957351684570e+00
1.285000000000000000e+03 5.605987930297851562e+01 8.208731651306152344e+00 -7.113580703735351562e-01 2.553434848785400391e+00 5.526230335235595703e-01 -3.837276250123977661e-02
1.286000000000000000e+03 5.724451065063476562e+01 1.132367038726806641e+01 1.875184774398803711e+00 1.181215882301330566e+00 9.169201850891113281e-01 1.353824615478515625e+00
1.287000000000000000e+03 3.779041290283203125e+01 -6.345200061798095703e+00 -3.710310459136962891e-01 -1.865345597267150879e+00 -6.709129810333251953e-01 1.034059762954711914e+00
1.288000000000000000e+03 3.978676605224609375e+01 -9.886758804321289062e+00 -5.285329222679138184e-01 8.513898937962949276e-04 -1.583044528961181641e-01 9.076575636863708496e-01
1.289000000000000000e+03 3.577426910400390625e+01 -1.360555076599121094e+01 -7.389277815818786621e-01 -4.456027746200561523e-01 -3.553591668605804443e-01 4.744118452072143555e-01
1.290000000000000000e+03 3.318678665161132812e+01 -1.041407585144042969e+01 -2.243871390819549561e-01 -1.741569042205810547e-01 -1.195632070302963257e-01 2.258737683296203613e-01
1.291000000000000000e+03 3.175664520263671875e+01 -8.012532234191894531e+00 -4.563358053565025330e-02 1.496541351079940796e-01 3.120616823434829712e-02 3.717520274221897125e-03
1.292000000000000000e+03 3.022129631042480469e+01 -4.029154777526855469e+00 9.986229240894317627e-02 8.093602657318115234e-01 2.727667689323425293e-01 -4.544981569051742554e-02
1.293000000000000000e+03 4.800128555297851562e+01 -3.177713155746459961e+00 -6.062871932983398438e+00 -9.869309067726135254e-01 -2.114940881729125977e+00 2.163625717163085938e+00
1.294000000000000000e+03 5.412043380737304688e+01 -9.074309349060058594e+00 9.899321794509887695e-01 5.061325550079345703e+00 1.815377354621887207e+00 -2.140747785568237305e+00
1.295000000000000000e+03 5.619190597534179688e+01 -1.588545703887939453e+01 5.095744505524635315e-02 1.289998435974121094e+01 3.885282754898071289e+00 -5.293867588043212891e-01
1.296000000000000000e+03 5.100240325927734375e+01 -1.664560317993164062e+01 -1.660336852073669434e+00 -1.021078228950500488e+00 -8.044245243072509766e-01 9.757539629936218262e-01
1.297000000000000000e+03 4.901914978027343750e+01 -1.453754043579101562e+01 -9.632031321525573730e-01 -5.404441356658935547e-01 -4.510941803455352783e-01 5.361332297325134277e-01
1.298000000000000000e+03 4.646644973754882812e+01 -1.099298858642578125e+01 1.612676978111267090e-01 2.177709579467773438e+00 7.016931772232055664e-01 -3.538478016853332520e-01
1.299000000000000000e+03 4.433988571166992188e+01 -5.895129203796386719e+00 1.278991222381591797e+00 1.128219795227050781e+01 3.768356800079345703e+00 3.649389147758483887e-01
1.300000000000000000e+03 6.995738983154296875e+01 -6.408609390258789062e+00 9.946943521499633789e-01 3.068238973617553711e+00 1.218880057334899902e+00 -1.913026928901672363e+00
1.301000000000000000e+03 7.082947540283203125e+01 -7.482125282287597656e+00 1.795538187026977539e+00 5.465267181396484375e+00 2.178241729736328125e+00 -2.869310617446899414e+00
1.302000000000000000e+03 6.416622924804687500e+01 -1.230558204650878906e+01 3.880453705787658691e-01 5.043563365936279297e+00 1.629482626914978027e+00 -1.238934874534606934e+00
1.303000000000000000e+03 6.413275146484375000e+01 -1.086035442352294922e+01 7.606621384620666504e-01 6.056313037872314453e+00 2.045092582702636719e+00 -1.922075986862182617e+00
1.304000000000000000e+03 6.339416503906250000e+01 -8.270798683166503906e+00 5.233752131462097168e-01 1.075995635986328125e+01 3.384999513626098633e+00 -1.446626067161560059e+00
1.305000000000000000e+03 6.984678649902343750e+01 7.100219726562500000e+00 -7.002452611923217773e-01 6.852706432342529297e+00 1.845738291740417480e+00 3.961210548877716064e-01
1.306000000000000000e+03 5.319437026977539062e+01 9.917157173156738281e+00 7.507895231246948242e-01 2.037880134582519531e+01 6.338877677917480469e+00 -8.286764025688171387e-01
1.307000000000000000e+03 5.239343643188476562e+01 9.200432777404785156e+00 -1.947000622749328613e+00 1.842552566528320312e+01 4.943557262420654297e+00 2.793873548507690430e+00
1.308000000000000000e+03 5.368812179565429688e+01 1.195334148406982422e+01 7.251718521118164062e+00 1.534825992584228516e+01 6.779993534088134766e+00 4.384693145751953125e+00
1.309000000000000000e+03 5.363730239868164062e+01 1.044482231140136719e+01 5.228085994720458984e+00 1.680201339721679688e+01 6.609030246734619141e+00 -1.281540513038635254e+00
1.310000000000000000e+03 5.352716445922851562e+01 1.023061084747314453e+01 3.689088344573974609e+00 1.829316329956054688e+01 6.594675540924072266e+00 -1.705499768257141113e+00
1.311000000000000000e+03 5.357287216186523438e+01 1.213803863525390625e+01 6.251768112182617188e+00 1.641217803955078125e+01 6.799183845520019531e+00 4.805771827697753906e+00
1.312000000000000000e+03 5.473819732666015625e+01 9.921334266662597656e+00 1.531864047050476074e+00 1.100596237182617188e+01 3.761348009109497070e+00 -8.463818579912185669e-02
1.313000000000000000e+03 5.330054855346679688e+01 1.245579338073730469e+01 3.597373247146606445e+00 1.865993499755859375e+01 6.677192211151123047e+00 4.033767700195312500e+00
1.314000000000000000e+03 5.265093994140625000e+01 9.267545700073242188e+00 -1.955697059631347656e+00 1.926331520080566406e+01 5.192285537719726562e+00 1.961698532104492188e+00
1.315000000000000000e+03 5.285300827026367188e+01 1.284038734436035156e+01 6.713075041770935059e-01 1.908234405517578125e+01 5.926095485687255859e+00 1.043586850166320801e+00
1.316000000000000000e+03 5.384405136108398438e+01 1.131754016876220703e+01 8.727478027343750000e+00 1.408642196655273438e+01 6.844170093536376953e+00 2.066375017166137695e+00
1.317000000000000000e+03 5.234556579589843750e+01 9.608519554138183594e+00 -1.321716427803039551e+00 2.012505340576171875e+01 5.641001224517822266e+00 3.498340368270874023e+00
1.318000000000000000e+03 5.301537704467773438e+01 1.271022033691406250e+01 1.376370906829833984e+00 1.937172889709472656e+01 6.224429607391357422e+00 2.258615493774414062e+00
1.319000000000000000e+03 5.485169982910156250e+01 8.847639083862304688e+00 -1.132739543914794922e+00 1.168077754974365234e+01 3.164411544799804688e+00 6.139966100454330444e-02
1.320000000000000000e+03 5.301431655883789062e+01 9.778294563293457031e+00 -1.545110046863555908e-01 2.069557952880859375e+01 6.162320613861083984e+00 -1.166997328400611877e-01
1.321000000000000000e+03 5.213363647460937500e+01 9.599340438842773438e+00 -1.018957376480102539e+00 1.874047660827636719e+01 5.316455841064453125e+00 4.462749004364013672e+00
1.322000000000000000e+03 5.071902465820312500e+01 1.298133373260498047e+01 7.514659166336059570e-01 5.360265254974365234e+00 1.833519339561462402e+00 -3.636804103851318359e+00
1.323000000000000000e+03 5.049345016479492188e+01 9.615488052368164062e+00 1.521204948425292969e+00 4.024909973144531250e+00 1.663834571838378906e+00 3.144170284271240234e+00
1.324000000000000000e+03 5.088113403320312500e+01 9.741834640502929688e+00 1.671907305717468262e+00 6.344685554504394531e+00 2.404977798461914062e+00 4.153224468231201172e+00
1.325000000000000000e+03 5.089693450927734375e+01 1.304088497161865234e+01 1.817288637161254883e+00 7.042088508605957031e+00 2.657813072204589844e+00 -4.746482372283935547e+00
1.326000000000000000e+03 4.968780517578125000e+01 8.618553161621093750e+00 6.752753853797912598e-01 3.128940820693969727e+00 1.141264915466308594e+00 1.659248828887939453e+00
1.327000000000000000e+03 5.123554611206054688e+01 9.216504096984863281e+00 3.024968206882476807e-01 1.057084465026855469e+01 3.262002468109130859e+00 4.979659557342529297e+00
1.328000000000000000e+03 5.195866394042968750e+01 1.308952808380126953e+01 3.810568749904632568e-01 1.458604240417480469e+01 4.490129470825195312e+00 -4.414034843444824219e+00
1.329000000000000000e+03 5.116204452514648438e+01 1.330937480926513672e+01 1.027311086654663086e+00 8.822786331176757812e+00 2.955029249191284180e+00 -5.273946285247802734e+00
1.330000000000000000e+03 5.014452362060546875e+01 9.482305526733398438e+00 1.098792791366577148e+00 2.967104911804199219e+00 1.219769239425659180e+00 2.317017793655395508e+00
1.331000000000000000e+03 5.107283020019531250e+01 9.672819137573242188e+00 1.680091977119445801e+00 7.856056690216064453e+00 2.860844612121582031e+00 5.170700073242187500e+00
1.332000000000000000e+03 5.129193878173828125e+01 9.643602371215820312e+00 1.276251435279846191e+00 1.017904090881347656e+01 3.436587810516357422e+00 5.604252815246582031e+00
1.333000000000000000e+03 4.976570510864257812e+01 9.659813880920410156e+00 7.077063918113708496e-01 7.865979075431823730e-01 4.482912719249725342e-01 1.034717917442321777e+00
1.334000000000000000e+03 5.052988815307617188e+01 9.804913520812988281e+00 2.147295236587524414e+00 3.689479589462280273e+00 1.751032471656799316e+00 3.314049959182739258e+00
1.335000000000000000e+03 2.215430641174316406e+01 6.659008979797363281e+00 -1.172000318765640259e-01 2.267781458795070648e-02 -2.835666574537754059e-02 -6.662245839834213257e-02
1.336000000000000000e+03 2.223634147644042969e+01 5.786843776702880859e+00 -1.165745183825492859e-01 1.588114351034164429e-02 -3.020801208913326263e-02 -6.282544881105422974e-02
1.337000000000000000e+03 2.304078674316406250e+01 6.578965187072753906e+00 -1.221763715147972107e-01 9.433102793991565704e-03 -3.382297977805137634e-02 -7.763613760471343994e-02
1.338000000000000000e+03 2.212718772888183594e+01 6.244153022766113281e+00 -1.159291863441467285e-01 2.192933857440948486e-02 -2.819995582103729248e-02 -6.555220484733581543e-02
1.339000000000000000e+03 2.339129257202148438e+01 8.951421976089477539e-01 -5.680771544575691223e-02 -1.169218569993972778e-01 -5.211887136101722717e-02 -9.794974327087402344e-02
1.340000000000000000e+03 2.169974517822265625e+01 2.045121431350708008e+00 -1.063582673668861389e-02 -5.009614862501621246e-03 -4.693632479757070541e-03 -3.817620745394378901e-04
1.341000000000000000e+03 3.632370758056640625e+01 1.446890926361083984e+01 -1.530704259872436523e+00 -1.835008710622787476e-01 -5.142615437507629395e-01 1.709673404693603516e-01
1.342000000000000000e+03 3.785278320312500000e+01 1.393380260467529297e+01 -1.168087482452392578e+00 1.398193985223770142e-01 -3.084804415702819824e-01 3.033002614974975586e-01
1.343000000000000000e+03 3.918540191650390625e+01 1.298475074768066406e+01 -8.570069074630737305e-01 1.247958391904830933e-01 -2.196633219718933105e-01 2.523027658462524414e-01
1.344000000000000000e+03 2.536246681213378906e+01 -2.071737766265869141e+00 2.228120118379592896e-01 -2.631734907627105713e-01 -1.210844516754150391e-02 -2.599386870861053467e-02
1.345000000000000000e+03 2.402078056335449219e+01 8.324525952339172363e-01 -4.783714562654495239e-02 -1.197815015912055969e-01 -5.028559640049934387e-02 -1.398488432168960571e-01
1.346000000000000000e+03 7.672156810760498047e+00 -2.693893909454345703e+00 -1.403665170073509216e-03 3.876915143337100744e-04 -3.047920763492584229e-04 -6.973447161726653576e-04
1.347000000000000000e+03 6.209846496582031250e+00 -2.451502323150634766e+00 -9.621683508157730103e-03 -1.322409952990710735e-04 -2.926177345216274261e-03 -1.965290401130914688e-03
1.348000000000000000e+03 2.623651504516601562e+00 -1.890966415405273438e+00 1.688967575319111347e-03 -2.746733662206679583e-04 4.242882714606821537e-04 1.022308832034468651e-03
1.349000000000000000e+03 3.464275360107421875e+00 -2.434060573577880859e+00 1.270937034860253334e-03 -1.094516948796808720e-03 5.292599234962835908e-05 1.562959863804280758e-03
1.350000000000000000e+03 3.297538995742797852e+00 -1.819214820861816406e+00 -1.088964520022273064e-03 -9.209149284288287163e-04 -6.029638461768627167e-04 -4.185196303296834230e-04
1.351000000000000000e+03 5.382481813430786133e-01 -3.600725889205932617e+00 1.851936103776097298e-03 2.270294120535254478e-03 1.236669020727276802e-03 4.128394648432731628e-04
1.352000000000000000e+03 1.887311553955078125e+01 2.346564769744873047e+00 1.319354120641946793e-02 -2.909010974690318108e-03 3.085359232500195503e-03 1.152636390179395676e-02
1.353000000000000000e+03 1.874749064445495605e+00 2.799132108688354492e+00 -3.194449236616492271e-03 -6.860204157419502735e-04 -1.164140878245234489e-03 -1.383787021040916443e-03
1.354000000000000000e+03 3.308063268661499023e+00 2.619579792022705078e+00 -3.934991080313920975e-03 -3.310880390927195549e-03 -2.173761371523141861e-03 -1.169964321888983250e-03
1.355000000000000000e+03 1.780172944068908691e+00 3.638543367385864258e+00 7.724846946075558662e-04 -1.541914301924407482e-03 -2.308288967469707131e-04 1.940200920216739178e-03
1.356000000000000000e+03 1.401136493682861328e+01 -3.085373401641845703e+00 -1.774845831096172333e-02 1.722117187455296516e-03 -4.807902500033378601e-03 5.804058164358139038e-03
1.357000000000000000e+03 9.589677810668945312e+00 -1.797887682914733887e+00 -4.253678489476442337e-03 2.275012666359543800e-03 -5.935998051427304745e-04 1.231947098858654499e-03
1.358000000000000000e+03 1.095410919189453125e+01 -2.545798778533935547e+00 -1.244492549449205399e-02 1.412410405464470387e-03 -3.309754421934485435e-03 -8.173592505045235157e-04
1.359000000000000000e+03 1.106980037689208984e+01 -1.878233313560485840e+00 -7.912755943834781647e-03 1.467418391257524490e-03 -1.933601219207048416e-03 3.218062338419258595e-04
1.360000000000000000e+03 1.982512664794921875e+01 6.756291866302490234e+00 -8.923009037971496582e-02 2.527285367250442505e-02 -1.918717101216316223e-02 -2.480214275419712067e-02
1.361000000000000000e+03 1.776214027404785156e+01 6.705986976623535156e+00 -5.861960351467132568e-02 -5.469973548315465450e-04 -1.774998009204864502e-02 -2.272579818964004517e-02
1.362000000000000000e+03 1.945828819274902344e+01 8.023935317993164062e+00 -7.167222909629344940e-03 5.230034887790679932e-02 1.353993825614452362e-02 2.565323002636432648e-02
1.363000000000000000e+03 2.147587013244628906e+01 6.753504753112792969e+00 -1.086425036191940308e-01 3.105748258531093597e-02 -2.327550575137138367e-02 -5.479973927140235901e-02
1.364000000000000000e+03 8.942274093627929688e+00 -2.446286678314208984e+00 -5.106016993522644043e-03 1.321239164099097252e-03 -1.135433325543999672e-03 -3.276079587521962821e-05
1.365000000000000000e+03 7.102405071258544922e+00 -2.882749557495117188e+00 -1.450993772596120834e-02 -5.828180583193898201e-04 -4.527826793491840363e-03 -5.355154164135456085e-03
1.366000000000000000e+03 8.289043426513671875e+00 -2.549085855484008789e+00 -1.245464384555816650e-02 -1.533111208118498325e-03 -4.196326714009046555e-03 -4.778355825692415237e-03
1.367000000000000000e+03 4.018334197998046875e+01 1.376568031311035156e+01 -9.263070821762084961e-01 2.659095227718353271e-01 -1.981192678213119507e-01 1.058562025427818298e-01
1.368000000000000000e+03 4.176955413818359375e+01 1.347645568847656250e+01 -9.142227768898010254e-01 2.835329473018646240e-01 -1.892069429159164429e-01 -6.536749750375747681e-02
1.369000000000000000e+03 4.160316467285156250e+01 1.254198455810546875e+01 -8.163703083992004395e-01 2.559197247028350830e-01 -1.681351810693740845e-01 -5.849648639559745789e-02
1.370000000000000000e+03 4.098098373413085938e+01 1.358532524108886719e+01 -9.279558658599853516e-01 3.511360585689544678e-01 -1.730459481477737427e-01 3.349221125245094299e-02
1.371000000000000000e+03 4.305867004394531250e+01 1.286104583740234375e+01 -8.769218921661376953e-01 1.742876619100570679e-01 -2.107902765274047852e-01 -1.943313926458358765e-01
1.372000000000000000e+03 4.103567504882812500e+01 1.499831390380859375e+01 -9.634608030319213867e-01 4.140853881835937500e-01 -1.648126244544982910e-01 4.610053077340126038e-02
1.373000000000000000e+03 1.418443298339843750e+01 -2.061280727386474609e+00 -9.346315637230873108e-03 -3.821431309916079044e-04 -2.918537706136703491e-03 -1.115259132348001003e-03
1.374000000000000000e+03 1.452739524841308594e+01 -4.341971874237060547e+00 -3.546049445867538452e-02 9.236146695911884308e-03 -7.867304608225822449e-03 1.071341149508953094e-02
1.375000000000000000e+03 1.241610240936279297e+01 -2.824203491210937500e+00 -1.572244986891746521e-02 2.754290588200092316e-03 -3.890447551384568214e-03 2.404495142400264740e-03
1.376000000000000000e+03 1.700505638122558594e+01 7.012207508087158203e+00 1.150947064161300659e-01 4.004671797156333923e-02 4.654242843389511108e-02 3.812823072075843811e-02
1.377000000000000000e+03 7.590766429901123047e+00 6.766915798187255859e+00 -2.770487219095230103e-02 -3.041670843958854675e-02 -1.743647456169128418e-02 6.684131175279617310e-02
1.378000000000000000e+03 3.758305311203002930e+00 5.749586105346679688e+00 -2.320483326911926270e-02 1.687961281277239323e-03 -6.455061491578817368e-03 2.073888666927814484e-02
1.379000000000000000e+03 4.128872394561767578e+00 4.412077426910400391e+00 -1.475614216178655624e-02 -5.461166729219257832e-04 -4.590677563101053238e-03 4.151633009314537048e-03
1.380000000000000000e+03 6.804485797882080078e+00 6.943410396575927734e+00 -9.300764650106430054e-03 -2.993117645382881165e-02 -1.176958251744508743e-02 6.144548207521438599e-02
1.381000000000000000e+03 5.290856838226318359e+00 7.068492412567138672e+00 -1.098982244729995728e-02 -1.285373978316783905e-02 -7.153068669140338898e-03 4.427473619580268860e-02
1.382000000000000000e+03 1.636272192001342773e+00 4.789944171905517578e+00 -6.526103243231773376e-03 -1.934991683810949326e-03 -2.538328524678945541e-03 2.607313217595219612e-03
1.383000000000000000e+03 3.982861995697021484e+00 3.370471954345703125e+00 -7.244382984936237335e-03 -2.217764267697930336e-03 -2.838644199073314667e-03 -1.234152354300022125e-03
1.384000000000000000e+03 6.309713745117187500e+01 -2.837432861328125000e+00 9.427152872085571289e-01 1.107784748077392578e+01 3.606168746948242188e+00 1.795291781425476074e+00
1.385000000000000000e+03 2.731463432312011719e+01 -9.119383811950683594e+00 -2.406328916549682617e-01 1.163808181881904602e-01 -3.727562353014945984e-02 1.886545419692993164e-01
1.386000000000000000e+03 6.518200683593750000e+01 1.450298786163330078e+01 2.320050001144409180e+00 9.209678649902343750e+00 3.458918571472167969e+00 -3.106782197952270508e+00
1.387000000000000000e+03 6.664744567871093750e+01 -1.685810470581054688e+01 -3.599718809127807617e-01 2.777184247970581055e+00 7.251636981964111328e-01 -1.331919431686401367e+00
1.388000000000000000e+03 7.056600189208984375e+01 -1.704140281677246094e+01 -1.005663156509399414e+00 2.939855575561523438e+00 5.802577137947082520e-01 2.166151285171508789e+00
1.389000000000000000e+03 3.988920974731445312e+01 7.887278556823730469e+00 -4.155463073402643204e-03 2.337657148018479347e-03 -5.453418125398457050e-04 -8.707038359716534615e-04
1.390000000000000000e+03 4.530526733398437500e+01 -2.417958736419677734e+00 2.214061766862869263e-01 6.075659751892089844e+00 1.889119744300842285e+00 4.225428581237792969e+00
1.391000000000000000e+03 4.344108200073242188e+01 -2.770571470260620117e+00 3.430497348308563232e-01 4.914990425109863281e+00 1.577412128448486328e+00 -9.964863955974578857e-02
1.392000000000000000e+03 5.566139602661132812e+01 9.219817519187927246e-01 1.093637347221374512e-01 3.825371980667114258e+00 1.180420637130737305e+00 -5.654660701751708984e+00
1.393000000000000000e+03 5.462744522094726562e+01 1.574901819229125977e+00 5.875876426696777344e+00 1.788351440429687500e+01 7.127817630767822266e+00 -6.897913455963134766e+00
1.394000000000000000e+03 5.397048568725585938e+01 4.853512644767761230e-01 -2.205121994018554688e+00 1.299623966217041016e+01 3.237335205078125000e+00 -1.801219463348388672e+00
1.395000000000000000e+03 7.111139678955078125e+01 1.293537259101867676e+00 1.411628484725952148e+00 5.742190361022949219e+00 2.146145582199096680e+00 -3.513012409210205078e+00
1.396000000000000000e+03 2.753099822998046875e+01 4.154896736145019531e-01 3.694686591625213623e-01 -1.675515472888946533e-01 6.057513505220413208e-02 -1.949916779994964600e-01
1.397000000000000000e+03 6.184581756591796875e+01 1.563615608215332031e+01 2.684359073638916016e+00 1.713589191436767578e+00 1.319384455680847168e+00 -6.194089651107788086e-01
1.398000000000000000e+03 7.229975891113281250e+01 1.165656757354736328e+01 2.570666074752807617e+00 2.339683055877685547e+00 1.473104715347290039e+00 -1.235689163208007812e+00
1.399000000000000000e+03 7.332550811767578125e+01 9.862433433532714844e+00 -1.212698221206665039e+00 1.317669391632080078e+00 3.149137645959854126e-02 -2.622816085815429688e+00
1.400000000000000000e+03 6.758436584472656250e+01 3.515574455261230469e+00 2.903078556060791016e+00 8.159001350402832031e+00 3.318624019622802734e+00 -1.042904138565063477e+00
1.401000000000000000e+03 7.825766754150390625e+01 1.911940336227416992e+00 -7.860667705535888672e-01 1.124688625335693359e+01 3.138245820999145508e+00 -1.718140721321105957e+00
1.402000000000000000e+03 5.299154281616210938e+01 3.978964328765869141e+00 4.366911411285400391e+00 1.527816104888916016e+01 5.893521785736083984e+00 -7.671594619750976562e-01
1.403000000000000000e+03 3.953933715820312500e+01 -2.106399297714233398e+00 3.526809513568878174e-01 -1.255050152540206909e-01 6.815277785062789917e-02 -8.670441508293151855e-01
1.404000000000000000e+03 4.097949600219726562e+01 6.918065249919891357e-03 -1.842970132827758789e+00 -3.508127927780151367e-01 -6.581348776817321777e-01 -6.788808703422546387e-01
1.405000000000000000e+03 6.067756652832031250e+01 -9.910936355590820312e-01 -2.112828254699707031e+00 4.376643180847167969e+00 6.791445016860961914e-01 6.812472641468048096e-02
1.406000000000000000e+03 5.780332565307617188e+01 -6.527078151702880859e-01 -1.412175536155700684e+00 8.828590512275695801e-01 -1.587949544191360474e-01 -3.336670875549316406e+00
1.407000000000000000e+03 7.503816986083984375e+01 8.816736221313476562e+00 2.482849836349487305e+00 8.154788017272949219e+00 3.191291332244873047e+00 -4.769958972930908203e+00
1.408000000000000000e+03 7.706072235107421875e+01 1.080832767486572266e+01 -7.483723163604736328e-01 8.176877975463867188e+00 2.228551626205444336e+00 -2.551406919956207275e-01
1.409000000000000000e+03 7.533551025390625000e+01 6.096194386482238770e-01 -3.989273309707641602e+00 5.963462352752685547e+00 5.922566056251525879e-01 8.306925892829895020e-01
1.410000000000000000e+03 7.394967651367187500e+01 1.108744621276855469e+00 -6.368766307830810547e+00 -1.255185842514038086e+00 -2.287185668945312500e+00 -2.369547367095947266e+00
1.411000000000000000e+03 5.802565765380859375e+01 1.359834575653076172e+01 2.070958852767944336e+00 2.334453344345092773e+00 1.321623682975769043e+00 2.496311426162719727e+00
1.412000000000000000e+03 5.322576522827148438e+01 6.627588272094726562e+00 -1.456615567207336426e+00 1.624968338012695312e+01 4.437920093536376953e+00 2.143056839704513550e-01
1.413000000000000000e+03 5.466013717651367188e+01 7.510271549224853516e+00 -1.853636622428894043e+00 1.310489368438720703e+01 3.375377178192138672e+00 8.134512901306152344e-01
1.414000000000000000e+03 5.926146697998046875e+01 1.361437320709228516e+01 1.335656166076660156e+00 8.695674538612365723e-01 6.615670919418334961e-01 1.267691135406494141e+00
1.415000000000000000e+03 6.180648422241210938e+01 2.189184188842773438e+00 -3.065900087356567383e+00 2.695703506469726562e+00 -1.110590100288391113e-01 9.267354011535644531e-01
1.416000000000000000e+03 6.452825927734375000e+01 5.644220829010009766e+00 2.793304324150085449e-01 5.260273456573486328e+00 1.661881208419799805e+00 8.736099600791931152e-01
1.417000000000000000e+03 6.067279434204101562e+01 1.505066299438476562e+01 1.973798871040344238e+00 1.160013914108276367e+00 9.401438236236572266e-01 8.220176696777343750e-01
1.418000000000000000e+03 5.664270782470703125e+01 1.045062923431396484e+01 1.353691816329956055e+00 2.536101818084716797e+00 1.166938066482543945e+00 8.448621034622192383e-01
1.419000000000000000e+03 6.522975158691406250e+01 6.658823966979980469e+00 -6.378722786903381348e-01 9.146602630615234375e+00 2.552618980407714844e+00 7.567645907402038574e-01
1.420000000000000000e+03 5.798630905151367188e+01 -1.990648078918457031e+01 -1.607424497604370117e+00 7.161975383758544922e+00 1.666365265846252441e+00 -6.773874759674072266e-01
1.421000000000000000e+03 7.011239624023437500e+01 -5.224522948265075684e-02 -3.416270256042480469e+00 6.808457851409912109e+00 1.017656207084655762e+00 -2.999916315078735352e+00
1.422000000000000000e+03 7.212416839599609375e+01 1.020715236663818359e+01 -1.235571384429931641e+00 -1.794996559619903564e-01 -4.245212972164154053e-01 -1.318437457084655762e+00
1.423000000000000000e+03 7.044802856445312500e+01 9.884299278259277344e+00 -2.159651182591915131e-02 3.611848354339599609e+00 1.077075481414794922e+00 7.555480003356933594e-01
1.424000000000000000e+03 2.508583259582519531e+01 1.732229804992675781e+01 -1.050562858581542969e+00 -1.222634389996528625e-01 -3.518479168415069580e-01 1.151488944888114929e-01
1.425000000000000000e+03 6.746160125732421875e+01 4.578119277954101562e+00 2.119506359100341797e+00 1.076378440856933594e+01 3.864987134933471680e+00 -2.402830123901367188e+00
1.426000000000000000e+03 6.887332153320312500e+01 7.860811233520507812e+00 -2.123374462127685547e+00 1.063531494140625000e+01 2.553582191467285156e+00 -1.742252111434936523e+00
1.427000000000000000e+03 3.903344345092773438e+01 -2.136596679687500000e+01 -5.696430802345275879e-01 1.729239821434020996e+00 3.478790223598480225e-01 6.238844990730285645e-01
1.428000000000000000e+03 3.970458984375000000e+01 -1.704772949218750000e+01 -2.420402318239212036e-01 1.652156591415405273e+00 4.230349063873291016e-01 1.867085337638854980e+00
1.429000000000000000e+03 3.562185287475585938e+01 -1.275605440139770508e+00 3.512112200260162354e-01 -3.657510876655578613e-01 -4.361961502581834793e-03 -1.426473855972290039e-01
1.430000000000000000e+03 5.834005737304687500e+01 -1.777921867370605469e+01 6.629821062088012695e-01 8.105812072753906250e+00 2.630638122558593750e+00 -8.372105956077575684e-01
1.431000000000000000e+03 2.888320159912109375e+01 -2.654872655868530273e+00 2.916592061519622803e-01 6.007335186004638672e-01 2.677178084850311279e-01 3.179540634155273438e-01
1.432000000000000000e+03 2.907065391540527344e+01 -4.270908832550048828e+00 5.203637480735778809e-02 5.046916007995605469e-01 1.670183837413787842e-01 8.368473500013351440e-02
1.433000000000000000e+03 6.217945480346679688e+01 -8.580162048339843750e+00 9.350919127464294434e-01 9.234667778015136719e+00 3.050927877426147461e+00 -1.469158083200454712e-01
1.434000000000000000e+03 6.262921905517578125e+01 -1.118430614471435547e+01 2.548958659172058105e-01 7.609499931335449219e+00 2.359318733215332031e+00 -2.305426299571990967e-01
1.435000000000000000e+03 6.263028717041015625e+01 -1.383419704437255859e+01 -7.284475862979888916e-02 6.300451278686523438e+00 1.868281960487365723e+00 -7.303598523139953613e-01
1.436000000000000000e+03 6.480700683593750000e+01 -1.411416339874267578e+01 -4.893248677253723145e-01 4.368179798126220703e+00 1.163656592369079590e+00 -1.048979759216308594e+00
1.437000000000000000e+03 3.653402328491210938e+01 2.982067346572875977e+00 2.879653358832001686e-03 -1.476834267377853394e-01 -4.344113171100616455e-02 1.969950497150421143e-01
1.438000000000000000e+03 6.572677612304687500e+01 -1.458659553527832031e+01 -5.115814805030822754e-01 3.052726030349731445e+00 7.623434066772460938e-01 -1.119516849517822266e+00
1.439000000000000000e+03 6.160615921020507812e+01 -5.794734954833984375e+00 1.644363403320312500e+00 9.387275695800781250e+00 3.309491634368896484e+00 1.059661269187927246e+00
1.440000000000000000e+03 6.994186401367187500e+01 -4.600469112396240234e+00 -1.431537628173828125e+00 3.645139217376708984e+00 6.640805006027221680e-01 -1.359118819236755371e+00
1.441000000000000000e+03 6.907830047607421875e+01 -3.524040460586547852e+00 -2.898062705993652344e+00 3.531440973281860352e+00 1.900134980678558350e-01 -8.710572123527526855e-01
1.442000000000000000e+03 3.489968872070312500e+01 -3.830352127552032471e-01 4.068121314048767090e-01 -2.047732174396514893e-01 6.061167269945144653e-02 3.750348230823874474e-03
1.443000000000000000e+03 3.439711380004882812e+01 4.934221506118774414e-01 2.570474743843078613e-01 -2.842596150003373623e-04 7.702896744012832642e-02 1.382835805416107178e-01
1.444000000000000000e+03 3.647998046875000000e+01 -1.839759826660156250e+01 -1.823011189699172974e-01 3.545670807361602783e-01 5.167978629469871521e-02 3.011352419853210449e-01
1.445000000000000000e+03 3.646070098876953125e+01 -2.288136243820190430e+00 4.023143649101257324e-01 -6.264203190803527832e-01 -6.723178923130035400e-02 -2.211085408926010132e-01
1.446000000000000000e+03 3.623542785644531250e+01 -4.055601596832275391e+00 3.965201787650585175e-03 -9.159725904464721680e-01 -2.736022174358367920e-01 3.310074806213378906e-01
1.447000000000000000e+03 4.034859848022460938e+01 -1.109622001647949219e+01 -5.123236775398254395e-01 2.034891605377197266e+00 4.567703902721405029e-01 1.243960931897163391e-01
1.448000000000000000e+03 4.022122955322265625e+01 -8.090698242187500000e+00 -5.650493502616882324e-01 1.028355121612548828e+00 1.389917433261871338e-01 1.031937479972839355e+00
1.449000000000000000e+03 3.961283874511718750e+01 -6.907495021820068359e+00 1.464868485927581787e-01 -1.964888274669647217e-01 -1.500059477984905243e-02 5.723267793655395508e-01
1.450000000000000000e+03 3.038929367065429688e+01 -1.361298465728759766e+01 -4.257264435291290283e-01 2.155965864658355713e-01 -6.303896009922027588e-02 1.155236288905143738e-01
1.451000000000000000e+03 5.045453262329101562e+01 1.646264266967773438e+01 -8.243592977523803711e-01 6.186254978179931641e+00 1.608568668365478516e+00 -2.293579101562500000e+00
1.452000000000000000e+03 3.516519927978515625e+01 -1.562480640411376953e+01 -9.171242713928222656e-01 1.553658116608858109e-02 -2.704763114452362061e-01 2.910687625408172607e-01
1.453000000000000000e+03 3.151053237915039062e+01 -9.820532798767089844e+00 -2.324016392230987549e-01 8.265161514282226562e-02 -4.492500796914100647e-02 1.732642203569412231e-01
1.454000000000000000e+03 3.367269134521484375e+01 -1.332429790496826172e+01 -6.544955372810363770e-01 -4.416105151176452637e-02 -2.095969766378402710e-01 2.820982933044433594e-01
1.455000000000000000e+03 3.444112396240234375e+01 -1.446172714233398438e+01 -5.776630043983459473e-01 -5.037035420536994934e-02 -1.884099990129470825e-01 3.381590843200683594e-01
1.456000000000000000e+03 4.072996139526367188e+01 -9.261179924011230469e+00 -9.249441027641296387e-01 2.109747648239135742e+00 3.554410636425018311e-01 9.836072921752929688e-01
1.457000000000000000e+03 4.401719284057617188e+01 5.528349876403808594e-01 -6.010159850120544434e-01 2.697035074234008789e+00 6.288056969642639160e-01 1.718115448951721191e+00
1.458000000000000000e+03 4.513150024414062500e+01 1.459379553794860840e+00 3.324377536773681641e-01 1.969033837318420410e+00 6.904414892196655273e-01 2.226651906967163086e+00
1.459000000000000000e+03 3.699845504760742188e+01 4.137635231018066406e+00 6.528086028993129730e-03 -1.240587532520294189e-01 -3.525920212268829346e-02 9.478548169136047363e-02
1.460000000000000000e+03 4.164204025268554688e+01 -8.801411390304565430e-01 -5.303218960762023926e-01 1.175479054450988770e+00 1.935471445322036743e-01 5.403967108577489853e-03
1.461000000000000000e+03 4.278871536254882812e+01 -1.431481838226318359e-01 -1.063248634338378906e+00 2.576034784317016602e+00 4.538358151912689209e-01 7.870995998382568359e-01
1.462000000000000000e+03 4.767875289916992188e+01 4.146664142608642578e+00 2.501557350158691406e+00 1.518470644950866699e+00 1.206008434295654297e+00 1.760296106338500977e+00
1.463000000000000000e+03 4.685703277587890625e+01 3.460698843002319336e+00 2.111083745956420898e+00 1.052540540695190430e+00 9.490872621536254883e-01 1.787326574325561523e+00
1.464000000000000000e+03 3.676354980468750000e+01 7.971172332763671875e+00 -5.336252972483634949e-03 -1.042419392615556717e-02 -4.728134255856275558e-03 -6.576735991984605789e-03
1.465000000000000000e+03 4.914198303222656250e+01 5.842021942138671875e+00 1.536586284637451172e+00 3.888260364532470703e+00 1.627454042434692383e+00 1.432005286216735840e+00
1.466000000000000000e+03 3.461746978759765625e+01 1.667926788330078125e+01 -8.596330285072326660e-01 -3.503600656986236572e-01 -3.629979193210601807e-01 1.406505703926086426e-01
1.467000000000000000e+03 3.117719841003417969e+01 1.534348297119140625e+01 -1.073961973190307617e+00 4.298826307058334351e-02 -3.092921078205108643e-01 2.061062753200531006e-01
1.468000000000000000e+03 3.011846923828125000e+01 1.424032211303710938e+01 -7.750710248947143555e-01 4.211048129945993423e-03 -2.312579900026321411e-01 -1.729504391551017761e-02
1.469000000000000000e+03 2.710828399658203125e+01 1.596139430999755859e+00 -2.271287143230438232e-01 -3.816564977169036865e-01 -1.826355606317520142e-01 -3.455592691898345947e-01
1.470000000000000000e+03 5.166279220581054688e+01 -3.803567647933959961e+00 -4.123641490936279297e+00 3.252115488052368164e+00 -2.614577710628509521e-01 -3.798214495182037354e-01
1.471000000000000000e+03 4.706930541992187500e+01 -1.406906962394714355e+00 -2.099130153656005859e-01 1.544178962707519531e+00 4.002797901630401611e-01 4.836195468902587891e+00
1.472000000000000000e+03 2.846059226989746094e+01 1.366205406188964844e+01 -4.229010045528411865e-01 -4.490972682833671570e-02 -1.403432190418243408e-01 -2.348713343963027000e-03
1.473000000000000000e+03 2.742097282409667969e+01 1.385470962524414062e+01 -2.781147658824920654e-01 -5.519971996545791626e-02 -9.999434649944305420e-02 1.551317870616912842e-01
1.474000000000000000e+03 2.655555725097656250e+01 9.397421836853027344e+00 -2.055127918720245361e-01 -1.646115779876708984e-01 -1.110373064875602722e-01 -1.757263541221618652e-01
1.475000000000000000e+03 7.643051147460937500e+01 -3.900770568847656250e+01 1.055965945124626160e-02 7.583847045898437500e+00 2.278321981430053711e+00 3.302640467882156372e-02
1.476000000000000000e+03 7.901038360595703125e+01 -3.873472976684570312e+01 1.811470463871955872e-02 7.827222824096679688e+00 2.353601217269897461e+00 4.282474145293235779e-02
1.477000000000000000e+03 7.934603118896484375e+01 -3.332020187377929688e+01 1.180380303412675858e-02 8.091511726379394531e+00 2.430994749069213867e+00 2.011101692914962769e-02
1.478000000000000000e+03 7.777253723144531250e+01 -3.567822265625000000e+01 -2.128482051193714142e-02 7.742326736450195312e+00 2.316312551498413086e+00 8.112195879220962524e-02
1.479000000000000000e+03 7.938496398925781250e+01 -3.195790672302246094e+01 -1.454368326812982559e-02 8.148101806640625000e+00 2.440067291259765625e+00 2.245578169822692871e-02
1.480000000000000000e+03 7.939637756347656250e+01 -3.059336280822753906e+01 2.466473914682865143e-02 8.217308998107910156e+00 2.472592115402221680e+00 2.826857753098011017e-02
1.481000000000000000e+03 7.938620758056640625e+01 -2.922741889953613281e+01 -2.514481730759143829e-02 8.300890922546386719e+00 2.482723712921142578e+00 3.278338536620140076e-02
1.482000000000000000e+03 7.937889862060546875e+01 -2.785694503784179688e+01 3.757100179791450500e-02 8.400547027587890625e+00 2.531435251235961914e+00 4.358366876840591431e-02
1.483000000000000000e+03 7.938408660888671875e+01 -2.509207725524902344e+01 3.644478321075439453e-02 8.635456085205078125e+00 2.601570129394531250e+00 4.283480346202850342e-02
1.484000000000000000e+03 7.937811279296875000e+01 -2.369935989379882812e+01 -5.017189309000968933e-02 8.738012313842773438e+00 2.606352090835571289e+00 2.730586193501949310e-02
1.485000000000000000e+03 7.936409759521484375e+01 -2.230581474304199219e+01 2.514246292412281036e-02 8.791702270507812500e+00 2.645053386688232422e+00 -8.353517623618245125e-04
1.486000000000000000e+03 7.934777069091796875e+01 -2.091077232360839844e+01 -7.737066596746444702e-02 8.756148338317871094e+00 2.603633403778076172e+00 -5.768573656678199768e-02
1.487000000000000000e+03 7.750044250488281250e+01 3.469758987426757812e+01 -2.895690128207206726e-02 6.467838764190673828e+00 1.931664586067199707e+00 9.227154403924942017e-02
1.488000000000000000e+03 7.911606597900390625e+01 3.619737243652343750e+01 -1.693663001060485840e-02 6.671821117401123047e+00 1.996465444564819336e+00 1.978508569300174713e-02
1.489000000000000000e+03 7.672978210449218750e+01 -2.780587959289550781e+01 6.168237701058387756e-02 7.718932628631591797e+00 2.334184408187866211e+00 1.973696351051330566e-01
1.490000000000000000e+03 7.939141845703125000e+01 1.247070503234863281e+01 5.644559860229492188e-02 6.356935977935791016e+00 1.924014568328857422e+00 -5.694363266229629517e-02
1.491000000000000000e+03 7.936647796630859375e+01 1.386025810241699219e+01 -8.844801783561706543e-02 6.170754909515380859e+00 1.824692130088806152e+00 -1.096689775586128235e-01
1.492000000000000000e+03 7.930019378662109375e+01 1.805354309082031250e+01 2.281206287443637848e-02 5.491727828979492188e+00 1.654361963272094727e+00 -5.502865090966224670e-02
1.493000000000000000e+03 7.793839263916015625e+01 1.650920677185058594e+01 1.415912806987762451e-01 5.741658687591552734e+00 1.764974951744079590e+00 -3.160890042781829834e-01
1.494000000000000000e+03 7.925909423828125000e+01 2.225982856750488281e+01 3.371350467205047607e-02 5.624022006988525391e+00 1.697320580482482910e+00 7.142783701419830322e-02
1.495000000000000000e+03 7.631695556640625000e+01 2.203785896301269531e+01 9.968726336956024170e-02 5.920462131500244141e+00 1.806044816970825195e+00 2.538622021675109863e-01
1.496000000000000000e+03 7.922241210937500000e+01 2.506756782531738281e+01 2.933874540030956268e-02 5.897358894348144531e+00 1.778009295463562012e+00 8.279156684875488281e-02
1.497000000000000000e+03 7.770657348632812500e+01 2.360105133056640625e+01 3.308669477701187134e-02 5.889309406280517578e+00 1.776718854904174805e+00 2.070445865392684937e-01
1.498000000000000000e+03 7.922126770019531250e+01 2.646971702575683594e+01 -3.433490544557571411e-02 6.034899711608886719e+00 1.800169348716735840e+00 7.683519273996353149e-02
1.499000000000000000e+03 7.780903625488281250e+01 3.064154243469238281e+01 -2.690945006906986237e-02 6.323590278625488281e+00 1.889004349708557129e+00 1.518460810184478760e-01
1.500000000000000000e+03 7.774717712402343750e+01 2.928811454772949219e+01 -2.458662260323762894e-03 6.250086307525634766e+00 1.874288320541381836e+00 1.576879769563674927e-01
1.501000000000000000e+03 7.923239135742187500e+01 3.341453933715820312e+01 1.325553050264716148e-03 6.566567420959472656e+00 1.970367789268493652e+00 3.925700858235359192e-02
1.502000000000000000e+03 7.814078521728515625e+01 -1.377159500122070312e+01 2.637961506843566895e-01 7.813158988952636719e+00 2.423086643218994141e+00 -2.650051116943359375e-01
1.503000000000000000e+03 7.946967315673828125e+01 -1.249743652343750000e+01 4.722222313284873962e-02 6.759153842926025391e+00 2.041912794113159180e+00 -1.430181320756673813e-02
1.504000000000000000e+03 7.930702209472656250e+01 -8.606394767761230469e+00 3.736958652734756470e-02 8.195176124572753906e+00 2.469763755798339844e+00 4.103387594223022461e-01
1.505000000000000000e+03 7.779203033447265625e+01 -1.055623245239257812e+01 3.321593403816223145e-01 8.143694877624511719e+00 2.542756080627441406e+00 5.883463025093078613e-01
1.506000000000000000e+03 7.933771514892578125e+01 -1.951668739318847656e+01 2.559118904173374176e-02 8.603137016296386719e+00 2.588618516921997070e+00 -1.134090125560760498e-01
1.507000000000000000e+03 7.934125518798828125e+01 -1.812350463867187500e+01 -9.810218960046768188e-02 8.315156936645507812e+00 2.465116262435913086e+00 -1.901516914367675781e-01
1.508000000000000000e+03 7.937245178222656250e+01 -4.235015869140625000e+00 3.433899953961372375e-02 1.136436843872070312e+01 3.419612169265747070e+00 5.081389546394348145e-01
1.509000000000000000e+03 7.807083892822265625e+01 -7.226539134979248047e+00 6.076490134000778198e-02 8.938086509704589844e+00 2.699655294418334961e+00 1.145656347274780273e+00
1.510000000000000000e+03 7.928352355957031250e+01 -1.356041073799133301e+00 -1.432846933603286743e-01 1.337545776367187500e+01 3.969651937484741211e+00 3.089932203292846680e-01
1.511000000000000000e+03 7.583401489257812500e+01 -4.470048427581787109e+00 -1.150391399860382080e-01 7.742840766906738281e+00 2.288340568542480469e+00 1.297169089317321777e+00
1.512000000000000000e+03 7.948663330078125000e+01 2.919243335723876953e+00 -1.059722974896430969e-01 1.163645744323730469e+01 3.459145545959472656e+00 -9.931148886680603027e-01
1.513000000000000000e+03 7.539473724365234375e+01 -4.386119842529296875e-01 -1.296933770179748535e+00 5.363286972045898438e+00 1.219905853271484375e+00 4.910837411880493164e-01
1.514000000000000000e+03 7.959848022460937500e+01 5.657878875732421875e+00 -9.026143699884414673e-02 6.576841354370117188e+00 1.945973992347717285e+00 -7.235943078994750977e-01
1.515000000000000000e+03 7.680017852783203125e+01 4.359018325805664062e+00 4.835249781608581543e-01 1.198986625671386719e+01 3.742017269134521484e+00 -2.184387683868408203e+00
1.516000000000000000e+03 7.956195831298828125e+01 6.896274566650390625e+00 3.673712611198425293e-01 4.810903549194335938e+00 1.553482532501220703e+00 -1.200238540768623352e-01
1.517000000000000000e+03 7.654454040527343750e+01 6.922858715057373047e+00 2.942685842514038086e+00 1.572207832336425781e+01 5.599429130554199219e+00 -2.467363595962524414e+00
1.518000000000000000e+03 7.783978271484375000e+01 3.197472572326660156e+01 -5.797053221613168716e-03 6.385422229766845703e+00 1.913887500762939453e+00 1.182613894343376160e-01
1.519000000000000000e+03 7.803964996337890625e+01 4.171580123901367188e+01 3.206893801689147949e-02 6.648228645324707031e+00 2.004089355468750000e+00 -8.905762806534767151e-03
1.520000000000000000e+03 7.732692718505859375e+01 3.617280197143554688e+01 -3.378131240606307983e-02 6.497228622436523438e+00 1.939034223556518555e+00 8.103682845830917358e-02
1.521000000000000000e+03 7.748413848876953125e+01 6.196450710296630859e+00 1.100846409797668457e+00 1.037865447998046875e+01 3.443850278854370117e+00 -2.133117437362670898e+00
1.522000000000000000e+03 7.792305755615234375e+01 -1.503710627555847168e+00 -5.373083353042602539e-01 1.051354312896728516e+01 2.992870330810546875e+00 9.471600055694580078e-01
1.523000000000000000e+03 7.843972778320312500e+01 -1.232225894927978516e+01 2.189875096082687378e-01 7.650309085845947266e+00 2.360789060592651367e+00 2.892589941620826721e-02
1.524000000000000000e+03 7.802163696289062500e+01 -1.813425064086914062e+01 -6.475798785686492920e-02 8.312865257263183594e+00 2.474431991577148438e+00 -4.076537787914276123e-01
1.525000000000000000e+03 7.308964538574218750e+01 -1.363131809234619141e+01 1.374611020088195801e+00 1.259032344818115234e+01 4.189480304718017578e+00 1.051738381385803223e+00
1.526000000000000000e+03 2.690072822570800781e+01 -5.012121677398681641e+00 -6.269815564155578613e-02 2.698755450546741486e-02 -1.071318052709102631e-02 1.691903769969940186e-01
1.527000000000000000e+03 5.673420333862304688e+01 -1.142358970642089844e+01 6.661735177040100098e-01 8.607552528381347656e+00 2.782117843627929688e+00 -8.731920719146728516e-01
1.528000000000000000e+03 5.597212219238281250e+01 -9.334426879882812500e+00 4.849973917007446289e-01 7.198393821716308594e+00 2.305017471313476562e+00 -1.058178901672363281e+00
1.529000000000000000e+03 5.600125885009765625e+01 -1.452673530578613281e+01 7.807304263114929199e-01 1.247266006469726562e+01 3.976017236709594727e+00 -1.073438644409179688e+00
1.530000000000000000e+03 5.784438323974609375e+01 -1.152815818786621094e+01 8.012803196907043457e-01 8.385822296142578125e+00 2.756130695343017578e+00 1.096855476498603821e-01
1.531000000000000000e+03 4.405040740966796875e+01 -1.182703304290771484e+01 -8.703992962837219238e-01 4.061038017272949219e+00 9.571916460990905762e-01 1.094801068305969238e+00
1.532000000000000000e+03 4.559688186645507812e+01 -1.147964477539062500e+01 -8.050951361656188965e-01 3.063291549682617188e+00 6.774589419364929199e-01 2.764496803283691406e-01
1.533000000000000000e+03 5.686758422851562500e+01 -1.281528759002685547e+01 8.796361684799194336e-01 9.828911781311035156e+00 3.212564229965209961e+00 -6.480080485343933105e-01
1.534000000000000000e+03 5.259777450561523438e+01 -4.876275539398193359e+00 -3.197250604629516602e+00 3.891454219818115234e+00 2.082610577344894409e-01 -5.603820085525512695e-01
1.535000000000000000e+03 5.134654617309570312e+01 -2.643220424652099609e+00 -3.582133054733276367e+00 3.930362224578857422e+00 1.044687777757644653e-01 -5.246044397354125977e-01
1.536000000000000000e+03 4.434118652343750000e+01 -9.107820510864257812e+00 -5.447339415550231934e-01 5.784834861755371094e+00 1.572030305862426758e+00 4.229971021413803101e-02
1.537000000000000000e+03 4.475725555419921875e+01 -7.179769515991210938e+00 1.931716948747634888e-01 8.567377090454101562e+00 2.628164529800415039e+00 -1.382815241813659668e+00
1.538000000000000000e+03 5.750704956054687500e+01 -1.534719753265380859e+01 1.136131644248962402e+00 1.045846939086914062e+01 3.478380203247070312e+00 1.970270872116088867e-01
1.539000000000000000e+03 4.349199295043945312e+01 -9.804621696472167969e+00 -1.013762235641479492e+00 5.483266353607177734e+00 1.340851306915283203e+00 1.243150115013122559e+00
1.540000000000000000e+03 4.699358367919921875e+01 -1.451142597198486328e+01 -7.005774974822998047e-01 8.096619248390197754e-01 3.272532671689987183e-02 -4.144663736224174500e-02
1.541000000000000000e+03 5.428636169433593750e+01 -7.142040729522705078e+00 -2.421197593212127686e-01 4.895926952362060547e+00 1.396142125129699707e+00 -1.452744245529174805e+00
1.542000000000000000e+03 5.100486373901367188e+01 -1.899963188171386719e+01 -2.122239112854003906e+00 1.621886342763900757e-01 -5.880151987075805664e-01 1.554578989744186401e-01
1.543000000000000000e+03 4.582649612426757812e+01 -1.393899154663085938e+01 -5.451084375381469727e-01 2.396334409713745117e+00 5.553677678108215332e-01 2.832607626914978027e-01
1.544000000000000000e+03 5.508296966552734375e+01 -8.263185501098632812e+00 4.508452713489532471e-01 5.763544082641601562e+00 1.864316821098327637e+00 -1.641342759132385254e+00
1.545000000000000000e+03 2.072750091552734375e+00 2.619976425170898438e+01 -2.856717677786946297e-03 -2.020171880722045898e-01 -6.146217137575149536e-02 4.868750274181365967e-02
1.546000000000000000e+03 7.097592353820800781e-01 3.189122200012207031e+01 1.565610291436314583e-03 -3.546059429645538330e-01 -1.059120967984199524e-01 1.479641068726778030e-02
1.547000000000000000e+03 1.907812237739562988e+00 3.458026123046875000e+01 2.843462862074375153e-03 -3.721610605716705322e-01 -1.107952743768692017e-01 3.256329521536827087e-02
1.548000000000000000e+03 3.514891147613525391e+00 3.906327819824218750e+01 1.163445971906185150e-02 -4.032820165157318115e-01 -1.174942702054977417e-01 2.678297460079193115e-02
1.549000000000000000e+03 9.675489664077758789e-01 3.870045471191406250e+01 -1.829578657634556293e-03 -4.464517831802368164e-01 -1.344844102859497070e-01 2.747192978858947754e-03
1.550000000000000000e+03 2.526026248931884766e+00 -3.637541961669921875e+01 1.233835238963365555e-02 -3.931196331977844238e-01 -1.142343804240226746e-01 -1.450658589601516724e-02
1.551000000000000000e+03 6.767746806144714355e-01 -3.752391052246093750e+01 1.192683726549148560e-02 -4.592435061931610107e-01 -1.341949999332427979e-01 -3.851640485663665459e-06
1.552000000000000000e+03 2.024005174636840820e+00 2.339999961853027344e+01 -5.126967094838619232e-03 -1.482125967741012573e-01 -4.600187018513679504e-02 3.887702524662017822e-02
1.553000000000000000e+03 2.200899124145507812e+00 3.048968315124511719e+01 2.329459181055426598e-03 -2.915489971637725830e-01 -8.676586300134658813e-02 4.964095354080200195e-02
1.554000000000000000e+03 2.291612625122070312e+00 3.687952041625976562e+01 9.426938369870185852e-03 -3.983258605003356934e-01 -1.166696771979331970e-01 2.644297294318675995e-02
1.555000000000000000e+03 8.951426744461059570e-01 -3.045927238464355469e+01 -1.355754560790956020e-03 -3.762054145336151123e-01 -1.132683530449867249e-01 -1.652020215988159180e-02
1.556000000000000000e+03 5.668818950653076172e-01 -6.521473884582519531e+00 2.266632625833153725e-03 7.861115154810249805e-04 9.158232714980840683e-04 -1.620203256607055664e-03
1.557000000000000000e+03 2.185225725173950195e+00 -4.210620880126953125e+00 -2.591095166280865669e-03 -5.875836941413581371e-04 -9.536035940982401371e-04 1.708320574834942818e-03
1.558000000000000000e+03 5.786008238792419434e-01 -1.072749996185302734e+01 -3.786264453083276749e-03 -1.998426578938961029e-02 -7.131159305572509766e-03 -4.522482864558696747e-03
1.559000000000000000e+03 1.715027093887329102e+00 -9.434151649475097656e+00 -5.855440162122249603e-03 -1.697073690593242645e-02 -6.847853306680917740e-03 -9.739018045365810394e-03
1.560000000000000000e+03 5.915071964263916016e-01 -1.351447772979736328e+01 -5.329210776835680008e-03 -4.884940758347511292e-02 -1.625358499586582184e-02 -7.700696121901273727e-03
1.561000000000000000e+03 6.036500334739685059e-01 -1.770008087158203125e+01 6.696283817291259766e-03 -1.142994239926338196e-01 -3.228094056248664856e-02 -1.015321351587772369e-02
1.562000000000000000e+03 1.806752443313598633e+00 -1.622258186340332031e+01 3.468347480520606041e-03 -8.741961419582366943e-02 -2.518537826836109161e-02 -2.792636491358280182e-02
1.563000000000000000e+03 6.218594312667846680e-01 -1.909186935424804688e+01 -7.897285744547843933e-03 -1.408275812864303589e-01 -4.461746290326118469e-02 -1.261610351502895355e-02
1.564000000000000000e+03 6.569471359252929688e-01 -2.048246574401855469e+01 6.921347696334123611e-03 -1.686321198940277100e-01 -4.851322993636131287e-02 -1.211545057594776154e-02
1.565000000000000000e+03 7.175283432006835938e-01 -2.187806510925292969e+01 -8.516522124409675598e-03 -1.981669664382934570e-01 -6.200504675507545471e-02 -1.582195796072483063e-02
1.566000000000000000e+03 8.075348138809204102e-01 -2.328668594360351562e+01 5.166805349290370941e-03 -2.295668870210647583e-01 -6.732002645730972290e-02 -1.716491580009460449e-02
1.567000000000000000e+03 2.878022432327270508e+00 -2.597452163696289062e+01 -4.638032987713813782e-03 -2.347951382398605347e-01 -7.182995229959487915e-02 -5.605264008045196533e-02
1.568000000000000000e+03 1.938862204551696777e+00 1.631711387634277344e+01 -1.029346720315515995e-03 -6.445079296827316284e-02 -1.964404061436653137e-02 1.000625360757112503e-02
1.569000000000000000e+03 6.397164463996887207e-01 1.491526031494140625e+01 1.049348036758601665e-03 -5.971464514732360840e-02 -1.759959012269973755e-02 2.413132926449179649e-03
1.570000000000000000e+03 5.796594023704528809e-01 1.068138694763183594e+01 7.401397306239232421e-05 -4.044596478343009949e-02 -1.211158465594053268e-02 4.816882777959108353e-03
1.571000000000000000e+03 6.340057849884033203e-01 7.819159030914306641e+00 -3.213289601262658834e-04 -1.707703620195388794e-02 -5.219509825110435486e-03 5.545017309486865997e-03
1.572000000000000000e+03 1.932344198226928711e+00 1.920215225219726562e+01 -3.498903010040521622e-03 -8.872788399457931519e-02 -2.766803652048110962e-02 1.986200921237468719e-02
1.573000000000000000e+03 1.998641848564147949e+00 2.201243972778320312e+01 -3.868975443765521049e-03 -1.257010549306869507e-01 -3.887100890278816223e-02 3.279954940080642700e-02
1.574000000000000000e+03 3.171275138854980469e+00 -3.880550003051757812e+01 1.151039358228445053e-02 -4.053512215614318848e-01 -1.181522458791732788e-01 -1.249550469219684601e-02
1.575000000000000000e+03 1.916604280471801758e+00 -3.785121536254882812e+01 7.569124456495046616e-03 -4.182573258876800537e-01 -1.232064664363861084e-01 -5.285372026264667511e-03
1.576000000000000000e+03 2.778753995895385742e+00 -3.191617774963378906e+01 2.777821384370326996e-03 -3.319516479969024658e-01 -9.875214844942092896e-02 -4.169025272130966187e-02
1.577000000000000000e+03 2.762676477432250977e+00 -2.441125488281250000e+01 5.578752607107162476e-03 -2.141363769769668579e-01 -6.256728619337081909e-02 -5.573699995875358582e-02
1.578000000000000000e+03 9.043983817100524902e-01 -2.470905113220214844e+01 -6.395697128027677536e-03 -2.598150968551635742e-01 -7.986323535442352295e-02 -1.936543732881546021e-02
1.579000000000000000e+03 1.801306366920471191e+00 -1.486695575714111328e+01 -7.691144477576017380e-03 -6.824416667222976685e-02 -2.278059348464012146e-02 -2.605997212231159210e-02
1.580000000000000000e+03 5.928405523300170898e-01 -1.490977191925048828e+01 5.243916064500808716e-03 -6.788899749517440796e-02 -1.879352331161499023e-02 -8.105698972940444946e-03
1.581000000000000000e+03 2.812030792236328125e+00 -6.904745578765869141e+00 -1.502212020568549633e-03 -8.254587650299072266e-03 -2.927039982751011848e-03 -8.510243147611618042e-03
1.582000000000000000e+03 5.606405735015869141e-01 -7.929870128631591797e+00 -3.222941886633634567e-03 -3.228406887501478195e-03 -1.935404608957469463e-03 -1.609982922673225403e-03
1.583000000000000000e+03 1.470084190368652344e+00 -3.313685894012451172e+00 -1.688055344857275486e-03 -5.585366161540150642e-04 -6.739775999449193478e-04 -4.280201101209968328e-04
1.584000000000000000e+03 1.862967610359191895e+00 1.344968700408935547e+01 2.212299266830086708e-03 -5.132504925131797791e-02 -1.473382487893104553e-02 6.971907801926136017e-03
1.585000000000000000e+03 3.675162887573242188e+01 6.869929790496826172e+00 -4.643086344003677368e-02 -1.046321541070938110e-02 -1.706822402775287628e-02 2.949510887265205383e-02
1.586000000000000000e+03 3.048919296264648438e+01 3.595201969146728516e+00 -5.152969956398010254e-01 1.151580139994621277e-01 -1.200416907668113708e-01 -1.373508274555206299e-01
1.587000000000000000e+03 3.171848106384277344e+01 4.103823661804199219e+00 -4.574005901813507080e-01 2.203682363033294678e-01 -7.110970467329025269e-02 1.963188126683235168e-02
1.588000000000000000e+03 3.491073608398437500e+01 6.203121662139892578e+00 -1.301451176404953003e-01 3.194361180067062378e-02 -2.946045063436031342e-02 5.339990556240081787e-02
1.589000000000000000e+03 3.131505775451660156e+01 5.365921020507812500e+00 -3.894830346107482910e-01 -6.114195287227630615e-02 -1.351874917745590210e-01 -1.879367977380752563e-01
1.590000000000000000e+03 3.443514251708984375e+01 4.773322582244873047e+00 -1.644523143768310547e-01 1.176476031541824341e-01 -1.404141355305910110e-02 1.279256343841552734e-01
1.591000000000000000e+03 2.715136718750000000e+01 -7.667346477508544922e+00 -1.737285405397415161e-01 3.216424211859703064e-02 -4.246928915381431580e-02 2.169822305440902710e-01
1.592000000000000000e+03 2.455274009704589844e+01 -4.372491359710693359e+00 -1.310511827468872070e-01 -5.030172467231750488e-01 -1.902205199003219604e-01 2.179377377033233643e-01
1.593000000000000000e+03 1.533018302917480469e+01 -4.642004489898681641e+00 -3.898506611585617065e-02 -5.007914267480373383e-03 -1.319789420813322067e-02 1.246482133865356445e-03
1.594000000000000000e+03 2.292702293395996094e+01 -2.303020477294921875e+00 -1.915705204010009766e-02 -2.388178557157516479e-01 -7.739247381687164307e-02 6.638927757740020752e-02
1.595000000000000000e+03 1.886919593811035156e+01 -7.386296749114990234e+00 -1.494685709476470947e-01 -1.422868855297565460e-02 -4.910917580127716064e-02 3.384251520037651062e-02
1.596000000000000000e+03 5.201148986816406250e+01 -1.770343208312988281e+01 -2.088851690292358398e+00 -8.824758529663085938e-01 -8.913983106613159180e-01 1.609398365020751953e+00
1.597000000000000000e+03 2.645643615722656250e+01 1.505658531188964844e+01 -3.703542053699493408e-01 -2.010256052017211914e-02 -1.171370297670364380e-01 4.220619201660156250e-01
1.598000000000000000e+03 2.154153060913085938e+01 1.791550445556640625e+01 -7.121995091438293457e-01 -1.983825489878654480e-02 -2.196113318204879761e-01 2.403637915849685669e-01
1.599000000000000000e+03 1.516768264770507812e+01 1.513897895812988281e+01 -1.186688020825386047e-01 5.897944793105125427e-02 -1.790680736303329468e-02 4.233713448047637939e-02
1.600000000000000000e+03 1.416341495513916016e+01 1.381305980682373047e+01 -3.411932662129402161e-02 5.026642233133316040e-02 4.844128154218196869e-03 3.356980904936790466e-02
1.601000000000000000e+03 4.168590164184570312e+01 -1.315844631195068359e+01 2.092993557453155518e-01 5.392819881439208984e+00 1.680635690689086914e+00 6.480430364608764648e-01
1.602000000000000000e+03 1.873231506347656250e+01 1.704605102539062500e+01 -3.509655892848968506e-01 5.015678703784942627e-02 -9.024263918399810791e-02 8.396048843860626221e-02
1.603000000000000000e+03 1.136778068542480469e+01 1.069961833953857422e+01 3.474491089582443237e-02 5.910329148173332214e-02 2.815446071326732635e-02 4.350604861974716187e-02
1.604000000000000000e+03 2.013466072082519531e+01 1.743921661376953125e+01 -4.685306251049041748e-01 6.641696393489837646e-02 -1.206341013312339783e-01 8.214250952005386353e-02
1.605000000000000000e+03 2.535798645019531250e+01 1.240101528167724609e+01 -2.054490149021148682e-02 1.199776977300643921e-01 2.982983924448490143e-02 -2.251327782869338989e-02
1.606000000000000000e+03 2.763998794555664062e+01 1.503357982635498047e+01 -5.245616436004638672e-01 5.927564203739166260e-02 -1.395857930183410645e-01 2.937539219856262207e-01
1.607000000000000000e+03 2.186809730529785156e+01 8.171916961669921875e+00 -6.675943732261657715e-02 5.454572662711143494e-02 -3.664114279672503471e-03 -1.748740859329700470e-02
1.608000000000000000e+03 2.391892814636230469e+01 1.006381225585937500e+01 -7.901338487863540649e-02 7.966186106204986572e-02 1.945443655131384730e-04 -1.566599495708942413e-02
1.609000000000000000e+03 1.885279083251953125e+01 8.688312530517578125e+00 7.227815687656402588e-02 3.732677549123764038e-02 3.288147971034049988e-02 4.417536780238151550e-02
1.610000000000000000e+03 1.913232231140136719e+01 6.904390811920166016e+00 -8.127952367067337036e-02 1.770368590950965881e-02 -1.907275058329105377e-02 -3.582473471760749817e-02
1.611000000000000000e+03 2.265983200073242188e+01 1.136634540557861328e+01 9.332130849361419678e-02 1.316983103752136230e-01 6.750588864088058472e-02 1.119724512100219727e-01
1.612000000000000000e+03 4.558712768554687500e+01 1.531621837615966797e+01 -1.186000347137451172e+00 9.361526370048522949e-02 -3.277155458927154541e-01 -2.309563905000686646e-01
1.613000000000000000e+03 4.371252059936523438e+01 1.416576480865478516e+01 -1.150612115859985352e+00 2.282458692789077759e-01 -2.767098546028137207e-01 -2.502850294113159180e-01
1.614000000000000000e+03 6.595832061767578125e+01 7.503509998321533203e+00 -1.284878373146057129e+00 1.130622577667236328e+01 3.006404161453247070e+00 -8.057344555854797363e-01
1.615000000000000000e+03 6.961538696289062500e+01 8.959177970886230469e+00 -2.034461021423339844e+00 7.020621776580810547e+00 1.495848298072814941e+00 -3.408530652523040771e-01
1.616000000000000000e+03 2.804274749755859375e+01 2.668767213821411133e+00 -6.427168846130371094e-01 -3.234469592571258545e-01 -2.898491322994232178e-01 -4.144177734851837158e-01
1.617000000000000000e+03 4.288291168212890625e+01 -1.738967895507812500e+01 -4.476101994514465332e-01 3.646583318710327148e+00 9.596919417381286621e-01 -3.335566818714141846e-01
1.618000000000000000e+03 6.610792541503906250e+01 5.961723804473876953e+00 -6.675689481198787689e-03 8.814620018005371094e+00 2.642383337020874023e+00 -1.364170551300048828e+00
1.619000000000000000e+03 6.718970489501953125e+01 2.313455820083618164e+00 8.464373350143432617e-01 7.155883312225341797e+00 2.400696277618408203e+00 9.497585296630859375e-01
1.620000000000000000e+03 3.702978897094726562e+01 1.571964263916015625e+01 -1.144864439964294434e+00 -2.212294563651084900e-02 -3.500961959362030029e-01 8.270368725061416626e-02
1.621000000000000000e+03 3.486777877807617188e+01 1.509835243225097656e+01 -1.820238232612609863e+00 -5.507354140281677246e-01 -7.112920880317687988e-01 3.160639405250549316e-01
1.622000000000000000e+03 5.207317733764648438e+01 -2.022968292236328125e+01 -7.813556194305419922e-01 4.437560439109802246e-01 -1.012798845767974854e-01 4.017269313335418701e-01
1.623000000000000000e+03 5.334619903564453125e+01 -2.158284950256347656e+01 -3.272576034069061279e-01 1.355605125427246094e+00 3.085042536258697510e-01 1.087227582931518555e+00
1.624000000000000000e+03 5.173068618774414062e+01 1.307287693023681641e+01 8.833824396133422852e-01 1.294510936737060547e+01 4.148547649383544922e+00 -5.108814716339111328e+00
1.625000000000000000e+03 5.071894836425781250e+01 9.592894554138183594e+00 1.501594424247741699e+00 5.519004821777343750e+00 2.106179714202880859e+00 3.750787019729614258e+00
1.626000000000000000e+03 5.071795272827148438e+01 9.312148094177246094e+00 1.171386241912841797e+00 6.092222690582275391e+00 2.179082632064819336e+00 3.896465063095092773e+00
1.627000000000000000e+03 5.111043167114257812e+01 1.304827976226806641e+01 1.722345232963562012e+00 7.587419986724853516e+00 2.792929410934448242e+00 -5.152442455291748047e+00
1.628000000000000000e+03 5.151818847656250000e+01 1.305134677886962891e+01 1.415500879287719727e+00 1.068727207183837891e+01 3.630831956863403320e+00 -5.636753082275390625e+00
1.629000000000000000e+03 5.148480224609375000e+01 9.261515617370605469e+00 6.508685648441314697e-03 1.216960048675537109e+01 3.652832746505737305e+00 5.034911632537841797e+00
1.630000000000000000e+03 5.256094741821289062e+01 9.646668434143066406e+00 -1.268157362937927246e+00 2.081940841674804688e+01 5.865375518798828125e+00 2.138632059097290039e+00
1.631000000000000000e+03 5.419611740112304688e+01 1.195544052124023438e+01 6.342893600463867188e+00 1.239043331146240234e+01 5.619997978210449219e+00 3.960386991500854492e+00
1.632000000000000000e+03 5.373715972900390625e+01 1.300836372375488281e+01 2.211276769638061523e+00 1.465373134613037109e+01 5.059502601623535156e+00 3.802699327468872070e+00
1.633000000000000000e+03 5.263408660888671875e+01 1.292612361907958984e+01 1.488998625427484512e-02 1.883721733093261719e+01 5.655632019042968750e+00 -5.710080862045288086e-01
1.634000000000000000e+03 5.278170394897460938e+01 9.704217910766601562e+00 -9.944412112236022949e-01 2.101344680786132812e+01 6.005701541900634766e+00 1.072260022163391113e+00
1.635000000000000000e+03 5.396356964111328125e+01 1.002261066436767578e+01 2.249134540557861328e+00 1.540172672271728516e+01 5.295258522033691406e+00 -9.996140003204345703e-01
1.636000000000000000e+03 5.342230987548828125e+01 1.315403842926025391e+01 1.103801012039184570e+00 1.586589336395263672e+01 5.090908527374267578e+00 2.625850677490234375e+00
1.637000000000000000e+03 5.231262588500976562e+01 1.392058372497558594e+01 -1.287509649991989136e-01 1.338827896118164062e+01 3.977858304977416992e+00 -2.091540336608886719e+00
1.638000000000000000e+03 5.419674301147460938e+01 1.082754135131835938e+01 6.324209690093994141e+00 1.267740345001220703e+01 5.700483798980712891e+00 5.958074331283569336e-01
1.639000000000000000e+03 5.367075347900390625e+01 1.254576683044433594e+01 3.902263402938842773e+00 1.563445854187011719e+01 5.861016750335693359e+00 4.408571243286132812e+00
1.640000000000000000e+03 2.161330032348632812e+01 7.424015522003173828e+00 -1.100889816880226135e-01 4.078129678964614868e-02 -2.079230360686779022e-02 -4.712577909231185913e-02
1.641000000000000000e+03 3.718553924560546875e+01 1.392812442779541016e+01 -1.436558604240417480e+00 5.408299341797828674e-02 -4.147426784038543701e-01 3.169588148593902588e-01
1.642000000000000000e+03 3.710359191894531250e+01 1.473094558715820312e+01 -1.242845773696899414e+00 -6.670632399618625641e-03 -3.748548924922943115e-01 1.375367790460586548e-01
1.643000000000000000e+03 1.977016258239746094e+01 7.361947536468505859e+00 -3.956440836191177368e-02 1.722519099712371826e-02 -6.701765581965446472e-03 -3.341994062066078186e-02
1.644000000000000000e+03 2.158736991882324219e+01 6.220176219940185547e+00 -1.157348826527595520e-01 2.060900256037712097e-02 -2.853776328265666962e-02 -6.283280253410339355e-02
1.645000000000000000e+03 3.864462280273437500e+01 1.469908809661865234e+01 -1.089840531349182129e+00 2.930074334144592285e-01 -2.390499114990234375e-01 1.343794167041778564e-01
1.646000000000000000e+03 2.439379882812500000e+01 -4.943139851093292236e-01 1.038109883666038513e-01 -2.714444994926452637e-01 -5.029005184769630432e-02 -1.100249066948890686e-01
1.647000000000000000e+03 3.469915390014648438e+00 -3.759557723999023438e+00 -4.101755563169717789e-03 -1.596595975570380688e-03 -1.709505449980497360e-03 1.616570865735411644e-03
1.648000000000000000e+03 1.074719715118408203e+01 -3.239719152450561523e+00 -1.954104937613010406e-02 1.040053204633295536e-03 -5.550298839807510376e-03 -3.832511138170957565e-03
1.649000000000000000e+03 9.606650352478027344e+00 -2.396065473556518555e+00 -1.263453811407089233e-02 -2.427508588880300522e-04 -3.863186808302998543e-03 -4.222476854920387268e-03
1.650000000000000000e+03 2.555444955825805664e+00 3.490726709365844727e+00 -6.041605025529861450e-03 -2.595206256955862045e-03 -2.591043477877974510e-03 1.911008032038807869e-03
1.651000000000000000e+03 1.294199275970458984e+01 -3.869069576263427734e+00 -2.641024067997932434e-02 6.079093087464570999e-03 -6.099344231188297272e-03 4.137424752116203308e-03
1.652000000000000000e+03 2.063969230651855469e+01 6.759966850280761719e+00 -1.047080308198928833e-01 2.420852892100811005e-02 -2.414985187351703644e-02 -5.684003233909606934e-02
1.653000000000000000e+03 9.851590156555175781e+00 -3.527790546417236328e+00 -2.441818453371524811e-02 -5.999252898618578911e-04 -7.505433168262243271e-03 -6.506097503006458282e-03
1.654000000000000000e+03 2.066749000549316406e+01 7.501556873321533203e+00 -6.072614341974258423e-02 3.904572129249572754e-02 -6.504127290099859238e-03 -1.876049675047397614e-02
1.655000000000000000e+03 4.148094558715820312e+01 1.424286460876464844e+01 -9.426322579383850098e-01 3.973042368888854980e-01 -1.635984033346176147e-01 -3.871474042534828186e-02
1.656000000000000000e+03 4.271149826049804688e+01 1.374485206604003906e+01 -9.708704948425292969e-01 3.284356594085693359e-01 -1.927304565906524658e-01 -1.748882085084915161e-01
1.657000000000000000e+03 3.933987426757812500e+01 1.381439208984375000e+01 -9.841310381889343262e-01 2.864371836185455322e-01 -2.093081474304199219e-01 1.816864162683486938e-01
1.658000000000000000e+03 4.020817947387695312e+01 1.466673851013183594e+01 -9.675233960151672363e-01 4.080220162868499756e-01 -1.678504198789596558e-01 4.867513850331306458e-02
1.659000000000000000e+03 1.320193767547607422e+01 -2.956162452697753906e+00 -1.823472604155540466e-02 -4.500588329392485321e-05 -5.483919754624366760e-03 -7.523617823608219624e-04
1.660000000000000000e+03 2.594303846359252930e+00 4.803907394409179688e+00 -4.142202436923980713e-03 -4.024963825941085815e-03 -2.450149971991777420e-03 6.826646625995635986e-03
1.661000000000000000e+03 8.907456398010253906e+00 8.960195541381835938e+00 7.022739946842193604e-02 1.952140592038631439e-02 2.692464180290699005e-02 2.632852829992771149e-02
1.662000000000000000e+03 6.800862789154052734e+00 7.919009685516357422e+00 1.057620393112301826e-03 -2.825332060456275940e-02 -8.158709853887557983e-03 5.133783444762229919e-02
1.663000000000000000e+03 9.218160629272460938e+00 7.899603366851806641e+00 2.916427142918109894e-02 2.685998938977718353e-02 1.680727861821651459e-02 1.086033415049314499e-03
1.664000000000000000e+03 9.674743652343750000e+00 9.357359886169433594e+00 2.487239986658096313e-02 3.067437186837196350e-02 1.666403189301490784e-02 1.071449927985668182e-02
1.665000000000000000e+03 5.202570438385009766e+00 6.142147064208984375e+00 -4.195486009120941162e-02 -7.513700984418392181e-03 -1.484056748449802399e-02 3.473307937383651733e-02
1.666000000000000000e+03 4.942044258117675781e+00 5.409256935119628906e+00 -2.586494758725166321e-02 3.816282842308282852e-03 -6.614599842578172684e-03 1.627613790333271027e-02
1.667000000000000000e+03 4.580885410308837891e+00 4.831515789031982422e+00 -2.924085967242717743e-02 1.839710515923798084e-03 -8.220344781875610352e-03 1.017616316676139832e-02
1.668000000000000000e+03 3.405169248580932617e+00 6.445224285125732422e+00 -9.126413613557815552e-03 -1.066632568836212158e-02 -5.937821697443723679e-03 1.764459535479545593e-02
1.669000000000000000e+03 2.909889698028564453e+00 3.983060836791992188e+00 -7.909990847110748291e-03 -1.466996036469936371e-03 -2.813096158206462860e-03 -1.143393892562016845e-04
1.670000000000000000e+03 4.595022678375244141e+00 -3.358249902725219727e+00 -4.824198316782712936e-03 -6.221146322786808014e-04 -1.633893931284546852e-03 3.376707609277218580e-04
1.671000000000000000e+03 1.217137718200683594e+01 -3.657692670822143555e+00 -2.475864253938198090e-02 9.354412322863936424e-04 -7.146960124373435974e-03 -3.560286946594715118e-03
1.672000000000000000e+03 1.372674751281738281e+01 -4.089738845825195312e+00 -3.028431721031665802e-02 1.795431016944348812e-04 -9.031431749463081360e-03 -3.514677810017019510e-04
1.673000000000000000e+03 6.192708969116210938e+00 -3.544065952301025391e+00 -8.692124858498573303e-03 -1.848566345870494843e-03 -3.162207314744591713e-03 -5.404813215136528015e-03
1.674000000000000000e+03 7.916766643524169922e+00 -3.434819698333740234e+00 -1.906530745327472687e-02 -8.800404611974954605e-04 -5.983604583889245987e-03 -8.744774386286735535e-03
1.675000000000000000e+03 3.865459823608398438e+01 8.680327415466308594e+00 4.549527657218277454e-04 -5.222353618592023849e-03 -1.430220319889485836e-03 -1.564864534884691238e-03
1.676000000000000000e+03 7.029322052001953125e+01 1.150470638275146484e+01 1.865743756294250488e+00 4.876907348632812500e+00 2.022795438766479492e+00 9.545297026634216309e-01
1.677000000000000000e+03 6.957884216308593750e+01 1.070175647735595703e+01 1.356926202774047852e+00 5.847501754760742188e+00 2.161328315734863281e+00 8.894429206848144531e-01
1.678000000000000000e+03 4.758714675903320312e+00 -4.593931198120117188e+00 -6.132218986749649048e-03 -1.036183326505124569e-03 -2.150520682334899902e-03 -3.215726697817444801e-03
1.679000000000000000e+03 7.329575538635253906e+00 -3.616490602493286133e+00 -2.520571695640683174e-03 -2.258538966998457909e-03 -1.433733268640935421e-03 -2.140054479241371155e-03
1.680000000000000000e+03 5.003715133666992188e+01 7.560749053955078125e+00 3.714289069175720215e-01 6.044926166534423828e+00 1.924906492233276367e+00 1.974135994911193848e+00
1.681000000000000000e+03 7.621262359619140625e+01 7.587007284164428711e-01 -3.087394714355468750e+00 7.493053913116455078e+00 1.321697711944580078e+00 -1.130762994289398193e-01
1.682000000000000000e+03 3.234807014465332031e+00 3.324311494827270508e+00 -3.278930438682436943e-03 -1.443445100449025631e-03 -1.416712650097906590e-03 1.717774663120508194e-03
1.683000000000000000e+03 3.572927474975585938e+00 4.164482593536376953e+00 -9.942316450178623199e-03 -2.026328118517994881e-03 -3.590593347325921059e-03 5.535982549190521240e-03
1.684000000000000000e+03 6.258016204833984375e+01 1.685585784912109375e+01 2.274292469024658203e+00 3.637350082397460938e+00 1.773492693901062012e+00 -1.425458908081054688e+00
1.685000000000000000e+03 2.402075386047363281e+01 1.094678592681884766e+01 -2.102321200072765350e-02 1.363345086574554443e-01 3.459338843822479248e-02 4.996341466903686523e-02
1.686000000000000000e+03 2.523128700256347656e+01 9.988507270812988281e+00 -1.316107660531997681e-01 -4.468378610908985138e-03 -4.082374274730682373e-02 -8.609773963689804077e-02
1.687000000000000000e+03 2.380549240112304688e+01 6.900782108306884766e+00 -1.475533694028854370e-01 -6.423687189817428589e-02 -6.353707611560821533e-02 -9.239879995584487915e-02
1.688000000000000000e+03 2.358810997009277344e+01 8.467103958129882812e+00 -1.127465888857841492e-01 2.742282859981060028e-02 -2.559712901711463928e-02 -5.258676782250404358e-02
1.689000000000000000e+03 5.548730850219726562e+01 9.025986671447753906e+00 -2.497738897800445557e-01 7.283519268035888672e+00 2.110123634338378906e+00 4.595808982849121094e-01
1.690000000000000000e+03 5.525432586669921875e+01 8.375436782836914062e+00 -1.185083389282226562e+00 9.524402618408203125e+00 2.501795768737792969e+00 7.161362767219543457e-01
1.691000000000000000e+03 3.954710721969604492e+00 -2.943866729736328125e+00 -2.783340401947498322e-03 -1.745839486829936504e-03 -1.358754001557826996e-03 -2.834826242178678513e-03
1.692000000000000000e+03 5.030094528198242188e+01 1.408598232269287109e+01 2.986516475677490234e+00 8.298892021179199219e+00 3.385622501373291016e+00 -3.925300121307373047e+00
1.693000000000000000e+03 5.181519317626953125e+01 1.763355255126953125e+01 -1.115792155265808105e+00 7.088469505310058594e+00 1.791803240776062012e+00 -1.155443072319030762e+00
1.694000000000000000e+03 6.883643341064453125e+01 6.621953248977661133e-01 -1.850639224052429199e+00 9.537148475646972656e+00 2.305952787399291992e+00 -1.520199775695800781e+00
1.695000000000000000e+03 6.808486938476562500e+01 -2.673451602458953857e-01 -2.690430164337158203e+00 6.070346355438232422e+00 1.013974905014038086e+00 1.081704795360565186e-01
1.696000000000000000e+03 3.215398406982421875e+01 2.055670738220214844e+01 -3.539793193340301514e-01 1.695783622562885284e-02 -1.011064499616622925e-01 2.882508039474487305e-01
1.697000000000000000e+03 3.195187377929687500e+01 1.862831878662109375e+01 -5.301408171653747559e-01 -9.874615073204040527e-02 -1.886660903692245483e-01 3.563911616802215576e-01
1.698000000000000000e+03 6.277678680419921875e+01 1.190971612930297852e+00 -2.472295522689819336e+00 4.296883583068847656e+00 5.473764538764953613e-01 2.306176900863647461e+00
1.699000000000000000e+03 6.280000305175781250e+01 -1.637153148651123047e+00 -4.035966396331787109e+00 7.541656970977783203e+00 1.051707267761230469e+00 2.111797571182250977e+00
1.700000000000000000e+03 4.788351821899414062e+01 9.529498219490051270e-01 1.927616477012634277e+00 1.743744373321533203e+00 1.101408243179321289e+00 3.276978969573974609e+00
1.701000000000000000e+03 7.513869476318359375e+01 -1.368486022949218750e+01 9.474377632141113281e-01 9.635551452636718750e+00 3.174896717071533203e+00 -1.592913419008255005e-01
1.702000000000000000e+03 4.808669281005859375e+01 7.058900356292724609e+00 2.895525097846984863e-01 4.958757162094116211e-01 2.356284558773040771e-01 3.848887979984283447e-01
1.703000000000000000e+03 6.818668365478515625e+01 1.611553907394409180e+00 -2.133417278528213501e-01 8.981876373291015625e+00 2.630560398101806641e+00 4.617354869842529297e-01
1.704000000000000000e+03 2.452634239196777344e+01 1.168003082275390625e+01 -9.458971209824085236e-03 1.788609921932220459e-01 5.082060769200325012e-02 4.182717949151992798e-02
1.705000000000000000e+03 2.639017486572265625e+01 1.156126403808593750e+01 -9.647069126367568970e-02 -5.095825716853141785e-02 -4.422868415713310242e-02 -8.154261112213134766e-02
1.706000000000000000e+03 4.606335067749023438e+01 -1.791023445129394531e+01 -7.119336724281311035e-01 2.121716499328613281e+00 4.229348599910736084e-01 -4.067106246948242188e-01
1.707000000000000000e+03 4.804923629760742188e+01 -1.770543479919433594e+01 -8.995467424392700195e-01 1.115709185600280762e+00 6.484871357679367065e-02 -7.561500649899244308e-03
1.708000000000000000e+03 3.063941192626953125e+01 -1.035880279541015625e+01 -3.643893301486968994e-01 1.784780323505401611e-01 -5.577338859438896179e-02 1.711518317461013794e-01
1.709000000000000000e+03 2.988933372497558594e+01 -9.465422630310058594e+00 -2.514920830726623535e-01 2.083123177289962769e-01 -1.295392494648694992e-02 1.966916173696517944e-01
1.710000000000000000e+03 2.857113265991210938e+01 8.077958226203918457e-01 3.261465728282928467e-01 -1.095960289239883423e-01 6.496515870094299316e-02 -1.511503607034683228e-01
1.711000000000000000e+03 4.377127838134765625e+01 -1.445037174224853516e+01 2.975535392761230469e-01 3.221252918243408203e+00 1.055641889572143555e+00 5.496942996978759766e-01
1.712000000000000000e+03 4.764609146118164062e+01 2.478322744369506836e+00 2.791811943054199219e+00 1.713290691375732422e+00 1.351530790328979492e+00 2.397069215774536133e+00
1.713000000000000000e+03 4.268947219848632812e+01 -1.054056835174560547e+01 -9.581258296966552734e-01 4.356974601745605469e+00 1.019654631614685059e+00 1.496361494064331055e+00
1.714000000000000000e+03 4.256731033325195312e+01 -1.215165042877197266e+01 -5.055190920829772949e-01 4.278355121612548828e+00 1.131850838661193848e+00 1.459504008293151855e+00
1.715000000000000000e+03 3.577024459838867188e+01 4.514088630676269531e+00 -4.105328395962715149e-02 -3.020844236016273499e-02 -2.137851715087890625e-02 1.716945916414260864e-01
1.716000000000000000e+03 3.798504257202148438e+01 6.508089542388916016e+00 -9.394746273756027222e-03 -1.103616040199995041e-02 -6.129271816462278366e-03 9.781580418348312378e-03
1.717000000000000000e+03 5.342205047607421875e+01 -6.594968438148498535e-01 -1.983824133872985840e+00 9.309115409851074219e+00 2.197587251663208008e+00 -2.713980436325073242e+00
1.718000000000000000e+03 2.522238349914550781e+01 -1.106747245788574219e+01 -2.892549335956573486e-01 6.514503806829452515e-02 -6.723297387361526489e-02 1.214024052023887634e-01
1.719000000000000000e+03 3.242058181762695312e+01 -1.400518512725830078e+01 -4.856967031955718994e-01 1.139815896749496460e-01 -1.115145385265350342e-01 1.700008958578109741e-01
1.720000000000000000e+03 7.448071289062500000e+01 1.306926441192626953e+01 1.155153632164001465e+00 4.970913410186767578e+00 1.837820053100585938e+00 -1.497373938560485840e+00
1.721000000000000000e+03 4.247681045532226562e+01 -3.632699012756347656e+00 2.066825866699218750e+00 3.190913677215576172e+00 1.577321887016296387e+00 1.484290063381195068e-01
1.722000000000000000e+03 1.583315086364746094e+01 1.685111999511718750e+01 -1.908927112817764282e-01 5.738334357738494873e-02 -4.005281254649162292e-02 8.089588582515716553e-02
1.723000000000000000e+03 5.405069351196289062e+01 6.351678371429443359e+00 -6.651313900947570801e-01 1.622097587585449219e+01 4.666753292083740234e+00 1.666985392570495605e+00
1.724000000000000000e+03 6.825358581542968750e+01 -1.732933616638183594e+01 -1.768858283758163452e-01 1.874328613281250000e+00 5.092328190803527832e-01 -5.113466382026672363e-01
1.725000000000000000e+03 7.152158355712890625e+01 -1.899996757507324219e+01 -6.198841929435729980e-01 5.502490997314453125e+00 1.464781999588012695e+00 1.864013910293579102e+00
1.726000000000000000e+03 6.729791259765625000e+01 -1.391573309898376465e+00 -3.019345283508300781e+00 3.622038125991821289e+00 1.808078438043594360e-01 -3.782147765159606934e-01
1.727000000000000000e+03 6.551956939697265625e+01 2.907099723815917969e-01 -1.742261409759521484e+00 3.230972051620483398e+00 4.466131925582885742e-01 3.257417917251586914e+00
1.728000000000000000e+03 6.503636932373046875e+01 3.946932077407836914e+00 1.740131527185440063e-01 5.400277614593505859e+00 1.672287225723266602e+00 1.099833011627197266e+00
1.729000000000000000e+03 6.551149749755859375e+01 5.047874450683593750e+00 -1.956845261156558990e-02 7.456847667694091797e+00 2.231183767318725586e+00 1.562316417694091797e-01
1.730000000000000000e+03 3.869395065307617188e+01 -7.944601178169250488e-01 -2.023177593946456909e-01 -2.144261300563812256e-01 -1.250231713056564331e-01 -4.312497973442077637e-01
1.731000000000000000e+03 4.852128219604492188e+01 4.589718818664550781e+00 2.426155090332031250e+00 2.755874633789062500e+00 1.554608941078186035e+00 1.659923911094665527e+00
1.732000000000000000e+03 3.527557373046875000e+01 1.076804399490356445e+00 1.597566604614257812e-01 -1.606185585260391235e-01 -2.585687616374343634e-04 1.697799861431121826e-01
1.733000000000000000e+03 3.700957107543945312e+01 1.324424982070922852e+00 1.037433650344610214e-02 -3.590125143527984619e-01 -1.045914590358734131e-01 1.100592389702796936e-01
1.734000000000000000e+03 6.379170227050781250e+01 -1.385848808288574219e+01 -3.859798014163970947e-01 5.102882862091064453e+00 1.415070891380310059e+00 -8.639460802078247070e-01
1.735000000000000000e+03 6.437900543212890625e+01 -1.542681694030761719e+01 -5.296920537948608398e-01 4.494365215301513672e+00 1.189401865005493164e+00 -1.188451647758483887e+00
1.736000000000000000e+03 5.689064025878906250e+01 -2.087746810913085938e+01 -2.043888092041015625e+00 6.942656517028808594e+00 1.469630479812622070e+00 7.070760130882263184e-01
1.737000000000000000e+03 6.068497467041015625e+01 -2.213258552551269531e+01 -6.690291762351989746e-01 5.703754901885986328e+00 1.510417699813842773e+00 -9.884102344512939453e-01
1.738000000000000000e+03 6.742176055908203125e+01 7.439573764801025391e+00 -1.745022296905517578e+00 1.138268756866455078e+01 2.891299486160278320e+00 -1.722004771232604980e+00
1.739000000000000000e+03 2.147793769836425781e+01 -1.034047603607177734e+01 -2.476365417242050171e-01 2.424437925219535828e-02 -6.701765209436416626e-02 -1.640439964830875397e-02
1.740000000000000000e+03 6.859690856933593750e+01 1.102977657318115234e+01 2.282368898391723633e+00 8.559062957763671875e+00 3.252429485321044922e+00 2.807767689228057861e-01
1.741000000000000000e+03 6.081968688964843750e+01 1.720630526542663574e-01 -2.908759355545043945e+00 4.044112205505371094e+00 3.406058847904205322e-01 9.193799495697021484e-01
1.742000000000000000e+03 1.284309482574462891e+01 1.656288146972656250e+01 -1.173445880413055420e-01 4.693640023469924927e-02 -2.112245559692382812e-02 7.125312834978103638e-02
1.743000000000000000e+03 7.675139617919921875e+01 -2.919065666198730469e+01 2.418862283229827881e-02 7.678808212280273438e+00 2.310899019241333008e+00 1.604965478181838989e-01
1.744000000000000000e+03 7.485475158691406250e+01 2.182922554016113281e+01 1.289757043123245239e-01 6.028061866760253906e+00 1.847111344337463379e+00 2.981652915477752686e-01
1.745000000000000000e+03 7.693211364746093750e+01 -2.379002571105957031e+01 -1.268202513456344604e-01 7.966860771179199219e+00 2.352012157440185547e+00 1.837103217840194702e-01
1.746000000000000000e+03 7.696265411376953125e+01 -2.513304328918457031e+01 3.808308765292167664e-02 7.857713699340820312e+00 2.368738889694213867e+00 2.209553718566894531e-01
1.747000000000000000e+03 7.695401000976562500e+01 -3.043124198913574219e+01 4.945182427763938904e-02 7.661855220794677734e+00 2.313392162322998047e+00 1.440712064504623413e-01
1.748000000000000000e+03 7.692483520507812500e+01 -3.149252700805664062e+01 -2.268912037834525108e-03 7.629095077514648438e+00 2.288047790527343750e+00 1.047547012567520142e-01
1.749000000000000000e+03 7.664369201660156250e+01 -3.263057327270507812e+01 5.094845965504646301e-02 7.585547924041748047e+00 2.290948867797851562e+00 9.980981051921844482e-02
1.750000000000000000e+03 7.686634826660156250e+01 -2.645342445373535156e+01 -3.890404105186462402e-02 7.777765750885009766e+00 2.321658372879028320e+00 1.810430884361267090e-01
1.751000000000000000e+03 7.603982543945312500e+01 2.500910568237304688e+01 4.820664413273334503e-03 6.077435970306396484e+00 1.824676990509033203e+00 3.011195957660675049e-01
1.752000000000000000e+03 7.617167663574218750e+01 2.350068473815917969e+01 1.686521060764789581e-02 6.000645160675048828e+00 1.805253148078918457e+00 2.851179242134094238e-01
1.753000000000000000e+03 7.653722381591796875e+01 1.633656692504882812e+01 4.184187650680541992e-01 5.706117153167724609e+00 1.837360858917236328e+00 -3.352637588977813721e-01
1.754000000000000000e+03 7.673746490478515625e+01 1.488310050964355469e+01 2.338393479585647583e-01 5.826813220977783203e+00 1.818195819854736328e+00 -7.738559246063232422e-01
1.755000000000000000e+03 7.684291839599609375e+01 -2.242927932739257812e+01 -8.828756213188171387e-02 8.058843612670898438e+00 2.391166925430297852e+00 1.417619884014129639e-01
1.756000000000000000e+03 7.686460113525390625e+01 1.348330307006835938e+01 -9.586156159639358521e-02 6.321157932281494141e+00 1.867588996887207031e+00 -8.667927980422973633e-01
1.757000000000000000e+03 7.601746368408203125e+01 2.651199913024902344e+01 -4.333474114537239075e-02 6.141813755035400391e+00 1.829543709754943848e+00 2.873049080371856689e-01
1.758000000000000000e+03 7.696070861816406250e+01 1.212095642089843750e+01 -5.317642092704772949e-01 7.240330219268798828e+00 2.012569665908813477e+00 -9.520516991615295410e-01
1.759000000000000000e+03 7.630062866210937500e+01 3.074727249145507812e+01 -3.351298719644546509e-02 6.277520656585693359e+00 1.873202204704284668e+00 1.950282007455825806e-01
1.760000000000000000e+03 7.712178802490234375e+01 9.574384689331054688e+00 -7.830441743135452271e-02 8.829803466796875000e+00 2.625449895858764648e+00 -3.644727766513824463e-01
1.761000000000000000e+03 7.823511505126953125e+01 9.558400154113769531e+00 -3.465459048748016357e-01 7.725172519683837891e+00 2.213587999343872070e+00 3.954090178012847900e-01
1.762000000000000000e+03 7.697459411621093750e+01 -1.336769771575927734e+01 5.213637351989746094e-01 8.445356369018554688e+00 2.690016269683837891e+00 -2.799631655216217041e-01
1.763000000000000000e+03 7.685649871826171875e+01 -7.245708942413330078e+00 2.645984292030334473e-01 8.670407295227050781e+00 2.680501699447631836e+00 1.379924178123474121e+00
1.764000000000000000e+03 7.685297393798828125e+01 -1.672776603698730469e+01 -3.602146357297897339e-02 8.445100784301757812e+00 2.522723674774169922e+00 -6.761742234230041504e-01
1.765000000000000000e+03 7.681108093261718750e+01 -1.541991329193115234e+01 3.516749292612075806e-02 8.537712097167968750e+00 2.571863889694213867e+00 -6.200475692749023438e-01
1.766000000000000000e+03 7.693559265136718750e+01 -5.811352252960205078e+00 4.690382629632949829e-02 8.804980278015136719e+00 2.655565261840820312e+00 1.509816169738769531e+00
1.767000000000000000e+03 7.715854644775390625e+01 8.476111888885498047e-01 -2.383490085601806641e+00 9.451736450195312500e+00 2.120473861694335938e+00 -3.940972983837127686e-01
1.768000000000000000e+03 7.863860321044921875e+01 4.463787078857421875e+00 4.155024886131286621e-02 9.384449958801269531e+00 2.827800035476684570e+00 -2.683497667312622070e+00
1.769000000000000000e+03 7.808483123779296875e+01 7.064771652221679688e+00 1.901328921318054199e+00 9.469267845153808594e+00 3.411179065704345703e+00 -1.215713977813720703e+00
1.770000000000000000e+03 7.655358886718750000e+01 1.926074028015136719e+01 2.514629065990447998e-01 5.762709617614746094e+00 1.804251790046691895e+00 7.321044057607650757e-02
1.771000000000000000e+03 7.789676666259765625e+01 1.935160827636718750e+01 9.098130464553833008e-02 5.665929794311523438e+00 1.727073431015014648e+00 1.462395675480365753e-02
1.772000000000000000e+03 7.831472015380859375e+01 8.186259269714355469e+00 4.146700501441955566e-01 7.734386444091796875e+00 2.444716930389404297e+00 5.739736557006835938e-01
1.773000000000000000e+03 7.564751434326171875e+01 -2.254561662673950195e+00 -5.780822634696960449e-01 6.664204120635986328e+00 1.825836539268493652e+00 7.563362121582031250e-01
1.774000000000000000e+03 7.809765625000000000e+01 -2.944492816925048828e+00 -3.223663941025733948e-02 1.042300701141357422e+01 3.117231130599975586e+00 1.210202455520629883e+00
1.775000000000000000e+03 7.671698760986328125e+01 -8.732562065124511719e+00 4.138979017734527588e-01 8.620534896850585938e+00 2.710329771041870117e+00 1.191857457160949707e+00
1.776000000000000000e+03 7.544736480712890625e+01 -9.740067481994628906e+00 9.258045554161071777e-01 9.070533752441406250e+00 2.998901605606079102e+00 8.328921794891357422e-01
1.777000000000000000e+03 7.799755859375000000e+01 -1.953712272644042969e+01 -2.238745093345642090e-01 8.410062789916992188e+00 2.455856561660766602e+00 -2.591779232025146484e-01
1.778000000000000000e+03 7.659651184082031250e+01 -1.956102180480957031e+01 -2.671610713005065918e-01 8.315068244934082031e+00 2.414371967315673828e+00 -1.275735795497894287e-01
1.779000000000000000e+03 7.649764251708984375e+01 3.195957565307617188e+01 -3.792493045330047607e-02 6.322870254516601562e+00 1.885483503341674805e+00 1.896278709173202515e-01
1.780000000000000000e+03 7.649869537353515625e+01 1.782367324829101562e+01 3.077917993068695068e-01 5.738563537597656250e+00 1.813906550407409668e+00 -1.504228264093399048e-01
1.781000000000000000e+03 7.632150268554687500e+01 -9.904564857482910156e+00 8.057036399841308594e-01 8.641184806823730469e+00 2.834066629409790039e+00 8.154436945915222168e-01
1.782000000000000000e+03 7.747992706298828125e+01 -1.204012107849121094e+01 5.218365788459777832e-01 8.109236717224121094e+00 2.589322090148925781e+00 2.149333655834197998e-01
1.783000000000000000e+03 3.759479522705078125e+01 -1.548651576042175293e+00 3.241140842437744141e-01 -5.589565634727478027e-01 -7.045274227857589722e-02 -4.521263837814331055e-01
1.784000000000000000e+03 5.936264801025390625e+01 8.878734111785888672e-01 -4.413908004760742188e+00 7.500261068344116211e-01 -1.099164605140686035e+00 -6.890928149223327637e-01
1.785000000000000000e+03 6.113214492797851562e+01 -2.549619197845458984e+00 3.738877549767494202e-02 6.568342685699462891e+00 1.981719374656677246e+00 -1.254051923751831055e-01
1.786000000000000000e+03 4.147693634033203125e+01 -2.582714796066284180e+00 5.552312731742858887e-01 2.000182390213012695e+00 7.666240930557250977e-01 -2.661582231521606445e-01
1.787000000000000000e+03 3.741247892379760742e+00 3.050225639343261719e+01 7.229559589177370071e-03 -2.658088207244873047e-01 -7.757377624511718750e-02 8.097696304321289062e-02
1.788000000000000000e+03 3.721245050430297852e+00 3.201019668579101562e+01 8.710564114153385162e-03 -2.889553010463714600e-01 -8.407341688871383667e-02 7.309576869010925293e-02
1.789000000000000000e+03 3.424676418304443359e+00 2.338996696472167969e+01 -1.012457720935344696e-02 -1.386626958847045898e-01 -4.463618248701095581e-02 6.175234541296958923e-02
1.790000000000000000e+03 3.434325695037841797e+00 2.476774215698242188e+01 -1.023639086633920670e-02 -1.607974618673324585e-01 -5.131015926599502563e-02 6.966087222099304199e-02
1.791000000000000000e+03 3.648232460021972656e+00 2.902360343933105469e+01 3.161667613312602043e-03 -2.379464507102966309e-01 -7.043543457984924316e-02 8.214795589447021484e-02
1.792000000000000000e+03 3.597650289535522461e+00 3.690980911254882812e+01 2.279051579535007477e-02 -3.733540177345275879e-01 -1.051690503954887390e-01 3.747995197772979736e-02
1.793000000000000000e+03 4.898999214172363281e+00 2.749195098876953125e+01 -3.280327888205647469e-03 -1.912667900323867798e-01 -5.836413428187370300e-02 1.051421985030174255e-01
1.794000000000000000e+03 3.527539730072021484e+00 2.757977104187011719e+01 -2.987020649015903473e-03 -2.117711752653121948e-01 -6.442745774984359741e-02 8.100538700819015503e-02
1.795000000000000000e+03 4.339729785919189453e+00 -2.765963172912597656e+01 4.613520577549934387e-03 -2.283441126346588135e-01 -6.711917370557785034e-02 -7.193601876497268677e-02
1.796000000000000000e+03 4.566053390502929688e+00 -3.169699287414550781e+01 1.538085564970970154e-02 -2.732444405555725098e-01 -7.735908031463623047e-02 -6.749650835990905762e-02
1.797000000000000000e+03 2.921848535537719727e+00 -5.700283527374267578e+00 -7.002607453614473343e-03 -4.817507695406675339e-03 -3.546034451574087143e-03 -3.630539868026971817e-03
1.798000000000000000e+03 2.989447593688964844e+00 -1.084282970428466797e+01 -1.070843730121850967e-02 -2.975225262343883514e-02 -1.213820651173591614e-02 -2.325574122369289398e-02
1.799000000000000000e+03 2.877020120620727539e+00 -9.507466316223144531e+00 -2.629497554153203964e-03 -1.912110485136508942e-02 -6.525180768221616745e-03 -1.825982891023159027e-02
1.800000000000000000e+03 3.060503482818603516e+00 -1.217472743988037109e+01 -3.136877901852130890e-03 -3.813185170292854309e-02 -1.238061953336000443e-02 -2.924455516040325165e-02
1.801000000000000000e+03 3.098796844482421875e+00 -1.743192100524902344e+01 5.611530505120754242e-04 -9.913353621959686279e-02 -2.957171574234962463e-02 -5.008453875780105591e-02
1.802000000000000000e+03 3.058202266693115234e+00 -1.613657760620117188e+01 -1.106021646410226822e-02 -8.069567382335662842e-02 -2.752676792442798615e-02 -4.611453041434288025e-02
1.803000000000000000e+03 3.147353410720825195e+00 1.332641887664794922e+01 -1.116827712394297123e-03 -4.552140459418296814e-02 -1.399146951735019684e-02 1.316820830106735229e-02
1.804000000000000000e+03 3.225559234619140625e+00 1.632262039184570312e+01 -8.406990207731723785e-03 -6.017516180872917175e-02 -2.057464607059955597e-02 1.876219175755977631e-02
1.805000000000000000e+03 3.162984848022460938e+00 1.778798103332519531e+01 -7.633954752236604691e-03 -7.061100006103515625e-02 -2.347348630428314209e-02 2.401747182011604309e-02
1.806000000000000000e+03 3.229867935180664062e+00 7.575978755950927734e+00 -1.016915426589548588e-03 -1.734581962227821350e-02 -5.508820526301860809e-03 2.423271536827087402e-02
1.807000000000000000e+03 4.767941474914550781e+00 -2.078744125366210938e+01 1.434408477507531643e-03 -1.283608078956604004e-01 -3.807792067527770996e-02 -8.544577658176422119e-02
1.808000000000000000e+03 3.182451009750366211e+00 -1.870440292358398438e+01 -1.040005311369895935e-02 -1.162268742918968201e-01 -3.798807784914970398e-02 -5.549800023436546326e-02
1.809000000000000000e+03 4.386798858642578125e+00 -2.372288894653320312e+01 -6.402890197932720184e-03 -1.756479144096374512e-01 -5.461524426937103271e-02 -8.380156010389328003e-02
1.810000000000000000e+03 3.800544738769531250e+00 -2.242995071411132812e+01 3.914948552846908569e-03 -1.663767099380493164e-01 -4.873852804303169250e-02 -6.895384937524795532e-02
1.811000000000000000e+03 5.144562721252441406e+00 -3.543999862670898438e+01 2.027843147516250610e-02 -2.826326787471771240e-01 -7.870627194643020630e-02 -4.882658645510673523e-02
1.812000000000000000e+03 3.138303995132446289e+00 -4.665862083435058594e+00 -1.134879072196781635e-03 -4.005651455372571945e-03 -1.542159123346209526e-03 -4.788450896739959717e-03
1.813000000000000000e+03 3.471625566482543945e+00 -2.119227027893066406e+01 -9.501948021352291107e-03 -1.512021422386169434e-01 -4.821122810244560242e-02 -6.539623439311981201e-02
1.814000000000000000e+03 3.067078590393066406e+00 -1.350493049621582031e+01 -1.128479838371276855e-02 -5.135632678866386414e-02 -1.879233680665493011e-02 -3.580836206674575806e-02
1.815000000000000000e+03 3.875830411911010742e+00 -8.255455970764160156e+00 -4.971395246684551239e-03 -1.395420357584953308e-02 -5.677679553627967834e-03 -1.701101660728454590e-02
1.816000000000000000e+03 2.731513738632202148e+00 5.834173679351806641e+00 -1.356154214590787888e-02 -7.892921566963195801e-03 -6.436339113861322403e-03 1.329592987895011902e-02
1.817000000000000000e+03 2.699157714843750000e+00 1.070675563812255859e+01 7.327952189370989799e-04 -3.392685577273368835e-02 -9.958218783140182495e-03 1.739006303250789642e-02
1.818000000000000000e+03 2.803282499313354492e+00 -8.187448501586914062e+00 -9.129780344665050507e-03 -1.275803148746490479e-02 -6.566343829035758972e-03 -1.108077447861433029e-02
1.819000000000000000e+03 3.055989503860473633e+00 -1.482982444763183594e+01 -1.943696755915880203e-03 -6.577032059431076050e-02 -2.031420543789863586e-02 -3.982671350240707397e-02
1.820000000000000000e+03 2.902430772781372070e+00 1.193703174591064453e+01 6.556679494678974152e-03 -4.365509375929832458e-02 -1.112952455878257751e-02 1.201710198074579239e-02
1.821000000000000000e+03 3.643682479858398438e+00 8.787311553955078125e+00 -6.217142567038536072e-03 -2.630029059946537018e-02 -9.755230508744716644e-03 2.782889641821384430e-02
1.822000000000000000e+03 2.882569551467895508e+00 9.605050086975097656e+00 1.105315051972866058e-02 -3.103183954954147339e-02 -5.993606522679328918e-03 1.854500733315944672e-02
1.823000000000000000e+03 3.191873073577880859e+00 1.921548843383789062e+01 -1.337562873959541321e-02 -8.410456031560897827e-02 -2.924405783414840698e-02 3.465316444635391235e-02
1.824000000000000000e+03 3.283173084259033203e+00 2.061527824401855469e+01 -1.015454437583684921e-02 -1.011336818337440491e-01 -3.338646888732910156e-02 4.329650476574897766e-02
1.825000000000000000e+03 3.375309944152832031e+00 2.200713157653808594e+01 -1.314862817525863647e-02 -1.185170859098434448e-01 -3.949971497058868408e-02 5.345753952860832214e-02
1.826000000000000000e+03 3.440338516235351562e+01 3.362192869186401367e+00 -6.527868658304214478e-02 1.185176298022270203e-01 1.597168296575546265e-02 2.834954261779785156e-01
1.827000000000000000e+03 1.703464126586914062e+01 -5.682278156280517578e+00 -7.214700430631637573e-02 -7.075942121446132660e-03 -2.376688458025455475e-02 1.009160839021205902e-02
1.828000000000000000e+03 1.019112682342529297e+01 8.093963623046875000e+00 7.144771516323089600e-02 1.156512200832366943e-01 5.612967908382415771e-02 4.927036538720130920e-02
1.829000000000000000e+03 5.934330749511718750e+01 -1.100999832153320312e+01 7.203736901283264160e-01 7.848370075225830078e+00 2.570623159408569336e+00 4.451303482055664062e-01
1.830000000000000000e+03 4.953386688232421875e+01 1.683469390869140625e+01 -5.931727886199951172e-01 4.459084510803222656e+00 1.159773468971252441e+00 -2.688013792037963867e+00
1.831000000000000000e+03 4.709395980834960938e+01 1.675820159912109375e+01 8.006229996681213379e-02 4.613474309444427490e-01 1.624229252338409424e-01 -1.102527260780334473e+00
1.832000000000000000e+03 6.496807861328125000e+01 2.809683561325073242e+00 -5.734001398086547852e-01 5.189561843872070312e+00 1.384848475456237793e+00 1.939161300659179688e+00
1.833000000000000000e+03 5.258531951904296875e+01 -3.059014320373535156e+00 -3.255770444869995117e+00 5.785718917846679688e+00 7.589844465255737305e-01 -1.774385333061218262e+00
1.834000000000000000e+03 5.347783279418945312e+01 -5.993700504302978516e+00 -1.172638773918151855e+00 4.221953868865966797e+00 9.147945642471313477e-01 -1.091316223144531250e+00
1.835000000000000000e+03 5.749586105346679688e+01 1.240406799316406250e+01 2.112755298614501953e+00 1.807585239410400391e+00 1.176102161407470703e+00 2.126136541366577148e+00
1.836000000000000000e+03 5.647377014160156250e+01 1.167193412780761719e+01 3.087954521179199219e+00 4.026551723480224609e+00 2.134351730346679688e+00 2.435436487197875977e+00
1.837000000000000000e+03 4.014363098144531250e+01 -1.931888580322265625e+01 -6.509481072425842285e-01 2.560579061508178711e+00 5.728892683982849121e-01 1.116805434226989746e+00
1.838000000000000000e+03 2.613391304016113281e+01 -3.521743297576904297e+00 1.713548153638839722e-01 -1.840122044086456299e-01 -3.797216108068823814e-03 9.429536014795303345e-02
1.839000000000000000e+03 2.652185440063476562e+01 -9.338682293891906738e-01 3.592258989810943604e-01 -2.434846460819244385e-01 3.472238034009933472e-02 -8.356924355030059814e-02
1.840000000000000000e+03 4.494944763183593750e+01 -1.033556175231933594e+01 -5.419254899024963379e-01 4.629053115844726562e+00 1.226138234138488770e+00 3.132544457912445068e-01
1.841000000000000000e+03 3.856459808349609375e+01 7.484598159790039062e+00 -9.587737731635570526e-03 -5.264163948595523834e-03 -4.455570597201585770e-03 5.183487664908170700e-03
1.842000000000000000e+03 6.636196136474609375e+01 -5.553700923919677734e-01 -1.840240359306335449e+00 2.599156141281127930e+00 2.276747226715087891e-01 1.936183571815490723e+00
1.843000000000000000e+03 3.589191436767578125e+01 1.681293869018554688e+01 -9.755314588546752930e-01 -2.296723872423171997e-01 -3.615611493587493896e-01 4.999483376741409302e-02
1.844000000000000000e+03 1.999832916259765625e+01 1.896325874328613281e+01 -5.013538002967834473e-01 3.127508237957954407e-02 -1.410236060619354248e-01 2.653642594814300537e-01
1.845000000000000000e+03 3.189299201965332031e+01 2.747860908508300781e+00 -1.459555923938751221e-01 3.171310126781463623e-01 5.135262385010719299e-02 1.809918433427810669e-01
1.846000000000000000e+03 4.357387924194335938e+01 -7.971206188201904297e+00 -1.996282190084457397e-01 6.750024318695068359e+00 1.965118765830993652e+00 9.490388631820678711e-01
1.847000000000000000e+03 5.953998947143554688e+01 -1.707628250122070312e+01 6.317874789237976074e-01 7.532238960266113281e+00 2.449208021163940430e+00 -7.980014085769653320e-01
1.848000000000000000e+03 6.719601440429687500e+01 1.205835628509521484e+01 4.367923736572265625e+00 1.157010841369628906e+01 4.781409740447998047e+00 3.585456609725952148e-01
1.849000000000000000e+03 7.084406280517578125e+01 -3.849806070327758789e+00 -1.789637565612792969e+00 4.882291316986083984e+00 9.277961850166320801e-01 -1.681274771690368652e+00
1.850000000000000000e+03 7.005570983886718750e+01 -2.796595811843872070e+00 -3.303989648818969727e+00 4.768195629119873047e+00 4.392617940902709961e-01 -2.197834253311157227e+00
1.851000000000000000e+03 5.857747650146484375e+01 1.414890384674072266e+01 2.082752943038940430e+00 2.088131666183471680e+00 1.251265406608581543e+00 2.246845006942749023e+00
1.852000000000000000e+03 5.837085342407226562e+01 -1.353698253631591797e+01 8.358400464057922363e-01 9.017620086669921875e+00 2.956038236618041992e+00 8.972104638814926147e-02
1.853000000000000000e+03 5.788396453857421875e+01 -1.252792930603027344e+01 7.509636282920837402e-01 8.638498306274414062e+00 2.816838502883911133e+00 -1.683177947998046875e-01
1.854000000000000000e+03 7.611513519287109375e+01 9.414591789245605469e+00 -8.961846232414245605e-01 1.123029613494873047e+01 3.100233554840087891e+00 -1.250712156295776367e+00
1.855000000000000000e+03 2.868353843688964844e+01 -9.097782135009765625e+00 -2.690699994564056396e-01 1.640805006027221680e-01 -3.149685263633728027e-02 1.734262853860855103e-01
1.856000000000000000e+03 5.775732803344726562e+01 -8.863049507141113281e+00 5.202070474624633789e-01 7.310872554779052734e+00 2.349323987960815430e+00 -2.328362762928009033e-01
1.857000000000000000e+03 4.444250106811523438e+01 -6.725025773048400879e-01 -1.070121169090270996e+00 4.736857414245605469e+00 1.100020885467529297e+00 2.789722681045532227e+00
1.858000000000000000e+03 5.881657791137695312e+01 -1.470805931091308594e+01 9.269431829452514648e-01 8.071765899658203125e+00 2.699612617492675781e+00 -1.827154308557510376e-01
1.859000000000000000e+03 6.764820861816406250e+01 5.983960151672363281e+00 -7.615228183567523956e-03 1.056644344329833984e+01 3.167648315429687500e+00 -2.096170663833618164e+00
1.860000000000000000e+03 3.318251800537109375e+01 3.032016038894653320e+00 -1.765151917934417725e-01 2.598233819007873535e-01 2.499246038496494293e-02 2.487526684999465942e-01
1.861000000000000000e+03 3.316341400146484375e+01 1.523155570030212402e+00 3.611265420913696289e-01 2.088104039430618286e-01 1.709810942411422729e-01 4.238184392452239990e-01
1.862000000000000000e+03 4.621773147583007812e+01 5.091336369514465332e-01 7.902334928512573242e-01 2.029909610748291016e+00 8.460429906845092773e-01 3.516135215759277344e+00
1.863000000000000000e+03 4.588633728027343750e+01 -1.536166858673095703e+01 -4.446351230144500732e-01 2.086038589477539062e+00 4.924210608005523682e-01 5.712852627038955688e-02
1.864000000000000000e+03 7.550609588623046875e+01 -8.601781845092773438e+00 7.400691509246826172e-01 8.727842330932617188e+00 2.840373277664184570e+00 1.089865088462829590e+00
1.865000000000000000e+03 7.311357879638671875e+01 -9.237289428710937500e+00 1.360961556434631348e+00 1.010040378570556641e+01 3.438409566879272461e+00 -4.117811024188995361e-01
1.866000000000000000e+03 5.585026550292968750e+01 -2.188501167297363281e+01 -9.549697637557983398e-01 5.676588535308837891e+00 1.416485548019409180e+00 1.923841953277587891e+00
1.867000000000000000e+03 5.956470108032226562e+01 -2.665516734123229980e-02 -2.416004657745361328e+00 1.480777382850646973e+00 -2.805681526660919189e-01 -8.957974314689636230e-01
1.868000000000000000e+03 2.859988784790039062e+01 -7.591868400573730469e+00 -1.963523775339126587e-01 2.460145056247711182e-01 1.489863824099302292e-02 2.003774344921112061e-01
1.869000000000000000e+03 2.796841621398925781e+01 -4.714736938476562500e+00 -2.406105026602745056e-02 2.824080586433410645e-01 7.750409841537475586e-02 2.089462429285049438e-01
1.870000000000000000e+03 2.762522697448730469e+01 -2.517624378204345703e+00 3.926266431808471680e-01 6.038038432598114014e-02 1.359021067619323730e-01 1.402635127305984497e-01
1.871000000000000000e+03 6.735662841796875000e+01 1.073919105529785156e+01 3.073202371597290039e+00 1.232564544677734375e+01 4.619654178619384766e+00 -1.035227537155151367e+00
1.872000000000000000e+03 4.482563400268554688e+01 1.642957687377929688e+01 -3.742929100990295410e-01 4.552967250347137451e-01 2.430114522576332092e-02 -3.056892156600952148e-01
1.873000000000000000e+03 4.231138610839843750e+01 1.469146919250488281e+01 -1.024230599403381348e+00 4.157270789146423340e-01 -1.825510710477828979e-01 -5.215289816260337830e-02
1.874000000000000000e+03 5.522135162353515625e+01 -6.383709430694580078e+00 -5.294620990753173828e-01 5.488128662109375000e+00 1.487599968910217285e+00 -1.635782003402709961e+00
1.875000000000000000e+03 4.283158874511718750e+01 -6.789902210235595703e+00 8.862280845642089844e-01 5.004698753356933594e+00 1.767278075218200684e+00 1.551244497299194336e+00
1.876000000000000000e+03 6.488721466064453125e+01 -1.694979858398437500e+01 -4.226105213165283203e-01 4.226950645446777344e+00 1.141301989555358887e+00 -1.588069319725036621e+00
1.877000000000000000e+03 6.703992462158203125e+01 -1.793516731262207031e+01 2.197498269379138947e-02 2.890231132507324219e+00 8.736618757247924805e-01 -1.052021384239196777e+00
1.878000000000000000e+03 3.180604553222656250e+01 1.676046371459960938e+01 -9.463787674903869629e-01 -6.627800315618515015e-02 -3.037970364093780518e-01 4.081684648990631104e-01
1.879000000000000000e+03 5.034194183349609375e+01 -8.595843911170959473e-01 -1.272189617156982422e-01 3.638226032257080078e+00 1.053302168846130371e+00 1.336093544960021973e+00
1.880000000000000000e+03 4.993591308593750000e+01 -2.324872493743896484e+00 -2.666527509689331055e+00 1.084126353263854980e+00 -4.747203588485717773e-01 7.239267826080322266e-01
1.881000000000000000e+03 7.329382324218750000e+01 -1.546359443664550781e+01 1.515096724033355713e-01 9.360489845275878906e+00 2.853599786758422852e+00 -4.647606611251831055e-01
1.882000000000000000e+03 1.393204021453857422e+01 1.592976093292236328e+01 -1.236046552658081055e-01 5.369057878851890564e-02 -2.097422443330287933e-02 6.340718269348144531e-02
1.883000000000000000e+03 2.640073013305664062e+01 1.402489566802978516e+01 -5.123355612158775330e-02 -3.775159642100334167e-02 -2.669554576277732849e-02 1.702262014150619507e-01
1.884000000000000000e+03 3.701395416259765625e+01 -2.021940040588378906e+01 1.654694089666008949e-03 4.271063804626464844e-01 1.286283284425735474e-01 4.933791756629943848e-01
1.885000000000000000e+03 7.098834228515625000e+01 -2.147798776626586914e+00 -2.297303438186645508e+00 5.052639007568359375e+00 8.266006708145141602e-01 -2.895541191101074219e+00
1.886000000000000000e+03 3.572943496704101562e+01 7.396203994750976562e+00 -5.743696540594100952e-02 6.557812448590993881e-03 -1.526374649256467819e-02 9.203930385410785675e-03
1.887000000000000000e+03 1.615118026733398438e+01 -5.059051990509033203e+00 -3.615583479404449463e-02 8.732894435524940491e-03 -8.226881735026836395e-03 2.640615217387676239e-02
1.888000000000000000e+03 2.607435607910156250e+01 1.317272567749023438e+01 -8.610884658992290497e-03 7.663205265998840332e-02 2.040634863078594208e-02 4.565732926130294800e-02
1.889000000000000000e+03 9.827791213989257812e+00 1.101624774932861328e+01 2.037300914525985718e-02 2.263609692454338074e-02 1.290273200720548630e-02 1.596812903881072998e-02
1.890000000000000000e+03 3.426738357543945312e+01 -1.767701339721679688e+01 -3.196457922458648682e-01 1.864875853061676025e-01 -3.994746506214141846e-02 1.271193623542785645e-01
1.891000000000000000e+03 3.483823013305664062e+01 -1.918980979919433594e+01 -1.883598119020462036e-01 2.614227533340454102e-01 2.191888168454170227e-02 1.746145933866500854e-01
1.892000000000000000e+03 7.530579376220703125e+01 -1.196855068206787109e+01 9.678151011466979980e-01 9.590108871459960938e+00 3.167377233505249023e+00 2.347381412982940674e-01
1.893000000000000000e+03 7.470472717285156250e+01 -1.679343986511230469e+01 -3.703511953353881836e-01 9.055244445800781250e+00 2.605468034744262695e+00 -3.558322414755821228e-02
1.894000000000000000e+03 7.265765380859375000e+01 -1.656364250183105469e+01 -1.508789896965026855e+00 9.806159019470214844e+00 2.489210605621337891e+00 8.931530117988586426e-01
1.895000000000000000e+03 5.692002868652343750e+01 -1.539024591445922852e+00 -1.069520115852355957e+00 3.130676984786987305e+00 6.183471083641052246e-01 -4.395860671997070312e+00
1.896000000000000000e+03 5.984721755981445312e+01 -5.141061782836914062e+00 1.227075099945068359e+00 6.680196762084960938e+00 2.372181653976440430e+00 -2.436504662036895752e-01
1.897000000000000000e+03 5.875118255615234375e+01 -5.649199485778808594e+00 8.429620862007141113e-01 6.108926296234130859e+00 2.085566520690917969e+00 -8.106728792190551758e-01
1.898000000000000000e+03 5.596465682983398438e+01 -7.414065361022949219e+00 -8.655031770467758179e-02 6.247791767120361328e+00 1.848372340202331543e+00 -1.089817523956298828e+00
1.899000000000000000e+03 4.009440612792968750e+01 -5.101929664611816406e+00 1.278017997741699219e+00 2.622664868831634521e-01 4.620853662490844727e-01 1.185235381126403809e-01
1.900000000000000000e+03 7.125014495849609375e+01 1.177045059204101562e+01 1.949425220489501953e+00 2.370802402496337891e+00 1.296068310737609863e+00 3.346198201179504395e-01
1.901000000000000000e+03 1.964669418334960938e+01 -1.017158603668212891e+01 -1.978817433118820190e-01 4.250422865152359009e-02 -4.661325365304946899e-02 -2.418318204581737518e-02
1.902000000000000000e+03 7.252815246582031250e+01 -6.933647394180297852e-01 -1.000942230224609375e+00 2.240138769149780273e+00 3.717589676380157471e-01 -3.384432554244995117e+00
1.903000000000000000e+03 6.831644439697265625e+01 1.387049198150634766e+01 2.141299724578857422e+00 8.559225082397460938e+00 3.210157394409179688e+00 1.312478780746459961e+00
1.904000000000000000e+03 6.665470886230468750e+01 1.501727962493896484e+01 5.676159858703613281e-01 1.062771034240722656e+01 3.358597993850708008e+00 -2.406421601772308350e-01
1.905000000000000000e+03 4.145932006835937500e+01 -7.515541076660156250e+00 1.036851853132247925e-01 3.035014629364013672e+00 9.416099190711975098e-01 8.738486170768737793e-01
1.906000000000000000e+03 5.205869293212890625e+01 1.359818267822265625e+01 2.676217351108789444e-03 1.342385387420654297e+01 4.027958869934082031e+00 -3.382558822631835938e+00
1.907000000000000000e+03 5.081690979003906250e+01 1.417855644226074219e+01 2.227050304412841797e+00 7.484741687774658203e+00 2.913537502288818359e+00 -3.759437084197998047e+00
1.908000000000000000e+03 5.094270324707031250e+01 1.360096740722656250e+01 2.275552034378051758e+00 8.147094726562500000e+00 3.126793861389160156e+00 -4.755533218383789062e+00
1.909000000000000000e+03 5.214669036865234375e+01 9.205317497253417969e+00 -1.624664783477783203e+00 1.719118499755859375e+01 4.669956207275390625e+00 3.691568136215209961e+00
1.910000000000000000e+03 5.273428344726562500e+01 8.928829193115234375e+00 -2.265114545822143555e+00 1.818470001220703125e+01 4.775875568389892578e+00 1.644699573516845703e+00
1.911000000000000000e+03 5.309100341796875000e+01 1.321549034118652344e+01 4.017919301986694336e-01 1.680570030212402344e+01 5.162247657775878906e+00 1.468586683273315430e+00
1.912000000000000000e+03 5.429798889160156250e+01 1.167854976654052734e+01 6.722746849060058594e+00 1.162959480285644531e+01 5.505702495574951172e+00 3.379914522171020508e+00
1.913000000000000000e+03 5.344351196289062500e+01 1.230708885192871094e+01 4.939445018768310547e+00 1.775433731079101562e+01 6.808134555816650391e+00 4.605916023254394531e+00
1.914000000000000000e+03 5.457192230224609375e+01 1.047649478912353516e+01 4.106935501098632812e+00 1.119246006011962891e+01 4.589818477630615234e+00 3.071543276309967041e-01
1.915000000000000000e+03 5.423618698120117188e+01 1.109844970703125000e+01 6.857628345489501953e+00 1.194752979278564453e+01 5.641547203063964844e+00 1.410953879356384277e+00
1.916000000000000000e+03 5.042383956909179688e+01 9.339101791381835938e+00 1.019110798835754395e+00 4.568259239196777344e+00 1.676210999488830566e+00 3.181349515914916992e+00
1.917000000000000000e+03 2.366255378723144531e+01 1.168804615736007690e-01 4.459112137556076050e-02 -1.568742543458938599e-01 -3.368493914604187012e-02 -1.089842170476913452e-01
1.918000000000000000e+03 2.539719772338867188e+01 -8.373348116874694824e-01 2.318370938301086426e-01 -3.149007856845855713e-01 -2.491911128163337708e-02 -1.381032615900039673e-01
1.919000000000000000e+03 4.185194969177246094e+00 -4.107545375823974609e+00 -2.636187244206666946e-03 -4.681163933128118515e-03 -2.195205539464950562e-03 -5.392730701714754105e-03
1.920000000000000000e+03 8.498717308044433594e+00 -3.242002725601196289e+00 -7.713913917541503906e-03 1.862980076111853123e-03 -1.755280187353491783e-03 -1.533258240669965744e-03
1.921000000000000000e+03 5.021204757690429688e+01 8.309443473815917969e+00 3.007658421993255615e-01 5.788952350616455078e+00 1.826915383338928223e+00 2.439670085906982422e+00
1.922000000000000000e+03 5.421678161621093750e+01 8.724251747131347656e+00 -1.538716673851013184e+00 1.464151000976562500e+01 3.930838108062744141e+00 -2.449316084384918213e-01
1.923000000000000000e+03 5.337783813476562500e+01 7.501010894775390625e+00 -2.637384891510009766e+00 1.610474967956542969e+01 4.040209293365478516e+00 8.663497567176818848e-01
1.924000000000000000e+03 1.110860538482666016e+01 -4.229834079742431641e+00 -2.729796990752220154e-02 4.359210724942386150e-04 -8.058614097535610199e-03 -7.752094883471727371e-03
1.925000000000000000e+03 2.711458206176757812e+00 -3.406209945678710938e+00 -4.929661517962813377e-04 -1.693767961114645004e-03 -6.560202455148100853e-04 -2.131458139047026634e-03
1.926000000000000000e+03 9.085315704345703125e+00 -3.092662096023559570e+00 -1.780191622674465179e-02 -2.767654950730502605e-04 -5.423604510724544525e-03 -5.005272105336189270e-03
1.927000000000000000e+03 9.207106590270996094e+00 -4.408596515655517578e+00 -2.112372592091560364e-02 6.422392558306455612e-03 -4.410400055348873138e-03 -2.021515741944313049e-03
1.928000000000000000e+03 3.876991271972656250e+01 1.554847526550292969e+01 -9.876795411109924316e-01 2.388842552900314331e-01 -2.246385961771011353e-01 8.292202651500701904e-02
1.929000000000000000e+03 3.940171051025390625e+01 1.462789821624755859e+01 -9.970403909683227539e-01 2.824899852275848389e-01 -2.143651247024536133e-01 1.426882296800613403e-01
1.930000000000000000e+03 3.788943099975585938e+01 1.476764011383056641e+01 -1.201872825622558594e+00 1.437824517488479614e-01 -3.174270987510681152e-01 1.712808609008789062e-01
1.931000000000000000e+03 3.796952819824218750e+01 1.570487403869628906e+01 -1.033037662506103516e+00 2.103640735149383545e-01 -2.468020915985107422e-01 3.359263390302658081e-02
1.932000000000000000e+03 1.076360225677490234e+01 -5.007604122161865234e+00 -3.319552540779113770e-02 8.565411902964115143e-03 -7.389033678919076920e-03 -5.930954590439796448e-03
1.933000000000000000e+03 1.185912990570068359e+01 -4.496264934539794922e+00 -3.050175122916698456e-02 8.009767159819602966e-03 -6.747595500200986862e-03 -9.683563257567584515e-05
1.934000000000000000e+03 1.038287353515625000e+01 -3.944578647613525391e+00 -1.957500912249088287e-02 5.034764297306537628e-03 -4.362073726952075958e-03 -5.474214558489620686e-04
1.935000000000000000e+03 2.065477943420410156e+01 8.313898086547851562e+00 -4.311642050743103027e-02 4.814259335398674011e-02 1.507851993665099144e-03 -7.562960963696241379e-03
1.936000000000000000e+03 2.244795227050781250e+01 7.125561714172363281e+00 -1.231699809432029724e-01 2.581208385527133942e-02 -2.920736931264400482e-02 -6.493581086397171021e-02
1.937000000000000000e+03 4.179255294799804688e+01 1.555886268615722656e+01 -8.623279929161071777e-01 5.059512853622436523e-01 -1.069130077958106995e-01 -3.005337156355381012e-02
1.938000000000000000e+03 4.065652084350585938e+01 1.574902534484863281e+01 -8.738725185394287109e-01 4.399619698524475098e-01 -1.301731616258621216e-01 2.424030750989913940e-02
1.939000000000000000e+03 8.227223396301269531e+00 8.673531532287597656e+00 2.853223681449890137e-02 -1.580677181482315063e-02 3.817639546468853951e-03 2.041343227028846741e-02
1.940000000000000000e+03 3.943996047973632812e+01 1.537186241149902344e+01 -9.947304725646972656e-01 3.947435021400451660e-01 -1.799960881471633911e-01 7.256335020065307617e-02
1.941000000000000000e+03 3.995318651199340820e+00 -5.900251865386962891e+00 -3.864346304908394814e-03 -6.761324591934680939e-03 -3.187701338902115822e-03 -8.565679192543029785e-03
1.942000000000000000e+03 5.226535797119140625e+00 -3.824180364608764648e+00 -7.146643940359354019e-03 -3.906690981239080429e-03 -3.316000569611787796e-03 -4.598383791744709015e-03
1.943000000000000000e+03 1.336082935333251953e+01 -5.069087505340576172e+00 -4.225200787186622620e-02 1.232299488037824631e-02 -8.978703990578651428e-03 6.468598265200853348e-03
1.944000000000000000e+03 3.749522447586059570e+00 4.978402137756347656e+00 -2.343448810279369354e-02 1.913117361254990101e-03 -6.456411443650722504e-03 1.075921021401882172e-02
1.945000000000000000e+03 6.741714000701904297e+00 -3.726380109786987305e+00 -1.768925972282886505e-02 8.153238450177013874e-04 -5.062180571258068085e-03 -5.429669283330440521e-03
1.946000000000000000e+03 5.283099174499511719e+00 8.041433334350585938e+00 2.323783934116363525e-03 -2.809894084930419922e-02 -7.732547353953123093e-03 3.816263750195503235e-02
1.947000000000000000e+03 1.412033176422119141e+01 -5.395948410034179688e+00 -5.127666518092155457e-02 2.451524604111909866e-03 -1.464754156768321991e-02 -4.899594001471996307e-03
1.948000000000000000e+03 5.600932312011718750e+01 9.908849716186523438e+00 9.203867912292480469e-01 4.386407852172851562e+00 1.592038393020629883e+00 4.522458314895629883e-01
1.949000000000000000e+03 4.905560302734375000e+01 3.629791259765625000e+00 3.067287445068359375e+00 3.187760114669799805e+00 1.876514196395874023e+00 1.972404003143310547e+00
1.950000000000000000e+03 5.071936416625976562e+01 2.408989667892456055e+00 3.784086227416992188e+00 6.286042690277099609e+00 3.021038770675659180e+00 1.734685540199279785e+00
1.951000000000000000e+03 5.517637252807617188e+01 1.011236476898193359e+01 2.142634630203247070e+00 8.544404029846191406e+00 3.206111669540405273e+00 6.044270992279052734e-01
1.952000000000000000e+03 5.012527465820312500e+01 1.347581768035888672e+01 1.332153677940368652e+00 7.537368297576904297e+00 2.660856723785400391e+00 -2.584849357604980469e+00
1.953000000000000000e+03 5.019327545166015625e+01 1.509732151031494141e+01 1.826372504234313965e+00 7.455088138580322266e+00 2.784438133239746094e+00 -3.177462816238403320e+00
1.954000000000000000e+03 4.875534057617187500e+01 1.872411155700683594e+01 -3.071513175964355469e-01 3.278533697128295898e+00 8.914147019386291504e-01 -1.851835489273071289e+00
1.955000000000000000e+03 1.488729667663574219e+01 -5.773860454559326172e+00 -5.328597873449325562e-02 1.656704023480415344e-02 -1.101568154990673065e-02 1.720551587641239166e-02
1.956000000000000000e+03 2.448205947875976562e+01 9.193636894226074219e+00 -1.449315249919891357e-01 9.835169650614261627e-03 -4.052890464663505554e-02 -6.879393011331558228e-02
1.957000000000000000e+03 4.245589447021484375e+01 -1.837082266807556152e+00 2.943352162837982178e-01 2.729712009429931641e+00 9.072142243385314941e-01 5.895206332206726074e-01
1.958000000000000000e+03 5.941499710083007812e+01 -2.514796018600463867e+00 5.334511771798133850e-02 4.525011062622070312e+00 1.373506903648376465e+00 -1.337683796882629395e+00
1.959000000000000000e+03 2.294063758850097656e+01 7.716475963592529297e+00 -1.375342905521392822e-01 2.304710820317268372e-02 -3.434615582227706909e-02 -5.666795372962951660e-02
1.960000000000000000e+03 6.582845306396484375e+01 -1.823983001708984375e+01 -3.969390690326690674e-02 3.749816417694091797e+00 1.113036751747131348e+00 -1.417009234428405762e+00
1.961000000000000000e+03 7.564999389648437500e+01 1.325308609008789062e+01 9.171463549137115479e-02 5.810180664062500000e+00 1.770568609237670898e+00 -1.624751567840576172e+00
1.962000000000000000e+03 3.287758827209472656e+00 4.825704574584960938e+00 -1.603987999260425568e-02 -3.018745919689536095e-03 -5.717587657272815704e-03 8.183405734598636627e-03
1.963000000000000000e+03 2.948101997375488281e+01 -1.265445423126220703e+01 -4.977504611015319824e-01 2.273912876844406128e-01 -8.110775053501129150e-02 1.468416005373001099e-01
1.964000000000000000e+03 5.263304519653320312e+01 5.605392932891845703e+00 1.239731192588806152e+00 1.406929683685302734e+01 4.592708587646484375e+00 -2.075471132993698120e-01
1.965000000000000000e+03 2.112047004699707031e+01 -1.236002063751220703e+01 -2.112898081541061401e-01 5.300273746252059937e-02 -4.748612269759178162e-02 -4.414628818631172180e-02
1.966000000000000000e+03 7.487578582763671875e+01 -1.424425244331359863e+00 -1.248865842819213867e+00 5.171625614166259766e+00 1.176827907562255859e+00 7.434375286102294922e-01
1.967000000000000000e+03 3.601363372802734375e+01 3.648013770580291748e-01 6.099522113800048828e-02 -2.060334682464599609e-01 -4.351147264242172241e-02 1.000663614831864834e-03
1.968000000000000000e+03 3.595985412597656250e+01 1.956411004066467285e+00 5.571384355425834656e-02 -1.334327310323715210e-01 -2.331566810607910156e-02 1.341840475797653198e-01
1.969000000000000000e+03 5.223254394531250000e+01 -1.365880668163299561e-01 -9.998614788055419922e-01 8.575939178466796875e+00 2.272823333740234375e+00 -8.955065160989761353e-02
1.970000000000000000e+03 3.494495010375976562e+01 2.482372999191284180e+00 8.248220384120941162e-02 -2.741445973515510559e-02 1.652032323181629181e-02 2.831056118011474609e-01
1.971000000000000000e+03 7.458102416992187500e+01 -5.736678600311279297e+00 -1.038906574249267578e-01 7.492595195770263672e+00 2.216611385345458984e+00 8.208976387977600098e-01
1.972000000000000000e+03 7.248561096191406250e+01 -5.965305805206298828e+00 -1.843620538711547852e-01 6.994733810424804688e+00 2.043111562728881836e+00 -5.745081901550292969e-01
1.973000000000000000e+03 4.416420745849609375e+01 -1.826500892639160156e+00 -7.649103403091430664e-01 6.345778942108154297e+00 1.674260616302490234e+00 1.792811632156372070e+00
1.974000000000000000e+03 1.795938682556152344e+01 -6.481681346893310547e+00 -6.775990128517150879e-02 4.762270022183656693e-03 -1.889928802847862244e-02 4.453941434621810913e-02
1.975000000000000000e+03 6.139665603637695312e+01 -1.273429775238037109e+01 2.747872173786163330e-01 7.440889358520507812e+00 2.314702987670898438e+00 1.561482623219490051e-02
1.976000000000000000e+03 6.307945251464843750e+01 -5.792369246482849121e-01 -2.321352481842041016e+00 5.731205940246582031e+00 1.022956013679504395e+00 3.278600692749023438e+00
1.977000000000000000e+03 7.521300506591796875e+01 -1.980553817749023438e+01 -5.798892974853515625e-01 8.011186599731445312e+00 2.229389190673828125e+00 2.047400549054145813e-02
1.978000000000000000e+03 4.910950660705566406e+00 2.340108680725097656e+01 -2.134232223033905029e-02 -1.254487484693527222e-01 -4.403732344508171082e-02 8.415898680686950684e-02
1.979000000000000000e+03 2.037647438049316406e+01 -1.122480869293212891e+01 -2.513001859188079834e-01 1.516874879598617554e-02 -7.083942741155624390e-02 -3.549762070178985596e-02
1.980000000000000000e+03 7.337588500976562500e+01 1.302840709686279297e+01 1.346466302871704102e+00 4.332577705383300781e+00 1.703713178634643555e+00 -1.117423534393310547e+00
1.981000000000000000e+03 7.428725433349609375e+01 -8.724210739135742188e+00 9.559460878372192383e-01 9.223817825317382812e+00 3.053929090499877930e+00 7.070879340171813965e-01
1.982000000000000000e+03 3.173569488525390625e+01 -1.571928119659423828e+01 -4.347051084041595459e-01 2.235846966505050659e-01 -6.333611905574798584e-02 4.889676813036203384e-03
1.983000000000000000e+03 3.308828735351562500e+01 -1.517413234710693359e+01 -6.979711055755615234e-01 1.908845752477645874e-01 -1.521259546279907227e-01 1.627711355686187744e-01
1.984000000000000000e+03 6.013710021972656250e+01 -1.423740863800048828e+01 5.453147888183593750e-01 7.851311683654785156e+00 2.518987894058227539e+00 -1.338956058025360107e-01
1.985000000000000000e+03 3.891285705566406250e+01 -5.731454849243164062e+00 4.758188724517822266e-01 -6.784546971321105957e-01 -6.079073995351791382e-02 3.071600794792175293e-01
1.986000000000000000e+03 4.838110351562500000e+01 3.119018554687500000e+00 2.701946258544921875e+00 2.694391250610351562e+00 1.618901252746582031e+00 2.071780681610107422e+00
1.987000000000000000e+03 5.063166809082031250e+01 4.193459987640380859e+00 3.221185922622680664e+00 7.071649551391601562e+00 3.087850809097290039e+00 1.142496585845947266e+00
1.988000000000000000e+03 6.854639434814453125e+01 1.237600612640380859e+01 2.843461036682128906e+00 8.338795661926269531e+00 3.354676961898803711e+00 1.379713177680969238e+00
1.989000000000000000e+03 7.616908264160156250e+01 -1.446406745910644531e+01 7.237904667854309082e-01 8.661298751831054688e+00 2.815526723861694336e+00 -4.510132074356079102e-01
1.990000000000000000e+03 7.602168273925781250e+01 -1.271564769744873047e+01 9.648935198783874512e-01 8.906158447265625000e+00 2.961315631866455078e+00 4.691512510180473328e-02
1.991000000000000000e+03 2.879313087463378906e+01 1.774837493896484375e+01 -6.898220777511596680e-01 7.241869717836380005e-02 -1.852210015058517456e-01 3.577645123004913330e-01
1.992000000000000000e+03 5.276146316528320312e+01 7.525119781494140625e+00 -2.261440515518188477e+00 1.607545089721679688e+01 4.144203186035156250e+00 6.891799569129943848e-01
1.993000000000000000e+03 4.984100341796875000e+01 1.834468841552734375e+01 -1.963443011045455933e-01 4.426305294036865234e+00 1.268988370895385742e+00 -2.001886367797851562e+00
1.994000000000000000e+03 4.851704788208007812e+01 1.729183578491210938e+01 4.525502026081085205e-01 2.713101148605346680e+00 9.496954083442687988e-01 -2.612009048461914062e+00
1.995000000000000000e+03 3.286582231521606445e+00 -1.995606040954589844e+01 2.935987897217273712e-03 -1.344009637832641602e-01 -3.943949565291404724e-02 -5.964075401425361633e-02
1.996000000000000000e+03 5.522965908050537109e+00 -2.280357170104980469e+01 3.649394726380705833e-03 -1.414134204387664795e-01 -4.132920503616333008e-02 -9.711065888404846191e-02
1.997000000000000000e+03 5.958599567413330078e+00 -3.086750602722167969e+01 1.023953035473823547e-02 -2.158248126506805420e-01 -6.167558208107948303e-02 -8.349867165088653564e-02
1.998000000000000000e+03 2.772451782226562500e+01 -9.783380031585693359e-01 5.021139979362487793e-01 -6.189686805009841919e-02 1.320651322603225708e-01 1.103718020021915436e-02
1.999000000000000000e+03 2.645416069030761719e+01 3.446348309516906738e-01 1.971696168184280396e-01 -3.425337076187133789e-01 -4.360922798514366150e-02 -2.353797107934951782e-01
2.000000000000000000e+03 6.030609893798828125e+01 1.655979919433593750e+01 2.361663818359375000e+00 2.699750661849975586e+00 1.518424391746520996e+00 6.392787694931030273e-01
2.001000000000000000e+03 3.873921871185302734e+00 -7.059691429138183594e+00 -1.251591835170984268e-02 -9.246140718460083008e-03 -6.528617814183235168e-03 -1.089972537010908127e-02
2.002000000000000000e+03 4.315867996215820312e+01 1.518705272674560547e+01 -9.615317583084106445e-01 4.462429583072662354e-01 -1.545866429805755615e-01 -1.031313836574554443e-01
2.003000000000000000e+03 6.384079360961914062e+01 2.221126317977905273e+00 -1.667023062705993652e+00 4.310657024383544922e+00 7.930901050567626953e-01 2.189397811889648438e+00
2.004000000000000000e+03 6.085784530639648438e+01 1.854030036926269531e+01 1.622039079666137695e+00 3.883151054382324219e+00 1.651557087898254395e+00 2.247124165296554565e-01
2.005000000000000000e+03 7.352423858642578125e+01 -4.316251277923583984e+00 -5.067579150199890137e-01 6.048009872436523438e+00 1.662375569343566895e+00 -1.547367572784423828e-01
2.006000000000000000e+03 7.251181793212890625e+01 -3.971119880676269531e+00 -1.025753617286682129e+00 5.757627010345458984e+00 1.419561982154846191e+00 -1.194374203681945801e+00
2.007000000000000000e+03 7.480014038085937500e+01 -1.108944034576416016e+01 1.396860957145690918e+00 9.835966110229492188e+00 3.369848012924194336e+00 1.414006352424621582e-01
2.008000000000000000e+03 2.223726654052734375e+01 9.070940017700195312e+00 -8.365836739540100098e-02 7.159402966499328613e-02 -3.619299503043293953e-03 -5.012255627661943436e-03
2.009000000000000000e+03 6.723898315429687500e+01 4.875972568988800049e-01 -1.480193853378295898e+00 5.357777595520019531e+00 1.163275122642517090e+00 6.453879475593566895e-01
2.010000000000000000e+03 6.677747344970703125e+01 8.142179489135742188e+00 -9.493436813354492188e-01 1.180250740051269531e+01 3.255949020385742188e+00 -1.390038013458251953e+00
2.011000000000000000e+03 1.879316902160644531e+01 2.039338684082031250e+01 -3.237249553203582764e-01 8.211902342736721039e-03 -9.465391933917999268e-02 2.953623831272125244e-01
2.012000000000000000e+03 1.736191558837890625e+01 1.863353347778320312e+01 -3.042096793651580811e-01 5.439836531877517700e-02 -7.494339346885681152e-02 1.768251210451126099e-01
2.013000000000000000e+03 1.673808670043945312e+01 -8.250206947326660156e+00 -1.130671650171279907e-01 2.834844589233398438e-02 -2.541561424732208252e-02 1.464510057121515274e-02
2.014000000000000000e+03 4.551195526123046875e+01 1.787028694152832031e+01 5.514835566282272339e-02 7.602564692497253418e-01 2.446214556694030762e-01 -6.153039932250976562e-01
2.015000000000000000e+03 4.564391326904296875e+01 1.693198394775390625e+01 -3.371752202510833740e-01 4.671529829502105713e-01 3.899332508444786072e-02 -5.456669330596923828e-01
2.016000000000000000e+03 7.182427978515625000e+01 -1.480489850044250488e+00 -2.434747934341430664e+00 4.454369544982910156e+00 6.058864593505859375e-01 -3.405551433563232422e+00
2.017000000000000000e+03 5.026416015625000000e+01 5.002607345581054688e+00 2.068597555160522461e+00 6.506043910980224609e+00 2.572392463684082031e+00 1.343312501907348633e+00
2.018000000000000000e+03 4.349163818359375000e+01 -1.281514835357666016e+01 -1.385332942008972168e-01 4.312427997589111328e+00 1.252168416976928711e+00 1.151656866073608398e+00
2.019000000000000000e+03 6.294358825683593750e+01 3.273222684860229492e+00 -1.307577848434448242e+00 3.135966300964355469e+00 5.485165119171142578e-01 1.156118750572204590e+00
2.020000000000000000e+03 6.638294219970703125e+01 1.224514961242675781e+00 -5.839818716049194336e-01 5.301376819610595703e+00 1.415218591690063477e+00 1.804008245468139648e+00
2.021000000000000000e+03 4.353871345520019531e+00 -1.481662273406982422e+01 -1.560468971729278564e-02 -6.038697808980941772e-02 -2.279750071465969086e-02 -5.491911247372627258e-02
2.022000000000000000e+03 3.466744232177734375e+01 1.825723648071289062e+01 -5.664590001106262207e-01 -1.730954945087432861e-01 -2.218663394451141357e-01 2.319604754447937012e-01
2.023000000000000000e+03 3.732361602783203125e+01 -3.399300813674926758e+00 5.988575220108032227e-01 -9.912394881248474121e-01 -1.177145838737487793e-01 -2.452244609594345093e-01
2.024000000000000000e+03 7.559544372558593750e+01 -2.258625984191894531e+01 -2.545618414878845215e-01 7.653955936431884766e+00 2.219818353652954102e+00 2.458004951477050781e-01
2.025000000000000000e+03 7.523375701904296875e+01 -2.941860198974609375e+01 7.308370620012283325e-02 7.280430316925048828e+00 2.206054210662841797e+00 1.935601234436035156e-01
2.026000000000000000e+03 7.829733276367187500e+01 5.464459419250488281e+00 8.426051735877990723e-01 9.906419754028320312e+00 3.224707365036010742e+00 -2.160175085067749023e+00
2.027000000000000000e+03 3.864436340332031250e+01 -1.959296035766601562e+01 1.277332156896591187e-01 1.504469990730285645e+00 4.896609485149383545e-01 1.177362561225891113e+00
2.028000000000000000e+03 4.495241165161132812e+00 1.307319068908691406e+01 3.456055186688899994e-03 -4.084143042564392090e-02 -1.121561229228973389e-02 1.479067467153072357e-02
2.029000000000000000e+03 6.196506023406982422e+00 1.493414688110351562e+01 -8.338165469467639923e-03 -3.051500208675861359e-02 -1.165594998747110367e-02 2.502015791833400726e-02
2.030000000000000000e+03 5.243490219116210938e+01 2.848800897598266602e+00 4.552033901214599609e+00 1.215157890319824219e+01 5.011083602905273438e+00 8.151817321777343750e-01
2.031000000000000000e+03 7.644705200195312500e+01 -3.396305465698242188e+01 -2.657674020156264305e-03 7.470376014709472656e+00 2.240315675735473633e+00 9.878873825073242188e-02
2.032000000000000000e+03 7.448650360107421875e+01 -1.560175037384033203e+01 -4.053723216056823730e-01 9.604329109191894531e+00 2.759687185287475586e+00 -5.181787014007568359e-01
2.033000000000000000e+03 7.442146301269531250e+01 1.432094383239746094e+01 7.111050486564636230e-01 5.252558708190917969e+00 1.789099097251892090e+00 -1.056073665618896484e+00
2.034000000000000000e+03 7.284736633300781250e+01 2.441175079345703125e+01 2.620824379846453667e-03 6.257603168487548828e+00 1.878067255020141602e+00 3.504056036472320557e-01
2.035000000000000000e+03 3.164152526855468750e+01 -1.283382320404052734e+01 -5.652404427528381348e-01 1.567324399948120117e-01 -1.225524023175239563e-01 1.996536105871200562e-01
2.036000000000000000e+03 5.966046142578125000e+01 -1.026064634323120117e+00 -1.605210542678833008e+00 3.315105676651000977e+00 5.129685401916503906e-01 -7.372759580612182617e-01
2.037000000000000000e+03 3.515261411666870117e+00 3.349588394165039062e+01 1.317891199141740799e-02 -3.179396986961364746e-01 -9.142823517322540283e-02 6.865663081407546997e-02
2.038000000000000000e+03 3.055294513702392578e+00 3.487082290649414062e+01 1.444423478096723557e-02 -3.555584549903869629e-01 -1.023342609405517578e-01 4.797196015715599060e-02
2.039000000000000000e+03 4.399975776672363281e+00 1.919070243835449219e+01 -1.698020286858081818e-02 -7.673879712820053101e-02 -2.811569906771183014e-02 4.529628902673721313e-02
2.040000000000000000e+03 2.635441780090332031e+01 -1.075507450103759766e+01 -3.773452043533325195e-01 1.329282820224761963e-01 -7.332507520914077759e-02 1.708620190620422363e-01
2.041000000000000000e+03 3.069276046752929688e+01 1.248157978057861328e+00 1.013651564717292786e-01 6.250344514846801758e-01 2.179198861122131348e-01 7.595354318618774414e-02
2.042000000000000000e+03 3.066941833496093750e+01 2.464963197708129883e+00 -2.722531557083129883e-01 3.959785401821136475e-01 3.711761161684989929e-02 1.049521639943122864e-01
2.043000000000000000e+03 4.692168045043945312e+01 1.626610994338989258e+00 1.703017711639404297e+00 1.460390448570251465e+00 9.490224719047546387e-01 2.791580677032470703e+00
2.044000000000000000e+03 4.572001266479492188e+01 -8.920940160751342773e-01 -8.788061738014221191e-01 2.790225982666015625e+00 5.734259486198425293e-01 3.918311595916748047e+00
2.045000000000000000e+03 7.448268127441406250e+01 -1.003922176361083984e+01 1.332768082618713379e+00 9.540753364562988281e+00 3.262056589126586914e+00 4.879911243915557861e-01
2.046000000000000000e+03 2.627658462524414062e+01 1.756215095520019531e+01 -8.222233653068542480e-01 6.305371224880218506e-02 -2.277508974075317383e-01 2.497888356447219849e-01
2.047000000000000000e+03 4.130752182006835938e+01 -4.419824123382568359e+00 2.072052001953125000e+00 2.366986274719238281e+00 1.331711530685424805e+00 8.625218272209167480e-02
2.048000000000000000e+03 6.552260589599609375e+01 1.922743678092956543e+00 -4.946994185447692871e-01 4.771240711212158203e+00 1.282962441444396973e+00 2.476015090942382812e+00
2.049000000000000000e+03 6.523419952392578125e+01 -1.576145267486572266e+01 -6.815988421440124512e-01 3.975404262542724609e+00 9.881415963172912598e-01 -1.118301987648010254e+00
2.050000000000000000e+03 2.891844177246093750e+01 1.486366367340087891e+01 -6.597320437431335449e-01 3.914387151598930359e-02 -1.861764490604400635e-01 2.001158297061920166e-01
2.051000000000000000e+03 4.391773986816406250e+01 1.745872879028320312e+01 -3.665567338466644287e-01 6.262263059616088867e-01 7.790086418390274048e-02 -2.899613678455352783e-01
2.052000000000000000e+03 7.124021148681640625e+01 -7.110062241554260254e-01 -2.223604679107666016e+00 4.652055263519287109e+00 7.285351753234863281e-01 -3.481739282608032227e+00
2.053000000000000000e+03 4.894251251220703125e+01 7.689892053604125977e-01 2.246707677841186523e+00 2.660869836807250977e+00 1.472273230552673340e+00 2.803369522094726562e+00
2.054000000000000000e+03 2.448157691955566406e+01 -2.450629234313964844e+00 1.417348831892013550e-01 -4.100931882858276367e-01 -8.050749450922012329e-02 4.678997211158275604e-03
2.055000000000000000e+03 2.948820877075195312e+01 -5.782008647918701172e+00 -7.445812970399856567e-02 4.417742788791656494e-01 1.101948395371437073e-01 1.044278442859649658e-01
2.056000000000000000e+03 2.829747200012207031e+01 -6.104470729827880859e+00 -7.391775399446487427e-02 2.408639490604400635e-01 5.008385702967643738e-02 1.709212660789489746e-01
2.057000000000000000e+03 6.873598480224609375e+01 -1.885725593566894531e+01 5.339066386222839355e-01 2.873973369598388672e+00 1.022364020347595215e+00 1.009243130683898926e-01
2.058000000000000000e+03 7.017251586914062500e+01 -1.874040412902832031e+01 1.018226668238639832e-01 3.373124361038208008e+00 1.042484045028686523e+00 1.263667702674865723e+00
2.059000000000000000e+03 7.298678588867187500e+01 -1.827557945251464844e+01 -1.222267150878906250e+00 8.217966079711914062e+00 2.098709821701049805e+00 7.257652878761291504e-01
2.060000000000000000e+03 5.813793182373046875e+01 1.470422363281250000e+01 2.013479471206665039e+00 3.176183462142944336e+00 1.556898951530456543e+00 2.600824117660522461e+00
2.061000000000000000e+03 5.739315795898437500e+01 1.343454265594482422e+01 2.164944410324096680e+00 3.144371271133422852e+00 1.592794775962829590e+00 2.991468906402587891e+00
2.062000000000000000e+03 1.147852420806884766e+01 1.259220886230468750e+01 -5.867489147931337357e-03 4.328455030918121338e-02 1.122511830180883408e-02 3.180756047368049622e-02
2.063000000000000000e+03 1.228451347351074219e+01 1.164220714569091797e+01 3.016059845685958862e-02 5.459747090935707092e-02 2.542742155492305756e-02 4.203797876834869385e-02
2.064000000000000000e+03 5.677893066406250000e+01 -8.274295806884765625e+00 5.214776396751403809e-01 6.515536785125732422e+00 2.111104249954223633e+00 -6.911409497261047363e-01
2.065000000000000000e+03 4.210389328002929688e+01 -9.716777801513671875e+00 -1.080885767936706543e+00 4.037078857421875000e+00 8.868578672409057617e-01 1.447721958160400391e+00
2.066000000000000000e+03 4.328582763671875000e+01 -1.132052421569824219e+01 -1.069112539291381836e+00 4.876070976257324219e+00 1.142087459564208984e+00 1.446623206138610840e+00
2.067000000000000000e+03 5.728905487060546875e+01 -2.346028327941894531e+01 -1.310857772827148438e+00 5.195578098297119141e+00 1.165416121482849121e+00 3.199509084224700928e-01
2.068000000000000000e+03 6.693937683105468750e+01 5.341774940490722656e+00 5.553161501884460449e-01 1.041207790374755859e+01 3.290218114852905273e+00 -1.867683291435241699e+00
2.069000000000000000e+03 6.808227539062500000e+01 1.540903091430664062e+01 1.354275345802307129e+00 8.295532226562500000e+00 2.894942283630371094e+00 1.015088915824890137e+00
2.070000000000000000e+03 6.948918151855468750e+01 1.574194622039794922e+01 1.309451103210449219e+00 7.071083545684814453e+00 2.514160394668579102e+00 9.991170167922973633e-01
2.071000000000000000e+03 3.356773757934570312e+01 2.011467170715332031e+01 -2.997931241989135742e-01 -4.636847600340843201e-02 -1.038484796881675720e-01 2.526743412017822266e-01
2.072000000000000000e+03 3.072780990600585938e+01 1.901855850219726562e+01 -5.827500224113464355e-01 -1.698527135886251926e-03 -1.753345578908920288e-01 3.928418457508087158e-01
2.073000000000000000e+03 5.011259460449218750e+01 5.871486663818359375e+00 1.667144179344177246e+00 6.047952651977539062e+00 2.314529180526733398e+00 1.347205638885498047e+00
2.074000000000000000e+03 5.559085083007812500e+01 -4.537316799163818359e+00 -1.379162788391113281e+00 5.771646499633789062e+00 1.317745089530944824e+00 -2.785794019699096680e+00
2.075000000000000000e+03 6.347645568847656250e+01 -1.517690658569335938e+01 -2.502117455005645752e-01 5.431148052215576172e+00 1.554280877113342285e+00 -1.153392910957336426e+00
2.076000000000000000e+03 4.455818557739257812e+01 -1.351726722717285156e+01 -4.099328815937042236e-01 3.087429285049438477e+00 8.032489418983459473e-01 5.540858507156372070e-01
2.077000000000000000e+03 5.362453842163085938e+01 -4.041877269744873047e+00 -2.933891057968139648e+00 5.729239463806152344e+00 8.386045098304748535e-01 -2.034674644470214844e+00
2.078000000000000000e+03 4.761464595794677734e+00 3.761511611938476562e+01 2.421783097088336945e-02 -3.434689044952392578e-01 -9.577532112598419189e-02 5.485557764768600464e-02
2.079000000000000000e+03 3.188364601135253906e+01 1.346562147140502930e+00 9.719237685203552246e-02 5.720559358596801758e-01 2.007744908332824707e-01 4.133393466472625732e-01
2.080000000000000000e+03 6.021495056152343750e+01 -3.430639505386352539e+00 6.074249744415283203e-01 5.863977432250976562e+00 1.941420793533325195e+00 -7.546284794807434082e-01
2.081000000000000000e+03 5.721492767333984375e+01 -5.181027889251708984e+00 -7.662317901849746704e-02 5.648853778839111328e+00 1.671669125556945801e+00 -1.899336218833923340e+00
2.082000000000000000e+03 5.829443740844726562e+01 -1.045012474060058594e+01 5.248750448226928711e-01 8.231434822082519531e+00 2.626893043518066406e+00 1.354430317878723145e-01
2.083000000000000000e+03 7.511673736572265625e+01 -3.738106918334960938e+01 6.810887251049280167e-03 7.260106563568115234e+00 2.180075168609619141e+00 -1.056384760886430740e-02
2.084000000000000000e+03 6.124296188354492188e+01 -1.144250392913818359e+01 3.401164412498474121e-01 7.715469360351562500e+00 2.416675806045532227e+00 9.248264878988265991e-02
2.085000000000000000e+03 6.368597984313964844e+00 -3.446537399291992188e+01 4.245597869157791138e-02 -2.384161949157714844e-01 -5.878806486725807190e-02 -6.319250911474227905e-02
2.086000000000000000e+03 2.752985000610351562e+01 -1.056831932067871094e+01 -3.283732235431671143e-01 1.548473089933395386e-01 -5.205777660012245178e-02 1.262823790311813354e-01
2.087000000000000000e+03 4.178165817260742188e+01 -8.725255966186523438e+00 -6.137030124664306641e-01 3.664178371429443359e+00 9.151425957679748535e-01 1.371922135353088379e+00
2.088000000000000000e+03 4.082758712768554688e+01 -6.287628650665283203e+00 7.466710805892944336e-01 1.945483922958374023e+00 8.076465129852294922e-01 7.444559335708618164e-01
2.089000000000000000e+03 6.201582431793212891e+00 -5.758071899414062500e+00 -1.266782917082309723e-02 -2.008714945986866951e-03 -4.402962978929281235e-03 -9.051335975527763367e-03
2.090000000000000000e+03 3.786303329467773438e+01 8.248342514038085938e+00 -1.082762237638235092e-02 -1.569501619087532163e-04 -3.295371541753411293e-03 -1.483999774791300297e-03
2.091000000000000000e+03 4.835813522338867188e+00 -2.625552940368652344e+01 3.152043092995882034e-03 -2.001382559537887573e-01 -5.909586325287818909e-02 -8.786283433437347412e-02
2.092000000000000000e+03 5.659940242767333984e+00 -2.838347434997558594e+01 5.915893241763114929e-03 -2.051730453968048096e-01 -5.977714434266090393e-02 -9.187345951795578003e-02
2.093000000000000000e+03 6.092829895019531250e+01 -8.958838462829589844e+00 7.254683375358581543e-01 8.298723220825195312e+00 2.707257270812988281e+00 4.162589013576507568e-01
2.094000000000000000e+03 6.029874801635742188e+01 -6.332614898681640625e+00 1.310271978378295898e+00 7.337197780609130859e+00 2.594240903854370117e+00 6.632960587739944458e-02
2.095000000000000000e+03 4.901812362670898438e+01 -1.882026290893554688e+01 -1.543288111686706543e+00 8.728309869766235352e-01 -2.011371552944183350e-01 -2.450167536735534668e-01
2.096000000000000000e+03 5.083414077758789062e+01 -2.160993957519531250e+01 -4.027810990810394287e-01 9.656727910041809082e-01 1.688675135374069214e-01 8.930991590023040771e-02
2.097000000000000000e+03 4.436664199829101562e+01 -1.578375530242919922e+01 -4.027090370655059814e-01 2.904586553573608398e+00 7.505632638931274414e-01 -5.966796353459358215e-02
2.098000000000000000e+03 6.003375244140625000e+01 -9.837013244628906250e+00 6.110061407089233398e-01 8.075756072998046875e+00 2.606028556823730469e+00 5.164671540260314941e-01
2.099000000000000000e+03 5.773996734619140625e+01 -6.104920387268066406e+00 3.734839856624603271e-01 6.128638267517089844e+00 1.950636625289916992e+00 -9.012019634246826172e-01
2.100000000000000000e+03 5.619999694824218750e+01 -5.706538200378417969e+00 -6.179915666580200195e-01 5.893031120300292969e+00 1.582511901855468750e+00 -1.590623259544372559e+00
2.101000000000000000e+03 7.640822601318359375e+01 -5.196081995964050293e-01 -1.535808563232421875e+00 7.740204334259033203e+00 1.861318707466125488e+00 8.734571933746337891e-01
2.102000000000000000e+03 7.664778900146484375e+01 -1.174413681030273438e+01 6.386062502861022949e-01 8.644744873046875000e+00 2.785005331039428711e+00 1.807995736598968506e-01
2.103000000000000000e+03 3.000559997558593750e+01 1.803652000427246094e+01 -7.013509273529052734e-01 6.286928802728652954e-02 -1.915444880723953247e-01 3.742097616195678711e-01
2.104000000000000000e+03 2.643521118164062500e+01 -2.242494344711303711e+00 3.174530267715454102e-01 -2.063983082771301270e-01 3.331641852855682373e-02 3.242676705121994019e-02
2.105000000000000000e+03 7.462139892578125000e+01 1.627653390169143677e-01 -2.514279365539550781e+00 3.231419563293457031e+00 2.151420712471008301e-01 1.134885668754577637e+00
2.106000000000000000e+03 6.189272689819335938e+01 -1.798836898803710938e+01 -1.320145130157470703e-01 5.935318946838378906e+00 1.740991234779357910e+00 -1.356649637222290039e+00
2.107000000000000000e+03 5.912343215942382812e+01 -1.594128322601318359e+01 8.358625769615173340e-01 8.277729034423828125e+00 2.734077453613281250e+00 -5.773925185203552246e-01
2.108000000000000000e+03 4.977389144897460938e+01 3.002713680267333984e+00 3.320689439773559570e+00 4.699062347412109375e+00 2.405925512313842773e+00 1.857759356498718262e+00
2.109000000000000000e+03 4.339258193969726562e+00 -1.606019020080566406e+01 -6.376309785991907120e-03 -7.399345189332962036e-02 -2.411092817783355713e-02 -5.902194976806640625e-02
2.110000000000000000e+03 4.616645336151123047e+00 -1.970310211181640625e+01 -1.291334535926580429e-02 -1.112809404730796814e-01 -3.725828602910041809e-02 -7.728906720876693726e-02
2.111000000000000000e+03 5.125946426391601562e+01 1.360339641571044922e+01 1.928641438484191895e+00 9.142385482788085938e+00 3.321308135986328125e+00 -4.771448612213134766e+00
2.112000000000000000e+03 5.208114624023437500e+01 1.432960891723632812e+01 -9.602020680904388428e-02 1.146222209930419922e+01 3.409860372543334961e+00 -2.202799558639526367e+00
2.113000000000000000e+03 5.175397491455078125e+01 8.646790504455566406e+00 -1.343750357627868652e+00 1.361815547943115234e+01 3.682321548461914062e+00 3.409096717834472656e+00
2.114000000000000000e+03 5.383282852172851562e+01 1.236362743377685547e+01 5.009648799896240234e+00 1.468468189239501953e+01 5.908299446105957031e+00 4.625822067260742188e+00
2.115000000000000000e+03 5.326718521118164062e+01 8.911865234375000000e+00 -2.116515636444091797e+00 1.789502334594726562e+01 4.733552455902099609e+00 2.032982558012008667e-01
2.116000000000000000e+03 5.483559036254882812e+01 1.170682430267333984e+01 5.490572929382324219e+00 9.548214912414550781e+00 4.511636257171630859e+00 3.212553977966308594e+00
2.117000000000000000e+03 5.400647354125976562e+01 1.217226219177246094e+01 5.755396842956542969e+00 1.355744552612304688e+01 5.793852329254150391e+00 4.549597263336181641e+00
2.118000000000000000e+03 5.425962829589843750e+01 1.243153095245361328e+01 4.723194122314453125e+00 1.260043525695800781e+01 5.197088718414306641e+00 4.433098316192626953e+00
2.119000000000000000e+03 5.447201538085937500e+01 1.017945289611816406e+01 2.774330377578735352e+00 1.194809341430664062e+01 4.416727066040039062e+00 -6.148298084735870361e-02
2.120000000000000000e+03 5.321334838867187500e+01 9.345652580261230469e+00 -1.360863327980041504e+00 1.899522781372070312e+01 5.290309429168701172e+00 3.585876151919364929e-02
2.121000000000000000e+03 5.479632568359375000e+01 9.463922500610351562e+00 4.095325171947479248e-01 1.167065906524658203e+01 3.624057292938232422e+00 -2.987680733203887939e-01
2.122000000000000000e+03 5.392518997192382812e+01 9.693051338195800781e+00 1.053410172462463379e+00 1.604293441772460938e+01 5.128903388977050781e+00 -1.134408473968505859e+00
2.123000000000000000e+03 5.353653335571289062e+01 9.732749938964843750e+00 6.299559473991394043e-01 1.796149444580078125e+01 5.577435493469238281e+00 -1.060961246490478516e+00
2.124000000000000000e+03 5.419120025634765625e+01 1.285346317291259766e+01 3.265165328979492188e+00 1.281477737426757812e+01 4.823982715606689453e+00 4.358561038970947266e+00
2.125000000000000000e+03 5.297134017944335938e+01 8.962446212768554688e+00 -2.245177745819091797e+00 1.840229225158691406e+01 4.847134590148925781e+00 9.657031297683715820e-01
2.126000000000000000e+03 5.531340026855468750e+01 1.073292827606201172e+01 3.352360725402832031e+00 7.359021663665771484e+00 3.213414669036865234e+00 1.415475726127624512e+00
2.127000000000000000e+03 5.070462417602539062e+01 1.334217739105224609e+01 1.535756826400756836e+00 6.785881042480468750e+00 2.496491432189941406e+00 -4.216964721679687500e+00
2.128000000000000000e+03 5.157001495361328125e+01 1.342666244506835938e+01 8.588820695877075195e-01 1.109627151489257812e+01 3.586545944213867188e+00 -4.873227119445800781e+00
2.129000000000000000e+03 5.097898101806640625e+01 9.267266273498535156e+00 6.807699203491210938e-01 8.633194923400878906e+00 2.794189453125000000e+00 4.213150024414062500e+00
2.130000000000000000e+03 5.075965118408203125e+01 8.935156822204589844e+00 4.586049616336822510e-01 7.343734264373779297e+00 2.340701818466186523e+00 3.637017250061035156e+00
2.131000000000000000e+03 5.102025222778320312e+01 8.556120872497558594e+00 -2.529867589473724365e-01 9.521182060241699219e+00 2.780458688735961914e+00 3.502818584442138672e+00
2.132000000000000000e+03 5.036425781250000000e+01 8.903060913085937500e+00 7.311851382255554199e-01 5.451317310333251953e+00 1.854750752449035645e+00 3.081767320632934570e+00
2.133000000000000000e+03 9.951810836791992188e+00 -4.732213497161865234e+00 -2.403898723423480988e-02 -1.568192732520401478e-03 -7.682154420763254166e-03 -1.165590249001979828e-02
2.134000000000000000e+03 6.740896701812744141e+00 -4.512758731842041016e+00 -6.360005587339401245e-03 -3.232737071812152863e-03 -2.877822844311594963e-03 -6.783745717257261276e-03
2.135000000000000000e+03 8.752332687377929688e+00 -3.896611928939819336e+00 -2.043180912733078003e-02 -3.560901619493961334e-03 -7.197813596576452255e-03 -1.078121084719896317e-02
2.136000000000000000e+03 1.222014808654785156e+01 -5.661278247833251953e+00 -4.207436367869377136e-02 1.190943270921707153e-02 -9.049479849636554718e-03 -1.467967813368886709e-04
2.137000000000000000e+03 5.544054031372070312e+01 1.212128734588623047e+01 4.321662902832031250e+00 7.478997230529785156e+00 3.540197849273681641e+00 3.591486454010009766e+00
2.138000000000000000e+03 5.671932601928710938e+01 1.250627517700195312e+01 2.764350652694702148e+00 3.625518321990966797e+00 1.916960716247558594e+00 3.084534406661987305e+00
2.139000000000000000e+03 5.537844467163085938e+01 9.619259834289550781e+00 2.316411882638931274e-01 7.512356281280517578e+00 2.323199272155761719e+00 5.107571482658386230e-01
2.140000000000000000e+03 3.710703659057617188e+01 1.687110137939453125e+01 -8.357544541358947754e-01 8.146291226148605347e-02 -2.262874692678451538e-01 7.644665427505970001e-03
2.141000000000000000e+03 5.165848922729492188e+01 1.542541980743408203e+01 -2.065207436680793762e-02 8.925415992736816406e+00 2.671429157257080078e+00 -1.797307729721069336e+00
2.142000000000000000e+03 5.084661102294921875e+01 1.500589656829833984e+01 1.115156412124633789e+00 7.651721954345703125e+00 2.630063533782958984e+00 -2.619743108749389648e+00
2.143000000000000000e+03 4.105558395385742188e+00 5.296173572540283203e+00 -1.480550318956375122e-02 -3.115905215963721275e-03 -5.376422312110662460e-03 1.225939858704805374e-02
2.144000000000000000e+03 4.311816215515136719e+00 5.750188827514648438e+00 -3.112980350852012634e-02 -3.036848502233624458e-03 -1.024999562650918961e-02 1.844291388988494873e-02
2.145000000000000000e+03 1.150432586669921875e+01 -5.325622081756591797e+00 -4.162620380520820618e-02 4.474110901355743408e-03 -1.114562805742025375e-02 -1.070945058017969131e-02
2.146000000000000000e+03 4.115044021606445312e+01 1.634044647216796875e+01 -7.999728322029113770e-01 4.956593811511993408e-01 -9.129403531551361084e-02 1.018608640879392624e-02
2.147000000000000000e+03 5.076666831970214844e+00 8.973287582397460938e+00 3.129962598904967308e-03 -3.223845735192298889e-02 -8.732548914849758148e-03 3.830032423138618469e-02
2.148000000000000000e+03 5.759835052490234375e+01 1.419098663330078125e+01 2.156341791152954102e+00 3.492048263549804688e+00 1.694517016410827637e+00 2.971448659896850586e+00
2.149000000000000000e+03 5.672419738769531250e+01 1.341701793670654297e+01 2.386938333511352539e+00 4.347061634063720703e+00 2.020200014114379883e+00 3.442656755447387695e+00
2.150000000000000000e+03 4.532807826995849609e+00 8.267438888549804688e+00 3.800706239417195320e-03 -2.068584226071834564e-02 -5.065540783107280731e-03 3.185322508215904236e-02
2.151000000000000000e+03 5.229130935668945312e+01 1.862150573730468750e+01 -8.062172532081604004e-01 6.567116260528564453e+00 1.728269696235656738e+00 -7.484418749809265137e-01
2.152000000000000000e+03 5.399562454223632812e+01 7.946847438812255859e+00 -2.233022928237915039e+00 1.517686748504638672e+01 3.883153438568115234e+00 4.047465026378631592e-01
2.153000000000000000e+03 4.042428970336914062e+00 -4.896585941314697266e+00 -1.091187074780464172e-02 -3.956875298172235489e-03 -4.460623953491449356e-03 -3.363884054124355316e-03
2.154000000000000000e+03 5.190231323242187500e+01 1.663003349304199219e+01 -8.102261424064636230e-01 7.994014739990234375e+00 2.155136585235595703e+00 -9.734297990798950195e-01
2.155000000000000000e+03 3.622006607055664062e+01 5.725776672363281250e+00 -5.329817533493041992e-02 -1.811526366509497166e-03 -1.653291098773479462e-02 8.875963836908340454e-02
2.156000000000000000e+03 6.378513717651367188e+01 3.280181586742401123e-01 -3.186343908309936523e+00 5.385296344757080078e+00 6.596857309341430664e-01 3.288732051849365234e+00
2.157000000000000000e+03 6.465953063964843750e+01 1.183346152305603027e+00 -1.397011995315551758e+00 5.054388999938964844e+00 1.097213029861450195e+00 3.394663095474243164e+00
2.158000000000000000e+03 3.125479316711425781e+01 -1.464873313903808594e+01 -5.976393818855285645e-01 2.504929900169372559e-01 -1.041439101099967957e-01 1.221544668078422546e-01
2.159000000000000000e+03 5.927437973022460938e+01 -1.269895553588867188e+01 7.480039596557617188e-01 7.939159393310546875e+00 2.606148958206176758e+00 3.418478965759277344e-01
2.160000000000000000e+03 6.319756698608398438e+01 -1.631225585937500000e+01 -2.711454033851623535e-01 5.306264877319335938e+00 1.510535955429077148e+00 -1.221837282180786133e+00
2.161000000000000000e+03 7.170251464843750000e+01 -3.085270881652832031e+00 -2.072401523590087891e+00 5.088342666625976562e+00 9.047822952270507812e-01 -2.109869956970214844e+00
2.162000000000000000e+03 7.573864746093750000e+01 -5.809206485748291016e+00 5.511808395385742188e-02 8.193263053894042969e+00 2.474514245986938477e+00 1.333074331283569336e+00
2.163000000000000000e+03 1.247193336486816406e+01 -6.928341388702392578e+00 -5.509541928768157959e-02 1.673442497849464417e-02 -1.150829903781414032e-02 -1.996268518269062042e-03
2.164000000000000000e+03 1.515758705139160156e+01 -7.330669879913330078e+00 -7.713768631219863892e-02 2.415427565574645996e-02 -1.589502394199371338e-02 7.358257193118333817e-03
2.165000000000000000e+03 5.849894332885742188e+01 1.588646888732910156e+01 1.763219356536865234e+00 3.255050182342529297e+00 1.505480885505676270e+00 2.207401037216186523e+00
2.166000000000000000e+03 5.935059738159179688e+01 1.618014526367187500e+01 2.061334609985351562e+00 2.676441669464111328e+00 1.421332955360412598e+00 1.631979703903198242e+00
2.167000000000000000e+03 5.197053527832031250e+01 7.401587009429931641e+00 -1.247138977050781250e+00 1.334362125396728516e+01 3.628944635391235352e+00 1.599921226501464844e+00
2.168000000000000000e+03 5.191850662231445312e+01 6.261932373046875000e+00 1.202113702893257141e-01 1.238774108886718750e+01 3.752385616302490234e+00 7.500301003456115723e-01
2.169000000000000000e+03 7.525136947631835938e+00 -4.392330169677734375e+00 -2.470644004642963409e-02 -4.492285370361059904e-05 -7.425409276038408279e-03 -1.024965848773717880e-02
2.170000000000000000e+03 5.080699920654296875e+01 6.769841194152832031e+00 2.664845585823059082e-01 8.902994155883789062e+00 2.750843524932861328e+00 1.669031262397766113e+00
2.171000000000000000e+03 5.354336547851562500e+01 8.333890914916992188e+00 -2.460520029067993164e+00 1.673792648315429688e+01 4.283222198486328125e+00 1.757363826036453247e-01
2.172000000000000000e+03 5.853149795532226562e+01 -3.185413599014282227e+00 1.405176818370819092e-01 4.433678627014160156e+00 1.372258901596069336e+00 -1.860213756561279297e+00
2.173000000000000000e+03 5.866741943359375000e+01 -1.570410132408142090e+00 -8.059442639350891113e-01 2.639335632324218750e+00 5.500174164772033691e-01 -1.839912176132202148e+00
2.174000000000000000e+03 5.448600387573242188e+01 -1.064709186553955078e+00 -3.088761568069458008e+00 8.827331542968750000e+00 1.721570849418640137e+00 -3.726092100143432617e+00
2.175000000000000000e+03 1.313777065277099609e+01 1.469135475158691406e+01 -7.596338540315628052e-02 5.256099998950958252e-02 -7.020714692771434784e-03 3.869692981243133545e-02
2.176000000000000000e+03 1.126077175140380859e+01 1.445395469665527344e+01 -5.002208799123764038e-02 3.381629288196563721e-02 -4.861739464104175568e-03 3.438391536474227905e-02
2.177000000000000000e+03 6.606482696533203125e+01 2.730976819992065430e+00 6.856968998908996582e-01 6.063298225402832031e+00 2.024698495864868164e+00 9.276583790779113770e-01
2.178000000000000000e+03 6.629310607910156250e+01 3.700577497482299805e+00 5.598850250244140625e-01 7.261653900146484375e+00 2.346461772918701172e+00 6.661967039108276367e-01
2.179000000000000000e+03 6.006755447387695312e+01 -1.187494468688964844e+01 4.569611251354217529e-01 8.097398757934570312e+00 2.566308021545410156e+00 4.000675380229949951e-01
2.180000000000000000e+03 5.461613464355468750e+01 1.108356475830078125e+01 6.082022666931152344e+00 1.044345283508300781e+01 4.957642555236816406e+00 1.721771121025085449e+00
2.181000000000000000e+03 4.842165756225585938e+01 1.671787381172180176e+00 2.505400896072387695e+00 2.741765260696411133e+00 1.574149847030639648e+00 2.660609960556030273e+00
2.182000000000000000e+03 5.098713302612304688e+01 4.890081286430358887e-01 1.402278661727905273e+00 5.850303649902343750e+00 2.175774574279785156e+00 2.052056312561035156e+00
2.183000000000000000e+03 5.590361404418945312e+01 1.197198963165283203e+01 3.833069086074829102e+00 5.631430625915527344e+00 2.839349985122680664e+00 3.085594654083251953e+00
2.184000000000000000e+03 1.648546028137207031e+01 -6.729562759399414062e+00 -7.025814801454544067e-02 1.510329917073249817e-02 -1.654645428061485291e-02 2.838470600545406342e-02
2.185000000000000000e+03 1.743033599853515625e+01 2.162723350524902344e+01 -2.259025871753692627e-01 -2.548290649428963661e-03 -6.853526085615158081e-02 2.816854119300842285e-01
2.186000000000000000e+03 4.752273178100585938e+01 1.775576019287109375e+01 2.499539405107498169e-01 1.049736738204956055e+00 3.899071812629699707e-01 -1.611881256103515625e+00
2.187000000000000000e+03 1.813229370117187500e+01 -8.211644172668457031e+00 -1.353807896375656128e-01 2.909714542329311371e-02 -3.188509121537208557e-02 2.863437496125698090e-02
2.188000000000000000e+03 5.731845855712890625e+00 1.240473270416259766e+01 1.288884598761796951e-02 -3.042287752032279968e-02 -5.260209552943706512e-03 1.984534040093421936e-02
2.189000000000000000e+03 4.012356758117675781e+00 1.161286163330078125e+01 1.011668890714645386e-02 -3.675627708435058594e-02 -7.991876453161239624e-03 2.010340429842472076e-02
2.190000000000000000e+03 6.779222869873046875e+01 8.334246635437011719e+00 -1.025256872177124023e+00 1.156265163421630859e+01 3.161218404769897461e+00 -1.637343764305114746e+00
2.191000000000000000e+03 6.881906127929687500e+01 9.897390365600585938e+00 7.897293567657470703e-01 8.995207786560058594e+00 2.935481309890747070e+00 -2.901498973369598389e-01
2.192000000000000000e+03 2.935028839111328125e+01 1.539966017007827759e-01 6.317371726036071777e-01 3.485479652881622314e-01 2.940855324268341064e-01 -6.127457134425640106e-03
2.193000000000000000e+03 6.171130752563476562e+01 -1.383635878562927246e+00 -2.000472068786621094e+00 6.740960121154785156e+00 1.422146320343017578e+00 7.482329607009887695e-01
2.194000000000000000e+03 7.434437561035156250e+01 -2.283372497558593750e+01 -1.220173239707946777e-01 7.217718601226806641e+00 2.128710269927978516e+00 4.720902144908905029e-01
2.195000000000000000e+03 3.752780914306640625e+01 1.943379783630371094e+01 -3.461812436580657959e-01 1.894097328186035156e-01 -4.703145101666450500e-02 -5.738224089145660400e-02
2.196000000000000000e+03 6.285828113555908203e+00 -9.996587753295898438e+00 -1.872227713465690613e-02 -1.486665662378072739e-02 -1.007668022066354752e-02 -3.749616444110870361e-02
2.197000000000000000e+03 7.463831329345703125e+01 -1.853166770935058594e+01 -7.108768224716186523e-01 8.483119964599609375e+00 2.331672906875610352e+00 1.848224252462387085e-01
2.198000000000000000e+03 4.498747253417968750e+01 -1.230491638183593750e+01 -6.690308451652526855e-01 3.649804830551147461e+00 8.942321538925170898e-01 5.889568924903869629e-01
2.199000000000000000e+03 4.941055297851562500e+01 4.833119869232177734e+00 2.250347375869750977e+00 4.258952617645263672e+00 1.952790021896362305e+00 1.468136548995971680e+00
2.200000000000000000e+03 5.926543045043945312e+01 -7.941944122314453125e+00 8.108952045440673828e-01 7.328842639923095703e+00 2.441921472549438477e+00 1.391319632530212402e-01
2.201000000000000000e+03 3.814760208129882812e+01 -4.560194969177246094e+00 6.366391181945800781e-01 -1.092406630516052246e+00 -1.367302387952804565e-01 3.466047346591949463e-03
2.202000000000000000e+03 6.967012023925781250e+01 1.419907665252685547e+01 2.368679761886596680e+00 6.467904567718505859e+00 2.650975465774536133e+00 1.334161520004272461e+00
2.203000000000000000e+03 7.228131103515625000e+01 1.306548118591308594e+01 1.866789221763610840e+00 3.957812309265136719e+00 1.747380495071411133e+00 -8.509278893470764160e-01
2.204000000000000000e+03 4.346017837524414062e+00 7.333521842956542969e+00 -1.171419117599725723e-02 -1.928726583719253540e-02 -9.300437755882740021e-03 3.383779153227806091e-02
2.205000000000000000e+03 6.022592163085937500e+01 -1.838945269584655762e+00 -8.446812033653259277e-01 4.551913738250732422e+00 1.112169742584228516e+00 -7.131761312484741211e-01
2.206000000000000000e+03 6.503907775878906250e+01 1.636722564697265625e+01 3.954376876354217529e-01 6.765314102172851562e+00 2.148225545883178711e+00 -1.718883037567138672e+00
2.207000000000000000e+03 4.819675445556640625e+00 2.197104072570800781e+01 -2.029544301331043243e-02 -1.073682457208633423e-01 -3.829910606145858765e-02 7.319393008947372437e-02
2.208000000000000000e+03 2.973977088928222656e+01 -1.052742004394531250e+01 -3.728249669075012207e-01 1.941266655921936035e-01 -5.360949039459228516e-02 1.875079274177551270e-01
2.209000000000000000e+03 7.563529968261718750e+01 -1.055870723724365234e+01 1.039206385612487793e+00 9.002864837646484375e+00 3.012621164321899414e+00 6.838179826736450195e-01
2.210000000000000000e+03 7.454370880126953125e+01 1.700685310363769531e+01 7.298572659492492676e-01 5.691453456878662109e+00 1.926393270492553711e+00 -1.012956649065017700e-01
2.211000000000000000e+03 7.403765106201171875e+01 1.532450294494628906e+01 1.350736498832702637e+00 5.240721702575683594e+00 1.977437496185302734e+00 -3.820801377296447754e-01
2.212000000000000000e+03 7.622959136962890625e+01 -3.537107849121093750e+01 3.680081339552998543e-03 7.435206890106201172e+00 2.231666088104248047e+00 5.893424898386001587e-02
2.213000000000000000e+03 7.506975555419921875e+01 -3.353851318359375000e+01 6.414739042520523071e-02 7.205633640289306641e+00 2.180934429168701172e+00 9.642542898654937744e-02
2.214000000000000000e+03 5.863412094116210938e+01 -1.194475269317626953e+01 5.480238199234008789e-01 8.587383270263671875e+00 2.740622043609619141e+00 1.994094997644424438e-01
2.215000000000000000e+03 6.907384490966796875e+01 -4.311551451683044434e-01 -2.956118345260620117e+00 6.853587627410888672e+00 1.169240713119506836e+00 -2.230808973312377930e+00
2.216000000000000000e+03 4.453720092773437500e+01 -1.745521736145019531e+01 -5.220212936401367188e-01 2.570010185241699219e+00 6.143966913223266602e-01 -2.888531088829040527e-01
2.217000000000000000e+03 6.738966941833496094e+00 1.350093650817871094e+01 -1.094304490834474564e-02 -2.642563171684741974e-02 -1.121060270816087723e-02 1.900209859013557434e-02
2.218000000000000000e+03 6.523587799072265625e+01 1.903815078735351562e+01 5.291456580162048340e-01 6.391723155975341797e+00 2.076260805130004883e+00 -8.149251341819763184e-01
2.219000000000000000e+03 6.641538238525390625e+01 1.674566841125488281e+01 5.766455531120300293e-01 8.087220191955566406e+00 2.599159717559814453e+00 -8.907086253166198730e-01
2.220000000000000000e+03 5.474327850341796875e+01 -2.306989669799804688e+01 -5.468038320541381836e-01 2.931058168411254883e+00 7.152763009071350098e-01 1.573808789253234863e+00
2.221000000000000000e+03 7.459217071533203125e+01 -2.415544509887695312e+01 -6.264793127775192261e-02 7.112826347351074219e+00 2.115053415298461914e+00 3.220188617706298828e-01
2.222000000000000000e+03 7.574388885498046875e+01 -2.390892410278320312e+01 -3.355946764349937439e-02 7.592069625854492188e+00 2.267553091049194336e+00 2.960693240165710449e-01
2.223000000000000000e+03 6.649392700195312500e+01 4.622091293334960938e+00 1.686072468757629395e+00 7.347538948059082031e+00 2.710083484649658203e+00 -7.053092718124389648e-01
2.224000000000000000e+03 2.412199401855468750e+01 -1.168452453613281250e+01 -2.838898301124572754e-01 2.317621745169162750e-02 -7.821408659219741821e-02 5.677454173564910889e-02
2.225000000000000000e+03 6.747858524322509766e+00 1.149729442596435547e+01 8.358124643564224243e-03 -2.493206970393657684e-02 -4.972183611243963242e-03 1.349773257970809937e-02
2.226000000000000000e+03 7.579707145690917969e+00 8.661478996276855469e+00 3.630065545439720154e-02 -2.667153812944889069e-02 2.888735849410295486e-03 2.570636756718158722e-02
2.227000000000000000e+03 5.696706295013427734e+00 -1.485730171203613281e+01 -1.719829440116882324e-02 -5.096621811389923096e-02 -2.044935338199138641e-02 -6.782254576683044434e-02
2.228000000000000000e+03 5.853686332702636719e+00 -1.234377098083496094e+01 -2.203026227653026581e-02 -2.973582409322261810e-02 -1.552982628345489502e-02 -5.295819416642189026e-02
2.229000000000000000e+03 5.819491195678710938e+01 -7.854619503021240234e+00 7.475239038467407227e-01 6.849191188812255859e+00 2.279014587402343750e+00 -6.978844851255416870e-02
2.230000000000000000e+03 5.892469406127929688e+01 -9.245141983032226562e+00 8.677855134010314941e-01 7.537623405456542969e+00 2.521622657775878906e+00 3.876562416553497314e-01
2.231000000000000000e+03 7.887625694274902344e+00 -2.156069755554199219e+01 -2.083165571093559265e-02 -8.413168042898178101e-02 -3.148899972438812256e-02 -1.205059587955474854e-01
2.232000000000000000e+03 7.573112487792968750e+01 1.188277626037597656e+01 -4.635630846023559570e-01 6.777954578399658203e+00 1.894317507743835449e+00 -1.865265011787414551e+00
2.233000000000000000e+03 5.767874145507812500e+01 -3.815150976181030273e+00 3.147348463535308838e-01 4.614213943481445312e+00 1.478684663772583008e+00 -2.497674703598022461e+00
2.234000000000000000e+03 7.252598571777343750e+01 -2.317002058029174805e+00 -1.021853446960449219e+00 4.396914005279541016e+00 1.012518167495727539e+00 -2.262461900711059570e+00
2.235000000000000000e+03 5.373212337493896484e+00 3.046986389160156250e+01 1.352758519351482391e-02 -2.346608042716979980e-01 -6.633996218442916870e-02 1.085717007517814636e-01
2.236000000000000000e+03 7.361180877685546875e+01 2.001065635681152344e+01 3.690478205680847168e-01 6.010403156280517578e+00 1.913835287094116211e+00 3.079304993152618408e-01
2.237000000000000000e+03 6.963009834289550781e+00 -2.959118461608886719e+01 2.347742579877376556e-02 -1.844592690467834473e-01 -4.829455167055130005e-02 -9.685771167278289795e-02
2.238000000000000000e+03 4.328604221343994141e+00 -2.896360397338867188e+01 1.019568834453821182e-02 -2.472921460866928101e-01 -7.112893462181091309e-02 -7.432227581739425659e-02
2.239000000000000000e+03 7.378554534912109375e+01 -3.356439590454101562e+01 7.766328006982803345e-02 6.890779018402099609e+00 2.090532779693603516e+00 9.603502601385116577e-02
2.240000000000000000e+03 7.519760131835937500e+01 -3.202639389038085938e+01 4.608565941452980042e-02 7.212322711944580078e+00 2.177522420883178711e+00 1.392941772937774658e-01
2.241000000000000000e+03 3.761648178100585938e+01 -2.182529258728027344e+01 -1.009315401315689087e-01 1.298010349273681641e+00 3.591236472129821777e-01 7.601787447929382324e-01
2.242000000000000000e+03 5.673281860351562500e+01 -4.163889408111572266e+00 -5.844996571540832520e-01 5.345450878143310547e+00 1.428285360336303711e+00 -2.716569423675537109e+00
2.243000000000000000e+03 5.601260757446289062e+01 -2.488590955734252930e+00 -1.171775937080383301e+00 5.367825508117675781e+00 1.258814811706542969e+00 -4.727971553802490234e+00
2.244000000000000000e+03 1.605155372619628906e+01 1.867755508422851562e+01 -2.487097680568695068e-01 6.747587025165557861e-02 -5.437016859650611877e-02 1.457153856754302979e-01
2.245000000000000000e+03 1.617149925231933594e+01 2.026340675354003906e+01 -2.244219481945037842e-01 2.425219491124153137e-02 -6.005092710256576538e-02 2.161698788404464722e-01
2.246000000000000000e+03 1.055965137481689453e+01 1.716881752014160156e+01 -8.485233038663864136e-02 1.638806797564029694e-02 -2.053927816450595856e-02 7.265264540910720825e-02
2.247000000000000000e+03 7.510002613067626953e+00 -2.563233757019042969e+01 5.159997846931219101e-03 -1.326530128717422485e-01 -3.824790567159652710e-02 -1.207960620522499084e-01
2.248000000000000000e+03 4.668060302734375000e+01 1.813214492797851562e+01 2.413221299648284912e-01 1.140994548797607422e+00 4.146950244903564453e-01 -1.066344022750854492e+00
2.249000000000000000e+03 3.452485561370849609e+00 2.616198348999023438e+01 -5.806178320199251175e-03 -1.853065639734268188e-01 -5.733382329344749451e-02 7.528287172317504883e-02
2.250000000000000000e+03 9.056768417358398438e+00 1.043051528930664062e+01 4.217498376965522766e-02 1.975293830037117004e-02 1.857837662100791931e-02 2.991455420851707458e-02
2.251000000000000000e+03 7.147132873535156250e+01 -2.042381858825683594e+01 -7.062487304210662842e-03 5.446927070617675781e+00 1.631959438323974609e+00 1.110215187072753906e+00
2.252000000000000000e+03 7.266033935546875000e+01 -1.921731567382812500e+01 -9.072358012199401855e-01 7.594058036804199219e+00 2.006046772003173828e+00 1.164169192314147949e+00
2.253000000000000000e+03 5.141587829589843750e+01 3.477905511856079102e+00 3.972938060760498047e+00 8.944967269897460938e+00 3.875371694564819336e+00 7.096150517463684082e-01
2.254000000000000000e+03 5.289033412933349609e+00 1.790124130249023438e+01 -2.079476602375507355e-02 -5.688293650746345520e-02 -2.330331131815910339e-02 4.267543181777000427e-02
2.255000000000000000e+03 4.309784889221191406e+00 1.783995437622070312e+01 -2.084500901401042938e-02 -6.393902003765106201e-02 -2.543520927429199219e-02 3.544192761182785034e-02
2.256000000000000000e+03 4.711511135101318359e+00 1.478302955627441406e+01 -9.330992586910724640e-03 -4.436958953738212585e-02 -1.611017435789108276e-02 2.129627950489521027e-02
2.257000000000000000e+03 7.606038665771484375e+01 -1.124827575683593750e+01 1.095344066619873047e+00 8.926920890808105469e+00 3.006679296493530273e+00 3.669974803924560547e-01
2.258000000000000000e+03 7.345585632324218750e+01 -2.955938911437988281e+01 1.014126613736152649e-01 6.765580654144287109e+00 2.060097932815551758e+00 1.554583609104156494e-01
2.259000000000000000e+03 5.913857269287109375e+01 -1.895523262023925781e+01 4.407055079936981201e-01 7.606302738189697266e+00 2.414102554321289062e+00 -1.264127016067504883e+00
2.260000000000000000e+03 6.108145141601562500e+01 -1.728032875061035156e+01 4.226424992084503174e-01 6.602162837982177734e+00 2.107441663742065430e+00 -1.316401481628417969e+00
2.261000000000000000e+03 2.459302520751953125e+01 1.870505714416503906e+01 -5.829432606697082520e-01 -2.152991443872451782e-01 -2.394727319478988647e-01 1.837888062000274658e-01
2.262000000000000000e+03 1.864583206176757812e+01 -1.091753196716308594e+01 -2.175972908735275269e-01 3.601413220167160034e-02 -5.447494611144065857e-02 -3.929149359464645386e-02
2.263000000000000000e+03 7.436477661132812500e+01 -7.211011409759521484e+00 3.790726959705352783e-01 8.466247558593750000e+00 2.653595924377441406e+00 7.672159075736999512e-01
2.264000000000000000e+03 7.161672973632812500e+01 2.557166862487792969e+01 -1.022969707846641541e-01 6.208524227142333984e+00 1.831868171691894531e+00 3.291178345680236816e-01
2.265000000000000000e+03 4.389155864715576172e+00 -1.352473640441894531e+01 -9.875053539872169495e-03 -4.719961434602737427e-02 -1.712240092456340790e-02 -4.856030642986297607e-02
2.266000000000000000e+03 2.856257057189941406e+01 1.911775970458984375e+01 -5.995429754257202148e-01 6.233122572302818298e-02 -1.611635386943817139e-01 3.428205847740173340e-01
2.267000000000000000e+03 7.487266540527343750e+01 -2.545944213867187500e+01 2.267459779977798462e-02 7.204569816589355469e+00 2.168173313140869141e+00 3.196822106838226318e-01
2.268000000000000000e+03 2.889504623413085938e+01 -1.168882179260253906e+01 -3.777411878108978271e-01 2.039679288864135742e-01 -5.213197693228721619e-02 1.474694162607192993e-01
2.269000000000000000e+03 7.497267913818359375e+01 -3.112749814987182617e+00 -6.482762098312377930e-01 6.134845256805419922e+00 1.645970702171325684e+00 6.335013508796691895e-01
2.270000000000000000e+03 5.749445438385009766e+00 -2.001964378356933594e+01 -1.431074645370244980e-02 -1.064548790454864502e-01 -3.622968867421150208e-02 -9.573637694120407104e-02
2.271000000000000000e+03 7.561495208740234375e+01 -7.224307537078857422e+00 3.406631350517272949e-01 8.517598152160644531e+00 2.657478332519531250e+00 1.337013483047485352e+00
2.272000000000000000e+03 5.909912109375000000e+00 3.630076980590820312e+01 4.652654007077217102e-02 -2.978906035423278809e-01 -7.540921866893768311e-02 7.529711723327636719e-02
2.273000000000000000e+03 4.366868495941162109e+00 3.548933410644531250e+01 2.631904371082782745e-02 -3.252826333045959473e-01 -8.968907594680786133e-02 6.947724521160125732e-02
2.274000000000000000e+03 5.526839256286621094e+00 1.905658149719238281e+01 -3.140631318092346191e-02 -6.387078016996383667e-02 -2.858312614262104034e-02 5.565464496612548828e-02
2.275000000000000000e+03 4.609047412872314453e+00 2.055535507202148438e+01 -2.382679469883441925e-02 -8.914355933666229248e-02 -3.389110788702964783e-02 6.018850207328796387e-02
2.276000000000000000e+03 7.580417156219482422e+00 -1.801587867736816406e+01 -2.815475687384605408e-02 -6.505894660949707031e-02 -2.796411141753196716e-02 -1.034496352076530457e-01
2.277000000000000000e+03 4.559601783752441406e+00 -1.850154304504394531e+01 -3.137202002108097076e-03 -1.007292270660400391e-01 -3.115992993116378784e-02 -7.397228479385375977e-02
2.278000000000000000e+03 7.506024932861328125e+01 2.042989730834960938e+01 2.526324987411499023e-01 5.946237087249755859e+00 1.859660863876342773e+00 2.512430846691131592e-01
2.279000000000000000e+03 7.351105499267578125e+01 1.768301773071289062e+01 8.032735586166381836e-01 5.673980236053466797e+00 1.943176150321960449e+00 1.704158484935760498e-01
2.280000000000000000e+03 2.904692459106445312e+01 1.630868721008300781e+01 -7.535785436630249023e-01 9.103626012802124023e-02 -1.987626850605010986e-01 3.313913643360137939e-01
2.281000000000000000e+03 6.733262634277343750e+01 -1.928360939025878906e+01 3.140959441661834717e-01 3.263172388076782227e+00 1.073180556297302246e+00 -8.112600445747375488e-01
2.282000000000000000e+03 7.547860717773437500e+01 -1.770092964172363281e+01 -5.125305652618408203e-01 8.496163368225097656e+00 2.395089864730834961e+00 -3.591792285442352295e-01
2.283000000000000000e+03 3.402373123168945312e+01 2.171129989624023438e+01 -1.805555820465087891e-01 1.144990622997283936e-01 -1.981695555150508881e-02 1.550265252590179443e-01
2.284000000000000000e+03 6.987506866455078125e+01 1.271993827819824219e+01 2.419033288955688477e+00 5.546917438507080078e+00 2.389785289764404297e+00 1.180472373962402344e+00
2.285000000000000000e+03 5.287028121948242188e+01 1.379973697662353516e+01 -2.718375623226165771e-01 1.450749206542968750e+01 4.270696163177490234e+00 -8.560308814048767090e-02
2.286000000000000000e+03 5.372581100463867188e+01 1.358680725097656250e+01 7.071971893310546875e-01 1.374845886230468750e+01 4.336696624755859375e+00 2.706588268280029297e+00
2.287000000000000000e+03 5.608363723754882812e+01 1.259266567230224609e+01 3.229607105255126953e+00 5.650217056274414062e+00 2.663947105407714844e+00 3.556000709533691406e+00
2.288000000000000000e+03 5.497271728515625000e+01 1.114046955108642578e+01 5.166286945343017578e+00 8.895476341247558594e+00 4.218529224395751953e+00 1.965052604675292969e+00
2.289000000000000000e+03 5.267208480834960938e+01 1.415048027038574219e+01 -4.953816831111907959e-01 1.306504726409912109e+01 3.770899772644042969e+00 -8.128786683082580566e-01
2.290000000000000000e+03 5.566542434692382812e+01 1.042682743072509766e+01 2.514579772949218750e+00 6.089167594909667969e+00 2.581124305725097656e+00 1.154560208320617676e+00
2.291000000000000000e+03 5.496762084960937500e+01 1.080782794952392578e+01 4.463009357452392578e+00 9.109539985656738281e+00 4.071764945983886719e+00 1.394542217254638672e+00
2.292000000000000000e+03 5.318244552612304688e+01 8.507616996765136719e+00 -2.497348546981811523e+00 1.710369873046875000e+01 4.381905078887939453e+00 7.534682154655456543e-01
2.293000000000000000e+03 5.366527557373046875e+01 8.819587707519531250e+00 -1.992736220359802246e+00 1.687838363647460938e+01 4.465694427490234375e+00 -7.556987460702657700e-03
2.294000000000000000e+03 5.472257995605468750e+01 1.135780048370361328e+01 5.817821979522705078e+00 9.756656646728515625e+00 4.672343730926513672e+00 2.450198650360107422e+00
2.295000000000000000e+03 5.040614700317382812e+01 1.340957450866699219e+01 1.293811678886413574e+00 5.970194816589355469e+00 2.179202079772949219e+00 -3.170023441314697266e+00
2.296000000000000000e+03 5.132385635375976562e+01 1.413534069061279297e+01 1.137752771377563477e+00 9.312096595764160156e+00 3.134954690933227539e+00 -3.523921489715576172e+00
2.297000000000000000e+03 5.066116714477539062e+01 7.483440876007080078e+00 8.799203485250473022e-02 8.182769775390625000e+00 2.481228590011596680e+00 2.165436267852783203e+00
2.298000000000000000e+03 5.608270645141601562e+01 1.095517826080322266e+01 2.900134325027465820e+00 4.458488464355468750e+00 2.207586765289306641e+00 1.696874856948852539e+00
2.299000000000000000e+03 5.544476699829101562e+01 1.167685317993164062e+01 4.310514926910400391e+00 6.908767223358154297e+00 3.365784645080566406e+00 2.962177753448486328e+00
2.300000000000000000e+03 8.195770263671875000e+00 -4.174725055694580078e+00 -8.229391649365425110e-03 5.247769295237958431e-04 -2.311384538188576698e-03 -1.680695102550089359e-03
2.301000000000000000e+03 1.199771213531494141e+01 -7.858581066131591797e+00 -7.587144523859024048e-02 1.594816148281097412e-02 -1.797698624432086945e-02 -3.485222533345222473e-02
2.302000000000000000e+03 4.037719726562500000e+01 1.647655487060546875e+01 -7.868853211402893066e-01 4.340825676918029785e-01 -1.058408394455909729e-01 1.951886899769306183e-02
2.303000000000000000e+03 3.867088317871093750e+01 1.796361351013183594e+01 -5.842832326889038086e-01 3.116996884346008301e-01 -8.177507668733596802e-02 -5.797406658530235291e-02
2.304000000000000000e+03 3.911432266235351562e+01 1.643775558471679688e+01 -8.843790888786315918e-01 3.488526642322540283e-01 -1.606579273939132690e-01 1.728923059999942780e-02
2.305000000000000000e+03 5.107014846801757812e+01 5.913274765014648438e+00 1.162032842636108398e+00 9.756029129028320312e+00 3.275418519973754883e+00 7.727638483047485352e-01
2.306000000000000000e+03 1.317085552215576172e+01 -7.347635746002197266e+00 -7.787410914897918701e-02 1.327408105134963989e-02 -1.938000880181789398e-02 -2.723502181470394135e-02
2.307000000000000000e+03 6.024633407592773438e+00 8.026877403259277344e+00 6.587635725736618042e-03 -2.951987646520137787e-02 -6.879672408103942871e-03 5.424772202968597412e-02
2.308000000000000000e+03 5.220288848876953125e+01 1.583939743041992188e+01 -3.040448725223541260e-01 9.292644500732421875e+00 2.696579933166503906e+00 -9.844866991043090820e-01
2.309000000000000000e+03 3.982933044433593750e+01 1.736285972595214844e+01 -6.258179545402526855e-01 4.064757227897644043e-01 -6.580267101526260376e-02 -4.900827258825302124e-02
2.310000000000000000e+03 5.452109146118164062e+01 1.225601005554199219e+01 5.012197017669677734e+00 1.104927635192871094e+01 4.818441867828369141e+00 4.303024291992187500e+00
2.311000000000000000e+03 5.926423072814941406e+00 -4.317700862884521484e+00 -1.147438585758209229e-02 -1.355624641291797161e-03 -3.849003231152892113e-03 -4.675552248954772949e-03
2.312000000000000000e+03 5.249011230468750000e+01 6.926655292510986328e+00 -1.074056744575500488e+00 1.458326339721679688e+01 4.052762031555175781e+00 5.053021311759948730e-01
2.313000000000000000e+03 4.252746582031250000e+01 1.614148712158203125e+01 -7.928501367568969727e-01 4.770781397819519043e-01 -9.473160654306411743e-02 -1.987628079950809479e-02
2.314000000000000000e+03 5.816163635253906250e+01 -6.970590114593505859e+00 6.200190186500549316e-01 6.465578556060791016e+00 2.125679254531860352e+00 -5.061801075935363770e-01
2.315000000000000000e+03 5.552565383911132812e+01 1.261920547485351562e+01 3.644799232482910156e+00 7.500837326049804688e+00 3.343690872192382812e+00 3.990701675415039062e+00
2.316000000000000000e+03 2.785990905761718750e+01 -1.196553039550781250e+01 -4.116814136505126953e-01 2.019574940204620361e-01 -6.291718035936355591e-02 1.690606474876403809e-01
2.317000000000000000e+03 1.458197975158691406e+01 -8.503870010375976562e+00 -1.211401820182800293e-01 2.686911076307296753e-02 -2.828131988644599915e-02 -2.429659478366374969e-02
2.318000000000000000e+03 1.366424751281738281e+01 -6.401964187622070312e+00 -5.974414572119712830e-02 2.002045325934886932e-02 -1.191710773855447769e-02 6.026422139257192612e-03
2.319000000000000000e+03 5.827321529388427734e+00 -6.427731037139892578e+00 -1.414140500128269196e-02 -5.800953134894371033e-03 -5.982707254588603973e-03 -1.317996811121702194e-02
2.320000000000000000e+03 4.851812362670898438e+00 -7.185878753662109375e+00 -8.840556256473064423e-03 -9.330686181783676147e-03 -5.451372824609279633e-03 -1.507655810564756393e-02
2.321000000000000000e+03 5.709401702880859375e+01 1.484758663177490234e+01 1.804274916648864746e+00 4.616023540496826172e+00 1.926089525222778320e+00 3.074696779251098633e+00
2.322000000000000000e+03 5.176061630249023438e+01 1.696473479270935059e+00 3.620142698287963867e+00 9.373162269592285156e+00 3.897991418838500977e+00 1.189733743667602539e+00
2.323000000000000000e+03 4.402741432189941406e+00 9.805543899536132812e+00 2.164444141089916229e-02 -3.449459001421928406e-02 -3.855044255033135414e-03 2.580424956977367401e-02
2.324000000000000000e+03 7.394068908691406250e+01 -2.019716644287109375e+01 -6.387670636177062988e-01 7.790566444396972656e+00 2.145539760589599609e+00 5.563341379165649414e-01
2.325000000000000000e+03 9.577095031738281250e+00 1.359462070465087891e+01 -1.534732524305582047e-02 1.809963956475257874e-02 8.256942383013665676e-04 2.779451571404933929e-02
2.326000000000000000e+03 7.630517482757568359e+00 1.069878196716308594e+01 3.734683245420455933e-02 -1.182609610259532928e-02 7.656220346689224243e-03 2.757503092288970947e-02
2.327000000000000000e+03 1.440434455871582031e+01 -6.848180294036865234e+00 -8.554165065288543701e-02 1.270319055765867233e-02 -2.185153961181640625e-02 -1.232499629259109497e-02
2.328000000000000000e+03 5.723150253295898438e+01 1.641224098205566406e+01 1.254023551940917969e+00 4.858582019805908203e+00 1.833781719207763672e+00 2.499390125274658203e+00
2.329000000000000000e+03 4.041831970214843750e+01 -3.274394512176513672e+00 1.329309701919555664e+00 3.457101583480834961e-01 5.025059580802917480e-01 -5.757504105567932129e-01
2.330000000000000000e+03 7.088999748229980469e+00 9.855873107910156250e+00 2.052269503474235535e-02 -2.436147630214691162e-02 -1.151634263806045055e-03 1.665260829031467438e-02
2.331000000000000000e+03 6.133976936340332031e+00 1.036077880859375000e+01 3.017427213490009308e-02 -3.239708021283149719e-02 -6.668423884548246861e-04 3.016259707510471344e-02
2.332000000000000000e+03 5.077211380004882812e+00 1.099427032470703125e+01 7.029868662357330322e-03 -3.609604388475418091e-02 -8.719852194190025330e-03 2.128680050373077393e-02
2.333000000000000000e+03 4.998995304107666016e+00 -6.128854274749755859e+00 -1.325181685388088226e-02 -6.357011850923299789e-03 -5.882648751139640808e-03 -1.001103688031435013e-02
2.334000000000000000e+03 4.451271438598632812e+01 -1.901763153076171875e+01 -8.265259861946105957e-01 2.594684362411499023e+00 5.304474830627441406e-01 -4.540008902549743652e-01
2.335000000000000000e+03 4.726662445068359375e+01 -1.867218971252441406e+01 -1.201093316078186035e+00 1.458319783210754395e+00 7.716794312000274658e-02 -4.383415281772613525e-01
2.336000000000000000e+03 7.468744659423828125e+01 -4.347963809967041016e+00 -2.278927266597747803e-01 6.841915130615234375e+00 1.984206676483154297e+00 6.871844530105590820e-01
2.337000000000000000e+03 6.236847305297851562e+01 -1.626773071289062500e+01 3.397329524159431458e-02 6.027193069458007812e+00 1.818349838256835938e+00 -1.206780433654785156e+00
2.338000000000000000e+03 6.461402130126953125e+01 -1.825107192993164062e+01 2.173076011240482330e-02 4.583292484283447266e+00 1.381506919860839844e+00 -1.473434329032897949e+00
2.339000000000000000e+03 4.914694595336914062e+01 2.263240575790405273e+00 3.359451770782470703e+00 3.320352315902709961e+00 2.003941297531127930e+00 2.481431722640991211e+00
2.340000000000000000e+03 3.619721984863281250e+01 1.956013107299804688e+01 -3.722530901432037354e-01 4.067422077059745789e-02 -9.947365522384643555e-02 6.468289345502853394e-02
2.341000000000000000e+03 3.489268875122070312e+01 1.977359199523925781e+01 -3.502039611339569092e-01 4.913420416414737701e-03 -1.035871580243110657e-01 1.159184202551841736e-01
2.342000000000000000e+03 1.999958419799804688e+01 -1.317069244384765625e+01 -2.090761214494705200e-01 4.720872268080711365e-02 -4.856021702289581299e-02 -7.457651942968368530e-02
2.343000000000000000e+03 6.205900573730468750e+01 -4.165464639663696289e-02 -3.726151227951049805e+00 4.838850021362304688e+00 3.338096439838409424e-01 2.170309543609619141e+00
2.344000000000000000e+03 7.229337310791015625e+01 1.455287361145019531e+01 1.890971183776855469e+00 4.841183662414550781e+00 2.019646406173706055e+00 3.241603076457977295e-02
2.345000000000000000e+03 5.277350234985351562e+01 1.691076278686523438e+01 -9.102329611778259277e-01 8.271471023559570312e+00 2.208371400833129883e+00 -9.098500758409500122e-02
2.346000000000000000e+03 6.248742294311523438e+01 -1.509495258331298828e+01 -1.488147377967834473e-01 5.979520320892333984e+00 1.749211668968200684e+00 -9.108909964561462402e-01
2.347000000000000000e+03 6.140826797485351562e+01 -1.398838615417480469e+01 1.120988279581069946e-01 6.941849708557128906e+00 2.116184473037719727e+00 -4.352095723152160645e-01
2.348000000000000000e+03 5.823114013671875000e+01 -4.692741870880126953e+00 5.162894725799560547e-01 5.426851749420166016e+00 1.782942414283752441e+00 -1.434763908386230469e+00
2.349000000000000000e+03 3.273244857788085938e+01 -1.834797477722167969e+01 -2.894317805767059326e-01 3.084118366241455078e-01 5.694015417248010635e-03 3.160156309604644775e-02
2.350000000000000000e+03 5.775742340087890625e+01 -2.339008569717407227e+00 -1.617590785026550293e-01 3.270394325256347656e+00 9.325906038284301758e-01 -3.264762163162231445e+00
2.351000000000000000e+03 7.414640045166015625e+01 -2.148495483398437500e+01 -4.245975613594055176e-01 7.315249919891357422e+00 2.067195653915405273e+00 4.737260341644287109e-01
2.352000000000000000e+03 7.271652984619140625e+01 -2.039287376403808594e+01 -5.699586272239685059e-01 6.719569683074951172e+00 1.844883203506469727e+00 1.056143164634704590e+00
2.353000000000000000e+03 1.930344390869140625e+01 -1.199198532104492188e+01 -1.841820776462554932e-01 5.933982133865356445e-02 -3.745267912745475769e-02 -6.453397870063781738e-02
2.354000000000000000e+03 4.179682922363281250e+01 1.708923721313476562e+01 -5.501062870025634766e-01 5.364635586738586426e-01 -4.092827904969453812e-03 -7.715880870819091797e-02
2.355000000000000000e+03 6.647072601318359375e+01 1.844086456298828125e+01 1.740030497312545776e-01 6.901484489440917969e+00 2.122646331787109375e+00 -4.683015942573547363e-01
2.356000000000000000e+03 6.439305877685546875e+01 1.764998817443847656e+01 1.193850040435791016e+00 5.717839717864990234e+00 2.073506832122802734e+00 -1.076935410499572754e+00
2.357000000000000000e+03 8.187875747680664062e+00 1.710820198059082031e+01 -5.158061534166336060e-02 -2.257095836102962494e-02 -2.224547229707241058e-02 5.436407402157783508e-02
2.358000000000000000e+03 5.657079696655273438e+00 -1.603613662719726562e+01 -2.012743800878524780e-02 -6.337631493806838989e-02 -2.505112625658512115e-02 -7.525285333395004272e-02
2.359000000000000000e+03 5.597562313079833984e+00 -1.712605857849121094e+01 -9.776159189641475677e-03 -7.793886959552764893e-02 -2.631451003253459930e-02 -7.704280316829681396e-02
2.360000000000000000e+03 2.024390792846679688e+01 2.042104530334472656e+01 -3.134911656379699707e-01 -6.653425842523574829e-02 -1.140076220035552979e-01 3.214617967605590820e-01
2.361000000000000000e+03 1.512465000152587891e+01 2.207624053955078125e+01 -1.581854075193405151e-01 -1.001826673746109009e-02 -5.046110227704048157e-02 2.353814393281936646e-01
2.362000000000000000e+03 7.033176422119140625e+01 -2.204112052917480469e+01 2.529698908329010010e-01 5.162436962127685547e+00 1.624621987342834473e+00 4.465945363044738770e-01
2.363000000000000000e+03 6.888658142089843750e+01 -2.057660102844238281e+01 4.021570384502410889e-01 4.066362857818603516e+00 1.340556025505065918e+00 1.499617397785186768e-01
2.364000000000000000e+03 6.168575286865234375e+00 2.731784439086914062e+01 -8.827544748783111572e-03 -1.715974658727645874e-01 -5.412750318646430969e-02 1.278977543115615845e-01
2.365000000000000000e+03 7.530974578857421875e+01 1.918306350708007812e+01 3.449902832508087158e-01 5.817128658294677734e+00 1.848635673522949219e+00 1.389004737138748169e-01
2.366000000000000000e+03 4.370849990844726562e+01 -2.083356285095214844e+01 -1.070197820663452148e+00 2.464883804321289062e+00 4.184058010578155518e-01 -1.175057440996170044e-01
2.367000000000000000e+03 7.216023254394531250e+01 -2.683733558654785156e+01 1.330022960901260376e-01 6.367446899414062500e+00 1.950134754180908203e+00 1.930840611457824707e-01
2.368000000000000000e+03 7.342501831054687500e+01 1.438512039184570312e+01 1.375105738639831543e+00 4.850998878479003906e+00 1.867831349372863770e+00 -7.436562776565551758e-01
2.369000000000000000e+03 6.152364730834960938e+01 -2.094786834716796875e+01 -4.845489263534545898e-01 6.058273792266845703e+00 1.672117471694946289e+00 -1.150851130485534668e+00
2.370000000000000000e+03 6.318975830078125000e+01 -1.986305618286132812e+01 -2.495989352464675903e-01 5.395298957824707031e+00 1.543709993362426758e+00 -1.461500167846679688e+00
2.371000000000000000e+03 7.087229919433593750e+01 1.600253868103027344e+01 1.588345646858215332e+00 6.002701282501220703e+00 2.277313947677612305e+00 8.005633354187011719e-01
2.372000000000000000e+03 2.734435272216796875e+01 1.902902412414550781e+01 -6.177206635475158691e-01 3.975860401988029480e-02 -1.733886152505874634e-01 2.726528048515319824e-01
2.373000000000000000e+03 7.611653137207031250e+01 2.798048973083496094e+01 -3.700934350490570068e-02 6.181129455566406250e+00 1.843236088752746582e+00 2.529124617576599121e-01
2.374000000000000000e+03 7.457833862304687500e+01 2.816693115234375000e+01 -6.217069551348686218e-02 6.210998058319091797e+00 1.844648241996765137e+00 3.054163753986358643e-01
2.375000000000000000e+03 8.156645774841308594e+00 -2.845977973937988281e+01 1.396954990923404694e-02 -1.328611671924591064e-01 -3.566748276352882385e-02 -1.135452613234519958e-01
2.376000000000000000e+03 6.722074031829833984e+00 -2.713057327270507812e+01 1.479105558246374130e-02 -1.603809297084808350e-01 -4.367696121335029602e-02 -1.065817102789878845e-01
2.377000000000000000e+03 3.868597793579101562e+01 -2.280866813659667969e+01 -3.532414138317108154e-01 1.395516514778137207e+00 3.126825094223022461e-01 2.751528620719909668e-01
2.378000000000000000e+03 3.334289932250976562e+01 -1.970939445495605469e+01 -1.095690429210662842e-01 3.783772289752960205e-01 8.064245432615280151e-02 7.393518090248107910e-02
2.379000000000000000e+03 3.347173309326171875e+01 -2.129391670227050781e+01 -9.868288040161132812e-02 4.069347977638244629e-01 9.247557073831558228e-02 8.069869875907897949e-02
2.380000000000000000e+03 2.957690429687500000e+01 2.065695190429687500e+01 -4.299619495868682861e-01 2.178271487355232239e-02 -1.224537715315818787e-01 3.331573903560638428e-01
2.381000000000000000e+03 3.081856727600097656e+01 2.065332794189453125e+01 -3.393917083740234375e-01 -9.026007726788520813e-03 -1.045253127813339233e-01 3.265737593173980713e-01
2.382000000000000000e+03 5.496695327758789062e+01 -2.583297348022460938e+01 -3.246901035308837891e-01 3.354527950286865234e+00 9.089513421058654785e-01 9.139670729637145996e-01
2.383000000000000000e+03 7.099572753906250000e+01 1.444348144531250000e+01 1.987394809722900391e+00 5.301437377929687500e+00 2.186649560928344727e+00 5.575579404830932617e-01
2.384000000000000000e+03 5.890295791625976562e+01 1.912664031982421875e+01 1.130388498306274414e+00 4.513266563415527344e+00 1.693096518516540527e+00 9.612270593643188477e-01
2.385000000000000000e+03 5.913553237915039062e+01 -6.713356971740722656e+00 1.016892790794372559e+00 6.878523826599121094e+00 2.368625164031982422e+00 -4.293285682797431946e-02
2.386000000000000000e+03 7.023790740966796875e+01 -3.487239837646484375e+01 9.366520494222640991e-02 6.181225299835205078e+00 1.882467150688171387e+00 5.654556676745414734e-02
2.387000000000000000e+03 5.411904811859130859e+00 3.215836334228515625e+01 1.969853416085243225e-02 -2.628043889999389648e-01 -7.293175905942916870e-02 1.006672233343124390e-01
2.388000000000000000e+03 1.630887031555175781e+01 -1.016376113891601562e+01 -1.380396336317062378e-01 4.254459589719772339e-02 -2.864851057529449463e-02 -2.457876689732074738e-02
2.389000000000000000e+03 1.764534568786621094e+01 -1.158466148376464844e+01 -1.604837328195571899e-01 6.001146137714385986e-02 -3.014168143272399902e-02 -6.841733306646347046e-02
2.390000000000000000e+03 4.500582504272460938e+01 -2.038903617858886719e+01 -7.454370260238647461e-01 2.481187343597412109e+00 5.207250714302062988e-01 -5.730803012847900391e-01
2.391000000000000000e+03 5.407820224761962891e+00 -1.048689174652099609e+01 -2.713959850370883942e-02 -2.334841527044773102e-02 -1.514640450477600098e-02 -3.772218525409698486e-02
2.392000000000000000e+03 5.933137893676757812e+00 -9.141206741333007812e+00 -2.816438302397727966e-02 -1.431390084326267242e-02 -1.274348516017198563e-02 -3.179803490638732910e-02
2.393000000000000000e+03 7.306623840332031250e+01 -2.317538070678710938e+01 -3.483140841126441956e-02 6.568925857543945312e+00 1.960228323936462402e+00 4.546142816543579102e-01
2.394000000000000000e+03 7.347036743164062500e+01 -2.451046180725097656e+01 2.424472197890281677e-02 6.755248546600341797e+00 2.033848047256469727e+00 4.263606667518615723e-01
2.395000000000000000e+03 6.930679321289062500e+01 -2.400892257690429688e+01 3.061464726924896240e-01 5.279824256896972656e+00 1.675791263580322266e+00 7.584154605865478516e-02
2.396000000000000000e+03 5.431767654418945312e+01 -2.106639146804809570e+00 -2.618265151977539062e+00 7.308480262756347656e+00 1.407064557075500488e+00 -3.711289167404174805e+00
2.397000000000000000e+03 2.923664665222167969e+01 -1.456301021575927734e+01 -4.822558760643005371e-01 2.549764513969421387e-01 -6.818382441997528076e-02 6.972590833902359009e-02
2.398000000000000000e+03 5.344395446777343750e+01 1.384160614013671875e+01 2.163171917200088501e-01 1.372486495971679688e+01 4.182354450225830078e+00 1.745757699012756348e+00
2.399000000000000000e+03 5.234137725830078125e+01 7.812119960784912109e+00 -1.899821519851684570e+00 1.507215118408203125e+01 3.951699018478393555e+00 1.401087045669555664e+00
2.400000000000000000e+03 5.333405685424804688e+01 1.438274478912353516e+01 -2.142626494169235229e-01 1.247085762023925781e+01 3.676978349685668945e+00 9.262115955352783203e-01
2.401000000000000000e+03 5.463371658325195312e+01 1.291989612579345703e+01 3.295488834381103516e+00 1.056523132324218750e+01 4.158215999603271484e+00 4.355189800262451172e+00
2.402000000000000000e+03 5.319454956054687500e+01 8.082666397094726562e+00 -2.577908277511596680e+00 1.637665176391601562e+01 4.139623165130615234e+00 7.422907948493957520e-01
2.403000000000000000e+03 5.289013671875000000e+01 8.655256271362304688e+00 -2.580157518386840820e+00 1.765255165100097656e+01 4.521718502044677734e+00 1.155567765235900879e+00
2.404000000000000000e+03 5.546873855590820312e+01 1.118598365783691406e+01 4.240636825561523438e+00 6.980908870697021484e+00 3.366463661193847656e+00 2.304453134536743164e+00
2.405000000000000000e+03 5.416147232055664062e+01 1.382450294494628906e+01 9.953058362007141113e-01 1.192204189300537109e+01 3.875204324722290039e+00 3.240533828735351562e+00
2.406000000000000000e+03 5.130036163330078125e+01 8.826404571533203125e+00 -2.884864509105682373e-01 1.079898929595947266e+01 3.153151035308837891e+00 4.285792827606201172e+00
2.407000000000000000e+03 5.075576782226562500e+01 8.073766708374023438e+00 -1.047065630555152893e-01 8.406492233276367188e+00 2.490535497665405273e+00 2.904362678527832031e+00
2.408000000000000000e+03 6.950830459594726562e+00 -5.405633449554443359e+00 -2.496542781591415405e-02 -2.375701442360877991e-03 -8.202338591217994690e-03 -1.191753055900335312e-02
2.409000000000000000e+03 5.140195465087890625e+01 1.481174373626708984e+01 6.599409580230712891e-01 9.151179313659667969e+00 2.943336009979248047e+00 -2.715854167938232422e+00
2.410000000000000000e+03 5.285991287231445312e+01 1.610937118530273438e+01 -7.246031761169433594e-01 9.182607650756835938e+00 2.537401199340820312e+00 9.905818104743957520e-02
2.411000000000000000e+03 1.110442161560058594e+01 -6.140630722045898438e+00 -3.882759809494018555e-02 9.626885876059532166e-03 -8.760213851928710938e-03 -8.215882815420627594e-03
2.412000000000000000e+03 1.268121814727783203e+01 -8.206809043884277344e+00 -7.165739685297012329e-02 2.310836687684059143e-02 -1.456470973789691925e-02 -7.675022818148136139e-03
2.413000000000000000e+03 1.386310863494873047e+01 -7.863571166992187500e+00 -7.708294689655303955e-02 2.888416685163974762e-02 -1.445963326841592789e-02 -8.004405535757541656e-03
2.414000000000000000e+03 4.096225357055664062e+01 1.820888519287109375e+01 -5.010408759117126465e-01 5.122458934783935547e-01 3.361506853252649307e-03 -9.679038822650909424e-02
2.415000000000000000e+03 1.059586524963378906e+01 -6.927026271820068359e+00 -5.598893761634826660e-02 7.945341989398002625e-03 -1.441307924687862396e-02 -2.442360296845436096e-02
2.416000000000000000e+03 1.002164649963378906e+01 -6.345304965972900391e+00 -2.929049544036388397e-02 5.461607128381729126e-03 -7.148666307330131531e-03 -1.338495127856731415e-02
2.417000000000000000e+03 3.892706298828125000e+01 1.934363365173339844e+01 -3.905985951423645020e-01 3.266834914684295654e-01 -1.917453482747077942e-02 -8.269543945789337158e-02
2.418000000000000000e+03 5.146786117553710938e+01 7.003968715667724609e+00 -4.490793049335479736e-01 1.133733272552490234e+01 3.266475915908813477e+00 1.574056982994079590e+00
2.419000000000000000e+03 5.781445980072021484e+00 -8.209175109863281250e+00 -1.438188645988702774e-02 -1.037912163883447647e-02 -7.428302429616451263e-03 -2.128973230719566345e-02
2.420000000000000000e+03 5.648523712158203125e+01 1.426448726654052734e+01 1.864907860755920410e+00 5.464671134948730469e+00 2.198873758316040039e+00 3.647678852081298828e+00
2.421000000000000000e+03 5.031092166900634766e+00 -9.360747337341308594e+00 -1.026256661862134933e-02 -1.679912023246288300e-02 -8.118505589663982391e-03 -2.603348344564437866e-02
2.422000000000000000e+03 6.660353660583496094e+00 -8.155598640441894531e+00 -2.906794846057891846e-02 -8.697412908077239990e-03 -1.132960803806781769e-02 -2.804391272366046906e-02
2.423000000000000000e+03 5.665374755859375000e+01 1.564857196807861328e+01 1.189300775527954102e+00 5.699618816375732422e+00 2.066675901412963867e+00 3.047595977783203125e+00
2.424000000000000000e+03 1.046175670623779297e+01 -5.757547855377197266e+00 -4.006250575184822083e-02 4.458701703697443008e-03 -1.068114116787910461e-02 -1.265981886535882950e-02
2.425000000000000000e+03 5.215232467651367188e+01 2.024280738830566406e+01 -7.763463854789733887e-01 5.553779125213623047e+00 1.433229684829711914e+00 -7.621287703514099121e-01
2.426000000000000000e+03 7.363290405273437500e+01 -1.907726478576660156e+01 -7.261399030685424805e-01 7.752658843994140625e+00 2.107955694198608398e+00 4.982169270515441895e-01
2.427000000000000000e+03 7.819095134735107422e+00 9.337271690368652344e+00 5.793630331754684448e-02 -1.723074726760387421e-02 1.221166644245386124e-02 2.992291189730167389e-02
2.428000000000000000e+03 8.957859992980957031e+00 -5.812910556793212891e+00 -1.833905838429927826e-02 1.051241881214082241e-03 -5.186344962567090988e-03 -9.719421155750751495e-03
2.429000000000000000e+03 6.276975250244140625e+01 -1.879347610473632812e+01 2.297077924013137817e-01 5.422487258911132812e+00 1.695658445358276367e+00 -1.615507841110229492e+00
2.430000000000000000e+03 5.603757476806640625e+01 1.474618244171142578e+01 1.466506242752075195e+00 6.453954219818115234e+00 2.376138210296630859e+00 3.496274232864379883e+00
2.431000000000000000e+03 6.353325653076171875e+01 -1.784933853149414062e+01 -2.211965620517730713e-01 5.088057041168212891e+00 1.460058212280273438e+00 -1.571062684059143066e+00
2.432000000000000000e+03 5.886272811889648438e+01 1.731040763854980469e+01 1.800728082656860352e+00 3.606396913528442383e+00 1.622137546539306641e+00 1.354405522346496582e+00
2.433000000000000000e+03 5.802175521850585938e+01 1.693296051025390625e+01 1.431712031364440918e+00 4.218203067779541016e+00 1.694974422454833984e+00 2.090526103973388672e+00
2.434000000000000000e+03 3.646131134033203125e+01 2.088940620422363281e+01 -1.759603619575500488e-01 1.767020672559738159e-01 2.225119096692651510e-04 -1.913009583950042725e-02
2.435000000000000000e+03 2.833662033081054688e+01 -1.334568214416503906e+01 -3.568313121795654297e-01 2.099709212779998779e-01 -4.405811801552772522e-02 8.060692250728607178e-02
2.436000000000000000e+03 3.731444168090820312e+01 1.812501144409179688e+01 -6.299213767051696777e-01 8.457627892494201660e-02 -1.636035293340682983e-01 -2.760788984596729279e-02
2.437000000000000000e+03 5.484487915039062500e+01 -3.282716035842895508e+00 -2.578333854675292969e+00 6.711605072021484375e+00 1.239981412887573242e+00 -3.264046907424926758e+00
2.438000000000000000e+03 1.875812149047851562e+01 2.200326538085937500e+01 -2.008488923311233521e-01 -3.740856423974037170e-02 -7.147723436355590820e-02 3.062788844108581543e-01
2.439000000000000000e+03 5.046760559082031250e+01 2.162313461303710938e+01 -3.779381811618804932e-01 4.411895751953125000e+00 1.210187315940856934e+00 -1.073228836059570312e+00
2.440000000000000000e+03 4.768719482421875000e+01 1.896523284912109375e+01 3.150392174720764160e-01 2.236958503723144531e+00 7.655993103981018066e-01 -1.828678846359252930e+00
2.441000000000000000e+03 4.536431121826171875e+01 1.947848320007324219e+01 1.189217194914817810e-01 1.178291440010070801e+00 3.891639411449432373e-01 -7.636580467224121094e-01
2.442000000000000000e+03 4.282568740844726562e+01 1.767169761657714844e+01 -4.309661984443664551e-01 5.803956389427185059e-01 4.482883960008621216e-02 -1.807312220335006714e-01
2.443000000000000000e+03 6.551702022552490234e+00 2.347261428833007812e+01 -3.142852708697319031e-02 -1.071886867284774780e-01 -4.158516600728034973e-02 1.082211360335350037e-01
2.444000000000000000e+03 6.350391864776611328e+00 2.496987915039062500e+01 -2.715845406055450439e-02 -1.314446479082107544e-01 -4.758093133568763733e-02 1.177490800619125366e-01
2.445000000000000000e+03 1.546186542510986328e+01 -8.958117485046386719e+00 -1.118031591176986694e-01 3.378602489829063416e-02 -2.340513840317726135e-02 -1.272917911410331726e-02
2.446000000000000000e+03 1.594369697570800781e+01 -7.794146537780761719e+00 -1.290665864944458008e-01 2.674805559217929840e-02 -3.069555759429931641e-02 -1.009208988398313522e-02
2.447000000000000000e+03 6.904607391357421875e+01 -2.224387931823730469e+01 4.773788750171661377e-01 4.691549301147460938e+00 1.550678491592407227e+00 3.853863105177879333e-02
2.448000000000000000e+03 1.769029617309570312e+01 -1.439337730407714844e+01 -1.554029285907745361e-01 5.757337063550949097e-02 -2.934886701405048370e-02 -9.727965295314788818e-02
2.449000000000000000e+03 1.949979400634765625e+01 -1.517964744567871094e+01 -1.674725860357284546e-01 7.387532293796539307e-02 -2.807917818427085876e-02 -1.037219464778900146e-01
2.450000000000000000e+03 2.397500228881835938e+01 -1.376318645477294922e+01 -2.658668458461761475e-01 8.413232117891311646e-02 -5.452035740017890930e-02 3.567785024642944336e-03
2.451000000000000000e+03 2.195490837097167969e+01 -1.362508583068847656e+01 -2.260184139013290405e-01 5.011823400855064392e-02 -5.277005583047866821e-02 -6.101526319980621338e-02
2.452000000000000000e+03 1.531196308135986328e+01 -1.011447811126708984e+01 -1.336917430162429810e-01 4.647029191255569458e-02 -2.616643533110618591e-02 -5.643195658922195435e-02
2.453000000000000000e+03 3.821768188476562500e+01 1.676343917846679688e+01 -8.596948385238647461e-01 1.837862133979797363e-01 -2.027725875377655029e-01 1.263245288282632828e-02
2.454000000000000000e+03 9.211295127868652344e+00 1.474041748046875000e+01 -3.899551182985305786e-02 1.885577104985713959e-03 -1.113298069685697556e-02 3.214446082711219788e-02
2.455000000000000000e+03 7.645603942871093750e+01 2.063870620727539062e+01 1.278677135705947876e-01 5.837854385375976562e+00 1.789716601371765137e+00 1.667378097772598267e-01
2.456000000000000000e+03 4.691510009765625000e+01 -1.983257293701171875e+01 -6.718077063560485840e-01 1.690436363220214844e+00 3.055885732173919678e-01 -6.132804155349731445e-01
2.457000000000000000e+03 2.778097343444824219e+01 -1.706361198425292969e+01 -3.066225647926330566e-01 2.367901951074600220e-01 -2.094970829784870148e-02 -4.692304506897926331e-02
2.458000000000000000e+03 5.928879165649414062e+01 -2.111663246154785156e+01 -9.744192957878112793e-01 6.811847686767578125e+00 1.751228570938110352e+00 -4.313975274562835693e-01
2.459000000000000000e+03 6.608383941650390625e+01 -2.103587722778320312e+01 2.906142771244049072e-01 4.287466049194335938e+00 1.373424053192138672e+00 -1.014524459838867188e+00
2.460000000000000000e+03 3.045650100708007812e+01 -1.551422500610351562e+01 -3.612146973609924316e-01 2.576967775821685791e-01 -3.105537407100200653e-02 3.709051758050918579e-02
2.461000000000000000e+03 3.061303520202636719e+01 -1.765166282653808594e+01 -2.921780347824096680e-01 2.856662273406982422e-01 -1.953541534021496773e-03 -1.491669937968254089e-02
2.462000000000000000e+03 2.266917419433593750e+01 2.017395019531250000e+01 -3.792208731174468994e-01 -1.386366188526153564e-01 -1.553572416305541992e-01 2.959412336349487305e-01
2.463000000000000000e+03 2.601248741149902344e+01 1.896255493164062500e+01 -6.586594581604003906e-01 -5.728241801261901855e-02 -2.147825509309768677e-01 2.069605290889739990e-01
2.464000000000000000e+03 7.326943206787109375e+01 -3.205608606338500977e+00 -1.014217019081115723e+00 4.993894577026367188e+00 1.193903207778930664e+00 -7.871868014335632324e-01
2.465000000000000000e+03 3.480137634277343750e+01 2.314595794677734375e+01 2.576525509357452393e-02 1.900088489055633545e-01 6.473223119974136353e-02 7.601966708898544312e-02
2.466000000000000000e+03 3.002972602844238281e+01 2.199795150756835938e+01 -2.264131307601928711e-01 9.083161130547523499e-03 -6.519898772239685059e-02 2.738556861877441406e-01
2.467000000000000000e+03 6.839434623718261719e+00 -1.070205497741699219e+01 -4.513588920235633850e-02 -8.364780806005001068e-03 -1.605020090937614441e-02 -4.435111582279205322e-02
2.468000000000000000e+03 8.811433792114257812e+00 -3.218714523315429688e+01 3.768365085124969482e-02 -1.498203724622726440e-01 -3.364101797342300415e-02 -9.427255392074584961e-02
2.469000000000000000e+03 3.213014221191406250e+01 -2.042398643493652344e+01 -1.122612729668617249e-01 3.840877711772918701e-01 8.154794573783874512e-02 5.110663175582885742e-02
2.470000000000000000e+03 7.868346214294433594e+00 -2.405386734008789062e+01 1.319565490121021867e-04 -1.052743196487426758e-01 -3.154270723462104797e-02 -1.171637475490570068e-01
2.471000000000000000e+03 8.714735031127929688e+00 2.241050338745117188e+01 -5.703287944197654724e-02 -6.654125452041625977e-02 -3.707223758101463318e-02 1.283070594072341919e-01
2.472000000000000000e+03 7.103285312652587891e+00 1.991091918945312500e+01 -4.584691673517227173e-02 -5.704712495207786560e-02 -3.086821176111698151e-02 7.982250303030014038e-02
2.473000000000000000e+03 4.922000503540039062e+01 -2.252687454223632812e+01 -3.976942598819732666e-01 1.411419987678527832e+00 3.041177093982696533e-01 -2.019107341766357422e-01
2.474000000000000000e+03 1.819089889526367188e+01 2.356658172607421875e+01 -1.487881243228912354e-01 -4.405141994357109070e-02 -5.785186588764190674e-02 3.030817508697509766e-01
2.475000000000000000e+03 1.358409118652343750e+01 2.058742904663085938e+01 -1.598800718784332275e-01 1.499905623495578766e-02 -4.346430301666259766e-02 1.732981055974960327e-01
2.476000000000000000e+03 7.151165008544921875e+01 -2.969893264770507812e+01 1.441041231155395508e-01 6.350979804992675781e+00 1.948525190353393555e+00 1.394238770008087158e-01
2.477000000000000000e+03 8.102193832397460938e+00 2.796100234985351562e+01 -3.967873286455869675e-03 -1.569717377424240112e-01 -4.828188195824623108e-02 1.568083167076110840e-01
2.478000000000000000e+03 7.312183380126953125e+00 3.226811981201171875e+01 3.543352708220481873e-02 -2.261364161968231201e-01 -5.721086636185646057e-02 1.263651698827743530e-01
2.479000000000000000e+03 3.612677383422851562e+01 -2.309607887268066406e+01 -4.372637718915939331e-02 7.944228649139404297e-01 2.252089381217956543e-01 3.018223047256469727e-01
2.480000000000000000e+03 1.224050712585449219e+01 1.803302764892578125e+01 -1.228318959474563599e-01 3.387809172272682190e-02 -2.668614126741886139e-02 9.629904478788375854e-02
2.481000000000000000e+03 1.123934745788574219e+01 1.627584075927734375e+01 -8.641898632049560547e-02 2.696051448583602905e-02 -1.783754117786884308e-02 6.088566035032272339e-02
2.482000000000000000e+03 2.303877830505371094e+01 -1.261369132995605469e+01 -2.396439909934997559e-01 4.283779859542846680e-02 -5.904185399413108826e-02 5.644206423312425613e-03
2.483000000000000000e+03 4.602092742919921875e+01 1.863358116149902344e+01 1.256096512079238892e-01 1.094154715538024902e+00 3.659293055534362793e-01 -9.469659924507141113e-01
2.484000000000000000e+03 5.366992568969726562e+01 1.428621292114257812e+01 -5.582486838102340698e-02 1.232391071319580078e+01 3.680425643920898438e+00 2.005238771438598633e+00
2.485000000000000000e+03 5.317375564575195312e+01 1.406755828857421875e+01 -3.868153393268585205e-01 1.334112834930419922e+01 3.886293888092041016e+00 7.104864120483398438e-01
2.486000000000000000e+03 5.253237533569335938e+01 1.462469959259033203e+01 -2.926400601863861084e-01 1.164443397521972656e+01 3.405538320541381836e+00 -9.790991544723510742e-01
2.487000000000000000e+03 5.411277389526367188e+01 1.429894256591796875e+01 2.983606159687042236e-01 1.124909114837646484e+01 3.464235544204711914e+00 2.713225603103637695e+00
2.488000000000000000e+03 5.460196304321289062e+01 1.445777034759521484e+01 7.160978317260742188e-01 9.874214172363281250e+00 3.177093505859375000e+00 3.126374721527099609e+00
2.489000000000000000e+03 5.467083358764648438e+01 1.261033725738525391e+01 3.969670772552490234e+00 1.023100090026855469e+01 4.260201454162597656e+00 4.471376895904541016e+00
2.490000000000000000e+03 5.468731307983398438e+01 1.395074367523193359e+01 1.262404441833496094e+00 1.005763530731201172e+01 3.396011829376220703e+00 3.700223445892333984e+00
2.491000000000000000e+03 5.239801788330078125e+01 1.517725563049316406e+01 -4.543976485729217529e-01 1.049113845825195312e+01 3.011022329330444336e+00 -1.024088859558105469e+00
2.492000000000000000e+03 5.467972564697265625e+01 1.652976989746093750e+01 -2.696833014488220215e-01 7.992396831512451172e+00 2.316813945770263672e+00 1.776536941528320312e+00
2.493000000000000000e+03 5.189591598510742188e+01 1.487517452239990234e+01 1.003994196653366089e-01 1.030537223815917969e+01 3.121731519699096680e+00 -2.020724534988403320e+00
2.494000000000000000e+03 5.608146667480468750e+01 1.327794551849365234e+01 2.594223022460937500e+00 6.065688133239746094e+00 2.597973346710205078e+00 3.981243133544921875e+00
2.495000000000000000e+03 7.292804718017578125e+00 -6.311848640441894531e+00 -1.706320233643054962e-02 -2.258458873257040977e-03 -5.796498153358697891e-03 -1.543757785111665726e-02
2.496000000000000000e+03 8.117401123046875000e+00 -6.116765499114990234e+00 -3.598943725228309631e-02 5.229529924690723419e-04 -1.063994597643613815e-02 -1.582195051014423370e-02
2.497000000000000000e+03 6.538795471191406250e+00 -6.476844787597656250e+00 -2.431337721645832062e-02 -6.250657606869935989e-03 -9.169210679829120636e-03 -1.885833032429218292e-02
2.498000000000000000e+03 1.076507091522216797e+01 -8.312150001525878906e+00 -6.451520323753356934e-02 7.993428036570549011e-03 -1.695653237402439117e-02 -4.086217284202575684e-02
2.499000000000000000e+03 1.128546905517578125e+01 -7.424457073211669922e+00 -4.917402565479278564e-02 1.266397163271903992e-02 -1.095301657915115356e-02 -1.373689062893390656e-02
2.500000000000000000e+03 5.427087783813476562e+01 1.694668769836425781e+01 -5.637474656105041504e-01 7.997114181518554688e+00 2.230010032653808594e+00 1.314976215362548828e+00
2.501000000000000000e+03 6.205701065063476562e+01 -1.968909072875976562e+01 -3.615440428256988525e-01 5.801959037780761719e+00 1.632124423980712891e+00 -1.575251102447509766e+00
2.502000000000000000e+03 6.474095916748046875e+01 -2.274000740051269531e+01 9.731400758028030396e-02 4.916796207427978516e+00 1.504233121871948242e+00 -9.801341295242309570e-01
2.503000000000000000e+03 9.159695625305175781e+00 1.759595870971679688e+01 -6.284504383802413940e-02 -7.210636977106332779e-03 -2.101670391857624054e-02 6.957778334617614746e-02
2.504000000000000000e+03 7.531331539154052734e+00 1.536212635040283203e+01 -3.030878864228725433e-02 -2.157907932996749878e-02 -1.556636020541191101e-02 3.231503069400787354e-02
2.505000000000000000e+03 1.033516502380371094e+01 1.542570972442626953e+01 -5.594776570796966553e-02 2.223254553973674774e-02 -1.011456642299890518e-02 4.439064115285873413e-02
2.506000000000000000e+03 5.803117370605468750e+01 1.812463569641113281e+01 1.120647549629211426e+00 4.634509086608886719e+00 1.726547002792358398e+00 1.515601158142089844e+00
2.507000000000000000e+03 1.157356452941894531e+01 -8.888358116149902344e+00 -6.276206672191619873e-02 1.739853434264659882e-02 -1.360906008630990982e-02 -2.750596217811107635e-02
2.508000000000000000e+03 5.373780441284179688e+01 1.802092361450195312e+01 -8.000952601432800293e-01 7.277420997619628906e+00 1.943197727203369141e+00 4.385640323162078857e-01
2.509000000000000000e+03 1.378778553009033203e+01 -9.558657646179199219e+00 -8.679521083831787109e-02 3.530389070510864258e-02 -1.544739585369825363e-02 -4.103948920965194702e-02
2.510000000000000000e+03 7.564443111419677734e+00 1.239603233337402344e+01 1.573239080607891083e-02 -1.058068685233592987e-02 1.545511302538216114e-03 2.270807884633541107e-02
2.511000000000000000e+03 8.529224395751953125e+00 1.307772254943847656e+01 -1.201106049120426178e-02 -5.638529080897569656e-03 -5.294877104461193085e-03 1.776611804962158203e-02
2.512000000000000000e+03 6.268869400024414062e+01 -1.717195129394531250e+01 1.315452456474304199e-01 5.768504142761230469e+00 1.770014762878417969e+00 -1.492115378379821777e+00
2.513000000000000000e+03 5.179710769653320312e+01 2.146190643310546875e+01 -5.562589764595031738e-01 5.065193653106689453e+00 1.352680444717407227e+00 -8.486672043800354004e-01
2.514000000000000000e+03 9.501535415649414062e+00 3.209310150146484375e+01 4.646575078368186951e-02 -1.949454694986343384e-01 -4.454391449689865112e-02 1.569986194372177124e-01
2.515000000000000000e+03 4.350643157958984375e+01 2.188145446777343750e+01 1.367464363574981689e-01 1.237847208976745605e+00 4.123781025409698486e-01 -6.196277141571044922e-01
2.516000000000000000e+03 4.456323242187500000e+01 2.062685966491699219e+01 1.995419263839721680e-01 1.228493690490722656e+00 4.284107089042663574e-01 -7.671912908554077148e-01
2.517000000000000000e+03 1.708924484252929688e+01 -1.323049354553222656e+01 -1.429725736379623413e-01 6.057093292474746704e-02 -2.472049184143543243e-02 -9.979846328496932983e-02
2.518000000000000000e+03 6.935552215576171875e+01 2.470684623718261719e+01 -9.975446015596389771e-02 6.243019580841064453e+00 1.842979550361633301e+00 2.107502967119216919e-01
2.519000000000000000e+03 7.336744689941406250e+01 2.157980728149414062e+01 2.060744762420654297e-01 6.144978046417236328e+00 1.905315756797790527e+00 4.066334962844848633e-01
2.520000000000000000e+03 1.593485641479492188e+01 -1.378601741790771484e+01 -1.362190544605255127e-01 4.361461848020553589e-02 -2.778132818639278412e-02 -9.048688411712646484e-02
2.521000000000000000e+03 1.657860565185546875e+01 -1.211605834960937500e+01 -1.572914570569992065e-01 4.271109774708747864e-02 -3.437410667538642883e-02 -6.358192116022109985e-02
2.522000000000000000e+03 2.672287940979003906e+01 -1.216734695434570312e+01 -3.281816840171813965e-01 1.458996385335922241e-01 -5.468461662530899048e-02 9.434458613395690918e-02
2.523000000000000000e+03 1.328900718688964844e+01 1.778632545471191406e+01 -1.420605629682540894e-01 3.732927143573760986e-02 -3.141938522458076477e-02 1.020145565271377563e-01
2.524000000000000000e+03 2.966950607299804688e+01 1.923108863830566406e+01 -5.349885821342468262e-01 4.254113510251045227e-02 -1.477342247962951660e-01 3.496355712413787842e-01
2.525000000000000000e+03 5.134934997558593750e+01 1.928992462158203125e+01 -6.678015589714050293e-01 5.573587894439697266e+00 1.471735835075378418e+00 -1.086579084396362305e+00
2.526000000000000000e+03 3.332860946655273438e+01 1.839892387390136719e+01 -6.081925630569458008e-01 -1.038151681423187256e-01 -2.136023193597793579e-01 2.715092599391937256e-01
2.527000000000000000e+03 6.943412017822265625e+01 -2.592634391784667969e+01 2.574791312217712402e-01 5.562907218933105469e+00 1.746115922927856445e+00 -6.786191835999488831e-03
2.528000000000000000e+03 4.161950683593750000e+01 2.018202018737792969e+01 -1.395736634731292725e-01 7.444550991058349609e-01 1.814644336700439453e-01 -2.896207571029663086e-01
2.529000000000000000e+03 4.122077560424804688e+01 -2.440633392333984375e+01 -4.529387056827545166e-01 1.802032589912414551e+00 4.047281742095947266e-01 3.332378715276718140e-02
2.530000000000000000e+03 1.443905448913574219e+01 2.477454566955566406e+01 -7.620085030794143677e-02 -5.998410657048225403e-02 -4.085548967123031616e-02 2.493739575147628784e-01
2.531000000000000000e+03 1.475965690612792969e+01 1.890094566345214844e+01 -1.924343556165695190e-01 4.284153133630752563e-02 -4.487784951925277710e-02 1.434093117713928223e-01
2.532000000000000000e+03 7.091059112548828125e+01 -2.610466575622558594e+01 2.403736412525177002e-01 5.935669898986816406e+00 1.852813005447387695e+00 2.110691815614700317e-01
2.533000000000000000e+03 7.267398071289062500e+01 -2.537465667724609375e+01 1.622745990753173828e-01 6.487586021423339844e+00 1.994958281517028809e+00 3.253470659255981445e-01
2.534000000000000000e+03 2.521030235290527344e+01 -1.460691738128662109e+01 -2.546655237674713135e-01 1.604246050119400024e-01 -2.827227860689163208e-02 2.959233894944190979e-02
2.535000000000000000e+03 4.860376739501953125e+01 -2.089144325256347656e+01 -6.791859269142150879e-01 1.196124672889709473e+00 1.550816148519515991e-01 -3.923898339271545410e-01
2.536000000000000000e+03 8.191903114318847656e+00 -2.265428352355957031e+01 -4.359184298664331436e-03 -9.253329783678054810e-02 -2.906774543225765228e-02 -1.271094977855682373e-01
2.537000000000000000e+03 2.675399780273437500e+01 -1.510354804992675781e+01 -3.431137204170227051e-01 1.991355717182159424e-01 -4.319344833493232727e-02 -1.007959339767694473e-02
2.538000000000000000e+03 7.159814453125000000e+01 -2.187351036071777344e+01 5.868300050497055054e-02 5.811533451080322266e+00 1.761065006256103516e+00 6.221694946289062500e-01
2.539000000000000000e+03 4.719456100463867188e+01 -2.124995231628417969e+01 -7.808712124824523926e-01 1.850531101226806641e+00 3.208979666233062744e-01 -5.632179379463195801e-01
2.540000000000000000e+03 6.769989776611328125e+01 1.853529930114746094e+01 2.218291014432907104e-01 7.347812652587890625e+00 2.270892620086669922e+00 -2.997244149446487427e-02
2.541000000000000000e+03 5.483954238891601562e+01 1.348713111877441406e+01 2.203399419784545898e+00 9.956245422363281250e+00 3.647893428802490234e+00 4.067186355590820312e+00
2.542000000000000000e+03 5.520891571044921875e+01 1.415383720397949219e+01 1.475463509559631348e+00 8.525485038757324219e+00 3.000284433364868164e+00 3.780008316040039062e+00
2.543000000000000000e+03 5.409634017944335938e+01 1.476138782501220703e+01 5.105562880635261536e-02 1.074815845489501953e+01 3.239764451980590820e+00 2.196313142776489258e+00
2.544000000000000000e+03 5.591904067993164062e+01 1.390029716491699219e+01 2.041642189025878906e+00 6.723581790924072266e+00 2.629567146301269531e+00 3.945291519165039062e+00
2.545000000000000000e+03 5.550408935546875000e+01 1.316518306732177734e+01 2.874734401702880859e+00 7.797360420227050781e+00 3.201628446578979492e+00 4.140773296356201172e+00
2.546000000000000000e+03 5.568107223510742188e+01 1.436401748657226562e+01 1.468289375305175781e+00 7.233333110809326172e+00 2.610486745834350586e+00 3.790913105010986328e+00
2.547000000000000000e+03 5.296305465698242188e+01 1.540931224822998047e+01 -5.248713493347167969e-01 1.044350910186767578e+01 2.975591182708740234e+00 6.525903195142745972e-02
2.548000000000000000e+03 5.300209426879882812e+01 1.481664657592773438e+01 -5.677626132965087891e-01 1.161061477661132812e+01 3.312855482101440430e+00 1.382779330015182495e-01
2.549000000000000000e+03 8.420215606689453125e+00 -7.173213005065917969e+00 -2.601210214197635651e-02 3.051001694984734058e-04 -7.712100632488727570e-03 -2.371575869619846344e-02
2.550000000000000000e+03 9.311524391174316406e+00 -6.850765228271484375e+00 -4.934880137443542480e-02 3.325652331113815308e-03 -1.380694471299648285e-02 -2.342066727578639984e-02
2.551000000000000000e+03 1.059050369262695312e+01 1.342976188659667969e+01 -2.001512795686721802e-02 2.411691099405288696e-02 1.230534515343606472e-03 2.716074883937835693e-02
2.552000000000000000e+03 1.026327228546142578e+01 -9.177746772766113281e+00 -5.198283493518829346e-02 9.284727275371551514e-03 -1.280943211168050766e-02 -2.408023737370967865e-02
2.553000000000000000e+03 8.451336860656738281e+00 -8.308279037475585938e+00 -4.190671816468238831e-02 1.246436382643878460e-03 -1.219808403402566910e-02 -2.647354267537593842e-02
2.554000000000000000e+03 5.494400405883789062e+01 1.521712684631347656e+01 4.349722862243652344e-01 8.597632408142089844e+00 2.709781408309936523e+00 2.846878767013549805e+00
2.555000000000000000e+03 5.357920837402343750e+01 1.704811477661132812e+01 -6.753760576248168945e-01 8.204534530639648438e+00 2.258747577667236328e+00 7.014593482017517090e-01
2.556000000000000000e+03 6.619410037994384766e+00 -7.300813674926757812e+00 -1.846375130116939545e-02 -5.074669606983661652e-03 -7.061526644974946976e-03 -1.823857054114341736e-02
2.557000000000000000e+03 7.404392719268798828e+00 -9.001159667968750000e+00 -3.451057150959968567e-02 -4.285239614546298981e-03 -1.163874380290508270e-02 -3.027379512786865234e-02
2.558000000000000000e+03 5.636537551879882812e+01 1.706886100769042969e+01 5.901241898536682129e-01 5.932847023010253906e+00 1.956891417503356934e+00 2.220795869827270508e+00
2.559000000000000000e+03 5.610551071166992188e+01 1.536743927001953125e+01 1.092997908592224121e+00 6.452636718750000000e+00 2.263690471649169922e+00 3.216803789138793945e+00
2.560000000000000000e+03 5.477709960937500000e+01 1.771803855895996094e+01 -2.809870541095733643e-01 7.061802864074707031e+00 2.034244775772094727e+00 1.296066761016845703e+00
2.561000000000000000e+03 5.689435958862304688e+01 2.018184089660644531e+01 2.914742231369018555e-01 5.329613685607910156e+00 1.686326384544372559e+00 8.382641077041625977e-01
2.562000000000000000e+03 5.295852279663085938e+01 1.952403259277343750e+01 -8.138589859008789062e-01 6.285533428192138672e+00 1.641502380371093750e+00 -2.630819976329803467e-01
2.563000000000000000e+03 8.339355468750000000e+00 1.141443920135498047e+01 9.481590241193771362e-03 -5.435001570731401443e-03 1.213976647704839706e-03 9.021597914397716522e-03
2.564000000000000000e+03 4.805125236511230469e+00 2.613756752014160156e+01 -1.339290849864482880e-02 -1.673772037029266357e-01 -5.423103645443916321e-02 1.006830036640167236e-01
2.565000000000000000e+03 6.076615333557128906e+00 2.619723701477050781e+01 -1.533327996730804443e-02 -1.526414901018142700e-01 -5.039243027567863464e-02 1.191524490714073181e-01
2.566000000000000000e+03 7.233860969543457031e+00 1.646327590942382812e+01 -3.061909787356853485e-02 -2.449796348810195923e-02 -1.653511822223663330e-02 4.422459751367568970e-02
2.567000000000000000e+03 1.001682949066162109e+01 1.808225440979003906e+01 -8.032543957233428955e-02 -5.738542415201663971e-03 -2.581919543445110321e-02 8.378223329782485962e-02
2.568000000000000000e+03 7.591428279876708984e+00 -1.015912532806396484e+01 -2.502418868243694305e-02 -1.119350548833608627e-02 -1.086530834436416626e-02 -3.704474866390228271e-02
2.569000000000000000e+03 8.325967788696289062e+00 -1.091958141326904297e+01 -5.677025765180587769e-02 -7.001128979027271271e-03 -1.913141645491123199e-02 -5.382677912712097168e-02
2.570000000000000000e+03 7.204858398437500000e+01 1.964155197143554688e+01 4.436975121498107910e-01 6.242011070251464844e+00 2.005712509155273438e+00 4.421702027320861816e-01
2.571000000000000000e+03 7.157418251037597656e+00 2.673099136352539062e+01 -1.846108399331569672e-02 -1.479945331811904907e-01 -4.993668571114540100e-02 1.402067840099334717e-01
2.572000000000000000e+03 1.244038391113281250e+01 -9.133821487426757812e+00 -7.076918333768844604e-02 1.961104758083820343e-02 -1.534743979573249817e-02 -4.758366569876670837e-02
2.573000000000000000e+03 1.323733043670654297e+01 -8.714256286621093750e+00 -1.020469442009925842e-01 1.998795010149478912e-02 -2.461769804358482361e-02 -3.622196987271308899e-02
2.574000000000000000e+03 2.416014289855957031e+01 -1.784748268127441406e+01 -1.560140699148178101e-01 1.788260489702224731e-01 6.843592505902051926e-03 -7.722307741641998291e-02
2.575000000000000000e+03 5.081916046142578125e+01 2.333755874633789062e+01 -3.465830385684967041e-01 4.240261077880859375e+00 1.168103456497192383e+00 -8.530616164207458496e-01
2.576000000000000000e+03 8.907277107238769531e+00 2.048635292053222656e+01 -7.122308760881423950e-02 -3.766002133488655090e-02 -3.266493231058120728e-02 1.096575856208801270e-01
2.577000000000000000e+03 1.821039199829101562e+01 -1.567389297485351562e+01 -1.247623115777969360e-01 6.780938804149627686e-02 -1.708587631583213806e-02 -1.236705556511878967e-01
2.578000000000000000e+03 1.440566825866699219e+01 -1.063580799102783203e+01 -1.329314857721328735e-01 3.180819004774093628e-02 -3.033698722720146179e-02 -4.993605613708496094e-02
2.579000000000000000e+03 1.626809120178222656e+01 -1.110333442687988281e+01 -1.455262899398803711e-01 5.371365696191787720e-02 -2.754379250109195709e-02 -7.403403520584106445e-02
2.580000000000000000e+03 9.009374618530273438e+00 -2.065874290466308594e+01 -1.044796500355005264e-02 -6.062510982155799866e-02 -2.132192254066467285e-02 -1.205397993326187134e-01
2.581000000000000000e+03 4.454381179809570312e+01 -2.271418571472167969e+01 -5.673580765724182129e-01 2.150238037109375000e+00 4.748640060424804688e-01 -2.973984777927398682e-01
2.582000000000000000e+03 3.890850067138671875e+01 2.080269622802734375e+01 -8.917520195245742798e-02 4.210776686668395996e-01 9.957074373960494995e-02 -1.611284762620925903e-01
2.583000000000000000e+03 7.061080932617187500e+01 -2.362216186523437500e+01 3.251075446605682373e-01 5.499560356140136719e+00 1.747400283813476562e+00 2.669074833393096924e-01
2.584000000000000000e+03 6.843975067138671875e+01 2.072632408142089844e+01 2.093922197818756104e-01 6.586190223693847656e+00 2.038674831390380859e+00 1.311290264129638672e-01
2.585000000000000000e+03 6.603226470947265625e+01 2.060721015930175781e+01 2.086874395608901978e-01 6.304549217224121094e+00 1.953970909118652344e+00 -1.682807654142379761e-01
2.586000000000000000e+03 6.146073913574218750e+01 -1.632596969604492188e+01 6.489398330450057983e-02 6.372951507568359375e+00 1.931353569030761719e+00 -9.855832457542419434e-01
2.587000000000000000e+03 2.452159881591796875e+01 -1.605350112915039062e+01 -2.511427104473114014e-01 1.510867178440093994e-01 -3.001679666340351105e-02 -5.510267987847328186e-02
2.588000000000000000e+03 4.572840881347656250e+01 2.556014251708984375e+01 1.766160130500793457e-01 2.234757900238037109e+00 7.234121561050415039e-01 -7.848221659660339355e-01
2.589000000000000000e+03 7.008271789550781250e+01 2.125060462951660156e+01 7.744714617729187012e-02 6.530678272247314453e+00 1.982437729835510254e+00 3.371911644935607910e-01
2.590000000000000000e+03 2.922620964050292969e+01 -1.768573760986328125e+01 -2.403514683246612549e-01 3.043229579925537109e-01 1.919144950807094574e-02 -4.625552147626876831e-02
2.591000000000000000e+03 1.707992172241210938e+01 2.499534606933593750e+01 -7.322852313518524170e-02 -6.786692887544631958e-02 -4.232863709330558777e-02 3.032379150390625000e-01
2.592000000000000000e+03 2.171947860717773438e+01 2.582777976989746094e+01 5.493337754160165787e-03 -8.209425210952758789e-02 -2.298027463257312775e-02 3.162135779857635498e-01
2.593000000000000000e+03 6.303981018066406250e+01 -2.135191535949707031e+01 -1.233540847897529602e-01 5.253454685211181641e+00 1.539030194282531738e+00 -1.254340887069702148e+00
2.594000000000000000e+03 1.885206794738769531e+01 -1.384296798706054688e+01 -1.568279117345809937e-01 6.544720381498336792e-02 -2.741421200335025787e-02 -9.586557000875473022e-02
2.595000000000000000e+03 1.821885681152343750e+01 -1.265751266479492188e+01 -1.876709014177322388e-01 4.742486402392387390e-02 -4.207380861043930054e-02 -7.122210413217544556e-02
2.596000000000000000e+03 1.524686717987060547e+01 -1.121420001983642578e+01 -1.260657906532287598e-01 4.031215980648994446e-02 -2.572608739137649536e-02 -4.817513376474380493e-02
2.597000000000000000e+03 6.811113357543945312e+00 -2.078075790405273438e+01 -5.252108443528413773e-03 -9.207159280776977539e-02 -2.919710986316204071e-02 -1.055270656943321228e-01
2.598000000000000000e+03 7.082315921783447266e+00 -1.374458122253417969e+01 -2.984084747731685638e-02 -2.993360534310340881e-02 -1.793233491480350494e-02 -7.238268852233886719e-02
2.599000000000000000e+03 6.169575691223144531e+00 -2.184471511840820312e+01 -1.121714338660240173e-02 -1.142564192414283752e-01 -3.764206916093826294e-02 -1.037931144237518311e-01
2.600000000000000000e+03 7.223836517333984375e+01 1.615487480163574219e+01 1.346341490745544434e+00 5.548444271087646484e+00 2.068435668945312500e+00 1.781821548938751221e-01
2.601000000000000000e+03 7.218159484863281250e+01 1.785322380065917969e+01 8.707666993141174316e-01 6.043736934661865234e+00 2.074351072311401367e+00 4.830262959003448486e-01
2.602000000000000000e+03 5.552239990234375000e+01 1.536694049835205078e+01 7.783777117729187012e-01 7.440211296081542969e+00 2.465576648712158203e+00 3.145796298980712891e+00
2.603000000000000000e+03 5.340004730224609375e+01 1.479764842987060547e+01 -5.046718120574951172e-01 1.146132469177246094e+01 3.286995887756347656e+00 1.064808249473571777e+00
2.604000000000000000e+03 5.413963699340820312e+01 1.518549442291259766e+01 -1.037236973643302917e-01 9.767971038818359375e+00 2.899274349212646484e+00 2.066051006317138672e+00
2.605000000000000000e+03 5.356212997436523438e+01 1.559503269195556641e+01 -5.464731454849243164e-01 9.896257400512695312e+00 2.804935216903686523e+00 1.096294045448303223e+00
2.606000000000000000e+03 5.555871963500976562e+01 1.479924011230468750e+01 1.089696288108825684e+00 7.637119770050048828e+00 2.618044853210449219e+00 3.444059610366821289e+00
2.607000000000000000e+03 5.508150863647460938e+01 1.465207767486572266e+01 8.609065413475036621e-01 8.634778022766113281e+00 2.848705291748046875e+00 3.455640792846679688e+00
2.608000000000000000e+03 5.481935501098632812e+01 1.587132072448730469e+01 4.780458658933639526e-02 8.222620010375976562e+00 2.481127500534057617e+00 2.257377862930297852e+00
2.609000000000000000e+03 5.614098739624023438e+01 1.608984375000000000e+01 8.035109639167785645e-01 6.340279579162597656e+00 2.143137216567993164e+00 2.822247743606567383e+00
2.610000000000000000e+03 1.066000461578369141e+01 1.172057819366455078e+01 1.771524548530578613e-02 3.727294504642486572e-02 1.649645715951919556e-02 2.635461278259754181e-02
2.611000000000000000e+03 7.529811859130859375e+00 -8.177624702453613281e+00 -2.692170441150665283e-02 -5.289056338369846344e-03 -9.663227945566177368e-03 -2.708954922854900360e-02
2.612000000000000000e+03 8.138674736022949219e+00 -9.352707862854003906e+00 -4.239644110202789307e-02 -5.645073484629392624e-03 -1.441245432943105698e-02 -4.343116655945777893e-02
2.613000000000000000e+03 7.491636276245117188e+00 -7.248835086822509766e+00 -3.240410238504409790e-02 -4.635996650904417038e-03 -1.111202966421842575e-02 -2.307962998747825623e-02
2.614000000000000000e+03 6.079072952270507812e+00 1.768913650512695312e+01 -3.029664233326911926e-02 -4.631293192505836487e-02 -2.298287115991115570e-02 4.772768542170524597e-02
2.615000000000000000e+03 6.772132873535156250e+00 1.720092201232910156e+01 -3.762468323111534119e-02 -3.784403949975967407e-02 -2.264061756432056427e-02 4.480670019984245300e-02
2.616000000000000000e+03 9.146897315979003906e+00 1.204281520843505859e+01 1.523186545819044113e-02 1.469568256288766861e-02 8.978264406323432922e-03 2.425331994891166687e-02
2.617000000000000000e+03 1.002345848083496094e+01 -1.016732501983642578e+01 -5.757227912545204163e-02 9.771587327122688293e-03 -1.434020791202783585e-02 -6.023304536938667297e-02
2.618000000000000000e+03 1.232257461547851562e+01 2.201409721374511719e+01 -1.157080605626106262e-01 -2.040510810911655426e-02 -4.083395004272460938e-02 1.802201420068740845e-01
2.619000000000000000e+03 1.091317462921142578e+01 1.884516906738281250e+01 -1.010034978389739990e-01 8.574940264225006104e-03 -2.772856689989566803e-02 1.021098941564559937e-01
2.620000000000000000e+03 4.270742416381835938e+01 2.087452125549316406e+01 7.426566630601882935e-02 9.070219993591308594e-01 2.943862974643707275e-01 -4.743525385856628418e-01
2.621000000000000000e+03 5.561323547363281250e+01 2.038517379760742188e+01 -1.398244649171829224e-01 5.707910060882568359e+00 1.670425653457641602e+00 6.503219604492187500e-01
2.622000000000000000e+03 4.005450057983398438e+01 2.093145370483398438e+01 -1.294649839401245117e-01 5.286984443664550781e-01 1.197700351476669312e-01 -1.844582557678222656e-01
2.623000000000000000e+03 9.672179222106933594e+00 1.651028633117675781e+01 -6.420896947383880615e-02 -9.308106964454054832e-04 -1.954193413257598877e-02 5.484324693679809570e-02
2.624000000000000000e+03 9.099726676940917969e+00 -1.186507225036621094e+01 -4.135743901133537292e-02 -2.719280309975147247e-03 -1.322301570326089859e-02 -6.944032758474349976e-02
2.625000000000000000e+03 7.350183868408203125e+01 1.638441467285156250e+01 1.009318113327026367e+00 5.478322029113769531e+00 1.946292042732238770e+00 -3.011348843574523926e-02
2.626000000000000000e+03 5.999056243896484375e+01 1.976491928100585938e+01 1.129592895507812500e+00 4.590949535369873047e+00 1.716162681579589844e+00 4.082751870155334473e-01
2.627000000000000000e+03 1.536399650573730469e+01 -1.247598552703857422e+01 -1.255754232406616211e-01 5.148040503263473511e-02 -2.222850546240806580e-02 -9.210730344057083130e-02
2.628000000000000000e+03 3.781499862670898438e+01 2.207452201843261719e+01 -1.558794546872377396e-02 3.357957601547241211e-01 9.606234729290008545e-02 -1.446695029735565186e-01
2.629000000000000000e+03 7.741337776184082031e+00 2.129804229736328125e+01 -5.216957256197929382e-02 -6.607916951179504395e-02 -3.547462075948715210e-02 1.056520268321037292e-01
2.630000000000000000e+03 8.222004890441894531e+00 1.924213600158691406e+01 -5.970190837979316711e-02 -3.653981164097785950e-02 -2.887251600623130798e-02 8.448374271392822266e-02
2.631000000000000000e+03 6.946398162841796875e+01 -2.788047218322753906e+01 2.061297297477722168e-01 5.825455188751220703e+00 1.809475541114807129e+00 4.093983396887779236e-02
2.632000000000000000e+03 2.011615753173828125e+01 -1.669600105285644531e+01 -1.294178068637847900e-01 9.565033763647079468e-02 -1.013024244457483292e-02 -1.192839965224266052e-01
2.633000000000000000e+03 2.591315460205078125e+01 -1.814030265808105469e+01 -2.219553738832473755e-01 2.123964130878448486e-01 -2.867687726393342018e-03 -8.476504683494567871e-02
2.634000000000000000e+03 6.609166717529296875e+01 2.229714584350585938e+01 2.602501511573791504e-01 6.134248256683349609e+00 1.918349504470825195e+00 -1.276753097772598267e-01
2.635000000000000000e+03 6.275289916992187500e+01 2.113321304321289062e+01 5.949512720108032227e-01 5.351100444793701172e+00 1.783815503120422363e+00 -2.187885940074920654e-01
2.636000000000000000e+03 7.729117870330810547e+00 -1.975854110717773438e+01 -2.502606250345706940e-02 -7.407907396554946899e-02 -2.973154000937938690e-02 -1.163724511861801147e-01
2.637000000000000000e+03 5.993782806396484375e+01 -2.334397125244140625e+01 -9.843994379043579102e-01 5.599037170410156250e+00 1.384391307830810547e+00 -5.400037765502929688e-01
2.638000000000000000e+03 7.046607971191406250e+01 1.938618469238281250e+01 4.776646494865417480e-01 6.551685810089111328e+00 2.108805179595947266e+00 5.088912844657897949e-01
2.639000000000000000e+03 2.431678581237792969e+01 2.045925521850585938e+01 -4.014010727405548096e-01 -1.606480479240417480e-01 -1.686147302389144897e-01 2.793539464473724365e-01
2.640000000000000000e+03 7.906443119049072266e+00 2.555002784729003906e+01 -2.790329605340957642e-02 -1.212713643908500671e-01 -4.475239664316177368e-02 1.438809186220169067e-01
2.641000000000000000e+03 1.078773880004882812e+01 2.846979141235351562e+01 9.908932261168956757e-03 -1.386924982070922852e-01 -3.863506764173507690e-02 1.931895315647125244e-01
2.642000000000000000e+03 4.772500991821289062e+01 2.499665260314941406e+01 -1.856201887130737305e-02 2.817329168319702148e+00 8.396301865577697754e-01 -8.817164301872253418e-01
2.643000000000000000e+03 1.153540134429931641e+01 -1.090794658660888672e+01 -6.478904932737350464e-02 1.954880543053150177e-02 -1.357207354158163071e-02 -6.208990886807441711e-02
2.644000000000000000e+03 1.337740707397460938e+01 -1.157346343994140625e+01 -8.829510211944580078e-02 3.468837216496467590e-02 -1.608202047646045685e-02 -7.432857900857925415e-02
2.645000000000000000e+03 7.067626953125000000e+00 -1.494610786437988281e+01 -2.996119484305381775e-02 -4.297727718949317932e-02 -2.188154123723506927e-02 -7.986065000295639038e-02
2.646000000000000000e+03 8.271977424621582031e+00 -1.385157585144042969e+01 -4.276343062520027161e-02 -2.079386264085769653e-02 -1.906718872487545013e-02 -7.783573120832443237e-02
2.647000000000000000e+03 5.410483169555664062e+01 2.223865509033203125e+01 -3.429256081581115723e-01 5.395553588867187500e+00 1.515788435935974121e+00 -7.164565473794937134e-02
2.648000000000000000e+03 5.290396118164062500e+01 2.176694297790527344e+01 -5.637699961662292480e-01 5.374713420867919922e+00 1.443282961845397949e+00 -3.811737000942230225e-01
2.649000000000000000e+03 6.179984092712402344e+00 -1.131295680999755859e+01 -2.124676294624805450e-02 -2.345819771289825439e-02 -1.341148838400840759e-02 -4.504770040512084961e-02
2.650000000000000000e+03 5.434442520141601562e+01 2.065612792968750000e+01 -5.120477676391601562e-01 5.849159717559814453e+00 1.601133584976196289e+00 1.999479979276657104e-01
2.651000000000000000e+03 5.417726135253906250e+01 1.571584701538085938e+01 -3.554317057132720947e-01 9.273893356323242188e+00 2.675538539886474609e+00 1.783261656761169434e+00
2.652000000000000000e+03 5.412418365478515625e+01 1.632522964477539062e+01 -4.432452023029327393e-01 8.655139923095703125e+00 2.463568449020385742e+00 1.423227667808532715e+00
2.653000000000000000e+03 5.530980682373046875e+01 1.888535308837890625e+01 -2.607524991035461426e-01 6.357023715972900391e+00 1.828881382942199707e+00 1.066397547721862793e+00
2.654000000000000000e+03 7.500792980194091797e+00 1.808405113220214844e+01 -4.667249321937561035e-02 -3.267420828342437744e-02 -2.380401082336902618e-02 6.307370215654373169e-02
2.655000000000000000e+03 9.396468162536621094e+00 -8.686307907104492188e+00 -5.491207540035247803e-02 5.452628247439861298e-03 -1.483783405274152756e-02 -4.009052366018295288e-02
2.656000000000000000e+03 1.209562206268310547e+01 -1.239068508148193359e+01 -9.506925195455551147e-02 1.609612628817558289e-02 -2.369193732738494873e-02 -7.441655546426773071e-02
2.657000000000000000e+03 6.557971954345703125e+00 1.870345497131347656e+01 -3.884882852435112000e-02 -5.124983191490173340e-02 -2.702959813177585602e-02 6.150165945291519165e-02
2.658000000000000000e+03 8.448642730712890625e+00 -1.276053047180175781e+01 -4.469459503889083862e-02 -1.716599613428115845e-02 -1.855817809700965881e-02 -6.779077649116516113e-02
2.659000000000000000e+03 1.480675029754638672e+01 -1.452046585083007812e+01 -9.620095789432525635e-02 4.608030617237091064e-02 -1.503619458526372910e-02 -1.143680140376091003e-01
2.660000000000000000e+03 6.074452209472656250e+01 2.069693374633789062e+01 8.478096127510070801e-01 4.772766113281250000e+00 1.686172723770141602e+00 2.294886857271194458e-01
2.661000000000000000e+03 1.136693572998046875e+01 1.781128692626953125e+01 -1.049804091453552246e-01 1.649117283523082733e-02 -2.654677070677280426e-02 8.920156210660934448e-02
2.662000000000000000e+03 8.667953491210937500e+00 -1.619410896301269531e+01 -3.954481333494186401e-02 -3.446279838681221008e-02 -2.220228500664234161e-02 -1.010754778981208801e-01
2.663000000000000000e+03 6.495849609375000000e+01 2.385163497924804688e+01 8.644314110279083252e-02 5.935475349426269531e+00 1.806575536727905273e+00 -8.110018819570541382e-02
2.664000000000000000e+03 9.972275733947753906e+00 1.262760925292968750e+01 -5.023541860282421112e-03 2.095202915370464325e-02 4.778546281158924103e-03 1.909404434263706207e-02
2.665000000000000000e+03 1.061596488952636719e+01 2.559755706787109375e+01 -3.813694417476654053e-02 -9.702159464359283447e-02 -4.054756090044975281e-02 1.862951219081878662e-01
2.666000000000000000e+03 1.198940563201904297e+01 2.318474960327148438e+01 -9.018956869840621948e-02 -4.149326682090759277e-02 -3.950484842061996460e-02 1.901920884847640991e-01
2.667000000000000000e+03 8.498241424560546875e+00 -1.873248481750488281e+01 -2.338604629039764404e-02 -5.112433061003684998e-02 -2.235311269760131836e-02 -1.092605590820312500e-01
2.668000000000000000e+03 5.977720260620117188e+01 -2.506943702697753906e+01 -6.863197088241577148e-01 5.428386688232421875e+00 1.422620177268981934e+00 -9.173838049173355103e-02
2.669000000000000000e+03 6.144836425781250000e+01 -2.534312438964843750e+01 -4.763302206993103027e-01 5.117024898529052734e+00 1.392208456993103027e+00 -5.393413901329040527e-01
2.670000000000000000e+03 6.315409469604492188e+01 1.851424407958984375e+01 1.029633283615112305e+00 5.108011245727539062e+00 1.841293334960937500e+00 -7.778048515319824219e-01
2.671000000000000000e+03 5.215202713012695312e+01 2.284796905517578125e+01 -3.992645442485809326e-01 4.781686305999755859e+00 1.314726591110229492e+00 -6.442812681198120117e-01
2.672000000000000000e+03 6.638708496093750000e+01 -2.412137603759765625e+01 2.494879812002182007e-01 4.946836471557617188e+00 1.558897376060485840e+00 -5.314801931381225586e-01
2.673000000000000000e+03 6.786497497558593750e+01 -2.590092277526855469e+01 2.538048326969146729e-01 5.313796997070312500e+00 1.670280575752258301e+00 -1.645365804433822632e-01
2.674000000000000000e+03 3.817560195922851562e+01 2.336386299133300781e+01 9.101665019989013672e-02 4.774858951568603516e-01 1.705507636070251465e-01 -1.231719404458999634e-01
2.675000000000000000e+03 9.994244575500488281e+00 2.269893646240234375e+01 -7.071115076541900635e-02 -6.016351282596588135e-02 -3.926239907741546631e-02 1.518055349588394165e-01
2.676000000000000000e+03 9.604822158813476562e+00 2.156204032897949219e+01 -7.564468681812286377e-02 -4.259563609957695007e-02 -3.547209501266479492e-02 1.277940720319747925e-01
2.677000000000000000e+03 1.371467494964599609e+01 -1.680782508850097656e+01 -7.599895447492599487e-02 2.392672561109066010e-02 -1.562166959047317505e-02 -1.312290877103805542e-01
2.678000000000000000e+03 5.537765884399414062e+01 1.696975517272949219e+01 8.836255967617034912e-02 6.931087493896484375e+00 2.105834960937500000e+00 1.957517623901367188e+00
2.679000000000000000e+03 9.495064735412597656e+00 -1.296083354949951172e+01 -5.558201670646667480e-02 -7.422621361911296844e-03 -1.890139095485210419e-02 -8.113244175910949707e-02
2.680000000000000000e+03 1.029581737518310547e+01 -1.139718055725097656e+01 -7.170554250478744507e-02 3.187433350831270218e-03 -2.055543288588523865e-02 -5.395474657416343689e-02
2.681000000000000000e+03 1.542526817321777344e+01 -1.710370254516601562e+01 -8.294351398944854736e-02 4.763508960604667664e-02 -1.059252768754959106e-02 -1.369772553443908691e-01
2.682000000000000000e+03 1.706764411926269531e+01 -1.734001922607421875e+01 -9.566503018140792847e-02 5.726239085197448730e-02 -1.152079179883003235e-02 -1.392649263143539429e-01
2.683000000000000000e+03 3.903717422485351562e+01 2.517010307312011719e+01 2.305437028408050537e-01 7.940351366996765137e-01 3.073736429214477539e-01 -2.731309533119201660e-01
2.684000000000000000e+03 3.674880599975585938e+01 2.332378578186035156e+01 1.304372847080230713e-01 3.831689953804016113e-01 1.540818810462951660e-01 -8.129876852035522461e-02
2.685000000000000000e+03 6.633135223388671875e+01 -2.574532890319824219e+01 1.244265139102935791e-01 5.151062488555908203e+00 1.582646608352661133e+00 -3.718106448650360107e-01
2.686000000000000000e+03 1.215218830108642578e+01 2.064389419555664062e+01 -1.216726899147033691e-01 9.097742149606347084e-04 -3.622887656092643738e-02 1.514031738042831421e-01
2.687000000000000000e+03 1.077653980255126953e+01 2.097519683837890625e+01 -9.414779394865036011e-02 -2.395257912576198578e-02 -3.543011099100112915e-02 1.350758373737335205e-01
2.688000000000000000e+03 1.160957908630371094e+01 -1.990882492065429688e+01 -3.087133541703224182e-02 -1.552825886756181717e-02 -1.391987781971693039e-02 -1.389141529798507690e-01
2.689000000000000000e+03 1.188181018829345703e+01 -1.825037574768066406e+01 -4.846701398491859436e-02 -7.466881070286035538e-03 -1.678016781806945801e-02 -1.349154710769653320e-01
2.690000000000000000e+03 5.919652175903320312e+01 -2.656644630432128906e+01 -6.681981682777404785e-01 4.846147537231445312e+00 1.253384828567504883e+00 -4.653210565447807312e-02
2.691000000000000000e+03 3.671482086181640625e+01 2.581328773498535156e+01 2.154867947101593018e-01 5.149868130683898926e-01 2.191420793533325195e-01 -7.986826449632644653e-02
2.692000000000000000e+03 1.395502853393554688e+01 2.802731132507324219e+01 8.616710081696510315e-03 -1.098624020814895630e-01 -3.037370741367340088e-02 2.353184968233108521e-01
2.693000000000000000e+03 6.373435211181640625e+01 2.550675964355468750e+01 6.973806023597717285e-02 5.666332721710205078e+00 1.720821261405944824e+00 -2.905757352709770203e-02
2.694000000000000000e+03 2.228216171264648438e+01 -2.118512535095214844e+01 -7.236530631780624390e-02 1.613151580095291138e-01 2.668495662510395050e-02 -1.483001112937927246e-01
2.695000000000000000e+03 5.497502517700195312e+01 2.436796188354492188e+01 -2.527524530887603760e-01 4.995994567871093750e+00 1.422972559928894043e+00 -1.825882941484451294e-01
2.696000000000000000e+03 5.636835479736328125e+01 2.156929969787597656e+01 -3.489559888839721680e-02 5.389189243316650391e+00 1.606288075447082520e+00 3.895555138587951660e-01
2.697000000000000000e+03 1.065034008026123047e+01 -1.455675125122070312e+01 -5.860833823680877686e-02 -9.880868019536137581e-04 -1.787892729043960571e-02 -9.745916724205017090e-02
2.698000000000000000e+03 9.012297630310058594e+00 -9.874522209167480469e+00 -4.040258377790451050e-02 -1.738683669827878475e-03 -1.264237985014915466e-02 -4.139904677867889404e-02
2.699000000000000000e+03 6.500454711914062500e+01 -2.414754676818847656e+01 8.097703568637371063e-03 5.011427879333496094e+00 1.505857706069946289e+00 -6.973054409027099609e-01
2.700000000000000000e+03 6.435807800292968750e+01 -2.683643150329589844e+01 -6.742104887962341309e-02 5.156883239746093750e+00 1.526838660240173340e+00 -4.034920930862426758e-01
2.701000000000000000e+03 6.129354095458984375e+01 2.226021575927734375e+01 5.952917933464050293e-01 5.070095539093017578e+00 1.699616193771362305e+00 2.982245292514562607e-03
2.702000000000000000e+03 6.190303039550781250e+01 1.961997222900390625e+01 1.256709575653076172e+00 4.660665035247802734e+00 1.775212407112121582e+00 -3.309458494186401367e-01
2.703000000000000000e+03 1.335443973541259766e+01 2.368172073364257812e+01 -1.092304587364196777e-01 -3.682150691747665405e-02 -4.381559044122695923e-02 2.250411212444305420e-01
2.704000000000000000e+03 1.369568061828613281e+01 2.219263839721679688e+01 -1.323147416114807129e-01 -1.047162711620330811e-02 -4.283590987324714661e-02 2.022248655557632446e-01
2.705000000000000000e+03 1.363295936584472656e+01 -1.862433242797851562e+01 -5.182719603180885315e-02 1.993881724774837494e-02 -9.566513821482658386e-03 -1.446805596351623535e-01
2.706000000000000000e+03 2.257411575317382812e+01 -1.965963554382324219e+01 -9.044005721807479858e-02 1.719061285257339478e-01 2.443982288241386414e-02 -1.285584270954132080e-01
2.707000000000000000e+03 6.776573181152343750e+01 2.272529411315917969e+01 -3.215029835700988770e-02 6.338910102844238281e+00 1.892027854919433594e+00 7.575198262929916382e-02
2.708000000000000000e+03 6.569541168212890625e+01 2.543986701965332031e+01 -5.637364834547042847e-02 5.901084899902343750e+00 1.753413438796997070e+00 8.835947513580322266e-02
2.709000000000000000e+03 6.951157379150390625e+01 2.303819847106933594e+01 3.172230720520019531e-02 6.351625442504882812e+00 1.915004372596740723e+00 2.498204857110977173e-01
2.710000000000000000e+03 3.360828399658203125e+01 2.413602256774902344e+01 4.792102426290512085e-02 2.229265272617340088e-01 8.125426620244979858e-02 1.220536008477210999e-01
2.711000000000000000e+03 1.288069248199462891e+01 -1.374749374389648438e+01 -7.520161569118499756e-02 2.519900351762771606e-02 -1.500078290700912476e-02 -1.006382778286933899e-01
2.712000000000000000e+03 1.719526481628417969e+01 2.791324424743652344e+01 3.670909628272056580e-02 -9.843270480632781982e-02 -1.851708255708217621e-02 2.722887992858886719e-01
2.713000000000000000e+03 1.543914699554443359e+01 -1.895741462707519531e+01 -6.342856585979461670e-02 3.979812934994697571e-02 -7.089131511747837067e-03 -1.519417911767959595e-01
2.714000000000000000e+03 1.761862945556640625e+01 -2.127160263061523438e+01 -3.573200479149818420e-02 6.988811492919921875e-02 1.024683378636837006e-02 -1.631489247083663940e-01
2.715000000000000000e+03 1.348375797271728516e+01 -2.038121414184570312e+01 -3.505323454737663269e-02 3.261179197579622269e-03 -9.537616744637489319e-03 -1.543759107589721680e-01
2.716000000000000000e+03 1.513417625427246094e+01 -2.283298492431640625e+01 -1.264252327382564545e-02 2.081486210227012634e-02 2.451701555401086807e-03 -1.673338860273361206e-01
2.717000000000000000e+03 1.259014511108398438e+01 -2.363888549804687500e+01 -5.673944018781185150e-03 -2.402513287961483002e-02 -8.909722790122032166e-03 -1.605074703693389893e-01
2.718000000000000000e+03 4.120641708374023438e+01 2.380475616455078125e+01 1.926559954881668091e-01 9.780923724174499512e-01 3.512245118618011475e-01 -3.960510492324829102e-01
2.719000000000000000e+03 4.219386672973632812e+01 2.215883255004882812e+01 1.047948375344276428e-01 1.037549257278442383e+00 3.427032232284545898e-01 -4.751963913440704346e-01
2.720000000000000000e+03 7.635379791259765625e+01 3.307857894897460938e+01 -2.874409779906272888e-02 6.339704990386962891e+00 1.893288373947143555e+00 1.435885280370712280e-01
2.721000000000000000e+03 2.723217391967773438e+01 2.042855644226074219e+01 -4.694333970546722412e-01 -2.409117110073566437e-02 -1.480573713779449463e-01 2.688012123107910156e-01
2.722000000000000000e+03 4.110431671142578125e+01 -2.295706558227539062e+01 -5.578795075416564941e-01 1.994387507438659668e+00 4.309523999691009521e-01 2.598990201950073242e-01
2.723000000000000000e+03 2.741050148010253906e+01 -1.835248565673828125e+01 -1.936760097742080688e-01 2.597954273223876953e-01 1.983582228422164917e-02 -4.400601238012313843e-02
2.724000000000000000e+03 2.420290374755859375e+01 2.240864562988281250e+01 -1.939244121313095093e-01 -1.189944297075271606e-01 -9.387565404176712036e-02 3.066636025905609131e-01
2.725000000000000000e+03 4.595531463623046875e+01 -2.192069435119628906e+01 -7.180959582328796387e-01 1.931905269622802734e+00 3.641428053379058838e-01 -4.223263561725616455e-01
2.726000000000000000e+03 3.091729164123535156e+01 -2.156819725036621094e+01 -1.002614125609397888e-01 3.783616721630096436e-01 8.343008160591125488e-02 -2.384940721094608307e-02
2.727000000000000000e+03 7.464566040039062500e+01 3.106536102294921875e+01 -5.804593861103057861e-02 6.239043235778808594e+00 1.854299187660217285e+00 2.360880225896835327e-01
2.728000000000000000e+03 6.216153335571289062e+01 2.419168281555175781e+01 1.951313316822052002e-01 5.451710700988769531e+00 1.694052577018737793e+00 -4.587681498378515244e-03
2.729000000000000000e+03 5.242466735839843750e+01 2.587080764770507812e+01 -2.596468627452850342e-01 4.364266872406005859e+00 1.231386065483093262e+00 -5.382096767425537109e-01
2.730000000000000000e+03 4.281638145446777344e+00 -3.705259704589843750e+01 2.095639705657958984e-02 -3.439039587974548340e-01 -9.688427299261093140e-02 -3.913244977593421936e-02
2.731000000000000000e+03 2.030403709411621094e+01 2.742781829833984375e+01 5.364112928509712219e-02 -8.688050508499145508e-02 -9.971813298761844635e-03 2.913107872009277344e-01
2.732000000000000000e+03 1.381596469879150391e+01 3.118573760986328125e+01 8.190537989139556885e-02 -1.488773524761199951e-01 -2.009158954024314880e-02 2.075540423393249512e-01
2.733000000000000000e+03 1.747230339050292969e+01 -2.360652732849121094e+01 5.881358869373798370e-03 8.148160576820373535e-02 2.620888873934745789e-02 -1.581505835056304932e-01
2.734000000000000000e+03 1.332175922393798828e+01 -2.665222740173339844e+01 2.464990876615047455e-02 -2.015091106295585632e-02 1.349699334241449833e-03 -1.552913784980773926e-01
2.735000000000000000e+03 7.234085845947265625e+01 -3.430591201782226562e+01 7.434437423944473267e-02 6.626296043395996094e+00 2.010192155838012695e+00 7.691939920186996460e-02
2.736000000000000000e+03 4.335388183593750000e+01 -3.031417083740234375e+01 4.365359246730804443e-02 1.718640923500061035e+00 5.286883711814880371e-01 -6.236973404884338379e-02
2.737000000000000000e+03 5.383223342895507812e+01 -2.733963775634765625e+01 -9.748156368732452393e-02 3.098091602325439453e+00 9.001829624176025391e-01 4.918061792850494385e-01
2.738000000000000000e+03 5.147929382324218750e+01 -2.621367454528808594e+01 5.793249979615211487e-02 2.231606960296630859e+00 6.868618130683898926e-01 2.572492063045501709e-01
2.739000000000000000e+03 3.648114395141601562e+01 2.810916137695312500e+01 3.285420536994934082e-01 6.284319162368774414e-01 2.870921790599822998e-01 -1.193608418107032776e-01
2.740000000000000000e+03 4.543225479125976562e+01 2.959181404113769531e+01 1.863536685705184937e-01 2.336314916610717773e+00 7.568005323410034180e-01 -5.470981597900390625e-01
2.741000000000000000e+03 6.339820480346679688e+01 2.800762557983398438e+01 -1.050704568624496460e-01 5.568936347961425781e+00 1.639159798622131348e+00 4.082315415143966675e-02
2.742000000000000000e+03 3.958848571777343750e+01 2.772037696838378906e+01 2.969016730785369873e-01 1.038049459457397461e+00 4.004853665828704834e-01 -2.827093303203582764e-01
2.743000000000000000e+03 4.348515319824218750e+01 -2.833726119995117188e+01 -1.125506311655044556e-01 1.784564971923828125e+00 5.016043186187744141e-01 -8.419741690158843994e-02
2.744000000000000000e+03 4.184098052978515625e+01 -2.914011001586914062e+01 -7.399826496839523315e-02 1.601518630981445312e+00 4.582561254501342773e-01 -2.405272051692008972e-02
2.745000000000000000e+03 6.554824066162109375e+01 -2.939974784851074219e+01 7.157535757869482040e-03 5.271604061126708984e+00 1.583628535270690918e+00 -1.745487153530120850e-01
2.746000000000000000e+03 2.667141532897949219e+01 2.398506546020507812e+01 -9.475438296794891357e-02 -6.185707822442054749e-02 -4.698343947529792786e-02 2.656595110893249512e-01
2.747000000000000000e+03 7.325488281250000000e+01 2.890778160095214844e+01 -1.136028319597244263e-01 6.177635192871093750e+00 1.819209694862365723e+00 2.897115945816040039e-01
2.748000000000000000e+03 7.455798339843750000e+01 2.956499862670898438e+01 -8.208638429641723633e-02 6.227593421936035156e+00 1.843652129173278809e+00 2.519989907741546631e-01
2.749000000000000000e+03 2.537375831604003906e+01 2.551847648620605469e+01 1.139082666486501694e-02 -6.292550265789031982e-02 -1.546040363609790802e-02 2.846598625183105469e-01
2.750000000000000000e+03 7.531893920898437500e+01 3.237657165527343750e+01 -7.831662893295288086e-02 6.274827480316162109e+00 1.858953237533569336e+00 1.946762800216674805e-01
2.751000000000000000e+03 2.632396697998046875e+01 -2.179701805114746094e+01 -7.644297182559967041e-02 2.668969333171844482e-01 5.713619291782379150e-02 -1.180433779954910278e-01
2.752000000000000000e+03 7.581417846679687500e+01 3.435092544555664062e+01 -5.651001632213592529e-02 6.329560756683349609e+00 1.881915211677551270e+00 1.549496054649353027e-01
2.753000000000000000e+03 2.868287277221679688e+01 -1.890554618835449219e+01 -2.275614142417907715e-01 2.612690031528472900e-01 1.011227350682020187e-02 -5.724108219146728516e-02
2.754000000000000000e+03 2.118768882751464844e+01 -2.270933151245117188e+01 -3.127594944089651108e-03 1.500681936740875244e-01 4.408217966556549072e-02 -1.485740095376968384e-01
2.755000000000000000e+03 4.273935317993164062e+01 3.005414772033691406e+01 2.655406892299652100e-01 1.748694539070129395e+00 6.042705774307250977e-01 -4.178802371025085449e-01
2.756000000000000000e+03 2.788315773010253906e+01 2.774530220031738281e+01 1.807184070348739624e-01 4.706246405839920044e-02 6.833425909280776978e-02 2.170793116092681885e-01
2.757000000000000000e+03 2.729555702209472656e+01 -2.374994850158691406e+01 2.264565229415893555e-02 3.268516361713409424e-01 1.048491820693016052e-01 -8.953428268432617188e-02
2.758000000000000000e+03 1.820756721496582031e+01 -2.937746429443359375e+01 8.016872406005859375e-02 9.680295735597610474e-02 5.309150367975234985e-02 -1.480388492345809937e-01
2.759000000000000000e+03 6.194292449951171875e+01 -2.712776565551757812e+01 -3.360286951065063477e-01 5.122899055480957031e+00 1.436061143875122070e+00 -2.876158356666564941e-01
2.760000000000000000e+03 6.762165069580078125e+01 -2.984363746643066406e+01 1.256973296403884888e-01 5.627576828002929688e+00 1.725982308387756348e+00 -2.709265053272247314e-02
2.761000000000000000e+03 3.104245948791503906e+01 2.351283645629882812e+01 -8.608403801918029785e-02 6.386341899633407593e-02 -6.666185799986124039e-03 2.389958053827285767e-01
2.762000000000000000e+03 1.965552520751953125e+01 -2.089982032775878906e+01 -6.090213358402252197e-02 1.130896210670471191e-01 1.565624587237834930e-02 -1.607060134410858154e-01
2.763000000000000000e+03 1.728281021118164062e+01 -1.911435699462890625e+01 -7.393137365579605103e-02 7.181800156831741333e-02 -6.340119871310889721e-04 -1.492290049791336060e-01
2.764000000000000000e+03 6.292034912109375000e+01 -2.582318115234375000e+01 -2.165320068597793579e-01 5.196827411651611328e+00 1.494088530540466309e+00 -4.995302259922027588e-01
2.765000000000000000e+03 6.970931243896484375e+01 3.156554031372070312e+01 -1.786280572414398193e-01 6.027775764465332031e+00 1.754744410514831543e+00 2.112327367067337036e-01
2.766000000000000000e+03 6.311943435668945312e+01 -2.307392311096191406e+01 -3.189135193824768066e-01 5.196470737457275391e+00 1.463267207145690918e+00 -9.926255345344543457e-01
2.767000000000000000e+03 7.247092437744140625e+01 2.726493644714355469e+01 -7.799893617630004883e-02 6.236209869384765625e+00 1.847463250160217285e+00 3.054209947586059570e-01
2.768000000000000000e+03 6.378245925903320312e+01 -2.460475349426269531e+01 -1.337033510208129883e-01 5.196519374847412109e+00 1.518844842910766602e+00 -6.850933432579040527e-01
2.769000000000000000e+03 2.621859359741210938e+01 2.656889677047729492e+00 -9.186565279960632324e-01 -1.259965598583221436e-01 -3.133959174156188965e-01 -2.987930774688720703e-01
2.770000000000000000e+03 3.572934341430664062e+01 9.380891799926757812e+00 1.513651804998517036e-03 7.457512430846691132e-03 2.691349247470498085e-03 6.817677523940801620e-03
2.771000000000000000e+03 4.998011398315429688e+01 9.170617103576660156e+00 6.878927350044250488e-01 3.043239116668701172e+00 1.119339585304260254e+00 2.096037387847900391e+00
2.772000000000000000e+03 5.035643768310546875e+01 9.786347389221191406e+00 1.887524247169494629e+00 2.813644647598266602e+00 1.410350680351257324e+00 2.671361207962036133e+00
2.773000000000000000e+03 5.071029663085937500e+01 9.790367126464843750e+00 2.009194612503051758e+00 4.602261543273925781e+00 1.983436942100524902e+00 3.796477794647216797e+00
2.774000000000000000e+03 4.933967971801757812e+01 7.773359298706054688e+00 3.835694193840026855e-01 3.235299348831176758e+00 1.085660696029663086e+00 1.229740262031555176e+00
2.775000000000000000e+03 5.150624084472656250e+01 9.634263038635253906e+00 7.709026932716369629e-01 1.244022178649902344e+01 3.963337421417236328e+00 5.852048397064208984e+00
2.776000000000000000e+03 5.169979858398437500e+01 9.237109184265136719e+00 -6.196616888046264648e-01 1.408111858367919922e+01 4.038436889648437500e+00 4.832480430603027344e+00
2.777000000000000000e+03 5.191821670532226562e+01 9.217988967895507812e+00 -1.073189139366149902e+00 1.556263637542724609e+01 4.346834182739257812e+00 4.328772068023681641e+00
2.778000000000000000e+03 5.192404174804687500e+01 9.607354164123535156e+00 -4.126653671264648438e-01 1.661036109924316406e+01 4.859308719635009766e+00 5.484838485717773438e+00
2.779000000000000000e+03 5.291429138183593750e+01 9.316785812377929688e+00 -1.650603532791137695e+00 1.947519302368164062e+01 5.347376823425292969e+00 8.535144329071044922e-01
2.780000000000000000e+03 5.359999465942382812e+01 9.318970680236816406e+00 -9.596245884895324707e-01 1.735882759094238281e+01 4.919761180877685547e+00 -4.677035510540008545e-01
2.781000000000000000e+03 5.405987548828125000e+01 1.029897880554199219e+01 4.059813499450683594e+00 1.449869918823242188e+01 5.567553520202636719e+00 -7.761731743812561035e-01
2.782000000000000000e+03 5.414269256591796875e+01 1.056218433380126953e+01 5.190814971923828125e+00 1.341596221923828125e+01 5.582033157348632812e+00 -1.044352576136589050e-01
2.783000000000000000e+03 5.427679824829101562e+01 1.137731170654296875e+01 7.091973781585693359e+00 1.171099090576171875e+01 5.640889167785644531e+00 2.430158615112304688e+00
2.784000000000000000e+03 5.326899337768554688e+01 1.280716133117675781e+01 1.915234923362731934e+00 1.776252746582031250e+01 5.903328895568847656e+00 2.962377309799194336e+00
2.785000000000000000e+03 5.283195877075195312e+01 1.328968906402587891e+01 -8.669884502887725830e-02 1.682048797607421875e+01 5.020136356353759766e+00 2.291544713079929352e-02
2.786000000000000000e+03 5.260285949707031250e+01 1.343899631500244141e+01 -3.388995528221130371e-01 1.600078582763671875e+01 4.698565959930419922e+00 -1.116862177848815918e+00
2.787000000000000000e+03 5.233145141601562500e+01 1.351644992828369141e+01 -3.818753063678741455e-01 1.500279235839843750e+01 4.386274814605712891e+00 -2.292027235031127930e+00
2.788000000000000000e+03 5.131520462036132812e+01 1.304497528076171875e+01 1.642203807830810547e+00 9.636521339416503906e+00 3.383617639541625977e+00 -5.725565910339355469e+00
2.789000000000000000e+03 5.056568908691406250e+01 1.297369766235351562e+01 1.104738235473632812e+00 4.515718936920166016e+00 1.686137080192565918e+00 -3.502346992492675781e+00
2.790000000000000000e+03 5.043031692504882812e+01 1.302702331542968750e+01 1.711275458335876465e+00 4.652996540069580078e+00 1.909281611442565918e+00 -2.913700819015502930e+00
2.791000000000000000e+03 6.578287601470947266e+00 -3.105375766754150391e+00 -7.123444811441004276e-04 -1.430231612175703049e-03 -6.427728221751749516e-04 -2.070340560749173164e-03
2.792000000000000000e+03 3.665682220458984375e+01 1.327220344543457031e+01 -8.155756592750549316e-01 -3.191720545291900635e-01 -3.404243290424346924e-01 5.538498759269714355e-01
2.793000000000000000e+03 1.931083297729492188e+01 2.518333673477172852e+00 2.517927065491676331e-02 4.461421631276607513e-03 8.892207406461238861e-03 1.620840281248092651e-03
2.794000000000000000e+03 1.572125625610351562e+01 -3.354230642318725586e+00 -2.296416647732257843e-02 4.885703325271606445e-03 -5.423538852483034134e-03 1.022529508918523788e-02
2.795000000000000000e+03 5.117885589599609375e+01 1.597619438171386719e+01 -2.776235714554786682e-02 8.098436355590820312e+00 2.421202182769775391e+00 -1.773867130279541016e+00
2.796000000000000000e+03 2.019408607482910156e+01 7.539120316505432129e-01 3.409455716609954834e-02 2.651917003095149994e-02 1.818411797285079956e-02 3.874132875353097916e-03
2.797000000000000000e+03 2.065784454345703125e+01 1.342735767364501953e+00 -6.557004991918802261e-03 1.209138985723257065e-02 1.660315436311066151e-03 1.359214447438716888e-02
2.798000000000000000e+03 7.686017608642578125e+01 3.341763019561767578e+00 -1.106319189071655273e+00 1.038395881652832031e+01 2.783291816711425781e+00 -2.324525833129882812e+00
2.799000000000000000e+03 7.666976928710937500e+01 8.600579261779785156e+00 6.755012869834899902e-01 1.054851055145263672e+01 3.367203474044799805e+00 3.537275269627571106e-02
2.800000000000000000e+03 1.874091339111328125e+01 2.664792537689208984e+00 4.162180237472057343e-03 1.413620891980826855e-03 1.672740327194333076e-03 -2.004275331273674965e-03
2.801000000000000000e+03 5.175265121459960938e+01 1.387576580047607422e+01 6.354454755783081055e-01 1.139959526062011719e+01 3.610512256622314453e+00 -3.642490863800048828e+00
2.802000000000000000e+03 5.202613830566406250e+01 8.893227577209472656e+00 -1.736098170280456543e+00 1.579276084899902344e+01 4.216999053955078125e+00 3.488209009170532227e+00
2.803000000000000000e+03 5.249417495727539062e+01 8.826827049255371094e+00 -2.347244977951049805e+00 1.764429283142089844e+01 4.589114189147949219e+00 2.373561620712280273e+00
2.804000000000000000e+03 5.157036209106445312e+01 8.963867187500000000e+00 -7.061540484428405762e-01 1.296278381347656250e+01 3.676989078521728516e+00 4.355287075042724609e+00
2.805000000000000000e+03 5.405475234985351562e+01 9.302608489990234375e+00 -6.195850372314453125e-01 1.514511775970458984e+01 4.357659816741943359e+00 -5.498289465904235840e-01
2.806000000000000000e+03 5.349562454223632812e+01 1.270570087432861328e+01 2.884883403778076172e+00 1.665958786010742188e+01 5.863341808319091797e+00 3.818895578384399414e+00
2.807000000000000000e+03 5.392021942138671875e+01 1.279359817504882812e+01 3.182503223419189453e+00 1.421753025054931641e+01 5.220009803771972656e+00 4.323977947235107422e+00
2.808000000000000000e+03 5.405018997192382812e+01 1.339052391052246094e+01 1.670077919960021973e+00 1.290956306457519531e+01 4.373892307281494141e+00 3.723253250122070312e+00
2.809000000000000000e+03 6.829597473144531250e+00 8.904420852661132812e+00 3.888821229338645935e-02 -4.007717221975326538e-02 -3.566875529941171408e-04 4.331829026341438293e-02
2.810000000000000000e+03 5.437264251708984375e+01 9.896819114685058594e+00 1.649587154388427734e+00 1.319678783416748047e+01 4.453912258148193359e+00 -6.532078981399536133e-01
2.811000000000000000e+03 5.405587768554687500e+01 1.259303188323974609e+01 4.093255519866943359e+00 1.360684204101562500e+01 5.310029029846191406e+00 4.614776134490966797e+00
2.812000000000000000e+03 2.710789489746093750e+01 1.266864776611328125e+01 -1.211149990558624268e-01 -9.947025775909423828e-02 -6.617557257413864136e-02 -8.382815122604370117e-02
2.813000000000000000e+03 5.837559127807617188e+01 -2.232649803161621094e+01 -8.985236883163452148e-01 5.924372673034667969e+00 1.507754683494567871e+00 1.305035352706909180e-01
2.814000000000000000e+03 2.956990242004394531e+01 1.161550760269165039e+00 3.674645423889160156e-01 4.856292307376861572e-01 2.559281289577484131e-01 -1.862145066261291504e-01
2.815000000000000000e+03 2.945151519775390625e+01 2.162697315216064453e+00 -2.833532094955444336e-01 2.017398476600646973e-01 -2.448401041328907013e-02 -1.737395226955413818e-01
2.816000000000000000e+03 3.437922668457031250e+01 1.524245023727416992e+00 1.891629397869110107e-01 6.342705339193344116e-03 5.865169316530227661e-02 1.958920210599899292e-01
2.817000000000000000e+03 2.478253936767578125e+01 -1.279375171661376953e+01 -2.768419086933135986e-01 1.125307604670524597e-01 -4.929334670305252075e-02 6.045074015855789185e-02
2.818000000000000000e+03 6.752052783966064453e+00 -3.598497009277343750e+01 2.564061991870403290e-02 -2.368523329496383667e-01 -6.336351484060287476e-02 -5.304016917943954468e-02
2.819000000000000000e+03 7.041920471191406250e+01 -1.158241152763366699e+00 -3.105516672134399414e+00 5.488151550292968750e+00 7.147904038429260254e-01 -3.682851791381835938e+00
2.820000000000000000e+03 5.136421203613281250e+01 3.614073181152343750e+01 -3.848185390233993530e-02 3.599851131439208984e+00 1.068410754203796387e+00 -2.153222113847732544e-01
2.821000000000000000e+03 4.107618331909179688e+01 3.614127349853515625e+01 3.639039099216461182e-01 1.626024365425109863e+00 5.969784855842590332e-01 -1.655531078577041626e-01
2.822000000000000000e+03 3.086192512512207031e+01 3.592839050292968750e+01 4.609256982803344727e-01 3.774976730346679688e-01 2.515270113945007324e-01 4.868588596582412720e-02
2.823000000000000000e+03 5.171874618530273438e+01 -1.384050607681274414e+00 -1.928115010261535645e+00 5.513968944549560547e+00 1.075756192207336426e+00 -5.147373080253601074e-01
2.824000000000000000e+03 1.260920238494873047e+01 -4.774913787841796875e+00 -3.849011659622192383e-02 3.161062719300389290e-03 -1.059871632605791092e-02 -6.369933951646089554e-03
2.825000000000000000e+03 5.492987060546875000e+01 1.214692020416259766e+01 4.709542274475097656e+00 9.097345352172851562e+00 4.142066001892089844e+00 3.927444219589233398e+00
2.826000000000000000e+03 4.125130844116210938e+01 -1.037766933441162109e+01 -1.045130133628845215e+00 3.635793924331665039e+00 7.771991491317749023e-01 1.246890425682067871e+00
2.827000000000000000e+03 7.770268249511718750e+01 -3.694272232055664062e+01 1.060246210545301437e-02 7.704587459564208984e+00 2.314557075500488281e+00 6.381823122501373291e-02
2.828000000000000000e+03 7.398731994628906250e+01 -6.256672739982604980e-01 -1.121648311614990234e+00 1.974451065063476562e+00 2.558408379554748535e-01 -4.246578812599182129e-01
2.829000000000000000e+03 2.256067085266113281e+01 7.541871070861816406e-01 -2.595891011878848076e-03 -4.467019811272621155e-02 -1.417982764542102814e-02 -2.258046530187129974e-02
2.830000000000000000e+03 5.459462738037109375e+01 1.079647541046142578e+01 5.150304317474365234e+00 1.065151691436767578e+01 4.740546226501464844e+00 1.055116772651672363e+00
2.831000000000000000e+03 5.499694824218750000e+01 1.049219131469726562e+01 3.328230381011962891e+00 9.033603668212890625e+00 3.708550214767456055e+00 6.380659341812133789e-01
2.832000000000000000e+03 5.228115081787109375e+01 8.593447685241699219e+00 -2.135426998138427734e+00 1.606039428710937500e+01 4.177490234375000000e+00 2.493463993072509766e+00
2.833000000000000000e+03 5.260984802246093750e+01 8.469533920288085938e+00 -2.482360363006591797e+00 1.677607727050781250e+01 4.288115501403808594e+00 1.607939004898071289e+00
2.834000000000000000e+03 2.564981079101562500e+01 -1.231335067749023438e+01 -3.354072868824005127e-01 1.206708997488021851e-01 -6.442092359066009521e-02 1.027080267667770386e-01
2.835000000000000000e+03 3.355747699737548828e+00 5.391632080078125000e+00 -8.715438656508922577e-03 -4.087316337972879410e-03 -3.840826684609055519e-03 1.580823399126529694e-02
2.836000000000000000e+03 2.061282157897949219e+00 3.570519256591796875e+01 9.346303530037403107e-03 -3.860603868961334229e-01 -1.130142286419868469e-01 2.712870948016643524e-02
2.837000000000000000e+03 2.829213714599609375e+01 1.255948638916015625e+01 -2.187747359275817871e-01 -1.279872804880142212e-01 -1.040286049246788025e-01 -8.326784521341323853e-02
2.838000000000000000e+03 7.755942535400390625e+01 3.813560724258422852e+00 -4.094101488590240479e-01 1.086060428619384766e+01 3.135358333587646484e+00 -3.284737110137939453e+00
2.839000000000000000e+03 7.787390136718750000e+01 4.745580673217773438e+00 5.783799290657043457e-01 1.031783676147460938e+01 3.268864870071411133e+00 -2.425616741180419922e+00
2.840000000000000000e+03 4.886456298828125000e+01 2.028032302856445312e+01 -1.468150061555206776e-03 3.332895040512084961e+00 9.994280934333801270e-01 -1.594186067581176758e+00
2.841000000000000000e+03 3.769422912597656250e+01 -2.425910377502441406e+01 -2.361835539340972900e-01 1.348646044731140137e+00 3.337387442588806152e-01 3.387756049633026123e-01
2.842000000000000000e+03 5.714970016479492188e+01 -2.584022712707519531e+01 -7.894306182861328125e-01 4.487550258636474609e+00 1.109435796737670898e+00 3.458791077136993408e-01
2.843000000000000000e+03 5.111406326293945312e+01 4.969598293304443359e+00 2.447316408157348633e+00 8.997325897216796875e+00 3.433392524719238281e+00 5.416944026947021484e-01
2.844000000000000000e+03 4.887012100219726562e+01 -3.172013282775878906e+01 1.738314479589462280e-01 2.267262935638427734e+00 7.323282957077026367e-01 7.708197832107543945e-02
2.845000000000000000e+03 4.275838088989257812e+01 -8.917560577392578125e+00 -6.347014307975769043e-01 4.800850391387939453e+00 1.249844670295715332e+00 1.460226774215698242e+00
2.846000000000000000e+03 5.432533645629882812e+01 9.533876419067382812e+00 5.421958565711975098e-01 1.366814994812011719e+01 4.263103961944580078e+00 -6.576014757156372070e-01
2.847000000000000000e+03 6.604844665527343750e+01 -1.616664695739746094e+01 -1.075236558914184570e+00 3.310409784317016602e+00 6.705519556999206543e-01 -1.442520737648010254e+00
2.848000000000000000e+03 6.579058074951171875e+01 -1.710132598876953125e+01 -2.104102820158004761e-01 3.632321596145629883e+00 1.026573419570922852e+00 -1.361204743385314941e+00
2.849000000000000000e+03 7.574293518066406250e+01 -1.664323425292968750e+01 -3.109369874000549316e-01 8.912424087524414062e+00 2.580446243286132812e+00 -5.445529818534851074e-01
2.850000000000000000e+03 7.667544555664062500e+01 -1.809597969055175781e+01 -4.884233772754669189e-01 8.520871162414550781e+00 2.409734249114990234e+00 -4.029434323310852051e-01
2.851000000000000000e+03 3.786714172363281250e+01 -2.601738929748535156e+01 -7.360092550516128540e-02 1.282542586326599121e+00 3.626824915409088135e-01 2.048830986022949219e-01
2.852000000000000000e+03 5.309373092651367188e+01 1.354662609100341797e+01 -1.085802689194679260e-01 1.554029273986816406e+01 4.629513740539550781e+00 1.060692429542541504e+00
2.853000000000000000e+03 5.140810775756835938e+01 8.442256927490234375e+00 -9.711832404136657715e-01 1.151116561889648438e+01 3.161994934082031250e+00 3.344028711318969727e+00
2.854000000000000000e+03 5.201493453979492188e+01 8.242903709411621094e+00 -1.931986331939697266e+00 1.468025970458984375e+01 3.824481964111328125e+00 2.546317338943481445e+00
2.855000000000000000e+03 2.286754608154296875e+01 3.240565490722656250e+01 2.568207979202270508e-01 -3.298937901854515076e-02 6.714942306280136108e-02 2.083690166473388672e-01
2.856000000000000000e+03 4.406797409057617188e+00 -3.031608390808105469e+01 6.303991191089153290e-03 -2.610241770744323730e-01 -7.641606032848358154e-02 -6.722540408372879028e-02
2.857000000000000000e+03 5.442505645751953125e+01 1.270645618438720703e+01 3.649563074111938477e+00 1.170070075988769531e+01 4.605079174041748047e+00 4.516928672790527344e+00
2.858000000000000000e+03 7.619229888916015625e+01 2.940243721008300781e+01 -4.537205025553703308e-02 6.234154224395751953e+00 1.856634616851806641e+00 2.375186234712600708e-01
2.859000000000000000e+03 5.752936840057373047e+00 -7.285714149475097656e+00 -2.070522494614124298e-02 -9.086942300200462341e-03 -8.937650360167026520e-03 -1.974169164896011353e-02
2.860000000000000000e+03 4.721853637695312500e+01 2.204392814636230469e+01 1.526460796594619751e-01 2.408473253250122070e+00 7.683358192443847656e-01 -1.185617327690124512e+00
2.861000000000000000e+03 5.825051116943359375e+01 -2.934243965148925781e+01 -3.019108176231384277e-01 4.391173839569091797e+00 1.226778864860534668e+00 1.434663683176040649e-01
2.862000000000000000e+03 4.628285598754882812e+01 1.740842437744140625e+01 -1.541077718138694763e-02 7.678667902946472168e-01 2.257368117570877075e-01 -9.241518378257751465e-01
2.863000000000000000e+03 6.800836181640625000e+01 2.717356872558593750e+01 -1.515646129846572876e-01 6.029972076416015625e+00 1.763522267341613770e+00 1.829543560743331909e-01
2.864000000000000000e+03 7.668458557128906250e+01 -1.814520001411437988e+00 -6.187220215797424316e-01 8.019847869873046875e+00 2.220337867736816406e+00 1.175076007843017578e+00
2.865000000000000000e+03 3.917012405395507812e+01 -2.508803939819335938e+01 -2.641733288764953613e-01 1.460235118865966797e+00 3.588185310363769531e-01 1.655709147453308105e-01
2.866000000000000000e+03 7.693933105468750000e+01 -3.118886232376098633e+00 -1.889023929834365845e-01 8.712694168090820312e+00 2.557137489318847656e+00 1.290096879005432129e+00
2.867000000000000000e+03 5.114961624145507812e+01 7.645328521728515625e+00 -5.327214598655700684e-01 1.040928459167480469e+01 2.962968826293945312e+00 2.517701864242553711e+00
2.868000000000000000e+03 5.503674697875976562e+01 1.260524940490722656e+01 3.943328619003295898e+00 9.103891372680664062e+00 3.914165973663330078e+00 4.192800521850585938e+00
2.869000000000000000e+03 5.011082839965820312e+01 -2.791514396667480469e+01 7.985060662031173706e-02 2.285057067871093750e+00 7.094722986221313477e-01 1.243589669466018677e-01
2.870000000000000000e+03 4.994239044189453125e+01 -2.629486465454101562e+01 -5.627196282148361206e-02 2.061240673065185547e+00 6.014906167984008789e-01 9.716590493917465210e-02
2.871000000000000000e+03 5.876245117187500000e+01 1.493007278442382812e+01 1.957751393318176270e+00 2.326432466506958008e+00 1.285255193710327148e+00 2.196521043777465820e+00
2.872000000000000000e+03 5.782131576538085938e+01 -2.725431632995605469e+01 -3.698633611202239990e-01 4.404932498931884766e+00 1.210520744323730469e+00 3.237332105636596680e-01
2.873000000000000000e+03 4.330559253692626953e+00 6.436285018920898438e+00 -1.231259014457464218e-02 -6.897729821503162384e-03 -5.763096269220113754e-03 2.947926893830299377e-02
2.874000000000000000e+03 1.645478820800781250e+01 -9.176135063171386719e+00 -1.526015847921371460e-01 4.292105510830879211e-02 -3.290415927767753601e-02 -2.980085462331771851e-02
2.875000000000000000e+03 7.697912597656250000e+01 -4.441371917724609375e+00 -2.703409455716609955e-02 8.936402320861816406e+00 2.672810554504394531e+00 1.472266674041748047e+00
2.876000000000000000e+03 7.590605926513671875e+01 -3.274730443954467773e+00 -3.166906833648681641e-01 7.653625965118408203e+00 2.201080560684204102e+00 1.228078246116638184e+00
2.877000000000000000e+03 5.159427261352539062e+01 7.946313858032226562e+00 -1.034026503562927246e+00 1.224964618682861328e+01 3.364685773849487305e+00 2.485951900482177734e+00
2.878000000000000000e+03 6.054545974731445312e+01 -1.651050567626953125e+01 4.659316539764404297e-01 7.000759601593017578e+00 2.240007400512695312e+00 -1.020743608474731445e+00
2.879000000000000000e+03 5.537294387817382812e+01 1.367921447753906250e+01 2.048849582672119141e+00 8.137005805969238281e+00 3.055756568908691406e+00 4.123753547668457031e+00
2.880000000000000000e+03 5.440035247802734375e+01 1.319392395019531250e+01 2.379670143127441406e+00 1.174046993255615234e+01 4.236042022705078125e+00 4.191822052001953125e+00
2.881000000000000000e+03 5.273278808593750000e+01 8.029577255249023438e+00 -2.724263906478881836e+00 1.641615295410156250e+01 4.107566356658935547e+00 1.483972072601318359e+00
2.882000000000000000e+03 1.889111518859863281e+01 -9.158885955810546875e+00 -2.285522073507308960e-01 2.593421377241611481e-02 -6.078539788722991943e-02 2.403914229944348335e-03
2.883000000000000000e+03 1.794466590881347656e+01 -9.906674385070800781e+00 -1.595245152711868286e-01 4.801213368773460388e-02 -3.345371782779693604e-02 -2.728202007710933685e-02
2.884000000000000000e+03 4.755396652221679688e+01 -2.839165306091308594e+01 2.263997681438922882e-02 2.008437395095825195e+00 6.093232631683349609e-01 -3.956644609570503235e-02
2.885000000000000000e+03 5.302478408813476562e+01 1.435932731628417969e+01 -3.750153481960296631e-01 1.277199172973632812e+01 3.719092845916748047e+00 2.181260585784912109e-01
2.886000000000000000e+03 4.079614257812500000e+01 -2.744150733947753906e+01 -1.230803653597831726e-01 1.601392626762390137e+00 4.434936940670013428e-01 3.383595868945121765e-02
2.887000000000000000e+03 5.372771072387695312e+01 1.472432994842529297e+01 -2.131304889917373657e-01 1.115669441223144531e+01 3.283069133758544922e+00 1.884955048561096191e+00
2.888000000000000000e+03 4.380862236022949219e+00 -1.727976036071777344e+01 -1.590415462851524353e-02 -8.437860757112503052e-02 -3.008482977747917175e-02 -6.658513844013214111e-02
2.889000000000000000e+03 5.366750335693359375e+01 1.510425758361816406e+01 -3.028205931186676025e-01 1.061174011230468750e+01 3.092675924301147461e+00 1.304745197296142578e+00
2.890000000000000000e+03 4.889345550537109375e+01 2.204649162292480469e+01 -2.266673594713211060e-01 3.386265277862548828e+00 9.478793740272521973e-01 -1.163305044174194336e+00
2.891000000000000000e+03 4.066508102416992188e+01 -2.584572982788085938e+01 -2.877916395664215088e-01 1.710817575454711914e+00 4.269077777862548828e-01 9.526981413364410400e-02
2.892000000000000000e+03 9.950470924377441406e+00 -7.707268714904785156e+00 -3.671589493751525879e-02 6.134301889687776566e-03 -9.174478240311145782e-03 -1.748138852417469025e-02
2.893000000000000000e+03 4.229933929443359375e+01 -2.659584426879882812e+01 -2.504014372825622559e-01 1.774731516838073730e+00 4.572990238666534424e-01 -6.505215167999267578e-02
2.894000000000000000e+03 4.664129638671875000e+01 -3.004939270019531250e+01 7.293573766946792603e-02 1.988346576690673828e+00 6.183847188949584961e-01 -4.173246771097183228e-02
2.895000000000000000e+03 9.301377296447753906e+00 -3.743471860885620117e+00 -1.317526400089263916e-02 2.539234003052115440e-03 -3.190808929502964020e-03 -6.412609014660120010e-03
2.896000000000000000e+03 2.930596160888671875e+01 2.471259117126464844e+01 1.076970528811216354e-02 2.401731722056865692e-02 1.043610647320747375e-02 2.248467206954956055e-01
2.897000000000000000e+03 7.421505737304687500e+01 1.874472045898437500e+01 6.206133365631103516e-01 5.914453029632568359e+00 1.960519790649414062e+00 2.390770018100738525e-01
2.898000000000000000e+03 9.764611244201660156e+00 -5.598286151885986328e+00 -3.981344401836395264e-02 5.220137070864439011e-03 -1.037799194455146790e-02 -1.274182926863431931e-02
2.899000000000000000e+03 1.143027973175048828e+01 2.441921424865722656e+01 -6.678670644760131836e-02 -6.839883327484130859e-02 -4.055566340684890747e-02 1.979775279760360718e-01
2.900000000000000000e+03 1.709449195861816406e+01 -1.063520622253417969e+01 -1.796029210090637207e-01 3.733862563967704773e-02 -4.267928749322891235e-02 -3.985607624053955078e-02
2.901000000000000000e+03 7.379338836669921875e+01 -2.579468727111816406e+01 6.350851058959960938e-02 6.860309600830078125e+00 2.077145576477050781e+00 2.573899924755096436e-01
2.902000000000000000e+03 6.714527130126953125e+00 -1.730082511901855469e+01 -1.976834610104560852e-02 -5.813583359122276306e-02 -2.337125316262245178e-02 -9.240200370550155640e-02
2.903000000000000000e+03 5.447336959838867188e+01 1.494936656951904297e+01 1.670093238353729248e-01 9.598955154418945312e+00 2.929789304733276367e+00 2.620112180709838867e+00
2.904000000000000000e+03 2.976397514343261719e+01 -2.010156822204589844e+01 -1.442658007144927979e-01 3.301963806152343750e-01 5.577917769551277161e-02 -3.454386442899703979e-02
2.905000000000000000e+03 3.218869400024414062e+01 2.541719245910644531e+01 1.320973634719848633e-01 1.535593122243881226e-01 8.569700270891189575e-02 1.407752037048339844e-01
2.906000000000000000e+03 1.194591617584228516e+01 1.710217285156250000e+01 -1.085641086101531982e-01 3.255893662571907043e-02 -2.280155196785926819e-02 7.895340025424957275e-02
2.907000000000000000e+03 2.117072486877441406e+01 -2.001126480102539062e+01 -6.866294890642166138e-02 1.357189118862152100e-01 2.011679112911224365e-02 -1.342943161725997925e-01
2.908000000000000000e+03 4.105762863159179688e+01 2.141142845153808594e+01 1.769914105534553528e-02 8.103584051132202148e-01 2.484172731637954712e-01 -2.987376749515533447e-01
2.909000000000000000e+03 1.117892837524414062e+01 2.228090667724609375e+01 -9.231860935688018799e-02 -3.628901764750480652e-02 -3.858228772878646851e-02 1.663760989904403687e-01
2.910000000000000000e+03 5.500514984130859375e+01 1.305558204650878906e+01 3.017487287521362305e+00 9.399333000183105469e+00 3.725045919418334961e+00 4.303812503814697266e+00
2.911000000000000000e+03 5.548261642456054688e+01 1.607885932922363281e+01 4.613267183303833008e-01 7.110414028167724609e+00 2.271522283554077148e+00 2.632507562637329102e+00
2.912000000000000000e+03 2.752750968933105469e+01 -1.964781951904296875e+01 -1.622043251991271973e-01 2.719407081604003906e-01 3.292091563344001770e-02 -9.427578747272491455e-02
2.913000000000000000e+03 7.358471679687500000e+01 -2.746478271484375000e+01 1.398983746767044067e-01 6.813585281372070312e+00 2.086045026779174805e+00 2.762161791324615479e-01
2.914000000000000000e+03 5.950798034667968750e+01 2.291108894348144531e+01 3.198154270648956299e-01 5.141341209411621094e+00 1.638346910476684570e+00 2.200039774179458618e-01
2.915000000000000000e+03 1.006616497039794922e+01 1.977521705627441406e+01 -8.852283656597137451e-02 -1.669655181467533112e-02 -3.156581893563270569e-02 1.103476583957672119e-01
2.916000000000000000e+03 6.262667655944824219e+00 1.628741836547851562e+01 -2.552620507776737213e-02 -3.823895379900932312e-02 -1.912954635918140411e-02 3.681551665067672729e-02
2.917000000000000000e+03 7.261358737945556641e+00 -1.146557426452636719e+01 -2.781042829155921936e-02 -1.666489429771900177e-02 -1.334259752184152603e-02 -5.880767852067947388e-02
2.918000000000000000e+03 1.148255729675292969e+01 -2.144594383239746094e+01 -1.733129657804965973e-02 -3.480876237154006958e-02 -1.564201712608337402e-02 -1.492521464824676514e-01
2.919000000000000000e+03 9.873905181884765625e+00 -1.934167098999023438e+01 -2.990858815610408783e-02 -4.556048661470413208e-02 -2.264072187244892120e-02 -1.314454227685928345e-01
2.920000000000000000e+03 9.318398475646972656e+00 -1.418478775024414062e+01 -5.055046081542968750e-02 -1.925546489655971527e-02 -2.094177715480327606e-02 -8.631163835525512695e-02
2.921000000000000000e+03 1.037142372131347656e+01 -1.625811004638671875e+01 -5.183039978146553040e-02 -1.140278484672307968e-02 -1.896995492279529572e-02 -1.124392151832580566e-01
2.922000000000000000e+03 1.217110252380371094e+01 -1.493798446655273438e+01 -8.006621897220611572e-02 1.342260278761386871e-02 -1.999308355152606964e-02 -1.065391153097152710e-01
2.923000000000000000e+03 3.058919191360473633e+00 3.710482716560363770e-01 3.142043016850948334e-03 -4.655764205381274223e-04 8.029399323277175426e-04 1.960059744305908680e-04
2.924000000000000000e+03 3.884933710098266602e+00 3.823724985122680664e-01 1.830645953305065632e-03 4.119172517675906420e-04 6.727689178660511971e-04 2.888464950956404209e-04
2.925000000000000000e+03 4.025801181793212891e+00 1.122372508049011230e+00 3.025113837793469429e-03 -1.016646740026772022e-03 6.025400944054126740e-04 1.252528745681047440e-03
2.926000000000000000e+03 1.729085445404052734e+00 1.105241179466247559e+00 4.428135071066208184e-06 -1.283796445932239294e-04 -3.718545485753566027e-05 -1.476466422900557518e-03
2.927000000000000000e+03 1.433710694313049316e+00 3.652411401271820068e-01 1.345568685792386532e-03 2.420750533929094672e-04 4.762931203003972769e-04 -2.502629649825394154e-04
2.928000000000000000e+03 6.956086158752441406e-01 3.891016840934753418e-01 4.436551535036414862e-04 1.631834893487393856e-04 1.820515899453312159e-04 2.242786285933107138e-05
2.929000000000000000e+03 3.642284870147705078e-01 9.534841775894165039e-01 -6.804359727539122105e-04 2.400656667305156589e-04 -1.321110903518274426e-04 -4.411328409332782030e-04
2.930000000000000000e+03 2.239435195922851562e+00 3.632993698120117188e-01 1.531764515675604343e-03 -1.790167443687096238e-04 4.058243357576429844e-04 -6.780695985071361065e-04
2.931000000000000000e+03 3.251289129257202148e+00 1.111048340797424316e+00 -2.485135155438911170e-06 -6.099145393818616867e-04 -1.837198942666873336e-04 -7.219704566523432732e-04
2.932000000000000000e+03 2.483307361602783203e+00 1.103299379348754883e+00 2.304260618984699249e-03 -6.925080670043826103e-04 4.835257423110306263e-04 -2.334534510737285018e-04
2.933000000000000000e+03 1.042485833168029785e+00 1.129101634025573730e+00 8.669542730785906315e-04 8.897685329429805279e-04 5.270168185234069824e-04 -1.050056074745953083e-03
2.934000000000000000e+03 8.233952522277832031e+00 -4.202778637409210205e-01 2.664449624717235565e-03 4.861949419137090445e-04 9.451933437958359718e-04 3.924606717191636562e-04
2.935000000000000000e+03 7.379234313964843750e+00 -1.184791922569274902e+00 2.356186276301741600e-03 -1.042450079694390297e-03 3.941208706237375736e-04 1.460568637412507087e-05
2.936000000000000000e+03 9.602030754089355469e+00 -1.136115789413452148e+00 -3.693817183375358582e-03 -1.933840219862759113e-03 -1.688297139480710030e-03 -2.406801562756299973e-03
2.937000000000000000e+03 8.856255531311035156e+00 -1.146545290946960449e+00 -3.512580005917698145e-04 1.202063518576323986e-03 2.552416408434510231e-04 1.232917769812047482e-03
2.938000000000000000e+03 9.639422416687011719e+00 -3.961158394813537598e-01 2.097949152812361717e-03 2.891204552724957466e-03 1.496746088378131390e-03 6.960105965845286846e-04
2.939000000000000000e+03 8.112177848815917969e+00 -1.160277843475341797e+00 -3.550197696313261986e-03 -3.522748593240976334e-04 -1.170741743408143520e-03 -2.282273722812533379e-03
2.940000000000000000e+03 7.543199539184570312e+00 -4.447919428348541260e-01 1.649131765589118004e-03 -2.379652687523048371e-05 4.876005696132779121e-04 -1.123337424360215664e-04
2.941000000000000000e+03 8.935837745666503906e+00 -4.065453112125396729e-01 1.351841143332421780e-03 -1.571886357851326466e-03 -6.601357017643749714e-05 -8.541611605323851109e-04
2.942000000000000000e+03 5.341911792755126953e+00 -3.340440690517425537e-01 1.214497024193406105e-03 8.615765254944562912e-04 6.228220881894230843e-04 -8.415118791162967682e-04
2.943000000000000000e+03 5.326523780822753906e+00 -1.074044108390808105e+00 2.283153124153614044e-03 -4.283710150048136711e-04 5.564346793107688427e-04 -3.944692143704742193e-04
2.944000000000000000e+03 4.643752574920654297e+00 -1.016401410102844238e+00 2.858679275959730148e-03 -3.105924697592854500e-04 7.644260185770690441e-04 -7.143429247662425041e-04
2.945000000000000000e+03 6.677014350891113281e+00 -1.164411544799804688e+00 2.907316375058144331e-04 -9.266919223591685295e-04 -1.907880941871553659e-04 6.097871810197830200e-04
2.946000000000000000e+03 6.828927040100097656e+00 -4.244114756584167480e-01 2.075699623674154282e-03 -6.007436895743012428e-04 4.424868093337863684e-04 3.641749499365687370e-04
2.947000000000000000e+03 5.994243621826171875e+00 -1.106768846511840820e+00 3.994607832282781601e-03 2.731327200308442116e-03 2.017780672758817673e-03 -6.077470607124269009e-04
2.948000000000000000e+03 4.592835426330566406e+00 -2.764014601707458496e-01 1.793599105440080166e-03 -1.457166508771479130e-03 1.009297993732616305e-04 -2.476194349583238363e-04
2.949000000000000000e+03 6.079859256744384766e+00 -3.667688965797424316e-01 4.096053598914295435e-04 4.835246363654732704e-04 2.679390017874538898e-04 6.162893841974437237e-04
2.950000000000000000e+03 6.431427001953125000e+00 1.820162296295166016e+00 6.474892143160104752e-04 6.155185110401362181e-05 2.127123152604326606e-04 -1.370139943901449442e-04
2.951000000000000000e+03 7.159246444702148438e+00 1.673283696174621582e+00 -9.214713936671614647e-04 -2.308595867361873388e-04 -3.456992853898555040e-04 1.201632912852801383e-04
2.952000000000000000e+03 1.469936847686767578e+01 1.773380279541015625e+00 7.381098694168031216e-04 3.651341830845922232e-04 3.309732128400355577e-04 7.129641016945242882e-04
2.953000000000000000e+03 1.445661830902099609e+01 2.640754699707031250e+00 -5.050025880336761475e-03 4.113436152692884207e-04 -1.391604659147560596e-03 -1.619109883904457092e-03
2.954000000000000000e+03 9.594597816467285156e+00 2.746501922607421875e+00 -1.500005018897354603e-03 -8.778449264355003834e-04 -7.133550243452191353e-04 -1.211611088365316391e-03
2.955000000000000000e+03 7.967365264892578125e+00 1.639453649520874023e+00 3.705155686475336552e-04 4.139772790949791670e-04 2.353478630539029837e-04 4.580257809720933437e-04
2.956000000000000000e+03 1.256250381469726562e+01 1.591072559356689453e+00 2.868131741706747562e-05 1.122867455706000328e-03 3.454646503087133169e-04 1.578924013301730156e-03
2.957000000000000000e+03 1.195436763763427734e+01 1.626313209533691406e+00 -1.674688537605106831e-03 -1.058264984749257565e-03 -8.198860450647771358e-04 -1.005092635750770569e-03
2.958000000000000000e+03 1.176981258392333984e+01 2.315680503845214844e+00 -3.630704479292035103e-03 1.083070761524140835e-03 -7.642901618964970112e-04 1.775043710949830711e-05
2.959000000000000000e+03 1.128148365020751953e+01 1.782198309898376465e+00 1.999188447371125221e-03 7.830149261280894279e-04 8.346610120497643948e-04 1.059757312759757042e-03
2.960000000000000000e+03 1.052827453613281250e+01 2.693688869476318359e+00 7.995442720130085945e-04 1.137395156547427177e-03 5.810818402096629143e-04 1.387859927490353584e-03
2.961000000000000000e+03 9.096383094787597656e+00 2.099678754806518555e+00 2.211757469922304153e-03 4.175890717306174338e-05 6.760548567399382591e-04 8.194783004000782967e-04
2.962000000000000000e+03 1.042359733581542969e+01 1.879573464393615723e+00 -7.512762676924467087e-04 -9.648933191783726215e-04 -5.148508935235440731e-04 -1.214205403812229633e-03
2.963000000000000000e+03 8.796865463256835938e+00 1.672843456268310547e+00 -6.230630679056048393e-04 -4.969538422301411629e-04 -3.360050905030220747e-04 -2.890459436457604170e-04
2.964000000000000000e+03 1.232376384735107422e+01 1.987425327301025391e+00 2.201347844675183296e-03 -1.395428902469575405e-03 2.417757204966619611e-04 -1.173549913801252842e-03
2.965000000000000000e+03 1.316373729705810547e+01 1.650711774826049805e+00 -3.620591596700251102e-04 -4.341877647675573826e-04 -2.388740686001256108e-04 -1.469301059842109680e-03
2.966000000000000000e+03 1.512185192108154297e+01 2.405154466629028320e+00 1.746731810271739960e-03 -2.648011140991002321e-04 4.445792001206427813e-04 -4.171774489805102348e-04
2.967000000000000000e+03 1.427688312530517578e+01 2.106805086135864258e+00 4.726261366158723831e-03 -2.347766130696982145e-04 1.347445417195558548e-03 -1.159492021542973816e-04
2.968000000000000000e+03 1.373222541809082031e+01 2.722819328308105469e+00 4.398295655846595764e-03 1.773496624082326889e-03 1.851537614129483700e-03 3.183870110660791397e-03
2.969000000000000000e+03 1.373459720611572266e+01 1.684970498085021973e+00 1.506907748989760876e-03 -3.838495758827775717e-04 3.369174373801797628e-04 1.193430973216891289e-03
2.970000000000000000e+03 1.140512371063232422e+01 2.768403291702270508e+00 1.014774083159863949e-03 -1.918989350087940693e-03 -2.712645800784230232e-04 -1.212775474414229393e-03
2.971000000000000000e+03 1.369023799896240234e+01 2.191561698913574219e+00 -3.263547550886869431e-03 -1.430334668839350343e-04 -1.021974254399538040e-03 -1.518716802820563316e-03
2.972000000000000000e+03 8.758806228637695312e+00 2.800725221633911133e+00 1.092564896680414677e-03 8.146500913426280022e-04 5.721644847653806210e-04 1.286434475332498550e-03
2.973000000000000000e+03 9.561607360839843750e+00 1.777740120887756348e+00 -9.551725815981626511e-04 1.127668772824108601e-03 5.174884427106007934e-05 3.894838155247271061e-04
2.974000000000000000e+03 8.247145652770996094e+00 2.106858730316162109e+00 -6.556965527124702930e-04 -5.317197646945714951e-04 -3.562248894013464451e-04 -8.786377147771418095e-04
2.975000000000000000e+03 1.293806552886962891e+01 2.733785867691040039e+00 -2.692250534892082214e-03 -2.395059680566191673e-03 -1.526193111203610897e-03 -2.769898390397429466e-03
2.976000000000000000e+03 1.215185070037841797e+01 2.787881851196289062e+00 2.187126548960804939e-03 1.615301589481532574e-03 1.140728476457297802e-03 1.786170993000268936e-03
2.977000000000000000e+03 1.426091766357421875e+01 1.688389539718627930e+00 -1.844518817961215973e-03 4.701239231508225203e-04 -4.123184771742671728e-04 6.956948782317340374e-04
2.978000000000000000e+03 1.298928642272949219e+01 2.174380540847778320e+00 1.086421194486320019e-03 5.805243272334337234e-04 5.000836681574583054e-04 2.517874818295240402e-03
2.979000000000000000e+03 7.861133575439453125e+00 4.031277179718017578e+00 4.340207960922271013e-04 5.625816411338746548e-04 2.989807398989796638e-04 -6.985429354244843125e-05
2.980000000000000000e+03 7.410462379455566406e+00 3.546055316925048828e+00 -9.216562611982226372e-04 -3.581482160370796919e-04 -3.839413402602076530e-04 6.286592688411474228e-04
2.981000000000000000e+03 7.613649845123291016e+00 2.915391683578491211e+00 3.271406458225101233e-04 -3.210271534044295549e-04 1.834049157878325786e-06 -2.163859026040881872e-04
2.982000000000000000e+03 6.688477516174316406e+00 2.444559097290039062e+00 -6.693920586258172989e-04 -4.568347940221428871e-04 -3.378680557943880558e-04 1.587059814482927322e-04
2.983000000000000000e+03 8.198487281799316406e+00 3.243148326873779297e+00 -8.061478729359805584e-04 -4.725993785541504622e-04 -3.836241667158901691e-04 -3.736238577403128147e-04
2.984000000000000000e+03 7.040536880493164062e+00 3.044068336486816406e+00 7.245516171678900719e-04 6.583798676729202271e-04 4.148794396314769983e-04 -6.596483872272074223e-04
2.985000000000000000e+03 7.417679786682128906e+00 2.185935020446777344e+00 5.446957657113671303e-04 5.358530324883759022e-04 3.241646336391568184e-04 3.542916965670883656e-04
2.986000000000000000e+03 2.034901237487792969e+01 5.342971324920654297e+00 -1.532018333673477173e-01 5.835943855345249176e-03 -4.420976713299751282e-02 -3.796036168932914734e-02
2.987000000000000000e+03 2.110828781127929688e+01 5.289262771606445312e+00 -1.356765180826187134e-01 1.353320572525262833e-02 -3.664299473166465759e-02 -4.229525104165077209e-02
2.988000000000000000e+03 1.883009910583496094e+01 5.447298526763916016e+00 -1.845881491899490356e-01 -1.181770488619804382e-02 -5.892175808548927307e-02 -3.371507674455642700e-02
2.989000000000000000e+03 1.954028892517089844e+01 4.657379150390625000e+00 -2.258871793746948242e-01 3.685778938233852386e-03 -6.666041910648345947e-02 -1.928279409185051918e-03
2.990000000000000000e+03 2.104417419433593750e+01 4.551930904388427734e+00 -1.479895561933517456e-01 5.593507084995508194e-03 -4.271881282329559326e-02 -1.082510501146316528e-02
2.991000000000000000e+03 1.878804969787597656e+01 4.708437442779541016e+00 -2.668075263500213623e-01 -4.154070746153593063e-03 -8.128847926855087280e-02 -3.754277946427464485e-03
2.992000000000000000e+03 2.029225349426269531e+01 4.605130195617675781e+00 -1.893489956855773926e-01 7.568258442915976048e-04 -5.657765269279479980e-02 -6.507014855742454529e-03
2.993000000000000000e+03 1.958969306945800781e+01 5.395730018615722656e+00 -1.741301268339157104e-01 1.317106839269399643e-02 -4.828771576285362244e-02 -3.229871019721031189e-02
2.994000000000000000e+03 1.637983322143554688e+01 4.803785800933837891e+00 -3.753552138805389404e-01 -1.508047804236412048e-03 -1.130589768290519714e-01 -3.751231357455253601e-03
2.995000000000000000e+03 1.298356437683105469e+01 4.704628467559814453e+00 -7.727309465408325195e-01 -2.358929440379142761e-02 -2.388960719108581543e-01 7.433512806892395020e-02
2.996000000000000000e+03 1.177423858642578125e+01 4.763041496276855469e+00 -2.614634275436401367e+00 -1.869800500571727753e-02 -7.899997234344482422e-01 1.251152008771896362e-01
2.997000000000000000e+03 1.018246746063232422e+01 5.674672126770019531e+00 2.120472304522991180e-02 2.246256172657012939e-01 7.374910265207290649e-02 -1.575713604688644409e-02
2.998000000000000000e+03 1.013370227813720703e+01 5.089568614959716797e+00 -2.758016288280487061e-01 -1.063352897763252258e-01 -1.146410703659057617e-01 1.436082869768142700e-01
2.999000000000000000e+03 9.284529685974121094e+00 5.854344367980957031e+00 -1.685861945152282715e-01 -1.757931411266326904e-01 -1.033138036727905273e-01 1.064028218388557434e-01
3.000000000000000000e+03 9.335826873779296875e+00 5.327028274536132812e+00 -1.781456470489501953e-01 1.150856912136077881e-01 -1.891798898577690125e-02 1.902777701616287231e-01
3.001000000000000000e+03 1.803861427307128906e+01 5.487761020660400391e+00 -1.929274350404739380e-01 1.295319013297557831e-02 -5.399227142333984375e-02 -2.947047352790832520e-02
3.002000000000000000e+03 1.639271926879882812e+01 5.543782234191894531e+00 -2.105063498020172119e-01 1.587644405663013458e-02 -5.838897079229354858e-02 -2.265928871929645538e-02
3.003000000000000000e+03 1.474550819396972656e+01 5.590154647827148438e+00 7.816691696643829346e-02 8.953019976615905762e-02 5.030913278460502625e-02 2.507840096950531006e-02
3.004000000000000000e+03 1.390083026885986328e+01 4.819621562957763672e+00 -7.535429596900939941e-01 5.951302126049995422e-02 -2.082089930772781372e-01 -1.792980171740055084e-02
3.005000000000000000e+03 1.220392990112304688e+01 4.634844303131103516e+00 -6.054923534393310547e-01 3.899564221501350403e-02 -1.699490100145339966e-01 -7.398629188537597656e-02
3.006000000000000000e+03 8.498252868652343750e+00 5.874431133270263672e+00 -4.329237341880798340e-02 -1.834357716143131256e-02 -1.849078573286533356e-02 8.350007981061935425e-02
3.007000000000000000e+03 8.731795310974121094e+00 5.240024566650390625e+00 -3.517420291900634766e-01 -2.053724825382232666e-01 -1.671343445777893066e-01 -6.348057184368371964e-03
3.008000000000000000e+03 7.731923580169677734e+00 5.859321117401123047e+00 -8.310918509960174561e-02 -5.721580609679222107e-02 -4.209749773144721985e-02 1.038299202919006348e-01
3.009000000000000000e+03 8.089856147766113281e+00 5.106512069702148438e+00 -2.556782662868499756e-01 -4.883534088730812073e-02 -9.135407954454421997e-02 4.078900068998336792e-02
3.010000000000000000e+03 1.065108299255371094e+01 4.762430191040039062e+00 -1.359430074691772461e+00 1.625207513570785522e-01 -3.590728044509887695e-01 1.969166845083236694e-01
3.011000000000000000e+03 1.380731105804443359e+01 5.398728847503662109e+00 1.545977145433425903e-01 6.036927923560142517e-03 4.819039255380630493e-02 1.017391774803400040e-02
3.012000000000000000e+03 1.556646156311035156e+01 4.829121589660644531e+00 -4.470045864582061768e-01 -2.226473949849605560e-02 -1.407807916402816772e-01 -3.183159232139587402e-02
3.013000000000000000e+03 1.556915283203125000e+01 5.569469928741455078e+00 -1.616815626621246338e-01 -8.671929687261581421e-02 -7.452025264501571655e-02 -4.762914776802062988e-02
3.014000000000000000e+03 1.719260978698730469e+01 4.777213573455810547e+00 -3.417906165122985840e-01 1.184947439469397068e-03 -1.021817028522491455e-01 -3.491044277325272560e-03
3.015000000000000000e+03 1.800533866882324219e+01 4.748468875885009766e+00 -3.065199851989746094e-01 1.701814006082713604e-03 -9.144544601440429688e-02 -5.826542153954505920e-03
3.016000000000000000e+03 9.937987327575683594e+00 4.809810638427734375e+00 -8.639048933982849121e-01 -2.157181650400161743e-01 -3.238869309425354004e-01 1.631205156445503235e-02
3.017000000000000000e+03 1.475301074981689453e+01 4.849453449249267578e+00 -5.967039465904235840e-01 -9.325637482106685638e-03 -1.818088740110397339e-01 -7.019475847482681274e-02
3.018000000000000000e+03 1.721569061279296875e+01 5.516857624053955078e+00 -2.015240490436553955e-01 -7.336855866014957428e-03 -6.265827268362045288e-02 -3.052248246967792511e-02
3.019000000000000000e+03 1.273300933837890625e+01 4.954238891601562500e+00 -7.448282837867736816e-01 -1.309316046535968781e-02 -2.273764461278915405e-01 -7.024209946393966675e-02
3.020000000000000000e+03 1.144375038146972656e+01 4.709188938140869141e+00 -1.524236559867858887e+00 -3.881467506289482117e-02 -4.689153730869293213e-01 2.815448679029941559e-02
3.021000000000000000e+03 9.219163894653320312e+00 4.895892620086669922e+00 -3.855499625205993652e-01 2.413197755813598633e-01 -4.326905682682991028e-02 2.288261055946350098e-01
3.022000000000000000e+03 6.064543247222900391e+00 3.573476552963256836e+00 4.942107480019330978e-03 -1.749646966345608234e-03 9.577381424605846405e-04 -2.733251079916954041e-03
3.023000000000000000e+03 6.481155872344970703e+00 4.280267238616943359e+00 -5.516047403216362000e-02 -4.482096992433071136e-03 -1.789277046918869019e-02 -1.631945744156837463e-02
3.024000000000000000e+03 5.616716861724853516e+00 2.920150279998779297e+00 -7.024811115115880966e-03 1.644653617404401302e-03 -1.614047214388847351e-03 9.813045617192983627e-04
3.025000000000000000e+03 6.529135227203369141e+00 3.343321800231933594e+00 2.875260834116488695e-04 5.107706878334283829e-03 1.618569833226501942e-03 2.867189468815922737e-03
3.026000000000000000e+03 6.083950042724609375e+00 2.712398290634155273e+00 2.168264007195830345e-03 3.851885674521327019e-03 1.806044834665954113e-03 4.004459362477064133e-03
3.027000000000000000e+03 6.081230640411376953e+00 4.429358959197998047e+00 -3.579310700297355652e-02 1.148057635873556137e-02 -7.293758913874626160e-03 3.930628765374422073e-03
3.028000000000000000e+03 7.072127342224121094e+00 5.498886585235595703e+00 -9.101861715316772461e-02 1.815301552414894104e-02 -2.185968123376369476e-02 4.696013405919075012e-02
3.029000000000000000e+03 5.160166740417480469e+00 3.122973203659057617e+00 5.502293352037668228e-03 -2.236061496660113335e-03 9.798696264624595642e-04 -1.236573560163378716e-03
3.030000000000000000e+03 5.633822441101074219e+00 3.782831668853759766e+00 -2.631141431629657745e-02 -6.704661063849925995e-05 -7.913538254797458649e-03 -6.355489604175090790e-03
3.031000000000000000e+03 6.546886920928955078e+00 4.943883895874023438e+00 -7.155295461416244507e-02 1.163971144706010818e-02 -1.797397248446941376e-02 9.255346842110157013e-03
3.032000000000000000e+03 6.969904899597167969e+00 4.040812969207763672e+00 -1.436238083988428116e-02 9.459934663027524948e-04 -4.024916328489780426e-03 -5.199160426855087280e-03
3.033000000000000000e+03 7.447043418884277344e+00 4.761515140533447266e+00 -1.123525276780128479e-01 -6.355580408126115799e-03 -3.561243414878845215e-02 -1.871044375002384186e-02
3.034000000000000000e+03 5.466835975646972656e+00 1.780064940452575684e+00 -2.435805974528193474e-03 1.536453492008149624e-03 -2.698057505767792463e-04 3.356281202286481857e-03
3.035000000000000000e+03 5.362783908843994141e+00 2.328254699707031250e+00 7.800295948982238770e-03 2.567865885794162750e-03 3.110448596999049187e-03 7.556525524705648422e-04
3.036000000000000000e+03 4.886854648590087891e+00 2.462563276290893555e+00 -6.671600975096225739e-03 -3.129987278953194618e-03 -2.940476406365633011e-03 -2.405333589194924571e-06
3.037000000000000000e+03 5.811068058013916016e+00 2.087705373764038086e+00 3.237154101952910423e-03 5.072773899883031845e-03 2.492978237569332123e-03 2.455160429235547781e-04
3.038000000000000000e+03 4.849430561065673828e+00 1.816301584243774414e+00 5.475990939885377884e-03 -7.382246549241244793e-04 1.421329914592206478e-03 1.780153601430356503e-03
3.039000000000000000e+03 6.422852039337158203e+00 -1.690387964248657227e+00 -4.651371389627456665e-03 -1.645077369175851345e-03 -1.888934639282524586e-03 -6.500203628093004227e-03
3.040000000000000000e+03 5.933526992797851562e+00 -1.645968675613403320e+00 -3.284665523096919060e-03 3.182611893862485886e-03 -3.061605093535035849e-05 7.989992154762148857e-04
3.041000000000000000e+03 5.349874019622802734e+00 -1.936112761497497559e+00 -3.817017888650298119e-03 5.761987413279712200e-04 -9.722457034513354301e-04 4.251884296536445618e-03
3.042000000000000000e+03 5.370872974395751953e+00 -1.645971775054931641e+00 3.022986231371760368e-03 -6.196085450937971473e-05 8.883075788617134094e-04 -1.019482966512441635e-03
3.043000000000000000e+03 4.881517410278320312e+00 -1.690391063690185547e+00 -4.281244706362485886e-03 -8.029975579120218754e-04 -1.525272615253925323e-03 1.188675450976006687e-04
3.044000000000000000e+03 5.954525947570800781e+00 -1.936109781265258789e+00 7.143011782318353653e-03 -1.592569169588387012e-03 1.665132818743586540e-03 -1.808676985092461109e-03
3.045000000000000000e+03 1.799764633178710938e+01 3.976000785827636719e+00 -5.414911545813083649e-03 9.395210072398185730e-03 1.194089534692466259e-03 -5.990166682749986649e-03
3.046000000000000000e+03 1.802036094665527344e+01 3.234774589538574219e+00 3.850790904834866524e-03 1.945658773183822632e-02 6.992213893681764603e-03 8.515530265867710114e-03
3.047000000000000000e+03 1.661771774291992188e+01 3.299204349517822266e+00 -6.093438249081373215e-03 -2.093161083757877350e-02 -8.107514120638370514e-03 -1.071966066956520081e-02
3.048000000000000000e+03 1.595736217498779297e+01 3.689948797225952148e+00 1.355105265974998474e-02 3.193125501275062561e-02 1.364469248801469803e-02 9.051617234945297241e-03
3.049000000000000000e+03 1.739968109130859375e+01 3.258831262588500977e+00 -3.005976229906082153e-02 9.386923047713935375e-04 -8.736320771276950836e-03 -2.277812920510768890e-03
3.050000000000000000e+03 1.468982219696044922e+01 4.175592422485351562e+00 1.223401486640796065e-04 6.840220652520656586e-03 2.088768407702445984e-03 2.531662350520491600e-03
3.051000000000000000e+03 1.387075328826904297e+01 4.179982185363769531e+00 -5.340274074114859104e-04 -4.990356042981147766e-03 -1.657314947806298733e-03 -2.417743671685457230e-03
3.052000000000000000e+03 1.305658531188964844e+01 4.214945316314697266e+00 1.347038894891738892e-03 3.969016019254922867e-03 1.594816450960934162e-03 1.799580291844904423e-03
3.053000000000000000e+03 1.212989234924316406e+01 3.302501678466796875e+00 4.216615052428096533e-04 -8.963391301222145557e-04 -1.424032961949706078e-04 -2.118597505614161491e-03
3.054000000000000000e+03 1.151010513305664062e+01 4.324381351470947266e+00 1.396921870764344931e-04 2.108069136738777161e-03 6.743284175172448158e-04 1.102332724258303642e-03
3.055000000000000000e+03 9.949157714843750000e+00 4.366832733154296875e+00 6.059742736397311091e-05 5.585757317021489143e-04 1.857519528130069375e-04 8.289155084639787674e-05
3.056000000000000000e+03 9.932945251464843750e+00 3.384121179580688477e+00 1.894846092909574509e-03 6.697474746033549309e-04 7.693780935369431973e-04 1.477061421610414982e-03
3.057000000000000000e+03 9.204218864440917969e+00 4.346347332000732422e+00 5.343010416254401207e-04 -1.669205084908753633e-04 1.102141541196033359e-04 -1.716493134154006839e-04
3.058000000000000000e+03 8.465202331542968750e+00 4.316827774047851562e+00 -1.982807225431315601e-05 -2.994000387843698263e-04 -9.576843149261549115e-05 2.848160511348396540e-04
3.059000000000000000e+03 8.824538230895996094e+00 3.563970327377319336e+00 -1.138273637479869649e-05 -1.617175876162946224e-04 -5.193009565118700266e-05 -3.875697730109095573e-04
3.060000000000000000e+03 1.567019557952880859e+01 3.252961874008178711e+00 -7.717591244727373123e-03 -1.189790666103363037e-03 -2.672214526683092117e-03 -1.366579905152320862e-03
3.061000000000000000e+03 1.384450912475585938e+01 3.663609027862548828e+00 -1.201503328047692776e-03 2.341530285775661469e-03 3.420080756768584251e-04 2.566227456554770470e-03
3.062000000000000000e+03 1.383718013763427734e+01 3.223686933517456055e+00 -3.539244178682565689e-03 -2.857208717614412308e-03 -1.918935799039900303e-03 -5.646044388413429260e-03
3.063000000000000000e+03 1.321729660034179688e+01 3.334477663040161133e+00 5.393906496465206146e-03 1.636103726923465729e-03 2.109003020450472832e-03 3.267546882852911949e-03
3.064000000000000000e+03 1.215228843688964844e+01 3.795787334442138672e+00 4.541164380498230457e-04 1.761493971571326256e-03 6.646831170655786991e-04 2.680832985788583755e-03
3.065000000000000000e+03 1.070322895050048828e+01 3.859316349029541016e+00 6.324010901153087616e-04 5.907600861974060535e-04 3.669483412522822618e-04 1.217911718413233757e-03
3.066000000000000000e+03 9.443907737731933594e+00 3.722287416458129883e+00 -1.116952626034617424e-03 -1.441760105080902576e-04 -3.783385909628123045e-04 -1.478401973145082593e-04
3.067000000000000000e+03 1.542356109619140625e+01 4.099992275238037109e+00 -1.169268507510423660e-02 -1.055933628231287003e-02 -6.675606127828359604e-03 -8.335684426128864288e-03
3.068000000000000000e+03 1.725479507446289062e+01 4.004279136657714844e+00 1.125429384410381317e-02 -5.501175764948129654e-03 1.725935260765254498e-03 -7.923003286123275757e-03
3.069000000000000000e+03 1.228913879394531250e+01 4.288514137268066406e+00 -3.616475441958755255e-05 -3.163458313792943954e-03 -9.598868782632052898e-04 -1.248733839020133018e-03
3.070000000000000000e+03 1.145178890228271484e+01 3.832140445709228516e+00 -7.729543140158057213e-04 -8.195819100365042686e-04 -4.777608555741608143e-04 -1.698144245892763138e-03
3.071000000000000000e+03 1.072398853302001953e+01 4.351354122161865234e+00 -4.201587871648371220e-04 -1.105310977436602116e-03 -4.576409119181334972e-04 -5.909293540753424168e-04
3.072000000000000000e+03 1.001038265228271484e+01 3.872972011566162109e+00 -6.050604279153048992e-04 2.097735659845056944e-06 -1.808888046070933342e-04 -8.786846301518380642e-04
3.073000000000000000e+03 1.456358337402343750e+01 3.201005935668945312e+00 9.433105587959289551e-03 1.604514196515083313e-03 3.311285981908440590e-03 7.061837706714868546e-03
3.074000000000000000e+03 1.521894454956054688e+01 3.585825443267822266e+00 3.215306252241134644e-02 5.837178323417901993e-03 1.139707211405038834e-02 9.092555381357669830e-03
3.075000000000000000e+03 1.651922035217285156e+01 4.021458148956298828e+00 -1.556049101054668427e-04 -1.149622909724712372e-02 -3.495550248771905899e-03 1.204293034970760345e-02
3.076000000000000000e+03 1.525548934936523438e+01 3.170724391937255859e+00 -1.629747450351715088e-02 9.499893640168011189e-04 -4.604245536029338837e-03 -8.024731650948524475e-04
3.077000000000000000e+03 1.271649932861328125e+01 3.606709003448486328e+00 -4.025907255709171295e-03 -2.056238008663058281e-03 -1.824643579311668873e-03 -2.392667811363935471e-03
3.078000000000000000e+03 1.064930152893066406e+01 3.358359575271606445e+00 -9.575966396369040012e-04 -7.559043588116765022e-04 -5.140503053553402424e-04 -1.744280569255352020e-03
3.079000000000000000e+03 1.141008567810058594e+01 3.330572128295898438e+00 4.106032138224691153e-04 1.104722381569445133e-03 4.545976698864251375e-04 1.705053844489157200e-03
3.080000000000000000e+03 1.459164142608642578e+01 3.664122581481933594e+00 -4.477789625525474548e-03 -5.101277492940425873e-03 -2.873720135539770126e-03 -6.222334224730730057e-03
3.081000000000000000e+03 1.948812866210937500e+01 3.877326726913452148e+00 1.644434756599366665e-03 -5.718837957829236984e-03 -1.222320948727428913e-03 1.780997728928923607e-03
3.082000000000000000e+03 2.017558670043945312e+01 3.088615179061889648e+00 5.384969059377908707e-03 -1.019815565086901188e-03 1.309546059928834438e-03 1.062849257141351700e-02
3.083000000000000000e+03 2.097657775878906250e+01 3.774520874023437500e+00 1.175884529948234558e-02 3.649280639365315437e-03 4.622437525540590286e-03 6.649973802268505096e-03
3.084000000000000000e+03 1.870165252685546875e+01 3.189713239669799805e+00 7.892982102930545807e-03 -4.773617256432771683e-03 9.358094539493322372e-04 -2.470782026648521423e-03
3.085000000000000000e+03 1.874370384216308594e+01 3.928573846817016602e+00 -4.797772970050573349e-03 1.685236929915845394e-03 -9.337608353234827518e-04 6.068249233067035675e-03
3.086000000000000000e+03 2.091246414184570312e+01 3.037189483642578125e+00 -1.715316204354166985e-03 -1.845851074904203415e-03 -1.068350160494446754e-03 -4.972127266228199005e-03
3.087000000000000000e+03 1.943872451782226562e+01 3.138975620269775391e+00 -2.353653311729431152e-03 2.459938637912273407e-03 3.188561458955518901e-05 3.764450550079345703e-03
3.088000000000000000e+03 2.023234558105468750e+01 3.826456785202026367e+00 4.672704730182886124e-03 2.810990903526544571e-03 2.245108596980571747e-03 -1.694543607300147414e-04
3.089000000000000000e+03 2.338276290893554688e+01 2.962652921676635742e+00 -5.151404067873954773e-03 -8.376011392101645470e-04 -1.796701573766767979e-03 -1.766933687031269073e-02
3.090000000000000000e+03 2.264334869384765625e+01 2.863679885864257812e+00 -2.021723426878452301e-03 -4.937249235808849335e-03 -2.087691798806190491e-03 -7.145585026592016220e-03
3.091000000000000000e+03 2.270840263366699219e+01 3.601070642471313477e+00 2.457337826490402222e-02 1.771885156631469727e-02 1.268766913563013077e-02 8.416140452027320862e-03
3.092000000000000000e+03 2.175264739990234375e+01 2.959368467330932617e+00 3.233927127439528704e-04 -3.040838055312633514e-03 -8.152336231432855129e-04 1.119159441441297531e-02
3.093000000000000000e+03 2.181952476501464844e+01 3.696549654006958008e+00 1.392128039151430130e-02 -1.112169306725263596e-02 8.398761274293065071e-04 -5.811257753521203995e-03
3.094000000000000000e+03 2.345920753479003906e+01 4.853706359863281250e+00 -1.556010358035564423e-02 -2.764044329524040222e-02 -1.296016387641429901e-02 -2.235799469053745270e-02
3.095000000000000000e+03 2.276159095764160156e+01 4.334619045257568359e+00 -2.734769135713577271e-02 3.462275955826044083e-03 -7.165624760091304779e-03 -1.260502357035875320e-02
3.096000000000000000e+03 2.174504089355468750e+01 5.324580192565917969e+00 -1.158034130930900574e-01 1.520024519413709641e-02 -3.018094971776008606e-02 -5.236984789371490479e-02
3.097000000000000000e+03 2.223744201660156250e+01 5.344407081604003906e+00 -1.069398298859596252e-01 9.878732264041900635e-03 -2.911832928657531738e-02 -5.834498628973960876e-02
3.098000000000000000e+03 2.311081886291503906e+01 5.164704799652099609e+00 -8.245810121297836304e-02 -2.566755376756191254e-02 -3.243769705295562744e-02 -6.851434707641601562e-02
3.099000000000000000e+03 2.188203620910644531e+01 4.431602478027343750e+00 -9.495194256305694580e-02 -8.008235599845647812e-04 -2.872582897543907166e-02 -1.367379818111658096e-02
3.100000000000000000e+03 2.270535469055175781e+01 5.283616065979003906e+00 -1.074121743440628052e-01 3.774038748815655708e-03 -3.109144046902656555e-02 -6.412621587514877319e-02
3.101000000000000000e+03 2.265127754211425781e+01 4.880835533142089844e+00 -7.775326818227767944e-02 -7.681451737880706787e-03 -2.563041448593139648e-02 -5.027119815349578857e-02
3.102000000000000000e+03 2.204319572448730469e+01 4.953784942626953125e+00 -1.038394570350646973e-01 1.194633450359106064e-02 -2.756793797016143799e-02 -4.694304615259170532e-02
3.103000000000000000e+03 6.957012653350830078e+00 3.898485600948333740e-01 -1.484798121964558959e-04 -3.620202478487044573e-04 -1.531500165583565831e-04 4.578460357151925564e-05
3.104000000000000000e+03 7.073252201080322266e+00 1.129848599433898926e+00 3.446357732173055410e-04 2.830863231793045998e-04 1.883166260085999966e-04 -7.229810580611228943e-05
3.105000000000000000e+03 6.319694042205810547e+00 1.129848599433898926e+00 -3.292084147688001394e-04 -1.454191224183887243e-04 -1.423882640665397048e-04 6.237436900846660137e-05
3.106000000000000000e+03 6.201207637786865234e+00 3.898485600948333740e-01 9.075622801901772618e-05 9.029078501043841243e-05 5.431410681921988726e-05 5.260938451101537794e-06
3.107000000000000000e+03 8.670824050903320312e+00 3.840262591838836670e-01 -4.726282713818363845e-05 -6.662736996077001095e-04 -2.140609576599672437e-04 -1.809695677366107702e-04
3.108000000000000000e+03 7.878619670867919922e+00 1.127028346061706543e+00 -5.251117909210734069e-05 -2.577113336883485317e-04 -9.306675201514735818e-05 1.943930874404031783e-05
3.109000000000000000e+03 7.779973506927490234e+00 3.870283365249633789e-01 -2.287386814714409411e-05 5.793581949546933174e-04 1.669453049544245005e-04 1.633584543014876544e-05
3.110000000000000000e+03 9.562618255615234375e+00 3.869979083538055420e-01 1.027668258757330477e-04 5.139689310453832150e-04 1.850207336246967316e-04 2.566413895692676306e-04
3.111000000000000000e+03 9.595384597778320312e+00 1.126997947692871094e+00 -9.373483771923929453e-05 -4.830031539313495159e-04 -1.730213989503681660e-04 -6.270612939260900021e-04
3.112000000000000000e+03 8.736529350280761719e+00 1.124026298522949219e+00 -7.606582948938012123e-05 4.022540524601936340e-04 9.785647125681862235e-05 2.053506759693846107e-04
3.113000000000000000e+03 3.818112134933471680e+00 -2.739334106445312500e-01 3.639593254774808884e-03 1.447787275537848473e-03 1.526214182376861572e-03 6.938434671610593796e-05
3.114000000000000000e+03 3.930468320846557617e+00 -1.013933420181274414e+00 3.304469864815473557e-04 -1.101719331927597523e-03 -2.313817094545811415e-04 3.102065820712596178e-04
3.115000000000000000e+03 3.030747890472412109e+00 -3.350256085395812988e-01 2.075077733024954796e-03 -1.470129936933517456e-03 1.814843417378142476e-04 4.626333829946815968e-04
3.116000000000000000e+03 2.223073005676269531e+00 -3.565944731235504150e-01 1.644328236579895020e-03 1.035983557812869549e-03 8.040934917517006397e-04 4.476054746191948652e-04
3.117000000000000000e+03 1.423210144042968750e+00 -3.682287633419036865e-01 3.977096639573574066e-04 -3.908640646841377020e-04 2.053676098512369208e-06 7.738670683465898037e-05
3.118000000000000000e+03 3.579095304012298584e-01 -9.568480253219604492e-01 1.176392892375588417e-03 9.039744036272168159e-04 6.241102237254381180e-04 1.046168927132384852e-05
3.119000000000000000e+03 6.884766817092895508e-01 -3.942328691482543945e-01 -3.277384093962609768e-04 -2.241136971861124039e-04 -1.655556261539459229e-04 8.179906290024518967e-04
3.120000000000000000e+03 3.199677228927612305e+00 -1.075025558471679688e+00 1.404303475283086300e-03 3.641659277491271496e-04 5.305408267304301262e-04 6.328456802293658257e-04
3.121000000000000000e+03 2.448575496673583984e+00 -1.096594452857971191e+00 3.883489116560667753e-04 -8.596662082709372044e-04 -1.413951831636950374e-04 3.806867462117224932e-04
3.122000000000000000e+03 1.705285787582397461e+00 -1.108228802680969238e+00 1.324481097981333733e-03 8.593300590291619301e-04 6.551433471031486988e-04 1.478069461882114410e-03
3.123000000000000000e+03 1.027125477790832520e+00 -1.134232878684997559e+00 -1.485459360992535949e-04 -5.384606774896383286e-04 -2.061019768007099628e-04 -2.966654210467822850e-05
3.124000000000000000e+03 4.037366485595703125e+01 1.113951778411865234e+01 -6.475474238395690918e-01 -3.833585605025291443e-02 -2.057649940252304077e-01 1.007954180240631104e-01
3.125000000000000000e+03 3.962160873413085938e+01 1.131359195709228516e+01 -6.862551569938659668e-01 2.192783541977405548e-02 -1.992982029914855957e-01 1.619068235158920288e-01
3.126000000000000000e+03 4.275807952880859375e+01 1.133976268768310547e+01 -5.544757246971130371e-01 1.359166111797094345e-02 -1.622652113437652588e-01 -2.015305310487747192e-01
3.127000000000000000e+03 3.886851119995117188e+01 1.148583889007568359e+01 -6.562811136245727539e-01 -6.839629262685775757e-02 -2.174032181501388550e-01 1.740256100893020630e-01
3.128000000000000000e+03 4.112229919433593750e+01 1.096372222900390625e+01 -5.412015318870544434e-01 7.035972923040390015e-02 -1.412525475025177002e-01 5.850486829876899719e-02
3.129000000000000000e+03 4.054919052124023438e+01 1.186267280578613281e+01 -7.071489095687866211e-01 1.299028545618057251e-01 -1.731738001108169556e-01 5.674788728356361389e-02
3.130000000000000000e+03 4.185790634155273438e+01 1.078891849517822266e+01 -3.698160648345947266e-01 -1.649989932775497437e-02 -1.158947870135307312e-01 -2.860522083938121796e-02
3.131000000000000000e+03 4.253778457641601562e+01 1.062180137634277344e+01 -1.626387983560562134e-01 8.224096149206161499e-02 -2.411935105919837952e-02 -5.524255335330963135e-02
3.132000000000000000e+03 4.325923919677734375e+01 1.099616241455078125e+01 -2.283165454864501953e-01 -1.152607053518295288e-01 -1.030731797218322754e-01 -1.207126751542091370e-01
3.133000000000000000e+03 3.901419448852539062e+01 1.221245574951171875e+01 -6.833093166351318359e-01 5.236203968524932861e-02 -1.892841756343841553e-01 2.553994357585906982e-01
3.134000000000000000e+03 4.131274795532226562e+01 1.168514633178710938e+01 -6.523483395576477051e-01 7.600049674510955811e-02 -1.729043424129486084e-01 -3.768197819590568542e-02
3.135000000000000000e+03 4.206327819824218750e+01 1.150861167907714844e+01 -6.197762489318847656e-01 1.722415685653686523e-01 -1.342604011297225952e-01 -9.175993502140045166e-02
3.136000000000000000e+03 3.978221511840820312e+01 1.203847694396972656e+01 -7.198266983032226562e-01 1.969286613166332245e-02 -2.100401520729064941e-01 1.390620619058609009e-01
3.137000000000000000e+03 3.674169540405273438e+01 1.212182044982910156e+01 -6.903384625911712646e-02 -3.218285143375396729e-01 -1.172587126493453979e-01 2.318369895219802856e-01
3.138000000000000000e+03 3.698434829711914062e+01 1.262278556823730469e+01 -5.814734697341918945e-01 -1.429772526025772095e-01 -2.173352092504501343e-01 3.441725373268127441e-01
3.139000000000000000e+03 3.825864791870117188e+01 1.234777259826660156e+01 -6.720135211944580078e-01 -1.577488705515861511e-02 -2.063365280628204346e-01 3.527477085590362549e-01
3.140000000000000000e+03 3.804425811767578125e+01 1.163198184967041016e+01 -4.316471219062805176e-01 6.531080231070518494e-03 -1.275348067283630371e-01 2.142540067434310913e-01
3.141000000000000000e+03 3.756306838989257812e+01 1.246899890899658203e+01 -6.818655729293823242e-01 -7.623481750488281250e-02 -2.274301201105117798e-01 4.772547781467437744e-01
3.142000000000000000e+03 3.719634628295898438e+01 1.177657890319824219e+01 -1.134859025478363037e-01 -9.276298433542251587e-02 -6.187466531991958618e-02 1.158278882503509521e-01
3.143000000000000000e+03 3.663000488281250000e+01 1.268585968017578125e+01 -5.751944780349731445e-01 -4.560779631137847900e-01 -3.093817234039306641e-01 4.780555963516235352e-01
3.144000000000000000e+03 3.645061874389648438e+01 1.246910285949707031e+01 -2.020905166864395142e-01 -4.302466213703155518e-01 -1.897011399269104004e-01 2.945051193237304688e-01
3.145000000000000000e+03 3.871810150146484375e+01 1.072134113311767578e+01 5.193502176553010941e-03 5.165081820450723171e-04 1.713003031909465790e-03 -4.080399812664836645e-04
3.146000000000000000e+03 3.946144485473632812e+01 1.055411434173583984e+01 3.294886322692036629e-03 -9.712818427942693233e-04 6.970813847146928310e-04 -2.799862064421176910e-03
3.147000000000000000e+03 4.214028167724609375e+01 9.757813453674316406e+00 -2.003318513743579388e-05 4.268821503501385450e-04 1.220546910190023482e-04 -5.994669845676980913e-05
3.148000000000000000e+03 3.857750320434570312e+01 9.993584632873535156e+00 1.783472485840320587e-03 -1.870720414444804192e-03 -2.617436985019594431e-05 -4.436200950294733047e-03
3.149000000000000000e+03 4.160499191284179688e+01 1.006451320648193359e+01 1.030174753395840526e-04 7.508493144996464252e-04 2.561600413173437119e-04 2.824865259754005820e-05
3.150000000000000000e+03 4.144534683227539062e+01 9.334435462951660156e+00 2.013354969676584005e-04 -7.888282998465001583e-04 -1.762478495948016644e-04 -4.350795934442430735e-04
3.151000000000000000e+03 4.092973709106445312e+01 1.022012138366699219e+01 5.318535841070115566e-04 -9.475313127040863037e-04 -1.247033214895054698e-04 -9.060266893357038498e-04
3.152000000000000000e+03 4.020204162597656250e+01 1.038670063018798828e+01 1.591384527273476124e-03 2.422098070383071899e-03 1.204044790938496590e-03 -4.639182297978550196e-04
3.153000000000000000e+03 4.077485275268554688e+01 9.490621566772460938e+00 -7.594221970066428185e-04 2.421124605461955070e-03 4.985107225365936756e-04 1.616924710106104612e-04
3.154000000000000000e+03 4.005191802978515625e+01 9.657777786254882812e+00 9.055222471943125129e-05 1.512076007202267647e-03 4.807884688489139080e-04 -3.393114078789949417e-03
3.155000000000000000e+03 3.931608200073242188e+01 9.825769424438476562e+00 4.689052875619381666e-04 9.866803884506225586e-04 4.366757057141512632e-04 -8.645910420455038548e-04
3.156000000000000000e+03 1.463219356536865234e+01 1.208772420883178711e+00 -2.549613593146204948e-03 -8.313648286275565624e-04 -1.014293520711362362e-03 -3.449295763857662678e-04
3.157000000000000000e+03 1.413865852355957031e+01 3.089686632156372070e-01 1.099081782740540802e-04 -7.063717202981933951e-05 1.178130241896724328e-05 -4.633418575394898653e-05
3.158000000000000000e+03 1.413591098785400391e+01 8.441513180732727051e-01 -3.539771132636815310e-04 4.406453517731279135e-04 2.600047810119576752e-05 -1.015134970657527447e-03
3.159000000000000000e+03 1.324289608001708984e+01 1.113969683647155762e+00 -1.514557516202330589e-04 -1.603292330401018262e-04 -9.353549830848351121e-05 4.960677470080554485e-04
3.160000000000000000e+03 1.484628582000732422e+01 5.796153545379638672e-01 -7.753433601465076208e-05 -9.888331987895071507e-05 -5.292529749567620456e-05 -6.903235043864697218e-05
3.161000000000000000e+03 1.338759136199951172e+01 2.497024983167648315e-01 -3.324449644424021244e-04 2.384075633017346263e-04 -2.821121779561508447e-05 -2.883482920879032463e-05
3.162000000000000000e+03 1.422421169281005859e+01 1.250681281089782715e+00 1.428248360753059387e-04 5.553588271141052246e-04 2.094551018672063947e-04 1.071948674507439137e-03
3.163000000000000000e+03 1.355335903167724609e+01 8.086416125297546387e-01 1.116942032240331173e-03 7.500307401642203331e-05 3.575835435185581446e-04 3.597081813495606184e-04
3.164000000000000000e+03 1.374464988708496094e+01 1.230049014091491699e+00 -1.792220748029649258e-03 8.349538547918200493e-04 -2.871800679713487625e-04 -4.852345737162977457e-04
3.165000000000000000e+03 1.038163661956787109e+01 3.719484806060791016e-01 -1.606732839718461037e-04 -2.702496421989053488e-04 -1.292768865823745728e-04 -2.717497118283063173e-04
3.166000000000000000e+03 1.112833786010742188e+01 3.352923989295959473e-01 1.469696289859712124e-04 -2.630098970257677138e-05 3.620059214881621301e-05 2.067581081064417958e-04
3.167000000000000000e+03 1.187404060363769531e+01 3.023687005043029785e-01 -1.933847670443356037e-04 1.734871475491672754e-04 -5.969285666651558131e-06 -1.196827361127361655e-04
3.168000000000000000e+03 1.187335777282714844e+01 1.043116807937622070e+00 4.058014601469039917e-04 2.867741859517991543e-04 2.077726967399939895e-04 3.000090946443378925e-04
3.169000000000000000e+03 1.261872673034667969e+01 2.733090519905090332e-01 5.142141890246421099e-05 -2.560210123192518950e-04 -6.137987656984478235e-05 1.342348987236618996e-04
3.170000000000000000e+03 1.261125278472900391e+01 1.014356493949890137e+00 -2.348248090129345655e-04 -2.378866192884743214e-04 -1.418134343111887574e-04 -3.947757650166749954e-04
3.171000000000000000e+03 1.039453697204589844e+01 1.112098097801208496e+00 5.769985727965831757e-04 2.843461115844547749e-04 2.584033936727792025e-04 7.852756534703075886e-04
3.172000000000000000e+03 1.113444709777832031e+01 1.075741291046142578e+00 -6.214739987626671791e-04 -1.974699989659711719e-04 -2.456832153256982565e-04 -4.149799060542136431e-04
3.173000000000000000e+03 5.544353008270263672e+00 1.129850029945373535e+00 8.374227327294647694e-04 1.190648414194583893e-03 6.084213382564485073e-04 6.384423468261957169e-04
3.174000000000000000e+03 4.790751457214355469e+00 1.129850029945373535e+00 -6.406450993381440639e-04 2.342832303838804364e-04 -1.219085679622367024e-04 1.662016729824244976e-03
3.175000000000000000e+03 4.676749229431152344e+00 3.898500204086303711e-01 1.823678030632436275e-03 -5.647075013257563114e-04 3.776911762543022633e-04 3.942129260394722223e-04
3.176000000000000000e+03 5.432579994201660156e+00 3.898500204086303711e-01 2.099271805491298437e-04 4.800926544703543186e-04 2.070059417746961117e-04 4.877073515672236681e-04
3.177000000000000000e+03 1.112103080749511719e+01 -4.428110718727111816e-01 1.699354150332510471e-03 4.801935050636529922e-03 1.950386795215308666e-03 2.893616619985550642e-04
3.178000000000000000e+03 1.187371921539306641e+01 -4.752737879753112793e-01 1.388682750985026360e-03 -4.995901137590408325e-03 -1.082165515981614590e-03 1.015141970128752291e-04
3.179000000000000000e+03 1.111492252349853516e+01 -1.183259963989257812e+00 -3.986072260886430740e-03 -2.486679004505276680e-03 -1.941825379617512226e-03 -6.917300052009522915e-04
3.180000000000000000e+03 1.262644767761230469e+01 -5.069373250007629395e-01 2.086626365780830383e-03 4.555041436105966568e-03 1.992500387132167816e-03 -4.480741044972091913e-04
3.181000000000000000e+03 1.035515594482421875e+01 -1.148333072662353516e+00 -2.321917098015546799e-03 2.618353348225355148e-03 8.893090853234753013e-05 1.130514079704880714e-03
3.182000000000000000e+03 1.036805534362792969e+01 -4.081833958625793457e-01 1.208250061608850956e-03 -3.856091760098934174e-03 -7.943524979054927826e-04 -7.378403097391128540e-04
3.183000000000000000e+03 1.263392257690429688e+01 -1.248021602630615234e+00 -2.997104311361908913e-03 -1.980813452973961830e-03 -1.493375282734632492e-03 2.484385622665286064e-03
3.184000000000000000e+03 1.187440204620361328e+01 -1.216021895408630371e+00 -3.265718696638941765e-03 3.061795607209205627e-03 -6.117688462836667895e-05 2.604760811664164066e-04
3.185000000000000000e+03 3.787689590454101562e+01 1.088152790069580078e+01 4.218626767396926880e-03 -1.015335321426391602e-03 9.609874687157571316e-04 -5.540359416045248508e-04
3.186000000000000000e+03 3.687048339843750000e+01 1.029800510406494141e+01 5.761973094195127487e-03 6.464233156293630600e-04 1.922518829815089703e-03 -4.047789552714675665e-04
3.187000000000000000e+03 3.774330520629882812e+01 1.015336227416992188e+01 4.877519793808460236e-03 -3.578725736588239670e-03 3.896381822414696217e-04 2.786454046145081520e-03
3.188000000000000000e+03 3.632341003417968750e+01 1.056402301788330078e+01 5.155276041477918625e-03 4.297723062336444855e-03 2.835899591445922852e-03 1.828964217565953732e-03
3.189000000000000000e+03 3.699481582641601562e+01 1.102758884429931641e+01 3.439662395976483822e-04 -1.328056678175926208e-03 -2.952271606773138046e-04 2.965935505926609039e-03
3.190000000000000000e+03 1.483313274383544922e+01 -3.616165518760681152e-01 5.270219873636960983e-03 1.006466150283813477e-02 4.600464366376399994e-03 5.680060479789972305e-03
3.191000000000000000e+03 1.534506702423095703e+01 -8.866766691207885742e-01 -6.880694534629583359e-03 -1.112024765461683273e-02 -5.400282796472311020e-03 -3.644156269729137421e-03
3.192000000000000000e+03 1.413932895660400391e+01 -4.292643368244171143e-01 3.337039379402995110e-03 -2.305985661223530769e-03 3.093161794822663069e-04 -2.168376930058002472e-03
3.193000000000000000e+03 1.338562393188476562e+01 -4.926638007164001465e-01 2.690908499062061310e-03 -1.907548983581364155e-03 2.350078430026769638e-04 2.149258973076939583e-03
3.194000000000000000e+03 1.341033267974853516e+01 -1.234521746635437012e+00 -2.865208312869071960e-03 2.146969549357891083e-03 -2.154716203222051263e-04 -2.104440238326787949e-03
3.195000000000000000e+03 1.419171237945556641e+01 -1.172296047210693359e+00 -1.992162317037582397e-03 -3.348879516124725342e-03 -1.602312549948692322e-03 5.500725004822015762e-03
3.196000000000000000e+03 1.491319084167480469e+01 -1.105822205543518066e+00 -5.567970219999551773e-04 2.017784165218472481e-03 4.382961778901517391e-04 -9.108979254961013794e-03
3.197000000000000000e+03 5.203339767456054688e+01 1.128779125213623047e+01 3.420512771606445312e+01 5.004943847656250000e+00 1.176302146911621094e+01 1.054137897491455078e+01
3.198000000000000000e+03 5.203596878051757812e+01 1.126851463317871094e+01 3.292380523681640625e+01 1.577335071563720703e+01 1.460914707183837891e+01 2.271581077575683594e+01
3.199000000000000000e+03 5.204224014282226562e+01 1.125010585784912109e+01 3.112046051025390625e+01 2.765590476989746094e+01 1.763290977478027344e+01 2.761224937438964844e+01
3.200000000000000000e+03 5.205197143554687500e+01 1.123326778411865234e+01 2.729348754882812500e+01 3.970750808715820312e+01 2.010029792785644531e+01 2.984842681884765625e+01
3.201000000000000000e+03 5.206479263305664062e+01 1.121864414215087891e+01 2.376304244995117188e+01 5.182511138916015625e+01 2.267644500732421875e+01 2.881723213195800781e+01
3.202000000000000000e+03 5.208021163940429688e+01 1.120679283142089844e+01 1.970120620727539062e+01 6.186103439331054688e+01 2.446867179870605469e+01 2.540160751342773438e+01
3.203000000000000000e+03 5.209764099121093750e+01 1.119816589355468750e+01 1.747244262695312500e+01 7.009584045410156250e+01 2.627048492431640625e+01 1.958513069152832031e+01
3.204000000000000000e+03 5.211641311645507812e+01 1.119309425354003906e+01 1.636554718017578125e+01 7.492449951171875000e+01 2.738701438903808594e+01 1.261168479919433594e+01
3.205000000000000000e+03 5.213581848144531250e+01 1.119177055358886719e+01 1.767845153808593750e+01 7.670481109619140625e+01 2.831497955322265625e+01 5.171577453613281250e+00
3.206000000000000000e+03 5.215510559082031250e+01 1.119424438476562500e+01 2.065828514099121094e+01 7.536048126220703125e+01 2.880562973022460938e+01 -1.364615082740783691e+00
3.207000000000000000e+03 5.217354583740234375e+01 1.120042324066162109e+01 2.541719245910644531e+01 7.164760589599609375e+01 2.911944007873535156e+01 -6.490524768829345703e+00
3.208000000000000000e+03 5.219043350219726562e+01 1.121007061004638672e+01 3.073193740844726562e+01 6.654013061523437500e+01 2.918161964416503906e+01 -9.451237678527832031e+00
3.209000000000000000e+03 5.220512008666992188e+01 1.122281742095947266e+01 3.612397384643554688e+01 6.079442977905273438e+01 2.907552146911621094e+01 -1.027690219879150391e+01
3.210000000000000000e+03 5.221704864501953125e+01 1.123817729949951172e+01 4.109621047973632812e+01 5.590440368652343750e+01 2.910018348693847656e+01 -8.973460197448730469e+00
3.211000000000000000e+03 5.222576141357421875e+01 1.125556373596191406e+01 4.457039260864257812e+01 5.137380981445312500e+01 2.878326034545898438e+01 -6.221614837646484375e+00
3.212000000000000000e+03 5.223093032836914062e+01 1.127431297302246094e+01 4.703646087646484375e+01 4.947922134399414062e+01 2.895470428466796875e+01 -2.307907819747924805e+00
3.213000000000000000e+03 5.223234939575195312e+01 1.129370880126953125e+01 4.742523574829101562e+01 4.823547363281250000e+01 2.869821357727050781e+01 2.184854984283447266e+00
3.214000000000000000e+03 5.222996902465820312e+01 1.131301021575927734e+01 4.663409805297851562e+01 5.000267410278320312e+01 2.899103164672851562e+01 6.419249534606933594e+00
3.215000000000000000e+03 5.222388458251953125e+01 1.133148097991943359e+01 4.364837265014648438e+01 5.270403289794921875e+01 2.890572166442871094e+01 1.032989120483398438e+01
3.216000000000000000e+03 5.221432113647460938e+01 1.134841537475585938e+01 3.976598739624023438e+01 5.751008224487304688e+01 2.918282127380371094e+01 1.271658515930175781e+01
3.217000000000000000e+03 5.220164871215820312e+01 1.136316680908203125e+01 3.419294357299804688e+01 6.305808258056640625e+01 2.917530822753906250e+01 1.356048297882080078e+01
3.218000000000000000e+03 5.218634796142578125e+01 1.137517261505126953e+01 2.847463989257812500e+01 6.869831085205078125e+01 2.915188407897949219e+01 1.219072723388671875e+01
3.219000000000000000e+03 5.216900634765625000e+01 1.138397216796875000e+01 2.282270240783691406e+01 7.391161346435546875e+01 2.902029418945312500e+01 8.358796119689941406e+00
3.220000000000000000e+03 5.215028381347656250e+01 1.138923168182373047e+01 1.783280563354492188e+01 7.679492187500000000e+01 2.838831901550292969e+01 2.821540832519531250e+00
3.221000000000000000e+03 5.213089370727539062e+01 1.139074993133544922e+01 1.524608421325683594e+01 7.748857116699218750e+01 2.782039642333984375e+01 -4.525178432464599609e+00
3.222000000000000000e+03 5.211157989501953125e+01 1.138846778869628906e+01 1.351332283020019531e+01 7.443472290039062500e+01 2.638441467285156250e+01 -1.197272872924804688e+01
3.223000000000000000e+03 5.209307861328125000e+01 1.138247394561767578e+01 1.525018882751464844e+01 6.854769134521484375e+01 2.513936424255371094e+01 -1.897489738464355469e+01
3.224000000000000000e+03 5.207609939575195312e+01 1.137299633026123047e+01 1.716607666015625000e+01 5.920808029174804688e+01 2.291224670410156250e+01 -2.445477867126464844e+01
3.225000000000000000e+03 5.206128311157226562e+01 1.136039638519287109e+01 2.104622077941894531e+01 4.826264572143554688e+01 2.079265975952148438e+01 -2.736382865905761719e+01
3.226000000000000000e+03 5.204920196533203125e+01 1.134515666961669922e+01 2.505992698669433594e+01 3.555099487304687500e+01 1.818327713012695312e+01 -2.751618003845214844e+01
3.227000000000000000e+03 5.204031372070312500e+01 1.132785797119140625e+01 2.802592849731445312e+01 2.237501335144042969e+01 1.512028217315673828e+01 -2.468097496032714844e+01
3.228000000000000000e+03 5.203496170043945312e+01 1.130916213989257812e+01 3.293586349487304688e+01 9.353919982910156250e+00 1.268693447113037109e+01 -1.453831005096435547e+01
