# el_label, x, y, sXX, sYY, sZZ, sXY
1.000000000000000000e+00 9.702937126159667969e+00 -2.983934059739112854e-02 -2.481132984161376953e+00 -2.693592309951782227e+00 -1.552417635917663574e+00 -2.668831348419189453e+00
2.000000000000000000e+00 9.504896163940429688e+00 -4.973223432898521423e-02 1.453110933303833008e+00 1.064993858337402344e+00 7.554314136505126953e-01 9.228507876396179199e-01
3.000000000000000000e+00 9.306854248046875000e+00 -6.962513178586959839e-02 -4.628402739763259888e-02 -4.294981956481933594e-01 -1.427346616983413696e-01 4.150974377989768982e-02
4.000000000000000000e+00 9.108813285827636719e+00 -8.951802551746368408e-02 -4.014978706836700439e-01 2.380046099424362183e-01 -4.904798045754432678e-02 2.121544182300567627e-01
5.000000000000000000e+00 9.714455604553222656e+00 -8.718428760766983032e-02 1.332878971099853516e+01 -2.595450401306152344e+00 3.220001697540283203e+00 2.396248579025268555e+00
6.000000000000000000e+00 9.524093627929687500e+00 -1.453071534633636475e-01 5.320078849792480469e+00 5.536117553710937500e-01 1.762107133865356445e+00 1.638131976127624512e+00
7.000000000000000000e+00 9.333730697631835938e+00 -2.034300118684768677e-01 4.937254428863525391e+00 9.046331048011779785e-01 1.752566218376159668e+00 2.274652004241943359e+00
8.000000000000000000e+00 9.143367767333984375e+00 -2.615528702735900879e-01 3.460267543792724609e+00 2.398825883865356445e-01 1.110045075416564941e+00 1.458047032356262207e+00
9.000000000000000000e+00 9.736933708190917969e+00 -1.411830335855484009e-01 1.830858993530273438e+01 3.053604364395141602e+00 6.408658504486083984e+00 9.968024253845214844e+00
1.000000000000000000e+01 9.561555862426757812e+00 -2.353050708770751953e-01 1.116575908660888672e+01 1.742684602737426758e+00 3.872533082962036133e+00 5.665438652038574219e+00
1.100000000000000000e+01 9.386178970336914062e+00 -3.294270932674407959e-01 7.624258995056152344e+00 2.418915987014770508e+00 3.012952566146850586e+00 4.412424564361572266e+00
1.200000000000000000e+01 9.210802078247070312e+00 -4.235491156578063965e-01 6.545156002044677734e+00 2.000766277313232422e+00 2.563776731491088867e+00 4.121739864349365234e+00
1.300000000000000000e+01 9.769508361816406250e+00 -1.897630989551544189e-01 1.946229553222656250e+01 1.034056091308593750e+01 8.940856933593750000e+00 1.565658760070800781e+01
1.400000000000000000e+01 9.615847587585449219e+00 -3.162718117237091064e-01 1.260103416442871094e+01 6.645264625549316406e+00 5.773889541625976562e+00 9.933356285095214844e+00
1.500000000000000000e+01 9.462185859680175781e+00 -4.427805542945861816e-01 9.802742958068847656e+00 5.161318302154541016e+00 4.489218235015869141e+00 7.764163970947265625e+00
1.600000000000000000e+01 9.308525085449218750e+00 -5.692892670631408691e-01 7.828622817993164062e+00 4.774884700775146484e+00 3.781052350997924805e+00 6.418936252593994141e+00
1.700000000000000000e+01 9.810929298400878906e+00 -2.310599088668823242e-01 1.713106727600097656e+01 1.988335418701171875e+01 1.110432624816894531e+01 1.887625885009765625e+01
1.800000000000000000e+01 9.684882164001464844e+00 -3.850998580455780029e-01 1.219773769378662109e+01 1.261345767974853516e+01 7.443358421325683594e+00 1.308226776123046875e+01
1.900000000000000000e+01 9.558835029602050781e+00 -5.391398072242736816e-01 9.514051437377929688e+00 1.017803955078125000e+01 5.907627582550048828e+00 1.016129875183105469e+01
2.000000000000000000e+01 9.432787895202636719e+00 -6.931797266006469727e-01 7.865810871124267578e+00 8.473441123962402344e+00 4.901775360107421875e+00 8.765075683593750000e+00
2.100000000000000000e+01 9.859606742858886719e+00 -2.634885013103485107e-01 1.364057922363281250e+01 2.905204010009765625e+01 1.280778598785400391e+01 1.941877555847167969e+01
2.200000000000000000e+01 9.766011238098144531e+00 -4.391474723815917969e-01 1.020519542694091797e+01 1.987421226501464844e+01 9.023821830749511719e+00 1.400769233703613281e+01
2.300000000000000000e+01 9.672415733337402344e+00 -6.148064732551574707e-01 8.083624839782714844e+00 1.563921070098876953e+01 7.116850852966308594e+00 1.155476665496826172e+01
2.400000000000000000e+01 9.578820228576660156e+00 -7.904654741287231445e-01 6.656321525573730469e+00 1.353226470947265625e+01 6.056575775146484375e+00 9.662612915039062500e+00
2.500000000000000000e+01 9.913672447204589844e+00 -2.858042120933532715e-01 1.030959033966064453e+01 3.772513961791992188e+01 1.441041851043701172e+01 1.689314079284667969e+01
2.600000000000000000e+01 9.856121063232421875e+00 -4.763403236865997314e-01 7.839650154113769531e+00 2.639868164062500000e+01 1.027149963378906250e+01 1.325869655609130859e+01
2.700000000000000000e+01 9.798569679260253906e+00 -6.668764352798461914e-01 6.201955318450927734e+00 2.152160835266113281e+01 8.317069053649902344e+00 1.089930438995361328e+01
2.800000000000000000e+01 9.741018295288085938e+00 -8.574125766754150391e-01 4.978904724121093750e+00 1.843785667419433594e+01 7.025028705596923828e+00 9.616176605224609375e+00
2.900000000000000000e+01 9.971052169799804688e+00 -2.971505522727966309e-01 8.036500930786132812e+00 4.396789169311523438e+01 1.560131835937500000e+01 1.267593002319335938e+01
3.000000000000000000e+01 9.951753616333007812e+00 -4.952509105205535889e-01 6.191179275512695312e+00 3.220646667480468750e+01 1.151929283142089844e+01 1.041163539886474609e+01
3.100000000000000000e+01 9.932455062866210938e+00 -6.933512687683105469e-01 4.480760574340820312e+00 2.631996345520019531e+01 9.240217208862304688e+00 9.086424827575683594e+00
3.200000000000000000e+01 9.913155555725097656e+00 -8.914516568183898926e-01 3.668334960937500000e+00 2.287163925170898438e+01 7.961991786956787109e+00 7.779088497161865234e+00
3.300000000000000000e+01 1.002954196929931641e+01 -2.970920503139495850e-01 8.173108100891113281e+00 4.794049835205078125e+01 1.683408164978027344e+01 7.021754264831542969e+00
3.400000000000000000e+01 1.004923725128173828e+01 -4.951534271240234375e-01 5.245026111602783203e+00 3.601784515380859375e+01 1.237886142730712891e+01 6.850008487701416016e+00
3.500000000000000000e+01 1.006893157958984375e+01 -6.932148337364196777e-01 4.057692050933837891e+00 3.006171989440917969e+01 1.023582363128662109e+01 5.764283657073974609e+00
3.600000000000000000e+01 1.008862686157226562e+01 -8.912761807441711426e-01 2.749231338500976562e+00 2.600341415405273438e+01 8.625793457031250000e+00 5.234967708587646484e+00
3.700000000000000000e+01 1.008689880371093750e+01 -2.856309711933135986e-01 9.508563995361328125e+00 4.907747268676757812e+01 1.757581138610839844e+01 1.853123068809509277e+00
3.800000000000000000e+01 1.014483070373535156e+01 -4.760516285896301270e-01 6.507059574127197266e+00 3.810929870605468750e+01 1.338490772247314453e+01 2.490953683853149414e+00
3.900000000000000000e+01 1.020276355743408203e+01 -6.664722561836242676e-01 4.157759189605712891e+00 3.193140792846679688e+01 1.082675075531005859e+01 2.402054071426391602e+00
4.000000000000000000e+01 1.026069545745849609e+01 -8.568928837776184082e-01 3.456915855407714844e+00 2.806548309326171875e+01 9.456719398498535156e+00 1.858676671981811523e+00
4.100000000000000000e+01 1.014091968536376953e+01 -2.632071673870086670e-01 1.353719520568847656e+01 4.821054077148437500e+01 1.852432060241699219e+01 -2.560745716094970703e+00
4.200000000000000000e+01 1.023486614227294922e+01 -4.386786222457885742e-01 8.089389801025390625e+00 3.820948028564453125e+01 1.388966083526611328e+01 -1.201469182968139648e+00
4.300000000000000000e+01 1.032881259918212891e+01 -6.141500473022460938e-01 6.495119094848632812e+00 3.231636428833007812e+01 1.164344501495361328e+01 -1.102509260177612305e+00
4.400000000000000000e+01 1.042275905609130859e+01 -7.896215319633483887e-01 4.436459064483642578e+00 2.838284492492675781e+01 9.845790863037109375e+00 -8.884044289588928223e-01
4.500000000000000000e+01 1.018953227996826172e+01 -2.306813150644302368e-01 1.715480041503906250e+01 4.587701797485351562e+01 1.890954589843750000e+01 -5.319023132324218750e+00
4.600000000000000000e+01 1.031588745117187500e+01 -3.844688534736633301e-01 1.199256896972656250e+01 3.683778381347656250e+01 1.464910602569580078e+01 -4.007893085479736328e+00
4.700000000000000000e+01 1.044224262237548828e+01 -5.382564067840576172e-01 8.506010055541992188e+00 3.138275146484375000e+01 1.196662807464599609e+01 -3.560830354690551758e+00
4.800000000000000000e+01 1.056859779357910156e+01 -6.920439004898071289e-01 7.536387920379638672e+00 2.750189971923828125e+01 1.051148605346679688e+01 -3.427961587905883789e+00
4.900000000000000000e+01 1.023087024688720703e+01 -1.893017292022705078e-01 2.208160018920898438e+01 4.298761367797851562e+01 1.952076530456542969e+01 -6.181544303894042969e+00
5.000000000000000000e+01 1.038478469848632812e+01 -3.155028820037841797e-01 1.505457115173339844e+01 3.467263793945312500e+01 1.491816234588623047e+01 -5.539344310760498047e+00
5.100000000000000000e+01 1.053869819641113281e+01 -4.417040348052978516e-01 1.241541767120361328e+01 2.938453483581542969e+01 1.253998565673828125e+01 -4.806012630462646484e+00
5.200000000000000000e+01 1.069261169433593750e+01 -5.679051876068115234e-01 9.480483055114746094e+00 2.615126228332519531e+01 1.068952369689941406e+01 -4.625161647796630859e+00
5.300000000000000000e+01 1.026334762573242188e+01 -1.406566202640533447e-01 2.549183654785156250e+01 4.036378860473632812e+01 1.975668716430664062e+01 -5.747592449188232422e+00
5.400000000000000000e+01 1.043891334533691406e+01 -2.344277054071426392e-01 1.891082191467285156e+01 3.206139373779296875e+01 1.529166507720947266e+01 -5.239673137664794922e+00
5.500000000000000000e+01 1.061447906494140625e+01 -3.281987905502319336e-01 1.490150547027587891e+01 2.756276512145996094e+01 1.273928070068359375e+01 -5.025693893432617188e+00
5.600000000000000000e+01 1.079004383087158203e+01 -4.219698905944824219e-01 1.309623241424560547e+01 2.399417686462402344e+01 1.112712287902832031e+01 -4.522412776947021484e+00
5.700000000000000000e+01 1.028571796417236328e+01 -8.661302924156188965e-02 2.820291519165039062e+01 3.791250610351562500e+01 1.983462715148925781e+01 -3.805079221725463867e+00
5.800000000000000000e+01 1.047619628906250000e+01 -1.443550437688827515e-01 2.134543609619140625e+01 3.051205825805664062e+01 1.555724811553955078e+01 -4.000535488128662109e+00
5.900000000000000000e+01 1.066667461395263672e+01 -2.020970582962036133e-01 1.748252868652343750e+01 2.534133720397949219e+01 1.284716033935546875e+01 -3.610657215118408203e+00
6.000000000000000000e+01 1.085715293884277344e+01 -2.598390877246856689e-01 1.458626079559326172e+01 2.310639381408691406e+01 1.130779647827148438e+01 -3.781697034835815430e+00
6.100000000000000000e+01 1.029712104797363281e+01 -2.924515865743160248e-02 2.967464447021484375e+01 3.762488174438476562e+01 2.018985748291015625e+01 -1.357982397079467773e+00
6.200000000000000000e+01 1.049520206451416016e+01 -4.874193295836448669e-02 2.240711784362792969e+01 2.868127822875976562e+01 1.532651901245117188e+01 -1.460139989852905273e+00
6.300000000000000000e+01 1.069328308105468750e+01 -6.823870539665222168e-02 1.851904106140136719e+01 2.532809638977050781e+01 1.315414142608642578e+01 -2.000752925872802734e+00
6.400000000000000000e+01 1.089136409759521484e+01 -8.773547410964965820e-02 1.585461139678955078e+01 2.121163177490234375e+01 1.111987304687500000e+01 -1.507466077804565430e+00
6.500000000000000000e+01 1.029712104797363281e+01 2.924515865743160248e-02 2.878407096862792969e+01 3.637118911743164062e+01 1.954657936096191406e+01 1.685209274291992188e+00
6.600000000000000000e+01 1.049520206451416016e+01 4.874193295836448669e-02 2.247004318237304688e+01 3.015759277343750000e+01 1.578829097747802734e+01 8.364180326461791992e-01
6.700000000000000000e+01 1.069328308105468750e+01 6.823870539665222168e-02 1.777976036071777344e+01 2.433106040954589844e+01 1.263324642181396484e+01 7.173082232475280762e-01
6.800000000000000000e+01 1.089136409759521484e+01 8.773547410964965820e-02 1.562970638275146484e+01 2.245759582519531250e+01 1.142619037628173828e+01 -3.488954603672027588e-01
6.900000000000000000e+01 1.028571796417236328e+01 8.661302924156188965e-02 2.772296905517578125e+01 3.951900100708007812e+01 2.017259025573730469e+01 3.926137208938598633e+00
7.000000000000000000e+01 1.047619628906250000e+01 1.443550437688827515e-01 1.963036537170410156e+01 2.977551078796386719e+01 1.482176303863525391e+01 3.539231777191162109e+00
7.100000000000000000e+01 1.066667461395263672e+01 2.020970582962036133e-01 1.672851562500000000e+01 2.720927429199218750e+01 1.318133640289306641e+01 1.996095061302185059e+00
7.200000000000000000e+01 1.085715293884277344e+01 2.598390877246856689e-01 1.332758617401123047e+01 2.230751228332519531e+01 1.069052982330322266e+01 2.110388278961181641e+00
7.300000000000000000e+01 1.026334762573242188e+01 1.406566202640533447e-01 2.291385459899902344e+01 3.962862014770507812e+01 1.876274108886718750e+01 6.412788391113281250e+00
7.400000000000000000e+01 1.043891334533691406e+01 2.344277054071426392e-01 1.756485176086425781e+01 3.416703796386718750e+01 1.551956653594970703e+01 4.049920082092285156e+00
7.500000000000000000e+01 1.061447906494140625e+01 3.281987905502319336e-01 1.259392833709716797e+01 2.730203056335449219e+01 1.196878719329833984e+01 3.864431381225585938e+00
7.600000000000000000e+01 1.079004383087158203e+01 4.219698905944824219e-01 1.200337696075439453e+01 2.596990203857421875e+01 1.139198303222656250e+01 1.937439799308776855e+00
7.700000000000000000e+01 1.023087024688720703e+01 1.893017292022705078e-01 2.016462135314941406e+01 4.494080734252929688e+01 1.953162765502929688e+01 6.021846294403076172e+00
7.800000000000000000e+01 1.038478469848632812e+01 3.155028820037841797e-01 1.167193794250488281e+01 3.471068572998046875e+01 1.391478729248046875e+01 4.916551113128662109e+00
7.900000000000000000e+01 1.053869819641113281e+01 4.417040348052978516e-01 1.071662998199462891e+01 3.152190017700195312e+01 1.267155838012695312e+01 2.573864459991455078e+00
8.000000000000000000e+01 1.069261169433593750e+01 5.679051876068115234e-01 6.838599681854248047e+00 2.645392036437988281e+01 9.987755775451660156e+00 2.691667556762695312e+00
8.100000000000000000e+01 1.018953227996826172e+01 2.306813150644302368e-01 1.264584541320800781e+01 4.609135818481445312e+01 1.762116050720214844e+01 5.731660842895507812e+00
8.200000000000000000e+01 1.031588745117187500e+01 3.844688534736633301e-01 9.654130935668945312e+00 3.888693237304687500e+01 1.456231975555419922e+01 2.297278165817260742e+00
8.300000000000000000e+01 1.044224262237548828e+01 5.382564067840576172e-01 4.872744083404541016e+00 3.188066864013671875e+01 1.102602386474609375e+01 1.990032315254211426e+00
8.400000000000000000e+01 1.056859779357910156e+01 6.920439004898071289e-01 5.615609169006347656e+00 2.964131355285644531e+01 1.057707691192626953e+01 3.596066832542419434e-01
8.500000000000000000e+01 1.014091968536376953e+01 2.632071673870086670e-01 1.023475837707519531e+01 5.006827545166015625e+01 1.809090995788574219e+01 1.888394355773925781e+00
8.600000000000000000e+01 1.023486614227294922e+01 4.386786222457885742e-01 3.532903432846069336e+00 3.875615310668945312e+01 1.268671607971191406e+01 9.220582991838455200e-02
8.700000000000000000e+01 1.032881259918212891e+01 6.141500473022460938e-01 3.985282182693481445e+00 3.427943801879882812e+01 1.147941589355468750e+01 -1.488893270492553711e+00
8.800000000000000000e+01 1.042275905609130859e+01 7.896215319633483887e-01 6.616807579994201660e-01 2.928262710571289062e+01 8.983291625976562500e+00 -1.477047681808471680e+00
8.900000000000000000e+01 1.008689880371093750e+01 2.856309711933135986e-01 3.950696468353271484e+00 4.969725799560546875e+01 1.609438514709472656e+01 -2.340360879898071289e+00
9.000000000000000000e+01 1.014483070373535156e+01 4.760516285896301270e-01 3.221686124801635742e+00 3.957542419433593750e+01 1.283913326263427734e+01 -4.324184417724609375e+00
9.100000000000000000e+01 1.020276355743408203e+01 6.664722561836242676e-01 -2.656787633895874023e-01 3.280149841308593750e+01 9.760745048522949219e+00 -4.391315460205078125e+00
9.200000000000000000e+01 1.026069545745849609e+01 8.568928837776184082e-01 7.786314487457275391e-01 3.006791877746582031e+01 9.253964424133300781e+00 -4.882161140441894531e+00
9.300000000000000000e+01 1.002954196929931641e+01 2.970920503139495850e-01 3.729684352874755859e+00 4.891062164306640625e+01 1.579209232330322266e+01 -8.029257774353027344e+00
9.400000000000000000e+01 1.004923725128173828e+01 4.951534271240234375e-01 2.939839363098144531e-01 3.660077285766601562e+01 1.106842708587646484e+01 -8.297324180603027344e+00
9.500000000000000000e+01 1.006893157958984375e+01 6.932148337364196777e-01 4.448966383934020996e-01 3.145978736877441406e+01 9.571405410766601562e+00 -8.183175086975097656e+00
9.600000000000000000e+01 1.008862686157226562e+01 8.912761807441711426e-01 -1.145663380622863770e+00 2.698768424987792969e+01 7.752606391906738281e+00 -7.649667263031005859e+00
9.700000000000000000e+01 9.971052169799804688e+00 2.971505522727966309e-01 2.593194484710693359e+00 4.413071823120117188e+01 1.401717376708984375e+01 -1.346271800994873047e+01
9.800000000000000000e+01 9.951753616333007812e+00 4.952509105205535889e-01 1.605309724807739258e+00 3.290626144409179688e+01 1.035347080230712891e+01 -1.206263923645019531e+01
9.900000000000000000e+01 9.932455062866210938e+00 6.933512687683105469e-01 -1.068742722272872925e-01 2.710182952880859375e+01 8.098486900329589844e+00 -1.087032318115234375e+01
1.000000000000000000e+02 9.913155555725097656e+00 8.914516568183898926e-01 -2.729593515396118164e-01 2.413331031799316406e+01 7.158105373382568359e+00 -1.073982620239257812e+01
1.010000000000000000e+02 9.913672447204589844e+00 2.858042120933532715e-01 4.854525089263916016e+00 3.750273895263671875e+01 1.270717906951904297e+01 -1.769318389892578125e+01
1.020000000000000000e+02 9.856121063232421875e+00 4.763403236865997314e-01 2.593920469284057617e+00 2.682687568664550781e+01 8.826238632202148438e+00 -1.432515525817871094e+01
1.030000000000000000e+02 9.798569679260253906e+00 6.668764352798461914e-01 1.437349557876586914e+00 2.199691581726074219e+01 7.030280113220214844e+00 -1.297408390045166016e+01
1.040000000000000000e+02 9.741018295288085938e+00 8.574125766754150391e-01 3.054396808147430420e-01 1.972653961181640625e+01 6.009593486785888672e+00 -1.128188514709472656e+01
1.050000000000000000e+02 9.859606742858886719e+00 2.634885013103485107e-01 7.723815441131591797e+00 2.895640182495117188e+01 1.100406455993652344e+01 -1.947567939758300781e+01
1.060000000000000000e+02 9.766011238098144531e+00 4.391474723815917969e-01 4.525842666625976562e+00 1.968706893920898438e+01 7.263873577117919922e+00 -1.525256443023681641e+01
1.070000000000000000e+02 9.672415733337402344e+00 6.148064732551574707e-01 2.698693037033081055e+00 1.637857055664062500e+01 5.723179340362548828e+00 -1.269721126556396484e+01
1.080000000000000000e+02 9.578820228576660156e+00 7.904654741287231445e-01 1.822997808456420898e+00 1.359720706939697266e+01 4.626061439514160156e+00 -1.159362316131591797e+01
1.090000000000000000e+02 9.810929298400878906e+00 2.310599088668823242e-01 1.048305892944335938e+01 1.905469131469726562e+01 8.861325263977050781e+00 -1.886384010314941406e+01
1.100000000000000000e+02 9.684882164001464844e+00 3.850998580455780029e-01 5.897671222686767578e+00 1.299276447296142578e+01 5.667130947113037109e+00 -1.363131046295166016e+01
1.110000000000000000e+02 9.558835029602050781e+00 5.391398072242736816e-01 3.729245901107788086e+00 9.837003707885742188e+00 4.069874763488769531e+00 -1.135938930511474609e+01
1.120000000000000000e+02 9.432787895202636719e+00 6.931797266006469727e-01 2.099253416061401367e+00 9.386431694030761719e+00 3.445705652236938477e+00 -9.910708427429199219e+00
1.130000000000000000e+02 9.769508361816406250e+00 1.897630989551544189e-01 1.197618865966796875e+01 1.053576278686523438e+01 6.753585338592529297e+00 -1.514313697814941406e+01
1.140000000000000000e+02 9.615847587585449219e+00 3.162718117237091064e-01 5.685287475585937500e+00 5.972904682159423828e+00 3.497457742691040039e+00 -1.038090324401855469e+01
1.150000000000000000e+02 9.462185859680175781e+00 4.427805542945861816e-01 3.121111869812011719e+00 5.670082092285156250e+00 2.637358188629150391e+00 -8.399399757385253906e+00
1.160000000000000000e+02 9.308525085449218750e+00 5.692892670631408691e-01 1.642630219459533691e+00 4.518230438232421875e+00 1.848258256912231445e+00 -7.268857479095458984e+00
1.170000000000000000e+02 9.736933708190917969e+00 1.411830335855484009e-01 9.892909049987792969e+00 2.431023120880126953e+00 3.697179555892944336e+00 -9.379267692565917969e+00
1.180000000000000000e+02 9.561555862426757812e+00 2.353050708770751953e-01 3.417416572570800781e+00 2.008919239044189453e+00 1.627900719642639160e+00 -5.787233352661132812e+00
1.190000000000000000e+02 9.386178970336914062e+00 3.294270932674407959e-01 2.266826182603836060e-01 1.846697807312011719e+00 6.220141649246215820e-01 -4.689640045166015625e+00
1.200000000000000000e+02 9.210802078247070312e+00 4.235491156578063965e-01 -7.890716791152954102e-01 2.712357759475708008e+00 5.769858360290527344e-01 -4.615459442138671875e+00
1.210000000000000000e+02 9.714455604553222656e+00 8.718428760766983032e-02 4.133911609649658203e+00 -2.132392406463623047e+00 6.004558205604553223e-01 -1.985826730728149414e+00
1.220000000000000000e+02 9.524093627929687500e+00 1.453071534633636475e-01 -3.299396276473999023e+00 -1.781415343284606934e-01 -1.043261289596557617e+00 -1.325564146041870117e+00
1.230000000000000000e+02 9.333730697631835938e+00 2.034300118684768677e-01 -3.576057910919189453e+00 1.354858875274658203e+00 -6.663596630096435547e-01 -2.412625074386596680e+00
1.240000000000000000e+02 9.143367767333984375e+00 2.615528702735900879e-01 -4.794885635375976562e+00 -7.259483635425567627e-02 -1.460244178771972656e+00 -1.423104166984558105e+00
1.250000000000000000e+02 9.702937126159667969e+00 2.983934059739112854e-02 -1.266790866851806641e+01 -3.398615837097167969e+00 -4.819957256317138672e+00 3.249843358993530273e+00
1.260000000000000000e+02 9.504896163940429688e+00 4.973223432898521423e-02 -8.097243309020996094e+00 1.527207612991333008e+00 -1.971010565757751465e+00 -6.706810593605041504e-01
1.270000000000000000e+02 9.306854248046875000e+00 6.962513178586959839e-02 -9.507353782653808594e+00 -8.428418040275573730e-01 -3.105058670043945312e+00 1.842565536499023438e-01
1.280000000000000000e+02 9.108813285827636719e+00 8.951802551746368408e-02 -9.921676635742187500e+00 4.967726469039916992e-01 -2.827471017837524414e+00 -9.613690525293350220e-02
1.290000000000000000e+02 1.158342361450195312e-01 -9.552106857299804688e-01 -4.107941407710313797e-03 -6.634274870157241821e-02 -2.113520726561546326e-02 -2.065660990774631500e-02
1.300000000000000000e+02 9.452310949563980103e-02 -5.196542143821716309e-01 -6.269814446568489075e-03 -1.013638172298669815e-02 -4.921858664602041245e-03 -9.468135423958301544e-03
1.310000000000000000e+02 8.047272264957427979e-02 -3.348883092403411865e-01 -2.557682746555656195e-04 4.540907684713602066e-03 1.285541802644729614e-03 2.011024858802556992e-03
1.320000000000000000e+02 6.704595088958740234e-01 -1.189597725868225098e+00 -2.995573915541172028e-02 -1.133267357945442200e-01 -4.298474267125129700e-02 -1.341317594051361084e-01
1.330000000000000000e+02 4.989198446273803711e-01 -1.392871141433715820e+00 -2.363228797912597656e-02 -1.472600102424621582e-01 -5.126768723130226135e-02 -1.262113898992538452e-01
1.340000000000000000e+02 6.919136643409729004e-01 -1.388064265251159668e+00 -4.118235036730766296e-02 -1.553469598293304443e-01 -5.895879119634628296e-02 -1.494480520486831665e-01
1.350000000000000000e+02 2.494502544403076172e+00 -1.354987144470214844e+00 -1.047145351767539978e-01 -3.859542775899171829e-03 -3.257222101092338562e-02 -2.715402841567993164e-01
1.360000000000000000e+02 2.919969081878662109e+00 -1.376239299774169922e+00 -1.119555532932281494e-01 2.135872095823287964e-02 -2.717905119061470032e-02 -2.580054998397827148e-01
1.370000000000000000e+02 2.470916032791137695e+00 -1.059127449989318848e+00 -2.180607169866561890e-01 -8.499679155647754669e-03 -6.796811521053314209e-02 -2.593706846237182617e-01
1.380000000000000000e+02 2.876306295394897461e+00 -9.978117346763610840e-01 -2.825442850589752197e-01 6.815910805016756058e-03 -8.271851390600204468e-02 -2.472471594810485840e-01
1.390000000000000000e+02 2.802544832229614258e+00 -6.208453774452209473e-01 -4.340673685073852539e-01 -5.182001274079084396e-03 -1.317748129367828369e-01 -1.893747299909591675e-01
1.400000000000000000e+02 3.299050569534301758e+00 -1.486306041479110718e-01 -8.557472229003906250e-01 2.467341953888535500e-03 -2.559839487075805664e-01 -5.025309324264526367e-02
1.410000000000000000e+02 3.092912435531616211e+00 -1.450943201780319214e-01 -7.848785519599914551e-01 -7.135520572774112225e-04 -2.356776297092437744e-01 -5.269045382738113403e-02
1.420000000000000000e+02 3.699659109115600586e+00 -1.269613206386566162e-01 -9.967174530029296875e-01 2.475404471624642611e-04 -2.989409863948822021e-01 -4.760154336690902710e-02
1.430000000000000000e+02 3.894185304641723633e+00 -1.247326359152793884e-01 -1.073191046714782715e+00 4.072649404406547546e-03 -3.207355141639709473e-01 -4.403983429074287415e-02
1.440000000000000000e+02 5.521253585815429688e+00 -1.368425250053405762e+00 3.778073191642761230e-01 1.887163221836090088e-01 1.699570864439010620e-01 1.563270688056945801e-01
1.450000000000000000e+02 5.718832492828369141e+00 -1.378246426582336426e+00 4.941133260726928711e-01 1.880344748497009277e-01 2.046443372964859009e-01 2.227520495653152466e-01
1.460000000000000000e+02 5.892667293548583984e+00 -1.387828886508941650e-01 -1.652858257293701172e+00 1.212288811802864075e-02 -4.922206103801727295e-01 -3.715228289365768433e-02
1.470000000000000000e+02 5.484801769256591797e+00 -1.456770151853561401e-01 -1.561563968658447266e+00 9.314014576375484467e-03 -4.656749963760375977e-01 -3.885308653116226196e-02
1.480000000000000000e+02 6.314941406250000000e+00 -1.399257540702819824e+00 9.130700826644897461e-01 3.669045865535736084e-01 3.839924037456512451e-01 5.465591549873352051e-01
1.490000000000000000e+02 6.297612190246582031e+00 -1.303483098745346069e-01 -1.736533761024475098e+00 1.166576799005270004e-02 -5.174604058265686035e-01 -3.461060672998428345e-02
1.500000000000000000e+02 6.114730358123779297e+00 -1.392511487007141113e+00 7.552732825279235840e-01 2.467647790908813477e-01 3.006114065647125244e-01 3.952272534370422363e-01
1.510000000000000000e+02 6.672454357147216797e+00 -1.408431291580200195e+00 1.199687004089355469e+00 4.925383031368255615e-01 5.076676011085510254e-01 7.765939235687255859e-01
1.520000000000000000e+02 7.689256191253662109e+00 -1.350958108901977539e+00 2.522592306137084961e+00 1.169860959053039551e+00 1.107735991477966309e+00 1.912771701812744141e+00
1.530000000000000000e+02 8.410909652709960938e+00 -3.483122587203979492e-01 6.832490563392639160e-01 1.318824887275695801e-01 2.445394545793533325e-01 6.566944718360900879e-01
1.540000000000000000e+02 8.302818298339843750e+00 -1.324055194854736328e+00 3.668343305587768555e+00 2.437476158142089844e+00 1.831745743751525879e+00 3.315027236938476562e+00
1.550000000000000000e+02 9.688844680786132812e+00 -1.044457077980041504e+00 4.262515068054199219e+00 1.665508460998535156e+01 6.275279998779296875e+00 8.330294609069824219e+00
1.560000000000000000e+02 1.025903892517089844e+01 -1.133519649505615234e+00 2.207593202590942383e+00 2.386056900024414062e+01 7.820448875427246094e+00 2.580214977264404297e+00
1.570000000000000000e+02 1.073481464385986328e+01 -1.144141316413879395e+00 3.246646881103515625e+00 2.261955451965332031e+01 7.759860515594482422e+00 -1.905775427818298340e+00
1.580000000000000000e+02 1.108393096923828125e+01 -2.791437804698944092e-01 1.294429302215576172e+01 1.981728935241699219e+01 9.828474044799804688e+00 -3.064319849014282227e+00
1.590000000000000000e+02 1.110609245300292969e+01 -8.639926463365554810e-02 1.382089042663574219e+01 2.003843116760253906e+01 1.015779685974121094e+01 -2.039042711257934570e+00
1.600000000000000000e+02 1.125073242187500000e+01 3.355023860931396484e-01 1.051223564147949219e+01 1.859885787963867188e+01 8.733327865600585938e+00 7.515251636505126953e-01
1.610000000000000000e+02 1.096120643615722656e+01 5.763402581214904785e-01 8.308574676513671875e+00 2.204305839538574219e+01 9.105489730834960938e+00 2.207312345504760742e+00
1.620000000000000000e+02 1.065928459167480469e+01 8.806247115135192871e-01 2.261956691741943359e+00 2.581686592102050781e+01 8.423646926879882812e+00 -9.374573081731796265e-02
1.630000000000000000e+02 9.162257194519042969e+00 1.101857781410217285e+00 4.746147394180297852e-01 8.440605163574218750e+00 2.674566030502319336e+00 -7.808429241180419922e+00
1.640000000000000000e+02 8.909451484680175781e+00 1.364026308059692383e+00 3.668393008410930634e-03 7.589655399322509766e+00 2.277997255325317383e+00 -6.584730148315429688e+00
1.650000000000000000e+02 8.948912620544433594e+00 3.158051371574401855e-01 -5.426679611206054688e+00 7.029059529304504395e-01 -1.417132019996643066e+00 -1.628900766372680664e+00
1.660000000000000000e+02 8.910804748535156250e+00 1.078275069594383240e-01 -1.033147239685058594e+01 -2.685058414936065674e-01 -3.179993391036987305e+00 4.860928654670715332e-02
1.670000000000000000e+02 8.536369323730468750e+00 3.947198987007141113e-01 -6.595203399658203125e+00 5.062364935874938965e-01 -1.826689958572387695e+00 -9.431507587432861328e-01
1.680000000000000000e+02 9.712758064270019531e+00 1.387733101844787598e+00 -1.003929376602172852e+00 1.829649734497070312e+01 5.187769889831542969e+00 -9.197823524475097656e+00
1.690000000000000000e+02 9.905720710754394531e+00 1.375819563865661621e+00 -1.134898662567138672e+00 2.021568489074707031e+01 5.724236011505126953e+00 -9.611108779907226562e+00
1.700000000000000000e+02 8.702444076538085938e+00 1.370556354522705078e+00 6.194299459457397461e-01 5.712166309356689453e+00 1.899478912353515625e+00 -5.796709537506103516e+00
1.710000000000000000e+02 8.508754730224609375e+00 1.347165107727050781e-01 -1.085741138458251953e+01 1.766457036137580872e-02 -3.251924037933349609e+00 6.601409614086151123e-02
1.720000000000000000e+02 8.101596832275390625e+00 1.356433868408203125e+00 -8.731091022491455078e-01 3.156502485275268555e+00 6.850180029869079590e-01 -2.620420217514038086e+00
1.730000000000000000e+02 8.103774070739746094e+00 1.460121721029281616e-01 -1.105544376373291016e+01 -5.195655394345521927e-04 -3.316788911819458008e+00 9.141504019498825073e-02
1.740000000000000000e+02 5.695895671844482422e+00 1.386821031570434570e+00 -2.604330062866210938e+00 3.677112460136413574e-01 -6.709856390953063965e-01 1.502585887908935547e+00
1.750000000000000000e+02 5.114307403564453125e+00 1.096266388893127441e+00 -3.374557971954345703e+00 8.803274482488632202e-02 -9.859575629234313965e-01 1.578956842422485352e+00
1.760000000000000000e+02 5.508736133575439453e+00 1.152617573738098145e+00 -3.400269269943237305e+00 2.059002667665481567e-01 -9.583106637001037598e-01 1.537233471870422363e+00
1.770000000000000000e+02 3.705371618270874023e+00 1.385451078414916992e+00 -1.754525542259216309e+00 -1.033472046256065369e-01 -5.573618412017822266e-01 1.733086228370666504e+00
1.780000000000000000e+02 3.707933187484741211e+00 1.598374396562576294e-01 -3.880901336669921875e+00 4.341468960046768188e-02 -1.151245951652526855e+00 3.097634017467498779e-01
1.790000000000000000e+02 4.129785537719726562e+00 8.771088123321533203e-01 -3.099999189376831055e+00 -4.668151587247848511e-02 -9.440042376518249512e-01 1.380712747573852539e+00
1.800000000000000000e+02 3.529339075088500977e+00 6.908538937568664551e-01 -2.746289491653442383e+00 -1.246759444475173950e-01 -8.612896800041198730e-01 1.074727892875671387e+00
1.810000000000000000e+02 3.317279100418090820e+00 1.370108008384704590e+00 -1.588784337043762207e+00 -1.532438397407531738e-01 -5.226084589958190918e-01 1.665018677711486816e+00
1.820000000000000000e+02 3.117893695831298828e+00 1.336868524551391602e+00 -1.472386956214904785e+00 -2.376127988100051880e-01 -5.129999518394470215e-01 1.651581764221191406e+00
1.830000000000000000e+02 3.043033838272094727e+00 8.875674605369567871e-01 -1.976065754890441895e+00 -9.604719281196594238e-02 -6.216338872909545898e-01 1.276049494743347168e+00
1.840000000000000000e+02 2.487853288650512695e+00 1.092489838600158691e+00 -1.285451412200927734e+00 -2.443244606256484985e-01 -4.589327573776245117e-01 1.309050559997558594e+00
1.850000000000000000e+02 2.895749568939208984e+00 1.686940938234329224e-01 -2.411333799362182617e+00 2.502141334116458893e-02 -7.158937454223632812e-01 2.499667406082153320e-01
1.860000000000000000e+02 2.300387144088745117e+00 1.371603012084960938e+00 -9.444860219955444336e-01 -3.663121163845062256e-01 -3.932394385337829590e-01 1.449840664863586426e+00
1.870000000000000000e+02 9.027634263038635254e-01 1.380576014518737793e+00 -2.285007387399673462e-01 -5.467531085014343262e-01 -2.325761616230010986e-01 6.268807649612426758e-01
1.880000000000000000e+02 7.064817547798156738e-01 1.379356741905212402e+00 -1.244856417179107666e-01 -6.082682609558105469e-01 -2.198261767625808716e-01 5.368168950080871582e-01
1.890000000000000000e+02 5.074881911277770996e-01 1.412107199430465698e-01 -3.827715991064906120e-04 -2.241428010165691376e-02 -6.839115638285875320e-03 1.218626275658607483e-02
1.900000000000000000e+02 1.111962795257568359e+00 1.164401471614837646e-01 -1.578447222709655762e-01 -1.314849406480789185e-02 -5.129796639084815979e-02 5.656061321496963501e-02
1.910000000000000000e+02 3.042126297950744629e-01 1.387158036231994629e+00 -1.035438571125268936e-02 -5.994894504547119141e-01 -1.829531490802764893e-01 2.966163158416748047e-01
1.920000000000000000e+02 1.001381948590278625e-01 9.661881327629089355e-01 -1.154945045709609985e-02 -1.033870056271553040e-01 -3.448093682527542114e-02 3.885732218623161316e-02
1.930000000000000000e+02 9.696643054485321045e-02 7.573472261428833008e-01 2.569040807429701090e-04 -2.633118815720081329e-02 -7.822285406291484833e-03 2.745889499783515930e-02
1.940000000000000000e+02 9.930790960788726807e-02 3.400205671787261963e-01 6.257711211219429970e-04 1.622051745653152466e-02 5.053886678069829941e-03 -5.975654814392328262e-03
1.950000000000000000e+02 9.669021517038345337e-02 5.493029952049255371e-01 -1.587693765759468079e-02 9.174407459795475006e-03 -2.010759199038147926e-03 8.678736165165901184e-03
1.960000000000000000e+02 3.021513521671295166e-01 1.321522593498229980e-01 9.183742105960845947e-03 5.925913574174046516e-04 2.932899864390492439e-03 -1.903235912322998047e-03
1.970000000000000000e+02 9.223401546478271484e-01 1.477951705455780029e-01 -8.525918424129486084e-02 -8.252160623669624329e-03 -2.805340290069580078e-02 3.649468347430229187e-02
1.980000000000000000e+02 1.470306277275085449e+00 1.393156498670578003e-01 -5.077191591262817383e-01 -2.658696658909320831e-02 -1.602918356657028198e-01 1.179357245564460754e-01
1.990000000000000000e+02 1.504559159278869629e+00 1.359539151191711426e+00 -4.852161705493927002e-01 -5.178481936454772949e-01 -3.009193241596221924e-01 1.018283486366271973e+00
2.000000000000000000e+02 1.882001399993896484e+00 1.690664887428283691e-01 -9.589793086051940918e-01 -1.289020013064146042e-02 -2.915608584880828857e-01 1.900285333395004272e-01
2.010000000000000000e+02 1.675266385078430176e+00 1.561140567064285278e-01 -7.234603762626647949e-01 -3.270345926284790039e-02 -2.268491536378860474e-01 1.596300601959228516e-01
2.020000000000000000e+02 2.088147163391113281e+00 1.728044748306274414e-01 -1.197735548019409180e+00 -5.243570543825626373e-03 -3.608937263488769531e-01 1.965569704771041870e-01
2.030000000000000000e+02 1.910987615585327148e+00 1.378558754920959473e+00 -7.136951088905334473e-01 -4.296438694000244141e-01 -3.430016934871673584e-01 1.262886166572570801e+00
2.040000000000000000e+02 3.938179492950439453e+00 4.657450318336486816e-01 -3.727057695388793945e+00 1.953000016510486603e-02 -1.112258315086364746e+00 8.281537294387817383e-01
2.050000000000000000e+02 4.308200359344482422e+00 1.459887772798538208e-01 -5.071678638458251953e+00 -5.289949849247932434e-02 -1.537373423576354980e+00 2.927395105361938477e-01
2.060000000000000000e+02 5.096124649047851562e+00 1.248127669095993042e-01 -6.750947952270507812e+00 -5.399937927722930908e-02 -2.041484117507934570e+00 2.746584713459014893e-01
2.070000000000000000e+02 6.690669059753417969e+00 1.378771901130676270e+00 -2.502522230148315430e+00 6.796187758445739746e-01 -5.468710064888000488e-01 7.163608670234680176e-01
2.080000000000000000e+02 7.113923072814941406e+00 3.806204199790954590e-01 -8.435335159301757812e+00 1.692045181989669800e-01 -2.479839324951171875e+00 5.114879608154296875e-01
2.090000000000000000e+02 7.700154304504394531e+00 1.426025778055191040e-01 -1.101306819915771484e+01 6.011097505688667297e-02 -3.285887241363525391e+00 2.259595245122909546e-01
2.100000000000000000e+02 7.701015472412109375e+00 6.891489624977111816e-01 -5.768527030944824219e+00 5.037120580673217773e-01 -1.579444527626037598e+00 -7.252953201532363892e-02
2.110000000000000000e+02 9.123010635375976562e+00 7.135878205299377441e-01 4.576013684272766113e-01 4.858728408813476562e+00 1.594899058341979980e+00 -6.631743431091308594e+00
2.120000000000000000e+02 9.280339241027832031e+00 8.688903450965881348e-01 1.492175817489624023e+00 7.616631031036376953e+00 2.732641935348510742e+00 -8.640305519104003906e+00
2.130000000000000000e+02 1.029301166534423828e+01 1.328771829605102539e+00 -9.314530491828918457e-01 2.427462005615234375e+01 7.002949714660644531e+00 -6.523659229278564453e+00
2.140000000000000000e+02 1.085127162933349609e+01 -7.153082489967346191e-01 8.784871101379394531e+00 2.331478118896484375e+01 9.629896163940429688e+00 -4.422307491302490234e+00
2.150000000000000000e+02 1.038669395446777344e+01 -1.044695854187011719e+00 2.488741636276245117e+00 2.532506179809570312e+01 8.344141006469726562e+00 1.121963143348693848e+00
2.160000000000000000e+02 1.023865318298339844e+01 -1.373344063758850098e+00 1.520946264266967773e+00 2.125248908996582031e+01 6.832030773162841797e+00 3.001648187637329102e+00
2.170000000000000000e+02 8.705793380737304688e+00 -4.061450958251953125e-01 2.420353889465332031e+00 4.854192733764648438e-01 8.717319965362548828e-01 1.343619108200073242e+00
2.180000000000000000e+02 7.281956672668457031e+00 -1.351641416549682617e+00 1.885125637054443359e+00 6.925866603851318359e-01 7.733137011528015137e-01 1.270435333251953125e+00
2.190000000000000000e+02 6.853759765625000000e+00 -1.359755992889404297e+00 1.353040933609008789e+00 5.182957649230957031e-01 5.614010095596313477e-01 8.786562681198120117e-01
2.200000000000000000e+02 6.702738761901855469e+00 -1.331013590097427368e-01 -1.805268287658691406e+00 1.442164462059736252e-02 -5.372539758682250977e-01 -2.776399068534374237e-02
2.210000000000000000e+02 5.115441322326660156e+00 -1.330337047576904297e+00 1.567610353231430054e-01 1.289471685886383057e-01 8.571246266365051270e-02 3.063757345080375671e-02
2.220000000000000000e+02 2.153861999511718750e+00 -1.689965426921844482e-01 -4.074628055095672607e-01 1.864371076226234436e-02 -1.166457310318946838e-01 -6.073302030563354492e-02
2.230000000000000000e+02 2.294748306274414062e+00 -1.361813902854919434e+00 -1.084756851196289062e-01 -2.826383337378501892e-02 -4.102185741066932678e-02 -2.707893848419189453e-01
2.240000000000000000e+02 1.729924559593200684e+00 -4.902286231517791748e-01 -2.390792071819305420e-01 -1.718476042151451111e-02 -7.687919586896896362e-02 -1.351190060377120972e-01
2.250000000000000000e+02 1.307962417602539062e+00 -1.655665636062622070e-01 -1.563496440649032593e-01 -5.922336596995592117e-03 -4.868159443140029907e-02 -3.887633979320526123e-02
2.260000000000000000e+02 1.026552543044090271e-01 -1.392542600631713867e+00 1.755519653670489788e-03 -1.239150092005729675e-01 -3.664784878492355347e-02 -6.853770464658737183e-03
2.270000000000000000e+02 9.305203437805175781e+00 -8.744363784790039062e-01 6.635800838470458984e+00 7.822697162628173828e+00 4.337549209594726562e+00 7.565945625305175781e+00
2.280000000000000000e+02 1.704760074615478516e+00 -1.067720770835876465e+00 -1.382419764995574951e-01 -4.995787516236305237e-02 -5.645995587110519409e-02 -2.367941886186599731e-01
2.290000000000000000e+02 3.718739748001098633e+00 4.421119987964630127e-01 -3.403456211090087891e+00 -8.404768258333206177e-02 -1.046251177787780762e+00 7.979362607002258301e-01
2.300000000000000000e+02 9.469409942626953125e+00 9.639760851860046387e-01 8.537595868110656738e-01 1.323318004608154297e+01 4.226081848144531250e+00 -1.032906723022460938e+01
2.310000000000000000e+02 3.109212875366210938e+00 -1.420225858688354492e+00 -7.800257951021194458e-02 5.206195265054702759e-02 -7.782188709825277328e-03 -2.431271523237228394e-01
2.320000000000000000e+02 3.673345804214477539e+00 -1.356542825698852539e+00 -8.820900321006774902e-02 5.108680948615074158e-02 -1.113665662705898285e-02 -1.926904469728469849e-01
2.330000000000000000e+02 9.901885986328125000e+00 -1.074750423431396484e+00 2.835449695587158203e+00 2.058965492248535156e+01 7.027531147003173828e+00 7.029139518737792969e+00
2.340000000000000000e+02 1.107758998870849609e+01 1.039674431085586548e-01 1.355857944488525391e+01 1.921480560302734375e+01 9.832015037536621094e+00 3.987927138805389404e-01
2.350000000000000000e+02 1.089429092407226562e+01 9.207270741462707520e-01 3.286045312881469727e+00 2.352108955383300781e+01 8.042140007019042969e+00 8.247826099395751953e-01
2.360000000000000000e+02 1.080690765380859375e+01 1.168788671493530273e+00 1.696941256523132324e+00 2.261156272888183594e+01 7.292551040649414062e+00 -1.175151109695434570e+00
2.370000000000000000e+02 1.065894412994384766e+01 1.228479743003845215e+00 1.105329036712646484e+00 2.467263603210449219e+01 7.733389377593994141e+00 -2.742843627929687500e+00
2.380000000000000000e+02 1.009926033020019531e+01 1.109326839447021484e+00 -1.034440517425537109e+00 2.518206787109375000e+01 7.244288444519042969e+00 -8.192902565002441406e+00
2.390000000000000000e+02 9.517053604125976562e+00 1.392658829689025879e+00 -1.602965891361236572e-01 1.509923171997070312e+01 4.481680393218994141e+00 -1.001555538177490234e+01
2.400000000000000000e+02 7.899786949157714844e+00 1.355904221534729004e+00 -1.235321402549743652e+00 2.326705694198608398e+00 3.274152874946594238e-01 -2.025238990783691406e+00
2.410000000000000000e+02 7.492914676666259766e+00 1.346846580505371094e+00 -1.897152900695800781e+00 1.660951733589172363e+00 -7.086035609245300293e-02 -8.073852062225341797e-01
2.420000000000000000e+02 6.091519355773925781e+00 1.358504295349121094e+00 -2.711071252822875977e+00 5.232380032539367676e-01 -6.563499569892883301e-01 1.268792271614074707e+00
2.430000000000000000e+02 4.462540626525878906e+00 1.066448926925659180e+00 -2.958313226699829102e+00 -1.083505079150199890e-01 -9.199991226196289062e-01 1.616127252578735352e+00
2.440000000000000000e+02 4.094229698181152344e+00 1.372979164123535156e+00 -2.014874935150146484e+00 -4.100844636559486389e-02 -6.167650222778320312e-01 1.772896051406860352e+00
2.450000000000000000e+02 1.286486506462097168e+00 1.162464618682861328e+00 -4.420451223850250244e-01 -4.359717667102813721e-01 -2.634050548076629639e-01 8.122293949127197266e-01
2.460000000000000000e+02 1.014702394604682922e-01 1.391971230506896973e+00 9.608637541532516479e-02 -2.963446676731109619e-01 -6.007748842239379883e-02 -6.658768747001886368e-03
2.470000000000000000e+02 1.003239825367927551e-01 1.273108571767807007e-01 2.793447580188512802e-03 1.778557896614074707e-03 1.371601596474647522e-03 -3.722961526364088058e-03
2.480000000000000000e+02 7.329292297363281250e-01 4.319826960563659668e-01 -1.705746352672576904e-01 -9.326865524053573608e-02 -7.915298640727996826e-02 1.325092762708663940e-01
2.490000000000000000e+02 1.386239290237426758e+00 3.766362667083740234e-01 -5.170543193817138672e-01 -6.562928110361099243e-02 -1.748050749301910400e-01 3.034807443618774414e-01
2.500000000000000000e+02 2.292985677719116211e+00 1.655435413122177124e-01 -1.465536713600158691e+00 -4.249403253197669983e-02 -4.524092376232147217e-01 2.310488522052764893e-01
2.510000000000000000e+02 2.695286035537719727e+00 1.684379279613494873e-01 -2.099505424499511719e+00 -2.636065334081649780e-02 -6.377598047256469727e-01 2.548159956932067871e-01
2.520000000000000000e+02 3.501118183135986328e+00 4.493677020072937012e-01 -3.070796251296997070e+00 1.554994657635688782e-02 -9.165738821029663086e-01 7.646378278732299805e-01
2.530000000000000000e+02 4.504174232482910156e+00 1.370491534471511841e-01 -5.471370697021484375e+00 5.632510408759117126e-02 -1.624513626098632812e+00 2.922992110252380371e-01
2.540000000000000000e+02 5.468919277191162109e+00 4.039701819419860840e-01 -6.344095706939697266e+00 3.308122605085372925e-02 -1.893304347991943359e+00 7.787852883338928223e-01
2.550000000000000000e+02 5.696718215942382812e+00 1.538996994495391846e-01 -7.947729587554931641e+00 4.043289646506309509e-02 -2.372189044952392578e+00 3.427103161811828613e-01
2.560000000000000000e+02 6.107610225677490234e+00 1.532623320817947388e-01 -8.716422080993652344e+00 4.758601635694503784e-02 -2.600650787353515625e+00 3.493509590625762939e-01
2.570000000000000000e+02 6.509176254272460938e+00 1.416981220245361328e-01 -9.489670753479003906e+00 9.864621609449386597e-02 -2.817307472229003906e+00 3.261585533618927002e-01
2.580000000000000000e+02 6.906415462493896484e+00 1.331113576889038086e-01 -1.016861152648925781e+01 7.862392067909240723e-02 -3.026996135711669922e+00 3.037620484828948975e-01
2.590000000000000000e+02 8.711063385009765625e+00 1.229138299822807312e-01 -1.062931442260742188e+01 1.212611719965934753e-01 -3.152415990829467773e+00 -3.605612739920616150e-02
2.600000000000000000e+02 1.103953266143798828e+01 2.695617675781250000e-01 1.232929611206054688e+01 2.150357055664062500e+01 1.014986038208007812e+01 9.903357028961181641e-01
2.610000000000000000e+02 1.114456081390380859e+01 7.576981186866760254e-01 7.558502197265625000e+00 2.123688507080078125e+01 8.638616561889648438e+00 7.531703114509582520e-01
2.620000000000000000e+02 1.048062229156494141e+01 1.001647591590881348e+00 1.662916541099548340e+00 2.750450706481933594e+01 8.750226974487304688e+00 -3.028164148330688477e+00
2.630000000000000000e+02 8.897590637207031250e+00 -1.108529567718505859e-01 -7.947955727577209473e-01 -1.442010700702667236e-01 -2.816990017890930176e-01 1.653515845537185669e-01
2.640000000000000000e+02 9.020002365112304688e+00 -6.818686127662658691e-01 6.020053386688232422e+00 2.699279785156250000e+00 2.615799903869628906e+00 4.495171070098876953e+00
2.650000000000000000e+02 9.486912727355957031e+00 -9.693363308906555176e-01 5.716966629028320312e+00 1.185690116882324219e+01 5.272160530090332031e+00 8.649785995483398438e+00
2.660000000000000000e+02 1.111808109283447266e+01 -4.630428850650787354e-01 1.141255092620849609e+01 2.026944541931152344e+01 9.504598617553710938e+00 -4.197517395019531250e+00
2.670000000000000000e+02 8.106524467468261719e+00 -1.612324267625808716e-01 -1.490206718444824219e+00 -1.202134042978286743e-01 -4.831260144710540771e-01 5.705464631319046021e-02
2.680000000000000000e+02 6.295588970184326172e+00 -3.674811720848083496e-01 -1.157523751258850098e+00 -6.183980964124202728e-03 -3.491123318672180176e-01 -3.092549927532672882e-02
2.690000000000000000e+02 5.241594791412353516e+00 -4.145678877830505371e-01 -1.038195133209228516e+00 1.746125333011150360e-02 -3.062201738357543945e-01 -8.641262352466583252e-02
2.700000000000000000e+02 4.866126537322998047e+00 -3.414294123649597168e-01 -1.114259362220764160e+00 4.462345037609338760e-03 -3.329391181468963623e-01 -9.889160096645355225e-02
2.710000000000000000e+02 2.643744945526123047e+00 -3.284434974193572998e-01 -5.254856944084167480e-01 -6.715468131005764008e-03 -1.596603542566299438e-01 -1.148075014352798462e-01
2.720000000000000000e+02 2.499970436096191406e+00 -9.817486256361007690e-02 -5.816353559494018555e-01 -3.341030795127153397e-03 -1.754929125308990479e-01 -2.869877964258193970e-02
2.730000000000000000e+02 1.716540455818176270e+00 -1.788551807403564453e-01 -2.747391164302825928e-01 -9.518487378954887390e-03 -8.527728170156478882e-02 -5.466371402144432068e-02
2.740000000000000000e+02 9.602549672126770020e-02 -1.283648163080215454e-01 9.304394479840993881e-04 4.164760757703334093e-04 4.040746425744146109e-04 8.243340998888015747e-04
2.750000000000000000e+02 1.071215724945068359e+01 -8.493782281875610352e-01 5.649545669555664062e+00 2.486179542541503906e+01 9.153402328491210938e+00 -3.142624855041503906e+00
2.760000000000000000e+02 8.993978500366210938e+00 -1.087878465652465820e+00 5.350343227386474609e+00 5.430618286132812500e+00 3.234288454055786133e+00 5.802126884460449219e+00
2.770000000000000000e+02 1.125597381591796875e+01 -6.092246174812316895e-01 9.058137893676757812e+00 1.934799957275390625e+01 8.521841049194335938e+00 -4.194606781005859375e+00
2.780000000000000000e+02 9.019884109497070312e+00 5.161942839622497559e-01 -1.832132816314697266e+00 1.287836551666259766e+00 -1.632888615131378174e-01 -3.521812200546264648e+00
2.790000000000000000e+02 1.082630920410156250e+01 7.334623932838439941e-01 7.038249969482421875e+00 2.511677932739257812e+01 9.646508216857910156e+00 1.014134049415588379e+00
2.800000000000000000e+02 9.552035331726074219e+00 1.194209575653076172e+00 -1.505583375692367554e-01 1.518578529357910156e+01 4.510568141937255859e+00 -9.607015609741210938e+00
2.810000000000000000e+02 1.088972091674804688e+01 -1.027581930160522461e+00 5.262390136718750000e+00 2.203414726257324219e+01 8.188961029052734375e+00 -3.472870826721191406e+00
2.820000000000000000e+02 1.125513172149658203e+01 5.939059853553771973e-01 7.904079914093017578e+00 1.917702484130859375e+01 8.124331474304199219e+00 1.474013924598693848e+00
2.830000000000000000e+02 1.131819057464599609e+01 -4.570733904838562012e-01 1.092004013061523438e+01 1.755827140808105469e+01 8.543493270874023438e+00 -3.180498361587524414e+00
2.840000000000000000e+02 1.102915954589843750e+01 -8.932558894157409668e-01 6.269887447357177734e+00 2.135155487060546875e+01 8.286433219909667969e+00 -4.011121273040771484e+00
2.850000000000000000e+02 1.134174919128417969e+01 -2.807932198047637939e-01 1.112510585784912109e+01 1.745856666564941406e+01 8.575101852416992188e+00 -2.841214179992675781e+00
2.860000000000000000e+02 1.139057826995849609e+01 2.890876829624176025e-01 1.049473571777343750e+01 1.691981315612792969e+01 8.224365234375000000e+00 7.644863724708557129e-01
2.870000000000000000e+02 1.119312572479248047e+01 1.874526739120483398e-01 1.298074150085449219e+01 1.873512649536132812e+01 9.514760971069335938e+00 -5.873643755912780762e-01
2.880000000000000000e+02 1.041065502166748047e+01 -1.317460656166076660e+00 1.550600886344909668e+00 2.237459182739257812e+01 7.177557468414306641e+00 1.323175430297851562e+00
2.890000000000000000e+02 1.009277725219726562e+01 -1.060697197914123535e+00 2.399016380310058594e+00 2.406934547424316406e+01 7.940508365631103516e+00 4.561837673187255859e+00
2.900000000000000000e+02 9.907473564147949219e+00 1.121070504188537598e+00 -9.060448408126831055e-01 2.182179641723632812e+01 6.274725914001464844e+00 -9.138744354248046875e+00
2.910000000000000000e+02 1.048631954193115234e+01 1.271646022796630859e+00 -7.972953915596008301e-01 2.404791450500488281e+01 6.975185871124267578e+00 -4.107821941375732422e+00
2.920000000000000000e+02 1.057286930084228516e+01 -1.239858627319335938e+00 2.497031688690185547e+00 2.253472900390625000e+01 7.509528636932373047e+00 -6.854647397994995117e-01
2.930000000000000000e+02 8.883888125419616699e-01 -1.356295228004455566e+00 -4.213178902864456177e-02 -1.152907684445381165e-01 -4.722676798701286316e-02 -1.624435335397720337e-01
2.940000000000000000e+02 3.040100336074829102e-01 -1.391423225402832031e+00 -2.533722110092639923e-02 -2.348507940769195557e-01 -7.805640250444412231e-02 -8.812611550092697144e-02
2.950000000000000000e+02 1.093045949935913086e+00 -1.335810899734497070e+00 -4.955693334341049194e-02 -1.225212141871452332e-01 -5.162344500422477722e-02 -2.009929418563842773e-01
2.960000000000000000e+02 1.500203132629394531e+00 -1.350065231323242188e+00 -7.584986835718154907e-02 -8.377035707235336304e-02 -4.788606986403465271e-02 -2.417247891426086426e-01
2.970000000000000000e+02 2.097192764282226562e+00 -1.366299629211425781e+00 -1.089586466550827026e-01 -2.771623805165290833e-02 -4.100246727466583252e-02 -2.656160295009613037e-01
2.980000000000000000e+02 2.692356586456298828e+00 -1.078049063682556152e+00 -2.279284596443176270e-01 3.453370416536927223e-03 -6.734252721071243286e-02 -2.572322189807891846e-01
2.990000000000000000e+02 3.324770212173461914e+00 -1.174355626106262207e+00 -2.055966705083847046e-01 2.811292745172977448e-02 -5.324512347579002380e-02 -2.326672226190567017e-01
3.000000000000000000e+02 4.124855041503906250e+00 -1.150144219398498535e+00 -2.001923918724060059e-01 4.313256591558456421e-02 -4.711794853210449219e-02 -1.685766279697418213e-01
3.010000000000000000e+02 4.673169612884521484e+00 -1.339155793190002441e+00 2.233910746872425079e-02 9.876386821269989014e-02 3.633089363574981689e-02 -6.578403711318969727e-02
3.020000000000000000e+02 6.360189914703369141e+00 -1.196414113044738770e+00 6.641902923583984375e-01 2.097697108983993530e-01 2.621880173683166504e-01 3.628235161304473877e-01
3.030000000000000000e+02 8.068883895874023438e+00 -1.039474606513977051e+00 2.943182229995727539e+00 1.163832426071166992e+00 1.232104420661926270e+00 2.067645788192749023e+00
3.040000000000000000e+02 8.091531753540039062e+00 -1.341143488883972168e+00 3.209793567657470703e+00 1.897320151329040527e+00 1.532134175300598145e+00 2.754015684127807617e+00
3.050000000000000000e+02 8.518143653869628906e+00 -1.328126549720764160e+00 4.138226509094238281e+00 3.180501222610473633e+00 2.195618391036987305e+00 4.043463230133056641e+00
3.060000000000000000e+02 9.530289649963378906e+00 -1.405190467834472656e+00 3.318065643310546875e+00 1.319260025024414062e+01 4.953199863433837891e+00 6.934073448181152344e+00
3.070000000000000000e+02 9.200761795043945312e+00 -1.108575105667114258e+00 5.445679187774658203e+00 7.664474010467529297e+00 3.933045864105224609e+00 6.953154563903808594e+00
3.080000000000000000e+02 9.713594436645507812e+00 -1.432682633399963379e+00 2.693826436996459961e+00 1.528328800201416016e+01 5.393134117126464844e+00 6.741034507751464844e+00
3.090000000000000000e+02 1.005361557006835938e+01 -1.406605482101440430e+00 1.566657781600952148e+00 1.929499053955078125e+01 6.258494853973388672e+00 4.409136295318603516e+00
3.100000000000000000e+02 8.696110725402832031e+00 1.115810751914978027e+00 -4.563818275928497314e-01 4.240413665771484375e+00 1.135209560394287109e+00 -4.823989391326904297e+00
3.110000000000000000e+02 8.318943977355957031e+00 1.107985258102416992e+00 -1.528717875480651855e+00 2.699146747589111328e+00 3.511286973953247070e-01 -2.756596088409423828e+00
3.120000000000000000e+02 8.301010131835937500e+00 1.368102073669433594e+00 -3.972119987010955811e-01 3.432609796524047852e+00 9.106193184852600098e-01 -3.572235107421875000e+00
3.130000000000000000e+02 7.696302413940429688e+00 1.353312492370605469e+00 -1.731305599212646484e+00 2.021473169326782227e+00 8.705023676156997681e-02 -1.191898226737976074e+00
3.140000000000000000e+02 7.086571216583251953e+00 1.363262772560119629e+00 -2.313489198684692383e+00 1.035043239593505859e+00 -3.835337460041046143e-01 1.004285663366317749e-01
3.150000000000000000e+02 6.295311927795410156e+00 1.356781244277954102e+00 -2.765892028808593750e+00 3.710932135581970215e-01 -7.184396386146545410e-01 1.141582250595092773e+00
3.160000000000000000e+02 6.853132724761962891e+00 1.123047709465026855e+00 -3.592113971710205078e+00 4.985633194446563721e-01 -9.280651807785034180e-01 5.883274078369140625e-01
3.170000000000000000e+02 5.500124454498291016e+00 1.383009076118469238e+00 -2.541308879852294922e+00 1.144336909055709839e-01 -7.280625700950622559e-01 1.615456461906433105e+00
3.180000000000000000e+02 5.101686954498291016e+00 1.365977764129638672e+00 -2.461381912231445312e+00 8.491305634379386902e-03 -7.358672022819519043e-01 1.747269511222839355e+00
3.190000000000000000e+02 4.679098129272460938e+00 1.089977860450744629e+00 -3.093895196914672852e+00 1.761142909526824951e-02 -9.228851199150085449e-01 1.580391764640808105e+00
3.200000000000000000e+02 4.692054748535156250e+00 1.359875679016113281e+00 -2.365130186080932617e+00 -9.714151173830032349e-02 -7.386814951896667480e-01 1.789957404136657715e+00
3.210000000000000000e+02 4.073109626770019531e+00 1.115261077880859375e+00 -2.478161811828613281e+00 -1.319679617881774902e-01 -7.830389142036437988e-01 1.600919008255004883e+00
3.220000000000000000e+02 4.261375904083251953e+00 1.089777827262878418e+00 -2.822373151779174805e+00 5.328557919710874557e-03 -8.451133370399475098e-01 1.587741613388061523e+00
3.230000000000000000e+02 3.370482921600341797e+00 1.137103438377380371e+00 -1.899223089218139648e+00 -1.715367138385772705e-01 -6.212279200553894043e-01 1.569528102874755859e+00
3.240000000000000000e+02 3.355420589447021484e+00 8.239315748214721680e-01 -2.425403118133544922e+00 -5.080412328243255615e-02 -7.428621649742126465e-01 1.235603213310241699e+00
3.250000000000000000e+02 2.907274961471557617e+00 1.331713795661926270e+00 -1.338918328285217285e+00 -2.060201764106750488e-01 -4.634815454483032227e-01 1.537081956863403320e+00
3.260000000000000000e+02 2.497857809066772461e+00 1.363923430442810059e+00 -1.055277824401855469e+00 -2.919074892997741699e-01 -4.041555821895599365e-01 1.438521265983581543e+00
3.270000000000000000e+02 1.712112069129943848e+00 1.357282161712646484e+00 -5.961832404136657715e-01 -4.616721272468566895e-01 -3.173565864562988281e-01 1.099611878395080566e+00
3.280000000000000000e+02 5.158184766769409180e-01 1.148278355598449707e+00 -8.358523249626159668e-02 -4.321855604648590088e-01 -1.547312289476394653e-01 3.466865718364715576e-01
3.290000000000000000e+02 5.066074728965759277e-01 1.382435321807861328e+00 -1.052049323916435242e-01 -4.860861003398895264e-01 -1.773873120546340942e-01 3.738725781440734863e-01
3.300000000000000000e+02 1.299041390419006348e+00 -1.344434380531311035e+00 -6.390080600976943970e-02 -9.078944474458694458e-02 -4.640707373619079590e-02 -2.197427004575729370e-01
3.310000000000000000e+02 1.699975848197937012e+00 -1.355569839477539062e+00 -8.043268322944641113e-02 -6.382691860198974609e-02 -4.327787831425666809e-02 -2.480778396129608154e-01
3.320000000000000000e+02 1.902339577674865723e+00 -1.086406946182250977e+00 -1.462702453136444092e-01 -3.572726249694824219e-02 -5.459925159811973572e-02 -2.412117421627044678e-01
3.330000000000000000e+02 3.901492595672607422e+00 -1.116383552551269531e+00 -2.438935488462448120e-01 4.313486069440841675e-02 -6.022760644555091858e-02 -1.922511607408523560e-01
3.340000000000000000e+02 4.295088768005371094e+00 -1.396833062171936035e+00 5.274401977658271790e-03 8.654708415269851685e-02 2.754644490778446198e-02 -1.075826883316040039e-01
3.350000000000000000e+02 4.898310184478759766e+00 -1.326452493667602539e+00 6.463254988193511963e-02 1.017053648829460144e-01 4.990137368440628052e-02 -1.584771089255809784e-02
3.360000000000000000e+02 5.189235210418701172e+00 -1.027584314346313477e+00 -1.822820752859115601e-01 5.608345568180084229e-02 -3.785958886146545410e-02 -5.613779649138450623e-02
3.370000000000000000e+02 5.320949077606201172e+00 -1.354625225067138672e+00 2.873063385486602783e-01 1.318770647048950195e-01 1.257550269365310669e-01 8.453970402479171753e-02
3.380000000000000000e+02 5.764801025390625000e+00 -1.137822866439819336e+00 1.969252079725265503e-01 1.399589926004409790e-01 1.010652631521224976e-01 1.236248612403869629e-01
3.390000000000000000e+02 7.065707683563232422e+00 -1.340578079223632812e+00 1.581133484840393066e+00 6.043169498443603516e-01 6.556351184844970703e-01 1.023495197296142578e+00
3.400000000000000000e+02 7.867691516876220703e+00 -1.045733809471130371e+00 2.433928251266479492e+00 8.312517404556274414e-01 9.795539975166320801e-01 1.660314679145812988e+00
3.410000000000000000e+02 8.726363182067871094e+00 -1.351821899414062500e+00 4.546486854553222656e+00 4.581383705139160156e+00 2.738361120223999023e+00 4.951008319854736328e+00
3.420000000000000000e+02 9.130440711975097656e+00 -1.369238615036010742e+00 4.362096786499023438e+00 7.998765945434570312e+00 3.708258867263793945e+00 6.328835964202880859e+00
3.430000000000000000e+02 9.318794250488281250e+00 1.382393121719360352e+00 -1.627528369426727295e-01 1.210190200805664062e+01 3.581744670867919922e+00 -8.290290832519531250e+00
3.440000000000000000e+02 9.116800308227539062e+00 1.368067383766174316e+00 6.619010567665100098e-01 9.144755363464355469e+00 2.941997051239013672e+00 -8.092705726623535156e+00
3.450000000000000000e+02 7.289333343505859375e+00 1.351579427719116211e+00 -2.143941879272460938e+00 1.460541486740112305e+00 -2.050200998783111572e-01 -2.259320616722106934e-01
3.460000000000000000e+02 6.666684150695800781e+00 1.139312386512756348e+00 -3.570493698120117188e+00 5.769911408424377441e-01 -8.980507254600524902e-01 8.072416782379150391e-01
3.470000000000000000e+02 5.690845012664794922e+00 1.169502496719360352e+00 -3.365062475204467773e+00 7.091741263866424561e-02 -9.882435202598571777e-01 1.490791678428649902e+00
3.480000000000000000e+02 4.897675514221191406e+00 1.088674783706665039e+00 -3.261260747909545898e+00 -5.948331952095031738e-02 -9.962232112884521484e-01 1.633053660392761230e+00
3.490000000000000000e+02 3.899146795272827148e+00 1.380541920661926270e+00 -1.880853772163391113e+00 -1.647896915674209595e-01 -6.136930584907531738e-01 1.792113423347473145e+00
3.500000000000000000e+02 3.887932062149047852e+00 1.137910962104797363e+00 -2.309010744094848633e+00 -5.073508992791175842e-02 -7.079237699508666992e-01 1.600485920906066895e+00
3.510000000000000000e+02 1.941070795059204102e+00 1.156734108924865723e+00 -8.188115358352661133e-01 -3.397145867347717285e-01 -3.475578427314758301e-01 1.107719421386718750e+00
3.520000000000000000e+02 9.954800605773925781e+00 -1.239313125610351562e+00 2.327835083007812500e+00 1.989551544189453125e+01 6.667005062103271484e+00 5.745820999145507812e+00
3.530000000000000000e+02 5.880936145782470703e+00 -3.953866362571716309e-01 -1.123501539230346680e+00 -2.190288621932268143e-03 -3.377075493335723877e-01 -6.461361795663833618e-02
3.540000000000000000e+02 7.868466854095458984e+00 -4.396730363368988037e-01 -1.243645604699850082e-02 3.155582398176193237e-02 5.735810380429029465e-03 2.671833634376525879e-01
3.550000000000000000e+02 8.323198318481445312e+00 4.218527972698211670e-01 -7.116200447082519531e+00 2.688241004943847656e-01 -2.054212808609008789e+00 -5.276428461074829102e-01
3.560000000000000000e+02 7.904225349426269531e+00 4.247169494628906250e-01 -7.786687374114990234e+00 2.805596590042114258e-01 -2.251838207244873047e+00 -6.763521581888198853e-03
3.570000000000000000e+02 4.701137542724609375e+00 1.260974556207656860e-01 -5.896266937255859375e+00 -4.637014493346214294e-02 -1.782791137695312500e+00 2.808685600757598877e-01
3.580000000000000000e+02 7.303282260894775391e+00 1.354932188987731934e-01 -1.069933891296386719e+01 9.095495194196701050e-02 -3.182515144348144531e+00 2.334003299474716187e-01
3.590000000000000000e+02 7.303153038024902344e+00 -1.278868615627288818e-01 -1.825909495353698730e+00 -1.735874637961387634e-02 -5.529804825782775879e-01 1.137097552418708801e-02
3.600000000000000000e+02 6.533110141754150391e+00 4.080563485622406006e-01 -7.794572830200195312e+00 -2.295824326574802399e-02 -2.345259428024291992e+00 6.732498407363891602e-01
3.610000000000000000e+02 7.104721069335937500e+00 1.325948536396026611e-01 -1.046772766113281250e+01 -4.534682258963584900e-02 -3.153922319412231445e+00 2.655946016311645508e-01
3.620000000000000000e+02 8.112528800964355469e+00 4.328442811965942383e-01 -7.464282035827636719e+00 1.907736361026763916e-01 -2.182052612304687500e+00 -2.620556950569152832e-01
3.630000000000000000e+02 8.929835319519042969e+00 -3.179746866226196289e-01 2.678740978240966797e+00 3.745080232620239258e-01 9.159746766090393066e-01 1.400299072265625000e+00
3.640000000000000000e+02 8.596513748168945312e+00 -2.476141005754470825e-01 -1.278688665479421616e-02 2.162425518035888672e-01 6.103669852018356323e-02 2.726420462131500244e-01
3.650000000000000000e+02 8.319588661193847656e+00 -1.394328922033309937e-01 -1.449589490890502930e+00 5.045502912253141403e-03 -4.333631992340087891e-01 -2.723715826869010925e-02
3.660000000000000000e+02 7.896694183349609375e+00 -1.483428627252578735e-01 -1.602460622787475586e+00 7.629182189702987671e-02 -4.578506350517272949e-01 8.654943108558654785e-02
3.670000000000000000e+02 4.690986156463623047e+00 -1.297260075807571411e-01 -1.330969810485839844e+00 1.036245655268430710e-02 -3.961822092533111572e-01 -4.137206450104713440e-02
3.680000000000000000e+02 2.994648516178131104e-01 3.495013415813446045e-01 -1.605422981083393097e-02 -3.431608155369758606e-02 -1.511109434068202972e-02 5.932660773396492004e-03
3.690000000000000000e+02 2.688107252120971680e+00 -1.198066771030426025e-01 -6.449871659278869629e-01 -3.063398180529475212e-03 -1.944151818752288818e-01 -3.594181314110755920e-02
3.700000000000000000e+02 3.072667360305786133e+00 -4.050358831882476807e-01 -6.106625199317932129e-01 -3.032161854207515717e-03 -1.841083914041519165e-01 -1.322405785322189331e-01
3.710000000000000000e+02 3.301852226257324219e+00 -4.238827824592590332e-01 -6.660766005516052246e-01 4.907991737127304077e-03 -1.983505934476852417e-01 -1.398267745971679688e-01
3.720000000000000000e+02 3.299222469329833984e+00 1.583903282880783081e-01 -3.118306398391723633e+00 5.074921995401382446e-02 -9.202671647071838379e-01 2.861237823963165283e-01
3.730000000000000000e+02 3.911753177642822266e+00 1.607409417629241943e-01 -4.271347522735595703e+00 -6.161987036466598511e-02 -1.299890160560607910e+00 3.135283589363098145e-01
3.740000000000000000e+02 2.494956493377685547e+00 1.634936779737472534e-01 -1.784573435783386230e+00 1.389266923069953918e-02 -5.312042236328125000e-01 2.440543472766876221e-01
3.750000000000000000e+02 3.097318887710571289e+00 1.619818061590194702e-01 -2.740145683288574219e+00 -6.693552434444427490e-02 -8.421244025230407715e-01 2.803536057472229004e-01
3.760000000000000000e+02 3.199888706207275391e+00 6.661611199378967285e-01 -2.380295515060424805e+00 -8.714160323143005371e-02 -7.402311563491821289e-01 1.014911651611328125e+00
3.770000000000000000e+02 3.502358675003051758e+00 -1.408780515193939209e-01 -9.235816597938537598e-01 -9.613956353859975934e-05 -2.771033346652984619e-01 -4.883499071002006531e-02
3.780000000000000000e+02 2.450752735137939453e+00 -2.514180839061737061e-01 -4.939623475074768066e-01 -3.117725253105163574e-03 -1.491240262985229492e-01 -8.787566423416137695e-02
3.790000000000000000e+02 1.939509868621826172e+00 -1.946533620357513428e-01 -3.427829146385192871e-01 -2.851532772183418274e-03 -1.036903336644172668e-01 -6.338913738727569580e-02
3.800000000000000000e+02 1.963103652000427246e+00 -5.278034210205078125e-01 -2.876110076904296875e-01 -3.978312481194734573e-03 -8.747678995132446289e-02 -1.487995088100433350e-01
3.810000000000000000e+02 6.975221633911132812e-01 -1.828634589910507202e-01 -3.424125537276268005e-02 -4.460480064153671265e-03 -1.161052100360393524e-02 -2.198638953268527985e-02
3.820000000000000000e+02 2.311627268791198730e-01 -3.789996504783630371e-01 -9.387033060193061829e-03 -1.803288981318473816e-02 -8.225976489484310150e-03 -1.050792727619409561e-02
3.830000000000000000e+02 4.852280616760253906e-01 -1.750710308551788330e-01 -1.362592726945877075e-02 -1.103929337114095688e-02 -7.399566005915403366e-03 -1.306327711790800095e-02
3.840000000000000000e+02 1.108332395553588867e+00 -1.638900786638259888e-01 -1.077531352639198303e-01 -2.639405196532607079e-03 -3.311776369810104370e-02 -3.412317484617233276e-02
3.850000000000000000e+02 5.902637958526611328e+00 1.572605222463607788e-01 -8.329113006591796875e+00 -5.045298486948013306e-02 -2.513870000839233398e+00 3.462742567062377930e-01
3.860000000000000000e+02 6.129099369049072266e+00 4.393589794635772705e-01 -7.151968955993652344e+00 -3.872321918606758118e-02 -2.157207727432250977e+00 7.942233681678771973e-01
3.870000000000000000e+02 4.142144203186035156e+00 4.426609277725219727e-01 -4.021494388580322266e+00 -7.996929436922073364e-02 -1.230439186096191406e+00 8.238444924354553223e-01
3.880000000000000000e+02 6.708186626434326172e+00 1.365282684564590454e-01 -9.837610244750976562e+00 -8.070335537195205688e-02 -2.975494146347045898e+00 2.946043610572814941e-01
3.890000000000000000e+02 7.697260856628417969e+00 -1.324286907911300659e-01 -1.711157083511352539e+00 -9.327949956059455872e-03 -5.161455273628234863e-01 3.767761215567588806e-02
3.900000000000000000e+02 7.104060173034667969e+00 -1.367662101984024048e-01 -1.843799471855163574e+00 4.235276579856872559e-02 -5.404340028762817383e-01 -1.191116869449615479e-02
3.910000000000000000e+02 5.630605220794677734e+00 -8.765625953674316406e-01 -2.653326988220214844e-01 6.678972393274307251e-02 -5.956289172172546387e-02 -5.745062604546546936e-03
3.920000000000000000e+02 5.046647071838378906e+00 -3.743271827697753906e-01 -1.093899846076965332e+00 -7.626573788002133369e-04 -3.283987343311309814e-01 -9.206624329090118408e-02
3.930000000000000000e+02 4.523074150085449219e+00 3.954443335533142090e-01 -4.844028472900390625e+00 -6.385576725006103516e-02 -1.472365260124206543e+00 7.645721435546875000e-01
3.940000000000000000e+02 4.711832046508789062e+00 3.474344015121459961e-01 -5.309160232543945312e+00 5.027416720986366272e-02 -1.577665925025939941e+00 7.121728658676147461e-01
3.950000000000000000e+02 7.698516368865966797e+00 4.180117547512054443e-01 -8.119188308715820312e+00 1.282690614461898804e-01 -2.397275686264038086e+00 1.149946004152297974e-01
3.960000000000000000e+02 6.700313091278076172e+00 -3.808155059814453125e-01 -1.011272192001342773e+00 9.971882216632366180e-03 -3.003900945186614990e-01 -4.568706732243299484e-03
3.970000000000000000e+02 6.088542938232421875e+00 -3.830642998218536377e-01 -1.151246666908264160e+00 2.578009665012359619e-02 -3.376399576663970947e-01 -4.961659014225006104e-02
3.980000000000000000e+02 4.089779376983642578e+00 -1.334567815065383911e-01 -1.141996383666992188e+00 -6.914921104907989502e-03 -3.446733951568603516e-01 -4.612674191594123840e-02
3.990000000000000000e+02 1.088611483573913574e-01 -1.175893902778625488e+00 7.760102860629558563e-03 -9.959086775779724121e-02 -2.754922956228256226e-02 -1.591192930936813354e-02
4.000000000000000000e+02 1.197042241692543030e-01 -7.250900864601135254e-01 -1.819772063754498959e-03 -3.282129392027854919e-02 -1.039232034236192703e-02 -1.462586130946874619e-02
4.010000000000000000e+02 3.080295920372009277e-01 1.164847373962402344e+00 -1.175861325464211404e-04 -3.045787811279296875e-01 -9.140890836715698242e-02 1.310008466243743896e-01
4.020000000000000000e+02 3.398019671440124512e-01 -9.332243800163269043e-01 -1.391202677041292191e-02 -7.709325104951858521e-02 -2.730158343911170959e-02 -5.381015315651893616e-02
4.030000000000000000e+02 1.505174279212951660e+00 -1.053133010864257812e+00 -1.190934479236602783e-01 -5.362212657928466797e-02 -5.181467160582542419e-02 -2.130953371524810791e-01
4.040000000000000000e+02 9.072464108467102051e-01 -1.675877422094345093e-01 -6.593792885541915894e-02 -5.653232801705598831e-03 -2.147734723985195160e-02 -2.770546823740005493e-02
4.050000000000000000e+02 3.997492194175720215e-01 -4.502246081829071045e-01 -1.882804557681083679e-02 -1.782415807247161865e-02 -1.099566090852022171e-02 -2.153441123664379120e-02
4.060000000000000000e+02 6.008073329925537109e+00 -9.523974061012268066e-01 -1.360385306179523468e-02 9.541019797325134277e-02 2.454190328717231750e-02 9.804292768239974976e-02
4.070000000000000000e+02 8.651900291442871094e+00 8.789014220237731934e-01 -1.407513260841369629e+00 2.788396358489990234e+00 4.142649471759796143e-01 -3.907708644866943359e+00
4.080000000000000000e+02 1.731535434722900391e+00 7.469242811203002930e-01 -8.212561011314392090e-01 -1.639848202466964722e-01 -2.955722808837890625e-01 7.340947985649108887e-01
4.090000000000000000e+02 3.018066883087158203e-01 9.518908262252807617e-01 -4.393140599131584167e-02 -2.281659394502639771e-01 -8.162920176982879639e-02 1.590679883956909180e-01
4.100000000000000000e+02 6.622801303863525391e+00 9.074098467826843262e-01 -4.882787704467773438e+00 1.931217014789581299e-01 -1.406899809837341309e+00 8.611817359924316406e-01
4.110000000000000000e+02 5.909246444702148438e+00 4.538686871528625488e-01 -6.743168354034423828e+00 7.069485634565353394e-02 -2.001741886138916016e+00 8.609585762023925781e-01
4.120000000000000000e+02 6.162439823150634766e+00 7.207787036895751953e-01 -5.655731201171875000e+00 1.784835457801818848e-01 -1.643174290657043457e+00 1.042129755020141602e+00
4.130000000000000000e+02 6.994360446929931641e+00 8.569750189781188965e-01 -5.024525642395019531e+00 3.253125548362731934e-01 -1.409763932228088379e+00 5.839681625366210938e-01
4.140000000000000000e+02 5.450508117675781250e+00 -8.567239046096801758e-01 -3.438741266727447510e-01 5.021806061267852783e-02 -8.809681981801986694e-02 -5.480064824223518372e-02
4.150000000000000000e+02 2.871636390686035156e+00 7.811645865440368652e-01 -1.916381359100341797e+00 -6.876631081104278564e-02 -5.955443382263183594e-01 1.054261565208435059e+00
4.160000000000000000e+02 5.379126071929931641e+00 -1.084372639656066895e+00 -4.916562885046005249e-02 1.014322265982627869e-01 1.567997969686985016e-02 1.367601379752159119e-02
4.170000000000000000e+02 1.398319959640502930e+00 7.668839693069458008e-01 -5.605438947677612305e-01 -1.911634802818298340e-01 -2.255122065544128418e-01 6.054401993751525879e-01
4.180000000000000000e+02 6.539139270782470703e+00 -7.426691055297851562e-01 -1.456000655889511108e-01 8.183118700981140137e-02 -1.913066208362579346e-02 1.169694513082504272e-01
4.190000000000000000e+02 8.926049232482910156e+00 1.086104631423950195e+00 6.656619906425476074e-01 5.605900764465332031e+00 1.881468772888183594e+00 -6.734406948089599609e+00
4.200000000000000000e+02 8.306077003479003906e+00 -5.263161063194274902e-01 1.669756174087524414e+00 2.907023131847381592e-01 5.881375670433044434e-01 9.782598018646240234e-01
4.210000000000000000e+02 7.307789921760559082e-01 8.630416393280029297e-01 -1.839174628257751465e-01 -2.794118225574493408e-01 -1.389987766742706299e-01 3.393067717552185059e-01
4.220000000000000000e+02 1.100474834442138672e+00 1.160607099533081055e+00 -3.471627235412597656e-01 -3.992986679077148438e-01 -2.239384204149246216e-01 6.472702026367187500e-01
4.230000000000000000e+02 7.306941032409667969e+00 3.945715725421905518e-01 -8.443420410156250000e+00 5.426754057407379150e-02 -2.516745805740356445e+00 4.069629609584808350e-01
4.240000000000000000e+02 7.039049625396728516e+00 -1.044562935829162598e+00 9.630103707313537598e-01 2.901345193386077881e-01 3.759434819221496582e-01 6.507582664489746094e-01
4.250000000000000000e+02 1.023482680320739746e-01 1.177505373954772949e+00 -2.202956564724445343e-02 -2.212901860475540161e-01 -7.299593091011047363e-02 7.628560811281204224e-02
4.260000000000000000e+02 2.894755125045776367e+00 4.842920303344726562e-01 -2.173760414123535156e+00 -8.734170347452163696e-02 -6.783306598663330078e-01 7.638037204742431641e-01
4.270000000000000000e+02 2.489332199096679688e+00 -7.762782573699951172e-01 -3.256189227104187012e-01 -3.603625344112515450e-03 -9.876676648855209351e-02 -2.195386737585067749e-01
4.280000000000000000e+02 2.900695800781250000e-01 7.499809861183166504e-01 -4.168506711721420288e-02 -1.157916411757469177e-01 -4.724301397800445557e-02 8.320344239473342896e-02
4.290000000000000000e+02 5.359550952911376953e+00 8.854522109031677246e-01 -4.257343292236328125e+00 8.295378834009170532e-02 -1.252316832542419434e+00 1.389970660209655762e+00
4.300000000000000000e+02 5.542640686035156250e+00 9.272234439849853516e-01 -4.232167243957519531e+00 2.520811185240745544e-02 -1.262087702751159668e+00 1.402563691139221191e+00
4.310000000000000000e+02 2.289767265319824219e+00 4.532178044319152832e-01 -1.437322378158569336e+00 -3.290845826268196106e-02 -4.410692453384399414e-01 5.796722173690795898e-01
4.320000000000000000e+02 5.462149143218994141e+00 -6.578353047370910645e-01 -6.621514558792114258e-01 2.951898612082004547e-02 -1.897897422313690186e-01 -6.697103381156921387e-02
4.330000000000000000e+02 2.269171953201293945e+00 -1.086358547210693359e+00 -1.918321400880813599e-01 -1.533503178507089615e-02 -6.215015053749084473e-02 -2.554285824298858643e-01
4.340000000000000000e+02 2.378907203674316406e+00 6.428192853927612305e-01 -1.455337524414062500e+00 -1.020414158701896667e-01 -4.672136902809143066e-01 8.264906406402587891e-01
4.350000000000000000e+02 6.141150951385498047e+00 -8.237398862838745117e-01 -1.783570647239685059e-01 8.103274554014205933e-02 -2.919729799032211304e-02 6.879644840955734253e-02
4.360000000000000000e+02 6.323180675506591797e+00 1.092329025268554688e+00 -3.916913270950317383e+00 3.812246620655059814e-01 -1.060706496238708496e+00 1.080286145210266113e+00
4.370000000000000000e+02 1.305986762046813965e+00 -1.038612484931945801e+00 -1.001597046852111816e-01 -7.187146693468093872e-02 -5.160935223102569580e-02 -1.997155398130416870e-01
4.380000000000000000e+02 8.587377548217773438e+00 -7.035877108573913574e-01 3.679489135742187500e+00 1.128982663154602051e+00 1.442541599273681641e+00 2.331964731216430664e+00
4.390000000000000000e+02 8.888291358947753906e+00 8.244770765304565430e-01 -5.755386352539062500e-01 3.338691234588623047e+00 8.289458155632019043e-01 -4.916462421417236328e+00
4.400000000000000000e+02 9.206407070159912109e-01 -9.558174610137939453e-01 -7.055296003818511963e-02 -7.735039293766021729e-02 -4.437100514769554138e-02 -1.521751582622528076e-01
4.410000000000000000e+02 7.071588516235351562e+00 -7.870962619781494141e-01 3.820655941963195801e-01 1.795268505811691284e-01 1.684777289628982544e-01 3.615263104438781738e-01
4.420000000000000000e+02 6.807122230529785156e+00 8.832761049270629883e-01 -4.989768505096435547e+00 3.869442045688629150e-01 -1.380847334861755371e+00 7.623246312141418457e-01
4.430000000000000000e+02 2.893933951854705811e-01 5.528285503387451172e-01 -3.879190608859062195e-02 -5.161083489656448364e-02 -2.712082304060459137e-02 3.301037475466728210e-02
4.440000000000000000e+02 8.357096672058105469e+00 7.064750790596008301e-01 -3.790416002273559570e+00 1.189797997474670410e+00 -7.801854014396667480e-01 -1.785936951637268066e+00
4.450000000000000000e+02 8.270479202270507812e+00 -1.023632287979125977e+00 3.434865713119506836e+00 1.457732677459716797e+00 1.467779517173767090e+00 2.539463996887207031e+00
4.460000000000000000e+02 7.560356140136718750e+00 -5.348212122917175293e-01 9.008831530809402466e-02 1.364141851663589478e-01 6.795074790716171265e-02 2.751977443695068359e-01
4.470000000000000000e+02 7.259362220764160156e+00 1.051796913146972656e+00 -3.833645820617675781e+00 7.140343189239501953e-01 -9.358834624290466309e-01 6.431551277637481689e-02
4.480000000000000000e+02 7.634734630584716797e+00 -7.674847245216369629e-01 1.085272431373596191e+00 2.530386745929718018e-01 4.014933407306671143e-01 7.120867967605590820e-01
4.490000000000000000e+02 7.500674247741699219e+00 -1.233047172427177429e-01 -1.780679106712341309e+00 2.988142706453800201e-02 -5.252392888069152832e-01 1.906101964414119720e-02
4.500000000000000000e+02 8.504671096801757812e+00 -5.204694271087646484e-01 2.346430301666259766e+00 6.575428247451782227e-01 9.011919498443603516e-01 1.368202567100524902e+00
4.510000000000000000e+02 8.111049652099609375e+00 1.055274009704589844e+00 -2.266538381576538086e+00 1.811753869056701660e+00 -1.364353746175765991e-01 -2.040824413299560547e+00
4.520000000000000000e+02 7.257553100585937500e+00 -1.072890400886535645e+00 1.338421463966369629e+00 4.801615178585052490e-01 5.455749034881591797e-01 8.854967355728149414e-01
4.530000000000000000e+02 7.485047340393066406e+00 1.028296947479248047e+00 -3.686888456344604492e+00 9.979450106620788574e-01 -8.066830039024353027e-01 -2.171592712402343750e-01
4.540000000000000000e+02 7.503221988677978516e+00 -3.444402813911437988e-01 -8.941963315010070801e-01 -9.182950481772422791e-03 -2.710137665271759033e-01 9.327080100774765015e-02
4.550000000000000000e+02 7.271910309791564941e-01 -4.768870770931243896e-01 -5.507716163992881775e-02 -2.558305673301219940e-02 -2.419806458055973053e-02 -6.127174198627471924e-02
4.560000000000000000e+02 5.073539614677429199e-01 3.733407557010650635e-01 -5.771706253290176392e-02 -3.361698985099792480e-02 -2.740021608769893646e-02 4.810479283332824707e-02
4.570000000000000000e+02 5.345447063446044922e-01 -5.940663814544677734e-01 -3.466528281569480896e-02 -4.890448227524757385e-02 -2.507092989981174469e-02 -5.761852860450744629e-02
4.580000000000000000e+02 8.786366462707519531e+00 -1.085190057754516602e+00 4.852931022644042969e+00 3.796576023101806641e+00 2.594852209091186523e+00 4.745975017547607422e+00
4.590000000000000000e+02 8.593629837036132812e+00 -1.034714937210083008e+00 4.411646366119384766e+00 2.439413070678710938e+00 2.055317878723144531e+00 3.665260076522827148e+00
4.600000000000000000e+02 6.814255237579345703e+00 -9.600764513015747070e-01 5.859919190406799316e-01 2.376293540000915527e-01 2.470863908529281616e-01 4.276909530162811279e-01
4.610000000000000000e+02 6.570720672607421875e+00 6.667274236679077148e-01 -6.245757102966308594e+00 1.851363927125930786e-01 -1.818186163902282715e+00 8.894666433334350586e-01
4.620000000000000000e+02 1.317675113677978516e+00 -7.443127632141113281e-01 -1.329796016216278076e-01 -3.710754960775375366e-02 -5.102614313364028931e-02 -1.555989682674407959e-01
4.630000000000000000e+02 1.223283410072326660e+00 8.314480781555175781e-01 -4.712302088737487793e-01 -2.673483788967132568e-01 -2.215735763311386108e-01 5.708453059196472168e-01
4.640000000000000000e+02 1.124009132385253906e+00 9.628332853317260742e-01 -3.978664577007293701e-01 -3.087404966354370117e-01 -2.119820863008499146e-01 6.124339699745178223e-01
4.650000000000000000e+02 1.105970025062561035e+00 -1.018557906150817871e+00 -8.018939942121505737e-02 -7.229028642177581787e-02 -4.574390500783920288e-02 -1.680354177951812744e-01
4.660000000000000000e+02 6.378637790679931641e+00 -9.857322573661804199e-01 2.843275964260101318e-01 1.454380452632904053e-01 1.289296895265579224e-01 2.362523525953292847e-01
4.670000000000000000e+02 5.866957187652587891e+00 1.163851737976074219e+00 -3.471110582351684570e+00 3.034303784370422363e-01 -9.503040313720703125e-01 1.427765846252441406e+00
4.680000000000000000e+02 1.514773011207580566e+00 -7.613509893417358398e-01 -1.622704416513442993e-01 -3.715772554278373718e-02 -5.982845276594161987e-02 -1.789776086807250977e-01
4.690000000000000000e+02 1.444802045822143555e+00 9.431028366088867188e-01 -5.864630341529846191e-01 -2.843407988548278809e-01 -2.612411379814147949e-01 7.427307963371276855e-01
4.700000000000000000e+02 5.619352817535400391e+00 7.003617882728576660e-01 -5.292445182800292969e+00 6.267865747213363647e-02 -1.568929910659790039e+00 1.137273669242858887e+00
4.710000000000000000e+02 5.872273445129394531e+00 -6.479326486587524414e-01 -6.047562956809997559e-01 4.701888933777809143e-02 -1.673212349414825439e-01 -3.064739890396595001e-02
4.720000000000000000e+02 1.927343726158142090e+00 -8.159897327423095703e-01 -2.253501862287521362e-01 -2.346256002783775330e-02 -7.464382797479629517e-02 -2.170005440711975098e-01
4.730000000000000000e+02 1.836697220802307129e+00 4.731300473213195801e-01 -9.480540156364440918e-01 -7.542527467012405396e-02 -3.070437908172607422e-01 5.106709599494934082e-01
4.740000000000000000e+02 4.484950065612792969e+00 -4.092569947242736816e-01 -9.514757990837097168e-01 9.060466662049293518e-03 -2.827246189117431641e-01 -1.091573908925056458e-01
4.750000000000000000e+02 5.682041645050048828e+00 4.423465132713317871e-01 -6.469644069671630859e+00 -8.020627498626708984e-02 -1.964955091476440430e+00 8.498730063438415527e-01
4.760000000000000000e+02 2.226099729537963867e+00 -6.453637480735778809e-01 -3.197453916072845459e-01 -8.250095881521701813e-03 -9.839864820241928101e-02 -1.896741688251495361e-01
4.770000000000000000e+02 2.478810548782348633e+00 4.491901397705078125e-01 -1.674903869628906250e+00 -6.816334277391433716e-02 -5.229201912879943848e-01 6.225279569625854492e-01
4.780000000000000000e+02 5.702065944671630859e+00 9.720186591148376465e-01 -4.253924369812011719e+00 1.666540205478668213e-01 -1.226181030273437500e+00 1.379714965820312500e+00
4.790000000000000000e+02 9.861344695091247559e-01 4.200553297996520996e-01 -2.785504162311553955e-01 -8.139108866453170776e-02 -1.079824566841125488e-01 2.215382903814315796e-01
4.800000000000000000e+02 6.865882396697998047e+00 -6.946779489517211914e-01 -2.337617799639701843e-02 7.381217926740646362e-02 1.513079926371574402e-02 1.990805566310882568e-01
4.810000000000000000e+02 2.091331005096435547e+00 -1.111598134040832520e+00 -1.573029756546020508e-01 -3.201525658369064331e-02 -5.679546669125556946e-02 -2.519609034061431885e-01
4.820000000000000000e+02 7.375257492065429688e+00 -5.870767831802368164e-01 8.924286812543869019e-02 9.078396856784820557e-02 5.400805175304412842e-02 2.759508788585662842e-01
4.830000000000000000e+02 8.118208885192871094e+00 7.375722527503967285e-01 -4.414775848388671875e+00 9.209078550338745117e-01 -1.048160314559936523e+00 -1.096415162086486816e+00
4.840000000000000000e+02 7.182654380798339844e+00 8.083785176277160645e-01 -5.326573371887207031e+00 3.931143879890441895e-01 -1.480037689208984375e+00 4.759574234485626221e-01
4.850000000000000000e+02 8.061659812927246094e+00 -7.544200420379638672e-01 2.013232231140136719e+00 4.592925012111663818e-01 7.417573928833007812e-01 1.237753272056579590e+00
4.860000000000000000e+02 2.288366317749023438e+00 1.105708003044128418e+00 -1.097637891769409180e+00 -2.344831973314285278e-01 -3.996363282203674316e-01 1.196340799331665039e+00
4.870000000000000000e+02 1.893611550331115723e+00 8.765718936920166016e-01 -9.271134138107299805e-01 -2.120397090911865234e-01 -3.417459428310394287e-01 8.581404089927673340e-01
4.880000000000000000e+02 5.572792530059814453e+00 -1.114845037460327148e+00 8.270803838968276978e-02 1.003213450312614441e-01 5.490881577134132385e-02 5.552079156041145325e-02
4.890000000000000000e+02 3.494744300842285156e+00 -7.762568593025207520e-01 -4.767375886440277100e-01 1.556213945150375366e-02 -1.383526325225830078e-01 -1.996612995862960815e-01
4.900000000000000000e+02 4.491045475006103516e+00 -1.396871507167816162e-01 -1.270806550979614258e+00 -4.254466388374567032e-03 -3.825183212757110596e-01 -4.663918167352676392e-02
4.910000000000000000e+02 6.093074798583984375e+00 -6.247726082801818848e-01 -5.927746891975402832e-01 2.109016664326190948e-02 -1.715053617954254150e-01 -1.220074482262134552e-02
4.920000000000000000e+02 1.616156101226806641e+00 4.187647104263305664e-01 -7.210181355476379395e-01 -7.957698404788970947e-02 -2.401785403490066528e-01 4.140604138374328613e-01
4.930000000000000000e+02 8.265336036682128906e+00 -7.771984934806823730e-01 2.615516185760498047e+00 7.593665122985839844e-01 1.012464761734008789e+00 1.689411163330078125e+00
4.940000000000000000e+02 3.040254831314086914e+00 -6.597338318824768066e-01 -4.670851230621337891e-01 3.204528242349624634e-03 -1.391641795635223389e-01 -1.974073797464370728e-01
4.950000000000000000e+02 3.182293653488159180e+00 -1.286990880966186523e+00 -1.392874717712402344e-01 3.982234001159667969e-02 -2.983953803777694702e-02 -2.406653761863708496e-01
4.960000000000000000e+02 3.700124979019165039e+00 -8.394787311553955078e-01 -4.563099741935729980e-01 1.309664268046617508e-02 -1.329640001058578491e-01 -1.984741985797882080e-01
4.970000000000000000e+02 3.234292745590209961e+00 -8.975617885589599609e-01 -3.678103983402252197e-01 1.520742196589708328e-02 -1.057808920741081238e-01 -2.208694964647293091e-01
4.980000000000000000e+02 4.274090766906738281e+00 6.616340279579162598e-01 -3.762389898300170898e+00 -5.546101182699203491e-02 -1.145355343818664551e+00 1.158093929290771484e+00
4.990000000000000000e+02 4.685798168182373047e+00 8.589065670967102051e-01 -3.738014698028564453e+00 -4.528785496950149536e-02 -1.134990811347961426e+00 1.494450569152832031e+00
5.000000000000000000e+02 4.787053108215332031e+00 -5.285969376564025879e-01 -8.492755889892578125e-01 -3.156333696097135544e-03 -2.557295858860015869e-01 -1.179724484682083130e-01
5.010000000000000000e+02 5.083986759185791016e+00 3.485971391201019287e-01 -5.953638553619384766e+00 5.529658496379852295e-02 -1.769502639770507812e+00 6.840412616729736328e-01
5.020000000000000000e+02 3.631146907806396484e+00 8.523319959640502930e-01 -2.650075435638427734e+00 -5.877530947327613831e-02 -8.126552104949951172e-01 1.332089066505432129e+00
5.030000000000000000e+02 4.899170875549316406e+00 1.217303648591041565e-01 -6.331868648529052734e+00 5.180975422263145447e-02 -1.884017586708068848e+00 2.728244364261627197e-01
5.040000000000000000e+02 4.058701515197753906e+00 -3.757579624652862549e-01 -8.974821567535400391e-01 2.271093660965561867e-03 -2.685633003711700439e-01 -1.162898987531661987e-01
5.050000000000000000e+02 4.264520168304443359e+00 -4.013584554195404053e-01 -9.113450646400451660e-01 1.910653663799166679e-03 -2.728303372859954834e-01 -1.150540262460708618e-01
5.060000000000000000e+02 3.877544403076171875e+00 -3.376358151435852051e-01 -8.850698471069335938e-01 -1.631759660085663199e-04 -2.655699253082275391e-01 -1.102854534983634949e-01
5.070000000000000000e+02 3.712341070175170898e+00 1.157479882240295410e+00 -2.120178937911987305e+00 -1.580775082111358643e-01 -6.834769248962402344e-01 1.618740320205688477e+00
5.080000000000000000e+02 4.289303779602050781e+00 -1.402549445629119873e-01 -1.207899928092956543e+00 4.591420758515596390e-03 -3.609925508499145508e-01 -4.736876487731933594e-02
5.090000000000000000e+02 7.154691219329833984e-01 1.531558632850646973e-01 -3.421807289123535156e-02 -3.088119046879000962e-05 -1.027468591928482056e-02 3.519419208168983459e-02
5.100000000000000000e+02 1.283971667289733887e+00 1.132958233356475830e-01 -3.274544477462768555e-01 -9.713341481983661652e-03 -1.011503338813781738e-01 7.848668843507766724e-02
5.110000000000000000e+02 1.194373726844787598e+00 2.879570126533508301e-01 -3.674966096878051758e-01 -2.886231243610382080e-02 -1.189076751470565796e-01 2.102942019701004028e-01
5.120000000000000000e+02 1.338330149650573730e+00 5.902330279350280762e-01 -5.103678703308105469e-01 -1.227047294378280640e-01 -1.899217814207077026e-01 4.217535257339477539e-01
5.130000000000000000e+02 2.866396605968475342e-01 -1.433311402797698975e-01 -1.118700951337814331e-03 -2.934424672275781631e-03 -1.215937663801014423e-03 -2.503209514543414116e-03
5.140000000000000000e+02 9.295687675476074219e-01 -4.499128460884094238e-01 -8.579670637845993042e-02 -2.102744393050670624e-02 -3.204724565148353577e-02 -7.799120992422103882e-02
5.150000000000000000e+02 1.123660087585449219e+00 -4.487942457199096680e-01 -1.171386465430259705e-01 -1.894096843898296356e-02 -4.082388430833816528e-02 -9.074086695909500122e-02
5.160000000000000000e+02 1.509488821029663086e+00 -1.704776585102081299e-01 -2.122562676668167114e-01 -5.010555498301982880e-03 -6.518004834651947021e-02 -4.669610038399696350e-02
5.170000000000000000e+02 1.318691968917846680e+00 -4.570011496543884277e-01 -1.558750867843627930e-01 -1.804591342806816101e-02 -5.217630043625831604e-02 -1.088098138570785522e-01
5.180000000000000000e+02 1.519290566444396973e+00 -4.702608585357666016e-01 -1.966388374567031860e-01 -1.588625833392143250e-02 -6.375753134489059448e-02 -1.203336641192436218e-01
5.190000000000000000e+02 2.330801010131835938e+00 -1.092834845185279846e-01 -4.974732100963592529e-01 5.463336594402790070e-03 -1.476029604673385620e-01 -3.483064845204353333e-02
5.200000000000000000e+02 2.330002546310424805e+00 -4.076521396636962891e-01 -4.096018075942993164e-01 -2.015625825151801109e-03 -1.234852299094200134e-01 -1.372619420289993286e-01
5.210000000000000000e+02 2.854635238647460938e+00 -3.763575851917266846e-01 -5.724343657493591309e-01 -5.590917542576789856e-03 -1.734075844287872314e-01 -1.295861154794692993e-01
5.220000000000000000e+02 2.888637542724609375e+00 -1.353092640638351440e-01 -7.119603157043457031e-01 -8.546745404601097107e-03 -2.161521166563034058e-01 -4.558592289686203003e-02
5.230000000000000000e+02 3.525556325912475586e+00 -4.008805751800537109e-01 -7.420287132263183594e-01 2.881364198401570320e-04 -2.225221842527389526e-01 -1.289642602205276489e-01
5.240000000000000000e+02 3.712824344635009766e+00 -3.425129950046539307e-01 -8.340726494789123535e-01 4.474266432225704193e-03 -2.488795071840286255e-01 -1.113872677087783813e-01
5.250000000000000000e+02 3.153147101402282715e-01 -1.170158624649047852e+00 1.169973146170377731e-02 -1.292962282896041870e-01 -3.527894988656044006e-02 -6.079819798469543457e-02
5.260000000000000000e+02 1.098998665809631348e+00 1.383973240852355957e+00 -2.808461487293243408e-01 -5.869640707969665527e-01 -2.603430747985839844e-01 8.036260604858398438e-01
5.270000000000000000e+02 9.132696986198425293e-01 1.139184236526489258e+00 -2.257809191942214966e-01 -4.499062299728393555e-01 -2.027061432600021362e-01 5.771313905715942383e-01
5.280000000000000000e+02 1.297700524330139160e+00 1.380959510803222656e+00 -3.885607123374938965e-01 -5.163196325302124023e-01 -2.714641094207763672e-01 8.788849115371704102e-01
5.290000000000000000e+02 2.104677677154541016e+00 1.142934083938598633e+00 -9.443175196647644043e-01 -3.189661204814910889e-01 -3.789850771427154541e-01 1.202664732933044434e+00
5.300000000000000000e+02 2.105922222137451172e+00 1.380057573318481445e+00 -8.306000828742980957e-01 -3.760719001293182373e-01 -3.620015978813171387e-01 1.303223252296447754e+00
5.310000000000000000e+02 2.472120761871337891e+00 8.260114192962646484e-01 -1.469341754913330078e+00 -1.081116273999214172e-01 -4.732360243797302246e-01 1.034507393836975098e+00
5.320000000000000000e+02 2.684350728988647461e+00 1.070449829101562500e+00 -1.444989085197448730e+00 -1.561108827590942383e-01 -4.803299903869628906e-01 1.333748102188110352e+00
5.330000000000000000e+02 5.014388561248779297e-01 -1.180073738098144531e+00 -2.606008946895599365e-02 -1.437684595584869385e-01 -5.094856396317481995e-02 -1.156299337744712830e-01
5.340000000000000000e+02 1.898589730262756348e+00 -1.361667275428771973e+00 -9.437861293554306030e-02 -5.190785229206085205e-02 -4.388593882322311401e-02 -2.672043740749359131e-01
5.350000000000000000e+02 2.706937789916992188e+00 -1.351746082305908203e+00 -1.196732297539710999e-01 6.797865033149719238e-03 -3.386260941624641418e-02 -2.690212428569793701e-01
5.360000000000000000e+02 3.278998136520385742e+00 -1.419653534889221191e+00 -7.405062764883041382e-02 4.101226851344108582e-02 -9.911506436765193939e-03 -2.306619137525558472e-01
5.370000000000000000e+02 3.459973573684692383e+00 -1.375302791595458984e+00 -1.002973988652229309e-01 4.876309633255004883e-02 -1.546029001474380493e-02 -2.210984975099563599e-01
5.380000000000000000e+02 3.894383430480957031e+00 -1.369561672210693359e+00 -4.381199181079864502e-02 6.629270315170288086e-02 6.744212470948696136e-03 -1.754432618618011475e-01
5.390000000000000000e+02 4.101588249206542969e+00 -1.380870103836059570e+00 -1.606705039739608765e-02 7.319597899913787842e-02 1.713867671787738800e-02 -1.475261151790618896e-01
5.400000000000000000e+02 4.473862648010253906e+00 -1.373406052589416504e+00 1.326823793351650238e-02 8.390670269727706909e-02 2.915248274803161621e-02 -8.011871576309204102e-02
5.410000000000000000e+02 4.413926601409912109e+00 -9.825900197029113770e-01 -3.156349658966064453e-01 3.763198852539062500e-02 -8.340089768171310425e-02 -1.505690366029739380e-01
5.420000000000000000e+02 4.651007652282714844e+00 -1.034792780876159668e+00 -2.357133477926254272e-01 3.972750529646873474e-02 -5.879575386643409729e-02 -1.221579983830451965e-01
5.430000000000000000e+02 2.698109626770019531e+00 1.353659868240356445e+00 -1.174621820449829102e+00 -3.128880262374877930e-01 -4.462529718875885010e-01 1.545558810234069824e+00
5.440000000000000000e+02 3.203837871551513672e+00 1.046766161918640137e+00 -1.890599846839904785e+00 -1.413668394088745117e-01 -6.095899939537048340e-01 1.414382457733154297e+00
5.450000000000000000e+02 3.536650180816650391e+00 1.156954050064086914e+00 -1.996081352233886719e+00 -1.023524999618530273e-01 -6.295301318168640137e-01 1.576319932937622070e+00
5.460000000000000000e+02 3.511688947677612305e+00 1.383489131927490234e+00 -1.665722250938415527e+00 -2.014460712671279907e-01 -5.601505041122436523e-01 1.748478412628173828e+00
5.470000000000000000e+02 4.290624618530273438e+00 1.364819407463073730e+00 -2.090962171554565430e+00 -1.387118995189666748e-01 -6.689022183418273926e-01 1.811887383460998535e+00
5.480000000000000000e+02 4.488964080810546875e+00 1.358513236045837402e+00 -2.253516912460327148e+00 1.746340841054916382e-02 -6.708160638809204102e-01 1.755950689315795898e+00
5.490000000000000000e+02 4.898042678833007812e+00 1.361506700515747070e+00 -2.440298795700073242e+00 7.691953331232070923e-02 -7.090137600898742676e-01 1.731653928756713867e+00
5.500000000000000000e+02 5.317640781402587891e+00 1.127145648002624512e+00 -3.362135887145996094e+00 8.643953129649162292e-03 -1.006047606468200684e+00 1.584260702133178711e+00
5.510000000000000000e+02 5.302229404449462891e+00 1.374965667724609375e+00 -2.559581041336059570e+00 2.111406773328781128e-01 -7.045321464538574219e-01 1.669123172760009766e+00
5.520000000000000000e+02 6.038267612457275391e+00 1.127481818199157715e+00 -3.671256303787231445e+00 2.327782958745956421e-01 -1.031543374061584473e+00 1.307943463325500488e+00
5.530000000000000000e+02 5.891308784484863281e+00 1.382144212722778320e+00 -2.554420471191406250e+00 2.633812427520751953e-01 -6.873117685317993164e-01 1.357320427894592285e+00
5.540000000000000000e+02 5.990163803100585938e+00 9.407597780227661133e-01 -4.573878288269042969e+00 2.077232152223587036e-01 -1.309846520423889160e+00 1.226778984069824219e+00
5.550000000000000000e+02 6.492058277130126953e+00 1.148414731025695801e+00 -3.527081012725830078e+00 3.432342410087585449e-01 -9.551540017127990723e-01 1.023428797721862793e+00
5.560000000000000000e+02 6.495021343231201172e+00 1.377065539360046387e+00 -2.687525987625122070e+00 7.539768218994140625e-01 -5.800647735595703125e-01 9.088345170021057129e-01
5.570000000000000000e+02 6.886942863464355469e+00 1.372913599014282227e+00 -2.489029169082641602e+00 1.050556421279907227e+00 -4.315418303012847900e-01 4.575104117393493652e-01
5.580000000000000000e+02 7.049162387847900391e+00 1.097934365272521973e+00 -3.712835788726806641e+00 7.741868495941162109e-01 -8.815946578979492188e-01 4.038390815258026123e-01
5.590000000000000000e+02 7.699464797973632812e+00 1.070272088050842285e+00 -3.119735956192016602e+00 1.171478867530822754e+00 -5.844771265983581543e-01 -8.435838818550109863e-01
5.600000000000000000e+02 7.895280361175537109e+00 1.076510429382324219e+00 -2.712637662887573242e+00 1.557065963745117188e+00 -3.466714918613433838e-01 -1.275320768356323242e+00
5.610000000000000000e+02 8.438706398010253906e+00 9.416235089302062988e-01 -2.059547662734985352e+00 2.107454538345336914e+00 1.437206938862800598e-02 -2.955260515213012695e+00
5.620000000000000000e+02 8.499334335327148438e+00 1.141542434692382812e+00 -6.246004700660705566e-01 3.535520553588867188e+00 8.732759952545166016e-01 -4.069613933563232422e+00
5.630000000000000000e+02 8.500323295593261719e+00 1.375605583190917969e+00 -6.932750344276428223e-02 4.916127681732177734e+00 1.454040050506591797e+00 -4.335927486419677734e+00
5.640000000000000000e+02 9.372192382812500000e+00 1.157221794128417969e+00 8.507210612297058105e-01 1.175387096405029297e+01 3.781377792358398438e+00 -9.804499626159667969e+00
5.650000000000000000e+02 1.009897041320800781e+01 1.360965251922607422e+00 -1.278687596321105957e+00 2.242889785766601562e+01 6.345063209533691406e+00 -7.323872566223144531e+00
5.660000000000000000e+02 1.029183864593505859e+01 1.070809483528137207e+00 -9.961329698562622070e-01 2.610400581359863281e+01 7.532361507415771484e+00 -5.195460796356201172e+00
5.670000000000000000e+02 1.094621753692626953e+01 1.065440058708190918e+00 4.029865741729736328e+00 2.232025909423828125e+01 7.905037403106689453e+00 -1.022515535354614258e+00
5.680000000000000000e+02 1.105038261413574219e+01 9.287655949592590332e-01 4.742981433868408203e+00 2.124690628051757812e+01 7.796966075897216797e+00 1.024064540863037109e+00
5.690000000000000000e+02 1.134867191314697266e+01 4.438386559486389160e-01 1.100498390197753906e+01 1.748660850524902344e+01 8.547477722167968750e+00 5.854282975196838379e-01
5.700000000000000000e+02 1.137658119201660156e+01 1.111932620406150818e-01 1.143905925750732422e+01 1.796995544433593750e+01 8.822704315185546875e+00 -9.368217587471008301e-01
5.710000000000000000e+02 1.135768222808837891e+01 -8.660465478897094727e-02 1.265804100036621094e+01 1.664403533935546875e+01 8.790622711181640625e+00 -1.651613116264343262e+00
5.720000000000000000e+02 1.114956474304199219e+01 -7.495307922363281250e-01 8.640747070312500000e+00 1.993370437622070312e+01 8.572335243225097656e+00 -4.320543766021728516e+00
5.730000000000000000e+02 1.055389499664306641e+01 -9.605528712272644043e-01 4.306060314178466797e+00 2.543683815002441406e+01 8.922869682312011719e+00 -1.495474338531494141e+00
5.740000000000000000e+02 9.789915084838867188e+00 -1.310788512229919434e+00 2.606270313262939453e+00 1.730868721008300781e+01 5.974486827850341797e+00 6.703248023986816406e+00
5.750000000000000000e+02 9.878663063049316406e+00 -1.433499455451965332e+00 1.876379251480102539e+00 1.805771827697753906e+01 5.980229377746582031e+00 5.527371406555175781e+00
5.760000000000000000e+02 9.613013267517089844e+00 -1.223307251930236816e+00 3.693072080612182617e+00 1.480937004089355469e+01 5.550732612609863281e+00 7.651908874511718750e+00
5.770000000000000000e+02 9.401084899902343750e+00 -1.164552330970764160e+00 4.916391372680664062e+00 1.106906223297119141e+01 4.795636177062988281e+00 7.717340946197509766e+00
5.780000000000000000e+02 9.330183982849121094e+00 -1.384363412857055664e+00 3.889174461364746094e+00 1.052401256561279297e+01 4.323956012725830078e+00 6.956521987915039062e+00
5.790000000000000000e+02 8.930303573608398438e+00 -1.360448479652404785e+00 4.585243701934814453e+00 6.137947082519531250e+00 3.216957092285156250e+00 5.785636901855468750e+00
5.800000000000000000e+02 8.432847976684570312e+00 -8.934742808341979980e-01 3.537251949310302734e+00 1.394187569618225098e+00 1.479431867599487305e+00 2.536616802215576172e+00
5.810000000000000000e+02 7.889681339263916016e+00 -1.347106099128723145e+00 2.907823562622070312e+00 1.526926159858703613e+00 1.330424904823303223e+00 2.307961702346801758e+00
5.820000000000000000e+02 7.666182994842529297e+00 -1.057257175445556641e+00 2.088311433792114258e+00 6.902948021888732910e-01 8.335818648338317871e-01 1.345229625701904297e+00
5.830000000000000000e+02 7.463826179504394531e+00 -1.071149468421936035e+00 1.679829359054565430e+00 4.916933178901672363e-01 6.514568328857421875e-01 1.047510504722595215e+00
5.840000000000000000e+02 7.487630367279052734e+00 -1.353373289108276367e+00 2.213458538055419922e+00 9.655432105064392090e-01 9.537005424499511719e-01 1.591228127479553223e+00
5.850000000000000000e+02 6.558133602142333984e+00 -1.260167956352233887e+00 9.374765157699584961e-01 3.339188694953918457e-01 3.814186155796051025e-01 5.619624853134155273e-01
5.860000000000000000e+02 6.502818107604980469e+00 -1.416561841964721680e+00 1.039458036422729492e+00 4.107505977153778076e-01 4.350625872611999512e-01 6.604045033454895020e-01
5.870000000000000000e+02 5.915615558624267578e+00 -1.386669874191284180e+00 6.047495603561401367e-01 2.300896644592285156e-01 2.504517734050750732e-01 2.964199483394622803e-01
5.880000000000000000e+02 6.147385597229003906e+00 -1.184150934219360352e+00 4.460214674472808838e-01 1.887268424034118652e-01 1.904244869947433472e-01 2.674688398838043213e-01
5.890000000000000000e+02 5.952733516693115234e+00 -1.164222836494445801e+00 3.208580017089843750e-01 1.271676868200302124e-01 1.344076991081237793e-01 1.903802007436752319e-01
5.900000000000000000e+02 2.070889949798583984e+00 4.941557049751281738e-01 -1.194073915481567383e+00 -7.644239068031311035e-02 -3.811548948287963867e-01 6.060885787010192871e-01
5.910000000000000000e+02 4.889294624328613281e+00 -1.243731975555419922e-01 -1.392874002456665039e+00 -9.555804543197154999e-03 -4.207289218902587891e-01 -4.100363701581954956e-02
5.920000000000000000e+02 5.086661815643310547e+00 -1.319323629140853882e-01 -1.455385446548461914e+00 4.500869661569595337e-03 -4.352653920650482178e-01 -4.458288475871086121e-02
5.930000000000000000e+02 5.283787727355957031e+00 -1.421496123075485229e-01 -1.512913703918457031e+00 -3.898572642356157303e-03 -4.550436735153198242e-01 -4.386172443628311157e-02
5.940000000000000000e+02 5.454619407653808594e+00 -4.220358133316040039e-01 -1.034955501556396484e+00 -5.209647584706544876e-03 -3.120495676994323730e-01 -8.945013582706451416e-02
5.950000000000000000e+02 5.032251358032226562e+00 -9.147278070449829102e-01 -3.199687600135803223e-01 5.706980079412460327e-02 -7.886969298124313354e-02 -8.668307960033416748e-02
5.960000000000000000e+02 5.672704696655273438e+00 -4.032779037952423096e-01 -1.085975646972656250e+00 1.822264865040779114e-02 -3.203259110450744629e-01 -7.814715802669525146e-02
5.970000000000000000e+02 5.689333438873291016e+00 -1.425580382347106934e-01 -1.607345819473266602e+00 -9.671161882579326630e-03 -4.851050674915313721e-01 -3.965377062559127808e-02
5.980000000000000000e+02 6.094984531402587891e+00 -1.345948725938796997e-01 -1.694970726966857910e+00 -1.034320425242185593e-02 -5.115941762924194336e-01 -3.547424823045730591e-02
5.990000000000000000e+02 6.499288082122802734e+00 -3.624794781208038330e-01 -1.125719070434570312e+00 2.034350112080574036e-02 -3.316126465797424316e-01 -2.725432626903057098e-02
6.000000000000000000e+02 6.500439167022705078e+00 -1.290287375450134277e-01 -1.773923158645629883e+00 -8.862343616783618927e-03 -5.348356366157531738e-01 -3.092785924673080444e-02
6.010000000000000000e+02 6.907692909240722656e+00 -4.148274362087249756e-01 -8.372237682342529297e-01 4.437071084976196289e-02 -2.378559261560440063e-01 4.289533570408821106e-02
6.020000000000000000e+02 6.903815746307373047e+00 -1.389468610286712646e-01 -1.830500483512878418e+00 -1.718395948410034180e-02 -5.543053746223449707e-01 -2.747059613466262817e-02
6.030000000000000000e+02 7.121029853820800781e+00 -4.067460894584655762e-01 -7.746652960777282715e-01 1.454811543226242065e-02 -2.280351519584655762e-01 5.130230635404586792e-02
6.040000000000000000e+02 7.673297882080078125e+00 -3.812748491764068604e-01 -4.634187817573547363e-01 1.378232091665267944e-01 -9.767866879701614380e-02 2.266123890876770020e-01
6.050000000000000000e+02 8.090831756591796875e+00 -4.654213786125183105e-01 7.426616549491882324e-01 1.500635296106338501e-01 2.678175568580627441e-01 5.472040772438049316e-01
6.060000000000000000e+02 8.513357162475585938e+00 -9.385216236114501953e-02 -1.453238010406494141e+00 3.853200748562812805e-02 -4.244118034839630127e-01 8.038054220378398895e-03
6.070000000000000000e+02 8.694006919860839844e+00 -9.929644316434860229e-02 -1.124354124069213867e+00 1.221861243247985840e-01 -3.006504178047180176e-01 2.151361703872680664e-01
6.080000000000000000e+02 8.780900955200195312e+00 -5.805974006652832031e-01 4.124064922332763672e+00 1.134930014610290527e+00 1.577698469161987305e+00 2.432227849960327148e+00
6.090000000000000000e+02 9.002408027648925781e+00 -5.003924965858459473e-01 5.191035270690917969e+00 1.396050930023193359e+00 1.976125836372375488e+00 3.151126146316528320e+00
6.100000000000000000e+02 2.677865982055664062e+00 4.797182679176330566e-01 -1.878619313240051270e+00 -2.701820060610771179e-02 -5.716912746429443359e-01 6.791687607765197754e-01
6.110000000000000000e+02 3.502223491668701172e+00 1.595564931631088257e-01 -3.490410566329956055e+00 -6.474131345748901367e-02 -1.066545605659484863e+00 2.957924604415893555e-01
6.120000000000000000e+02 4.110939979553222656e+00 1.544675827026367188e-01 -4.664290904998779297e+00 7.008522748947143555e-02 -1.378261685371398926e+00 3.151599764823913574e-01
6.130000000000000000e+02 4.331385135650634766e+00 4.170958399772644043e-01 -4.494287967681884766e+00 5.040401965379714966e-02 -1.333165287971496582e+00 8.163803815841674805e-01
6.140000000000000000e+02 4.723761558532714844e+00 6.832276582717895508e-01 -4.196932792663574219e+00 -3.341501578688621521e-02 -1.269104242324829102e+00 1.163420200347900391e+00
6.150000000000000000e+02 5.272310256958007812e+00 3.729754388332366943e-01 -6.179065704345703125e+00 -7.773700356483459473e-02 -1.877040743827819824e+00 7.547193765640258789e-01
6.160000000000000000e+02 5.293497562408447266e+00 1.325630992650985718e-01 -7.149891376495361328e+00 3.722305595874786377e-02 -2.133800506591796875e+00 2.812980115413665771e-01
6.170000000000000000e+02 5.232282638549804688e+00 6.048842072486877441e-01 -5.239012718200683594e+00 3.835668042302131653e-02 -1.560196757316589355e+00 1.067195296287536621e+00
6.180000000000000000e+02 8.746415138244628906e+00 3.600572347640991211e-01 -6.078670024871826172e+00 1.844429373741149902e-01 -1.768268108367919922e+00 -1.124121189117431641e+00
6.190000000000000000e+02 8.305797576904296875e+00 1.427644640207290649e-01 -1.097031402587890625e+01 7.495935540646314621e-03 -3.288845539093017578e+00 8.301971852779388428e-02
6.200000000000000000e+02 7.901810646057128906e+00 1.449706256389617920e-01 -1.108518409729003906e+01 6.002779677510261536e-02 -3.307546854019165039e+00 1.347345411777496338e-01
6.210000000000000000e+02 7.500181674957275391e+00 4.128713011741638184e-01 -8.362780570983886719e+00 1.235477402806282043e-01 -2.471769809722900391e+00 3.167325556278228760e-01
6.220000000000000000e+02 7.501165390014648438e+00 1.396588683128356934e-01 -1.086580562591552734e+01 -7.763856649398803711e-02 -3.283033370971679688e+00 2.133955359458923340e-01
6.230000000000000000e+02 6.921849727630615234e+00 3.830473423004150391e-01 -8.324736595153808594e+00 -5.446081608533859253e-02 -2.513759374618530273e+00 5.313082933425903320e-01
6.240000000000000000e+02 6.729214191436767578e+00 3.933477997779846191e-01 -8.116125106811523438e+00 1.203922033309936523e-01 -2.398719787597656250e+00 6.219012737274169922e-01
6.250000000000000000e+02 6.333845615386962891e+00 4.256263971328735352e-01 -7.493109703063964844e+00 1.017631813883781433e-01 -2.217404127120971680e+00 7.210029363632202148e-01
6.260000000000000000e+02 6.309340953826904297e+00 1.476686298847198486e-01 -9.106029510498046875e+00 -5.939720198512077332e-02 -2.749628067016601562e+00 3.461509644985198975e-01
6.270000000000000000e+02 5.493331432342529297e+00 1.431408077478408813e-01 -7.547198772430419922e+00 -8.260750770568847656e-02 -2.288941860198974609e+00 3.207184970378875732e-01
6.280000000000000000e+02 8.807046890258789062e+00 5.908421874046325684e-01 -2.570424556732177734e+00 1.674618005752563477e+00 -2.687419354915618896e-01 -3.166837453842163086e+00
6.290000000000000000e+02 9.641102790832519531e+00 1.027891039848327637e+00 5.389738678932189941e-01 1.649695587158203125e+01 5.110778808593750000e+00 -1.085833644866943359e+01
6.300000000000000000e+02 9.723552703857421875e+00 1.164067268371582031e+00 -4.485941529273986816e-01 1.891643524169921875e+01 5.540352344512939453e+00 -1.082244777679443359e+01
6.310000000000000000e+02 9.169920921325683594e+00 -7.426183819770812988e-01 6.650519847869873047e+00 4.579844951629638672e+00 3.369109392166137695e+00 6.051970005035400391e+00
6.320000000000000000e+02 9.013514518737792969e+00 -8.671277761459350586e-01 5.887653827667236328e+00 4.523579120635986328e+00 3.123369693756103516e+00 5.497731685638427734e+00
6.330000000000000000e+02 1.013618946075439453e+01 -1.204873919486999512e+00 1.748172879219055176e+00 2.209206390380859375e+01 7.152070999145507812e+00 4.052570819854736328e+00
6.340000000000000000e+02 1.096621036529541016e+01 -5.681729912757873535e-01 1.011239814758300781e+01 2.196562004089355469e+01 9.623405456542968750e+00 -4.455424785614013672e+00
6.350000000000000000e+02 1.110134124755859375e+01 4.364140033721923828e-01 1.136735630035400391e+01 2.079497528076171875e+01 9.648699760437011719e+00 1.192204594612121582e+00
6.360000000000000000e+02 1.073451900482177734e+01 1.042677521705627441e+00 2.930401802062988281e+00 2.534550476074218750e+01 8.482771873474121094e+00 -1.866783738136291504e+00
6.370000000000000000e+02 7.196813225746154785e-01 1.133157849311828613e+00 -1.874144673347473145e-01 -3.807890415191650391e-01 -1.704610437154769897e-01 4.257542490959167480e-01
6.380000000000000000e+02 5.095959901809692383e-01 9.234093427658081055e-01 -8.187489956617355347e-02 -2.381898015737533569e-01 -9.601940959692001343e-02 1.938636451959609985e-01
6.390000000000000000e+02 9.473596811294555664e-01 8.759135007858276367e-01 -2.998589575290679932e-01 -2.597752809524536133e-01 -1.678902655839920044e-01 4.076406061649322510e-01
6.400000000000000000e+02 8.585849761962890625e+00 6.451504826545715332e-01 -3.363104104995727539e+00 1.126796722412109375e+00 -6.708921790122985840e-01 -2.244432210922241211e+00
6.410000000000000000e+02 3.430184721946716309e-01 -6.891425848007202148e-01 -1.295806001871824265e-02 -4.963530972599983215e-02 -1.877801120281219482e-02 -3.977485001087188721e-02
6.420000000000000000e+02 8.211489915847778320e-01 -1.136243939399719238e+00 -4.698847606778144836e-02 -1.187962070107460022e-01 -4.973540455102920532e-02 -1.558395475149154663e-01
6.430000000000000000e+02 7.618465423583984375e-01 -8.771122694015502930e-01 -4.123494029045104980e-02 -8.686281740665435791e-02 -3.842932730913162231e-02 -1.146878600120544434e-01
6.440000000000000000e+02 1.128251910209655762e+00 -7.265512347221374512e-01 -1.087466850876808167e-01 -4.446242377161979675e-02 -4.596273228526115417e-02 -1.412848383188247681e-01
6.450000000000000000e+02 7.798145771026611328e+00 8.820459842681884766e-01 -4.034246921539306641e+00 9.762470722198486328e-01 -9.173998832702636719e-01 -7.175555229187011719e-01
6.460000000000000000e+02 7.292043209075927734e+00 6.492977738380432129e-01 -6.350317478179931641e+00 4.231001734733581543e-01 -1.778165221214294434e+00 3.629552125930786133e-01
6.470000000000000000e+02 7.491149425506591797e+00 7.071627378463745117e-01 -5.834529876708984375e+00 3.137902915477752686e-01 -1.656221866607666016e+00 9.402318298816680908e-02
6.480000000000000000e+02 7.897399425506591797e+00 6.969326734542846680e-01 -5.291419029235839844e+00 5.459740161895751953e-01 -1.423633575439453125e+00 -5.842668414115905762e-01
6.490000000000000000e+02 7.121828079223632812e+00 6.090865731239318848e-01 -6.823565006256103516e+00 6.373759359121322632e-02 -2.027948141098022461e+00 5.179663896560668945e-01
6.500000000000000000e+02 6.947204589843750000e+00 6.253395080566406250e-01 -6.733341693878173828e+00 2.419293969869613647e-01 -1.947423696517944336e+00 6.683745980262756348e-01
6.510000000000000000e+02 6.761960983276367188e+00 6.432615518569946289e-01 -6.486197471618652344e+00 7.765822112560272217e-02 -1.922561764717102051e+00 7.751743793487548828e-01
6.520000000000000000e+02 6.371105194091796875e+00 7.061058282852172852e-01 -5.871289253234863281e+00 3.128486499190330505e-02 -1.752001285552978516e+00 9.718172550201416016e-01
6.530000000000000000e+02 5.778918266296386719e+00 8.067899346351623535e-01 -5.087719440460205078e+00 5.960242077708244324e-02 -1.508435010910034180e+00 1.217119097709655762e+00
6.540000000000000000e+02 5.950025081634521484e+00 7.224904298782348633e-01 -5.427103519439697266e+00 -1.956382580101490021e-02 -1.634000182151794434e+00 1.081700325012207031e+00
6.550000000000000000e+02 5.419727802276611328e+00 6.486015915870666504e-01 -5.323746204376220703e+00 -5.874426290392875671e-02 -1.614747166633605957e+00 1.153975605964660645e+00
6.560000000000000000e+02 5.058570861816406250e+00 5.610458850860595703e-01 -5.150586128234863281e+00 -5.251993611454963684e-02 -1.560931801795959473e+00 1.057503938674926758e+00
6.570000000000000000e+02 6.443637371063232422e+00 9.457973241806030273e-01 -4.632890224456787109e+00 2.653479874134063721e-01 -1.310262680053710938e+00 9.822512865066528320e-01
6.580000000000000000e+02 8.837642669677734375e+00 -7.290750741958618164e-01 4.988693714141845703e+00 2.009150743484497070e+00 2.099353313446044922e+00 3.485110759735107422e+00
6.590000000000000000e+02 8.703968048095703125e+00 -8.356453180313110352e-01 4.531910896301269531e+00 2.015416622161865234e+00 1.964198231697082520e+00 3.369108438491821289e+00
6.600000000000000000e+02 8.839380264282226562e+00 -8.827289342880249023e-01 5.420348644256591797e+00 3.007794141769409180e+00 2.528442859649658203e+00 4.451956748962402344e+00
6.610000000000000000e+02 7.849783420562744141e+00 -7.420578598976135254e-01 1.495426893234252930e+00 3.669385313987731934e-01 5.587096214294433594e-01 8.985420465469360352e-01
6.620000000000000000e+02 7.432171344757080078e+00 -8.125846982002258301e-01 9.393172860145568848e-01 3.212052583694458008e-01 3.781567811965942383e-01 6.662552356719970703e-01
6.630000000000000000e+02 7.247812271118164062e+00 -8.348821401596069336e-01 7.734558582305908203e-01 2.299494147300720215e-01 3.010215759277343750e-01 5.242139101028442383e-01
6.640000000000000000e+02 6.707566261291503906e+00 -1.137985229492187500e+00 8.653878569602966309e-01 2.864291369915008545e-01 3.455450832843780518e-01 5.172930359840393066e-01
6.650000000000000000e+02 6.152390956878662109e+00 9.818547368049621582e-01 -4.310314178466796875e+00 1.223157793283462524e-01 -1.256399512290954590e+00 1.209963202476501465e+00
6.660000000000000000e+02 5.166089534759521484e+00 8.400604128837585449e-01 -4.273975849151611328e+00 -4.995185136795043945e-02 -1.297178387641906738e+00 1.419275999069213867e+00
6.670000000000000000e+02 4.488036632537841797e+00 7.870783209800720215e-01 -3.688235998153686523e+00 -7.026056759059429169e-03 -1.108578681945800781e+00 1.283410310745239258e+00
6.680000000000000000e+02 3.789488315582275391e+00 9.651583433151245117e-01 -2.531120300292968750e+00 -1.001281812787055969e-01 -7.893745899200439453e-01 1.502648711204528809e+00
6.690000000000000000e+02 3.485383033752441406e+00 9.789987802505493164e-01 -2.285990238189697266e+00 -1.216535270214080811e-01 -7.222931385040283203e-01 1.457685470581054688e+00
6.700000000000000000e+02 3.102208375930786133e+00 4.528451859951019287e-01 -2.480153083801269531e+00 7.884195074439048767e-03 -7.416806817054748535e-01 7.253983616828918457e-01
6.710000000000000000e+02 2.668821096420288086e+00 7.853702306747436523e-01 -1.698758840560913086e+00 -1.369248330593109131e-01 -5.507050752639770508e-01 1.066201210021972656e+00
6.720000000000000000e+02 2.879905700683593750e+00 1.040180444717407227e+00 -1.622543096542358398e+00 -2.037092894315719604e-01 -5.478757023811340332e-01 1.399678587913513184e+00
6.730000000000000000e+02 2.283032178878784180e+00 8.337278962135314941e-01 -1.259370803833007812e+00 -1.685250699520111084e-01 -4.283687770366668701e-01 1.005866408348083496e+00
6.740000000000000000e+02 2.023591279983520508e+00 9.913223981857299805e-01 -1.016293883323669434e+00 -2.196421623229980469e-01 -3.707807958126068115e-01 1.063696622848510742e+00
6.750000000000000000e+02 1.773169398307800293e+00 1.094848155975341797e+00 -7.482698559761047363e-01 -3.038999438285827637e-01 -3.156509399414062500e-01 1.015588164329528809e+00
6.760000000000000000e+02 1.610540509223937988e+00 9.875396490097045898e-01 -6.572370529174804688e-01 -3.111860454082489014e-01 -2.905269265174865723e-01 8.378453254699707031e-01
6.770000000000000000e+02 7.322433948516845703e+00 -3.674551546573638916e-01 -8.615615367889404297e-01 6.594703346490859985e-02 -2.386843562126159668e-01 5.454382672905921936e-02
6.780000000000000000e+02 7.189186573028564453e+00 -6.365131139755249023e-01 6.600384414196014404e-02 1.175731644034385681e-01 5.507310107350349426e-02 2.789463996887207031e-01
6.790000000000000000e+02 6.494585990905761719e+00 -5.667870044708251953e-01 -6.481579542160034180e-01 -3.231418086215853691e-03 -1.954168230295181274e-01 2.193812467157840729e-02
6.800000000000000000e+02 6.665716648101806641e+00 -6.086487770080566406e-01 -4.089212715625762939e-01 9.117946773767471313e-02 -9.532254189252853394e-02 1.042275875806808472e-01
6.810000000000000000e+02 5.662438392639160156e+00 -6.451626420021057129e-01 -6.629915237426757812e-01 1.227504294365644455e-02 -1.952149569988250732e-01 -5.098171159625053406e-02
6.820000000000000000e+02 5.153976440429687500e+00 -6.769131422042846680e-01 -6.428032517433166504e-01 1.749950461089611053e-02 -1.875911206007003784e-01 -1.032314375042915344e-01
6.830000000000000000e+02 4.689115524291992188e+00 -3.678166568279266357e-01 -1.026383876800537109e+00 -2.959194825962185860e-03 -3.088029325008392334e-01 -1.017038151621818542e-01
6.840000000000000000e+02 4.881676197052001953e+00 -8.163195252418518066e-01 -4.949310123920440674e-01 2.110812626779079437e-02 -1.421468704938888550e-01 -1.258251816034317017e-01
6.850000000000000000e+02 4.461433410644531250e+00 -6.964415907859802246e-01 -6.321525573730468750e-01 7.044943049550056458e-03 -1.875322759151458740e-01 -1.514982134103775024e-01
6.860000000000000000e+02 4.224597930908203125e+00 -6.622968316078186035e-01 -6.366515755653381348e-01 1.835943385958671570e-02 -1.854876428842544556e-01 -1.529213488101959229e-01
6.870000000000000000e+02 3.801926136016845703e+00 -5.143706202507019043e-01 -7.085689306259155273e-01 2.832375699654221535e-03 -2.117209732532501221e-01 -1.491303890943527222e-01
6.880000000000000000e+02 3.630661249160766602e+00 -6.272665858268737793e-01 -5.948141813278198242e-01 7.114752661436796188e-03 -1.763098239898681641e-01 -1.761747449636459351e-01
6.890000000000000000e+02 2.568556547164916992e+00 -5.380747914314270020e-01 -4.233477413654327393e-01 -6.293926853686571121e-03 -1.288924962282180786e-01 -1.736490279436111450e-01
6.900000000000000000e+02 1.276379942893981934e+00 9.805626869201660156e-01 -4.744108617305755615e-01 -2.992320656776428223e-01 -2.320928722620010376e-01 6.614490747451782227e-01
6.910000000000000000e+02 1.473438262939453125e+00 1.130170464515686035e+00 -5.625424385070800781e-01 -3.512745499610900879e-01 -2.741450965404510498e-01 8.801751136779785156e-01
6.920000000000000000e+02 6.174290180206298828e+00 -9.929761886596679688e-01 1.966672837734222412e-01 1.225613132119178772e-01 9.576857835054397583e-02 1.675359606742858887e-01
6.930000000000000000e+02 5.829972267150878906e+00 -8.968052864074707031e-01 -1.632772237062454224e-01 5.792625248432159424e-02 -3.160529211163520813e-02 3.723960742354393005e-02
6.940000000000000000e+02 5.305361270904541016e+00 -7.824894189834594727e-01 -5.031638145446777344e-01 3.540220111608505249e-02 -1.403284817934036255e-01 -7.598166167736053467e-02
6.950000000000000000e+02 4.869118213653564453e+00 -1.037578105926513672e+00 -2.147595882415771484e-01 5.648896843194961548e-02 -4.748118296265602112e-02 -1.001662537455558777e-01
6.960000000000000000e+02 4.970853805541992188e+00 -6.024886965751647949e-01 -7.486329674720764160e-01 2.207715995609760284e-02 -2.179667502641677856e-01 -1.109019368886947632e-01
6.970000000000000000e+02 6.597208976745605469e+00 -9.410620927810668945e-01 3.298715054988861084e-01 1.341527104377746582e-01 1.392072588205337524e-01 2.841958403587341309e-01
6.980000000000000000e+02 1.099483966827392578e+00 6.637505888938903809e-01 -3.768930435180664062e-01 -1.429592818021774292e-01 -1.559557020664215088e-01 3.936945497989654541e-01
6.990000000000000000e+02 4.873821258544921875e+00 8.694833517074584961e-01 -3.870922803878784180e+00 4.064439609646797180e-02 -1.149083495140075684e+00 1.452567696571350098e+00
7.000000000000000000e+02 4.735702037811279297e+00 5.310602784156799316e-01 -4.860579490661621094e+00 -7.334569096565246582e-02 -1.480177521705627441e+00 9.088379144668579102e-01
7.010000000000000000e+02 4.781222641468048096e-01 7.325435876846313477e-01 -9.949555248022079468e-02 -2.016932666301727295e-01 -9.035664051771163940e-02 1.719608753919601440e-01
7.020000000000000000e+02 6.524793505668640137e-01 6.480366587638854980e-01 -1.600829809904098511e-01 -1.127145513892173767e-01 -8.183925598859786987e-02 2.023270726203918457e-01
7.030000000000000000e+02 5.329104065895080566e-01 -9.645437002182006836e-01 -1.729799620807170868e-02 -9.837235510349273682e-02 -3.470110520720481873e-02 -8.545456081628799438e-02
7.040000000000000000e+02 7.783585786819458008e-01 -7.012048959732055664e-01 -6.153567135334014893e-02 -5.541159212589263916e-02 -3.508418053388595581e-02 -9.684084355831146240e-02
7.050000000000000000e+02 6.917028427124023438e-01 -1.030764341354370117e+00 -5.630051717162132263e-02 -8.755943924188613892e-02 -4.315798729658126831e-02 -1.279859244823455811e-01
7.060000000000000000e+02 6.293925642967224121e-01 -7.808761000633239746e-01 -3.961246833205223083e-02 -5.428913608193397522e-02 -2.817048132419586182e-02 -8.064038306474685669e-02
7.070000000000000000e+02 9.472883939743041992e-01 -7.062159180641174316e-01 -8.006370812654495239e-02 -4.678609222173690796e-02 -3.805493935942649841e-02 -1.153809279203414917e-01
7.080000000000000000e+02 4.776030778884887695e-01 5.666073560714721680e-01 -8.953643590211868286e-02 -1.051028296351432800e-01 -5.839177593588829041e-02 9.211581945419311523e-02
7.090000000000000000e+02 1.538459300994873047e+00 6.425859332084655762e-01 -6.681167483329772949e-01 -1.547275930643081665e-01 -2.468533068895339966e-01 5.485469102859497070e-01
7.100000000000000000e+02 5.843770027160644531e+00 9.733428359031677246e-01 -4.371701717376708984e+00 5.098347365856170654e-02 -1.296215534210205078e+00 1.333208680152893066e+00
7.110000000000000000e+02 4.688058853149414062e+00 -7.520776391029357910e-01 -5.915318727493286133e-01 2.484854124486446381e-02 -1.700050085783004761e-01 -1.396854221820831299e-01
7.120000000000000000e+02 1.718168497085571289e+00 -7.818244099617004395e-01 -1.941515207290649414e-01 -2.379654347896575928e-02 -6.538441777229309082e-02 -1.904547661542892456e-01
7.130000000000000000e+02 2.141017913818359375e+00 -8.937534093856811523e-01 -2.261735349893569946e-01 -1.514762639999389648e-02 -7.239634543657302856e-02 -2.327891886234283447e-01
7.140000000000000000e+02 3.295278072357177734e+00 4.408143162727355957e-01 -2.810969591140747070e+00 -8.241214603185653687e-02 -8.680145144462585449e-01 7.444261908531188965e-01
7.150000000000000000e+02 3.908945798873901367e+00 7.542336583137512207e-01 -3.174859762191772461e+00 -8.465666323900222778e-02 -9.778549075126647949e-01 1.237962484359741211e+00
7.160000000000000000e+02 4.898604869842529297e+00 3.364383876323699951e-01 -5.688705921173095703e+00 -4.416093230247497559e-02 -1.719860076904296875e+00 6.792330145835876465e-01
7.170000000000000000e+02 4.172647476196289062e+00 -9.147674441337585449e-01 -4.080235064029693604e-01 1.907254941761493683e-02 -1.166852861642837524e-01 -1.744122803211212158e-01
7.180000000000000000e+02 4.341487407684326172e+00 -1.208051443099975586e+00 -1.220476105809211731e-01 4.837616533041000366e-02 -2.210143394768238068e-02 -1.428042948246002197e-01
7.190000000000000000e+02 3.930785894393920898e+00 -8.624976873397827148e-01 -4.442318975925445557e-01 2.728959172964096069e-02 -1.250827014446258545e-01 -1.864256262779235840e-01
7.200000000000000000e+02 3.666007995605468750e+00 -1.085257411003112793e+00 -2.697724401950836182e-01 3.437427431344985962e-02 -7.061945647001266479e-02 -2.129302173852920532e-01
7.210000000000000000e+02 3.434339046478271484e+00 -1.001948237419128418e+00 -3.146371245384216309e-01 1.283208932727575302e-02 -9.054151177406311035e-02 -2.208520174026489258e-01
7.220000000000000000e+02 3.152985572814941406e+00 -1.041568875312805176e+00 -2.838096320629119873e-01 1.671328395605087280e-02 -8.012890070676803589e-02 -2.395343482494354248e-01
7.230000000000000000e+02 3.014698266983032227e+00 -1.173652768135070801e+00 -2.029013931751251221e-01 2.009363844990730286e-02 -5.484232679009437561e-02 -2.563787698745727539e-01
7.240000000000000000e+02 3.278838396072387695e+00 -6.853585243225097656e-01 -4.910455644130706787e-01 4.539166111499071121e-03 -1.459519118070602417e-01 -1.959839761257171631e-01
7.250000000000000000e+02 5.003881931304931641e+00 7.624759674072265625e-01 -4.306546688079833984e+00 2.140471711754798889e-03 -1.291321873664855957e+00 1.268547534942626953e+00
7.260000000000000000e+02 4.868101119995117188e+00 7.044153809547424316e-01 -4.418587207794189453e+00 -7.662948220968246460e-02 -1.348565101623535156e+00 1.235823273658752441e+00
7.270000000000000000e+02 2.721965551376342773e+00 -8.490000367164611816e-01 -3.378514349460601807e-01 2.302617940586060286e-04 -1.012863516807556152e-01 -2.346525639295578003e-01
7.280000000000000000e+02 6.305780887603759766e+00 -5.861872434616088867e-01 -6.443639993667602539e-01 4.182185605168342590e-02 -1.807626485824584961e-01 -3.520140191540122032e-03
7.290000000000000000e+02 6.341193199157714844e+00 -7.839299440383911133e-01 -1.668178588151931763e-01 5.420460924506187439e-02 -3.378397226333618164e-02 1.031345799565315247e-01
7.300000000000000000e+02 2.076251029968261719e+00 7.923982143402099609e-01 -1.083261132240295410e+00 -1.543550640344619751e-01 -3.712848424911499023e-01 8.756044507026672363e-01
7.310000000000000000e+02 3.048688173294067383e+00 -8.854083418846130371e-01 -3.536152839660644531e-01 5.589656531810760498e-03 -1.044076904654502869e-01 -2.287721186876296997e-01
7.320000000000000000e+02 3.992599487304687500e+00 -6.138769388198852539e-01 -6.586378812789916992e-01 3.679942339658737183e-03 -1.964873820543289185e-01 -1.577667295932769775e-01
7.330000000000000000e+02 4.893347263336181641e+00 5.319082140922546387e-01 -4.970332622528076172e+00 3.162125870585441589e-02 -1.481613397598266602e+00 9.602696895599365234e-01
7.340000000000000000e+02 4.594274997711181641e+00 5.978508591651916504e-01 -4.371961593627929688e+00 2.876388141885399818e-03 -1.310725450515747070e+00 1.052413344383239746e+00
7.350000000000000000e+02 3.709774494171142578e+00 6.789032220840454102e-01 -3.037001609802246094e+00 -1.472126040607690811e-02 -9.155168533325195312e-01 1.059027552604675293e+00
7.360000000000000000e+02 4.753501713275909424e-01 -1.038813209533691406e+01 -4.692525137215852737e-03 9.718452095985412598e-01 2.901458144187927246e-01 1.630272567272186279e-01
7.370000000000000000e+02 1.326330852508544922e+01 -2.244326782226562500e+01 -2.763038575649261475e-01 4.175646781921386719e+00 1.169802904129028320e+00 1.158360093832015991e-01
7.380000000000000000e+02 2.430160140991210938e+01 -3.088964843750000000e+01 -6.162438169121742249e-02 3.963295936584472656e+00 1.170501470565795898e+00 -1.901602149009704590e-01
7.390000000000000000e+02 2.769769287109375000e+01 -3.784741592407226562e+01 6.111725419759750366e-02 3.871279239654541016e+00 1.179718971252441406e+00 -7.071200013160705566e-02
7.400000000000000000e+02 4.214863586425781250e+01 -4.066685104370117188e+01 2.911091148853302002e-01 4.009549140930175781e+00 1.290197491645812988e+00 8.001789101399481297e-04
7.410000000000000000e+02 3.721985626220703125e+01 -4.092150878906250000e+01 2.388867884874343872e-01 3.871109485626220703e+00 1.232998847961425781e+00 -4.076596349477767944e-02
7.420000000000000000e+02 4.279586410522460938e+01 -2.348499298095703125e+01 -4.908194541931152344e-01 4.484465599060058594e+00 1.198093891143798828e+00 -1.818493008613586426e-01
7.430000000000000000e+02 4.074677658081054688e+01 -1.555405712127685547e+01 1.715379595756530762e+00 1.551632785797119141e+01 5.169512271881103516e+00 2.583122253417968750e+00
7.440000000000000000e+02 3.910196304321289062e+01 -1.648182487487792969e+01 -8.033625483512878418e-01 7.750870287418365479e-02 -2.177561670541763306e-01 2.378419399261474609e+00
7.450000000000000000e+02 3.957525634765625000e+01 -1.887390899658203125e+01 -3.693355917930603027e-01 3.643345355987548828e+00 9.822029471397399902e-01 1.871480584144592285e+00
7.460000000000000000e+02 3.535750961303710938e+01 -3.121425056457519531e+01 1.487167030572891235e-01 3.826401710510253906e+00 1.192535519599914551e+00 -1.123456507921218872e-01
7.470000000000000000e+02 4.060381698608398438e+01 -3.088536643981933594e+01 1.420888453722000122e-01 3.957911968231201172e+00 1.230000257492065430e+00 -9.285251051187515259e-02
7.480000000000000000e+02 4.397023010253906250e+01 -3.110879516601562500e+01 1.736901849508285522e-01 3.999190330505371094e+00 1.251864194869995117e+00 -1.523853242397308350e-01
7.490000000000000000e+02 1.501293540000915527e+00 -1.169710922241210938e+01 -3.145395964384078979e-02 1.767420291900634766e+00 5.207899212837219238e-01 4.400534331798553467e-01
7.500000000000000000e+02 6.141056418418884277e-01 -1.715538978576660156e+01 -1.358657493256032467e-03 2.713125944137573242e+00 8.135301470756530762e-01 1.003761291503906250e-01
7.510000000000000000e+02 7.474647998809814453e+00 -2.330995559692382812e+01 -1.742835640907287598e-01 3.789295434951782227e+00 1.084503531455993652e+00 2.477378994226455688e-01
7.520000000000000000e+02 1.629291534423828125e+01 -2.930244827270507812e+01 -1.837536245584487915e-01 4.035298824310302734e+00 1.155463576316833496e+00 -1.727544888854026794e-02
7.530000000000000000e+02 2.327971839904785156e+01 -3.771260452270507812e+01 4.395170137286186218e-03 3.884593963623046875e+00 1.166696786880493164e+00 -7.403053343296051025e-02
7.540000000000000000e+02 3.214521789550781250e+01 -3.786277770996093750e+01 1.563497036695480347e-01 3.831661462783813477e+00 1.196403384208679199e+00 -8.849297463893890381e-02
7.550000000000000000e+02 1.889741897583007812e+00 -1.838302421569824219e+01 -3.074370510876178741e-02 3.017347335815429688e+00 8.959810733795166016e-01 2.390221059322357178e-01
7.560000000000000000e+02 6.719440817832946777e-01 -2.397210121154785156e+01 -9.777334518730640411e-03 3.408782720565795898e+00 1.019701600074768066e+00 3.945673257112503052e-02
7.570000000000000000e+02 7.761913299560546875e+00 -2.959489250183105469e+01 -8.911780267953872681e-02 3.800386667251586914e+00 1.113380670547485352e+00 1.197446286678314209e-01
7.580000000000000000e+02 1.793811607360839844e+01 -4.081171417236328125e+01 -4.097023978829383850e-02 3.882910013198852539e+00 1.152581930160522461e+00 -1.358126476407051086e-02
7.590000000000000000e+02 2.273398780822753906e+01 -4.094203948974609375e+01 1.047095400281250477e-03 3.888539791107177734e+00 1.166876077651977539e+00 -1.321675069630146027e-02
7.600000000000000000e+02 2.055365324020385742e+00 -2.653750038146972656e+01 -1.028195954859256744e-02 3.555589675903320312e+00 1.063592314720153809e+00 7.675217837095260620e-02
7.610000000000000000e+02 7.369584441184997559e-01 -3.081804466247558594e+01 3.927056386601179838e-04 3.656608581542968750e+00 1.097100377082824707e+00 1.483125798404216766e-02
7.620000000000000000e+02 1.666921257972717285e+00 -3.568517684936523438e+01 -1.911013270728290081e-03 3.727180957794189453e+00 1.117581009864807129e+00 1.312971580773591995e-02
7.630000000000000000e+02 7.543255090713500977e-01 -3.748564529418945312e+01 -6.856669206172227859e-04 3.734682083129882812e+00 1.120198965072631836e+00 4.738092888146638870e-03
7.640000000000000000e+02 4.921112060546875000e+00 -4.008450317382812500e+01 -1.012935210019350052e-02 3.774024724960327148e+00 1.129168629646301270e+00 9.074086323380470276e-03
7.650000000000000000e+02 2.546166896820068359e+00 -3.810635375976562500e+01 -1.906412420794367790e-03 3.740958452224731445e+00 1.121715664863586426e+00 1.662946864962577820e-02
7.660000000000000000e+02 5.226581573486328125e+01 -4.100840759277343750e+01 2.932712733745574951e-01 4.525063514709472656e+00 1.445500493049621582e+00 2.635848708450794220e-02
7.670000000000000000e+02 5.195098495483398438e+01 -3.804846572875976562e+01 2.798760235309600830e-01 4.470421314239501953e+00 1.425089240074157715e+00 3.003419004380702972e-02
7.680000000000000000e+02 5.223178100585937500e+01 -2.327629089355468750e+01 6.457685232162475586e-01 3.093485116958618164e+00 1.121776103973388672e+00 4.260655641555786133e-01
7.690000000000000000e+02 5.305063247680664062e+01 -1.853161048889160156e+01 -2.077129364013671875e+00 -9.220838546752929688e-01 -8.997639417648315430e-01 1.139460682868957520e+00
7.700000000000000000e+02 5.106859207153320312e+01 -1.647891426086425781e+01 -1.006468415260314941e+00 -4.762588739395141602e-01 -4.448181986808776855e-01 5.900476574897766113e-01
7.710000000000000000e+02 5.203535842895507812e+01 -1.750746345520019531e+01 -1.378229975700378418e+00 -6.141991019248962402e-01 -5.977287292480468750e-01 1.054008245468139648e+00
7.720000000000000000e+02 4.835533142089843750e+01 -1.530084800720214844e+01 -5.291701853275299072e-02 1.157074928283691406e+00 3.312473893165588379e-01 -5.115990042686462402e-01
7.730000000000000000e+02 6.200354385375976562e+01 -4.084753417968750000e+01 1.920556128025054932e-01 5.317943096160888672e+00 1.652999639511108398e+00 1.770021766424179077e-02
7.740000000000000000e+02 5.710618972778320312e+01 -4.103858947753906250e+01 2.369047850370407104e-01 4.872544765472412109e+00 1.532834768295288086e+00 7.681795395910739899e-03
7.750000000000000000e+02 5.912283706665039062e+01 -2.839476013183593750e+01 1.886495016515254974e-02 5.398170471191406250e+00 1.625110626220703125e+00 1.259932816028594971e-01
7.760000000000000000e+02 5.544351959228515625e+01 -2.178993225097656250e+01 -5.198508128523826599e-02 6.431101322174072266e+00 1.913734912872314453e+00 2.313705682754516602e+00
7.770000000000000000e+02 5.536149215698242188e+01 -1.910466003417968750e+01 4.581957161426544189e-01 7.104246616363525391e+00 2.268732786178588867e+00 3.310515880584716797e+00
7.780000000000000000e+02 6.042516708374023438e+01 -3.760524368286132812e+01 1.693088710308074951e-01 5.177773475646972656e+00 1.604124665260314941e+00 4.489002376794815063e-02
7.790000000000000000e+02 6.502801513671875000e+01 -3.035041046142578125e+01 2.049110978841781616e-01 5.447497367858886719e+00 1.695722579956054688e+00 -4.241159558296203613e-02
7.800000000000000000e+02 6.426210021972656250e+01 -2.002592468261718750e+01 4.792508184909820557e-01 4.662522792816162109e+00 1.542531967163085938e+00 -1.159194111824035645e+00
7.810000000000000000e+02 6.807948303222656250e+01 -1.510252094268798828e+01 -2.094421386718750000e+00 -9.063739776611328125e-01 -9.002385735511779785e-01 1.565713405609130859e+00
7.820000000000000000e+02 6.713778686523437500e+01 -1.416473960876464844e+01 -1.475087285041809082e+00 -1.748832613229751587e-01 -4.949911832809448242e-01 8.442254066467285156e-01
7.830000000000000000e+02 6.611300659179687500e+01 -1.319997882843017578e+01 -8.543205261230468750e-01 7.654251456260681152e-01 -2.666862495243549347e-02 2.246899902820587158e-01
7.840000000000000000e+02 6.386839294433593750e+01 -9.651865005493164062e+00 6.344534158706665039e-01 7.960681915283203125e+00 2.578540563583374023e+00 -1.653938889503479004e+00
7.850000000000000000e+02 5.628855895996093750e+01 -1.121431827545166016e+01 4.367509782314300537e-01 8.846866607666015625e+00 2.785085201263427734e+00 -8.324005007743835449e-01
7.860000000000000000e+02 5.569215774536132812e+01 -1.310867786407470703e+01 4.460670053958892822e-01 1.175512409210205078e+01 3.660357475280761719e+00 -2.062114953994750977e+00
7.870000000000000000e+02 5.631154632568359375e+01 -1.714609527587890625e+01 1.635155797004699707e+00 1.526963520050048828e+01 5.071437358856201172e+00 1.575321316719055176e+00
7.880000000000000000e+02 6.608681488037109375e+01 -1.515829563140869141e+01 -9.008961319923400879e-01 1.880553960800170898e+00 2.938973605632781982e-01 -2.595037519931793213e-01
7.890000000000000000e+02 6.677633666992187500e+01 -1.808618927001953125e+01 3.085909783840179443e-01 2.516298770904541016e+00 8.474669456481933594e-01 -5.687672495841979980e-01
7.900000000000000000e+02 6.700010681152343750e+01 -4.090303802490234375e+01 1.427014023065567017e-01 5.675253391265869141e+00 1.745386362075805664e+00 1.780791766941547394e-02
7.910000000000000000e+02 6.693847656250000000e+01 -3.798068618774414062e+01 1.447237730026245117e-01 5.650274753570556641e+00 1.738499522209167480e+00 4.045555368065834045e-02
7.920000000000000000e+02 7.230541229248046875e+01 -3.127700042724609375e+01 2.108951956033706665e-01 6.083500862121582031e+00 1.888318777084350586e+00 2.149008065462112427e-01
7.930000000000000000e+02 7.015666961669921875e+01 -2.103889656066894531e+01 7.034361362457275391e-01 4.677158832550048828e+00 1.614178538322448730e+00 1.183980822563171387e+00
7.940000000000000000e+02 7.089473724365234375e+01 -1.625740051269531250e+01 3.734557926654815674e-01 5.333390235900878906e+00 1.712053775787353516e+00 3.825792789459228516e+00
7.950000000000000000e+02 7.793630218505859375e+01 -4.164633560180664062e+01 3.370935469865798950e-02 6.542125225067138672e+00 1.972750425338745117e+00 9.556422010064125061e-03
7.960000000000000000e+02 7.785132598876953125e+01 -3.691683578491210938e+01 2.744008041918277740e-02 6.566241264343261719e+00 1.978104352951049805e+00 4.514202848076820374e-02
7.970000000000000000e+02 7.789900970458984375e+01 -3.059446334838867188e+01 -2.088809851557016373e-03 6.778623104095458984e+00 2.032960176467895508e+00 1.201632469892501831e-01
7.980000000000000000e+02 7.805495452880859375e+01 -2.368766593933105469e+01 -2.141818590462207794e-02 7.297763824462890625e+00 2.182903766632080078e+00 1.355003565549850464e-01
7.990000000000000000e+02 7.473087310791015625e+01 -1.500865650177001953e+01 8.447243571281433105e-01 9.601318359375000000e+00 3.133812904357910156e+00 9.763795882463455200e-02
8.000000000000000000e+02 7.284051513671875000e+01 -9.131072998046875000e+00 1.310384631156921387e+00 1.058259677886962891e+01 3.567894458770751953e+00 -4.685021042823791504e-01
8.010000000000000000e+02 7.820547485351562500e+01 -2.802440881729125977e+00 -1.269869059324264526e-01 1.123560714721679688e+01 3.332586050033569336e+00 1.152226805686950684e+00
8.020000000000000000e+02 7.522774505615234375e+01 2.226330280303955078e+00 -2.972165107727050781e+00 3.647372007369995117e+00 2.025620192289352417e-01 -4.889775812625885010e-01
8.030000000000000000e+02 7.942177581787109375e+01 -2.593299746513366699e-02 -7.504381984472274780e-02 1.490950202941894531e+01 4.450337409973144531e+00 2.756671234965324402e-02
8.040000000000000000e+02 7.367988586425781250e+01 9.047341942787170410e-01 -6.448136806488037109e+00 -8.115997314453125000e-01 -2.177921056747436523e+00 -1.652718186378479004e+00
8.050000000000000000e+02 7.249956512451171875e+01 6.984741687774658203e-01 -4.628684043884277344e+00 8.390088677406311035e-01 -1.136902570724487305e+00 -2.482861757278442383e+00
8.060000000000000000e+02 6.976165008544921875e+01 -1.676558852195739746e+00 -3.515378236770629883e+00 5.225248336791992188e+00 5.129610300064086914e-01 -2.274904489517211914e+00
8.070000000000000000e+02 7.069309234619140625e+01 1.525886535644531250e+00 1.032349586486816406e+00 5.688393592834472656e+00 2.016222953796386719e+00 -4.116534709930419922e+00
8.080000000000000000e+02 6.876940917968750000e+01 3.037345886230468750e+00 3.192404747009277344e+00 1.330302429199218750e+01 4.948628902435302734e+00 -1.927519321441650391e+00
8.090000000000000000e+02 6.932876586914062500e+01 5.501053810119628906e+00 2.955148816108703613e-01 1.494143962860107422e+01 4.571086406707763672e+00 7.928427457809448242e-01
8.100000000000000000e+02 6.918769073486328125e+01 4.246392250061035156e+00 2.324355363845825195e+00 1.797644424438476562e+01 6.090240001678466797e+00 -2.068022727966308594e+00
8.110000000000000000e+02 6.916575622558593750e+01 1.027699184417724609e+01 6.695944666862487793e-01 7.584371566772460938e+00 2.476189851760864258e+00 6.610946059226989746e-01
8.120000000000000000e+02 6.598428344726562500e+01 1.036561775207519531e+01 1.357769131660461426e+00 1.885000991821289062e+01 6.062334060668945312e+00 1.643587589263916016e+00
8.130000000000000000e+02 7.162749481201171875e+01 9.142781257629394531e+00 -3.783263683319091797e+00 -8.286212682723999023e-01 -1.383565425872802734e+00 -1.256764531135559082e+00
8.140000000000000000e+02 7.237564086914062500e+01 1.006384658813476562e+01 -1.304889917373657227e+00 -2.885157465934753418e-01 -4.780216813087463379e-01 -1.061121225357055664e+00
8.150000000000000000e+02 6.825757598876953125e+01 1.136241245269775391e+01 2.793126344680786133e+00 8.698418617248535156e+00 3.447463512420654297e+00 9.918166399002075195e-01
8.160000000000000000e+02 7.565354919433593750e+01 1.040607738494873047e+01 -7.750063538551330566e-01 9.073803901672363281e+00 2.489639282226562500e+00 -2.698944091796875000e+00
8.170000000000000000e+02 7.496862792968750000e+01 8.786091804504394531e+00 2.195673704147338867e+00 7.594456672668457031e+00 2.937039136886596680e+00 -4.639702796936035156e+00
8.180000000000000000e+02 7.766391754150390625e+01 6.416582107543945312e+00 1.005765199661254883e+00 1.057891368865966797e+01 3.475403785705566406e+00 -1.706044673919677734e+00
8.190000000000000000e+02 7.567382049560546875e+01 7.837999820709228516e+00 3.792678594589233398e+00 1.622041511535644531e+01 6.003928184509277344e+00 -5.228533267974853516e+00
8.200000000000000000e+02 7.939054107666015625e+01 7.029080390930175781e+00 5.119194388389587402e-01 6.536550998687744141e+00 2.114541292190551758e+00 -3.029505908489227295e-01
8.210000000000000000e+02 7.578982543945312500e+01 3.375237226486206055e+00 3.737969100475311279e-01 1.104132652282714844e+01 3.424536943435668945e+00 5.726119875907897949e-01
8.220000000000000000e+02 7.937994384765625000e+01 2.775264739990234375e+00 1.247425600886344910e-01 1.252820873260498047e+01 3.795885324478149414e+00 -1.003016352653503418e+00
8.230000000000000000e+02 7.811708068847656250e+01 2.770212650299072266e+00 -8.850593566894531250e-01 1.195493316650390625e+01 3.320962190628051758e+00 -2.157601594924926758e+00
8.240000000000000000e+02 7.932428741455078125e+01 1.672878456115722656e+01 -2.371343225240707397e-02 6.894799232482910156e+00 2.061325788497924805e+00 -1.073954179883003235e-01
8.250000000000000000e+02 7.391716003417968750e+01 2.171272277832031250e+01 8.273424208164215088e-02 6.425555229187011719e+00 1.952486753463745117e+00 -2.782713435590267181e-02
8.260000000000000000e+02 6.322268295288085938e+01 3.047748947143554688e+01 1.503385603427886963e-01 5.502684116363525391e+00 1.695906758308410645e+00 -3.108025528490543365e-02
8.270000000000000000e+02 5.629385375976562500e+01 3.728364944458007812e+01 3.220276907086372375e-02 5.161848068237304688e+00 1.558215141296386719e+00 2.213287353515625000e-02
8.280000000000000000e+02 5.234030151367187500e+01 4.084140014648437500e+01 1.598537154495716095e-02 4.905881404876708984e+00 1.476560115814208984e+00 3.009494685102254152e-04
8.290000000000000000e+02 5.204420471191406250e+01 3.745404052734375000e+01 2.088192477822303772e-02 4.866347312927246094e+00 1.466168761253356934e+00 1.998343318700790405e-02
8.300000000000000000e+02 4.241258239746093750e+01 4.064669799804687500e+01 4.773823171854019165e-02 4.183904170989990234e+00 1.269492745399475098e+00 -1.624093949794769287e-02
8.310000000000000000e+02 4.364990615844726562e+01 3.254557800292968750e+01 -1.822888292372226715e-02 4.323318958282470703e+00 1.291527032852172852e+00 -5.137842893600463867e-02
8.320000000000000000e+02 4.311578750610351562e+01 2.184374046325683594e+01 1.842886656522750854e-01 3.949623346328735352e+00 1.240173578262329102e+00 5.649165511131286621e-01
8.330000000000000000e+02 4.644919204711914062e+01 1.587307739257812500e+01 -3.154958188533782959e-01 5.952868461608886719e-01 8.393729478120803833e-02 -2.521497011184692383e-02
8.340000000000000000e+02 4.250231552124023438e+01 1.061213970184326172e+01 -4.586879909038543701e-01 -9.266432523727416992e-01 -4.155993759632110596e-01 -8.291558027267456055e-01
8.350000000000000000e+02 4.519701766967773438e+01 1.353682422637939453e+01 -5.173363685607910156e-01 -4.007325768470764160e-01 -2.754206657409667969e-01 -2.848487496376037598e-01
8.360000000000000000e+02 4.602774810791015625e+01 1.449024105072021484e+01 -7.897848486900329590e-01 -2.816366851329803467e-01 -3.214264512062072754e-01 -4.178918898105621338e-01
8.370000000000000000e+02 4.254722595214843750e+01 1.515380382537841797e+01 5.495265126228332520e-01 2.696812391281127930e+00 9.739016890525817871e-01 2.307551145553588867e+00
8.380000000000000000e+02 4.913793563842773438e+01 1.550930690765380859e+01 2.256034374237060547e+00 4.886370182037353516e+00 2.142721414566040039e+00 -3.724659919738769531e+00
8.390000000000000000e+02 4.791677474975585938e+01 1.557916641235351562e+01 -5.641505122184753418e-01 -4.506587982177734375e-01 -3.044427931308746338e-01 -9.255536198616027832e-01
8.400000000000000000e+02 5.160913467407226562e+01 3.391865539550781250e+01 3.907164093106985092e-03 4.884543418884277344e+00 1.466535091400146484e+00 2.979454025626182556e-02
8.410000000000000000e+02 4.506969070434570312e+01 3.554846954345703125e+01 6.718930788338184357e-03 4.388796329498291016e+00 1.318654537200927734e+00 -1.295482553541660309e-02
8.420000000000000000e+02 7.583270263671875000e+01 3.831448364257812500e+01 -6.595347542315721512e-03 6.337254524230957031e+00 1.899197697639465332e+00 -8.609344251453876495e-03
8.430000000000000000e+02 7.885747528076171875e+01 3.740390777587890625e+01 1.358171831816434860e-02 6.533290863037109375e+00 1.964061856269836426e+00 -1.570158201502636075e-04
8.440000000000000000e+02 7.932463073730468750e+01 2.925445365905761719e+01 1.410498563200235367e-02 6.560957908630371094e+00 1.972518801689147949e+00 -1.185141154564917088e-03
8.450000000000000000e+02 7.935646820068359375e+01 2.373446083068847656e+01 2.803776226937770844e-02 6.528504848480224609e+00 1.966962814331054688e+00 4.318338818848133087e-03
8.460000000000000000e+02 7.811713409423828125e+01 1.963881874084472656e+01 9.068579971790313721e-02 6.590170383453369141e+00 2.004256725311279297e+00 -9.110168367624282837e-02
8.470000000000000000e+02 7.937378692626953125e+01 3.210927200317382812e+01 1.259515993297100067e-02 6.565908432006835938e+00 1.973551034927368164e+00 3.168854862451553345e-03
8.480000000000000000e+02 7.090456390380859375e+01 3.758425140380859375e+01 5.435074213892221451e-03 6.073064804077148438e+00 1.823549985885620117e+00 -3.647175384685397148e-03
8.490000000000000000e+02 7.216452026367187500e+01 2.954920387268066406e+01 2.886654995381832123e-02 6.200649261474609375e+00 1.868854761123657227e+00 -7.948022335767745972e-02
8.500000000000000000e+02 7.366371917724609375e+01 2.469864845275878906e+01 -1.891686767339706421e-02 6.434288501739501953e+00 1.924611449241638184e+00 -5.397515371441841125e-02
8.510000000000000000e+02 6.201298141479492188e+01 4.052002334594726562e+01 4.132384061813354492e-02 5.523307323455810547e+00 1.669389247894287109e+00 -1.130762230604887009e-02
8.520000000000000000e+02 6.526284027099609375e+01 3.270428466796875000e+01 1.034065410494804382e-01 5.668139934539794922e+00 1.731463909149169922e+00 -6.535487622022628784e-02
8.530000000000000000e+02 5.715192031860351562e+01 4.078298950195312500e+01 4.229342564940452576e-02 5.182523250579833984e+00 1.567445039749145508e+00 1.541390269994735718e-02
8.540000000000000000e+02 3.745988082885742188e+01 4.088248062133789062e+01 1.207266449928283691e-01 3.764605283737182617e+00 1.165599584579467773e+00 -3.353498876094818115e-02
8.550000000000000000e+02 4.162666320800781250e+01 3.702524566650390625e+01 2.718800678849220276e-02 4.151084899902343750e+00 1.253481864929199219e+00 -6.458207964897155762e-02
8.560000000000000000e+02 3.691135406494140625e+01 3.435679244995117188e+01 1.350468583405017853e-02 3.819300651550292969e+00 1.149841547012329102e+00 -1.529637873172760010e-01
8.570000000000000000e+02 3.704278182983398438e+01 2.085751914978027344e+01 -7.839184999465942383e-01 4.924771785736083984e+00 1.242256045341491699e+00 -4.246871173381805420e-02
8.580000000000000000e+02 2.653388786315917969e+01 1.731585502624511719e+01 -3.847125291824340820e+00 7.721153259277343750e+00 1.162208318710327148e+00 2.622192144393920898e+00
8.590000000000000000e+02 3.468450164794921875e+01 1.818892478942871094e+01 -2.708650231361389160e-01 3.478848934173583984e+00 9.623951911926269531e-01 -9.393317103385925293e-01
8.600000000000000000e+02 3.570904159545898438e+01 1.445128250122070312e+01 -6.549378484487533569e-02 3.810143470764160156e+00 1.123394966125488281e+00 -3.199611425399780273e+00
8.610000000000000000e+02 3.764375305175781250e+01 1.499815559387207031e+01 -2.257906913757324219e+00 9.965807914733886719e+00 2.312370300292968750e+00 1.646841287612915039e+00
8.620000000000000000e+02 3.904962921142578125e+01 1.236384677886962891e+01 3.342347383499145508e+00 8.645863533020019531e+00 3.596463441848754883e+00 3.126965522766113281e+00
8.630000000000000000e+02 4.013806152343750000e+01 7.356633663177490234e+00 -3.035271465778350830e-01 3.549707889556884766e+00 9.738541841506958008e-01 3.890547156333923340e-01
8.640000000000000000e+02 3.709950256347656250e+01 1.142461299896240234e+01 3.571882724761962891e+00 2.328160285949707031e+01 8.056045532226562500e+00 2.810189485549926758e+00
8.650000000000000000e+02 3.261101531982421875e+01 4.093998718261718750e+01 2.403726726770401001e-01 3.341038942337036133e+00 1.074423551559448242e+00 -4.099429026246070862e-02
8.660000000000000000e+02 3.340783691406250000e+01 3.153695869445800781e+01 -8.093186467885971069e-02 3.592626571655273438e+00 1.053508400917053223e+00 -2.771557867527008057e-01
8.670000000000000000e+02 2.773720550537109375e+01 2.115906333923339844e+01 -1.599632263183593750e+00 4.274856567382812500e+00 8.025673627853393555e-01 -6.250352598726749420e-04
8.680000000000000000e+02 3.130179786682128906e+01 1.521145248413085938e+01 1.139661967754364014e-01 -1.219935566186904907e-01 -2.408208791166543961e-03 7.698035836219787598e-01
8.690000000000000000e+02 3.098674011230468750e+01 1.310540771484375000e+01 -2.063987016677856445e+00 -1.374685406684875488e+00 -1.031601667404174805e+00 -1.545290231704711914e+00
8.700000000000000000e+02 3.217157745361328125e+01 1.391994762420654297e+01 -2.503413438796997070e+00 -1.021964669227600098e+00 -1.057613372802734375e+00 -1.159798264503479004e+00
8.710000000000000000e+02 3.459129333496093750e+01 1.555184268951416016e+01 -4.822608828544616699e-01 1.821498155593872070e+00 4.017711877822875977e-01 -1.534626841545104980e+00
8.720000000000000000e+02 1.792180252075195312e+01 4.042856979370117188e+01 5.518995523452758789e-01 3.054014444351196289e+00 1.081774234771728516e+00 2.151923067867755890e-02
8.730000000000000000e+02 2.288047599792480469e+01 4.066466522216796875e+01 5.421849489212036133e-01 2.811060190200805664e+00 1.005973577499389648e+00 -4.001782089471817017e-02
8.740000000000000000e+02 2.756117439270019531e+01 3.035923957824707031e+01 -5.718907713890075684e-02 3.027667999267578125e+00 8.911436796188354492e-01 -4.559185206890106201e-01
8.750000000000000000e+02 2.388447570800781250e+01 2.135635375976562500e+01 -1.642398476600646973e+00 2.582358121871948242e+00 2.819878458976745605e-01 -1.706148386001586914e+00
8.760000000000000000e+02 2.136015319824218750e+01 1.627128028869628906e+01 -6.441307544708251953e+00 -1.077927112579345703e+00 -2.255770444869995117e+00 -2.626051664352416992e+00
8.770000000000000000e+02 2.343430900573730469e+01 1.777061080932617188e+01 -5.223948001861572266e+00 -8.702389001846313477e-01 -1.828256011009216309e+00 -1.894840717315673828e+00
8.780000000000000000e+02 2.465955352783203125e+01 1.670581817626953125e+01 -4.702276229858398438e+00 7.214852333068847656e+00 7.537727952003479004e-01 -2.075349330902099609e+00
8.790000000000000000e+02 2.914811706542968750e+01 1.558244705200195312e+01 1.541131496429443359e+00 1.913802862167358398e+00 1.036480307579040527e+00 2.705116510391235352e+00
8.800000000000000000e+02 2.709251213073730469e+01 1.531955337524414062e+01 3.310670852661132812e+00 6.698607444763183594e+00 3.002783536911010742e+00 4.589595794677734375e+00
8.810000000000000000e+02 2.484876823425292969e+01 1.351007175445556641e+01 5.205485820770263672e+00 1.680105590820312500e+01 6.601962566375732422e+00 8.252700805664062500e+00
8.820000000000000000e+02 2.612123489379882812e+01 1.315773200988769531e+01 3.562469482421875000e+00 9.792744636535644531e+00 4.006564140319824219e+00 1.446345925331115723e+00
8.830000000000000000e+02 2.792972564697265625e+01 1.236999034881591797e+01 6.761159896850585938e-01 2.109931468963623047e+00 8.358142375946044922e-01 3.982061743736267090e-01
8.840000000000000000e+02 1.362307548522949219e+01 2.958974647521972656e+01 6.738344579935073853e-02 3.120021820068359375e+00 9.562215805053710938e-01 3.989033997058868408e-01
8.850000000000000000e+02 1.492751026153564453e+01 2.257905387878417969e+01 -1.023017406463623047e+00 2.530841350555419922e+00 4.523471593856811523e-01 5.280084013938903809e-01
8.860000000000000000e+02 1.899515533447265625e+01 1.491388034820556641e+01 -4.496644973754882812e+00 -1.032107830047607422e+00 -1.658625841140747070e+00 -2.165731668472290039e+00
8.870000000000000000e+02 1.240064716339111328e+01 9.982872009277343750e+00 7.257267832756042480e-01 3.421931743621826172e+00 1.244297623634338379e+00 2.310343742370605469e+00
8.880000000000000000e+02 1.664086341857910156e+01 1.352616977691650391e+01 -3.249015569686889648e+00 -7.395141720771789551e-01 -1.196558952331542969e+00 -1.428692460060119629e+00
8.890000000000000000e+02 1.289794826507568359e+01 4.061556625366210938e+01 4.540984630584716797e-01 3.517476081848144531e+00 1.191472411155700684e+00 5.840707197785377502e-02
8.900000000000000000e+02 8.195466041564941406e+00 4.095289611816406250e+01 2.394453436136245728e-01 4.355691432952880859e+00 1.378540992736816406e+00 7.469420135021209717e-02
8.910000000000000000e+02 7.050218582153320312e+00 3.147189140319824219e+01 3.580502048134803772e-02 4.527818679809570312e+00 1.369087219238281250e+00 4.048148393630981445e-01
8.920000000000000000e+02 8.038934707641601562e+00 2.354629516601562500e+01 -7.515148520469665527e-01 4.736285209655761719e+00 1.195431113243103027e+00 2.391553819179534912e-01
8.930000000000000000e+02 1.090402412414550781e+01 1.410188674926757812e+01 -2.589763402938842773e+00 5.806454658508300781e+00 9.650073647499084473e-01 -9.298351407051086426e-02
8.940000000000000000e+02 1.068456649780273438e+01 9.597583770751953125e+00 -4.762959182262420654e-01 9.936721801757812500e+00 2.838127851486206055e+00 1.924492835998535156e+00
8.950000000000000000e+02 1.074700546264648438e+01 7.784896373748779297e+00 2.350192785263061523e+00 1.502422618865966797e+01 5.212325572967529297e+00 6.280860424041748047e+00
8.960000000000000000e+02 2.008693218231201172e+00 4.163915634155273438e+01 8.413735777139663696e-02 5.280745029449462891e+00 1.609464645385742188e+00 2.353161014616489410e-02
8.970000000000000000e+02 4.454913139343261719e+00 3.760995864868164062e+01 5.374043807387351990e-02 4.988082885742187500e+00 1.512547016143798828e+00 9.237082302570343018e-02
8.980000000000000000e+02 2.059528350830078125e+00 3.589179611206054688e+01 3.485692199319601059e-03 5.443484783172607422e+00 1.634091138839721680e+00 1.647849678993225098e-01
8.990000000000000000e+02 2.135891675949096680e+00 2.890528106689453125e+01 -1.146869827061891556e-02 5.881342411041259766e+00 1.760962009429931641e+00 1.801896691322326660e-01
9.000000000000000000e+02 1.925095438957214355e+00 2.320013999938964844e+01 -9.975223243236541748e-02 6.160659790039062500e+00 1.818272233009338379e+00 -4.568158462643623352e-02
9.010000000000000000e+02 1.815759539604187012e+00 1.758462524414062500e+01 -2.431212812662124634e-01 5.355852127075195312e+00 1.533819317817687988e+00 -7.583468556404113770e-01
9.020000000000000000e+02 1.920176982879638672e+00 1.191318130493164062e+01 -1.634246706962585449e-01 2.335095167160034180e+00 6.515011191368103027e-01 -1.922944188117980957e+00
9.030000000000000000e+02 1.816126257181167603e-01 2.414133071899414062e+00 -1.342377252876758575e-02 -1.336534976959228516e+00 -4.049876034259796143e-01 1.967109590768814087e-01
9.040000000000000000e+02 9.867159843444824219e+00 1.630639195442199707e+00 -1.875813841819763184e+00 2.019300270080566406e+01 5.495156764984130859e+00 -8.228184700012207031e+00
9.050000000000000000e+02 9.334919929504394531e+00 1.638091444969177246e+00 -1.015966832637786865e-01 1.369390010833740234e+01 4.077691078186035156e+00 -8.602146148681640625e+00
9.060000000000000000e+02 9.693071365356445312e+00 1.613913416862487793e+00 -7.257670760154724121e-01 1.701164436340332031e+01 4.885763168334960938e+00 -9.372360229492187500e+00
9.070000000000000000e+02 1.129705429077148438e+01 1.178755879402160645e+00 4.745473861694335938e+00 1.904236221313476562e+01 7.136351108551025391e+00 -3.494077324867248535e-01
9.080000000000000000e+02 1.430128288269042969e+01 2.634923934936523438e+00 8.423376083374023438e+00 5.547035694122314453e+00 4.191123485565185547e+00 4.736567020416259766e+00
9.090000000000000000e+02 1.493465614318847656e+01 4.500937461853027344e+00 5.607498288154602051e-01 2.002446889877319336e+00 7.689590454101562500e-01 -1.128356307744979858e-01
9.100000000000000000e+02 1.531471252441406250e+01 3.196065425872802734e+00 1.330685710906982422e+01 8.919632911682128906e+00 6.667946815490722656e+00 7.307951927185058594e+00
9.110000000000000000e+02 1.709469032287597656e+01 3.467949628829956055e+00 1.236552333831787109e+01 7.154608964920043945e-01 3.924295186996459961e+00 3.068830013275146484e+00
9.120000000000000000e+02 1.868280220031738281e+01 6.906717300415039062e+00 1.080201268196105957e+00 9.064688682556152344e-01 5.960010290145874023e-01 9.564644694328308105e-01
9.130000000000000000e+02 1.896276092529296875e+01 3.936939001083374023e+00 7.259782314300537109e+00 -2.698258638381958008e+00 1.368457198143005371e+00 2.568190574645996094e+00
9.140000000000000000e+02 1.929176902770996094e+01 2.053901195526123047e+00 -1.385045289993286133e+00 -3.418280839920043945e+00 -1.440997838973999023e+00 3.222964286804199219e+00
9.150000000000000000e+02 2.386433219909667969e+01 6.371428012847900391e+00 3.618394374847412109e+00 1.121842002868652344e+01 4.451044082641601562e+00 5.479994773864746094e+00
9.160000000000000000e+02 2.273367118835449219e+01 5.835806846618652344e+00 3.251432895660400391e+00 1.222934532165527344e+01 4.644233703613281250e+00 3.064494609832763672e+00
9.170000000000000000e+02 1.920940017700195312e+01 8.791216850280761719e+00 -3.571276366710662842e-01 5.374682545661926270e-01 5.410217866301536560e-02 -3.085249960422515869e-01
9.180000000000000000e+02 1.180537891387939453e+01 -8.370829373598098755e-02 9.621150016784667969e+00 1.459895038604736328e+01 7.266030311584472656e+00 -1.615318894386291504e+00
9.190000000000000000e+02 9.481086730957031250e+00 -1.659250855445861816e+00 2.694274902343750000e+00 1.214452171325683594e+01 4.451639175415039062e+00 6.259753704071044922e+00
9.200000000000000000e+02 5.777133464813232422e+00 -1.256657600402832031e+01 -3.552780747413635254e-01 3.599761962890625000e+00 9.733451604843139648e-01 9.166282415390014648e-01
9.210000000000000000e+02 1.132728481292724609e+01 -1.213853263854980469e+01 -7.116139531135559082e-01 5.276962280273437500e+00 1.369604587554931641e+00 6.505913287401199341e-02
9.220000000000000000e+02 6.206170654296875000e+01 4.346456050872802734e+00 -6.804964542388916016e-01 1.304797887802124023e+00 1.872904449701309204e-01 3.087143898010253906e-01
9.230000000000000000e+02 6.537571716308593750e+01 5.370643615722656250e+00 -2.240230590105056763e-01 7.657929897308349609e+00 2.230171918869018555e+00 2.421209961175918579e-01
9.240000000000000000e+02 6.102280044555664062e+01 3.324516534805297852e+00 -2.477650403976440430e+00 2.555886209011077881e-01 -6.666185259819030762e-01 -7.669429779052734375e-01
9.250000000000000000e+02 5.884273147583007812e+01 1.672850608825683594e+00 -6.999431133270263672e+00 -1.410116910934448242e+00 -2.522864341735839844e+00 -3.243945598602294922e+00
9.260000000000000000e+02 5.994757843017578125e+01 2.457889318466186523e+00 -4.622186183929443359e+00 -6.351128220558166504e-01 -1.577189683914184570e+00 -1.993839502334594727e+00
9.270000000000000000e+02 5.573406600952148438e+01 8.770837187767028809e-01 -2.061565876007080078e+00 2.676354408264160156e+00 1.844365447759628296e-01 -4.972883701324462891e+00
9.280000000000000000e+02 5.364852523803710938e+01 2.059754848480224609e+00 3.830152511596679688e+00 1.672655296325683594e+01 6.167011737823486328e+00 -2.630963087081909180e+00
9.290000000000000000e+02 5.471960449218750000e+01 1.511404395103454590e+00 4.406861782073974609e+00 1.570070648193359375e+01 6.032270431518554688e+00 -6.443364143371582031e+00
9.300000000000000000e+02 5.008721542358398438e+01 7.192847251892089844e+00 -3.194901049137115479e-01 9.229395866394042969e+00 2.672971725463867188e+00 7.922237515449523926e-01
9.310000000000000000e+02 5.412067031860351562e+01 4.822614192962646484e+00 7.684012651443481445e-01 1.813271903991699219e+01 5.670336246490478516e+00 2.191834688186645508e+00
9.320000000000000000e+02 5.780279159545898438e+01 1.053980255126953125e+01 -1.047675728797912598e+00 -4.107448160648345947e-01 -4.375261664390563965e-01 -8.191170096397399902e-01
9.330000000000000000e+02 6.080773925781250000e+01 1.328285694122314453e+01 -2.284875869750976562e+00 -7.506026625633239746e-01 -9.106435179710388184e-01 -1.160466670989990234e+00
9.340000000000000000e+02 6.262790679931640625e+01 1.483866786956787109e+01 -7.556155323982238770e-01 3.168745040893554688e-01 -1.316222995519638062e-01 -1.700006842613220215e+00
9.350000000000000000e+02 6.387656784057617188e+01 1.433217906951904297e+01 2.829800248146057129e-01 3.097589254379272461e+00 1.014170765876770020e+00 -2.904050350189208984e+00
9.360000000000000000e+02 6.512555694580078125e+01 1.625650978088378906e+01 -9.470280408859252930e-01 6.330120086669921875e+00 1.614927649497985840e+00 -2.109296083450317383e+00
9.370000000000000000e+02 6.261903762817382812e+01 2.099898910522460938e+01 6.936210393905639648e-01 4.584145545959472656e+00 1.583330035209655762e+00 -6.564493775367736816e-01
9.380000000000000000e+02 6.502527618408203125e+01 2.274858474731445312e+01 3.415554165840148926e-01 5.396715164184570312e+00 1.721481084823608398e+00 -5.394695401191711426e-01
9.390000000000000000e+02 5.935834121704101562e+01 2.422278594970703125e+01 5.293798446655273438e-01 4.779269218444824219e+00 1.592594742774963379e+00 1.922177970409393311e-01
9.400000000000000000e+02 5.738584899902343750e+01 3.015828132629394531e+01 1.277011930942535400e-01 5.137937068939208984e+00 1.579691529273986816e+00 1.228667944669723511e-01
9.410000000000000000e+02 5.861938476562500000e+01 3.319061279296875000e+01 9.188818186521530151e-02 5.267893314361572266e+00 1.607934474945068359e+00 4.313382133841514587e-02
9.420000000000000000e+02 6.983776092529296875e+01 -4.521255970001220703e+00 -1.867115616798400879e+00 2.901330471038818359e+00 3.102644383907318115e-01 -8.787699937820434570e-01
9.430000000000000000e+02 6.904048919677734375e+01 -5.368078231811523438e+00 -7.239350080490112305e-01 1.052602767944335938e+00 9.860031306743621826e-02 -1.005930751562118530e-01
9.440000000000000000e+02 7.134833526611328125e+01 3.892616033554077148e-01 -2.196122407913208008e+00 4.258731842041015625e+00 6.187828183174133301e-01 -3.389201879501342773e+00
9.450000000000000000e+02 7.238138580322265625e+01 -1.041349411010742188e+01 7.129725217819213867e-01 1.298221397399902344e+01 4.108555793762207031e+00 -8.654315471649169922e-01
9.460000000000000000e+02 7.938183593750000000e+01 -1.118694782257080078e+01 9.442692995071411133e-02 6.888875961303710938e+00 2.094990968704223633e+00 2.893545627593994141e-01
9.470000000000000000e+02 7.233817291259765625e+01 -1.310068607330322266e+01 5.248237848281860352e-01 1.515671920776367188e+01 4.704463005065917969e+00 1.061665415763854980e+00
9.480000000000000000e+02 7.218306732177734375e+01 -1.446977424621582031e+01 2.329434394836425781e+00 1.484353828430175781e+01 5.151891708374023438e+00 2.912062406539916992e+00
9.490000000000000000e+02 7.209776306152343750e+01 -1.607703018188476562e+01 8.681761622428894043e-01 1.069880867004394531e+01 3.470095396041870117e+00 2.479279518127441406e+00
9.500000000000000000e+02 7.936280822753906250e+01 -2.229534912109375000e+01 -1.563064567744731903e-02 7.556081771850585938e+00 2.262135505676269531e+00 5.086666438728570938e-03
9.510000000000000000e+02 6.245409011840820312e+01 -8.812746047973632812e+00 4.328683614730834961e-01 9.392930984497070312e+00 2.947739839553833008e+00 2.810196578502655029e-01
9.520000000000000000e+02 6.232263946533203125e+01 -4.728963851928710938e+00 1.824363708496093750e+00 1.277302551269531250e+01 4.379216670989990234e+00 2.218522548675537109e+00
9.530000000000000000e+02 6.400275421142578125e+01 -2.497061729431152344e+00 -1.520601749420166016e+00 9.084863662719726562e+00 2.269278526306152344e+00 5.158176422119140625e+00
9.540000000000000000e+02 6.612069702148437500e+01 -2.526307344436645508e+00 -7.112127780914306641e+00 -2.198633909225463867e+00 -2.793228626251220703e+00 3.871954202651977539e+00
9.550000000000000000e+02 6.269310379028320312e+01 7.437903881072998047e-01 -3.875620126724243164e+00 4.958393573760986328e+00 3.248319625854492188e-01 2.811957120895385742e+00
9.560000000000000000e+02 3.980626296997070312e+01 8.963126182556152344e+00 -4.561128020286560059e-01 6.144653797149658203e+00 1.706562280654907227e+00 3.259161710739135742e-01
9.570000000000000000e+02 4.085523605346679688e+01 8.472579956054687500e+00 -6.198620796203613281e-01 6.762312650680541992e-01 1.691075786948204041e-02 -4.433350861072540283e-01
9.580000000000000000e+02 3.823816680908203125e+01 3.892415285110473633e+00 1.599736452102661133e+00 1.458311271667480469e+01 4.854855060577392578e+00 4.919921875000000000e+00
9.590000000000000000e+02 3.883737564086914062e+01 5.080721378326416016e+00 1.316030383110046387e+00 1.065404224395751953e+01 3.591022014617919922e+00 3.569937229156494141e+00
9.600000000000000000e+02 3.947294235229492188e+01 6.231600284576416016e+00 2.074177116155624390e-01 7.166045665740966797e+00 2.212038993835449219e+00 2.304428339004516602e+00
9.610000000000000000e+02 3.502853393554687500e+01 3.139033079147338867e+00 2.687819719314575195e+00 5.790067195892333984e+00 2.543365955352783203e+00 1.100456595420837402e+00
9.620000000000000000e+02 2.960350799560546875e+01 1.401915311813354492e+00 -7.040601968765258789e-01 6.205799579620361328e+00 1.650521755218505859e+00 1.903269767761230469e+00
9.630000000000000000e+02 2.704454994201660156e+01 1.903951168060302734e+00 -6.114260673522949219e+00 -1.503305912017822266e+00 -2.285269975662231445e+00 -2.915533304214477539e+00
9.640000000000000000e+02 2.436190795898437500e+01 1.759497523307800293e+00 -4.402612745761871338e-01 4.092144966125488281e+00 1.095565080642700195e+00 -5.439245223999023438e+00
9.650000000000000000e+02 2.578444099426269531e+01 3.325705230236053467e-01 1.572750210762023926e+00 7.116257548332214355e-01 6.853128075599670410e-01 -4.263920783996582031e+00
9.660000000000000000e+02 2.560990333557128906e+01 -2.916469573974609375e+00 1.703165054321289062e+00 5.143625259399414062e+00 2.054037094116210938e+00 -7.017228603363037109e-01
9.670000000000000000e+02 2.854130554199218750e+01 -4.487665653228759766e+00 4.670619666576385498e-01 8.309519767761230469e+00 2.632974386215209961e+00 2.456890821456909180e+00
9.680000000000000000e+02 2.541282463073730469e+01 -6.148463726043701172e+00 1.678318902850151062e-02 1.140231513977050781e+01 3.425729751586914062e+00 -1.507267117500305176e+00
9.690000000000000000e+02 2.556017494201660156e+01 -7.434575080871582031e+00 2.694661617279052734e+00 1.601326179504394531e+01 5.612377166748046875e+00 1.013633012771606445e+00
9.700000000000000000e+02 2.484111022949218750e+01 -9.421990394592285156e+00 3.928952455520629883e+00 9.928557395935058594e+00 4.157252788543701172e+00 4.470484256744384766e+00
9.710000000000000000e+02 2.364037513732910156e+01 -1.042693138122558594e+01 2.814544439315795898e+00 3.142616510391235352e+00 1.787148356437683105e+00 2.290594816207885742e+00
9.720000000000000000e+02 2.100076675415039062e+01 -1.249217987060546875e+01 1.125141143798828125e+00 3.396227836608886719e+00 1.356410622596740723e+00 -5.852929502725601196e-02
9.730000000000000000e+02 2.184919548034667969e+01 -8.668566703796386719e+00 1.350186914205551147e-01 6.363680958747863770e-01 2.314160317182540894e-01 -5.468925237655639648e-01
9.740000000000000000e+02 2.080579185485839844e+01 -9.528086662292480469e+00 1.045649290084838867e+00 1.983563780784606934e+00 9.087639451026916504e-01 -1.262430787086486816e+00
9.750000000000000000e+02 2.081076812744140625e+01 -7.803620338439941406e+00 7.672623991966247559e-01 1.263599872589111328e+00 6.092586517333984375e-01 -9.439146518707275391e-01
9.760000000000000000e+02 1.694561386108398438e+01 -3.889851331710815430e+00 2.585570096969604492e+00 3.765021085739135742e+00 1.905177354812622070e+00 -3.125745058059692383e+00
9.770000000000000000e+02 1.534764671325683594e+01 -1.785926938056945801e+00 2.008153438568115234e+00 5.695858955383300781e+00 2.311203718185424805e+00 -3.041735172271728516e+00
9.780000000000000000e+02 2.296938514709472656e+01 -2.114000558853149414e+00 5.521620512008666992e-01 3.449202537536621094e+00 1.200409293174743652e+00 -1.986399054527282715e+00
9.790000000000000000e+02 2.124618530273437500e+01 1.874210871756076813e-02 -2.865440368652343750e+00 9.108169674873352051e-01 -5.863870382308959961e-01 1.620692729949951172e+00
9.800000000000000000e+02 2.132564353942871094e+01 1.046718025207519531e+01 1.012398600578308105e+00 3.202300071716308594e+00 1.264409661293029785e+00 1.773871302604675293e+00
9.810000000000000000e+02 2.467066383361816406e+01 1.210052299499511719e+01 3.911649703979492188e+00 1.171417236328125000e+01 4.687746524810791016e+00 5.327362060546875000e+00
9.820000000000000000e+02 5.039943313598632812e+01 1.556609630584716797e+01 1.423979759216308594e+00 1.150122547149658203e+01 3.877561569213867188e+00 -2.460374593734741211e+00
9.830000000000000000e+02 5.877074432373046875e+01 1.150626277923583984e+01 -1.482152819633483887e+00 -8.310092687606811523e-01 -6.939486265182495117e-01 -1.072138428688049316e+00
9.840000000000000000e+02 5.492724990844726562e+01 1.530087852478027344e+01 1.112238526344299316e+00 5.998610019683837891e+00 2.133254528045654297e+00 2.225990533828735352e+00
9.850000000000000000e+02 5.594120788574218750e+01 1.494247627258300781e+01 8.636026382446289062e-01 4.903378963470458984e+00 1.730094552040100098e+00 2.208615541458129883e+00
9.860000000000000000e+02 5.059751892089843750e+01 1.397647571563720703e+01 3.095649242401123047e+00 1.818449592590332031e+01 6.384043216705322266e+00 -3.238835096359252930e+00
9.870000000000000000e+02 5.075514984130859375e+01 1.262314987182617188e+01 9.121216535568237305e-01 2.138510704040527344e+01 6.689168930053710938e+00 -5.208235383033752441e-01
9.880000000000000000e+02 5.077314376831054688e+01 1.132684230804443359e+01 1.610195159912109375e+00 1.949403762817382812e+01 6.331269741058349609e+00 1.970063686370849609e+00
9.890000000000000000e+02 5.113585281372070312e+01 1.008084774017333984e+01 1.348328113555908203e+00 1.547529315948486328e+01 5.047086238861083984e+00 1.284321665763854980e+00
9.900000000000000000e+02 5.392503356933593750e+01 3.440447807312011719e+00 3.092052698135375977e+00 2.248901176452636719e+01 7.674319267272949219e+00 -1.961813449859619141e+00
9.910000000000000000e+02 4.757684326171875000e+01 -3.012072563171386719e+00 -6.156982421875000000e+00 -1.562937021255493164e+00 -2.315975904464721680e+00 2.624356031417846680e+00
9.920000000000000000e+02 5.065571212768554688e+01 -4.621361255645751953e+00 -4.593887805938720703e+00 -8.031468987464904785e-01 -1.619110465049743652e+00 2.199250698089599609e+00
9.930000000000000000e+02 5.256459808349609375e+01 -6.722374916076660156e+00 -1.831097602844238281e-01 2.220332145690917969e+00 6.111667752265930176e-01 -6.922123432159423828e-01
9.940000000000000000e+02 5.620081329345703125e+01 -9.479612112045288086e-01 -1.578394651412963867e+00 3.606849193572998047e+00 6.085363626480102539e-01 -5.646814823150634766e+00
9.950000000000000000e+02 5.473768997192382812e+01 -1.041238689422607422e+01 8.971092104911804199e-01 6.861850738525390625e+00 2.327687978744506836e+00 -2.411834478378295898e+00
9.960000000000000000e+02 5.686037063598632812e+01 1.342786401510238647e-01 -4.221713542938232422e+00 2.305635809898376465e-01 -1.197345018386840820e+00 -3.928250074386596680e+00
9.970000000000000000e+02 6.030860519409179688e+01 -4.727176189422607422e+00 1.498979210853576660e+00 7.410557270050048828e+00 2.672860860824584961e+00 7.417724728584289551e-01
9.980000000000000000e+02 4.662680053710937500e+01 3.402608871459960938e+00 4.104721546173095703e-01 1.552587270736694336e+00 5.889178514480590820e-01 1.096006751060485840e+00
9.990000000000000000e+02 4.403805541992187500e+01 2.271093368530273438e+00 -1.574271917343139648e+00 2.535324096679687500e-01 -3.962218761444091797e-01 -2.148728668689727783e-01
1.000000000000000000e+03 4.478888320922851562e+01 -4.148589611053466797e+00 3.297862529754638672e+00 1.616298866271972656e+01 5.838254928588867188e+00 4.740969181060791016e+00
1.001000000000000000e+03 4.066437149047851562e+01 -3.609613180160522461e+00 1.509995460510253906e-01 3.599799871444702148e+00 1.125239849090576172e+00 -2.232317924499511719e+00
1.002000000000000000e+03 3.965628433227539062e+01 -5.166300296783447266e+00 4.968430697917938232e-01 3.551761388778686523e+00 1.214581370353698730e+00 -1.728841304779052734e+00
1.003000000000000000e+03 3.845806884765625000e+01 -7.483006000518798828e+00 8.607681393623352051e-01 3.018936395645141602e+00 1.163911342620849609e+00 -1.534551382064819336e+00
1.004000000000000000e+03 4.040861892700195312e+01 -1.124109649658203125e+01 8.628485202789306641e-01 1.101075077056884766e+01 3.562079906463623047e+00 -2.378452777862548828e+00
1.005000000000000000e+03 3.984231948852539062e+01 -9.900654792785644531e+00 7.201746702194213867e-01 7.114406108856201172e+00 2.350374221801757812e+00 -2.056292057037353516e+00
1.006000000000000000e+03 4.080266952514648438e+01 -1.266798400878906250e+01 9.369946122169494629e-01 1.474361705780029297e+01 4.704183578491210938e+00 -1.584389328956604004e+00
1.007000000000000000e+03 4.915705108642578125e+01 -1.442919349670410156e+01 -3.724708557128906250e-01 -8.729951828718185425e-02 -1.379311084747314453e-01 1.743302047252655029e-01
1.008000000000000000e+03 4.732603836059570312e+01 -1.227424716949462891e+01 4.315399564802646637e-03 1.085242390632629395e+00 3.268673419952392578e-01 -3.292239308357238770e-01
1.009000000000000000e+03 3.771439361572265625e+01 -6.341047286987304688e+00 9.941194057464599609e-01 2.393440008163452148e+00 1.016267776489257812e+00 -1.385677814483642578e+00
1.010000000000000000e+03 3.582985687255859375e+01 -3.928964734077453613e-01 -1.135069489479064941e+00 5.898254871368408203e+00 1.428955554962158203e+00 3.898724913597106934e-01
1.011000000000000000e+03 3.620087051391601562e+01 -1.440901279449462891e+00 -2.987679719924926758e+00 5.538126945495605469e+00 7.651340961456298828e-01 3.233016431331634521e-01
1.012000000000000000e+03 3.772267913818359375e+01 2.705137729644775391e+00 2.489224195480346680e+00 2.110219383239746094e+01 7.077425479888916016e+00 2.401969671249389648e+00
1.013000000000000000e+03 3.311338043212890625e+01 6.883513927459716797e+00 -4.986799359321594238e-01 7.096644639968872070e-01 6.329536437988281250e-02 8.467032760381698608e-02
1.014000000000000000e+03 4.602528762817382812e+01 -1.759997248649597168e+00 -3.091650247573852539e+00 5.400647163391113281e+00 6.926989555358886719e-01 5.934188365936279297e+00
1.015000000000000000e+03 4.627944564819335938e+01 -3.028050661087036133e+00 -7.099278569221496582e-01 3.243854522705078125e+00 7.601779699325561523e-01 4.103464603424072266e+00
1.016000000000000000e+03 4.825858306884765625e+01 -1.040197730064392090e+00 -6.874037384986877441e-01 7.369095683097839355e-01 1.485175080597400665e-02 3.359856367111206055e+00
1.017000000000000000e+03 4.220314407348632812e+01 -7.537928104400634766e+00 7.669640779495239258e-01 8.506429672241210938e+00 2.782017946243286133e+00 6.655020713806152344e-01
1.018000000000000000e+03 4.455527496337890625e+01 -5.349088668823242188e+00 1.658481955528259277e+00 1.715775680541992188e+01 5.644871711730957031e+00 1.328310608863830566e+00
1.019000000000000000e+03 3.805261993408203125e+01 -4.603930950164794922e+00 -1.131196260452270508e+00 3.259671688079833984e+00 6.385426521301269531e-01 -1.681303620338439941e+00
1.020000000000000000e+03 4.191505050659179688e+01 4.249562621116638184e-01 -6.686915874481201172e+00 -8.142693042755126953e-01 -2.250355482101440430e+00 -2.846261978149414062e+00
1.021000000000000000e+03 3.174389266967773438e+01 -3.354960381984710693e-01 3.761464595794677734e+00 1.197827339172363281e+00 1.487787604331970215e+00 6.022135734558105469e+00
1.022000000000000000e+03 3.292852020263671875e+01 -7.555164098739624023e-01 -4.943037986755371094e+00 -4.346464157104492188e+00 -2.786850690841674805e+00 3.367449522018432617e+00
1.023000000000000000e+03 3.469005584716796875e+01 -2.011331081390380859e+00 -5.626083374023437500e+00 -2.143013954162597656e+00 -2.330729246139526367e+00 3.440593242645263672e+00
1.024000000000000000e+03 4.090428543090820312e+01 -1.413920497894287109e+01 7.471527457237243652e-01 1.637475776672363281e+01 5.136572837829589844e+00 1.559134125709533691e-01
1.025000000000000000e+03 4.266394042968750000e+01 -1.939460563659667969e+01 -9.419707059860229492e-01 6.314222812652587891e+00 1.611675620079040527e+00 -5.693964958190917969e-01
1.026000000000000000e+03 3.704979324340820312e+01 -1.663536262512207031e+01 -6.852917075157165527e-01 5.369082093238830566e-01 -4.451504722237586975e-02 -4.579244256019592285e-01
1.027000000000000000e+03 3.022609901428222656e+01 -1.165327358245849609e+01 1.241673380136489868e-01 4.013205528259277344e+00 1.241211891174316406e+00 -1.359437227249145508e+00
1.028000000000000000e+03 2.783271026611328125e+01 -7.314985275268554688e+00 2.026312589645385742e+00 7.844297409057617188e+00 2.961183071136474609e+00 6.100123524665832520e-01
1.029000000000000000e+03 3.020012092590332031e+01 -4.375885486602783203e+00 4.787374734878540039e-01 8.198038101196289062e+00 2.603032827377319336e+00 -3.508714959025382996e-02
1.030000000000000000e+03 2.571533203125000000e+01 -4.828576087951660156e+00 1.640943765640258789e+00 8.189118385314941406e+00 2.949018716812133789e+00 -7.448189854621887207e-01
1.031000000000000000e+03 2.988268470764160156e+01 -2.348134756088256836e+00 1.132492184638977051e+00 1.379311847686767578e+01 4.477683067321777344e+00 2.736205101013183594e+00
1.032000000000000000e+03 3.051663970947265625e+01 2.705974876880645752e-02 6.855412006378173828e+00 1.179289627075195312e+01 5.594492435455322266e+00 5.878403663635253906e+00
1.033000000000000000e+03 3.606752777099609375e+01 -1.356731986999511719e+01 -8.061587810516357422e-01 -7.907970249652862549e-02 -2.655715346336364746e-01 2.506973445415496826e-01
1.034000000000000000e+03 3.417533493041992188e+01 -1.162477493286132812e+01 4.253508150577545166e-02 7.600067853927612305e-01 2.407625615596771240e-01 -3.052466809749603271e-01
1.035000000000000000e+03 8.894585609436035156e+00 1.775112271308898926e+00 7.722901105880737305e-01 9.059917449951171875e+00 2.949662446975708008e+00 -6.741857051849365234e+00
1.036000000000000000e+03 8.840044021606445312e+00 6.595971107482910156e+00 5.845839023590087891e+00 1.533329868316650391e+01 6.353741168975830078e+00 -4.121216773986816406e+00
1.037000000000000000e+03 6.517289733886718750e+01 1.445017623901367188e+01 4.966844916343688965e-01 8.413145065307617188e+00 2.672948837280273438e+00 -3.142769336700439453e+00
1.038000000000000000e+03 6.654291534423828125e+01 1.489320850372314453e+01 -4.999695718288421631e-01 1.058896350860595703e+01 3.026698112487792969e+00 -4.808992147445678711e-01
1.039000000000000000e+03 6.587355804443359375e+01 1.168170833587646484e+01 2.544307231903076172e+00 2.218519592285156250e+01 7.418850898742675781e+00 -1.685172677040100098e+00
1.040000000000000000e+03 6.632585906982421875e+01 8.974780082702636719e+00 1.248629570007324219e+00 1.423614311218261719e+01 4.645431518554687500e+00 7.085803747177124023e-01
1.041000000000000000e+03 6.506767272949218750e+01 8.314939498901367188e+00 1.541776537895202637e+00 1.128173065185546875e+01 3.847052335739135742e+00 3.019242763519287109e+00
1.042000000000000000e+03 1.112938404083251953e+01 -1.321586012840270996e+00 3.665961980819702148e+00 1.885040283203125000e+01 6.754909038543701172e+00 -3.175230503082275391e+00
1.043000000000000000e+03 2.224141883850097656e+01 -1.156647396087646484e+01 1.330126285552978516e+00 2.741432666778564453e+00 1.221467614173889160e+00 3.573712706565856934e-01
1.044000000000000000e+03 2.036649322509765625e+01 -1.463045787811279297e+01 4.401501119136810303e-01 3.961988449096679688e+00 1.320641636848449707e+00 -7.720758020877838135e-02
1.045000000000000000e+03 2.589287185668945312e+01 -2.335773849487304688e+01 -2.723267078399658203e-01 4.160856723785400391e+00 1.166558980941772461e+00 -3.901039958000183105e-01
1.046000000000000000e+03 3.265191268920898438e+01 -1.849465942382812500e+01 -1.562035232782363892e-01 2.965876340866088867e+00 8.429018259048461914e-01 -9.439203739166259766e-01
1.047000000000000000e+03 3.470686340332031250e+01 -1.812035369873046875e+01 -2.422033995389938354e-01 2.280527114868164062e+00 6.114971041679382324e-01 -5.675277113914489746e-01
1.048000000000000000e+03 7.687915039062500000e+01 2.247031974792480469e+01 -1.029887353070080280e-03 6.528792858123779297e+00 1.958328843116760254e+00 -9.697394445538520813e-03
1.049000000000000000e+03 1.900290298461914062e+01 -7.548529148101806641e+00 8.408488035202026367e-01 2.688460826873779297e+00 1.058792829513549805e+00 -1.707717418670654297e+00
1.050000000000000000e+03 1.863223266601562500e+01 -1.381226539611816406e+01 3.607203960418701172e-01 4.010000705718994141e+00 1.311216235160827637e+00 -4.941110312938690186e-01
1.051000000000000000e+03 3.183107376098632812e+01 -3.107359695434570312e+01 1.307892948389053345e-01 3.758423566818237305e+00 1.166763901710510254e+00 -2.077907174825668335e-01
1.052000000000000000e+03 6.804492473602294922e+00 -1.772069931030273438e+01 -3.026677370071411133e-01 3.781664848327636719e+00 1.043699145317077637e+00 4.936406016349792480e-01
1.053000000000000000e+03 1.483642768859863281e+01 -1.387691020965576172e+01 -3.189136683940887451e-01 4.750941276550292969e+00 1.329608321189880371e+00 -4.837141931056976318e-01
1.054000000000000000e+03 2.648250198364257812e+01 -1.792429542541503906e+01 -5.545256137847900391e-01 4.583592414855957031e+00 1.208720088005065918e+00 -6.036189198493957520e-01
1.055000000000000000e+03 4.619264602661132812e+01 -2.319050979614257812e+01 -1.778587698936462402e-01 3.982297897338867188e+00 1.141331791877746582e+00 -7.976974844932556152e-01
1.056000000000000000e+03 3.725396728515625000e+01 -2.307925033569335938e+01 1.283720135688781738e-01 3.563767194747924805e+00 1.107641816139221191e+00 2.551171779632568359e-01
1.057000000000000000e+03 7.244901657104492188e+00 -2.469361114501953125e+01 -1.391140371561050415e-01 3.772912263870239258e+00 1.090139508247375488e+00 2.252696454524993896e-01
1.058000000000000000e+03 1.250082683563232422e+01 -2.413791275024414062e+01 -2.581898868083953857e-01 4.077322959899902344e+00 1.145739912986755371e+00 1.175246387720108032e-01
1.059000000000000000e+03 2.116082572937011719e+01 -2.546563720703125000e+01 -2.510779500007629395e-01 4.155494213104248047e+00 1.171324849128723145e+00 -1.816065311431884766e-01
1.060000000000000000e+03 5.046442413330078125e+01 -2.207495880126953125e+01 4.964904487133026123e-01 2.595290660858154297e+00 9.275343418121337891e-01 -3.463701307773590088e-01
1.061000000000000000e+03 5.889560699462890625e+01 -2.389577865600585938e+01 -2.978152632713317871e-01 6.407558917999267578e+00 1.832923173904418945e+00 5.092475563287734985e-02
1.062000000000000000e+03 6.856202697753906250e+01 -2.470766639709472656e+01 6.228317022323608398e-01 5.077732563018798828e+00 1.710169196128845215e+00 2.796951830387115479e-01
1.063000000000000000e+03 7.277708435058593750e+01 -2.445787239074707031e+01 2.595268376171588898e-02 6.149364471435546875e+00 1.852595210075378418e+00 6.046280860900878906e-01
1.064000000000000000e+03 7.932781219482421875e+01 -2.647671127319335938e+01 -1.017978135496377945e-02 7.254102230072021484e+00 2.173176765441894531e+00 6.436111032962799072e-02
1.065000000000000000e+03 1.711365890502929688e+01 -3.318489837646484375e+01 -1.229816749691963196e-01 3.966367483139038086e+00 1.153015732765197754e+00 -3.103106282651424408e-02
1.066000000000000000e+03 3.190870857238769531e+01 -3.454412841796875000e+01 1.182616949081420898e-01 3.844809055328369141e+00 1.188921213150024414e+00 -1.226014718413352966e-01
1.067000000000000000e+03 5.179681015014648438e+01 -3.511872863769531250e+01 3.155485987663269043e-01 4.425303459167480469e+00 1.422255635261535645e+00 6.815724074840545654e-02
1.068000000000000000e+03 7.355243682861328125e+01 -3.181598854064941406e+01 9.894603490829467773e-02 6.233701229095458984e+00 1.899794220924377441e+00 1.665423810482025146e-01
1.069000000000000000e+03 7.932315826416015625e+01 -3.340153503417968750e+01 2.274735271930694580e-02 6.773500919342041016e+00 2.038874387741088867e+00 2.502629533410072327e-02
1.070000000000000000e+03 7.942506408691406250e+01 -1.258213615417480469e+01 2.577434480190277100e-02 6.386240482330322266e+00 1.923604488372802734e+00 1.441045254468917847e-01
1.071000000000000000e+03 7.107823181152343750e+01 -2.392577409744262695e+00 -2.825942754745483398e+00 4.424739360809326172e+00 4.796389639377593994e-01 -2.617699146270751953e+00
1.072000000000000000e+03 7.930007934570312500e+01 -5.597024917602539062e+00 -1.037257164716720581e-02 1.110014724731445312e+01 3.326932430267333984e+00 6.409673094749450684e-01
1.073000000000000000e+03 5.163928222656250000e+01 -5.638946533203125000e+00 -1.835697650909423828e+00 5.230581164360046387e-01 -3.937918841838836670e-01 5.443699955940246582e-01
1.074000000000000000e+03 5.264227676391601562e+01 3.668253183364868164e+00 3.882693767547607422e+00 1.169392108917236328e+01 4.672984600067138672e+00 -1.194332599639892578e+00
1.075000000000000000e+03 6.776455688476562500e+01 1.676397132873535156e+01 -4.288376867771148682e-01 8.112665176391601562e+00 2.305148124694824219e+00 -2.104999031871557236e-03
1.076000000000000000e+03 5.681901550292968750e+01 1.130084609985351562e+01 -2.012932151556015015e-01 2.228802442550659180e+00 6.082527637481689453e-01 4.720523059368133545e-01
1.077000000000000000e+03 6.681731414794921875e+01 7.636599540710449219e+00 -9.500566124916076660e-01 1.095703220367431641e+01 3.002092599868774414e+00 -1.398446679115295410e+00
1.078000000000000000e+03 5.753903579711914062e+01 2.326786613464355469e+01 4.669219553470611572e-01 4.757757186889648438e+00 1.567403793334960938e+00 5.640829801559448242e-01
1.079000000000000000e+03 4.490865325927734375e+01 1.656793785095214844e+01 7.237066030502319336e-01 1.600731730461120605e+00 6.973314881324768066e-01 1.022291302680969238e+00
1.080000000000000000e+03 4.318365097045898438e+01 1.614949989318847656e+01 6.093048453330993652e-01 2.500679254531860352e+00 9.329952597618103027e-01 1.641046762466430664e+00
1.081000000000000000e+03 4.136274719238281250e+01 2.454688835144042969e+01 -1.338007003068923950e-01 4.218524932861328125e+00 1.225417375564575195e+00 2.851838767528533936e-01
1.082000000000000000e+03 5.343198394775390625e+01 2.207257652282714844e+01 -2.225746661424636841e-01 5.828822135925292969e+00 1.681874275207519531e+00 4.357698559761047363e-01
1.083000000000000000e+03 3.359933853149414062e+01 1.700619697570800781e+01 1.621447056531906128e-01 1.504468560218811035e+00 4.999839663505554199e-01 -8.565791249275207520e-01
1.084000000000000000e+03 1.809285736083984375e+01 1.588929271697998047e+01 -4.015623569488525391e+00 5.178908631205558777e-02 -1.189150452613830566e+00 -1.007636189460754395e+00
1.085000000000000000e+03 1.270743751525878906e+01 1.381968116760253906e+01 -2.300529479980468750e+00 3.788266897201538086e+00 4.463211894035339355e-01 5.331847667694091797e-01
1.086000000000000000e+03 1.355354499816894531e+01 1.281639099121093750e+01 -1.910270333290100098e+00 2.812250375747680664e+00 2.705940306186676025e-01 2.822938561439514160e-01
1.087000000000000000e+03 1.788124799728393555e+00 1.619084739685058594e+01 -1.617431640625000000e-01 4.782127380371093750e+00 1.386115312576293945e+00 -9.860699772834777832e-01
1.088000000000000000e+03 3.571738052368164062e+01 2.236945533752441406e+01 -5.042287111282348633e-01 3.994256019592285156e+00 1.047008156776428223e+00 -1.761610358953475952e-01
1.089000000000000000e+03 3.151019477844238281e+01 2.297769165039062500e+01 -6.260541677474975586e-01 3.719780445098876953e+00 9.281179308891296387e-01 -7.457545958459377289e-03
1.090000000000000000e+03 2.226840972900390625e+01 2.256401443481445312e+01 -1.068203210830688477e+00 1.197890281677246094e+00 3.890610858798027039e-02 -7.366899847984313965e-01
1.091000000000000000e+03 1.741908073425292969e+01 2.365226364135742188e+01 -6.301268339157104492e-01 1.917649030685424805e+00 3.862566649913787842e-01 2.512937486171722412e-01
1.092000000000000000e+03 6.791242599487304688e+00 2.526797485351562500e+01 -3.373416066169738770e-01 4.868598937988281250e+00 1.359377264976501465e+00 2.540141642093658447e-01
1.093000000000000000e+03 3.659412384033203125e+01 3.120932006835937500e+01 -1.054760441184043884e-01 3.813826322555541992e+00 1.112505078315734863e+00 -1.123939007520675659e-01
1.094000000000000000e+03 2.932022476196289062e+01 3.427048110961914062e+01 1.695864051580429077e-01 3.159124851226806641e+00 9.986133575439453125e-01 -2.941664457321166992e-01
1.095000000000000000e+03 2.019598197937011719e+01 3.259644699096679688e+01 3.334353268146514893e-01 2.602271556854248047e+00 8.807120919227600098e-01 -5.392628535628318787e-02
1.096000000000000000e+03 1.803299522399902344e+01 2.980620193481445312e+01 1.916503459215164185e-01 2.506195306777954102e+00 8.093537092208862305e-01 1.324066817760467529e-01
1.097000000000000000e+03 2.192075729370117188e+00 3.176691436767578125e+01 8.871532976627349854e-03 5.671218872070312500e+00 1.704027056694030762e+00 1.791589558124542236e-01
1.098000000000000000e+03 1.582709431648254395e+00 9.048425674438476562e+00 1.927183568477630615e-01 -4.388124644756317139e-01 -7.382823526859283447e-02 -1.396342992782592773e+00
1.099000000000000000e+03 6.443629455566406250e+01 -1.091620063781738281e+01 4.221122264862060547e-01 4.542364120483398438e+00 1.489342808723449707e+00 -1.311053633689880371e+00
1.100000000000000000e+03 3.176415634155273438e+01 -8.067447662353515625e+00 3.005113303661346436e-01 1.566206932067871094e+00 5.600154995918273926e-01 -6.660408973693847656e-01
1.101000000000000000e+03 3.014259147644042969e+01 -1.118930697441101074e+00 6.399325847625732422e+00 1.693029594421386719e+01 6.998886585235595703e+00 6.785738468170166016e+00
1.102000000000000000e+03 3.555626869201660156e-01 -1.792740702629089355e+00 1.619564602151513100e-03 -2.441718727350234985e-01 -7.276569306850433350e-02 -1.117163151502609253e-01
1.103000000000000000e+03 7.848371863365173340e-01 -1.754067063331604004e+00 -2.476304071024060249e-03 -1.782698631286621094e-01 -5.422385036945343018e-02 -1.679017692804336548e-01
1.104000000000000000e+03 2.479308605194091797e+00 -1.631828904151916504e+00 -4.514088109135627747e-02 -1.871252246201038361e-02 -1.915602013468742371e-02 -2.712625563144683838e-01
1.105000000000000000e+03 2.662460565567016602e+00 -1.662426710128784180e+00 -1.293204259127378464e-02 3.152180835604667664e-02 5.576930474489927292e-03 -2.553026676177978516e-01
1.106000000000000000e+03 2.008522033691406250e+00 -4.164228057861328125e+01 -5.392088554799556732e-03 3.748626232147216797e+00 1.122970223426818848e+00 1.395934610627591610e-03
1.107000000000000000e+03 1.283293724060058594e+00 -4.012040710449218750e+01 1.681074616499245167e-03 3.746638059616088867e+00 1.124495744705200195e+00 4.978824406862258911e-03
1.108000000000000000e+03 5.877236723899841309e-01 -3.624370574951171875e+01 3.169007133692502975e-03 3.726152181625366211e+00 1.118796348571777344e+00 2.990386448800563812e-03
1.109000000000000000e+03 6.779361963272094727e-01 -3.503133010864257812e+01 -4.733433946967124939e-03 3.715065240859985352e+00 1.113099575042724609e+00 5.498236510902643204e-03
1.110000000000000000e+03 2.904477357864379883e+00 -3.494203567504882812e+01 -1.140322536230087280e-02 3.725769758224487305e+00 1.114309906959533691e+00 2.588504552841186523e-02
1.111000000000000000e+03 8.205990791320800781e-01 -3.365935134887695312e+01 -1.445083296857774258e-03 3.702174901962280273e+00 1.110219001770019531e+00 9.751032106578350067e-03
1.112000000000000000e+03 7.172870039939880371e-01 -2.944199180603027344e+01 -4.434568807482719421e-03 3.625954627990722656e+00 1.086456060409545898e+00 1.850567944347858429e-02
1.113000000000000000e+03 7.014696002006530762e-01 -2.807081604003906250e+01 1.235651900060474873e-03 3.586986541748046875e+00 1.076466679573059082e+00 2.188889868557453156e-02
1.114000000000000000e+03 6.892094612121582031e-01 -2.670296859741210938e+01 -6.983991246670484543e-03 3.539936780929565430e+00 1.059885859489440918e+00 2.692854218184947968e-02
1.115000000000000000e+03 6.657204627990722656e-01 -2.260854721069335938e+01 1.888367580249905586e-03 3.319361209869384766e+00 9.963748455047607422e-01 4.859116300940513611e-02
1.116000000000000000e+03 6.581109762191772461e-01 -2.124543380737304688e+01 -1.208357699215412140e-02 3.210878133773803711e+00 9.596383571624755859e-01 5.784349143505096436e-02
1.117000000000000000e+03 1.968673944473266602e+00 -2.110015678405761719e+01 -2.168924361467361450e-02 3.268798828125000000e+00 9.741328358650207520e-01 1.671014279127120972e-01
1.118000000000000000e+03 6.475667953491210938e-01 -1.988205718994140625e+01 5.419202498160302639e-04 3.076912403106689453e+00 9.232362508773803711e-01 7.103409618139266968e-02
1.119000000000000000e+03 5.904133319854736328e-01 -1.579434967041015625e+01 -1.255966909229755402e-02 2.470786094665527344e+00 7.374679446220397949e-01 1.151792034506797791e-01
1.120000000000000000e+03 5.606285333633422852e-01 -1.443688106536865234e+01 -1.359966001473367214e-03 2.177190303802490234e+00 6.527490615844726562e-01 1.324968189001083374e-01
1.121000000000000000e+03 1.679000496864318848e+00 -1.433445835113525391e+01 -4.603854566812515259e-02 2.398835420608520508e+00 7.058390974998474121e-01 3.680679202079772949e-01
1.122000000000000000e+03 5.290260910987854004e-01 -1.308301448822021484e+01 -9.315077215433120728e-03 1.829133272171020508e+00 5.459454655647277832e-01 1.453907638788223267e-01
1.123000000000000000e+03 4.643954038619995117e-01 -9.047523498535156250e+00 6.759395357221364975e-03 4.980934262275695801e-01 1.514558494091033936e-01 1.592088490724563599e-01
1.124000000000000000e+03 4.755015373229980469e-01 -7.706215381622314453e+00 3.597688337322324514e-04 4.347230866551399231e-02 1.314962375909090042e-02 1.491466462612152100e-01
1.125000000000000000e+03 1.571577668190002441e+00 -6.605623722076416016e+00 8.526413142681121826e-02 4.220740497112274170e-01 1.522014439105987549e-01 3.820010423660278320e-01
1.126000000000000000e+03 7.167904663085937500e+01 -4.110464096069335938e+01 8.373211324214935303e-02 6.103852748870849609e+00 1.856275558471679688e+00 1.560229994356632233e-02
1.127000000000000000e+03 3.239021301269531250e+01 -4.099599456787109375e+01 1.560847014188766479e-01 3.855150461196899414e+00 1.203370571136474609e+00 -7.258990313857793808e-03
1.128000000000000000e+03 1.318759250640869141e+01 -4.049998855590820312e+01 -5.006526783108711243e-02 3.857572078704833984e+00 1.142252087593078613e+00 3.399278270080685616e-03
1.129000000000000000e+03 7.567729187011718750e+01 4.042053985595703125e+01 2.680664416402578354e-03 6.367686271667480469e+00 1.911110162734985352e+00 2.778430283069610596e-02
1.130000000000000000e+03 7.803062438964843750e+01 4.174620437622070312e+01 4.795106500387191772e-02 6.479945182800292969e+00 1.958368897438049316e+00 -1.329946797341108322e-02
1.131000000000000000e+03 7.862364959716796875e+01 3.883395004272460938e+01 -2.401528134942054749e-02 6.525130748748779297e+00 1.950334668159484863e+00 -1.168031804263591766e-02
1.132000000000000000e+03 7.926564025878906250e+01 3.462816238403320312e+01 8.712663315236568451e-03 6.551929473876953125e+00 1.968192577362060547e+00 -5.036577116698026657e-03
1.133000000000000000e+03 7.786908721923828125e+01 3.406555557250976562e+01 -5.662067793309688568e-03 6.488431930541992188e+00 1.944830894470214844e+00 -2.778299618512392044e-03
1.134000000000000000e+03 7.944628906250000000e+01 3.334452819824218750e+01 -1.677913963794708252e-02 6.564807891845703125e+00 1.964408636093139648e+00 -3.361747367307543755e-03
1.135000000000000000e+03 7.925327301025390625e+01 3.072082138061523438e+01 -9.180324152112007141e-03 6.562672615051269531e+00 1.966047644615173340e+00 3.916191402822732925e-03
1.136000000000000000e+03 7.800295257568359375e+01 2.916390228271484375e+01 -1.855104602873325348e-02 6.517893791198730469e+00 1.949802756309509277e+00 1.181873306632041931e-02
1.137000000000000000e+03 7.936508178710937500e+01 2.648162841796875000e+01 2.138192206621170044e-02 6.553094387054443359e+00 1.972342848777770996e+00 4.324869718402624130e-03
1.138000000000000000e+03 7.660227966308593750e+01 2.530175018310546875e+01 -3.223589435219764709e-02 6.489509582519531250e+00 1.937182188034057617e+00 1.210277341306209564e-02
1.139000000000000000e+03 7.935583496093750000e+01 2.511277008056640625e+01 -2.558265626430511475e-02 6.542652606964111328e+00 1.955121040344238281e+00 1.036681048572063446e-02
1.140000000000000000e+03 7.936827087402343750e+01 2.094849205017089844e+01 3.625027090311050415e-02 6.530439853668212891e+00 1.970007061958312988e+00 -1.035332866013050079e-02
1.141000000000000000e+03 7.936322784423828125e+01 1.954880905151367188e+01 -1.653200387954711914e-02 6.581383228302001953e+00 1.969455361366271973e+00 -2.886224538087844849e-02
1.142000000000000000e+03 7.812778472900390625e+01 2.103538322448730469e+01 -4.682226863224059343e-04 6.553315639495849609e+00 1.965854167938232422e+00 -2.531293034553527832e-02
1.143000000000000000e+03 7.934461975097656250e+01 1.814314460754394531e+01 5.590046197175979614e-02 6.697043895721435547e+00 2.025883197784423828e+00 -7.548268884420394897e-02
1.144000000000000000e+03 7.933434295654296875e+01 1.392594242095947266e+01 -1.131617352366447449e-01 7.552378177642822266e+00 2.231765031814575195e+00 -1.555942147970199585e-01
1.145000000000000000e+03 7.791589355468750000e+01 1.248815155029296875e+01 -2.920764088630676270e-01 7.797770023345947266e+00 2.251708030700683594e+00 -4.235946536064147949e-01
1.146000000000000000e+03 7.447645568847656250e+01 9.881924629211425781e+00 -1.809309720993041992e-01 5.172352313995361328e+00 1.497426509857177734e+00 -3.268933534622192383e+00
1.147000000000000000e+03 7.937900543212890625e+01 1.110668659210205078e+01 -1.369156688451766968e-01 7.731852054595947266e+00 2.278480768203735352e+00 8.363397419452667236e-02
1.148000000000000000e+03 7.822005462646484375e+01 7.387233734130859375e+00 1.390775918960571289e+00 1.001772117614746094e+01 3.422549009323120117e+00 -5.471725463867187500e-01
1.149000000000000000e+03 7.936347198486328125e+01 5.602447509765625000e+00 2.109617888927459717e-01 7.895757675170898438e+00 2.432015895843505859e+00 -1.015383958816528320e+00
1.150000000000000000e+03 7.710498046875000000e+01 4.363919258117675781e+00 7.771870493888854980e-01 1.279655075073242188e+01 4.072121143341064453e+00 -2.131974458694458008e+00
1.151000000000000000e+03 7.940194702148437500e+01 4.178825378417968750e+00 -1.640096753835678101e-01 1.027684974670410156e+01 3.033852100372314453e+00 -1.057869791984558105e+00
1.152000000000000000e+03 7.387309265136718750e+01 -4.787727892398834229e-01 -6.974278688430786133e-01 2.213701486587524414e+00 4.548820555210113525e-01 -2.097347825765609741e-01
1.153000000000000000e+03 7.942605590820312500e+01 -1.414260387420654297e+00 -1.380856782197952271e-01 1.448816585540771484e+01 4.305024147033691406e+00 2.896272540092468262e-01
1.154000000000000000e+03 7.829991149902343750e+01 -1.443334937095642090e+00 -3.670883476734161377e-01 1.209037208557128906e+01 3.516985177993774414e+00 9.240292906761169434e-01
1.155000000000000000e+03 7.932453155517578125e+01 -4.207603454589843750e+00 -2.483784034848213196e-02 1.229980182647705078e+01 3.682489156723022461e+00 6.051149964332580566e-01
1.156000000000000000e+03 7.935422515869140625e+01 -8.381117820739746094e+00 5.418675765395164490e-02 8.664786338806152344e+00 2.615692138671875000e+00 5.235860943794250488e-01
1.157000000000000000e+03 7.808333587646484375e+01 -8.431061744689941406e+00 1.512741893529891968e-01 8.874000549316406250e+00 2.707582473754882812e+00 1.326752185821533203e+00
1.158000000000000000e+03 7.943758392333984375e+01 -1.534321212768554688e+01 -3.971396014094352722e-02 6.394802093505859375e+00 1.906526446342468262e+00 -1.149052977561950684e-01
1.159000000000000000e+03 7.825940704345703125e+01 -1.670846748352050781e+01 -3.704243153333663940e-02 7.292189598083496094e+00 2.176544189453125000e+00 -3.734915256500244141e-01
1.160000000000000000e+03 7.940528106689453125e+01 -1.810936927795410156e+01 -5.147227644920349121e-02 7.059302806854248047e+00 2.102349281311035156e+00 -1.591913849115371704e-01
1.161000000000000000e+03 7.935125732421875000e+01 -2.369281578063964844e+01 -1.729049906134605408e-02 7.497251987457275391e+00 2.243988513946533203e+00 4.102523624897003174e-02
1.162000000000000000e+03 7.933951568603515625e+01 -2.508667564392089844e+01 2.738253213465213776e-03 7.386912345886230469e+00 2.216895103454589844e+00 5.656379461288452148e-02
1.163000000000000000e+03 7.931076812744140625e+01 -2.925140380859375000e+01 -1.226066518574953079e-02 7.012139797210693359e+00 2.099963665008544922e+00 5.123129114508628845e-02
1.164000000000000000e+03 7.930953979492187500e+01 -3.202215957641601562e+01 -1.402346324175596237e-02 6.836138248443603516e+00 2.046634435653686523e+00 3.547805547714233398e-02
1.165000000000000000e+03 7.934147644042968750e+01 -3.611257171630859375e+01 2.796719036996364594e-02 6.670667648315429688e+00 2.009590387344360352e+00 1.484108902513980865e-02
1.166000000000000000e+03 7.923043060302734375e+01 -3.742855834960937500e+01 -2.595218271017074585e-02 6.626987457275390625e+00 1.980310678482055664e+00 2.404428273439407349e-02
1.167000000000000000e+03 7.898091888427734375e+01 -3.872868347167968750e+01 1.282784529030323029e-02 6.587700843811035156e+00 1.980158686637878418e+00 2.409710921347141266e-02
1.168000000000000000e+03 7.860096740722656250e+01 -4.008690261840820312e+01 -9.347315877676010132e-03 6.555006027221679688e+00 1.963697671890258789e+00 2.793751284480094910e-02
1.169000000000000000e+03 1.264537048339843750e+01 3.728694915771484375e+01 3.831407725811004639e-01 3.514064073562622070e+00 1.169161438941955566e+00 1.969289183616638184e-01
1.170000000000000000e+03 2.775692749023437500e+01 4.086028289794921875e+01 4.017268717288970947e-01 3.004091978073120117e+00 1.021745681762695312e+00 -5.877252668142318726e-02
1.171000000000000000e+03 4.743712234497070312e+01 4.065226745605468750e+01 2.253455296158790588e-02 4.547483921051025391e+00 1.371005535125732422e+00 -4.662620369344949722e-03
1.172000000000000000e+03 6.700222015380859375e+01 4.055215454101562500e+01 3.566345945000648499e-02 5.797584056854248047e+00 1.749974250793457031e+00 3.176654223352670670e-03
1.173000000000000000e+03 3.775517046451568604e-01 1.658208608627319336e+00 -7.809144258499145508e-02 -6.203079223632812500e-01 -2.095198035240173340e-01 3.677293956279754639e-01
1.174000000000000000e+03 4.478525638580322266e+00 1.666547894477844238e+00 -1.499104857444763184e+00 -6.911344081163406372e-02 -4.704654812812805176e-01 1.898510932922363281e+00
1.175000000000000000e+03 1.421270847320556641e+00 6.282621860504150391e+00 4.673218727111816406e-01 -2.128890275955200195e+00 -4.984704852104187012e-01 -9.552550315856933594e-02
1.176000000000000000e+03 5.293984413146972656e-01 9.211977005004882812e+00 1.401752382516860962e-01 -2.029785633087158203e+00 -5.668831467628479004e-01 -6.087387800216674805e-01
1.177000000000000000e+03 6.253337860107421875e-01 1.203690338134765625e+01 1.288952231407165527e-01 1.117668509483337402e+00 3.739691078662872314e-01 -7.175224423408508301e-01
1.178000000000000000e+03 5.969978570938110352e-01 1.628704833984375000e+01 -1.271805167198181152e-01 4.918622016906738281e+00 1.437432527542114258e+00 -3.748697340488433838e-01
1.179000000000000000e+03 6.045075058937072754e-01 1.769853401184082031e+01 2.482544630765914917e-02 5.632224559783935547e+00 1.697114944458007812e+00 -2.649127542972564697e-01
1.180000000000000000e+03 6.360098123550415039e-01 2.192671012878417969e+01 -4.294710978865623474e-02 6.600072383880615234e+00 1.967137575149536133e+00 -6.268155574798583984e-02
1.181000000000000000e+03 6.436461806297302246e-01 2.334038352966308594e+01 -6.863937713205814362e-03 6.649383068084716797e+00 1.992755770683288574e+00 -9.311710484325885773e-03
1.182000000000000000e+03 6.552086472511291504e-01 2.475762939453125000e+01 -2.187890931963920593e-02 6.619396209716796875e+00 1.979255199432373047e+00 2.164563722908496857e-02
1.183000000000000000e+03 7.120305895805358887e-01 2.901531219482421875e+01 3.398804925382137299e-03 6.262865543365478516e+00 1.879879236221313477e+00 6.950057297945022583e-02
1.184000000000000000e+03 7.252339720726013184e-01 3.043367958068847656e+01 -2.436004811897873878e-03 6.124882698059082031e+00 1.836734056472778320e+00 6.677667796611785889e-02
1.185000000000000000e+03 2.183708906173706055e+00 3.034299087524414062e+01 4.613052122294902802e-03 5.761606216430664062e+00 1.729865789413452148e+00 1.979587078094482422e-01
1.186000000000000000e+03 7.255433797836303711e-01 3.184716606140136719e+01 2.445383463054895401e-03 5.985961914062500000e+00 1.796522259712219238e+00 6.851496547460556030e-02
1.187000000000000000e+03 6.890003085136413574e-01 3.604544448852539062e+01 3.280424326658248901e-02 5.626810550689697266e+00 1.697884440422058105e+00 4.064098000526428223e-02
1.188000000000000000e+03 2.383306980133056641e+00 3.814529418945312500e+01 -2.820391207933425903e-02 5.283693313598632812e+00 1.576646804809570312e+00 1.418819129467010498e-01
1.189000000000000000e+03 8.885418772697448730e-01 3.874478912353515625e+01 2.722200937569141388e-02 5.410513877868652344e+00 1.631320714950561523e+00 5.395992100238800049e-02
1.190000000000000000e+03 1.270696401596069336e+00 4.008912277221679688e+01 -3.043294697999954224e-02 5.316652774810791016e+00 1.585865974426269531e+00 7.307659089565277100e-02
1.191000000000000000e+03 9.721694946289062500e+00 1.845202445983886719e+00 -1.286719322204589844e+00 1.716751861572265625e+01 4.764240264892578125e+00 -7.850074291229248047e+00
1.192000000000000000e+03 9.139506340026855469e+00 1.709312081336975098e+00 1.063120141625404358e-01 1.111781501770019531e+01 3.367238044738769531e+00 -7.119106769561767578e+00
1.193000000000000000e+03 8.082065582275390625e+00 1.616569161415100098e+00 -2.096687853336334229e-01 3.795044183731079102e+00 1.075612664222717285e+00 -3.086752653121948242e+00
1.194000000000000000e+03 2.907162666320800781e+00 1.650073051452636719e+00 -9.850902557373046875e-01 -3.500399589538574219e-01 -4.005390405654907227e-01 1.797380685806274414e+00
1.195000000000000000e+03 2.153915643692016602e+00 1.917022109031677246e+00 -5.211160182952880859e-01 -5.468389391899108887e-01 -3.203864991664886475e-01 1.582948327064514160e+00
1.196000000000000000e+03 1.776962041854858398e+00 1.833612322807312012e+00 -4.578973352909088135e-01 -6.217460632324218750e-01 -3.238930106163024902e-01 1.379786610603332520e+00
1.197000000000000000e+03 1.513139843940734863e+00 1.638017654418945312e+00 -4.132920205593109131e-01 -6.343399882316589355e-01 -3.142895996570587158e-01 1.139866590499877930e+00
1.198000000000000000e+03 1.321382999420166016e+00 1.958472609519958496e+00 -2.305934280157089233e-01 -8.989425301551818848e-01 -3.388607800006866455e-01 1.158589839935302734e+00
1.199000000000000000e+03 9.077814221382141113e-01 1.606570005416870117e+00 -1.369332373142242432e-01 -7.876880764961242676e-01 -2.773863971233367920e-01 7.571120858192443848e-01
1.200000000000000000e+03 5.495752692222595215e-01 1.634883642196655273e+00 -8.339545130729675293e-02 -7.309612035751342773e-01 -2.443069964647293091e-01 4.710068702697753906e-01
1.201000000000000000e+03 1.132908248901367188e+01 -1.190536260604858398e+00 5.067603111267089844e+00 1.799226379394531250e+01 6.917960166931152344e+00 -4.024363040924072266e+00
1.202000000000000000e+03 1.121447277069091797e+01 -1.685713529586791992e+00 2.218788623809814453e+00 1.786136245727539062e+01 6.024045467376708984e+00 -2.679809808731079102e+00
1.203000000000000000e+03 1.164842796325683594e+01 -7.745043635368347168e-01 7.814520835876464844e+00 1.572596931457519531e+01 7.062146663665771484e+00 -3.859116077423095703e+00
1.204000000000000000e+03 1.161158370971679688e+01 5.863705873489379883e-01 8.390858650207519531e+00 1.589739227294921875e+01 7.286475181579589844e+00 7.855823636054992676e-01
1.205000000000000000e+03 1.170085811614990234e+01 3.858782947063446045e-01 9.872846603393554688e+00 1.490660762786865234e+01 7.433836460113525391e+00 -1.342611461877822876e-01
1.206000000000000000e+03 1.143618106842041016e+01 1.003333806991577148e+00 5.685812950134277344e+00 1.733431053161621094e+01 6.906037330627441406e+00 4.080892205238342285e-01
1.207000000000000000e+03 1.073276329040527344e+01 1.597024083137512207e+00 -2.212484031915664673e-01 2.095138740539550781e+01 6.219041824340820312e+00 -4.224291801452636719e+00
1.208000000000000000e+03 1.050156402587890625e+01 1.666298866271972656e+00 -6.855583786964416504e-01 2.186229705810546875e+01 6.353022098541259766e+00 -5.850389480590820312e+00
1.209000000000000000e+03 6.949615478515625000e+01 7.978428840637207031e+00 -1.495151400566101074e+00 7.279769420623779297e+00 1.735385298728942871e+00 -4.438314735889434814e-01
1.210000000000000000e+03 7.001827239990234375e+01 -6.328507900238037109e+00 1.673197448253631592e-01 2.318030357360839844e+00 7.456050515174865723e-01 -1.036426782608032227e+00
1.211000000000000000e+03 7.175211334228515625e+01 -8.352696418762207031e+00 1.187784194946289062e+00 8.721212387084960938e+00 2.972698926925659180e+00 -2.168292284011840820e+00
1.212000000000000000e+03 6.517099761962890625e+01 -1.211639690399169922e+01 -3.426527678966522217e-01 1.993275523185729980e+00 4.951868355274200439e-01 -5.079013109207153320e-01
1.213000000000000000e+03 6.348379898071289062e+01 -8.342148780822753906e+00 5.199415087699890137e-01 1.072922801971435547e+01 3.374750852584838867e+00 -1.176317214965820312e+00
1.214000000000000000e+03 6.297186660766601562e+01 -5.788176059722900391e+00 7.660750150680541992e-01 1.455381965637207031e+01 4.595968723297119141e+00 7.156187891960144043e-01
1.215000000000000000e+03 3.363356399536132812e+01 5.843390941619873047e+00 1.969937384128570557e-01 3.044023036956787109e+00 9.723049998283386230e-01 9.409345984458923340e-01
1.216000000000000000e+03 2.985161209106445312e+01 4.267967700958251953e+00 -3.792813539505004883e+00 -6.390132904052734375e-01 -1.329548120498657227e+00 -1.830756187438964844e+00
1.217000000000000000e+03 2.757041358947753906e+01 2.836952209472656250e+00 -8.181501388549804688e+00 -1.591128826141357422e+00 -2.931788921356201172e+00 -4.251775741577148438e+00
1.218000000000000000e+03 2.578512191772460938e+01 1.892001748085021973e+00 -6.504899501800537109e+00 -1.866927623748779297e+00 -2.511548042297363281e+00 -3.008434057235717773e+00
1.219000000000000000e+03 2.241762924194335938e+01 7.245116710662841797e+00 5.969671607017517090e-01 8.198739051818847656e+00 2.638711690902709961e+00 1.619477152824401855e+00
1.220000000000000000e+03 2.394803619384765625e+01 9.142343521118164062e+00 -1.143151164054870605e+00 8.613249778747558594e+00 2.241029739379882812e+00 2.639764308929443359e+00
1.221000000000000000e+03 2.567437362670898438e+01 8.363155364990234375e+00 1.882744394242763519e-02 4.356991291046142578e+00 1.312745690345764160e+00 2.473674774169921875e+00
1.222000000000000000e+03 2.772993659973144531e+01 1.032814407348632812e+01 -2.059674024581909180e+00 -2.405355572700500488e-01 -6.900628805160522461e-01 -1.353393316268920898e+00
1.223000000000000000e+03 2.985972785949707031e+01 1.220930480957031250e+01 -2.045378684997558594e+00 -1.663037061691284180e+00 -1.112524747848510742e+00 -1.791565895080566406e+00
1.224000000000000000e+03 5.002179718017578125e+01 9.307601928710937500e+00 1.455308556556701660e+00 1.214136886596679688e+01 4.079002857208251953e+00 3.194019556045532227e+00
1.225000000000000000e+03 4.837311172485351562e+01 7.283373355865478516e+00 6.376258730888366699e-01 3.013133049011230469e+00 1.095227718353271484e+00 9.405709505081176758e-01
1.226000000000000000e+03 5.179243850708007812e+01 6.423527240753173828e+00 -1.231364458799362183e-01 1.144374942779541016e+01 3.396183967590332031e+00 -1.649719715118408203e+00
1.227000000000000000e+03 4.490596771240234375e+01 3.297015905380249023e+00 -1.435582935810089111e-01 7.631561160087585449e-01 1.858793497085571289e-01 2.144307196140289307e-01
1.228000000000000000e+03 4.306266021728515625e+01 1.266534566879272461e+00 -4.234596252441406250e+00 -1.437203437089920044e-01 -1.313494920730590820e+00 -1.395664572715759277e+00
1.229000000000000000e+03 4.165275573730468750e+01 9.561469078063964844e+00 -7.645239233970642090e-01 -5.442546606063842773e-01 -3.926335573196411133e-01 -8.168793916702270508e-01
1.230000000000000000e+03 4.339470672607421875e+01 1.161392879486083984e+01 -4.423318505287170410e-01 -8.215782642364501953e-01 -3.791730403900146484e-01 -5.017490983009338379e-01
1.231000000000000000e+03 4.881293869018554688e+01 -2.533436775207519531e+00 -5.221916198730468750e+00 -6.803111433982849121e-01 -1.770668268203735352e+00 2.474706411361694336e+00
1.232000000000000000e+03 5.408173370361328125e+01 -9.137986183166503906e+00 9.127397537231445312e-01 4.868465423583984375e+00 1.734361648559570312e+00 -1.869542837142944336e+00
1.233000000000000000e+03 5.528558349609375000e+01 -1.174049854278564453e+01 1.071793913841247559e+00 9.655233383178710938e+00 3.218108177185058594e+00 -2.217610359191894531e+00
1.234000000000000000e+03 5.616695022583007812e+01 -1.584747123718261719e+01 1.652107806876301765e-03 1.444171428680419922e+01 4.333009719848632812e+00 -5.605365037918090820e-01
1.235000000000000000e+03 4.821822738647460938e+01 -1.337780952453613281e+01 -1.341173350811004639e-01 3.048269748687744141e-01 5.121288821101188660e-02 4.016470909118652344e-02
1.236000000000000000e+03 4.650783538818359375e+01 -1.110571479797363281e+01 2.672497034072875977e-01 2.837126255035400391e+00 9.313127994537353516e-01 -8.382040858268737793e-01
1.237000000000000000e+03 4.401435470581054688e+01 -6.678506374359130859e+00 1.170081615447998047e+00 1.256210517883300781e+01 4.119656085968017578e+00 2.778133153915405273e-01
1.238000000000000000e+03 3.750718688964843750e+01 -8.867143392562866211e-01 -4.140441417694091797e+00 1.211880302429199219e+01 2.393508434295654297e+00 -1.893321394920349121e+00
1.239000000000000000e+03 3.741941833496093750e+01 -3.494114160537719727e+00 -3.072807312011718750e+00 4.712841033935546875e+00 4.920101761817932129e-01 -1.432778596878051758e+00
1.240000000000000000e+03 3.699582290649414062e+01 -5.199059963226318359e+00 -3.536363542079925537e-01 2.083048820495605469e+00 5.188237428665161133e-01 -1.088530421257019043e+00
1.241000000000000000e+03 3.918620681762695312e+01 -8.653771400451660156e+00 8.953020572662353516e-01 4.580557823181152344e+00 1.642757892608642578e+00 -1.600791215896606445e+00
1.242000000000000000e+03 4.198646545410156250e+01 -1.421392154693603516e+01 1.781162738800048828e+00 1.150417804718017578e+01 3.985602140426635742e+00 2.440824806690216064e-01
1.243000000000000000e+03 3.513869094848632812e+01 -1.258429145812988281e+01 -1.731812059879302979e-01 2.216402590274810791e-01 1.453771721571683884e-02 2.067748457193374634e-02
1.244000000000000000e+03 3.318680953979492188e+01 -1.063151645660400391e+01 2.563979327678680420e-01 1.101787805557250977e+00 4.074557125568389893e-01 -6.390089988708496094e-01
1.245000000000000000e+03 3.120097351074218750e+01 -6.799977302551269531e+00 3.519003987312316895e-01 2.471383333206176758e+00 8.469851613044738770e-01 -5.471588969230651855e-01
1.246000000000000000e+03 3.066737365722656250e+01 -5.561539173126220703e+00 1.329554766416549683e-01 4.173744678497314453e+00 1.292010068893432617e+00 -7.146580815315246582e-01
1.247000000000000000e+03 2.935466766357421875e+01 -3.519478797912597656e+00 1.572694778442382812e+00 9.759803771972656250e+00 3.399749517440795898e+00 1.430881261825561523e+00
1.248000000000000000e+03 2.027297401428222656e+01 9.632075309753417969e+00 -1.405504941940307617e-01 9.557551145553588867e-01 2.445613890886306763e-01 6.503455638885498047e-01
1.249000000000000000e+03 1.811998939514160156e+01 7.991416931152343750e+00 -2.003858834505081177e-01 -4.754208028316497803e-01 -2.027420103549957275e-01 -2.857213616371154785e-01
1.250000000000000000e+03 1.701443862915039062e+01 7.120453357696533203e+00 -1.467022895812988281e+00 -1.725924462080001831e-01 -4.918846189975738525e-01 -7.774598896503448486e-03
1.251000000000000000e+03 1.584043884277343750e+01 6.287989139556884766e+00 -3.160311937332153320e+00 3.320483565330505371e-01 -8.484790921211242676e-01 -1.031037449836730957e+00
1.252000000000000000e+03 1.151916503906250000e+01 8.913805961608886719e+00 2.330484390258789062e+00 8.209212303161621094e+00 3.161909103393554688e+00 3.376575708389282227e+00
1.253000000000000000e+03 1.441069507598876953e+01 1.189982795715332031e+01 -1.183546543121337891e+00 4.889805912971496582e-01 -2.083697766065597534e-01 -7.736174762248992920e-02
1.254000000000000000e+03 1.549755764007568359e+01 1.276225185394287109e+01 -2.224187850952148438e+00 -1.118427664041519165e-01 -7.008091807365417480e-01 -1.052114367485046387e+00
1.255000000000000000e+03 1.717277145385742188e+01 1.685551261901855469e+01 -3.086761713027954102e+00 6.728782057762145996e-01 -7.241650819778442383e-01 -2.035091370344161987e-01
1.256000000000000000e+03 1.781751632690429688e+01 1.422048091888427734e+01 -3.834223747253417969e+00 -7.685675024986267090e-01 -1.380837440490722656e+00 -1.818792104721069336e+00
1.257000000000000000e+03 2.251308441162109375e+01 1.687708663940429688e+01 -7.998430252075195312e+00 -1.265767216682434082e+00 -2.779259204864501953e+00 -1.842312932014465332e+00
1.258000000000000000e+03 6.279599380493164062e+01 5.466629505157470703e+00 3.265567123889923096e-01 1.805878758430480957e+00 6.397306323051452637e-01 1.129144787788391113e+00
1.259000000000000000e+03 5.463905334472656250e+01 6.147950649261474609e+00 1.129516601562500000e+00 1.228735733032226562e+01 4.025062084197998047e+00 2.360864639282226562e+00
1.260000000000000000e+03 5.534730148315429688e+01 7.333103656768798828e+00 2.735765278339385986e-01 6.065296649932861328e+00 1.901661992073059082e+00 1.904852628707885742e+00
1.261000000000000000e+03 5.608802032470703125e+01 8.452182769775390625e+00 -2.474854588508605957e-01 2.622723579406738281e+00 7.125714421272277832e-01 3.723009824752807617e-01
1.262000000000000000e+03 5.978294372558593750e+01 1.240367984771728516e+01 -1.856598377227783203e+00 -8.303432464599609375e-01 -8.060824871063232422e-01 -1.139457702636718750e+00
1.263000000000000000e+03 2.212043952941894531e+01 -1.057878136634826660e+00 -1.426054358482360840e+00 2.556099414825439453e+00 3.390135169029235840e-01 -6.700204610824584961e-01
1.264000000000000000e+03 2.460749816894531250e+01 -4.171641826629638672e+00 1.738873839378356934e+00 6.426128387451171875e+00 2.449500560760498047e+00 -1.935999751091003418e+00
1.265000000000000000e+03 2.289583015441894531e+01 -9.398794174194335938e+00 1.573048949241638184e+00 4.312175214290618896e-01 6.012799143791198730e-01 3.003405928611755371e-01
1.266000000000000000e+03 1.788578605651855469e+01 -4.888151168823242188e+00 2.070627927780151367e+00 2.933640241622924805e+00 1.501280546188354492e+00 -2.435165882110595703e+00
1.267000000000000000e+03 1.152287960052490234e+01 7.882204055786132812e-01 7.818417549133300781e+00 1.656497764587402344e+01 7.315018653869628906e+00 6.077697277069091797e-01
1.268000000000000000e+03 1.074893760681152344e+01 -1.537163853645324707e+00 1.741204500198364258e+00 1.999183654785156250e+01 6.519912242889404297e+00 -1.015959858894348145e+00
1.269000000000000000e+03 1.170466804504394531e+01 -5.456151962280273438e-01 8.684023857116699219e+00 1.533007526397705078e+01 7.204229831695556641e+00 -3.579652786254882812e+00
1.270000000000000000e+03 1.111238956451416016e+01 1.310607433319091797e+00 2.618783950805664062e+00 1.992170333862304688e+01 6.762145996093750000e+00 -1.221042394638061523e+00
1.271000000000000000e+03 1.461546230316162109e+01 1.245489716529846191e+00 2.158746004104614258e+00 6.809842586517333984e+00 2.690576553344726562e+00 2.717935085296630859e+00
1.272000000000000000e+03 1.176192378997802734e+01 -1.547024011611938477e+00 3.520516633987426758e+00 1.555811595916748047e+01 5.723589897155761719e+00 -3.833862543106079102e+00
1.273000000000000000e+03 1.172278499603271484e+01 -3.221351206302642822e-01 9.842351913452148438e+00 1.466953754425048828e+01 7.353567123413085938e+00 -2.544743299484252930e+00
1.274000000000000000e+03 1.179466247558593750e+01 1.669557243585586548e-01 9.781434059143066406e+00 1.406902122497558594e+01 7.155136585235595703e+00 -4.789831638336181641e-01
1.275000000000000000e+03 1.477711868286132812e+01 9.823523461818695068e-03 7.969467639923095703e-01 3.733908176422119141e+00 1.359256386756896973e+00 -1.288964748382568359e+00
1.276000000000000000e+03 1.195232009887695312e+01 7.909433841705322266e-01 7.968060493469238281e+00 1.377666187286376953e+01 6.523416519165039062e+00 3.964156806468963623e-01
1.277000000000000000e+03 1.035365867614746094e+01 -2.110747575759887695e+00 3.264894783496856689e-01 1.681234169006347656e+01 5.141649723052978516e+00 1.841993212699890137e+00
1.278000000000000000e+03 9.684195518493652344e+00 -1.673119187355041504e+00 2.005281448364257812e+00 1.444228649139404297e+01 4.934270381927490234e+00 5.850114345550537109e+00
1.279000000000000000e+03 1.053734302520751953e+01 2.172654151916503906e+00 -9.949131011962890625e-01 1.804566955566406250e+01 5.115227222442626953e+00 -6.867890834808349609e+00
1.280000000000000000e+03 1.010034275054931641e+01 -2.050664901733398438e+00 5.001795887947082520e-01 1.600581169128417969e+01 4.951797485351562500e+00 3.278980255126953125e+00
1.281000000000000000e+03 1.054878616333007812e+01 -1.620145797729492188e+00 1.081395626068115234e+00 1.969005393981933594e+01 6.231434822082519531e+00 5.132212638854980469e-01
1.282000000000000000e+03 1.185257720947265625e+01 1.621712923049926758e+00 4.307290554046630859e+00 1.384179210662841797e+01 5.444724559783935547e+00 -1.123428583145141602e+00
1.283000000000000000e+03 1.093738555908203125e+01 1.469480991363525391e+00 1.544428467750549316e+00 2.103931999206542969e+01 6.775124549865722656e+00 -2.530249595642089844e+00
1.284000000000000000e+03 1.153400230407714844e+01 1.539009809494018555e+00 2.896589517593383789e+00 1.653221130371093750e+01 5.828639984130859375e+00 -5.454966425895690918e-01
1.285000000000000000e+03 5.705943703651428223e-01 -2.176331281661987305e+00 1.200844626873731613e-02 -2.636971175670623779e-01 -7.550660520792007446e-02 -1.390614807605743408e-01
1.286000000000000000e+03 5.558437705039978027e-01 -1.743125319480895996e+00 -9.129992686212062836e-03 -2.152423411607742310e-01 -6.731169670820236206e-02 -1.338970959186553955e-01
1.287000000000000000e+03 4.311181306838989258e-01 -2.700955867767333984e+00 2.270705066621303558e-03 -4.337397217750549316e-01 -1.294407099485397339e-01 -8.017700910568237305e-02
1.288000000000000000e+03 4.825310707092285156e-01 -4.935192108154296875e+00 2.953584119677543640e-02 -5.483893752098083496e-01 -1.556560695171356201e-01 6.525342911481857300e-02
1.289000000000000000e+03 1.149789214134216309e+00 -1.614266037940979004e+00 -2.583661675453186035e-02 -1.284442842006683350e-01 -4.628427326679229736e-02 -2.204143106937408447e-01
1.290000000000000000e+03 1.515579462051391602e+00 -1.623631596565246582e+00 -3.475265577435493469e-02 -9.906447678804397583e-02 -4.014514014124870300e-02 -2.462710142135620117e-01
1.291000000000000000e+03 1.714730978012084961e+00 -1.622801423072814941e+00 -4.543471708893775940e-02 -8.571740984916687012e-02 -3.934563696384429932e-02 -2.697036862373352051e-01
1.292000000000000000e+03 2.221604585647583008e+00 -1.873630523681640625e+00 1.106450241059064865e-02 -2.212717570364475250e-02 -3.318801987916231155e-03 -2.699593305587768555e-01
1.293000000000000000e+03 1.824175477027893066e+00 -1.837972640991210938e+00 -1.926271803677082062e-02 -5.811614170670509338e-02 -2.321365848183631897e-02 -2.673352658748626709e-01
1.294000000000000000e+03 2.478895187377929688e+00 -1.896792888641357422e+00 2.697551250457763672e-02 1.015279442071914673e-02 1.113849226385354996e-02 -2.535439133644104004e-01
1.295000000000000000e+03 5.329317450523376465e-01 -6.326884269714355469e+00 1.739333756268024445e-02 -3.309169709682464600e-01 -9.405708312988281250e-02 1.215538457036018372e-01
1.296000000000000000e+03 2.898823976516723633e+00 -1.946817278861999512e+00 9.807581454515457153e-02 6.470669806003570557e-02 4.883475229144096375e-02 -2.130903601646423340e-01
1.297000000000000000e+03 3.060402631759643555e+00 -1.666768550872802734e+00 1.911810785531997681e-02 5.418472737073898315e-02 2.199085056781768799e-02 -2.197599560022354126e-01
1.298000000000000000e+03 2.007178783416748047e+00 -5.581905841827392578e+00 1.772183328866958618e-01 4.023424685001373291e-01 1.738682389259338379e-01 3.509317040443420410e-01
1.299000000000000000e+03 2.859985589981079102e+00 -1.671341300010681152e+00 4.520080983638763428e-03 4.493604227900505066e-02 1.483683660626411438e-02 -2.358301728963851929e-01
1.300000000000000000e+03 1.401084542274475098e+00 -9.125814437866210938e+00 7.243138272315263748e-03 1.010193467140197754e+00 3.052309751510620117e-01 4.601475894451141357e-01
1.301000000000000000e+03 3.260171413421630859e+00 -1.716772079467773438e+00 4.922549426555633545e-02 7.400687783956527710e-02 3.696971014142036438e-02 -2.013865560293197632e-01
1.302000000000000000e+03 3.479486227035522461e+00 -1.704626083374023438e+00 9.236821532249450684e-02 8.548077940940856934e-02 5.335469916462898254e-02 -1.754844635725021362e-01
1.303000000000000000e+03 3.687335968017578125e+00 -1.693442344665527344e+00 1.290571987628936768e-01 1.050586774945259094e-01 7.023476064205169678e-02 -1.478900611400604248e-01
1.304000000000000000e+03 3.559035301208496094e+00 -2.008652687072753906e+00 2.355606108903884888e-01 1.271716505289077759e-01 1.088196784257888794e-01 -1.121587455272674561e-01
1.305000000000000000e+03 4.095430850982666016e+00 -1.701277613639831543e+00 2.088938206434249878e-01 1.415161490440368652e-01 1.051229909062385559e-01 -7.427278161048889160e-02
1.306000000000000000e+03 4.742572784423828125e+00 -1.697471380233764648e+00 3.768002688884735107e-01 1.843150258064270020e-01 1.683345884084701538e-01 5.216683447360992432e-02
1.307000000000000000e+03 4.943192005157470703e+00 -1.666451454162597656e+00 4.537279903888702393e-01 2.022178471088409424e-01 1.967837512493133545e-01 1.047383621335029602e-01
1.308000000000000000e+03 5.142010688781738281e+00 -1.640299201011657715e+00 4.894997775554656982e-01 1.732605397701263428e-01 1.988281011581420898e-01 1.543386429548263550e-01
1.309000000000000000e+03 5.323489665985107422e+00 -1.606052279472351074e+00 5.021601319313049316e-01 2.278486043214797974e-01 2.190026193857192993e-01 1.803107559680938721e-01
1.310000000000000000e+03 5.687772750854492188e+00 -1.631218552589416504e+00 7.280053496360778809e-01 2.918571829795837402e-01 3.059587776660919189e-01 3.564582467079162598e-01
1.311000000000000000e+03 5.890134334564208984e+00 -1.641059279441833496e+00 8.603161573410034180e-01 3.364872038364410400e-01 3.590410053730010986e-01 4.547801017761230469e-01
1.312000000000000000e+03 5.869806766510009766e+00 -1.934175014495849609e+00 1.103006958961486816e+00 5.251336097717285156e-01 4.884421527385711670e-01 6.496404409408569336e-01
1.313000000000000000e+03 6.294540405273437500e+00 -1.631085038185119629e+00 1.135215759277343750e+00 4.749303162097930908e-01 4.830438196659088135e-01 6.854040026664733887e-01
1.314000000000000000e+03 6.689264297485351562e+00 -1.620543479919433594e+00 1.476011872291564941e+00 6.032214760780334473e-01 6.237699985504150391e-01 9.656493067741394043e-01
1.315000000000000000e+03 6.672358512878417969e+00 -1.855725049972534180e+00 1.740119934082031250e+00 8.546483516693115234e-01 7.784304618835449219e-01 1.204776644706726074e+00
1.316000000000000000e+03 7.493446350097656250e+00 -1.659532427787780762e+00 2.518229722976684570e+00 1.408276796340942383e+00 1.177951931953430176e+00 2.036289453506469727e+00
1.317000000000000000e+03 8.095713615417480469e+00 -1.635886311531066895e+00 3.377429246902465820e+00 2.634209632873535156e+00 1.803491592407226562e+00 3.229524612426757812e+00
1.318000000000000000e+03 8.690135955810546875e+00 -1.652340173721313477e+00 3.679257154464721680e+00 5.220086574554443359e+00 2.669803142547607422e+00 4.916176795959472656e+00
1.319000000000000000e+03 9.290392875671386719e+00 -1.636085033416748047e+00 3.205765008926391602e+00 1.041029071807861328e+01 4.084816455841064453e+00 6.237986087799072266e+00
1.320000000000000000e+03 9.643303871154785156e+00 -2.018487691879272461e+00 1.434375405311584473e+00 1.314108753204345703e+01 4.372639179229736328e+00 4.984766006469726562e+00
1.321000000000000000e+03 1.059048175811767578e+01 4.917007923126220703e+00 1.182901954650878906e+01 2.806170654296875000e+01 1.196721744537353516e+01 -1.212717723846435547e+01
1.322000000000000000e+03 9.489454269409179688e+00 1.852654695510864258e+00 -4.590195417404174805e-01 1.515693759918212891e+01 4.409375190734863281e+00 -8.277460098266601562e+00
1.323000000000000000e+03 9.622707366943359375e+00 2.484678745269775391e+00 -6.615095138549804688e-01 1.645832633972167969e+01 4.739045143127441406e+00 -6.493656158447265625e+00
1.324000000000000000e+03 8.274597167968750000e+00 1.627368807792663574e+00 -8.168333210051059723e-03 4.874679088592529297e+00 1.459953188896179199e+00 -3.873206377029418945e+00
1.325000000000000000e+03 8.481922149658203125e+00 2.103101253509521484e+00 7.201365828514099121e-01 7.792973995208740234e+00 2.553933143615722656e+00 -4.766295909881591797e+00
1.326000000000000000e+03 7.693599224090576172e+00 1.615490674972534180e+00 -4.854883551597595215e-01 2.651876211166381836e+00 6.499163508415222168e-01 -1.710517644882202148e+00
1.327000000000000000e+03 7.499845027923583984e+00 1.614713549613952637e+00 -8.367538452148437500e-01 2.489349365234375000e+00 4.957786798477172852e-01 -9.671025276184082031e-01
1.328000000000000000e+03 7.108736991882324219e+00 1.642973423004150391e+00 -1.092204570770263672e+00 1.772986292839050293e+00 2.042345404624938965e-01 -8.920137584209442139e-02
1.329000000000000000e+03 7.151441097259521484e+00 1.925775408744812012e+00 -2.143246494233608246e-02 2.277593612670898438e+00 6.768483519554138184e-01 -5.648806095123291016e-01
1.330000000000000000e+03 6.698878765106201172e+00 1.675542473793029785e+00 -1.366125702857971191e+00 1.302333116531372070e+00 -1.913777552545070648e-02 5.172169208526611328e-01
1.331000000000000000e+03 6.490595817565917969e+00 1.680091381072998047e+00 -1.395067214965820312e+00 8.745359182357788086e-01 -1.561593860387802124e-01 8.106353878974914551e-01
1.332000000000000000e+03 6.282680511474609375e+00 1.674739956855773926e+00 -1.476179599761962891e+00 9.045745134353637695e-01 -1.714815348386764526e-01 1.000036239624023438e+00
1.333000000000000000e+03 5.702431201934814453e+00 1.651164174079895020e+00 -1.623191118240356445e+00 3.312292098999023438e-01 -3.875885605812072754e-01 1.531968474388122559e+00
1.334000000000000000e+03 5.414468765258789062e+00 1.937149763107299805e+00 -8.651056885719299316e-01 4.353772103786468506e-01 -1.289185434579849243e-01 1.677699804306030273e+00
1.335000000000000000e+03 4.898404598236083984e+00 1.682071328163146973e+00 -1.517382502555847168e+00 1.598668313818052411e-04 -4.551667869091033936e-01 1.835711359977722168e+00
1.336000000000000000e+03 1.468218803405761719e+00 7.697457790374755859e+00 4.330491125583648682e-01 -1.482582211494445801e+00 -3.148599267005920410e-01 -9.927730560302734375e-01
1.337000000000000000e+03 4.281357288360595703e+00 1.641187429428100586e+00 -1.523717999458312988e+00 -2.135196141898632050e-02 -4.635209739208221436e-01 1.844863533973693848e+00
1.338000000000000000e+03 4.085129737854003906e+00 1.630985975265502930e+00 -1.466489791870117188e+00 -1.442669183015823364e-01 -4.832270145416259766e-01 1.920431613922119141e+00
1.339000000000000000e+03 3.102596282958984375e+00 1.644976973533630371e+00 -1.081896901130676270e+00 -2.417395114898681641e-01 -3.970909118652343750e-01 1.756351232528686523e+00
1.340000000000000000e+03 2.706791639328002930e+00 1.659655928611755371e+00 -9.030643701553344727e-01 -3.331192433834075928e-01 -3.708550930023193359e-01 1.673220872879028320e+00
1.341000000000000000e+03 2.740923881530761719e+00 1.957329750061035156e+00 -6.293674707412719727e-01 -4.915104210376739502e-01 -3.362633585929870605e-01 1.789888620376586914e+00
1.342000000000000000e+03 2.493221998214721680e+00 1.685416340827941895e+00 -7.933016419410705566e-01 -4.464405477046966553e-01 -3.719226419925689697e-01 1.662241935729980469e+00
1.343000000000000000e+03 2.084254503250122070e+00 1.652524709701538086e+00 -6.314408779144287109e-01 -5.379329323768615723e-01 -3.508121371269226074e-01 1.464762330055236816e+00
1.344000000000000000e+03 1.705425858497619629e+00 1.617586374282836914e+00 -4.835051000118255615e-01 -6.185716986656188965e-01 -3.306230306625366211e-01 1.255082488059997559e+00
1.345000000000000000e+03 7.799363732337951660e-01 1.980638146400451660e+00 -5.495916306972503662e-02 -9.931158423423767090e-01 -3.144224882125854492e-01 6.749652028083801270e-01
1.346000000000000000e+03 8.655576109886169434e-01 1.794838309288024902e+00 -1.143469437956809998e-01 -9.277842044830322266e-01 -3.126393556594848633e-01 6.921279430389404297e-01
1.347000000000000000e+03 1.010794830322265625e+01 -1.687120676040649414e+00 1.010108709335327148e+00 1.791585350036621094e+01 5.677788257598876953e+00 3.597725391387939453e+00
1.348000000000000000e+03 3.069685363769531250e+01 -8.664075851440429688e+00 7.092236876487731934e-01 3.334995746612548828e+00 1.213265776634216309e+00 -8.783584237098693848e-01
1.349000000000000000e+03 2.585026550292968750e+01 -8.929119110107421875e+00 3.100742816925048828e+00 1.260149002075195312e+01 4.710669994354248047e+00 1.587975382804870605e+00
1.350000000000000000e+03 4.028970718383789062e+01 -1.707463455200195312e+01 5.124066472053527832e-01 7.948463439941406250e+00 2.538260936737060547e+00 3.328732013702392578e+00
1.351000000000000000e+03 2.585456848144531250e+01 1.600784111022949219e+01 1.329407215118408203e+00 1.381056404113769531e+01 4.541991233825683594e+00 3.309294223785400391e+00
1.352000000000000000e+03 2.415092086791992188e+01 1.899135398864746094e+01 -2.733433008193969727e+00 3.492872953414916992e+00 2.278320193290710449e-01 -2.909334421157836914e+00
1.353000000000000000e+03 6.550787353515625000e+01 1.291685199737548828e+01 3.097206592559814453e+00 1.466100978851318359e+01 5.327464580535888672e+00 -4.206849575042724609e+00
1.354000000000000000e+03 7.103813171386718750e+01 -1.794488716125488281e+01 -7.313629984855651855e-01 5.870949268341064453e+00 1.541875839233398438e+00 3.047309875488281250e+00
1.355000000000000000e+03 6.898217773437500000e+01 -1.591958904266357422e+01 -3.181206703186035156e+00 -1.144476175308227539e+00 -1.297704815864562988e+00 1.450914621353149414e+00
1.356000000000000000e+03 9.742803573608398438e+00 5.801859378814697266e+00 1.096189022064208984e+01 3.031810951232910156e+01 1.238399982452392578e+01 -6.571164608001708984e+00
1.357000000000000000e+03 1.627404212951660156e+01 4.060723781585693359e+00 1.077187824249267578e+01 5.579514980316162109e+00 4.905417919158935547e+00 5.947781085968017578e+00
1.358000000000000000e+03 1.230457973480224609e+01 4.404393196105957031e+00 -1.101228117942810059e+00 -1.137294292449951172e+00 -6.715567111968994141e-01 -4.579534053802490234e+00
1.359000000000000000e+03 5.773972320556640625e+01 9.957835078239440918e-01 -8.061322212219238281e+00 -1.630478024482727051e+00 -2.907540321350097656e+00 -3.258996009826660156e+00
1.360000000000000000e+03 4.905395889282226562e+01 1.710642623901367188e+01 -3.486043810844421387e-01 5.593484878540039062e+00 1.573464155197143555e+00 -2.882375717163085938e+00
1.361000000000000000e+03 3.870427322387695312e+01 -1.549710482358932495e-01 -5.902726650238037109e-01 7.486752986907958984e+00 2.068943977355957031e+00 -5.836499691009521484e+00
1.362000000000000000e+03 3.791532516479492188e+01 7.209302783012390137e-01 5.642615795135498047e+00 1.987299537658691406e+01 7.654683113098144531e+00 -5.049824237823486328e+00
1.363000000000000000e+03 5.187322998046875000e+01 1.435083961486816406e+01 2.225056409835815430e+00 1.164340496063232422e+01 4.160538196563720703e+00 1.018582463264465332e+00
1.364000000000000000e+03 6.957436370849609375e+01 6.739949226379394531e+00 -2.915270626544952393e-01 9.376415252685546875e+00 2.725466251373291016e+00 4.767196476459503174e-01
1.365000000000000000e+03 6.708507537841796875e+01 -3.458541154861450195e+00 -4.675722599029541016e+00 -1.275865554809570312e+00 -1.785476565361022949e+00 2.629604101181030273e+00
1.366000000000000000e+03 4.071841049194335938e+01 -2.658765614032745361e-01 -7.297049045562744141e+00 -1.635519742965698242e+00 -2.679770708084106445e+00 -4.367042541503906250e+00
1.367000000000000000e+03 3.946708297729492188e+01 -1.054399132728576660e+00 -3.915750503540039062e+00 2.348638057708740234e+00 -4.701337516307830811e-01 -5.290217876434326172e+00
1.368000000000000000e+03 3.323166275024414062e+01 4.220779418945312500e+00 9.147101640701293945e-01 2.699639081954956055e+00 1.084304809570312500e+00 1.766361713409423828e+00
1.369000000000000000e+03 2.870312500000000000e+01 3.469486951828002930e+00 -6.909403800964355469e+00 -1.463241457939147949e+00 -2.511793613433837891e+00 -2.835110664367675781e+00
1.370000000000000000e+03 6.805003356933593750e+01 -4.426249504089355469e+00 -2.203665494918823242e+00 -1.178542524576187134e-01 -6.964559555053710938e-01 9.846436381340026855e-01
1.371000000000000000e+03 2.813655281066894531e+01 2.019350767135620117e+00 -3.251064538955688477e+00 1.068770289421081543e+00 -6.546882390975952148e-01 -1.328280806541442871e+00
1.372000000000000000e+03 2.702478790283203125e+01 -5.134359836578369141e+00 3.731595873832702637e-01 9.283554077148437500e+00 2.897014141082763672e+00 1.585000395774841309e+00
1.373000000000000000e+03 7.656327056884765625e+01 7.027411937713623047e+00 3.118835210800170898e+00 1.635340690612792969e+01 5.841672897338867188e+00 -2.330868721008300781e+00
1.374000000000000000e+03 7.946792602539062500e+01 9.743517875671386719e+00 1.624162681400775909e-02 7.351212501525878906e+00 2.210236310958862305e+00 2.431009858846664429e-01
1.375000000000000000e+03 5.296787643432617188e+01 9.405070304870605469e+00 -3.658069968223571777e-01 1.164946460723876953e+01 3.385097265243530273e+00 -5.597925782203674316e-01
1.376000000000000000e+03 5.604164505004882812e+01 1.220002651214599609e+01 3.869736194610595703e-01 4.209938526153564453e+00 1.379073619842529297e+00 1.201887130737304688e+00
1.377000000000000000e+03 6.193170928955078125e+01 1.389597702026367188e+01 -2.667289733886718750e+00 -6.525706648826599121e-01 -9.959581494331359863e-01 -1.008289337158203125e+00
1.378000000000000000e+03 6.133547592163085938e+01 1.524191188812255859e+01 5.457635521888732910e-01 2.597269713878631592e-01 2.416471540927886963e-01 -4.680743515491485596e-01
1.379000000000000000e+03 6.391683578491210938e+01 1.782619094848632812e+01 4.715061485767364502e-01 4.366121292114257812e+00 1.451288223266601562e+00 -1.413375616073608398e+00
1.380000000000000000e+03 7.333405303955078125e+01 9.575375556945800781e+00 -2.042379140853881836e+00 1.105049133300781250e+00 -2.811989784240722656e-01 -2.092715024948120117e+00
1.381000000000000000e+03 6.421267700195312500e+01 4.588156223297119141e+00 -2.512169182300567627e-01 4.948060989379882812e+00 1.409053325653076172e+00 1.424583077430725098e+00
1.382000000000000000e+03 6.902111816406250000e+01 1.442641615867614746e+00 -1.438275218009948730e+00 9.265914916992187500e+00 2.348291873931884766e+00 -2.138112783432006836e-01
1.383000000000000000e+03 3.261673736572265625e+01 5.100675106048583984e+00 -2.334690093994140625e-01 1.284007072448730469e+00 3.151614069938659668e-01 8.133282065391540527e-01
1.384000000000000000e+03 7.488613128662109375e+01 1.006287813186645508e+00 -3.963184118270874023e+00 2.814819574356079102e+00 -3.445093333721160889e-01 -3.191651701927185059e-01
1.385000000000000000e+03 4.743505096435546875e+01 4.389260768890380859e+00 8.477450609207153320e-01 1.750597715377807617e+00 7.795028686523437500e-01 1.292562484741210938e+00
1.386000000000000000e+03 7.068377685546875000e+01 8.414923667907714844e+00 -1.766338229179382324e+00 2.460065841674804688e+00 2.081182897090911865e-01 -5.706231594085693359e-01
1.387000000000000000e+03 4.921900939941406250e+01 8.291219711303710938e+00 6.959727406501770020e-01 5.544785499572753906e+00 1.872227430343627930e+00 2.277228116989135742e+00
1.388000000000000000e+03 5.526160430908203125e+01 -6.468979835510253906e+00 -7.600349187850952148e-01 5.179079055786132812e+00 1.325713276863098145e+00 -1.180161476135253906e+00
1.389000000000000000e+03 5.867865371704101562e+01 2.823797240853309631e-02 -2.923832893371582031e+00 7.125136852264404297e-01 -6.633957624435424805e-01 -1.171663880348205566e+00
1.390000000000000000e+03 7.685301971435546875e+01 9.470948219299316406e+00 -2.453009188175201416e-01 9.965689659118652344e+00 2.916116714477539062e+00 -6.189809441566467285e-01
1.391000000000000000e+03 7.932139587402343750e+01 1.251805973052978516e+01 5.787635687738656998e-03 7.756068229675292969e+00 2.328556776046752930e+00 -4.489014297723770142e-02
1.392000000000000000e+03 5.179608154296875000e+01 8.886083602905273438e+00 -8.412239551544189453e-01 1.211548614501953125e+01 3.382278680801391602e+00 -9.913117289543151855e-01
1.393000000000000000e+03 4.402427291870117188e+01 3.398126959800720215e-01 -3.782043457031250000e+00 2.831430912017822266e+00 -2.851837575435638428e-01 1.017676472663879395e+00
1.394000000000000000e+03 7.607386779785156250e+01 -3.071954250335693359e-01 -2.122283220291137695e+00 7.261678695678710938e+00 1.541818737983703613e+00 8.559400439262390137e-01
1.395000000000000000e+03 4.750780105590820312e+01 6.282863616943359375e+00 3.660883009433746338e-01 1.101897716522216797e+00 4.403958320617675781e-01 7.691739201545715332e-01
1.396000000000000000e+03 4.661597824096679688e+01 5.305676937103271484e+00 6.004024147987365723e-01 7.987945675849914551e-01 4.197590947151184082e-01 3.740351498126983643e-01
1.397000000000000000e+03 5.873387527465820312e+01 1.327879428863525391e+01 -7.109078168869018555e-01 6.702736020088195801e-01 -1.219026185572147369e-02 2.649587094783782959e-01
1.398000000000000000e+03 5.690449523925781250e+01 9.519798278808593750e+00 -7.200867533683776855e-01 4.263148307800292969e-01 -8.813157677650451660e-02 -3.536762893199920654e-01
1.399000000000000000e+03 4.430837631225585938e+01 1.257743453979492188e+01 -2.743132412433624268e-01 -4.982473552227020264e-01 -2.317681759595870972e-01 -4.131195545196533203e-01
1.400000000000000000e+03 6.195845031738281250e+01 2.502431631088256836e+00 -3.176158905029296875e+00 2.982207536697387695e+00 -5.818542465567588806e-02 8.989586234092712402e-01
1.401000000000000000e+03 6.303153228759765625e+01 3.613964319229125977e+00 -1.130015373229980469e+00 3.187325239181518555e+00 6.171929836273193359e-01 1.288358688354492188e+00
1.402000000000000000e+03 6.581377410888671875e+01 2.781879901885986328e+00 2.314776629209518433e-01 5.615860462188720703e+00 1.754201531410217285e+00 1.857847571372985840e+00
1.403000000000000000e+03 3.654410171508789062e+01 8.818116188049316406e+00 1.238086462020874023e+00 1.294729614257812500e+01 4.255614757537841797e+00 3.553792238235473633e+00
1.404000000000000000e+03 6.727610015869140625e+01 1.094234466552734375e+01 3.158259391784667969e+00 1.209112071990966797e+01 4.574813842773437500e+00 -2.357173413038253784e-01
1.405000000000000000e+03 4.574198150634765625e+01 4.319939136505126953e+00 1.904937922954559326e-01 4.000622332096099854e-01 1.771668046712875366e-01 6.543404459953308105e-01
1.406000000000000000e+03 5.188266754150390625e+01 1.294245243072509766e+01 3.232658863067626953e+00 1.397456550598144531e+01 5.162167072296142578e+00 3.632175177335739136e-02
1.407000000000000000e+03 4.583111953735351562e+01 2.384757757186889648e+00 -6.181816458702087402e-01 1.476992130279541016e+00 2.576431334018707275e-01 1.264159083366394043e+00
1.408000000000000000e+03 3.604144287109375000e+01 5.886210918426513672e+00 -6.331728696823120117e-01 9.414115905761718750e+00 2.634283065795898438e+00 1.088288784027099609e+00
1.409000000000000000e+03 5.379298019409179688e+01 6.854147911071777344e+00 -8.006448149681091309e-01 1.201780700683593750e+01 3.365148544311523438e+00 5.743906646966934204e-02
1.410000000000000000e+03 3.885843276977539062e+01 9.552052497863769531e+00 1.215067863464355469e+00 8.867540359497070312e+00 3.024782657623291016e+00 1.463709324598312378e-01
1.411000000000000000e+03 4.224676132202148438e+01 1.231393051147460938e+01 1.160719156265258789e+00 1.034463405609130859e+00 6.585547327995300293e-01 9.369938373565673828e-01
1.412000000000000000e+03 5.516913986206054688e+01 9.023514747619628906e+00 -6.842432022094726562e-01 6.125796318054199219e+00 1.632465839385986328e+00 5.574375987052917480e-01
1.413000000000000000e+03 4.234882354736328125e+01 -7.722616791725158691e-01 -4.114347457885742188e+00 2.346152067184448242e+00 -5.304585695266723633e-01 -5.093930959701538086e-01
1.414000000000000000e+03 4.351756668090820312e+01 -1.964309692382812500e+00 -1.400713801383972168e+00 6.632942199707031250e+00 1.569668531417846680e+00 6.080064177513122559e-01
1.415000000000000000e+03 4.142789459228515625e+01 1.123027610778808594e+01 9.827968478202819824e-01 1.571145534515380859e+00 7.661827206611633301e-01 9.666216373443603516e-01
1.416000000000000000e+03 5.089257049560546875e+01 8.177828788757324219e+00 -1.307358860969543457e+00 1.184532451629638672e+01 3.161389589309692383e+00 -5.664506554603576660e-01
1.417000000000000000e+03 3.810071945190429688e+01 7.742814064025878906e+00 -1.326786994934082031e+00 1.152098941802978516e+01 3.058260679244995117e+00 7.591516375541687012e-01
1.418000000000000000e+03 3.573233795166015625e+01 7.049402236938476562e+00 -1.697554230690002441e+00 1.002044200897216797e+01 2.496866226196289062e+00 1.684580922126770020e+00
1.419000000000000000e+03 4.382846832275390625e+01 1.437967109680175781e+01 3.458002805709838867e-01 1.119583606719970703e+00 4.396151602268218994e-01 1.005016207695007324e+00
1.420000000000000000e+03 4.828067779541015625e+01 5.349079608917236328e+00 1.062429904937744141e+00 3.153967380523681641e+00 1.264919161796569824e+00 1.000706195831298828e+00
1.421000000000000000e+03 4.915725326538085938e+01 6.281123638153076172e+00 4.408417046070098877e-01 5.204740524291992188e+00 1.693674683570861816e+00 1.148795843124389648e+00
1.422000000000000000e+03 5.948337936401367188e+01 1.432341957092285156e+01 -4.102649390697479248e-01 7.567470073699951172e-01 1.039446294307708740e-01 5.939915776252746582e-01
1.423000000000000000e+03 4.447105789184570312e+01 1.538539409637451172e+01 1.947878152132034302e-01 1.521604180335998535e+00 5.149176120758056641e-01 1.326569199562072754e+00
1.424000000000000000e+03 3.530897140502929688e+01 8.431767463684082031e+00 1.957725882530212402e+00 7.945123195648193359e+00 2.970854759216308594e+00 3.840845584869384766e+00
1.425000000000000000e+03 3.791358184814453125e+01 9.982254028320312500e+00 1.494471192359924316e+00 1.419515323638916016e+01 4.706887245178222656e+00 3.691983595490455627e-02
1.426000000000000000e+03 5.966534042358398438e+01 7.937526702880859375e-01 -5.095866680145263672e+00 1.697158455848693848e+00 -1.019612431526184082e+00 -3.022345006465911865e-01
1.427000000000000000e+03 6.082552719116210938e+01 1.566186308860778809e+00 -4.438264846801757812e+00 2.514933586120605469e+00 -5.769994854927062988e-01 2.237903326749801636e-01
1.428000000000000000e+03 6.423354339599609375e+01 7.376848220825195312e+00 1.096057057380676270e+00 4.690659523010253906e+00 1.736014962196350098e+00 2.329005956649780273e+00
1.429000000000000000e+03 6.341587448120117188e+01 6.461417198181152344e+00 1.044726967811584473e+00 3.036796569824218750e+00 1.224457025527954102e+00 1.479051947593688965e+00
1.430000000000000000e+03 5.466603469848632812e+01 1.067225456237792969e+01 1.034637540578842163e-01 7.136154174804687500e+00 2.171885251998901367e+00 4.352053701877593994e-01
1.431000000000000000e+03 6.575605010986328125e+01 7.109726428985595703e+00 -8.621992468833923340e-01 1.058953857421875000e+01 2.918201684951782227e+00 -3.962264060974121094e-01
1.432000000000000000e+03 5.660946655273437500e+01 -2.060159492492675781e+01 -1.333713531494140625e+00 8.320247650146484375e+00 2.095960378646850586e+00 9.026574492454528809e-01
1.433000000000000000e+03 5.684325027465820312e+01 -1.836620140075683594e+01 2.593425750732421875e+00 1.168535232543945312e+01 4.283633232116699219e+00 8.731120228767395020e-01
1.434000000000000000e+03 6.984934997558593750e+01 2.415103912353515625e+00 3.695130109786987305e+00 1.230496406555175781e+01 4.800028324127197266e+00 -4.789320945739746094e+00
1.435000000000000000e+03 6.792488861083984375e+01 -2.752592325210571289e+00 -5.153532505035400391e+00 2.101315021514892578e+00 -9.156652092933654785e-01 4.098851978778839111e-01
1.436000000000000000e+03 7.314724731445312500e+01 1.075566673278808594e+01 1.485931515693664551e+00 2.611039638519287109e+00 1.229091405868530273e+00 -2.739762067794799805e+00
1.437000000000000000e+03 7.828177642822265625e+01 -9.737904369831085205e-02 -7.890570759773254395e-01 1.228807067871093750e+01 3.449704170227050781e+00 -2.784800343215465546e-02
1.438000000000000000e+03 1.119056701660156250e+01 4.048495769500732422e+00 3.030734777450561523e+00 1.202662658691406250e+01 4.517208576202392578e+00 -1.047457599639892578e+01
1.439000000000000000e+03 1.020330524444580078e+01 6.642353534698486328e+00 3.552101612091064453e+00 3.213223266601562500e+01 1.070530033111572266e+01 1.296461582183837891e+00
1.440000000000000000e+03 6.808394622802734375e+01 1.946924567222595215e+00 4.944637417793273926e-01 7.902002334594726562e+00 2.518939733505249023e+00 6.589943170547485352e-01
1.441000000000000000e+03 6.823700714111328125e+01 6.700645923614501953e+00 -1.445463657379150391e+00 1.182833862304687500e+01 3.114862442016601562e+00 -2.053709745407104492e+00
1.442000000000000000e+03 6.918452453613281250e+01 9.177516937255859375e+00 -7.830380797386169434e-01 7.981549263000488281e+00 2.159553289413452148e+00 -2.401659041643142700e-01
1.443000000000000000e+03 6.809214782714843750e+01 7.875000476837158203e+00 -8.526182770729064941e-01 1.221427917480468750e+01 3.408498287200927734e+00 -1.368103623390197754e+00
1.444000000000000000e+03 7.612937927246093750e+01 5.945713043212890625e+00 7.665908336639404297e-01 1.799290275573730469e+01 5.627848148345947266e+00 -1.661703586578369141e+00
1.445000000000000000e+03 7.602748870849609375e+01 4.676793575286865234e+00 3.453461527824401855e-01 1.521358776092529297e+01 4.667680263519287109e+00 -1.544741839170455933e-01
1.446000000000000000e+03 7.823416137695312500e+01 5.490674018859863281e+00 1.077059984207153320e+00 1.067709827423095703e+01 3.526247501373291016e+00 -1.449265360832214355e+00
1.447000000000000000e+03 6.327148437500000000e+01 -3.646769762039184570e+00 4.071212768554687500e+00 1.604899406433105469e+01 6.036062240600585938e+00 3.493389606475830078e+00
1.448000000000000000e+03 5.822970962524414062e+01 -6.365184307098388672e+00 3.194860816001892090e-01 6.566128253936767578e+00 2.065684318542480469e+00 1.436183303594589233e-01
1.449000000000000000e+03 2.435388565063476562e+01 2.786613106727600098e-01 -1.784687161445617676e+00 5.857223987579345703e+00 1.221760988235473633e+00 -5.669535636901855469e+00
1.450000000000000000e+03 2.381011009216308594e+01 -3.150053977966308594e+00 1.397839069366455078e+00 3.439403295516967773e+00 1.451172709465026855e+00 -2.526378154754638672e+00
1.451000000000000000e+03 6.955841827392578125e+01 -1.693268775939941406e+01 -6.905994415283203125e-01 1.747629046440124512e-01 -1.547509729862213135e-01 1.872485756874084473e+00
1.452000000000000000e+03 7.817001342773437500e+01 -1.946945381164550781e+01 -1.549839377403259277e-01 7.476588726043701172e+00 2.196481466293334961e+00 -2.481000423431396484e-01
1.453000000000000000e+03 2.530845260620117188e+01 1.470458030700683594e+01 4.494996070861816406e+00 2.091929626464843750e+01 7.624287605285644531e+00 4.910322666168212891e+00
1.454000000000000000e+03 3.797880935668945312e+01 -1.559750556945800781e+01 -2.613235235214233398e+00 -8.763473629951477051e-01 -1.046874761581420898e+00 7.629778385162353516e-01
1.455000000000000000e+03 3.592308425903320312e+01 -1.748386383056640625e+01 4.429645240306854248e-01 1.443827152252197266e+00 5.660374760627746582e-01 -3.692807555198669434e-01
1.456000000000000000e+03 1.465164184570312500e+01 5.609790802001953125e+00 -5.214509010314941406e+00 -9.779919385910034180e-01 -1.857750177383422852e+00 -2.177153348922729492e+00
1.457000000000000000e+03 1.821761894226074219e+01 2.907654523849487305e+00 1.446004509925842285e+00 -2.811396598815917969e+00 -4.096176028251647949e-01 1.145591974258422852e+00
1.458000000000000000e+03 5.777408599853515625e+01 -1.640737724304199219e+01 1.693841099739074707e+00 9.687323570251464844e+00 3.414349555969238281e+00 4.237247705459594727e-01
1.459000000000000000e+03 2.346556472778320312e+01 1.190183544158935547e+01 4.823713779449462891e+00 9.251901626586914062e+00 4.222684860229492188e+00 6.069247245788574219e+00
1.460000000000000000e+03 7.095036315917968750e+01 -7.321695327758789062e+00 8.690096139907836914e-01 4.572485923767089844e+00 1.632448554039001465e+00 -1.903901696205139160e+00
1.461000000000000000e+03 2.915665817260742188e+01 -5.189897537231445312e+00 6.110548377037048340e-01 7.392027378082275391e+00 2.400924682617187500e+00 1.653060555458068848e+00
1.462000000000000000e+03 3.267193794250488281e+00 -3.910527038574218750e+01 -6.134860683232545853e-03 3.738802433013916016e+00 1.119800329208374023e+00 9.577102959156036377e-03
1.463000000000000000e+03 1.764367341995239258e+00 -1.567464160919189453e+01 -3.721876442432403564e-02 2.645166397094726562e+00 7.823843359947204590e-01 3.264731764793395996e-01
1.464000000000000000e+03 2.085676193237304688e+00 -2.790491676330566406e+01 -1.455006562173366547e-02 3.600985527038574219e+00 1.075930595397949219e+00 6.536465138196945190e-02
1.465000000000000000e+03 3.613518953323364258e+00 -3.625971221923828125e+01 -1.211983244866132736e-02 3.749527454376220703e+00 1.121222257614135742e+00 2.146237716078758240e-02
1.466000000000000000e+03 9.403342604637145996e-01 -3.879590225219726562e+01 -6.565942894667387009e-04 3.740615129470825195e+00 1.121987581253051758e+00 3.286995925009250641e-03
1.467000000000000000e+03 2.394510984420776367e+00 -3.352002334594726562e+01 -7.527600508183240891e-03 3.708546876907348633e+00 1.110305786132812500e+00 3.007035329937934875e-02
1.468000000000000000e+03 7.655370235443115234e-01 -3.220756530761718750e+01 -2.229694044217467308e-03 3.682484626770019531e+00 1.104076504707336426e+00 1.328243035823106766e-02
1.469000000000000000e+03 2.129367113113403320e+00 -2.928304862976074219e+01 -7.568364031612873077e-03 3.634722709655761719e+00 1.088146328926086426e+00 5.121313780546188354e-02
1.470000000000000000e+03 2.252550125122070312e+00 -3.206685256958007812e+01 -6.516842171549797058e-03 3.685853242874145508e+00 1.103800892829895020e+00 3.376706317067146301e-02
1.471000000000000000e+03 3.343363523483276367e+00 -2.365190887451171875e+01 -5.194145813584327698e-02 3.501790761947631836e+00 1.034954786300659180e+00 1.798197329044342041e-01
1.472000000000000000e+03 6.793510317802429199e-01 -2.533692169189453125e+01 2.005340298637747765e-03 3.480618476867675781e+00 1.044787168502807617e+00 3.265857324004173279e-02
1.473000000000000000e+03 1.991210341453552246e+00 -2.245736503601074219e+01 -2.831703051924705505e-02 3.364091873168945312e+00 1.000732421875000000e+00 1.388154625892639160e-01
1.474000000000000000e+03 2.031211376190185547e+00 -2.517393112182617188e+01 -2.044173330068588257e-02 3.504648923873901367e+00 1.045262217521667480e+00 9.579411149024963379e-02
1.475000000000000000e+03 1.936178922653198242e+00 -1.974105072021484375e+01 -3.747619315981864929e-02 3.157542705535888672e+00 9.360199570655822754e-01 1.999200135469436646e-01
1.476000000000000000e+03 6.323434114456176758e-01 -1.851891326904296875e+01 -1.323784422129392624e-02 2.913753747940063477e+00 8.701547384262084961e-01 8.337055891752243042e-02
1.477000000000000000e+03 3.039287567138671875e+00 -1.688069725036621094e+01 -9.364646673202514648e-02 3.039047479629516602e+00 8.836203217506408691e-01 4.238910377025604248e-01
1.478000000000000000e+03 1.589157700538635254e+00 -1.300651836395263672e+01 -3.338454663753509521e-02 2.105526208877563477e+00 6.216424703598022461e-01 4.109499752521514893e-01
1.479000000000000000e+03 4.986425042152404785e-01 -1.173430919647216797e+01 5.685609648935496807e-04 1.424642443656921387e+00 4.275633096694946289e-01 1.572746932506561279e-01
1.480000000000000000e+03 2.402713537216186523e+00 -1.041511535644531250e+01 -4.466598480939865112e-02 1.847383379936218262e+00 5.408152341842651367e-01 7.016221880912780762e-01
1.481000000000000000e+03 2.786915779113769531e+00 -1.421754455566406250e+01 -9.856063872575759888e-02 2.673976898193359375e+00 7.726248502731323242e-01 5.570920109748840332e-01
1.482000000000000000e+03 2.291181325912475586e+00 -1.624708771705627441e+00 -4.191234335303306580e-02 -1.312582846730947495e-02 -1.651145145297050476e-02 -2.689411044120788574e-01
1.483000000000000000e+03 1.316664218902587891e+00 -1.596759080886840820e+00 -3.559948876500129700e-02 -1.219626665115356445e-01 -4.726864770054817200e-02 -2.343694865703582764e-01
1.484000000000000000e+03 3.602280318737030029e-01 -3.642395973205566406e+00 2.231706492602825165e-02 -6.112453937530517578e-01 -1.766784936189651489e-01 -2.599186450242996216e-02
1.485000000000000000e+03 4.584725570678710938e+01 -9.864005088806152344e+00 4.135333597660064697e-01 5.621087551116943359e+00 1.810386300086975098e+00 -1.186752796173095703e+00
1.486000000000000000e+03 7.237067413330078125e+01 -1.173206520080566406e+01 3.690389990806579590e-01 1.394585704803466797e+01 4.294468879699707031e+00 1.498610526323318481e-01
1.487000000000000000e+03 7.935877990722656250e+01 -9.782541275024414062e+00 3.575005009770393372e-02 7.655124664306640625e+00 2.307262420654296875e+00 4.273543357849121094e-01
1.488000000000000000e+03 2.860115432739257812e+01 -1.968729138374328613e+00 5.142632484436035156e+00 7.108259201049804688e+00 3.675267457962036133e+00 3.513323068618774414e+00
1.489000000000000000e+03 6.026271057128906250e+01 -9.645993232727050781e+00 4.056764543056488037e-01 8.255717277526855469e+00 2.598418235778808594e+00 1.429207682609558105e+00
1.490000000000000000e+03 6.333915710449218750e+01 -1.136125850677490234e+01 -4.733625948429107666e-01 6.411805629730224609e+00 1.781532883644104004e+00 -1.202969476580619812e-01
1.491000000000000000e+03 2.129882812500000000e+01 1.813467216491699219e+01 -3.227021217346191406e+00 -4.654382467269897461e-01 -1.107737779617309570e+00 -3.919340372085571289e-01
1.492000000000000000e+03 3.135948944091796875e+01 -1.153308582305908203e+01 3.888760507106781006e-01 2.892784357070922852e+00 9.844981431961059570e-01 -1.161534428596496582e+00
1.493000000000000000e+03 3.237010574340820312e+01 -9.410460472106933594e+00 4.037043154239654541e-01 1.356543540954589844e+00 5.280743837356567383e-01 -6.381332874298095703e-01
1.494000000000000000e+03 6.320957565307617188e+01 -7.035301208496093750e+00 2.885053157806396484e-01 1.252452850341796875e+01 3.843910217285156250e+00 -5.628504157066345215e-01
1.495000000000000000e+03 6.206438064575195312e+01 -7.610180854797363281e+00 6.121293902397155762e-01 1.060435676574707031e+01 3.364945888519287109e+00 9.571859836578369141e-01
1.496000000000000000e+03 1.337041950225830078e+01 1.097673034667968750e+01 -2.051051892340183258e-02 2.154884815216064453e+00 6.403122544288635254e-01 6.407416462898254395e-01
1.497000000000000000e+03 1.031268024444580078e+01 1.139644241333007812e+01 -2.056529760360717773e+00 8.149662971496582031e+00 1.827939987182617188e+00 1.685857623815536499e-01
1.498000000000000000e+03 1.349852180480957031e+01 4.958989143371582031e+00 -7.011048316955566406e+00 -1.277236938476562500e+00 -2.486485481262207031e+00 -3.317865133285522461e+00
1.499000000000000000e+03 6.162058639526367188e+01 -6.532289981842041016e+00 1.256036639213562012e+00 9.595075607299804688e+00 3.255333662033081055e+00 1.816765308380126953e+00
1.500000000000000000e+03 7.813069915771484375e+01 -1.129560565948486328e+01 2.441843599081039429e-01 7.773269176483154297e+00 2.405236005783081055e+00 7.755819559097290039e-01
1.501000000000000000e+03 6.931617736816406250e+01 -7.296062707901000977e-01 -3.475833177566528320e+00 6.813066005706787109e+00 1.001169800758361816e+00 -1.912600755691528320e+00
1.502000000000000000e+03 7.364501953125000000e+01 -1.334679985046386719e+01 1.928120970726013184e+00 1.142273902893066406e+01 4.005258083343505859e+00 1.456821918487548828e+00
1.503000000000000000e+03 7.522103118896484375e+01 -2.855813026428222656e+00 -7.550671696662902832e-01 6.714776992797851562e+00 1.787912845611572266e+00 9.254276156425476074e-01
1.504000000000000000e+03 7.326455688476562500e+01 -3.265220642089843750e+00 -9.518540501594543457e-01 5.215719223022460938e+00 1.279159545898437500e+00 -7.066823244094848633e-01
1.505000000000000000e+03 3.700289535522460938e+01 -1.456797981262207031e+01 -8.302788734436035156e-01 -2.881931066513061523e-01 -3.355416059494018555e-01 8.573768734931945801e-01
1.506000000000000000e+03 3.532808303833007812e+01 -1.439445972442626953e+01 -5.146142840385437012e-01 7.097965478897094727e-01 5.855469033122062683e-02 -1.019108369946479797e-01
1.507000000000000000e+03 1.694437599182128906e+01 1.517625045776367188e+01 -3.325219392776489258e+00 8.904778212308883667e-02 -9.708514809608459473e-01 -8.447539210319519043e-01
1.508000000000000000e+03 1.602597236633300781e+01 5.096577167510986328e+00 -1.298584043979644775e-01 4.816105365753173828e+00 1.405874013900756836e+00 2.860776662826538086e+00
1.509000000000000000e+03 3.435369491577148438e+01 -7.040555477142333984e-01 -2.673740625381469727e+00 -1.000637292861938477e+00 -1.102313399314880371e+00 3.326475143432617188e+00
1.510000000000000000e+03 3.546177673339843750e+01 -3.024682044982910156e+00 -3.226768970489501953e+00 -7.881399393081665039e-01 -1.204472661018371582e+00 2.215268850326538086e+00
1.511000000000000000e+03 9.973661422729492188e+00 8.474596977233886719e+00 -2.139919698238372803e-01 1.684603309631347656e+01 4.989612102508544922e+00 1.156518533825874329e-01
1.512000000000000000e+03 2.017874717712402344e+01 1.560227394104003906e+01 -5.560286045074462891e+00 -1.186165809631347656e+00 -2.023935556411743164e+00 -2.320334434509277344e+00
1.513000000000000000e+03 1.923165702819824219e+01 1.662117767333984375e+01 -4.265061378479003906e+00 -2.269250899553298950e-01 -1.347595930099487305e+00 -1.083556294441223145e+00
1.514000000000000000e+03 3.625440979003906250e+01 -4.082621574401855469e+00 -1.854554176330566406e+00 1.185483932495117188e+00 -2.007210999727249146e-01 6.536232829093933105e-01
1.515000000000000000e+03 2.240149879455566406e+01 1.123352718353271484e+01 2.691070556640625000e+00 4.154233455657958984e+00 2.053591251373291016e+00 3.952446222305297852e+00
1.516000000000000000e+03 2.666886901855468750e+01 9.394234657287597656e+00 -1.205560088157653809e+00 2.751180410385131836e+00 4.636861085891723633e-01 1.099495738744735718e-01
1.517000000000000000e+03 4.485036849975585938e+01 -7.443719387054443359e+00 6.930828094482421875e-01 1.182052993774414062e+01 3.754083871841430664e+00 -1.359754800796508789e+00
1.518000000000000000e+03 4.020240020751953125e+01 -7.938124179840087891e+00 5.490251779556274414e-01 6.251549243927001953e+00 2.040172338485717773e+00 -8.151689171791076660e-01
1.519000000000000000e+03 2.150480651855468750e+01 7.542883396148681641e+00 1.014990687370300293e+00 6.434414386749267578e+00 2.234821557998657227e+00 1.667823672294616699e+00
1.520000000000000000e+03 1.733913230895996094e+01 1.850918388366699219e+01 -2.323863506317138672e+00 8.812693953514099121e-01 -4.327782392501831055e-01 3.275148272514343262e-01
1.521000000000000000e+03 2.009989738464355469e+01 3.137423038482666016e+00 3.431800603866577148e+00 -1.368871927261352539e-01 9.884740114212036133e-01 2.490008175373077393e-01
1.522000000000000000e+03 1.242759323120117188e+01 1.189877796173095703e+01 -1.429713726043701172e+00 4.162187099456787109e+00 8.197420239448547363e-01 9.867153763771057129e-01
1.523000000000000000e+03 2.962710762023925781e+01 -6.233837604522705078e+00 3.187677860260009766e-01 6.597878456115722656e+00 2.074993848800659180e+00 3.165086805820465088e-01
1.524000000000000000e+03 2.031925201416015625e+01 1.737186050415039062e+01 -4.911674976348876953e+00 -1.933349967002868652e-01 -1.531502962112426758e+00 -6.823058128356933594e-01
1.525000000000000000e+03 1.466723251342773438e+01 1.366687107086181641e+01 -2.367574930191040039e+00 1.294653892517089844e+00 -3.218763172626495361e-01 9.394754655659198761e-03
1.526000000000000000e+03 2.477273178100585938e+01 7.293482303619384766e+00 2.718808650970458984e+00 6.369057178497314453e+00 2.726359844207763672e+00 4.472190380096435547e+00
1.527000000000000000e+03 1.145387363433837891e+01 1.079887199401855469e+01 -1.069609880447387695e+00 7.319218635559082031e+00 1.874882578849792480e+00 1.214874386787414551e+00
1.528000000000000000e+03 1.980046463012695312e+01 7.588736534118652344e+00 1.411802887916564941e+00 1.783101916313171387e+00 9.584714770317077637e-01 8.734413981437683105e-01
1.529000000000000000e+03 2.082104682922363281e+01 8.530203819274902344e+00 3.795793652534484863e-01 4.447963237762451172e+00 1.448262810707092285e+00 1.145540475845336914e+00
1.530000000000000000e+03 4.195634078979492188e+01 -1.247720718383789062e+01 1.060633897781372070e+00 1.101615524291992188e+01 3.623036623001098633e+00 2.664626017212867737e-02
1.531000000000000000e+03 4.344373703002929688e+01 -5.093014717102050781e+00 3.546408891677856445e+00 9.018854141235351562e+00 3.769578933715820312e+00 1.444067358970642090e+00
1.532000000000000000e+03 4.448512649536132812e+01 -9.412326812744140625e+00 -3.557932078838348389e-01 9.167361259460449219e+00 2.643470525741577148e+00 3.692926838994026184e-02
1.533000000000000000e+03 4.401398849487304688e+01 -8.523292541503906250e+00 -4.537249505519866943e-01 9.726667404174804688e+00 2.781882762908935547e+00 6.708003878593444824e-01
1.534000000000000000e+03 3.811156082153320312e+01 -1.827785491943359375e+00 -3.298290491104125977e+00 8.375514984130859375e+00 1.523167371749877930e+00 -4.881004810333251953e+00
1.535000000000000000e+03 3.118811225891113281e+01 -1.004631423950195312e+01 3.709655702114105225e-01 2.745023727416992188e+00 9.347968101501464844e-01 -1.069123864173889160e+00
1.536000000000000000e+03 3.613955688476562500e+01 -1.545377635955810547e+01 -1.469458818435668945e+00 9.581894874572753906e-01 -1.533807963132858276e-01 7.421209663152694702e-02
1.537000000000000000e+03 3.937591934204101562e+01 -6.821902275085449219e+00 1.212830066680908203e+00 4.023921489715576172e+00 1.571025490760803223e+00 -1.224204778671264648e+00
1.538000000000000000e+03 3.353156661987304688e+01 -1.265006446838378906e+01 -7.530503720045089722e-02 1.386978149414062500e+00 3.935019373893737793e-01 -5.411536097526550293e-01
1.539000000000000000e+03 3.447934722900390625e+01 -1.346767711639404297e+01 -6.062541007995605469e-01 1.182082414627075195e+00 1.727484911680221558e-01 -3.290496170520782471e-01
1.540000000000000000e+03 3.455260086059570312e+01 -1.510551357269287109e+01 -8.121829628944396973e-01 1.731319308280944824e+00 2.757408916950225830e-01 -3.710748553276062012e-01
1.541000000000000000e+03 2.181970596313476562e+01 4.152869701385498047e+00 6.359489440917968750e+00 7.911149978637695312e+00 4.281191825866699219e+00 -9.050015807151794434e-01
1.542000000000000000e+03 1.982669830322265625e+01 -6.834985733032226562e+00 1.064039111137390137e+00 1.760912895202636719e+00 8.474856019020080566e-01 -1.420982837677001953e+00
1.543000000000000000e+03 1.724837303161621094e+01 -7.310692310333251953e+00 6.446566581726074219e-01 4.101683139801025391e+00 1.423901915550231934e+00 -2.097452640533447266e+00
1.544000000000000000e+03 1.710358810424804688e+01 -5.586871147155761719e+00 1.416794657707214355e+00 4.013689517974853516e+00 1.629145145416259766e+00 -2.547421693801879883e+00
1.545000000000000000e+03 1.606148719787597656e+01 -2.852077960968017578e+00 2.946149349212646484e+00 5.398810863494873047e+00 2.503488063812255859e+00 -3.687530755996704102e+00
1.546000000000000000e+03 2.029441452026367188e+01 1.065018892288208008e+00 -3.008906841278076172e+00 -1.790001392364501953e+00 -1.439672470092773438e+00 3.194778203964233398e+00
1.547000000000000000e+03 2.063915252685546875e+01 6.448387622833251953e+00 2.997803688049316406e+00 4.784404277801513672e+00 2.334662437438964844e+00 7.810242176055908203e-01
1.548000000000000000e+03 2.303546333312988281e+01 2.038508176803588867e+00 2.008741855621337891e+00 1.482428455352783203e+01 5.049908161163330078e+00 -4.046385765075683594e+00
1.549000000000000000e+03 1.457408428192138672e+01 -1.032618522644042969e+00 1.791021466255187988e+00 5.153379917144775391e+00 2.083320379257202148e+00 -2.760187387466430664e+00
1.550000000000000000e+03 2.485828590393066406e+01 -1.937528371810913086e+00 7.697347402572631836e-01 4.644667148590087891e+00 1.624320626258850098e+00 -2.151798248291015625e+00
1.551000000000000000e+03 2.395825004577636719e+01 -1.034972190856933594e+00 -3.675580322742462158e-01 3.639689445495605469e+00 9.816393852233886719e-01 -3.008437633514404297e+00
1.552000000000000000e+03 2.313199043273925781e+01 -9.469575434923171997e-02 -3.439386367797851562e+00 6.468594551086425781e+00 9.087623953819274902e-01 -2.924744129180908203e+00
1.553000000000000000e+03 1.885257530212402344e+01 -5.862792015075683594e+00 1.559586763381958008e+00 2.240528106689453125e+00 1.140034437179565430e+00 -1.903120636940002441e+00
1.554000000000000000e+03 1.649378585815429688e+01 -8.117871284484863281e+00 2.587958872318267822e-01 4.732038974761962891e+00 1.497250437736511230e+00 -1.927509307861328125e+00
1.555000000000000000e+03 2.226115608215332031e+01 1.008455872535705566e+00 -2.478242158889770508e+00 7.709337711334228516e+00 1.569328665733337402e+00 -5.281569361686706543e-01
1.556000000000000000e+03 1.805341148376464844e+01 -6.570931434631347656e+00 1.038193464279174805e+00 3.342804670333862305e+00 1.314299464225769043e+00 -2.070544481277465820e+00
1.557000000000000000e+03 2.307115364074707031e+01 3.152561664581298828e+00 4.640582561492919922e+00 2.236700248718261719e+01 8.102274894714355469e+00 -5.235081672668457031e+00
1.558000000000000000e+03 2.296388435363769531e+01 4.389519214630126953e+00 3.441960573196411133e+00 2.061568641662597656e+01 7.217293739318847656e+00 2.467410326004028320e+00
1.559000000000000000e+03 3.670819091796875000e+01 1.360790538787841797e+01 2.459401607513427734e+00 1.522596454620361328e+01 5.305609703063964844e+00 -2.985713243484497070e+00
1.560000000000000000e+03 3.776396942138671875e+01 1.285635948181152344e+01 3.445396184921264648e+00 1.634812355041503906e+01 5.938055992126464844e+00 1.261956214904785156e+00
1.561000000000000000e+03 4.963297653198242188e+01 -3.723673820495605469e+00 -7.459888458251953125e+00 -1.483022212982177734e+00 -2.682873249053955078e+00 2.923258543014526367e+00
1.562000000000000000e+03 4.463703155517578125e+01 -6.640429496765136719e-01 -3.624652385711669922e+00 5.334758281707763672e+00 5.130317211151123047e-01 3.109427213668823242e+00
1.563000000000000000e+03 7.732576751708984375e+01 3.202509689331054688e+01 -2.365717664361000061e-03 6.476730346679687500e+00 1.942309498786926270e+00 -4.346768837422132492e-03
1.564000000000000000e+03 7.907862091064453125e+01 3.599879837036132812e+01 -7.849702611565589905e-03 6.539146423339843750e+00 1.959388971328735352e+00 -8.598644286394119263e-03
1.565000000000000000e+03 7.791265106201171875e+01 -2.921874809265136719e+01 4.792362079024314880e-02 6.854430198669433594e+00 2.070706129074096680e+00 1.447599083185195923e-01
1.566000000000000000e+03 7.931809997558593750e+01 -2.786467742919921875e+01 1.768724061548709869e-02 7.125910282135009766e+00 2.143079280853271484e+00 5.645814538002014160e-02
1.567000000000000000e+03 7.717390441894531250e+01 -3.789610671997070312e+01 -1.344611030071973801e-02 6.517591476440429688e+00 1.951243638992309570e+00 5.329516157507896423e-02
1.568000000000000000e+03 7.934385681152343750e+01 -3.476662445068359375e+01 -2.222835086286067963e-02 6.716131687164306641e+00 2.008170843124389648e+00 2.766514755785465240e-02
1.569000000000000000e+03 7.937538146972656250e+01 -2.089672660827636719e+01 -3.894938156008720398e-02 7.511013507843017578e+00 2.241619348526000977e+00 -5.513289198279380798e-02
1.570000000000000000e+03 7.801208496093750000e+01 -2.508277130126953125e+01 -4.444748163223266602e-02 7.167681217193603516e+00 2.136970043182373047e+00 1.792697757482528687e-01
1.571000000000000000e+03 7.796999359130859375e+01 -2.646716308593750000e+01 3.615432232618331909e-02 7.052797794342041016e+00 2.126685619354248047e+00 1.751801371574401855e-01
1.572000000000000000e+03 7.790085601806640625e+01 -3.197477149963378906e+01 3.520995378494262695e-02 6.720707893371582031e+00 2.026775360107421875e+00 1.006708368659019470e-01
1.573000000000000000e+03 7.930669403076171875e+01 -3.063727760314941406e+01 2.111529745161533356e-02 6.916388511657714844e+00 2.081251144409179688e+00 4.159425571560859680e-02
1.574000000000000000e+03 7.793245697021484375e+01 -3.334465408325195312e+01 -1.860508462414145470e-03 6.667040348052978516e+00 1.999553918838500977e+00 8.334106206893920898e-02
1.575000000000000000e+03 7.321865844726562500e+01 -3.837586212158203125e+01 7.431144267320632935e-02 6.189474582672119141e+00 1.879135847091674805e+00 5.629378184676170349e-02
1.576000000000000000e+03 7.625060272216796875e+01 -3.904497909545898438e+01 2.559029683470726013e-02 6.501595973968505859e+00 1.958155870437622070e+00 3.092527575790882111e-02
1.577000000000000000e+03 7.803846740722656250e+01 1.528970527648925781e+01 6.694062054157257080e-02 6.980189800262451172e+00 2.114139080047607422e+00 -4.030306637287139893e-01
1.578000000000000000e+03 7.933957672119140625e+01 1.532093143463134766e+01 9.146355837583541870e-02 7.181937694549560547e+00 2.182020425796508789e+00 -1.753081232309341431e-01
1.579000000000000000e+03 7.936386108398437500e+01 2.234495925903320312e+01 -2.575087361037731171e-02 6.523504734039306641e+00 1.949326157569885254e+00 5.884551443159580231e-03
1.580000000000000000e+03 7.843155670166015625e+01 3.279296112060546875e+01 -6.247626151889562607e-03 6.506717681884765625e+00 1.950141072273254395e+00 -6.715290714055299759e-03
1.581000000000000000e+03 7.809964752197265625e+01 2.781378364562988281e+01 1.792231574654579163e-02 6.506587505340576172e+00 1.957352876663208008e+00 1.643478637561202049e-03
1.582000000000000000e+03 7.936080932617187500e+01 2.785740280151367188e+01 -2.044484578073024750e-02 6.562034130096435547e+00 1.962476730346679688e+00 4.956556949764490128e-03
1.583000000000000000e+03 7.803504180908203125e+01 2.518377685546875000e+01 2.398156002163887024e-02 6.516618251800537109e+00 1.962179899215698242e+00 5.496241152286529541e-03
1.584000000000000000e+03 7.805589294433593750e+01 2.381953048706054688e+01 -2.548883296549320221e-02 6.527353763580322266e+00 1.950559496879577637e+00 1.567526161670684814e-02
1.585000000000000000e+03 7.806478881835937500e+01 1.822783470153808594e+01 4.866895452141761780e-02 6.658225536346435547e+00 2.012068271636962891e+00 -1.637614965438842773e-01
1.586000000000000000e+03 7.795396423339843750e+01 1.673649215698242188e+01 1.454220116138458252e-01 6.805943965911865234e+00 2.085409879684448242e+00 -3.280902504920959473e-01
1.587000000000000000e+03 7.653242492675781250e+01 1.221639537811279297e+01 -4.651837646961212158e-01 7.728518009185791016e+00 2.179000377655029297e+00 -1.244292616844177246e+00
1.588000000000000000e+03 7.720885467529296875e+01 7.984915256500244141e+00 1.784518003463745117e+00 1.071666622161865234e+01 3.750355243682861328e+00 -4.858421683311462402e-01
1.589000000000000000e+03 7.949009704589843750e+01 8.405223846435546875e+00 -7.775079458951950073e-02 6.523396015167236328e+00 1.933693647384643555e+00 3.332400321960449219e-01
1.590000000000000000e+03 7.938915252685546875e+01 1.369504690170288086e+00 -4.652701616287231445e-01 1.425816440582275391e+01 4.137867927551269531e+00 -6.362922787666320801e-01
1.591000000000000000e+03 7.637036132812500000e+01 1.828547477722167969e+00 -2.939951896667480469e+00 1.017614269256591797e+01 2.170857191085815430e+00 -7.514045238494873047e-01
1.592000000000000000e+03 7.938952636718750000e+01 -1.950056076049804688e+01 -1.285744510823860765e-04 7.346724510192871094e+00 2.203978776931762695e+00 -1.001704558730125427e-01
1.593000000000000000e+03 7.809408569335937500e+01 -2.228196716308593750e+01 -1.218069419264793396e-01 7.398540973663330078e+00 2.183020114898681641e+00 4.989269003272056580e-02
1.594000000000000000e+03 7.491877746582031250e+01 -1.369546699523925781e+01 1.345919013023376465e+00 9.390187263488769531e+00 3.220831871032714844e+00 3.163486719131469727e-01
1.595000000000000000e+03 7.944303894042968750e+01 -1.396555519104003906e+01 1.101149767637252808e-01 6.224400043487548828e+00 1.900354504585266113e+00 -2.113419398665428162e-02
1.596000000000000000e+03 7.542752075195312500e+01 -7.107258796691894531e+00 -7.459875941276550293e-02 8.334383010864257812e+00 2.477935314178466797e+00 1.779149770736694336e+00
1.597000000000000000e+03 7.932924652099609375e+01 -6.986815929412841797e+00 3.637731447815895081e-02 9.858804702758789062e+00 2.968554496765136719e+00 6.189772486686706543e-01
1.598000000000000000e+03 7.853608703613281250e+01 4.027352142333984375e+01 -2.049064822494983673e-02 6.501598834991455078e+00 1.944332480430603027e+00 -3.261698782444000244e-02
1.599000000000000000e+03 7.811499023437500000e+01 1.093042469024658203e+01 -3.480741679668426514e-01 8.297842979431152344e+00 2.384930610656738281e+00 1.713250018656253815e-02
1.600000000000000000e+03 7.724108886718750000e+01 5.530664920806884766e+00 1.545416951179504395e+00 1.252675247192382812e+01 4.221650600433349609e+00 -2.712700843811035156e+00
1.601000000000000000e+03 7.823439788818359375e+01 4.194356918334960938e+00 1.180085688829421997e-01 1.064620113372802734e+01 3.229262828826904297e+00 -2.971370697021484375e+00
1.602000000000000000e+03 7.687342834472656250e+01 2.995251893997192383e+00 -1.339048624038696289e+00 1.083393669128417969e+01 2.848466157913208008e+00 -2.420116662979125977e+00
1.603000000000000000e+03 7.496911621093750000e+01 -3.575687706470489502e-01 -2.572224378585815430e+00 4.385468482971191406e+00 5.439733266830444336e-01 1.060610294342041016e+00
1.604000000000000000e+03 7.939007568359375000e+01 -2.809580087661743164e+00 -5.070576444268226624e-02 1.350220012664794922e+01 4.035448074340820312e+00 5.190914273262023926e-01
1.605000000000000000e+03 7.783071136474609375e+01 -5.649676322937011719e+00 4.497499018907546997e-02 9.745705604553222656e+00 2.937204122543334961e+00 1.516092419624328613e+00
1.606000000000000000e+03 7.792311859130859375e+01 -4.207195758819580078e+00 -1.378467828035354614e-01 1.027544403076171875e+01 3.041279077529907227e+00 1.448115348815917969e+00
1.607000000000000000e+03 7.479004669189453125e+01 -1.191403388977050781e+01 1.293472766876220703e+00 9.842782020568847656e+00 3.340876340866088867e+00 1.274350881576538086e+00
1.608000000000000000e+03 7.806489562988281250e+01 -9.841708183288574219e+00 2.530867755413055420e-01 8.264335632324218750e+00 2.555226564407348633e+00 1.044317483901977539e+00
1.609000000000000000e+03 7.369489288330078125e+01 -1.197172641754150391e+01 9.680010080337524414e-01 1.171238040924072266e+01 3.804114341735839844e+00 5.868477225303649902e-01
1.610000000000000000e+03 7.555719757080078125e+01 -1.142553234100341797e+01 1.098766088485717773e+00 9.139063835144042969e+00 3.071348905563354492e+00 9.476330876350402832e-01
1.611000000000000000e+03 7.707549285888671875e+01 -1.664896202087402344e+01 1.634133607149124146e-01 7.809680461883544922e+00 2.391928195953369141e+00 -3.543521165847778320e-01
1.612000000000000000e+03 7.942230987548828125e+01 -1.672365188598632812e+01 6.464334577322006226e-02 6.704761028289794922e+00 2.030821323394775391e+00 -1.447176188230514526e-01
1.613000000000000000e+03 7.821190643310546875e+01 -1.808016777038574219e+01 -2.484497847035527229e-03 7.406138420104980469e+00 2.221096277236938477e+00 -3.115477561950683594e-01
1.614000000000000000e+03 5.111322402954101562e+01 -1.842223739624023438e+01 -1.278478145599365234e+00 7.386184930801391602e-01 -1.619578897953033447e-01 -8.208632469177246094e-02
1.615000000000000000e+03 5.418056869506835938e+01 -1.996387863159179688e+01 -1.577355414628982544e-01 1.308252453804016113e+00 3.451550602912902832e-01 2.347827911376953125e+00
1.616000000000000000e+03 4.323293304443359375e+01 -7.985447406768798828e+00 2.950400114059448242e-01 9.281661987304687500e+00 2.873010635375976562e+00 1.052192330360412598e+00
1.617000000000000000e+03 5.336900711059570312e+01 -7.900485992431640625e+00 5.426244735717773438e-01 3.469445228576660156e+00 1.203620910644531250e+00 -1.539458751678466797e+00
1.618000000000000000e+03 5.247310256958007812e+01 -4.909555912017822266e+00 -3.268229007720947266e+00 3.280001401901245117e+00 3.531708614900708199e-03 -2.923665046691894531e-01
1.619000000000000000e+03 4.569784164428710938e+01 -1.189352416992187500e+01 -3.201272711157798767e-02 4.884140014648437500e+00 1.455638289451599121e+00 -5.064988136291503906e-01
1.620000000000000000e+03 5.597698593139648438e+01 -1.448524093627929688e+01 8.020749092102050781e-01 1.379572296142578125e+01 4.379339694976806641e+00 -1.026466608047485352e+00
1.621000000000000000e+03 5.965147018432617188e+01 -7.812582969665527344e+00 7.702814340591430664e-01 7.788144111633300781e+00 2.567527770996093750e+00 1.396140336990356445e+00
1.622000000000000000e+03 4.533754730224609375e+01 -8.608418464660644531e+00 2.979069054126739502e-01 7.653109073638916016e+00 2.385304689407348633e+00 -1.833993315696716309e+00
1.623000000000000000e+03 4.324209594726562500e+01 -1.081026554107666016e+01 -5.723505839705467224e-02 9.165873527526855469e+00 2.732591629028320312e+00 6.751152873039245605e-01
1.624000000000000000e+03 5.676141738891601562e+01 -1.260656070709228516e+01 7.281115055084228516e-01 1.049111747741699219e+01 3.365768909454345703e+00 -3.106413781642913818e-01
1.625000000000000000e+03 4.717144775390625000e+01 -1.515498638153076172e+00 -2.760122418403625488e-01 1.453516483306884766e+00 3.532512784004211426e-01 5.759266376495361328e+00
1.626000000000000000e+03 5.153730392456054688e+01 -3.848983287811279297e+00 -5.180820941925048828e+00 2.867955207824707031e+00 -6.938596963882446289e-01 -4.467047378420829773e-02
1.627000000000000000e+03 5.740363311767578125e+01 -1.525225257873535156e+01 1.090224981307983398e+00 1.193026638031005859e+01 3.906147241592407227e+00 6.443659067153930664e-01
1.628000000000000000e+03 4.087699890136718750e+01 -9.288498878479003906e+00 1.622639298439025879e-01 8.290757179260253906e+00 2.535906314849853516e+00 -4.940593242645263672e-01
1.629000000000000000e+03 5.011333084106445312e+01 -1.545522785186767578e+01 -5.329874753952026367e-01 -2.105782926082611084e-01 -2.230697274208068848e-01 4.288336634635925293e-01
1.630000000000000000e+03 5.427973937988281250e+01 -7.223927497863769531e+00 -3.122693300247192383e-01 4.584216117858886719e+00 1.281584143638610840e+00 -1.027209520339965820e+00
1.631000000000000000e+03 5.020217514038085938e+01 -1.736708068847656250e+01 -6.971163153648376465e-01 7.086886167526245117e-01 3.471686970442533493e-03 -5.465485528111457825e-02
1.632000000000000000e+03 4.742650604248046875e+01 -1.423285961151123047e+01 1.763625890016555786e-01 1.845316648483276367e+00 6.065037846565246582e-01 -6.506748199462890625e-01
1.633000000000000000e+03 4.928569793701171875e+01 -1.633803749084472656e+01 -4.948501586914062500e-01 8.820842504501342773e-01 1.161702349781990051e-01 -2.852092981338500977e-01
1.634000000000000000e+03 4.653010559082031250e+01 -1.310333347320556641e+01 1.561057567596435547e-01 2.955357789993286133e+00 9.334390759468078613e-01 -6.927090287208557129e-01
1.635000000000000000e+03 5.503606796264648438e+01 -8.501928329467773438e+00 2.028642445802688599e-01 5.659933090209960938e+00 1.758839249610900879e+00 -1.318567752838134766e+00
1.636000000000000000e+03 5.570601654052734375e+01 -9.835303306579589844e+00 4.341523349285125732e-01 7.426428318023681641e+00 2.358174085617065430e+00 -8.750314116477966309e-01
1.637000000000000000e+03 5.017604064941406250e+01 -1.926614761352539062e+01 -2.296904027462005615e-01 1.515021085739135742e+00 3.855991959571838379e-01 -8.016636967658996582e-01
1.638000000000000000e+03 5.341102218627929688e+01 -6.025798797607421875e+00 -1.426267862319946289e+00 3.630317449569702148e+00 6.612148880958557129e-01 -8.067159652709960938e-01
1.639000000000000000e+03 3.665119934082031250e+01 1.016017246246337891e+01 3.016402244567871094e+00 1.776267433166503906e+01 6.233722686767578125e+00 5.990441799163818359e+00
1.640000000000000000e+03 2.151451492309570312e+01 5.378255367279052734e+00 3.898969650268554688e+00 7.904019355773925781e+00 3.540896654129028320e+00 4.313544183969497681e-02
1.641000000000000000e+03 7.199314236640930176e-01 3.741205596923828125e+01 -3.848499059677124023e-02 5.517255306243896484e+00 1.643631100654602051e+00 6.013518199324607849e-02
1.642000000000000000e+03 6.987569928169250488e-01 3.465663146972656250e+01 -1.493201591074466705e-02 5.735172748565673828e+00 1.716072201728820801e+00 6.636115908622741699e-02
1.643000000000000000e+03 7.142432928085327148e-01 3.325421905517578125e+01 8.196879178285598755e-03 5.862849235534667969e+00 1.761313796043395996e+00 5.545614287257194519e-02
1.644000000000000000e+03 6.919975876808166504e-01 2.759781837463378906e+01 -1.195646170526742935e-02 6.405639648437500000e+00 1.918104887008666992e+00 6.002329662442207336e-02
1.645000000000000000e+03 6.719652414321899414e-01 2.617869377136230469e+01 -1.792608643881976604e-03 6.525996685028076172e+00 1.957261204719543457e+00 4.710358381271362305e-02
1.646000000000000000e+03 3.307936668395996094e+00 2.591857147216796875e+01 -1.016143485903739929e-01 5.691141605377197266e+00 1.676858186721801758e+00 1.811750829219818115e-01
1.647000000000000000e+03 3.222444057464599609e+00 2.449569511413574219e+01 -1.542308628559112549e-01 5.760297775268554688e+00 1.681820154190063477e+00 5.908958986401557922e-02
1.648000000000000000e+03 2.107649803161621094e+00 3.454943084716796875e+01 8.992570452392101288e-03 5.521751403808593750e+00 1.659223198890686035e+00 1.378571987152099609e-01
1.649000000000000000e+03 2.157999277114868164e+00 3.316483306884765625e+01 1.203108672052621841e-02 5.573361873626708984e+00 1.675617933273315430e+00 1.818202883005142212e-01
1.650000000000000000e+03 3.318074226379394531e+00 3.911236572265625000e+01 4.744312912225723267e-02 5.266561031341552734e+00 1.594201326370239258e+00 9.596429765224456787e-02
1.651000000000000000e+03 6.288585066795349121e-01 2.051678466796875000e+01 4.276706837117671967e-03 6.430902481079101562e+00 1.930553674697875977e+00 -1.096979454159736633e-01
1.652000000000000000e+03 6.181374192237854004e-01 1.910869598388671875e+01 -8.080898970365524292e-02 6.130217075347900391e+00 1.814822435379028320e+00 -1.901858299970626831e-01
1.653000000000000000e+03 6.020685434341430664e-01 1.487636566162109375e+01 4.073906317353248596e-02 3.916129827499389648e+00 1.187060713768005371e+00 -4.945095479488372803e-01
1.654000000000000000e+03 6.158763170242309570e-01 1.345994281768798828e+01 -1.731310188770294189e-01 2.638161897659301758e+00 7.395092844963073730e-01 -6.346987485885620117e-01
1.655000000000000000e+03 4.891656637191772461e-01 7.809879302978515625e+00 5.503548309206962585e-02 -3.372539758682250977e+00 -9.952512979507446289e-01 -3.247894048690795898e-01
1.656000000000000000e+03 4.599798917770385742e-01 6.402390480041503906e+00 9.932710230350494385e-02 -4.022816658020019531e+00 -1.177046775817871094e+00 -1.008199006319046021e-01
1.657000000000000000e+03 3.792046308517456055e-01 4.999782562255859375e+00 5.101894959807395935e-02 -3.956973314285278320e+00 -1.171786308288574219e+00 1.436755359172821045e-01
1.658000000000000000e+03 3.888129234313964844e+00 1.634519457817077637e+00 -1.424356460571289062e+00 -9.964374452829360962e-02 -4.572000503540039062e-01 1.860143542289733887e+00
1.659000000000000000e+03 1.814293503761291504e+00 1.043972492218017578e+01 1.576009243726730347e-01 1.053166270256042480e+00 3.632301390171051025e-01 -1.940982818603515625e+00
1.660000000000000000e+03 5.915988683700561523e-01 1.061919879913330078e+01 -8.543913066387176514e-02 -4.223568439483642578e-01 -1.523387879133224487e-01 -6.475060582160949707e-01
1.661000000000000000e+03 1.846581578254699707e+00 1.338351917266845703e+01 -1.612555384635925293e-01 3.270630121231079102e+00 9.328123927116394043e-01 -1.616097927093505859e+00
1.662000000000000000e+03 1.898163437843322754e+00 2.038178634643554688e+01 -1.643770039081573486e-01 5.961094856262207031e+00 1.739015340805053711e+00 -3.413314819335937500e-01
1.663000000000000000e+03 1.865894198417663574e+00 1.898132896423339844e+01 -1.294652074575424194e-01 5.702487945556640625e+00 1.671906828880310059e+00 -4.847303628921508789e-01
1.664000000000000000e+03 1.954013586044311523e+00 2.462098884582519531e+01 -5.547087639570236206e-02 6.143447875976562500e+00 1.826393008232116699e+00 6.549439579248428345e-02
1.665000000000000000e+03 1.081705570220947266e+00 1.915206789970397949e+00 -1.359978318214416504e-01 -1.003018856048583984e+00 -3.417049944400787354e-01 1.014584660530090332e+00
1.666000000000000000e+03 5.442190766334533691e-01 2.671316385269165039e+00 -3.138862550258636475e-02 -1.804683208465576172e+00 -5.508215427398681641e-01 5.548634529113769531e-01
1.667000000000000000e+03 3.341563796997070312e+01 1.457102108001708984e+01 -2.156106472015380859e+00 -3.673357367515563965e-01 -7.570326924324035645e-01 -1.071034431457519531e+00
1.668000000000000000e+03 3.955843734741210938e+01 1.065671157836914062e+01 1.636717915534973145e+00 6.821046352386474609e+00 2.537329435348510742e+00 1.458477020263671875e+00
1.669000000000000000e+03 3.013924789428710938e+01 1.431098461151123047e+01 3.718231618404388428e-01 -2.364456467330455780e-02 1.044535785913467407e-01 5.755332708358764648e-01
1.670000000000000000e+03 2.723465919494628906e+01 5.824663639068603516e-01 4.894500672817230225e-01 2.954425215721130371e-01 2.354677766561508179e-01 -2.454776465892791748e-01
1.671000000000000000e+03 2.178382301330566406e+01 9.345499038696289062e+00 -1.936924904584884644e-01 5.311435699462890625e+00 1.535323023796081543e+00 2.771503210067749023e+00
1.672000000000000000e+03 3.055576705932617188e+01 3.273073196411132812e+00 -3.061127185821533203e+00 1.862028360366821289e+00 -3.597296476364135742e-01 1.609952092170715332e+00
1.673000000000000000e+03 3.422286987304687500e+01 7.673868179321289062e+00 4.360371828079223633e-01 2.398265123367309570e+00 8.502907156944274902e-01 1.348942756652832031e+00
1.674000000000000000e+03 3.687448501586914062e+01 7.381558418273925781e+00 -2.221691131591796875e+00 1.153763771057128906e+01 2.794784069061279297e+00 1.329448223114013672e+00
1.675000000000000000e+03 3.791921997070312500e+01 5.702575206756591797e+00 -1.100777029991149902e+00 1.130410003662109375e+01 3.060997009277343750e+00 1.939055562019348145e+00
1.676000000000000000e+03 2.876845550537109375e+01 1.128256320953369141e+01 -2.173494338989257812e+00 -1.319709539413452148e+00 -1.047961115837097168e+00 -1.935660600662231445e+00
1.677000000000000000e+03 3.304352569580078125e+01 6.136842966079711914e-01 6.008915901184082031e+00 -1.837982654571533203e+00 1.251279950141906738e+00 5.833395957946777344e+00
1.678000000000000000e+03 2.720336532592773438e+01 1.344815063476562500e+01 2.826501607894897461e+00 4.837812423706054688e+00 2.299294233322143555e+00 2.228689193725585938e+00
1.679000000000000000e+03 3.202103805541992188e+01 6.043670177459716797e+00 -9.018515944480895996e-01 -1.191306188702583313e-01 -3.062946498394012451e-01 -5.436928868293762207e-01
1.680000000000000000e+03 3.734967422485351562e+01 4.496641635894775391e+00 9.944202750921249390e-02 1.385821342468261719e+01 4.187296867370605469e+00 1.361057043075561523e+00
1.681000000000000000e+03 2.903841018676757812e+01 1.333428382873535156e+01 6.982157230377197266e-01 3.642853498458862305e-01 3.187503218650817871e-01 4.822788536548614502e-01
1.682000000000000000e+03 3.094496726989746094e+01 5.156299114227294922e+00 -2.036074399948120117e+00 -5.441384315490722656e-01 -7.740638852119445801e-01 -7.894715666770935059e-01
1.683000000000000000e+03 3.149058914184570312e+01 2.362283945083618164e+00 7.335516214370727539e-01 2.415396451950073242e+00 9.446844458580017090e-01 4.280053615570068359e+00
1.684000000000000000e+03 2.380529975891113281e+01 1.037159919738769531e+01 -1.623763203620910645e+00 9.609214782714843750e+00 2.395635366439819336e+00 3.801044464111328125e+00
1.685000000000000000e+03 2.482592773437500000e+01 9.097196578979492188e+00 -4.341095089912414551e-01 7.552682876586914062e+00 2.135571956634521484e+00 3.190441608428955078e+00
1.686000000000000000e+03 2.604203033447265625e+01 1.064716053009033203e+01 -8.046926856040954590e-01 6.995035171508789062e+00 1.857102751731872559e+00 2.006147146224975586e+00
1.687000000000000000e+03 6.512094116210937500e+01 -1.423384475708007812e+01 -8.960503935813903809e-01 2.876297712326049805e+00 5.940741896629333496e-01 -5.246461033821105957e-01
1.688000000000000000e+03 8.658355712890625000e+00 1.745134830474853516e+00 3.396835029125213623e-01 7.847714424133300781e+00 2.456219434738159180e+00 -5.728495597839355469e+00
1.689000000000000000e+03 9.900277853012084961e-01 -1.697589039802551270e+00 -1.074748579412698746e-02 -1.744661629199981689e-01 -5.556409433484077454e-02 -1.988268047571182251e-01
1.690000000000000000e+03 4.687450408935546875e+00 1.697197079658508301e+00 -1.501078963279724121e+00 4.127882048487663269e-02 -4.379400312900543213e-01 1.819876432418823242e+00
1.691000000000000000e+03 1.908647537231445312e+00 -1.637209415435791016e+00 -4.309356585144996643e-02 -5.009109899401664734e-02 -2.795539982616901398e-02 -2.632465660572052002e-01
1.692000000000000000e+03 1.756025075912475586e+00 -2.205548763275146484e+00 7.540975511074066162e-02 -5.606152862310409546e-02 5.804467480629682541e-03 -2.524630129337310791e-01
1.693000000000000000e+03 3.890074491500854492e+00 -1.692256450653076172e+00 1.496040821075439453e-01 1.038876250386238098e-01 7.604750990867614746e-02 -1.167335361242294312e-01
1.694000000000000000e+03 4.313958168029785156e+00 -1.738185644149780273e+00 2.582538723945617676e-01 1.391686648130416870e-01 1.192267611622810364e-01 -4.132409393787384033e-02
1.695000000000000000e+03 4.537029266357421875e+00 -1.727654457092285156e+00 3.074695467948913574e-01 1.566444486379623413e-01 1.392342001199722290e-01 -3.062826115638017654e-03
1.696000000000000000e+03 5.431833267211914062e+00 -1.795388221740722656e+00 7.618882656097412109e-01 3.380180597305297852e-01 3.299719095230102539e-01 3.467490077018737793e-01
1.697000000000000000e+03 6.088347434997558594e+00 -1.921700000762939453e+00 1.241289854049682617e+00 5.877588987350463867e-01 5.487146377563476562e-01 7.768795490264892578e-01
1.698000000000000000e+03 6.842421531677246094e+00 -1.857349634170532227e+00 1.865539550781250000e+00 9.284545183181762695e-01 8.381981849670410156e-01 1.349281311035156250e+00
1.699000000000000000e+03 7.079531192779541016e+00 -1.659023880958557129e+00 1.996524572372436523e+00 9.746070504188537598e-01 8.913394808769226074e-01 1.475548982620239258e+00
1.700000000000000000e+03 7.284919738769531250e+00 -1.674675107002258301e+00 2.257469177246093750e+00 1.197592735290527344e+00 1.036518573760986328e+00 1.758936643600463867e+00
1.701000000000000000e+03 7.907734394073486328e+00 -1.943820238113403320e+00 3.018335103988647461e+00 2.841459512710571289e+00 1.757938385009765625e+00 3.169225454330444336e+00
1.702000000000000000e+03 8.489466667175292969e+00 -1.638723373413085938e+00 3.686376571655273438e+00 4.214888572692871094e+00 2.370379447937011719e+00 4.419037818908691406e+00
1.703000000000000000e+03 8.458169937133789062e+00 -1.910294532775878906e+00 3.324258327484130859e+00 4.792500972747802734e+00 2.435027837753295898e+00 4.384035110473632812e+00
1.704000000000000000e+03 8.900445938110351562e+00 -1.678946733474731445e+00 3.585727214813232422e+00 6.961417198181152344e+00 3.164143323898315430e+00 5.438377380371093750e+00
1.705000000000000000e+03 8.209059715270996094e+00 -2.092226743698120117e+00 3.012053251266479492e+00 4.085552692413330078e+00 2.129281759262084961e+00 3.876897811889648438e+00
1.706000000000000000e+03 9.053322792053222656e+00 -2.183994770050048828e+00 2.329578161239624023e+00 8.689448356628417969e+00 3.305708169937133789e+00 5.072753429412841797e+00
1.707000000000000000e+03 9.104251861572265625e+00 -1.659605622291564941e+00 3.451422214508056641e+00 8.503594398498535156e+00 3.586504936218261719e+00 5.964136123657226562e+00
1.708000000000000000e+03 9.419342041015625000e+00 -1.975872635841369629e+00 2.023114681243896484e+00 1.142880630493164062e+01 4.035576343536376953e+00 5.372202873229980469e+00
1.709000000000000000e+03 9.891942977905273438e+00 -1.681045651435852051e+00 1.371680378913879395e+00 1.642077255249023438e+01 5.337735652923583984e+00 4.937431812286376953e+00
1.710000000000000000e+03 9.611454963684082031e+00 -2.390757560729980469e+00 9.988928437232971191e-01 1.208892345428466797e+01 3.926344871520996094e+00 4.239596843719482422e+00
1.711000000000000000e+03 7.305739879608154297e+00 1.623236060142517090e+00 -9.088844656944274902e-01 1.972820878028869629e+00 3.191809058189392090e-01 -6.269004940986633301e-01
1.712000000000000000e+03 5.638632774353027344e+00 2.137128353118896484e+00 -1.699433177709579468e-01 7.190282940864562988e-01 1.647254824638366699e-01 1.346149444580078125e+00
1.713000000000000000e+03 6.078558921813964844e+00 1.658766746520996094e+00 -1.633506059646606445e+00 5.482817888259887695e-01 -3.255672752857208252e-01 1.255650639533996582e+00
1.714000000000000000e+03 5.209028720855712891e+00 2.190051555633544922e+00 -1.668937653303146362e-01 3.417958021163940430e-01 5.247060582041740417e-02 1.652761101722717285e+00
1.715000000000000000e+03 5.888148784637451172e+00 1.632680535316467285e+00 -1.753064632415771484e+00 6.055071949958801270e-01 -3.442672193050384521e-01 1.401726841926574707e+00
1.716000000000000000e+03 5.303832530975341797e+00 1.672015428543090820e+00 -1.563619613647460938e+00 1.694771349430084229e-01 -4.182427525520324707e-01 1.745172739028930664e+00
1.717000000000000000e+03 5.101736545562744141e+00 1.677646756172180176e+00 -1.582521915435791016e+00 1.773082911968231201e-01 -4.215640723705291748e-01 1.758398771286010742e+00
1.718000000000000000e+03 5.002766132354736328e+00 1.954702854156494141e+00 -9.178549647331237793e-01 1.681436598300933838e-01 -2.249133884906768799e-01 1.835431456565856934e+00
1.719000000000000000e+03 3.691422224044799805e+00 1.639055490493774414e+00 -1.363408327102661133e+00 -2.144660204648971558e-01 -4.733622968196868896e-01 1.888487219810485840e+00
1.720000000000000000e+03 3.295429706573486328e+00 1.923369407653808594e+00 -7.998189330101013184e-01 -2.415120899677276611e-01 -3.123992979526519775e-01 1.906992435455322266e+00
1.721000000000000000e+03 3.681223154067993164e+00 1.932525992393493652e+00 -8.787671923637390137e-01 -1.443148553371429443e-01 -3.069246113300323486e-01 1.923329353332519531e+00
1.722000000000000000e+03 3.913735866546630859e+00 2.222275733947753906e+00 -3.809624314308166504e-01 -1.127212420105934143e-01 -1.481050997972488403e-01 1.983200073242187500e+00
1.723000000000000000e+03 3.483909606933593750e+00 1.937013149261474609e+00 -8.320478796958923340e-01 -2.786170244216918945e-01 -3.331994712352752686e-01 1.966253042221069336e+00
1.724000000000000000e+03 2.090332746505737305e+00 2.414639234542846680e+00 -1.654599905014038086e-01 -8.234168291091918945e-01 -2.966630458831787109e-01 1.620901703834533691e+00
1.725000000000000000e+03 1.873629450798034668e+00 2.677920579910278320e+00 -8.065999299287796021e-02 -1.074227333068847656e+00 -3.464661836624145508e-01 1.508150458335876465e+00
1.726000000000000000e+03 1.005620861053466797e+01 1.683150291442871094e+00 -1.644807815551757812e+00 2.018778419494628906e+01 5.562892913818359375e+00 -8.672916412353515625e+00
1.727000000000000000e+03 9.859295845031738281e+00 -2.366939067840576172e+00 5.987217426300048828e-01 1.350065326690673828e+01 4.229812622070312500e+00 3.577686548233032227e+00
1.728000000000000000e+03 1.033889579772949219e+01 -1.689569234848022461e+00 7.948959469795227051e-01 1.900403976440429688e+01 5.939681053161621094e+00 2.057533979415893555e+00
1.729000000000000000e+03 1.149105262756347656e+01 -9.876180887222290039e-01 5.902865886688232422e+00 1.703672218322753906e+01 6.881876468658447266e+00 -4.087788581848144531e+00
1.730000000000000000e+03 1.132532024383544922e+01 1.630150556564331055e+00 3.181063175201416016e+00 1.788407897949218750e+01 6.319542407989501953e+00 -1.644787669181823730e+00
1.731000000000000000e+03 1.315599346160888672e+01 1.559667110443115234e+00 6.809152603149414062e+00 7.345678806304931641e+00 4.246449470520019531e+00 2.032865047454833984e+00
1.732000000000000000e+03 1.261236000061035156e+01 -8.202300071716308594e-01 5.852459907531738281e+00 1.173634815216064453e+01 5.276642322540283203e+00 -3.366792678833007812e+00
1.733000000000000000e+03 1.081431484222412109e+01 2.088003635406494141e+00 8.349969983100891113e-02 1.901716613769531250e+01 5.730199337005615234e+00 -4.844688415527343750e+00
1.734000000000000000e+03 1.027535247802734375e+01 1.702852964401245117e+00 -1.377023220062255859e+00 2.097259712219238281e+01 5.878672122955322266e+00 -6.773523330688476562e+00
1.735000000000000000e+03 1.296820354461669922e+01 -4.044064879417419434e-01 5.254786014556884766e+00 1.029003334045410156e+01 4.663445949554443359e+00 -1.410587668418884277e+00
1.736000000000000000e+03 1.650218963623046875e+00 2.210631847381591797e+00 -2.469016611576080322e-01 -8.733993768692016602e-01 -3.360903263092041016e-01 1.408186435699462891e+00
1.737000000000000000e+03 7.692431211471557617e-01 2.234076261520385742e+00 -2.068070322275161743e-02 -1.314865708351135254e+00 -4.006639420986175537e-01 7.429848313331604004e-01
1.738000000000000000e+03 7.279221343994140625e+01 -6.739193201065063477e-01 -1.286062240600585938e+00 1.832023024559020996e+00 1.637882292270660400e-01 -2.923385381698608398e+00
1.739000000000000000e+03 2.814891433715820312e+01 1.442110347747802734e+01 2.618366479873657227e+00 3.158471107482910156e+00 1.733051300048828125e+00 2.258010387420654297e+00
1.740000000000000000e+03 1.242238759994506836e+00 -2.304660558700561523e+00 2.763023972511291504e-02 -2.070687264204025269e-01 -5.383154377341270447e-02 -2.094467729330062866e-01
1.741000000000000000e+03 2.632100105285644531e+01 -1.045293807983398438e+01 8.526664376258850098e-01 7.694565296173095703e+00 2.564169406890869141e+00 3.878593817353248596e-02
1.742000000000000000e+03 2.997585105895996094e+01 -1.040463733673095703e+01 7.331498861312866211e-01 4.263235569000244141e+00 1.498915672302246094e+00 -1.283915638923645020e+00
1.743000000000000000e+03 4.685291671752929688e+01 1.486939549446105957e+00 -9.450031518936157227e-01 2.651982069015502930e+00 5.120937228202819824e-01 2.251357793807983398e+00
1.744000000000000000e+03 7.336796569824218750e+01 -1.624041557312011719e+01 9.338933229446411133e-02 1.009656429290771484e+01 3.056986093521118164e+00 3.561338484287261963e-01
1.745000000000000000e+03 4.147437286376953125e+01 -1.742756462097167969e+01 -6.591098904609680176e-01 8.754549026489257812e+00 2.428631782531738281e+00 1.927682459354400635e-01
1.746000000000000000e+03 6.676619720458984375e+01 1.343964958190917969e+01 9.616563916206359863e-01 1.158443641662597656e+01 3.763827800750732422e+00 1.206225752830505371e+00
1.747000000000000000e+03 5.179637527465820312e+01 1.596546840667724609e+01 -3.925093263387680054e-02 1.076234531402587891e+01 3.216928482055664062e+00 8.769973516464233398e-01
1.748000000000000000e+03 5.428823852539062500e+01 3.711484074592590332e-01 -4.366830825805664062e+00 1.172178459167480469e+01 2.206485986709594727e+00 -2.665498256683349609e+00
1.749000000000000000e+03 3.614998245239257812e+01 6.670622825622558594e-01 3.533952951431274414e+00 6.132918357849121094e+00 2.900061368942260742e+00 1.487003922462463379e+00
1.750000000000000000e+03 6.236448287963867188e+00 2.025211811065673828e+00 -3.150894641876220703e-01 1.040645241737365723e+00 2.176667302846908569e-01 9.458322525024414062e-01
1.751000000000000000e+03 5.240311050415039062e+01 2.291780710220336914e+00 3.064789533615112305e+00 1.072088718414306641e+01 4.135703086853027344e+00 4.318619072437286377e-01
1.752000000000000000e+03 5.017245864868164062e+01 1.727641487121582031e+01 -1.154776930809020996e+00 7.157659053802490234e+00 1.800864577293395996e+00 -1.760294079780578613e+00
1.753000000000000000e+03 4.647988891601562500e+01 1.768972015380859375e+01 1.264984130859375000e+00 1.848486185073852539e+00 9.340410828590393066e-01 -8.660340309143066406e-02
1.754000000000000000e+03 3.677238082885742188e+01 -2.436269998550415039e+00 -5.135238170623779297e+00 5.936901092529296875e+00 2.404989004135131836e-01 3.266426324844360352e-01
1.755000000000000000e+03 3.199773597717285156e+01 7.397437691688537598e-01 3.096249341964721680e+00 1.109454393386840820e+00 1.261711120605468750e+00 8.352110862731933594e+00
1.756000000000000000e+03 3.867036819458007812e+01 -5.727661609649658203e+00 4.966990053653717041e-01 3.038123846054077148e+00 1.060446858406066895e+00 -1.660338044166564941e+00
1.757000000000000000e+03 4.352014160156250000e+01 -7.288148403167724609e-01 -4.825830936431884766e+00 3.866545438766479492e+00 -2.877856791019439697e-01 9.210296273231506348e-01
1.758000000000000000e+03 4.490838623046875000e+01 -3.035614490509033203e+00 1.867331027984619141e+00 1.076184177398681641e+01 3.788751840591430664e+00 3.730048418045043945e+00
1.759000000000000000e+03 5.785103225708007812e+01 1.228527545928955078e+01 -4.793020784854888916e-01 1.035193800926208496e+00 1.667675375938415527e-01 3.701207041740417480e-01
1.760000000000000000e+03 5.373534774780273438e+01 1.133130741119384766e+01 9.406613707542419434e-01 9.538523674011230469e+00 3.143755435943603516e+00 4.836139678955078125e-01
1.761000000000000000e+03 5.289475250244140625e+01 6.349560737609863281e+00 -6.287336349487304688e-01 1.316425514221191406e+01 3.760656595230102539e+00 -8.425706028938293457e-01
1.762000000000000000e+03 5.449110031127929688e+01 7.916345596313476562e+00 -1.119673728942871094e+00 9.900896072387695312e+00 2.634366512298583984e+00 2.968591153621673584e-01
1.763000000000000000e+03 1.032409572601318359e+01 3.763844728469848633e+00 5.891407132148742676e-01 2.559787940979003906e+01 7.856106281280517578e+00 -7.672036647796630859e+00
1.764000000000000000e+03 7.218927764892578125e+01 -1.778773689270019531e+01 -1.720182061195373535e+00 7.321963787078857422e+00 1.680534482002258301e+00 2.050472259521484375e+00
1.765000000000000000e+03 6.810931396484375000e+01 -1.763167381286621094e+01 3.844075798988342285e-01 1.348424315452575684e+00 5.198495984077453613e-01 7.102457433938980103e-02
1.766000000000000000e+03 6.976860809326171875e+01 -1.830918693542480469e+01 1.051818966865539551e+00 3.272141456604003906e+00 1.297188162803649902e+00 2.511170387268066406e+00
1.767000000000000000e+03 5.809263610839843750e+01 1.502177333831787109e+01 7.929825186729431152e-01 2.316483974456787109e+00 9.328399300575256348e-01 1.469791889190673828e+00
1.768000000000000000e+03 6.509773254394531250e+01 -1.470427751541137695e+00 -4.579105377197265625e+00 1.749816298484802246e+00 -8.487867712974548340e-01 4.955147743225097656e+00
1.769000000000000000e+03 6.492829132080078125e+01 3.645500659942626953e+00 -4.551778733730316162e-01 5.871393680572509766e+00 1.624864697456359863e+00 1.507036805152893066e+00
1.770000000000000000e+03 6.430692291259765625e+01 -1.670214682817459106e-01 -2.791745424270629883e+00 5.635552883148193359e+00 8.531423211097717285e-01 5.236887931823730469e+00
1.771000000000000000e+03 6.172659683227539062e+01 -1.419403672218322754e+00 -1.862291932106018066e+00 6.633754730224609375e+00 1.431438803672790527e+00 1.386670589447021484e+00
1.772000000000000000e+03 3.859758758544921875e+01 6.787949085235595703e+00 -1.575098633766174316e+00 1.016148853302001953e+01 2.575917005538940430e+00 1.110060095787048340e+00
1.773000000000000000e+03 3.920209503173828125e+01 7.802052021026611328e+00 -8.465299606323242188e-01 7.960814952850341797e+00 2.134285449981689453e+00 6.343734264373779297e-01
1.774000000000000000e+03 2.101833152770996094e+01 2.001801109313964844e+01 -2.220312595367431641e+00 2.520077824592590332e-01 -5.904914736747741699e-01 -4.941858351230621338e-01
1.775000000000000000e+03 7.030884552001953125e+01 -2.013716697692871094e-01 -2.721223831176757812e+00 6.321896553039550781e+00 1.080201864242553711e+00 -3.591869115829467773e+00
1.776000000000000000e+03 6.880027008056640625e+01 -3.703833341598510742e+00 -3.418395042419433594e+00 2.355071544647216797e+00 -3.189970850944519043e-01 1.507432311773300171e-01
1.777000000000000000e+03 1.489999294281005859e+01 1.543031692504882812e+01 -2.687406063079833984e+00 1.757673382759094238e+00 -2.789197862148284912e-01 1.738752871751785278e-01
1.778000000000000000e+03 1.387761116027832031e+01 3.946702957153320312e+00 5.790807247161865234e+00 -9.736862033605575562e-02 1.708031535148620605e+00 4.245637655258178711e-01
1.779000000000000000e+03 1.321226978302001953e+01 2.447435140609741211e+00 5.798613548278808594e+00 5.081358432769775391e+00 3.263991594314575195e+00 1.570618391036987305e+00
1.780000000000000000e+03 2.279165649414062500e+01 9.971107482910156250e+00 2.739527262747287750e-03 8.129983901977539062e+00 2.439816951751708984e+00 4.065093517303466797e+00
1.781000000000000000e+03 2.308302497863769531e+01 8.792352676391601562e+00 -1.523405671119689941e+00 8.255431175231933594e+00 2.019607782363891602e+00 2.796065330505371094e+00
1.782000000000000000e+03 3.019138908386230469e+01 -7.407194137573242188e+00 4.574549794197082520e-01 4.315060615539550781e+00 1.431754589080810547e+00 -5.187730789184570312e-01
1.783000000000000000e+03 3.717861175537109375e+01 -2.098928070068359375e+01 3.695173263549804688e-01 2.988818168640136719e+00 1.007500648498535156e+00 4.417070448398590088e-01
1.784000000000000000e+03 5.837710189819335938e+01 -1.743292427062988281e+01 1.222920536994934082e+00 8.777804374694824219e+00 3.000217437744140625e+00 -3.146128058433532715e-01
1.785000000000000000e+03 3.161657524108886719e+01 4.227334022521972656e+00 -8.515757918357849121e-01 1.144490242004394531e+00 8.787433058023452759e-02 1.000648975372314453e+00
1.786000000000000000e+03 3.421401596069335938e+01 7.556751966476440430e-01 3.426153659820556641e+00 5.982680320739746094e-01 1.207326531410217285e+00 2.456800699234008789e+00
1.787000000000000000e+03 4.996910095214843750e+00 -3.034801673889160156e+01 -4.088319465517997742e-02 3.718669414520263672e+00 1.103335857391357422e+00 8.730002492666244507e-02
1.788000000000000000e+03 3.501199483871459961e+00 -2.911190414428710938e+01 -2.651471830904483795e-02 3.661318302154541016e+00 1.090441107749938965e+00 8.435710519552230835e-02
1.789000000000000000e+03 2.177019357681274414e+00 -3.690368652343750000e+01 -3.855689137708395720e-04 3.729122161865234375e+00 1.118620991706848145e+00 1.046269014477729797e-02
1.790000000000000000e+03 1.433877706527709961e+00 -1.039963245391845703e+01 -1.280869171023368835e-02 1.393890738487243652e+00 4.143246114253997803e-01 4.608781337738037109e-01
1.791000000000000000e+03 1.835006952285766602e+00 -1.702477455139160156e+01 -4.532267898321151733e-02 2.850227117538452148e+00 8.414713740348815918e-01 2.797790169715881348e-01
1.792000000000000000e+03 3.372586488723754883e+00 -2.501128768920898438e+01 -3.687898069620132446e-02 3.548196792602539062e+00 1.053395390510559082e+00 1.456501483917236328e-01
1.793000000000000000e+03 3.434615612030029297e+00 -2.773372268676757812e+01 -2.739147096872329712e-02 3.628074645996093750e+00 1.080204963684082031e+00 9.836275875568389893e-02
1.794000000000000000e+03 3.267313957214355469e+00 -2.094923973083496094e+01 -7.185243070125579834e-02 3.369347333908081055e+00 9.892484545707702637e-01 2.560454905033111572e-01
1.795000000000000000e+03 2.644771575927734375e+00 -1.291896533966064453e+01 -9.771034866571426392e-02 2.434638500213623047e+00 7.010784745216369629e-01 6.155171394348144531e-01
1.796000000000000000e+03 1.428630828857421875e+00 -7.869899749755859375e+00 2.462122403085231781e-02 6.506965160369873047e-01 2.025953233242034912e-01 4.461233913898468018e-01
1.797000000000000000e+03 2.370775699615478516e+00 -8.090799331665039062e+00 5.676044151186943054e-02 1.272100448608398438e+00 3.986582458019256592e-01 7.088481783866882324e-01
1.798000000000000000e+03 2.346332788467407227e+00 -9.228602409362792969e+00 2.673453185707330704e-03 1.533214688301086426e+00 4.607664346694946289e-01 7.232097387313842773e-01
1.799000000000000000e+03 2.923386573791503906e+00 -1.554012012481689453e+01 -1.081984639167785645e-01 2.877453565597534180e+00 8.307765126228332520e-01 4.878532290458679199e-01
1.800000000000000000e+03 2.010334014892578125e+00 -2.381386184692382812e+01 -1.428285334259271622e-02 3.438580513000488281e+00 1.027289271354675293e+00 1.137074008584022522e-01
1.801000000000000000e+03 3.310513734817504883e+00 -2.230220031738281250e+01 -5.211465060710906982e-02 3.437042236328125000e+00 1.015478253364562988e+00 2.124585658311843872e-01
1.802000000000000000e+03 2.184110879898071289e+00 -3.067079925537109375e+01 -9.570181369781494141e-03 3.664906024932861328e+00 1.096600770950317383e+00 4.473314806818962097e-02
1.803000000000000000e+03 3.400681734085083008e+00 -2.637450790405273438e+01 -3.681823983788490295e-02 3.594744682312011719e+00 1.067377924919128418e+00 1.250685602426528931e-01
1.804000000000000000e+03 4.225455284118652344e+00 -1.672677612304687500e+01 -1.772008538246154785e-01 3.268614292144775391e+00 9.274240136146545410e-01 5.201789140701293945e-01
1.805000000000000000e+03 3.206631660461425781e+00 -1.959148216247558594e+01 -7.250422984361648560e-02 3.277259588241577148e+00 9.614266157150268555e-01 3.043152987957000732e-01
1.806000000000000000e+03 3.367191791534423828e+00 -1.043056297302246094e+01 -8.296106755733489990e-02 2.319853544235229492e+00 6.710677146911621094e-01 9.009199738502502441e-01
1.807000000000000000e+03 3.771628856658935547e+00 -3.318244934082031250e+01 -1.691241562366485596e-02 3.716791868209838867e+00 1.109963774681091309e+00 4.361010715365409851e-02
1.808000000000000000e+03 3.684158563613891602e+00 -3.188493728637695312e+01 -1.889738626778125763e-02 3.704009056091308594e+00 1.105533480644226074e+00 5.764315277338027954e-02
1.809000000000000000e+03 4.264443874359130859e+00 -3.428847885131835938e+01 -1.847694255411624908e-02 3.738605022430419922e+00 1.116038441658020020e+00 4.324537888169288635e-02
1.810000000000000000e+03 7.283915710449218750e+01 -7.238735675811767578e+00 -2.151629179716110229e-01 7.820721149444580078e+00 2.281667470932006836e+00 5.236383676528930664e-01
1.811000000000000000e+03 7.093643951416015625e+01 -5.365437507629394531e+00 -8.561027050018310547e-01 4.256152629852294922e+00 1.020014882087707520e+00 -1.014532327651977539e+00
1.812000000000000000e+03 1.603701400756835938e+01 1.615369796752929688e+01 -3.072065591812133789e+00 1.367194056510925293e+00 -5.114614963531494141e-01 -4.404030740261077881e-02
1.813000000000000000e+03 4.182074356079101562e+01 1.409441184997558594e+01 1.298235416412353516e+00 3.093250036239624023e+00 1.317445635795593262e+00 2.353924989700317383e+00
1.814000000000000000e+03 4.306399154663085938e+01 1.336058425903320312e+01 6.797190308570861816e-01 8.128454685211181641e-01 4.477693438529968262e-01 1.099301457405090332e+00
1.815000000000000000e+03 1.768506050109863281e+01 6.204688549041748047e+00 1.708484530448913574e+00 4.491195082664489746e-01 6.472812294960021973e-01 2.473493337631225586e+00
1.816000000000000000e+03 1.304746341705322266e+01 5.658109784126281738e-01 6.492370605468750000e+00 9.388274192810058594e+00 4.764193534851074219e+00 9.199490770697593689e-03
1.817000000000000000e+03 1.815791702270507812e+01 -8.268537521362304688e+00 4.996395409107208252e-01 3.581417798995971680e+00 1.224317193031311035e+00 -1.772998571395874023e+00
1.818000000000000000e+03 2.211513137817382812e+01 2.908730268478393555e+00 3.617406129837036133e+00 9.691536903381347656e+00 3.992682933807373047e+00 3.449217379093170166e-01
1.819000000000000000e+03 1.992851829528808594e+01 -8.541063308715820312e+00 4.981135427951812744e-01 2.363782405853271484e+00 8.585687875747680664e-01 -1.350083827972412109e+00
1.820000000000000000e+03 4.062617874145507812e+01 1.011527442932128906e+01 8.569120764732360840e-01 2.962505102157592773e+00 1.145825147628784180e+00 4.645286500453948975e-01
1.821000000000000000e+03 3.170272064208984375e+01 -1.446802711486816406e+01 -5.551219582557678223e-01 3.214714050292968750e+00 7.978776097297668457e-01 -1.007888078689575195e+00
1.822000000000000000e+03 7.463346862792968750e+01 -3.754040145874023438e+01 4.355002194643020630e-02 6.290652275085449219e+00 1.900260686874389648e+00 4.253523424267768860e-02
1.823000000000000000e+03 7.498126983642578125e+01 -3.190388488769531250e+01 1.119330450892448425e-01 6.393686294555664062e+00 1.951685905456542969e+00 1.976412832736968994e-01
1.824000000000000000e+03 7.697209930419921875e+01 -3.600395584106445312e+01 1.628038659691810608e-02 6.527492046356201172e+00 1.963131785392761230e+00 7.778400182723999023e-02
1.825000000000000000e+03 7.569879913330078125e+01 -2.075013923645019531e+01 -3.656348884105682373e-01 7.592394351959228516e+00 2.168027877807617188e+00 2.830586433410644531e-01
1.826000000000000000e+03 7.793640136718750000e+01 -2.784469985961914062e+01 -1.119787339121103287e-02 6.947869777679443359e+00 2.081001520156860352e+00 1.694784760475158691e-01
1.827000000000000000e+03 7.524314880371093750e+01 1.642713737487792969e+01 5.470128059387207031e-01 6.169241905212402344e+00 2.014876365661621094e+00 -4.186858832836151123e-01
1.828000000000000000e+03 7.552307128906250000e+01 1.741602325439453125e+01 4.380363523960113525e-01 6.356598854064941406e+00 2.038390636444091797e+00 -3.428391218185424805e-01
1.829000000000000000e+03 7.737448120117187500e+01 3.539844894409179688e+01 -1.388553762808442116e-03 6.462327480316162109e+00 1.938281655311584473e+00 -8.746726438403129578e-03
1.830000000000000000e+03 7.651251983642578125e+01 3.331597900390625000e+01 -8.166939020156860352e-03 6.412090301513671875e+00 1.921177029609680176e+00 -1.499618683010339737e-02
1.831000000000000000e+03 7.684194946289062500e+01 -2.223962211608886719e+01 -1.410083174705505371e-01 7.330287456512451172e+00 2.156783819198608398e+00 1.874448508024215698e-01
1.832000000000000000e+03 7.646713256835937500e+01 -2.916864204406738281e+01 1.853031292557716370e-02 6.671226978302001953e+00 2.006927251815795898e+00 2.185332477092742920e-01
1.833000000000000000e+03 7.650767517089843750e+01 -2.780031394958496094e+01 8.879149705171585083e-02 6.738772869110107422e+00 2.048269271850585938e+00 2.558847367763519287e-01
1.834000000000000000e+03 7.800410461425781250e+01 -3.466751480102539062e+01 2.493013255298137665e-02 6.640373229980468750e+00 1.999590992927551270e+00 6.093304604291915894e-02
1.835000000000000000e+03 7.657897949218750000e+01 -2.642701339721679688e+01 -2.510017715394496918e-02 6.836192131042480469e+00 2.043327569961547852e+00 2.843602895736694336e-01
1.836000000000000000e+03 7.676523590087890625e+01 -2.364937400817871094e+01 -1.454888433218002319e-01 7.106098175048828125e+00 2.088182926177978516e+00 2.727741003036499023e-01
1.837000000000000000e+03 7.549281311035156250e+01 -2.356486511230468750e+01 -1.792684942483901978e-02 6.912374496459960938e+00 2.068334341049194336e+00 4.184816181659698486e-01
1.838000000000000000e+03 7.644731140136718750e+01 -3.194137573242187500e+01 2.685546316206455231e-02 6.560061931610107422e+00 1.976075172424316406e+00 1.394703239202499390e-01
1.839000000000000000e+03 7.660031127929687500e+01 -3.473046493530273438e+01 2.144728787243366241e-02 6.523766517639160156e+00 1.963564157485961914e+00 9.599119424819946289e-02
1.840000000000000000e+03 7.478729248046875000e+01 -4.038129806518554688e+01 3.704756870865821838e-02 6.301930904388427734e+00 1.901693463325500488e+00 1.582908257842063904e-02
1.841000000000000000e+03 7.810230255126953125e+01 2.243133163452148438e+01 4.317639395594596863e-02 6.525216579437255859e+00 1.970517873764038086e+00 -2.628759248182177544e-03
1.842000000000000000e+03 7.693755340576171875e+01 2.110218048095703125e+01 9.730567783117294312e-02 6.531092166900634766e+00 1.988519430160522461e+00 -4.793404415249824524e-02
1.843000000000000000e+03 7.573200225830078125e+01 2.242298316955566406e+01 7.088856399059295654e-02 6.485912322998046875e+00 1.967040300369262695e+00 -1.762240566313266754e-02
1.844000000000000000e+03 7.800650787353515625e+01 1.395783424377441406e+01 -2.328508906066417694e-02 7.319214820861816406e+00 2.188778877258300781e+00 -5.329058170318603516e-01
1.845000000000000000e+03 7.696370697021484375e+01 1.465797138214111328e+01 9.667821228504180908e-02 6.906717777252197266e+00 2.101018667221069336e+00 -6.936230063438415527e-01
1.846000000000000000e+03 7.585958099365234375e+01 1.368227863311767578e+01 2.654792964458465576e-01 6.567267894744873047e+00 2.049824237823486328e+00 -1.190978765487670898e+00
1.847000000000000000e+03 7.610672760009765625e+01 1.574602317810058594e+01 3.855113387107849121e-01 6.495903968811035156e+00 2.064424514770507812e+00 -6.740646958351135254e-01
1.848000000000000000e+03 7.674221801757812500e+01 2.385692787170410156e+01 3.828187659382820129e-02 6.488632678985595703e+00 1.958074331283569336e+00 -2.964649582281708717e-03
1.849000000000000000e+03 7.808405303955078125e+01 2.650198745727539062e+01 -2.791910618543624878e-02 6.515297889709472656e+00 1.946213722229003906e+00 1.313299965113401413e-02
1.850000000000000000e+03 7.530155181884765625e+01 1.165504646301269531e+01 -3.107077181339263916e-01 6.858827590942382812e+00 1.964436054229736328e+00 -2.277159214019775391e+00
1.851000000000000000e+03 7.781824493408203125e+01 3.059556579589843750e+01 4.580521956086158752e-03 6.495255947113037109e+00 1.949950933456420898e+00 -8.656173013150691986e-03
1.852000000000000000e+03 7.670272827148437500e+01 2.894561386108398438e+01 1.273027062416076660e-02 6.443095207214355469e+00 1.936747550964355469e+00 -1.332090981304645538e-02
1.853000000000000000e+03 7.813163757324218750e+01 -2.087278938293457031e+01 -8.835512399673461914e-02 7.488083839416503906e+00 2.219918727874755859e+00 -6.683433800935745239e-02
1.854000000000000000e+03 7.690308380126953125e+01 -2.082208251953125000e+01 -3.211236000061035156e-01 7.506819248199462891e+00 2.155708789825439453e+00 1.511872652918100357e-02
1.855000000000000000e+03 7.592745971679687500e+01 9.339418411254882812e+00 -1.116157889366149902e+00 1.183867740631103516e+01 3.216755628585815430e+00 -1.704537272453308105e+00
1.856000000000000000e+03 7.841893768310546875e+01 9.637804985046386719e+00 -3.073773980140686035e-01 8.434444427490234375e+00 2.438120126724243164e+00 4.331641197204589844e-01
1.857000000000000000e+03 7.799180603027343750e+01 -7.065564632415771484e+00 5.227929726243019104e-02 9.358015060424804688e+00 2.823088407516479492e+00 1.398570179939270020e+00
1.858000000000000000e+03 7.515544128417968750e+01 3.579213714599609375e+01 -1.141992211341857910e-02 6.321026802062988281e+00 1.892882108688354492e+00 -2.089747972786426544e-02
1.859000000000000000e+03 7.674919891357421875e+01 3.677968215942382812e+01 6.380710285156965256e-03 6.403283119201660156e+00 1.922899127006530762e+00 -1.369059178978204727e-02
1.860000000000000000e+03 7.691566467285156250e+01 1.974868011474609375e+01 8.766949921846389771e-02 6.544796943664550781e+00 1.989740014076232910e+00 -1.004045680165290833e-01
1.861000000000000000e+03 7.641374969482421875e+01 8.581043243408203125e+00 2.850145697593688965e-01 1.197007751464843750e+01 3.676527738571166992e+00 -1.648168116807937622e-01
1.862000000000000000e+03 7.614427185058593750e+01 -1.527999162673950195e+00 -1.037459135055541992e+00 7.438413619995117188e+00 1.920286297798156738e+00 1.387719273567199707e+00
1.863000000000000000e+03 7.527911376953125000e+01 -1.007277870178222656e+01 9.529242515563964844e-01 9.457733154296875000e+00 3.123197317123413086e+00 1.291689038276672363e+00
1.864000000000000000e+03 7.628298950195312500e+01 -1.069030761718750000e+01 5.534442663192749023e-01 8.737436294555664062e+00 2.787264108657836914e+00 1.289488673210144043e+00
1.865000000000000000e+03 7.830734252929687500e+01 -1.535681152343750000e+01 2.007150650024414062e-01 7.136644840240478516e+00 2.201208114624023438e+00 -2.388153970241546631e-01
1.866000000000000000e+03 7.610153961181640625e+01 -1.399549388885498047e+01 7.241951227188110352e-01 8.642604827880859375e+00 2.810039997100830078e+00 1.943817287683486938e-01
1.867000000000000000e+03 7.769461822509765625e+01 9.008490562438964844e+00 -3.241499364376068115e-01 1.009075450897216797e+01 2.929981231689453125e+00 2.974717020988464355e-01
1.868000000000000000e+03 7.814714813232421875e+01 1.299619078636169434e+00 -9.944208860397338867e-01 1.206571388244628906e+01 3.321387767791748047e+00 -9.461514353752136230e-01
1.869000000000000000e+03 7.603027343750000000e+01 8.421014547348022461e-01 -3.015040636062622070e+00 8.016620635986328125e+00 1.500473976135253906e+00 7.904322147369384766e-01
1.870000000000000000e+03 7.833484649658203125e+01 -1.402473068237304688e+01 1.257282942533493042e-01 7.170731067657470703e+00 2.188937664031982422e+00 -8.376386947929859161e-03
1.871000000000000000e+03 7.829648590087890625e+01 -1.268884277343750000e+01 3.582798540592193604e-01 7.289244651794433594e+00 2.294257402420043945e+00 2.855613827705383301e-01
1.872000000000000000e+03 7.589401245117187500e+01 3.461439895629882812e+01 2.497776877135038376e-03 6.373900413513183594e+00 1.912919521331787109e+00 -3.162159817293286324e-03
1.873000000000000000e+03 7.272266387939453125e+01 3.489171981811523438e+01 -1.590450108051300049e-02 6.169775485992431641e+00 1.846161365509033203e+00 8.750969544053077698e-03
1.874000000000000000e+03 7.615960693359375000e+01 3.143527603149414062e+01 -3.034563735127449036e-03 6.412726879119873047e+00 1.922907710075378418e+00 -2.352080680429935455e-02
1.875000000000000000e+03 7.684232330322265625e+01 1.839783477783203125e+01 2.097107023000717163e-01 6.576588153839111328e+00 2.035889625549316406e+00 -2.315901964902877808e-01
1.876000000000000000e+03 7.558055877685546875e+01 -4.824398517608642578e+00 -2.974316179752349854e-01 8.023902893066406250e+00 2.317941427230834961e+00 1.428426504135131836e+00
1.877000000000000000e+03 7.666172027587890625e+01 -7.284656524658203125e+00 1.347235739231109619e-01 9.127642631530761719e+00 2.778709888458251953e+00 1.773183584213256836e+00
1.878000000000000000e+03 7.670394897460937500e+01 -3.796045303344726562e+00 -1.627385467290878296e-01 8.962638854980468750e+00 2.639970064163208008e+00 1.365209460258483887e+00
1.879000000000000000e+03 7.685319519042968750e+01 -9.681890487670898438e+00 5.289644598960876465e-01 8.803266525268554688e+00 2.799669265747070312e+00 1.433769583702087402e+00
1.880000000000000000e+03 7.482556152343750000e+01 -1.098573398590087891e+01 8.106597065925598145e-01 1.009070110321044922e+01 3.270408153533935547e+00 1.196880698204040527e+00
1.881000000000000000e+03 7.695503997802734375e+01 -1.940994453430175781e+01 -2.124263942241668701e-01 7.729028224945068359e+00 2.254980564117431641e+00 -1.526732742786407471e-01
1.882000000000000000e+03 5.638961410522460938e+01 -5.801081180572509766e+00 -6.720128059387207031e-01 5.643676757812500000e+00 1.491499185562133789e+00 -1.100197553634643555e+00
1.883000000000000000e+03 5.003014373779296875e+01 -2.103103256225585938e+01 1.867568790912628174e-01 2.258007049560546875e+00 7.334291934967041016e-01 -6.550121307373046875e-01
1.884000000000000000e+03 5.040984344482421875e+01 1.606196314096450806e-01 -2.701655030250549316e-01 4.653742313385009766e+00 1.315073013305664062e+00 1.685745954513549805e+00
1.885000000000000000e+03 4.868442153930664062e+01 2.346132278442382812e+00 8.808661103248596191e-01 3.274217605590820312e+00 1.246525049209594727e+00 1.958412766456604004e+00
1.886000000000000000e+03 4.369389343261718750e+01 1.711746597290039062e+01 3.982602357864379883e-01 2.687177419662475586e+00 9.256312847137451172e-01 1.519175171852111816e+00
1.887000000000000000e+03 7.200926208496093750e+01 -6.291208744049072266e+00 -7.175531983375549316e-01 6.596869945526123047e+00 1.763795018196105957e+00 -7.322752475738525391e-01
1.888000000000000000e+03 3.436682128906250000e+01 1.964954972267150879e+00 4.766169548034667969e+00 2.105835437774658203e+00 2.061601400375366211e+00 2.678632497787475586e+00
1.889000000000000000e+03 4.027494812011718750e+01 1.181966686248779297e+01 2.441746950149536133e+00 4.784996032714843750e+00 2.168022871017456055e+00 1.660218834877014160e+00
1.890000000000000000e+03 1.926479530334472656e+01 1.838706588745117188e+01 -2.673841714859008789e+00 9.363886713981628418e-02 -7.740609049797058105e-01 -2.652585878968238831e-02
1.891000000000000000e+03 2.157892608642578125e+01 -1.049203777313232422e+01 2.016540288925170898e+00 2.350675344467163086e+00 1.310164690017700195e+00 -2.183660566806793213e-01
1.892000000000000000e+03 4.112952041625976562e+01 -6.875576972961425781e+00 1.114650011062622070e+00 6.602882385253906250e+00 2.315259695053100586e+00 2.251364290714263916e-03
1.893000000000000000e+03 4.182364273071289062e+01 -5.514931678771972656e+00 1.994288444519042969e+00 6.136492729187011719e+00 2.439234495162963867e+00 -1.263242363929748535e-01
1.894000000000000000e+03 1.621518516540527344e+01 -4.547759056091308594e+00 1.790881156921386719e+00 4.980686187744140625e+00 2.031470298767089844e+00 -2.956528902053833008e+00
1.895000000000000000e+03 2.747727584838867188e+01 -1.774741291999816895e+00 3.543190956115722656e+00 4.658355236053466797e+00 2.460463762283325195e+00 8.703039884567260742e-01
1.896000000000000000e+03 2.651335525512695312e+01 -2.060575246810913086e+00 2.690057039260864258e+00 4.499144077301025391e+00 2.156760454177856445e+00 -1.740581393241882324e-01
1.897000000000000000e+03 1.422941446304321289e+00 2.832847595214843750e+00 2.173684723675251007e-02 -1.349958539009094238e+00 -3.984664976596832275e-01 1.308344006538391113e+00
1.898000000000000000e+03 3.432699680328369141e+00 3.588724517822265625e+01 2.145216986536979675e-02 5.234796047210693359e+00 1.576874494552612305e+00 1.345145553350448608e-01
1.899000000000000000e+03 2.069125652313232422e+00 2.747817802429199219e+01 -1.842456869781017303e-02 5.979544639587402344e+00 1.788336038589477539e+00 1.677104830741882324e-01
1.900000000000000000e+03 3.664958238601684570e+00 3.026758384704589844e+01 2.950544003397226334e-04 5.407329082489013672e+00 1.622287273406982422e+00 2.714717984199523926e-01
1.901000000000000000e+03 2.003995895385742188e+00 2.605087661743164062e+01 -4.503273591399192810e-02 6.086236000061035156e+00 1.812361001968383789e+00 1.200096607208251953e-01
1.902000000000000000e+03 3.432124376296997070e+00 2.734322547912597656e+01 -5.402886122465133667e-02 5.610616207122802734e+00 1.666976094245910645e+00 2.299211025238037109e-01
1.903000000000000000e+03 6.517689704895019531e+00 3.002043533325195312e+01 1.936958916485309601e-02 4.772785663604736328e+00 1.437646508216857910e+00 3.775692582130432129e-01
1.904000000000000000e+03 3.711892366409301758e+00 3.173854827880859375e+01 2.389083616435527802e-02 5.317847728729248047e+00 1.602521538734436035e+00 2.838941514492034912e-01
1.905000000000000000e+03 3.560186862945556641e+00 2.878507804870605469e+01 -2.097656391561031342e-02 5.486975193023681641e+00 1.639799594879150391e+00 2.734475433826446533e-01
1.906000000000000000e+03 6.255495071411132812e+00 3.805947875976562500e+01 1.661101877689361572e-01 4.625047206878662109e+00 1.437347292900085449e+00 1.969939321279525757e-01
1.907000000000000000e+03 2.038113117218017578e+00 3.712321472167968750e+01 4.043902829289436340e-02 5.381707668304443359e+00 1.626644134521484375e+00 1.035314500331878662e-01
1.908000000000000000e+03 1.911548614501953125e+00 2.178733444213867188e+01 -9.601853787899017334e-02 6.096023559570312500e+00 1.800001502037048340e+00 -1.455760002136230469e-01
1.909000000000000000e+03 3.189104318618774414e+00 2.308275604248046875e+01 -1.990337967872619629e-01 5.773322105407714844e+00 1.672286510467529297e+00 -4.122915118932723999e-02
1.910000000000000000e+03 3.192761898040771484e+00 2.167504501342773438e+01 -2.909234762191772461e-01 5.749018192291259766e+00 1.637428402900695801e+00 -2.670572400093078613e-01
1.911000000000000000e+03 4.541692733764648438e+00 1.866310119628906250e+01 -7.681280374526977539e-01 5.446722030639648438e+00 1.403578162193298340e+00 -8.976098299026489258e-01
1.912000000000000000e+03 3.198846817016601562e+00 2.026030731201171875e+01 -3.379275202751159668e-01 5.653729915618896484e+00 1.594740748405456543e+00 -4.573429822921752930e-01
1.913000000000000000e+03 3.236963033676147461e+00 1.205039024353027344e+01 -3.093836903572082520e-01 3.569805622100830078e+00 9.781265854835510254e-01 -2.658098936080932617e+00
1.914000000000000000e+03 1.195193290710449219e+00 4.841648101806640625e+00 3.546908795833587646e-01 -2.353595495223999023e+00 -5.996714234352111816e-01 5.209244489669799805e-01
1.915000000000000000e+03 2.459332942962646484e+00 7.596968173980712891e+00 8.484467864036560059e-01 -4.011784866452217102e-02 2.424986809492111206e-01 -1.322447896003723145e+00
1.916000000000000000e+03 1.804470181465148926e+00 1.479688835144042969e+01 -3.010330796241760254e-01 4.103928089141845703e+00 1.140868425369262695e+00 -1.342074990272521973e+00
1.917000000000000000e+03 2.963650703430175781e+00 1.613704109191894531e+01 -5.509608387947082520e-01 4.992085933685302734e+00 1.332337498664855957e+00 -1.500565171241760254e+00
1.918000000000000000e+03 2.942832946777343750e+00 1.000004959106445312e+01 2.550058960914611816e-01 2.184613943099975586e+00 7.318859100341796875e-01 -2.531694650650024414e+00
1.919000000000000000e+03 3.723738670349121094e+00 1.089389228820800781e+01 -8.520609699189662933e-03 3.784451246261596680e+00 1.132779121398925781e+00 -3.098030328750610352e+00
1.920000000000000000e+03 3.080770969390869141e+00 1.342355823516845703e+01 -5.143432617187500000e-01 4.126338005065917969e+00 1.083598375320434570e+00 -2.246782302856445312e+00
1.921000000000000000e+03 3.154248714447021484e+00 1.884886932373046875e+01 -4.279289543628692627e-01 5.521859645843505859e+00 1.528179287910461426e+00 -7.963784337043762207e-01
1.922000000000000000e+03 4.281673431396484375e+01 -9.168627738952636719e+00 -2.419692724943161011e-01 9.301337242126464844e+00 2.717810153961181641e+00 7.981661558151245117e-01
1.923000000000000000e+03 1.161836147308349609e+01 1.299377441406250000e+01 -2.395045757293701172e+00 5.942118167877197266e+00 1.064121723175048828e+00 5.183955430984497070e-01
1.924000000000000000e+03 1.051630783081054688e+01 1.255309677124023438e+01 -2.288573026657104492e+00 7.196802139282226562e+00 1.472468733787536621e+00 -1.808197796344757080e-01
1.925000000000000000e+03 1.862853622436523438e+01 5.736183166503906250e+00 4.078145980834960938e+00 6.743600964546203613e-02 1.243674516677856445e+00 2.137076377868652344e+00
1.926000000000000000e+03 1.793347740173339844e+01 4.563727855682373047e+00 4.469345569610595703e+00 -1.046559333801269531e+00 1.026835918426513672e+00 4.930266857147216797e+00
1.927000000000000000e+03 4.498198318481445312e+01 1.323738574981689453e+00 -2.876277685165405273e+00 2.409487962722778320e+00 -1.400369107723236084e-01 1.054001569747924805e+00
1.928000000000000000e+03 7.074684906005859375e+01 -1.274450182914733887e+00 -2.962373733520507812e+00 5.217336654663085938e+00 6.764888167381286621e-01 -3.215202808380126953e+00
1.929000000000000000e+03 1.823336410522460938e+01 1.934257888793945312e+01 -2.353638648986816406e+00 9.309219717979431152e-01 -4.268150031566619873e-01 6.495051831007003784e-02
1.930000000000000000e+03 3.695679855346679688e+01 6.093722343444824219e+00 -1.462483406066894531e+00 1.194389533996582031e+01 3.144423723220825195e+00 9.717103242874145508e-01
1.931000000000000000e+03 3.468116760253906250e+01 6.488577365875244141e+00 -1.956288516521453857e-01 5.999697685241699219e+00 1.741220712661743164e+00 2.260247230529785156e+00
1.932000000000000000e+03 5.255391693115234375e+01 1.061204910278320312e+01 1.017790675163269043e+00 1.222384834289550781e+01 3.972491741180419922e+00 -6.487373113632202148e-01
1.933000000000000000e+03 5.588085937500000000e+01 1.019927215576171875e+01 -3.094920516014099121e-01 4.218547344207763672e+00 1.172716617584228516e+00 4.626464545726776123e-01
1.934000000000000000e+03 5.067481613159179688e+01 -2.814189672470092773e+00 -4.276175022125244141e+00 2.466964244842529297e+00 -5.427632927894592285e-01 -1.691301763057708740e-01
1.935000000000000000e+03 4.672731399536132812e+01 -2.895393371582031250e-01 -2.202001571655273438e+00 3.458917140960693359e+00 3.770746886730194092e-01 3.936808586120605469e+00
1.936000000000000000e+03 4.129311752319335938e+01 -1.414157986640930176e+00 -1.863242149353027344e+00 9.372609257698059082e-01 -2.777943611145019531e-01 -2.223040342330932617e+00
1.937000000000000000e+03 4.224304580688476562e+01 -1.981172680854797363e+00 -1.269928812980651855e+00 3.482725620269775391e+00 6.638389825820922852e-01 -1.576041340827941895e+00
1.938000000000000000e+03 2.697726440429687500e+01 1.138288307189941406e+01 -1.838446557521820068e-01 4.586295604705810547e+00 1.320735335350036621e+00 6.468261480331420898e-01
1.939000000000000000e+03 2.490053558349609375e+01 1.046990871429443359e+01 -1.963571310043334961e+00 8.313097000122070312e+00 1.904857754707336426e+00 2.504603147506713867e+00
1.940000000000000000e+03 5.357462692260742188e+01 8.500829696655273438e+00 -1.266851782798767090e+00 1.085006809234619141e+01 2.874964714050292969e+00 -6.577681899070739746e-01
1.941000000000000000e+03 3.240600967407226562e+01 3.342109203338623047e+00 3.499981760978698730e-02 1.941990494728088379e+00 5.930970907211303711e-01 2.513883590698242188e+00
1.942000000000000000e+03 6.693352508544921875e+01 2.260335445404052734e+00 8.811956644058227539e-01 7.071464538574218750e+00 2.385797977447509766e+00 1.384649872779846191e+00
1.943000000000000000e+03 4.844906234741210938e+01 -1.723954200744628906e+01 -2.598087787628173828e-01 1.915266633033752441e+00 4.966373443603515625e-01 -8.774467706680297852e-01
1.944000000000000000e+03 4.932300567626953125e+01 -1.824878692626953125e+01 -6.411064863204956055e-01 1.782972335815429688e+00 3.425597548484802246e-01 -7.425084710121154785e-01
1.945000000000000000e+03 4.573640441894531250e+01 -5.173950195312500000e-01 -2.517150163650512695e+00 3.663375616073608398e+00 3.438676297664642334e-01 3.451823234558105469e+00
1.946000000000000000e+03 5.835140991210937500e+01 -1.341286754608154297e+01 7.018700242042541504e-01 9.765063285827636719e+00 3.140079975128173828e+00 6.338273286819458008e-01
1.947000000000000000e+03 5.241141891479492188e+01 -3.103939533233642578e+00 -4.047996044158935547e+00 4.906762123107910156e+00 2.576297819614410400e-01 -1.702721595764160156e+00
1.948000000000000000e+03 3.035039520263671875e+01 1.656452369689941406e+01 1.115106940269470215e+00 1.739895582199096680e+00 8.565007448196411133e-01 1.921986222267150879e+00
1.949000000000000000e+03 4.832377910614013672e+00 1.136399841308593750e+01 -4.999569654464721680e-01 5.075838088989257812e+00 1.372764348983764648e+00 -3.251868724822998047e+00
1.950000000000000000e+03 1.541446781158447266e+01 -3.479312181472778320e+00 2.233284473419189453e+00 5.683197975158691406e+00 2.374944686889648438e+00 -3.160873651504516602e+00
1.951000000000000000e+03 3.116891288757324219e+01 -1.290289020538330078e+01 -3.414538204669952393e-01 3.341260671615600586e+00 8.999420404434204102e-01 -1.125740766525268555e+00
1.952000000000000000e+03 4.145167160034179688e+01 -1.080897045135498047e+01 -4.181659966707229614e-02 1.027851295471191406e+01 3.071008920669555664e+00 -1.283452510833740234e-01
1.953000000000000000e+03 2.917293167114257812e+01 -7.962577819824218750e+00 1.038741946220397949e+00 5.879280090332031250e+00 2.075406551361083984e+00 -3.381932377815246582e-01
1.954000000000000000e+03 6.053891754150390625e+01 -7.205414772033691406e+00 1.101007223129272461e+00 8.359274864196777344e+00 2.838084697723388672e+00 1.058329582214355469e+00
1.955000000000000000e+03 2.791742515563964844e+01 -6.364255428314208984e+00 1.219178199768066406e+00 7.548541069030761719e+00 2.630315780639648438e+00 1.274479269981384277e+00
1.956000000000000000e+03 5.672735595703125000e+01 -9.218027114868164062e+00 2.060463726520538330e-01 7.267788887023925781e+00 2.242150545120239258e+00 -2.406818866729736328e-01
1.957000000000000000e+03 4.190824890136718750e+01 -8.946288108825683594e+00 -1.481951773166656494e-01 8.922374725341796875e+00 2.632253885269165039e+00 4.472923576831817627e-01
1.958000000000000000e+03 6.280894851684570312e+01 -1.535831451416015625e+01 -1.003483310341835022e-03 5.639675617218017578e+00 1.691601634025573730e+00 -5.282528400421142578e-01
1.959000000000000000e+03 2.597536849975585938e+01 1.194957065582275391e+01 5.232264399528503418e-01 9.018285751342773438e+00 2.862453460693359375e+00 2.211678981781005859e+00
1.960000000000000000e+03 6.103917694091796875e+01 -5.595350265502929688e+00 1.868589043617248535e+00 8.317090034484863281e+00 3.055703878402709961e+00 9.746198058128356934e-01
1.961000000000000000e+03 2.870900344848632812e+01 -6.910609722137451172e+00 1.129138708114624023e+00 6.855408668518066406e+00 2.395364284515380859e+00 1.021460413932800293e+00
1.962000000000000000e+03 6.137982940673828125e+01 -9.301982879638671875e+00 2.249831557273864746e-01 8.749558448791503906e+00 2.692362546920776367e+00 1.224707484245300293e+00
1.963000000000000000e+03 5.711725997924804688e+01 -1.396493148803710938e+01 6.453303694725036621e-01 1.097055721282958984e+01 3.484766244888305664e+00 -2.622202336788177490e-01
1.964000000000000000e+03 4.567629623413085938e+01 -1.403634071350097656e+01 5.746338367462158203e-01 4.516778945922851562e+00 1.527423858642578125e+00 -8.404428958892822266e-01
1.965000000000000000e+03 3.085524940490722656e+01 1.211464762687683105e+00 -1.027975320816040039e+00 4.781874656677246094e+00 1.126169800758361816e+00 5.651935577392578125e+00
1.966000000000000000e+03 5.296340179443359375e+01 7.492785930633544922e+00 -1.430502533912658691e+00 1.180588150024414062e+01 3.112613916397094727e+00 -1.025418281555175781e+00
1.967000000000000000e+03 4.012166595458984375e+01 -2.230840921401977539e+00 -1.331630229949951172e+00 2.402837038040161133e+00 3.213620185852050781e-01 -4.415823459625244141e+00
1.968000000000000000e+03 6.974570465087890625e+01 7.273611426353454590e-01 -2.548457384109497070e+00 9.404211997985839844e+00 2.056726217269897461e+00 -2.798057794570922852e+00
1.969000000000000000e+03 6.555005645751953125e+01 6.223985552787780762e-01 -1.468782782554626465e+00 3.802719354629516602e+00 7.001809477806091309e-01 3.500202655792236328e+00
1.970000000000000000e+03 4.174307250976562500e+01 -1.579602527618408203e+01 1.594632387161254883e+00 1.020664024353027344e+01 3.540381908416748047e+00 -7.137016206979751587e-02
1.971000000000000000e+03 7.377278137207031250e+01 -1.073097229003906250e+01 1.260378837585449219e+00 1.047532367706298828e+01 3.520710706710815430e+00 6.538450121879577637e-01
1.972000000000000000e+03 1.580042552947998047e+01 1.444931602478027344e+01 -2.896323204040527344e+00 7.583656311035156250e-01 -6.413872241973876953e-01 -4.955134391784667969e-01
1.973000000000000000e+03 4.312048339843750000e+01 -1.221718692779541016e+01 6.011486053466796875e-01 8.953444480895996094e+00 2.866377830505371094e+00 3.177382647991180420e-01
1.974000000000000000e+03 5.790650939941406250e+01 -1.203166580200195312e+01 3.638974428176879883e-01 9.119430541992187500e+00 2.844998359680175781e+00 4.143521487712860107e-01
1.975000000000000000e+03 5.548712539672851562e+01 -1.909102797508239746e+00 -3.184625864028930664e+00 6.395101070404052734e+00 9.631425738334655762e-01 -4.784741401672363281e+00
1.976000000000000000e+03 6.712789154052734375e+01 -1.691963434219360352e+00 -3.772928476333618164e+00 2.455251216888427734e+00 -3.953032195568084717e-01 4.918773472309112549e-01
1.977000000000000000e+03 5.210091781616210938e+01 1.173910045623779297e+01 1.956698298454284668e+00 1.333873939514160156e+01 4.588631153106689453e+00 -1.041480922140181065e-03
1.978000000000000000e+03 5.887309265136718750e+01 -1.567999172210693359e+01 1.105221986770629883e+00 9.084049224853515625e+00 3.056781291961669922e+00 -1.131061911582946777e-01
1.979000000000000000e+03 6.287168884277343750e+01 -1.399392414093017578e+01 -4.592369198799133301e-01 6.009239196777343750e+00 1.665000557899475098e+00 -3.141934871673583984e-01
1.980000000000000000e+03 6.529759216308593750e+01 -1.718679809570312500e+01 6.347735226154327393e-02 3.271373987197875977e+00 1.000455379486083984e+00 -1.069016098976135254e+00
1.981000000000000000e+03 9.330226898193359375e+00 7.467691421508789062e+00 3.025398254394531250e+00 1.657042884826660156e+01 5.878748416900634766e+00 -4.135662078857421875e+00
1.982000000000000000e+03 2.337421417236328125e+01 7.640967845916748047e+00 -7.929085195064544678e-02 9.516407966613769531e+00 2.831135034561157227e+00 2.484522104263305664e+00
1.983000000000000000e+03 2.216187477111816406e+01 1.901069450378417969e+01 -2.442929983139038086e+00 7.564511150121688843e-02 -7.101854681968688965e-01 -1.153431177139282227e+00
1.984000000000000000e+03 2.017154884338378906e+01 1.920081520080566406e+01 -2.531865119934082031e+00 1.502035260200500488e-01 -7.144984602928161621e-01 -4.925306737422943115e-01
1.985000000000000000e+03 5.100235366821289062e+01 -2.035908889770507812e+01 2.724020183086395264e-01 1.606757521629333496e+00 5.637478828430175781e-01 -2.623075246810913086e-01
1.986000000000000000e+03 4.234135055541992188e+01 -1.016160774230957031e+01 3.403632342815399170e-02 9.449382781982421875e+00 2.845025539398193359e+00 4.500838518142700195e-01
1.987000000000000000e+03 6.713024902343750000e+01 6.575645446777343750e+00 -7.501914352178573608e-02 1.129879474639892578e+01 3.367132663726806641e+00 -1.664469838142395020e+00
1.988000000000000000e+03 3.208253479003906250e+01 -1.326507949829101562e+01 -1.574817150831222534e-01 2.786591529846191406e+00 7.887329459190368652e-01 -1.075605154037475586e+00
1.989000000000000000e+03 3.249350357055664062e+01 -1.189048767089843750e+01 5.730980634689331055e-02 1.930479526519775391e+00 5.963367819786071777e-01 -8.234158754348754883e-01
1.990000000000000000e+03 5.604185485839843750e+01 -7.837647438049316406e+00 -3.388684988021850586e-02 6.270397186279296875e+00 1.870953083038330078e+00 -4.699704647064208984e-01
1.991000000000000000e+03 5.874924087524414062e+01 -1.587920784950256348e+00 -1.455296397209167480e+00 2.957235813140869141e+00 4.505818486213684082e-01 -1.617695808410644531e+00
1.992000000000000000e+03 3.654718017578125000e+01 5.082973003387451172e+00 -4.244078397750854492e-01 1.065356731414794922e+01 3.068747997283935547e+00 2.877146303653717041e-01
1.993000000000000000e+03 4.481678771972656250e+01 -1.279386711120605469e+01 3.413936793804168701e-01 5.978933811187744141e+00 1.896098256111145020e+00 -3.510763049125671387e-01
1.994000000000000000e+03 2.074899673461914062e+01 4.372205257415771484e+00 6.253698348999023438e+00 2.851379156112670898e+00 2.731523275375366211e+00 6.410854458808898926e-01
1.995000000000000000e+03 2.927111053466796875e+01 3.279314041137695312e-01 1.492110371589660645e+00 6.675033569335937500e+00 2.450143098831176758e+00 1.392985820770263672e+00
1.996000000000000000e+03 2.838234901428222656e+01 1.809380912780761719e+01 -1.677846074104309082e+00 4.773092269897460938e+00 9.285739064216613770e-01 2.361766576766967773e+00
1.997000000000000000e+03 6.214803695678710938e+01 -2.908278226852416992e+00 2.586195468902587891e-01 8.381922721862792969e+00 2.592162609100341797e+00 -2.011741399765014648e-01
1.998000000000000000e+03 6.788461303710937500e+01 9.149008750915527344e+00 -4.072270989418029785e-01 1.148195266723632812e+01 3.322417736053466797e+00 -7.328485846519470215e-01
1.999000000000000000e+03 7.019940948486328125e+01 9.384077072143554688e+00 -1.987011551856994629e+00 5.462534427642822266e+00 1.042656898498535156e+00 7.320092320442199707e-01
2.000000000000000000e+03 6.385214614868164062e+01 -1.261466312408447266e+01 -8.931252360343933105e-01 5.007136821746826172e+00 1.234203577041625977e+00 -3.642084002494812012e-01
2.001000000000000000e+03 6.285803222656250000e+01 -1.007847118377685547e+01 6.514582782983779907e-02 8.012077331542968750e+00 2.423166990280151367e+00 1.223018765449523926e-01
2.002000000000000000e+03 2.676928329467773438e+01 -6.241189002990722656e+00 2.112365961074829102e+00 1.016261196136474609e+01 3.682493448257446289e+00 2.215807914733886719e+00
2.003000000000000000e+03 2.817302894592285156e+01 -3.034772872924804688e+00 1.822696447372436523e+00 8.485742568969726562e+00 3.092531681060791016e+00 3.028489589691162109e+00
2.004000000000000000e+03 2.754870796203613281e+01 -4.060132980346679688e+00 1.840427279472351074e+00 8.006730079650878906e+00 2.954147100448608398e+00 1.639204144477844238e+00
2.005000000000000000e+03 4.496453094482421875e+01 -1.063994312286376953e+01 -5.913376063108444214e-02 6.640935897827148438e+00 1.974540710449218750e+00 -2.657573521137237549e-01
2.006000000000000000e+03 4.364712905883789062e+01 -9.600090026855468750e+00 -7.185433804988861084e-02 8.677534103393554688e+00 2.581703901290893555e+00 5.904099345207214355e-01
2.007000000000000000e+03 6.795309448242187500e+01 4.450946331024169922e+00 2.588598728179931641e+00 9.721158981323242188e+00 3.692927122116088867e+00 -1.600860595703125000e+00
2.008000000000000000e+03 6.627473449707031250e+01 6.115097999572753906e+00 3.328461050987243652e-01 8.828479766845703125e+00 2.748397827148437500e+00 -4.124692082405090332e-01
2.009000000000000000e+03 1.233072757720947266e+01 1.760488033294677734e+00 4.934199810028076172e+00 9.893858909606933594e+00 4.448417663574218750e+00 -1.784432828426361084e-01
2.010000000000000000e+03 5.295078277587890625e+01 1.430154705047607422e+01 1.405333280563354492e+00 9.835266113281250000e+00 3.372179985046386719e+00 1.943344950675964355e+00
2.011000000000000000e+03 4.784137725830078125e+01 1.736269950866699219e+01 1.886494517326354980e+00 2.813664674758911133e+00 1.410047769546508789e+00 -2.034684896469116211e+00
2.012000000000000000e+03 4.208306884765625000e+01 1.702084922790527344e+01 2.194235473871231079e-01 3.751846075057983398e+00 1.191380858421325684e+00 2.024702548980712891e+00
2.013000000000000000e+03 2.649525070190429688e+01 -3.593680620193481445e+00 1.647480964660644531e+00 6.772460937500000000e+00 2.525982618331909180e+00 1.218899011611938477e+00
2.014000000000000000e+03 2.815103912353515625e+01 -5.407365322113037109e+00 1.491870522499084473e+00 8.310239791870117188e+00 2.940633058547973633e+00 1.865952491760253906e+00
2.015000000000000000e+03 4.908451461791992188e+01 4.402797698974609375e+00 1.260315895080566406e+00 4.165481090545654297e+00 1.627739071846008301e+00 1.312728047370910645e+00
2.016000000000000000e+03 1.898583412170410156e+01 -9.259028434753417969e+00 6.320007443428039551e-01 3.096829652786254883e+00 1.118649125099182129e+00 -1.683661460876464844e+00
2.017000000000000000e+03 1.972736167907714844e+01 -1.028316879272460938e+01 1.138984203338623047e+00 2.851146221160888672e+00 1.197039127349853516e+00 -1.091735720634460449e+00
2.018000000000000000e+03 7.368422698974609375e+01 -7.946631908416748047e+00 1.959847062826156616e-01 8.514543533325195312e+00 2.613158464431762695e+00 9.737820029258728027e-01
2.019000000000000000e+03 7.417706298828125000e+01 -9.592065811157226562e+00 7.394202947616577148e-01 9.893135070800781250e+00 3.189766407012939453e+00 1.086775541305541992e+00
2.020000000000000000e+03 2.956119537353515625e+01 1.959552764892578125e+01 -1.137000203132629395e+00 3.925483703613281250e+00 8.365450501441955566e-01 9.997392296791076660e-01
2.021000000000000000e+03 4.995442581176757812e+01 -1.687422871589660645e+00 -2.455738782882690430e+00 1.739027738571166992e+00 -2.150133401155471802e-01 1.313966035842895508e+00
2.022000000000000000e+03 2.846322631835937500e+01 1.011077523231506348e+00 -1.500222682952880859e-01 1.787188410758972168e+00 4.911498427391052246e-01 -4.716536104679107666e-01
2.023000000000000000e+03 3.676379776000976562e+01 -1.902165222167968750e+01 1.572615951299667358e-01 2.111858606338500977e+00 6.807360053062438965e-01 3.083739578723907471e-01
2.024000000000000000e+03 3.814651489257812500e+01 -1.793926811218261719e+01 1.023211956024169922e+00 2.017076015472412109e+00 9.120863676071166992e-01 1.080042600631713867e+00
2.025000000000000000e+03 7.685130310058593750e+01 1.071585369110107422e+01 -8.523665070533752441e-01 9.251564025878906250e+00 2.519759178161621094e+00 -5.918624997138977051e-01
2.026000000000000000e+03 6.482553863525390625e+01 6.372207164764404297e+00 5.753697454929351807e-02 7.723543643951416016e+00 2.334324121475219727e+00 1.687100052833557129e+00
2.027000000000000000e+03 6.641290283203125000e+01 1.647145271301269531e+01 -6.176131963729858398e-01 7.919056892395019531e+00 2.190433025360107422e+00 -1.278329372406005859e+00
2.028000000000000000e+03 5.786406326293945312e+01 -8.145523667335510254e-01 -1.940272569656372070e+00 8.196815848350524902e-01 -3.361773192882537842e-01 -2.851692914962768555e+00
2.029000000000000000e+03 5.525088119506835938e+01 -1.921298950910568237e-01 -3.410625457763671875e+00 8.634439468383789062e+00 1.567144155502319336e+00 -6.832818984985351562e+00
2.030000000000000000e+03 4.353740310668945312e+01 -3.106277942657470703e+00 6.127478480339050293e-01 7.865574359893798828e+00 2.543496608734130859e+00 -1.557998955249786377e-01
2.031000000000000000e+03 3.840064620971679688e+01 1.110868644714355469e+01 4.073615550994873047e+00 1.048531532287597656e+01 4.367679119110107422e+00 9.695695638656616211e-01
2.032000000000000000e+03 7.287779235839843750e+01 1.183422660827636719e+01 1.396761178970336914e+00 3.270398855209350586e+00 1.400148034095764160e+00 -1.319181084632873535e+00
2.033000000000000000e+03 7.419520568847656250e+01 1.111456203460693359e+01 -3.908838704228401184e-02 4.765898704528808594e+00 1.418043136596679688e+00 -2.916609287261962891e+00
2.034000000000000000e+03 6.243280410766601562e+01 -1.627234268188476562e+01 1.502412259578704834e-01 5.823135375976562500e+00 1.792012929916381836e+00 -8.901391029357910156e-01
2.035000000000000000e+03 7.174964904785156250e+01 -9.288168549537658691e-01 -2.966224908828735352e+00 3.518064022064208984e+00 1.655517369508743286e-01 -3.631232500076293945e+00
2.036000000000000000e+03 6.774758911132812500e+01 -1.666817474365234375e+01 -3.689267635345458984e-01 1.289698839187622070e+00 2.762316167354583740e-01 -2.931065857410430908e-01
2.037000000000000000e+03 3.704515457153320312e+01 1.638883471488952637e+00 5.344316005706787109e+00 1.718267440795898438e+01 6.758097171783447266e+00 -1.626470685005187988e+00
2.038000000000000000e+03 3.670328140258789062e+01 3.430356502532958984e+00 2.365509510040283203e+00 1.184761905670166016e+01 4.263938426971435547e+00 -5.908073186874389648e-01
2.039000000000000000e+03 6.115632629394531250e+01 -2.261654853820800781e+00 -1.412733674049377441e+00 7.204722404479980469e+00 1.737596631050109863e+00 6.380684375762939453e-01
2.040000000000000000e+03 4.956031322479248047e+00 4.031179428100585938e+01 1.034910604357719421e-01 4.834066867828369141e+00 1.481267452239990234e+00 4.000268504023551941e-02
2.041000000000000000e+03 6.273449325561523438e+01 1.638435363769531250e+01 1.550279855728149414e+00 2.199052333831787109e+00 1.124799609184265137e+00 -2.140990495681762695e+00
2.042000000000000000e+03 3.662254714965820312e+01 1.582989978790283203e+01 -1.718068361282348633e+00 8.992177963256835938e+00 2.182232856750488281e+00 -1.830342173576354980e+00
2.043000000000000000e+03 4.607026100158691406e+00 2.068239450454711914e+00 -6.745823025703430176e-01 3.665850311517715454e-02 -1.913771331310272217e-01 1.940650343894958496e+00
2.044000000000000000e+03 7.292650222778320312e+00 -2.009745121002197266e+00 2.369762182235717773e+00 1.629461765289306641e+00 1.199767112731933594e+00 2.099010705947875977e+00
2.045000000000000000e+03 5.428063869476318359e+00 2.485516786575317383e+00 6.017001271247863770e-01 8.427371382713317871e-01 4.333311915397644043e-01 1.472203493118286133e+00
2.046000000000000000e+03 7.121371269226074219e+00 -2.364821434020996094e+00 2.233044147491455078e+00 1.961472988128662109e+00 1.258355140686035156e+00 2.212505340576171875e+00
2.047000000000000000e+03 6.330800056457519531e+00 -2.155677080154418945e+00 1.598851680755615234e+00 8.777524232864379883e-01 7.429812550544738770e-01 1.152529716491699219e+00
2.048000000000000000e+03 5.861620903015136719e+00 -2.266420125961303711e+00 1.321019291877746582e+00 7.279440164566040039e-01 6.146889925003051758e-01 8.650676012039184570e-01
2.049000000000000000e+03 6.472344875335693359e+00 2.043365240097045898e+00 -1.303272843360900879e-01 1.571160197257995605e+00 4.322498738765716553e-01 5.912425518035888672e-01
2.050000000000000000e+03 5.256471157073974609e+00 -1.916494965553283691e+00 7.490146160125732422e-01 3.290749788284301758e-01 3.234268724918365479e-01 3.065095543861389160e-01
2.051000000000000000e+03 5.592126369476318359e+00 -2.223423242568969727e+00 1.127170205116271973e+00 6.238659620285034180e-01 5.253108143806457520e-01 6.714735031127929688e-01
2.052000000000000000e+03 6.740027904510498047e+00 2.391455650329589844e+00 9.855327606201171875e-01 2.565175771713256836e+00 1.065212607383728027e+00 4.256067052483558655e-02
2.053000000000000000e+03 5.083079814910888672e+00 -2.240515470504760742e+00 8.312337398529052734e-01 4.334179461002349854e-01 3.793955147266387939e-01 3.951585590839385986e-01
2.054000000000000000e+03 7.656943321228027344e+00 2.374797821044921875e+00 1.346095085144042969e+00 5.018756389617919922e+00 1.909455418586730957e+00 -2.059051990509033203e+00
2.055000000000000000e+03 5.226690769195556641e+00 3.222519874572753906e+00 1.891603350639343262e+00 1.184947013854980469e+00 9.229651093482971191e-01 1.057507872581481934e+00
2.056000000000000000e+03 8.904371261596679688e+00 -2.594460964202880859e+00 1.842852115631103516e+00 7.896160125732421875e+00 2.921703815460205078e+00 4.469003200531005859e+00
2.057000000000000000e+03 8.832586288452148438e+00 -2.022222280502319336e+00 2.920961141586303711e+00 7.057443141937255859e+00 2.993521213531494141e+00 5.097629547119140625e+00
2.058000000000000000e+03 8.049068450927734375e+00 1.837486624717712402e+00 2.942985594272613525e-01 5.009751319885253906e+00 1.591215014457702637e+00 -3.125626325607299805e+00
2.059000000000000000e+03 7.260459899902343750e+00 2.193519353866577148e+00 7.844151854515075684e-01 3.357888698577880859e+00 1.242691159248352051e+00 -9.212794899940490723e-01
2.060000000000000000e+03 4.865795135498046875e+00 -2.069243907928466797e+00 6.917027831077575684e-01 3.177463412284851074e-01 3.028347194194793701e-01 2.462555617094039917e-01
2.061000000000000000e+03 4.186481475830078125e+00 -7.593839168548583984e+00 1.816946715116500854e-01 2.227957963943481445e+00 7.228958010673522949e-01 1.158594012260437012e+00
2.062000000000000000e+03 8.356225013732910156e+00 1.917883992195129395e+00 6.368964314460754395e-01 6.525034904479980469e+00 2.148579359054565430e+00 -4.643045425415039062e+00
2.063000000000000000e+03 7.498924732208251953e+00 1.837003350257873535e+00 4.985252022743225098e-02 2.907329320907592773e+00 8.871545791625976562e-01 -1.414808988571166992e+00
2.064000000000000000e+03 4.367787837982177734e+00 -2.210753679275512695e+00 5.693185925483703613e-01 2.882112860679626465e-01 2.572589516639709473e-01 1.424060910940170288e-01
2.065000000000000000e+03 3.751929759979248047e+00 -2.218588590621948242e+00 3.704271018505096436e-01 2.113267183303833008e-01 1.745261400938034058e-01 -1.419363170862197876e-02
2.066000000000000000e+03 3.096585273742675781e+00 -2.119388580322265625e+00 1.881226897239685059e-01 9.648298472166061401e-02 8.538170158863067627e-02 -1.720815747976303101e-01
2.067000000000000000e+03 4.265341758728027344e+00 2.264694213867187500e+00 -2.572303414344787598e-01 4.069279506802558899e-02 -6.496126204729080200e-02 2.012292146682739258e+00
2.068000000000000000e+03 9.901510238647460938e+00 2.065183401107788086e+00 -1.884423375129699707e+00 1.989133453369140625e+01 5.402073383331298828e+00 -7.956356525421142578e+00
2.069000000000000000e+03 1.065291595458984375e+01 -2.266644954681396484e+00 3.020438551902770996e-01 1.621171188354492188e+01 4.954126358032226562e+00 5.213159918785095215e-01
2.070000000000000000e+03 1.471411037445068359e+01 -2.524867773056030273e+00 2.992316961288452148e+00 6.012850761413574219e+00 2.701550245285034180e+00 -3.757598876953125000e+00
2.071000000000000000e+03 1.160250854492187500e+01 -1.869852423667907715e+00 2.527970314025878906e+00 1.538799381256103516e+01 5.374789237976074219e+00 -3.277406930923461914e+00
2.072000000000000000e+03 1.278605079650878906e+01 1.201365113258361816e+00 6.054592132568359375e+00 9.099084854125976562e+00 4.546103000640869141e+00 2.371513128280639648e+00
2.073000000000000000e+03 1.185223388671875000e+01 9.968103766441345215e-01 6.467800140380859375e+00 1.460279273986816406e+01 6.321177959442138672e+00 8.323351144790649414e-01
2.074000000000000000e+03 1.150272941589355469e+01 -2.271580934524536133e+00 1.032917261123657227e+00 1.498616600036621094e+01 4.805725097656250000e+00 -2.413721084594726562e+00
2.075000000000000000e+03 1.385078811645507812e+01 8.845338970422744751e-02 2.942137956619262695e+00 8.756649971008300781e+00 3.509636402130126953e+00 -3.247158825397491455e-01
2.076000000000000000e+03 1.111246013641357422e+01 -2.065323591232299805e+00 1.131021976470947266e+00 1.640519332885742188e+01 5.260864257812500000e+00 -1.569205999374389648e+00
2.077000000000000000e+03 1.294786357879638672e+01 -1.779073476791381836e+00 3.618599414825439453e+00 1.050204658508300781e+01 4.236194133758544922e+00 -4.424187183380126953e+00
2.078000000000000000e+03 1.404572582244873047e+01 -1.800749659538269043e+00 3.200431585311889648e+00 7.666175842285156250e+00 3.259982347488403320e+00 -4.320427417755126953e+00
2.079000000000000000e+03 1.230832099914550781e+01 4.118583202362060547e-01 8.454751014709472656e+00 1.185779666900634766e+01 6.093764305114746094e+00 -5.467003583908081055e-01
2.080000000000000000e+03 2.926965475082397461e+00 1.957672834396362305e+00 -6.579529643058776855e-01 -3.921055197715759277e-01 -3.150175511837005615e-01 1.788286685943603516e+00
2.081000000000000000e+03 1.740152835845947266e+00 -2.528590917587280273e+00 9.041095525026321411e-02 -7.672108709812164307e-02 4.106958862394094467e-03 -2.249022573232650757e-01
2.082000000000000000e+03 9.856683731079101562e+00 4.509544372558593750e+00 3.537262439727783203e+00 2.212568473815917969e+01 7.698884487152099609e+00 -2.585371494293212891e+00
2.083000000000000000e+03 1.910609483718872070e+00 2.102041959762573242e+00 -3.232236504554748535e-01 -8.153772354125976562e-01 -3.415802717208862305e-01 1.521633744239807129e+00
2.084000000000000000e+03 3.231731653213500977e+00 2.206612825393676758e+00 -3.828504383563995361e-01 -3.082999289035797119e-01 -2.073450982570648193e-01 1.963011622428894043e+00
2.085000000000000000e+03 2.322204589843750000e+00 2.182788133621215820e+00 -3.478768765926361084e-01 -7.159402370452880859e-01 -3.191451132297515869e-01 1.725915312767028809e+00
2.086000000000000000e+03 2.055663824081420898e+00 -4.208764076232910156e+00 2.820414602756500244e-01 1.940225362777709961e-01 1.428191959857940674e-01 1.214147135615348816e-01
2.087000000000000000e+03 1.003970050811767578e+01 2.794850349426269531e+00 -1.761100769042968750e+00 2.138597297668457031e+01 5.887461662292480469e+00 -7.110803604125976562e+00
2.088000000000000000e+03 1.193944692611694336e+00 3.266991853713989258e+00 4.616582766175270081e-02 -1.726537704467773438e+00 -5.041115880012512207e-01 1.133311033248901367e+00
2.089000000000000000e+03 1.156750321388244629e+00 2.472266674041748047e+00 -1.151862889528274536e-01 -1.274932622909545898e+00 -4.170356690883636475e-01 1.193163633346557617e+00
2.090000000000000000e+03 1.172166252136230469e+01 1.878838419914245605e+00 3.902003288269042969e+00 1.421410083770751953e+01 5.434831142425537109e+00 -2.317205905914306641e+00
2.091000000000000000e+03 1.110770416259765625e+01 2.137849807739257812e+00 2.058431208133697510e-01 1.817140579223632812e+01 5.513174533843994141e+00 -4.409438133239746094e+00
2.092000000000000000e+03 1.368657588958740234e+01 -6.728482246398925781e-01 3.379511117935180664e+00 8.195542335510253906e+00 3.472516059875488281e+00 -2.994098901748657227e+00
2.093000000000000000e+03 1.052790880203247070e+00 -3.670792818069458008e+00 6.207531318068504333e-02 -3.180788457393646240e-01 -7.680106163024902344e-02 -9.475625306367874146e-02
2.094000000000000000e+03 4.316506862640380859e+00 1.354004096984863281e+01 -8.856579661369323730e-01 4.997808456420898438e+00 1.233645081520080566e+00 -2.584068298339843750e+00
2.095000000000000000e+03 8.525660514831542969e+00 8.291749954223632812e+00 1.655444979667663574e+00 1.267112541198730469e+01 4.297971248626708984e+00 -3.355390310287475586e+00
2.096000000000000000e+03 1.280821132659912109e+01 3.477677583694458008e+00 5.206202507019042969e+00 2.533465385437011719e+00 2.321900367736816406e+00 -1.572571277618408203e+00
2.097000000000000000e+03 6.170960998535156250e+01 -1.051161098480224609e+01 -1.136160790920257568e-01 8.147205352783203125e+00 2.410076618194580078e+00 9.286759495735168457e-01
2.098000000000000000e+03 6.350931549072265625e+01 -1.461583328247070312e+01 -7.845853567123413086e-01 4.931374549865722656e+00 1.244036793708801270e+00 -5.703211426734924316e-01
2.099000000000000000e+03 2.705071640014648438e+01 1.862262916564941406e+01 -2.418603658676147461e+00 6.308467864990234375e+00 1.166959285736083984e+00 7.952122092247009277e-01
2.100000000000000000e+03 6.700082397460937500e+01 1.213181209564208984e+01 3.730134010314941406e+00 1.195323753356933594e+01 4.705011367797851562e+00 9.498463273048400879e-01
2.101000000000000000e+03 3.694123077392578125e+01 -1.469267532229423523e-03 -5.204403996467590332e-01 1.023046779632568359e+01 2.913007974624633789e+00 1.721282601356506348e+00
2.102000000000000000e+03 6.282046127319335938e+01 -1.787478327751159668e+00 -3.983645677566528320e+00 9.362707138061523438e+00 1.613718509674072266e+00 1.987363457679748535e+00
2.103000000000000000e+03 5.366316604614257812e+01 1.512310218811035156e+01 1.164084672927856445e+00 8.380943298339843750e+00 2.863508462905883789e+00 2.029036998748779297e+00
2.104000000000000000e+03 5.111011123657226562e+01 2.097470474243164062e+01 -2.591975033283233643e-01 5.817029953002929688e+00 1.667349815368652344e+00 -2.430659681558609009e-01
2.105000000000000000e+03 1.757293701171875000e+00 3.023161411285400391e+00 1.337506324052810669e-01 -1.279986500740051270e+00 -3.438707590103149414e-01 1.473398566246032715e+00
2.106000000000000000e+03 4.884919738769531250e+01 9.121776819229125977e-01 6.365442872047424316e-01 3.003792762756347656e+00 1.092101097106933594e+00 2.816056728363037109e+00
2.107000000000000000e+03 1.132950687408447266e+01 3.191000461578369141e+00 6.088738441467285156e-01 1.145319175720214844e+01 3.618619918823242188e+00 -7.560783863067626953e+00
2.108000000000000000e+03 1.183767414093017578e+01 2.342125892639160156e+00 2.347720384597778320e+00 1.267417812347412109e+01 4.506569862365722656e+00 -3.126164674758911133e+00
2.109000000000000000e+03 5.187980270385742188e+01 7.678831100463867188e+00 -1.090022444725036621e+00 1.187977218627929688e+01 3.236924886703491211e+00 -6.322358250617980957e-01
2.110000000000000000e+03 3.951050949096679688e+01 1.556543922424316406e+01 -7.619712948799133301e-01 7.301699638366699219e+00 1.961918473243713379e+00 2.253447771072387695e+00
2.111000000000000000e+03 3.845405578613281250e+01 1.629783058166503906e+01 -7.014175057411193848e-01 7.159892559051513672e+00 1.937542557716369629e+00 8.650549650192260742e-01
2.112000000000000000e+03 9.202702522277832031e+00 5.257475376129150391e+00 9.513778686523437500e+00 1.713886260986328125e+01 7.995792388916015625e+00 -3.116686582565307617e+00
2.113000000000000000e+03 8.218160629272460938e+00 1.847810506820678711e+00 4.947303831577301025e-01 5.198056697845458984e+00 1.707836151123046875e+00 -3.873849630355834961e+00
2.114000000000000000e+03 3.872103500366210938e+01 -2.886780500411987305e+00 -2.751483201980590820e+00 4.708579540252685547e+00 5.871289968490600586e-01 -3.751534461975097656e+00
2.115000000000000000e+03 4.659501266479492188e+01 -1.517161273956298828e+01 3.162764012813568115e-01 3.142206192016601562e+00 1.037544727325439453e+00 -1.181989550590515137e+00
2.116000000000000000e+03 4.022834777832031250e+01 -6.055498600006103516e+00 1.207494258880615234e+00 4.777859210968017578e+00 1.795606017112731934e+00 -9.029574990272521973e-01
2.117000000000000000e+03 2.530861663818359375e+01 1.805072975158691406e+01 -4.722373962402343750e+00 7.392156124114990234e+00 8.009346127510070801e-01 -1.060881614685058594e+00
2.118000000000000000e+03 2.295126914978027344e+01 2.010938835144042969e+01 -2.164582252502441406e+00 3.646046519279479980e-01 -5.399932861328125000e-01 -1.378121614456176758e+00
2.119000000000000000e+03 7.116211891174316406e+00 2.606566905975341797e+00 1.775021433830261230e+00 3.962469100952148438e+00 1.721247196197509766e+00 -6.918810606002807617e-01
2.120000000000000000e+03 5.483573532104492188e+01 -2.796605825424194336e+00 -2.763263702392578125e+00 5.965044021606445312e+00 9.605340957641601562e-01 -3.215198516845703125e+00
2.121000000000000000e+03 5.302871704101562500e+01 -2.306552410125732422e+00 -4.135409832000732422e+00 6.197548389434814453e+00 6.186416149139404297e-01 -1.834570765495300293e+00
2.122000000000000000e+03 6.038751602172851562e+01 -7.279215753078460693e-02 -3.092694520950317383e+00 3.212601900100708008e+00 3.597219288349151611e-02 3.396095633506774902e-01
2.123000000000000000e+03 5.950222396850585938e+01 -7.965580224990844727e-01 -2.554685592651367188e+00 2.915566682815551758e+00 1.082643344998359680e-01 -7.523704171180725098e-01
2.124000000000000000e+03 2.531216621398925781e+01 -1.099805068969726562e+01 -2.892622053623199463e-01 7.463892459869384766e+00 2.152389049530029297e+00 6.556335091590881348e-01
2.125000000000000000e+03 2.736192321777343750e+01 -1.001722621917724609e+01 1.408811926841735840e+00 7.960041999816894531e+00 2.810656070709228516e+00 -6.490491032600402832e-01
2.126000000000000000e+03 6.803806304931640625e+01 1.381202125549316406e+01 1.315761685371398926e+00 9.151286125183105469e+00 3.140114307403564453e+00 1.332691550254821777e+00
2.127000000000000000e+03 5.497631072998046875e+01 -4.347917556762695312e+00 -2.284683942794799805e+00 5.388836860656738281e+00 9.312459230422973633e-01 -2.045674800872802734e+00
2.128000000000000000e+03 7.234902954101562500e+01 -2.175993728637695312e+01 1.457398980855941772e-01 6.179027080535888672e+00 1.897430181503295898e+00 1.110686540603637695e+00
2.129000000000000000e+03 7.586084747314453125e+01 -1.654168510437011719e+01 5.055519938468933105e-02 8.492543220520019531e+00 2.562929630279541016e+00 -3.489480912685394287e-01
2.130000000000000000e+03 4.214700317382812500e+01 -3.303376197814941406e+00 9.160201549530029297e-01 4.882369518280029297e+00 1.739516854286193848e+00 -1.300670862197875977e+00
2.131000000000000000e+03 4.829344177246093750e+01 3.497135400772094727e+00 1.196472287178039551e+00 3.263430118560791016e+00 1.337970614433288574e+00 1.458284854888916016e+00
2.132000000000000000e+03 3.254101943969726562e+01 1.614798188209533691e+00 2.019377946853637695e+00 1.553724169731140137e+00 1.071930646896362305e+00 4.650004863739013672e+00
2.133000000000000000e+03 4.137072753906250000e+01 1.596688365936279297e+01 1.731865704059600830e-01 4.490317344665527344e+00 1.399051189422607422e+00 2.224197626113891602e+00
2.134000000000000000e+03 7.715688323974609375e+01 -1.532417011260986328e+01 1.977624744176864624e-01 7.882777214050292969e+00 2.424161911010742188e+00 -2.632564306259155273e-01
2.135000000000000000e+03 7.347347259521484375e+01 -1.475677967071533203e+01 1.697760462760925293e+00 1.020059394836425781e+01 3.569506406784057617e+00 4.957847595214843750e-01
2.136000000000000000e+03 7.723173522949218750e+01 -1.405937480926513672e+01 5.881010890007019043e-01 7.775718212127685547e+00 2.509145736694335938e+00 1.139552053064107895e-02
2.137000000000000000e+03 6.243834304809570312e+01 -1.930739593505859375e+01 2.790728807449340820e-01 5.572948932647705078e+00 1.755606532096862793e+00 -1.431575775146484375e+00
2.138000000000000000e+03 6.427902221679687500e+01 -1.520495605468750000e+01 -4.917717576026916504e-01 4.288605690002441406e+00 1.139050126075744629e+00 -7.221315503120422363e-01
2.139000000000000000e+03 1.826474189758300781e+01 1.759623336791992188e+01 -3.496400356292724609e+00 6.151816844940185547e-01 -8.643655776977539062e-01 -1.506783515214920044e-01
2.140000000000000000e+03 1.631362915039062500e+01 1.780533599853515625e+01 -2.772185087203979492e+00 1.628286123275756836e+00 -3.431697189807891846e-01 3.064537644386291504e-01
2.141000000000000000e+03 3.525531387329101562e+01 1.339760541915893555e+00 3.738125324249267578e+00 4.855350971221923828e+00 2.578042745590209961e+00 1.366478800773620605e+00
2.142000000000000000e+03 4.753708648681640625e+01 -1.621698760986328125e+01 -1.058847159147262573e-01 2.512127637863159180e+00 7.218728661537170410e-01 -1.019782423973083496e+00
2.143000000000000000e+03 4.680622577667236328e+00 -2.349343109130859375e+01 -8.349958062171936035e-02 3.579049825668334961e+00 1.048665046691894531e+00 2.230576723814010620e-01
2.144000000000000000e+03 4.822035312652587891e+00 -2.893980026245117188e+01 -4.528008401393890381e-02 3.694199323654174805e+00 1.094675779342651367e+00 1.031285822391510010e-01
2.145000000000000000e+03 4.737923622131347656e+00 -2.624054908752441406e+01 -5.944912508130073547e-02 3.643970251083374023e+00 1.075356364250183105e+00 1.520063877105712891e-01
2.146000000000000000e+03 4.747224330902099609e+00 -2.758498573303222656e+01 -5.285187810659408569e-02 3.672230720520019531e+00 1.085813641548156738e+00 1.338432729244232178e-01
2.147000000000000000e+03 6.037769794464111328e+00 -2.335916519165039062e+01 -1.334924250841140747e-01 3.684315443038940430e+00 1.065246939659118652e+00 2.614791989326477051e-01
2.148000000000000000e+03 3.129328489303588867e+00 -1.823533439636230469e+01 -9.377992898225784302e-02 3.173223972320556641e+00 9.238331913948059082e-01 3.589212596416473389e-01
2.149000000000000000e+03 4.353460311889648438e+00 -1.807588577270507812e+01 -1.519434899091720581e-01 3.356755256652832031e+00 9.614435434341430664e-01 4.456293582916259766e-01
2.150000000000000000e+03 4.634457588195800781e+00 -2.214499092102050781e+01 -1.060505956411361694e-01 3.545551538467407227e+00 1.031850218772888184e+00 2.712973654270172119e-01
2.151000000000000000e+03 4.559160709381103516e+00 -2.079006958007812500e+01 -1.133169010281562805e-01 3.489092111587524414e+00 1.012732505798339844e+00 3.171834349632263184e-01
2.152000000000000000e+03 4.462521076202392578e+00 -1.942998123168945312e+01 -1.423685401678085327e-01 3.436816930770874023e+00 9.883345365524291992e-01 3.761263191699981689e-01
2.153000000000000000e+03 3.597924709320068359e+00 -3.050769615173339844e+01 -1.938990503549575806e-02 3.682328224182128906e+00 1.098881483078002930e+00 6.453063338994979858e-02
2.154000000000000000e+03 3.941484689712524414e+00 -3.766342163085937500e+01 -4.816002678126096725e-03 3.747346162796020508e+00 1.122758984565734863e+00 8.515832945704460144e-03
2.155000000000000000e+03 3.692393779754638672e+00 -1.282227134704589844e+01 -1.646188497543334961e-01 2.798396110534667969e+00 7.901331782341003418e-01 7.719534635543823242e-01
2.156000000000000000e+03 6.488500595092773438e+00 -3.379733657836914062e+01 -3.806344419717788696e-02 3.768871545791625977e+00 1.119242429733276367e+00 5.157830193638801575e-02
2.157000000000000000e+03 5.121985912322998047e+00 -3.180848121643066406e+01 -3.074875660240650177e-02 3.726748466491699219e+00 1.108799934387207031e+00 6.487658619880676270e-02
2.158000000000000000e+03 5.322336196899414062e+00 -3.543634414672851562e+01 -2.596289105713367462e-02 3.751388072967529297e+00 1.117627620697021484e+00 3.997817635536193848e-02
2.159000000000000000e+03 3.512565612792968750e+00 -1.159848594665527344e+01 -1.431173682212829590e-01 2.574090003967285156e+00 7.292917966842651367e-01 8.397108316421508789e-01
2.160000000000000000e+03 4.063970088958740234e+00 -1.539727020263671875e+01 -1.777686625719070435e-01 3.144164323806762695e+00 8.899186849594116211e-01 6.047785282135009766e-01
2.161000000000000000e+03 2.508577108383178711e+00 -1.165197658538818359e+01 -7.147726416587829590e-02 2.153584480285644531e+00 6.246321201324462891e-01 6.704711318016052246e-01
2.162000000000000000e+03 2.523252248764038086e+00 -7.023983478546142578e+00 1.739479452371597290e-01 1.091451883316040039e+00 3.796199560165405273e-01 6.814340353012084961e-01
2.163000000000000000e+03 4.769744873046875000e+01 3.506908416748046875e-01 -3.759829998016357422e-01 2.445220947265625000e+00 6.207713484764099121e-01 4.019395351409912109e+00
2.164000000000000000e+03 3.578860473632812500e+01 4.211435794830322266e+00 1.503791093826293945e+00 8.490404129028320312e+00 2.998258590698242188e+00 6.455632448196411133e-01
2.165000000000000000e+03 2.415309333801269531e+01 -1.183057785034179688e+01 6.291636824607849121e-01 6.161284923553466797e+00 2.037134647369384766e+00 1.888967990875244141e+00
2.166000000000000000e+03 2.731837844848632812e+01 -1.312265014648437500e+01 -2.497004121541976929e-01 5.805509567260742188e+00 1.666742801666259766e+00 -4.255371987819671631e-01
2.167000000000000000e+03 1.659626388549804688e+01 -1.209405040740966797e+01 5.219087935984134674e-03 4.451466083526611328e+00 1.337005615234375000e+00 -9.428306818008422852e-01
2.168000000000000000e+03 7.477862548828125000e+01 -3.824727535247802734e+00 -3.483433723449707031e-01 6.729259014129638672e+00 1.914274811744689941e+00 5.589078068733215332e-01
2.169000000000000000e+03 6.762476348876953125e+01 1.015430331230163574e+00 -1.410665035247802734e+00 7.443217754364013672e+00 1.809765815734863281e+00 5.705588459968566895e-01
2.170000000000000000e+03 4.599084091186523438e+01 5.555564761161804199e-01 -1.892505645751953125e+00 3.158844709396362305e+00 3.799017071723937988e-01 3.387739896774291992e+00
2.171000000000000000e+03 3.514404296875000000e+01 -1.620535850524902344e+01 -8.707576394081115723e-01 1.538347721099853516e+00 2.002770453691482544e-01 -8.224499225616455078e-01
2.172000000000000000e+03 5.412607574462890625e+01 9.518394470214843750e+00 -4.643209278583526611e-01 9.322635650634765625e+00 2.657494544982910156e+00 -2.101989239454269409e-01
2.173000000000000000e+03 2.288551521301269531e+01 -1.289123439788818359e+01 1.101355314254760742e+00 3.787346124649047852e+00 1.466610431671142578e+00 9.964371919631958008e-01
2.174000000000000000e+03 1.356179594993591309e+00 -4.701982975006103516e+00 1.369221359491348267e-01 -5.526132136583328247e-02 2.449824661016464233e-02 1.003764420747756958e-01
2.175000000000000000e+03 7.698368072509765625e+01 -1.164488124847412109e+01 7.257950901985168457e-01 8.382548332214355469e+00 2.732502937316894531e+00 8.909359574317932129e-01
2.176000000000000000e+03 7.722403717041015625e+01 -1.284732151031494141e+01 4.837779402732849121e-01 8.017604827880859375e+00 2.550414800643920898e+00 4.620109498500823975e-01
2.177000000000000000e+03 7.588405609130859375e+01 -9.082728385925292969e+00 5.261485576629638672e-01 8.811836242675781250e+00 2.801395416259765625e+00 1.634444832801818848e+00
2.178000000000000000e+03 7.486089324951171875e+01 -8.416708946228027344e+00 6.798895597457885742e-01 9.189969062805175781e+00 2.960957527160644531e+00 1.336876749992370605e+00
2.179000000000000000e+03 7.632921600341796875e+01 -6.042238712310791016e+00 -5.288151651620864868e-02 8.879250526428222656e+00 2.647910594940185547e+00 1.614453911781311035e+00
2.180000000000000000e+03 7.462097930908203125e+01 -1.639760780334472656e+01 3.236052095890045166e-01 9.046175956726074219e+00 2.810934305191040039e+00 2.299531921744346619e-02
2.181000000000000000e+03 7.561692047119140625e+01 -2.216600418090820312e+01 -3.400045633316040039e-01 7.150438308715820312e+00 2.043130159378051758e+00 4.183456897735595703e-01
2.182000000000000000e+03 7.052003479003906250e+01 3.302742004394531250e+01 5.932989530265331268e-03 6.059113502502441406e+00 1.819514036178588867e+00 -4.335166513919830322e-02
2.183000000000000000e+03 7.506110382080078125e+01 3.120250511169433594e+01 -2.686997130513191223e-02 6.349795818328857422e+00 1.896877765655517578e+00 8.749599568545818329e-03
2.184000000000000000e+03 7.543228149414062500e+01 3.237024307250976562e+01 4.775995912496000528e-04 6.394226551055908203e+00 1.918411254882812500e+00 -1.937450096011161804e-02
2.185000000000000000e+03 7.619373321533203125e+01 -2.778162717819213867e+00 -1.977898478507995605e-01 7.807438373565673828e+00 2.282894611358642578e+00 1.164824128150939941e+00
2.186000000000000000e+03 7.407102203369140625e+01 -1.757292747497558594e+00 -1.202357530593872070e+00 4.446580410003662109e+00 9.732668399810791016e-01 -5.585952401161193848e-01
2.187000000000000000e+03 7.579405975341796875e+01 -1.792541885375976562e+01 -1.858580857515335083e-01 8.266912460327148438e+00 2.424316167831420898e+00 -1.539196968078613281e-01
2.188000000000000000e+03 7.700865936279296875e+01 -1.801543998718261719e+01 -2.012742757797241211e-01 7.814097881317138672e+00 2.283847093582153320e+00 -3.881122469902038574e-01
2.189000000000000000e+03 7.574960327148437500e+01 -1.933383178710937500e+01 -5.296736955642700195e-01 7.897104263305664062e+00 2.210229158401489258e+00 9.618625976145267487e-03
2.190000000000000000e+03 7.580594635009765625e+01 2.115047073364257812e+01 7.680743932723999023e-02 6.503425598144531250e+00 1.974069952964782715e+00 -4.510090127587318420e-02
2.191000000000000000e+03 7.666310882568359375e+01 1.699226951599121094e+01 2.178485691547393799e-01 6.577448844909667969e+00 2.038589239120483398e+00 -3.812440633773803711e-01
2.192000000000000000e+03 7.466663360595703125e+01 1.586300373077392578e+01 7.402492761611938477e-01 6.082702159881591797e+00 2.046885490417480469e+00 -4.455727636814117432e-01
2.193000000000000000e+03 7.379398345947265625e+01 1.215909194946289062e+01 1.081698417663574219e+00 4.617386341094970703e+00 1.709725379943847656e+00 -1.909308910369873047e+00
2.194000000000000000e+03 7.495762634277343750e+01 -2.912322998046875000e+01 1.473958194255828857e-01 6.443230628967285156e+00 1.977187991142272949e+00 2.865993678569793701e-01
2.195000000000000000e+03 7.425173950195312500e+01 -2.341872978210449219e+01 -2.038007825613021851e-01 6.656774520874023438e+00 1.935892105102539062e+00 6.045757532119750977e-01
2.196000000000000000e+03 7.371183013916015625e+01 1.373730564117431641e+01 1.252128005027770996e+00 5.195755004882812500e+00 1.934364914894104004e+00 -8.943167328834533691e-01
2.197000000000000000e+03 7.572126007080078125e+01 1.988467216491699219e+01 2.038514763116836548e-01 6.498121261596679688e+00 2.010591745376586914e+00 -1.102577075362205505e-01
2.198000000000000000e+03 7.532849884033203125e+01 -2.494880104064941406e+01 -8.083591610193252563e-02 6.721648693084716797e+00 1.992243885993957520e+00 4.145208001136779785e-01
2.199000000000000000e+03 7.667251586914062500e+01 -2.504431152343750000e+01 3.143293783068656921e-02 6.958408355712890625e+00 2.096952438354492188e+00 2.843394279479980469e-01
2.200000000000000000e+03 7.514104461669921875e+01 -2.633477210998535156e+01 1.281490474939346313e-01 6.581393241882324219e+00 2.012862682342529297e+00 3.764103055000305176e-01
2.201000000000000000e+03 7.510823059082031250e+01 2.518614006042480469e+01 2.311485633254051208e-02 6.420533657073974609e+00 1.933094501495361328e+00 -2.339192852377891541e-02
2.202000000000000000e+03 7.677027893066406250e+01 2.660473823547363281e+01 2.173636294901371002e-02 6.483218193054199219e+00 1.951486349105834961e+00 -7.980679161846637726e-03
2.203000000000000000e+03 7.425272369384765625e+01 2.337066268920898438e+01 4.307548701763153076e-02 6.422046661376953125e+00 1.939536690711975098e+00 -2.968187071382999420e-02
2.204000000000000000e+03 7.689916992187500000e+01 2.773575973510742188e+01 -3.084892779588699341e-02 6.488325119018554688e+00 1.937242865562438965e+00 1.162578351795673370e-02
2.205000000000000000e+03 7.582782745361328125e+01 2.732306480407714844e+01 6.565415766090154648e-03 6.398845195770263672e+00 1.921623229980468750e+00 -9.953957051038742065e-03
2.206000000000000000e+03 7.648065948486328125e+01 3.022315597534179688e+01 -1.983852311968803406e-02 6.445540428161621094e+00 1.927710652351379395e+00 1.065309718251228333e-02
2.207000000000000000e+03 7.540502929687500000e+01 2.861662673950195312e+01 -2.648108266294002533e-02 6.416192531585693359e+00 1.916913390159606934e+00 -8.806341793388128281e-04
2.208000000000000000e+03 7.334337615966796875e+01 -2.915280532836914062e+01 1.302663832902908325e-01 6.201979637145996094e+00 1.899673819541931152e+00 2.628940641880035400e-01
2.209000000000000000e+03 7.293099212646484375e+01 -3.666754531860351562e+01 8.923470973968505859e-02 6.216453075408935547e+00 1.891706347465515137e+00 1.027817875146865845e-01
2.210000000000000000e+03 7.442910003662109375e+01 3.442936706542968750e+01 5.015038885176181793e-03 6.331756591796875000e+00 1.901031494140625000e+00 -3.694842383265495300e-02
2.211000000000000000e+03 7.516640472412109375e+01 2.993305015563964844e+01 1.248903386294841766e-02 6.361184597015380859e+00 1.912102103233337402e+00 -3.492943197488784790e-02
2.212000000000000000e+03 7.645223236083984375e+01 -3.054243087768554688e+01 8.237100392580032349e-02 6.607025146484375000e+00 2.006818771362304688e+00 1.916788965463638306e-01
2.213000000000000000e+03 7.500598907470703125e+01 -2.773026847839355469e+01 4.174838215112686157e-02 6.506873607635498047e+00 1.964586615562438965e+00 3.199966549873352051e-01
2.214000000000000000e+03 7.494211578369140625e+01 -3.338356781005859375e+01 6.148127466440200806e-02 6.356698036193847656e+00 1.925453782081604004e+00 1.188351213932037354e-01
2.215000000000000000e+03 7.504659271240234375e+01 -3.497775650024414062e+01 4.655858501791954041e-02 6.399893760681152344e+00 1.933935761451721191e+00 1.020780950784683228e-01
2.216000000000000000e+03 3.411864089965820312e+01 4.760620594024658203e+00 7.155675888061523438e-01 4.499997138977050781e+00 1.564669370651245117e+00 1.459240078926086426e+00
2.217000000000000000e+03 6.804836273193359375e+01 1.033249092102050781e+01 1.624871969223022461e+00 1.041866111755371094e+01 3.613059997558593750e+00 -4.743882715702056885e-01
2.218000000000000000e+03 1.625052070617675781e+01 -6.349832534790039062e+00 7.232962846755981445e-01 5.052765369415283203e+00 1.732818484306335449e+00 -2.375903844833374023e+00
2.219000000000000000e+03 1.552354717254638672e+01 -7.336838245391845703e+00 2.126540392637252808e-01 5.567291736602783203e+00 1.733983755111694336e+00 -2.062065839767456055e+00
2.220000000000000000e+03 4.843970108032226562e+01 -1.916335487365722656e+01 -1.346110850572586060e-01 2.506783246994018555e+00 7.116516232490539551e-01 -1.196295738220214844e+00
2.221000000000000000e+03 1.731787490844726562e+01 -8.995018959045410156e+00 3.171638548374176025e-01 4.156931877136230469e+00 1.342228770256042480e+00 -1.817858695983886719e+00
2.222000000000000000e+03 5.081891632080078125e+01 5.993661880493164062e+00 1.784929186105728149e-01 9.120864868164062500e+00 2.789807319641113281e+00 -4.949365556240081787e-01
2.223000000000000000e+03 4.473528861999511719e+00 2.162518692016601562e+01 -4.716144502162933350e-01 5.485434532165527344e+00 1.504146099090576172e+00 -2.264872640371322632e-01
2.224000000000000000e+03 4.423236370086669922e+00 2.301040267944335938e+01 -3.493298292160034180e-01 5.473509788513183594e+00 1.537253975868225098e+00 -9.348250180482864380e-02
2.225000000000000000e+03 4.568667888641357422e+00 2.577156639099121094e+01 -1.802473217248916626e-01 5.363028526306152344e+00 1.554834365844726562e+00 1.961050629615783691e-01
2.226000000000000000e+03 4.070237636566162109e+00 1.614972877502441406e+01 -8.429295420646667480e-01 5.268187522888183594e+00 1.327577471733093262e+00 -1.623650431632995605e+00
2.227000000000000000e+03 4.539370536804199219e+00 2.018340873718261719e+01 -6.532689929008483887e-01 5.502913475036621094e+00 1.454893350601196289e+00 -5.784384012222290039e-01
2.228000000000000000e+03 3.032220125198364258e+00 1.747804832458496094e+01 -4.495856761932373047e-01 5.282674789428710938e+00 1.449926614761352539e+00 -1.029335141181945801e+00
2.229000000000000000e+03 4.252621650695800781e+00 1.730904579162597656e+01 -8.545703291893005371e-01 5.439506530761718750e+00 1.375480890274047852e+00 -1.295921444892883301e+00
2.230000000000000000e+03 3.014150857925415039e+00 1.478818702697753906e+01 -4.926666021347045898e-01 4.520538330078125000e+00 1.208361506462097168e+00 -1.832840681076049805e+00
2.231000000000000000e+03 5.624830245971679688e+00 2.301421928405761719e+01 -5.247430801391601562e-01 5.249975681304931641e+00 1.417569756507873535e+00 1.444918289780616760e-02
2.232000000000000000e+03 4.781148910522460938e+00 2.717919158935546875e+01 -1.120638325810432434e-01 5.242664813995361328e+00 1.539180278778076172e+00 2.968897223472595215e-01
2.233000000000000000e+03 4.441768169403076172e+00 2.438436698913574219e+01 -2.674595117568969727e-01 5.440702915191650391e+00 1.551972985267639160e+00 1.109647378325462341e-01
2.234000000000000000e+03 9.722343444824218750e+00 1.024020385742187500e+01 -1.717730879783630371e+00 1.146992492675781250e+01 2.925657987594604492e+00 -7.212556600570678711e-01
2.235000000000000000e+03 4.277208805084228516e+00 1.486329555511474609e+01 -9.291546940803527832e-01 5.228761672973632812e+00 1.289882063865661621e+00 -2.168168067932128906e+00
2.236000000000000000e+03 5.195662498474121094e+00 3.325775146484375000e+01 8.930717408657073975e-02 4.913889408111572266e+00 1.500959038734436035e+00 3.078016936779022217e-01
2.237000000000000000e+03 6.611484050750732422e+00 3.599950408935546875e+01 1.300244629383087158e-01 4.646113395690917969e+00 1.432841420173645020e+00 2.453173249959945679e-01
2.238000000000000000e+03 3.533733844757080078e+00 3.452122497558593750e+01 6.011545658111572266e-02 5.197402477264404297e+00 1.577255368232727051e+00 2.332161366939544678e-01
2.239000000000000000e+03 4.978824615478515625e+00 2.864082145690917969e+01 -3.361340984702110291e-02 5.162865638732910156e+00 1.538775682449340820e+00 3.227242529392242432e-01
2.240000000000000000e+03 6.302249908447265625e+00 3.419108200073242188e+01 1.133553981781005859e-01 4.623993873596191406e+00 1.421204805374145508e+00 3.002322018146514893e-01
2.241000000000000000e+03 4.939438819885253906e+00 3.455987548828125000e+01 5.504483357071876526e-02 5.005858898162841797e+00 1.518271088600158691e+00 2.419332265853881836e-01
2.242000000000000000e+03 3.640495538711547852e+00 3.314167022705078125e+01 2.178247272968292236e-02 5.275063037872314453e+00 1.589053630828857422e+00 2.515439093112945557e-01
2.243000000000000000e+03 5.147502422332763672e+00 3.018565940856933594e+01 -8.111133240163326263e-03 5.019532680511474609e+00 1.503426432609558105e+00 3.593439459800720215e-01
2.244000000000000000e+03 6.150915622711181641e+00 1.411944389343261719e+01 -1.572275161743164062e+00 6.268213272094726562e+00 1.408781409263610840e+00 -2.424960136413574219e+00
2.245000000000000000e+03 2.617856264114379883e+00 8.801783561706542969e+00 6.471186280250549316e-01 9.022266864776611328e-01 4.648036062717437744e-01 -2.141412258148193359e+00
2.246000000000000000e+03 5.899628162384033203e+00 1.117346191406250000e+01 -7.138261795043945312e-01 6.619975090026855469e+00 1.771844744682312012e+00 -3.384830236434936523e+00
2.247000000000000000e+03 1.714511871337890625e+01 2.018913269042968750e+01 -1.743909358978271484e+00 1.283666968345642090e+00 -1.380727291107177734e-01 5.460286736488342285e-01
2.248000000000000000e+03 3.838523387908935547e+00 9.473755836486816406e+00 7.136218547821044922e-01 3.215110778808593750e+00 1.178619861602783203e+00 -3.194018602371215820e+00
2.249000000000000000e+03 2.427975893020629883e+00 6.328388690948486328e+00 1.162177920341491699e+00 -7.060196995735168457e-01 1.368474811315536499e-01 -5.260577797889709473e-01
2.250000000000000000e+03 3.482463121414184570e+00 7.493437290191650391e+00 1.613116145133972168e+00 1.508251786231994629e+00 9.364103674888610840e-01 -2.042644977569580078e+00
2.251000000000000000e+03 6.945133972167968750e+01 -3.031208515167236328e+00 -3.788685798645019531e+00 3.833425045013427734e+00 1.342176459729671478e-02 -1.234457850456237793e+00
2.252000000000000000e+03 7.126118469238281250e+01 -3.524343013763427734e+00 -1.841351985931396484e+00 4.387105941772460938e+00 7.637261152267456055e-01 -1.577085256576538086e+00
2.253000000000000000e+03 6.131553649902343750e+01 -3.871150732040405273e+00 2.838826656341552734e+00 7.789968013763427734e+00 3.188638448715209961e+00 9.959065318107604980e-01
2.254000000000000000e+03 5.699703979492187500e+01 1.301715183258056641e+01 1.347861588001251221e-01 2.514836311340332031e+00 7.948867678642272949e-01 1.213626384735107422e+00
2.255000000000000000e+03 5.562065887451171875e+01 1.313649654388427734e+01 7.626088857650756836e-01 5.209033489227294922e+00 1.791492700576782227e+00 1.459623694419860840e+00
2.256000000000000000e+03 6.706378936767578125e+01 5.631659507751464844e+00 3.945348262786865234e-01 9.529335021972656250e+00 2.977160930633544922e+00 -1.665476799011230469e+00
2.257000000000000000e+03 5.010395431518554688e+01 3.989662170410156250e+00 1.524803757667541504e+00 6.136394977569580078e+00 2.298359632492065430e+00 4.660484492778778076e-01
2.258000000000000000e+03 2.676427841186523438e+01 -7.399550437927246094e+00 2.665498018264770508e+00 8.751374244689941406e+00 3.425061702728271484e+00 1.348001480102539062e+00
2.259000000000000000e+03 1.970245552062988281e+01 5.199785709381103516e+00 4.545884132385253906e+00 7.948083877563476562e-01 1.602207779884338379e+00 1.560461640357971191e+00
2.260000000000000000e+03 3.334425354003906250e+01 2.533841371536254883e+00 2.757063388824462891e+00 2.728909254074096680e+00 1.645791769027709961e+00 3.761481761932373047e+00
2.261000000000000000e+03 4.478719329833984375e+01 -1.889043331146240234e+00 -3.266562700271606445e+00 6.901428699493408203e+00 1.090459823608398438e+00 2.939430713653564453e+00
2.262000000000000000e+03 3.983483505249023438e+01 1.362754344940185547e+01 2.220190048217773438e+00 7.077480792999267578e+00 2.789301156997680664e+00 3.089456319808959961e+00
2.263000000000000000e+03 4.104330062866210938e+01 1.297981739044189453e+01 1.900566339492797852e+00 3.384022235870361328e+00 1.585376620292663574e+00 2.469590663909912109e+00
2.264000000000000000e+03 5.957241058349609375e+01 -1.647459220886230469e+01 1.219039559364318848e+00 8.468514442443847656e+00 2.906265974044799805e+00 -2.770487070083618164e-01
2.265000000000000000e+03 2.421677589416503906e+01 8.200258255004882812e+00 -1.029392242431640625e+00 8.730229377746582031e+00 2.310251235961914062e+00 3.694445610046386719e+00
2.266000000000000000e+03 2.744382476806640625e+01 -6.932574510574340820e-01 3.300813674926757812e+00 2.684474945068359375e+00 1.795586585998535156e+00 -7.039394974708557129e-01
2.267000000000000000e+03 5.767061614990234375e+01 1.396948719024658203e+01 1.620291322469711304e-01 2.361794948577880859e+00 7.571471929550170898e-01 1.444820523262023926e+00
2.268000000000000000e+03 5.466476058959960938e+01 1.295549583435058594e+01 1.177678108215332031e+00 6.420597553253173828e+00 2.279482841491699219e+00 1.706145405769348145e+00
2.269000000000000000e+03 4.288632583618164062e+01 -6.198707580566406250e+00 2.048967599868774414e+00 9.250555992126464844e+00 3.389857053756713867e+00 1.357754588127136230e+00
2.270000000000000000e+03 4.259524154663085938e+01 -4.487087726593017578e+00 1.858005285263061523e+00 6.651797294616699219e+00 2.552940845489501953e+00 -2.622773647308349609e-01
2.271000000000000000e+03 6.391431427001953125e+01 2.736111879348754883e+00 -1.691101431846618652e+00 4.838481903076171875e+00 9.442141056060791016e-01 2.059057712554931641e+00
2.272000000000000000e+03 7.221839904785156250e+01 -3.391452312469482422e+00 -1.578157663345336914e+00 5.245545387268066406e+00 1.100216269493103027e+00 -1.056710124015808105e+00
2.273000000000000000e+03 7.304211425781250000e+01 -1.970949292182922363e+00 -1.336762905120849609e+00 4.082359313964843750e+00 8.236789703369140625e-01 -1.030061244964599609e+00
2.274000000000000000e+03 2.959434127807617188e+01 -9.152720451354980469e+00 8.054101467132568359e-01 4.826512336730957031e+00 1.689576745033264160e+00 -8.077170252799987793e-01
2.275000000000000000e+03 3.925951766967773438e+01 -4.042046546936035156e+00 -7.893608808517456055e-01 3.629330873489379883e+00 8.519909977912902832e-01 -2.798593044281005859e+00
2.276000000000000000e+03 7.090249633789062500e+01 9.915752410888671875e+00 -3.786414563655853271e-01 3.061528682708740234e+00 8.048661947250366211e-01 1.391201734542846680e+00
2.277000000000000000e+03 5.701752090454101562e+01 -3.965740203857421875e+00 -7.811086177825927734e-01 4.903677940368652344e+00 1.236770749092102051e+00 -2.239804267883300781e+00
2.278000000000000000e+03 4.505071640014648438e+01 1.805894279479980469e+01 6.749942302703857422e-01 2.344840526580810547e+00 9.059504270553588867e-01 7.229679226875305176e-01
2.279000000000000000e+03 4.990046691894531250e+01 5.230631828308105469e+00 1.108108520507812500e+00 6.956396102905273438e+00 2.419351339340209961e+00 3.759442269802093506e-01
2.280000000000000000e+03 3.869128417968750000e+01 1.427716636657714844e+01 5.289243459701538086e-01 8.307006835937500000e+00 2.650779485702514648e+00 3.055767297744750977e+00
2.281000000000000000e+03 2.810587310791015625e+01 -8.394096374511718750e+00 1.674279332160949707e+00 6.969875335693359375e+00 2.593246459960937500e+00 2.693310976028442383e-01
2.282000000000000000e+03 5.161075210571289062e+01 -2.095087766647338867e+00 -3.779546976089477539e+00 4.587125778198242188e+00 2.422736436128616333e-01 -4.815849363803863525e-01
2.283000000000000000e+03 5.102834701538085938e+01 -9.231827259063720703e-01 -2.269150733947753906e+00 4.967581748962402344e+00 8.095293045043945312e-01 4.883154332637786865e-01
2.284000000000000000e+03 1.537138652801513672e+01 -5.235599994659423828e+00 1.032504081726074219e+00 5.887663364410400391e+00 2.076050281524658203e+00 -2.690599203109741211e+00
2.285000000000000000e+03 7.180731964111328125e+01 1.202549362182617188e+01 1.626308321952819824e+00 3.044646263122558594e+00 1.401286363601684570e+00 -2.681350409984588623e-01
2.286000000000000000e+03 6.754309844970703125e+01 3.377243995666503906e+00 1.978704571723937988e+00 8.649567604064941406e+00 3.188481569290161133e+00 2.777426838874816895e-01
2.287000000000000000e+03 6.588703918457031250e+01 4.436279773712158203e+00 7.110899686813354492e-01 6.668644905090332031e+00 2.213920354843139648e+00 2.770205736160278320e-01
2.288000000000000000e+03 9.536828041076660156e+00 1.277987957000732422e+01 -2.420071363449096680e+00 7.693135738372802734e+00 1.581919193267822266e+00 -7.024993896484375000e-01
2.289000000000000000e+03 3.601051712036132812e+01 2.402472972869873047e+00 4.933468341827392578e+00 7.770413398742675781e+00 3.811164617538452148e+00 4.796295464038848877e-01
2.290000000000000000e+03 6.892346191406250000e+01 9.654635936021804810e-02 -2.561178207397460938e+00 6.332403659820556641e+00 1.131367683410644531e+00 -1.025011539459228516e+00
2.291000000000000000e+03 1.378785896301269531e+01 1.464835739135742188e+01 -2.606071710586547852e+00 2.969464302062988281e+00 1.090177670121192932e-01 3.260182142257690430e-01
2.292000000000000000e+03 1.183626270294189453e+01 1.487337017059326172e+01 -2.713184595108032227e+00 5.125894069671630859e+00 7.238128185272216797e-01 3.165414929389953613e-01
2.293000000000000000e+03 6.399247360229492188e+01 -1.374726963043212891e+01 -5.858331918716430664e-01 4.579487323760986328e+00 1.198096275329589844e+00 -4.851936101913452148e-01
2.294000000000000000e+03 6.247801589965820312e+01 -1.299089145660400391e+01 -4.713647961616516113e-01 6.753326892852783203e+00 1.884588718414306641e+00 6.292194128036499023e-02
2.295000000000000000e+03 6.659919738769531250e+01 -1.695870208740234375e+01 3.612174093723297119e-02 2.045814990997314453e+00 6.245810389518737793e-01 -5.932775735855102539e-01
2.296000000000000000e+03 6.495353698730468750e+01 -1.605743217468261719e+01 -6.692270040512084961e-01 3.604458332061767578e+00 8.805693984031677246e-01 -9.354031682014465332e-01
2.297000000000000000e+03 3.265980529785156250e+01 1.827326202392578125e+01 2.442180961370468140e-01 2.441707611083984375e+00 8.057777285575866699e-01 2.224892079830169678e-01
2.298000000000000000e+03 3.247785949707031250e+01 1.604141426086425781e+01 7.359570264816284180e-01 5.229734778404235840e-01 3.776791393756866455e-01 1.113023757934570312e-01
2.299000000000000000e+03 5.706826782226562500e+01 -2.313248443603515625e+01 -6.093218922615051270e-01 6.012567996978759766e+00 1.620973706245422363e+00 4.007595181465148926e-01
2.300000000000000000e+03 5.798738098144531250e+01 -2.174330329895019531e+01 -1.634073704481124878e-01 7.036796092987060547e+00 2.062016487121582031e+00 2.848159670829772949e-01
2.301000000000000000e+03 6.881157684326171875e+01 -2.154108047485351562e+00 -3.890633821487426758e+00 4.257111549377441406e+00 1.099433228373527527e-01 -1.201840519905090332e+00
2.302000000000000000e+03 2.884334754943847656e+01 -1.081933403015136719e+01 5.419622063636779785e-01 5.649986743927001953e+00 1.857584714889526367e+00 -1.262819290161132812e+00
2.303000000000000000e+03 5.990131378173828125e+01 1.561545467376708984e+01 7.028900384902954102e-01 1.255429387092590332e+00 5.874958038330078125e-01 5.835665464401245117e-01
2.304000000000000000e+03 6.508339691162109375e+01 1.785394477844238281e+01 2.289233207702636719e-01 5.812194824218750000e+00 1.812335491180419922e+00 -1.712589025497436523e+00
2.305000000000000000e+03 6.393098449707031250e+01 1.621547698974609375e+01 1.480619013309478760e-01 4.904197692871093750e+00 1.515677928924560547e+00 -3.064345598220825195e+00
2.306000000000000000e+03 5.715032577514648438e+01 -1.846878647804260254e+00 -1.536050796508789062e+00 2.877947807312011719e+00 4.025690853595733643e-01 -3.770934104919433594e+00
2.307000000000000000e+03 6.941332244873046875e+01 1.266584682464599609e+01 1.882411718368530273e+00 6.870056152343750000e+00 2.625740289688110352e+00 1.359094262123107910e+00
2.308000000000000000e+03 4.925267791748046875e+01 -2.013059425354003906e+01 2.889209054410457611e-02 2.271436691284179688e+00 6.900986433029174805e-01 -9.043067097663879395e-01
2.309000000000000000e+03 5.332585525512695312e+01 -4.141585350036621094e+00 -3.626127958297729492e+00 4.783130168914794922e+00 3.471005856990814209e-01 -1.453627824783325195e+00
2.310000000000000000e+03 5.430695343017578125e+01 -5.244570255279541016e+00 -2.140280961990356445e+00 5.037348747253417969e+00 8.691203594207763672e-01 -1.373190641403198242e+00
2.311000000000000000e+03 5.735524749755859375e+01 -1.062508201599121094e+01 3.370434641838073730e-01 8.619443893432617188e+00 2.686946392059326172e+00 4.182339906692504883e-01
2.312000000000000000e+03 5.779719924926757812e+01 -8.577131271362304688e+00 2.706447243690490723e-01 7.413745880126953125e+00 2.305317163467407227e+00 6.316431760787963867e-01
2.313000000000000000e+03 3.564090347290039062e+01 1.689536094665527344e+01 -4.053376317024230957e-01 4.493147373199462891e+00 1.226343035697937012e+00 -2.138690471649169922e+00
2.314000000000000000e+03 6.042078399658203125e+01 -1.088035011291503906e+01 -5.661995708942413330e-02 8.251228332519531250e+00 2.458382368087768555e+00 1.225705504417419434e+00
2.315000000000000000e+03 5.994725799560546875e+01 -6.352346897125244141e+00 8.970510959625244141e-01 7.714148998260498047e+00 2.583359956741333008e+00 1.119362950325012207e+00
2.316000000000000000e+03 7.819030761718750000e+00 1.410294914245605469e+01 -2.168589830398559570e+00 6.842504978179931641e+00 1.402174472808837891e+00 -1.746067047119140625e+00
2.317000000000000000e+03 5.856516647338867188e+01 -1.468881702423095703e+01 1.010131955146789551e+00 8.890221595764160156e+00 2.970106124877929688e+00 2.756416201591491699e-01
2.318000000000000000e+03 6.101866149902343750e+01 -8.193691253662109375e+00 8.374651074409484863e-01 8.571402549743652344e+00 2.822660207748413086e+00 1.492616057395935059e+00
2.319000000000000000e+03 5.880096435546875000e+01 -8.178995132446289062e+00 4.153540134429931641e-01 7.486829757690429688e+00 2.370655059814453125e+00 7.527961730957031250e-01
2.320000000000000000e+03 3.031337547302246094e+01 -1.276605033874511719e+01 -1.275011301040649414e-01 3.978575468063354492e+00 1.155322313308715820e+00 -1.215572476387023926e+00
2.321000000000000000e+03 1.515570449829101562e+01 1.718472290039062500e+01 -2.531069755554199219e+00 1.972669482231140137e+00 -1.675200909376144409e-01 3.831969797611236572e-01
2.322000000000000000e+03 5.961316680908203125e+01 -1.276894950866699219e+01 2.818908393383026123e-01 8.380596160888671875e+00 2.598746061325073242e+00 8.629994392395019531e-01
2.323000000000000000e+03 4.476328277587890625e+01 -1.506884002685546875e+01 7.196154594421386719e-01 5.483284473419189453e+00 1.860870003700256348e+00 -1.268319010734558105e+00
2.324000000000000000e+03 5.926423645019531250e+01 -5.511551856994628906e+00 1.323007702827453613e+00 6.222470760345458984e+00 2.263643503189086914e+00 1.586120724678039551e-01
2.325000000000000000e+03 1.763943481445312500e+01 -1.156111812591552734e+01 3.949958086013793945e-01 4.066818714141845703e+00 1.338544368743896484e+00 -1.119192361831665039e+00
2.326000000000000000e+03 4.376758575439453125e+01 1.826596832275390625e+01 5.794134140014648438e-01 2.955134630203247070e+00 1.060364365577697754e+00 1.220125555992126465e+00
2.327000000000000000e+03 4.305043411254882812e+01 -1.470281982421875000e+01 1.598077058792114258e+00 8.260291099548339844e+00 2.957510471343994141e+00 -5.625678896903991699e-01
2.328000000000000000e+03 4.378374862670898438e+01 -1.585424518585205078e+01 6.327449679374694824e-01 6.939905166625976562e+00 2.271795034408569336e+00 -1.083609223365783691e+00
2.329000000000000000e+03 5.315946197509765625e+01 -1.430673241615295410e+00 -3.163093805313110352e+00 7.003518581390380859e+00 1.152127385139465332e+00 -2.290420055389404297e+00
2.330000000000000000e+03 6.183432769775390625e+01 -5.186506509780883789e-01 -3.446149587631225586e+00 6.040740489959716797e+00 7.783772945404052734e-01 1.422087907791137695e+00
2.331000000000000000e+03 6.098768234252929688e+01 -8.796801567077636719e-01 -2.881305217742919922e+00 5.601417064666748047e+00 8.160336017608642578e-01 7.717458605766296387e-01
2.332000000000000000e+03 4.385013961791992188e+01 -1.368759155273437500e+01 1.273164153099060059e+00 7.695433139801025391e+00 2.690579175949096680e+00 -2.603490650653839111e-01
2.333000000000000000e+03 4.408354949951171875e+01 -1.154941272735595703e+01 2.714809216558933258e-02 7.884913921356201172e+00 2.373618602752685547e+00 2.023110687732696533e-01
2.334000000000000000e+03 2.038501739501953125e+01 -1.133431434631347656e+01 9.205909371376037598e-01 2.875955343246459961e+00 1.138963937759399414e+00 -5.827361941337585449e-01
2.335000000000000000e+03 7.410908508300781250e+01 -6.747030258178710938e+00 -1.675170660018920898e-01 8.182839393615722656e+00 2.404596567153930664e+00 8.865056037902832031e-01
2.336000000000000000e+03 3.521687316894531250e+01 -1.946076011657714844e+01 3.284110724925994873e-01 2.499590873718261719e+00 8.484005928039550781e-01 -3.685971200466156006e-01
2.337000000000000000e+03 6.296400070190429688e+01 1.797770023345947266e+00 -2.480036258697509766e+00 4.470849037170410156e+00 5.972437858581542969e-01 2.507642507553100586e+00
2.338000000000000000e+03 5.326409149169921875e+01 7.279286980628967285e-01 -7.172598838806152344e-01 1.064475440979003906e+01 2.978248357772827148e+00 -4.339734315872192383e-01
2.339000000000000000e+03 5.119431304931640625e+01 2.479676961898803711e+00 2.529678583145141602e+00 7.276742935180664062e+00 2.941926479339599609e+00 5.010793209075927734e-01
2.340000000000000000e+03 5.371082687377929688e+01 1.306353855133056641e+01 1.433307409286499023e+00 8.525037765502929688e+00 2.987503528594970703e+00 1.627138018608093262e+00
2.341000000000000000e+03 5.317198944091796875e+01 1.224051666259765625e+01 2.255455970764160156e+00 9.938429832458496094e+00 3.658165693283081055e+00 2.031564712524414062e-01
2.342000000000000000e+03 3.159943008422851562e+01 1.733357429504394531e+01 3.034021258354187012e-01 1.557385563850402832e+00 5.582363009452819824e-01 8.330202102661132812e-01
2.343000000000000000e+03 2.851674842834472656e+01 1.952737998962402344e+01 -1.278743267059326172e+00 4.548312664031982422e+00 9.808707833290100098e-01 8.649826645851135254e-01
2.344000000000000000e+03 5.485771560668945312e+01 1.180485439300537109e+01 8.965682387351989746e-01 6.232484340667724609e+00 2.138715744018554688e+00 9.019991755485534668e-01
2.345000000000000000e+03 7.204116058349609375e+01 -2.175107479095458984e+00 -1.482064127922058105e+00 3.970422744750976562e+00 7.465075850486755371e-01 -2.281002283096313477e+00
2.346000000000000000e+03 4.117141723632812500e+01 -1.924884414672851562e+01 -9.881745576858520508e-01 6.817767620086669922e+00 1.748877882957458496e+00 1.000296711921691895e+00
2.347000000000000000e+03 4.649302005767822266e+00 -2.194002389907836914e+00 6.678037047386169434e-01 3.134223222732543945e-01 2.943678200244903564e-01 2.267407327890396118e-01
2.348000000000000000e+03 7.697535037994384766e+00 -1.651007890701293945e+00 2.813222885131835938e+00 1.784941911697387695e+00 1.379449486732482910e+00 2.404602289199829102e+00
2.349000000000000000e+03 4.835071086883544922e+00 -2.677225589752197266e+00 9.270067214965820312e-01 5.417463183403015137e-01 4.406259059906005859e-01 4.776211082935333252e-01
2.350000000000000000e+03 5.043616294860839844e+00 -1.968894004821777344e+00 6.965549588203430176e-01 2.842926979064941406e-01 2.942543029785156250e-01 2.647046744823455811e-01
2.351000000000000000e+03 5.670888900756835938e+00 -2.794108390808105469e+00 1.350351214408874512e+00 9.995511770248413086e-01 7.049707174301147461e-01 1.029222369194030762e+00
2.352000000000000000e+03 7.005384922027587891e+00 2.305604219436645508e+00 1.063322782516479492e+00 2.877252101898193359e+00 1.182172536849975586e+00 -5.150934457778930664e-01
2.353000000000000000e+03 3.373932600021362305e+00 6.493647098541259766e+00 1.937072753906250000e+00 6.770688295364379883e-01 7.842424511909484863e-01 -9.727575182914733887e-01
2.354000000000000000e+03 6.203705787658691406e+00 -2.503403425216674805e+00 1.631364464759826660e+00 1.117542266845703125e+00 8.246720433235168457e-01 1.283695936203002930e+00
2.355000000000000000e+03 6.606441497802734375e+00 -2.275336742401123047e+00 1.863904118537902832e+00 1.195100188255310059e+00 9.177013039588928223e-01 1.520123720169067383e+00
2.356000000000000000e+03 6.676789283752441406e+00 -2.085663318634033203e+00 1.862366437911987305e+00 1.086590886116027832e+00 8.846871852874755859e-01 1.442862391471862793e+00
2.357000000000000000e+03 7.882216930389404297e+00 -2.239350080490112305e+00 2.759056568145751953e+00 3.248309373855590820e+00 1.802209734916687012e+00 3.309473276138305664e+00
2.358000000000000000e+03 1.440099620819091797e+01 -5.677656173706054688e+00 4.642783403396606445e-01 6.743215560913085938e+00 2.162248134613037109e+00 -2.422033071517944336e+00
2.359000000000000000e+03 1.228634452819824219e+01 -2.421913862228393555e+00 1.856093883514404297e+00 1.233398151397705078e+01 4.257022857666015625e+00 -3.767811775207519531e+00
2.360000000000000000e+03 1.330843067169189453e+01 -1.267468094825744629e+00 3.217206954956054688e+00 9.198513984680175781e+00 3.724716186523437500e+00 -3.728272199630737305e+00
2.361000000000000000e+03 1.354075145721435547e+01 -2.359852075576782227e+00 2.638831615447998047e+00 8.479396820068359375e+00 3.335468530654907227e+00 -3.906203508377075195e+00
2.362000000000000000e+03 1.194142532348632812e+01 -1.290264606475830078e+00 5.206976890563964844e+00 1.470423793792724609e+01 5.973364830017089844e+00 -4.301801681518554688e+00
2.363000000000000000e+03 2.624937534332275391e+00 -4.874835491180419922e+00 3.751752376556396484e-01 5.458018779754638672e-01 2.762931287288665771e-01 3.743540048599243164e-01
2.364000000000000000e+03 8.974308013916015625e+00 2.337239503860473633e+00 1.284435987472534180e-01 1.201665306091308594e+01 3.643529176712036133e+00 -5.749479770660400391e+00
2.365000000000000000e+03 1.022332286834716797e+01 2.212604999542236328e+00 -1.687695503234863281e+00 1.928822135925292969e+01 5.280157566070556641e+00 -8.485543251037597656e+00
2.366000000000000000e+03 3.564630746841430664e+00 2.558247566223144531e+00 5.471535027027130127e-02 -3.153927624225616455e-01 -7.820322364568710327e-02 1.916196465492248535e+00
2.367000000000000000e+03 1.219629287719726562e+00 -1.953600049018859863e+00 1.728649018332362175e-03 -1.728095561265945435e-01 -5.132427439093589783e-02 -2.292286306619644165e-01
2.368000000000000000e+03 7.908414840698242188e+00 2.424042463302612305e+00 1.588118910789489746e+00 5.585884094238281250e+00 2.152200937271118164e+00 -2.560044288635253906e+00
2.369000000000000000e+03 1.237408638000488281e+01 8.823981285095214844e-01 7.593589305877685547e+00 1.131483364105224609e+01 5.672526836395263672e+00 5.847989916801452637e-01
2.370000000000000000e+03 3.407256364822387695e+00 -3.703109979629516602e+00 6.012402176856994629e-01 5.080823898315429688e-01 3.327967822551727295e-01 3.135640323162078857e-01
2.371000000000000000e+03 3.923457145690917969e+00 -2.405030250549316406e+00 4.725804030895233154e-01 2.506829202175140381e-01 2.169789969921112061e-01 6.508048623800277710e-02
2.372000000000000000e+03 7.747386455535888672e+00 2.608174800872802734e+00 1.883457064628601074e+00 5.661798477172851562e+00 2.263576745986938477e+00 -2.376404523849487305e+00
2.373000000000000000e+03 1.650268077850341797e+00 -1.958197593688964844e+00 9.350111708045005798e-03 -1.071021631360054016e-01 -2.932561375200748444e-02 -2.764491140842437744e-01
2.374000000000000000e+03 1.434220790863037109e+00 -2.799128055572509766e+00 7.679479569196701050e-02 -1.820097118616104126e-01 -3.156447410583496094e-02 -1.971424520015716553e-01
2.375000000000000000e+03 2.017783403396606445e+00 -2.094844579696655273e+00 5.612476542592048645e-02 -5.281206220388412476e-02 9.938117582350969315e-04 -2.599260210990905762e-01
2.376000000000000000e+03 3.825449466705322266e+00 2.774538993835449219e+00 3.226893246173858643e-01 -1.236471235752105713e-01 5.971265584230422974e-02 1.858640432357788086e+00
2.377000000000000000e+03 2.586178779602050781e+00 -2.241091012954711914e+00 1.458040028810501099e-01 5.592412501573562622e-02 6.051843985915184021e-02 -2.067577242851257324e-01
2.378000000000000000e+03 9.206447601318359375e+00 2.921085357666015625e+00 1.151972055435180664e+00 1.508390331268310547e+01 4.870762825012207031e+00 -6.073554515838623047e+00
2.379000000000000000e+03 1.059450721740722656e+01 3.051142930984497070e+00 -1.335936546325683594e+00 1.805592536926269531e+01 5.015996456146240234e+00 -9.593198776245117188e+00
2.380000000000000000e+03 3.113907814025878906e+00 1.948282599449157715e+00 -6.705020070075988770e-01 -3.936295509338378906e-01 -3.192394673824310303e-01 1.918436884880065918e+00
2.381000000000000000e+03 1.075327682495117188e+01 2.510812282562255859e+00 1.853512078523635864e-01 1.695958900451660156e+01 5.143482208251953125e+00 -7.153839588165283203e+00
2.382000000000000000e+03 7.845194935798645020e-01 3.597009897232055664e+00 2.967681735754013062e-02 -2.385900735855102539e+00 -7.068672180175781250e-01 8.515862822532653809e-01
2.383000000000000000e+03 8.785740137100219727e-01 2.657674074172973633e+00 -5.734302848577499390e-02 -1.782001614570617676e+00 -5.518034100532531738e-01 9.500295519828796387e-01
2.384000000000000000e+03 8.556375503540039062e+00 2.524916648864746094e+00 1.374645352363586426e+00 9.506168365478515625e+00 3.264244079589843750e+00 -4.837553977966308594e+00
2.385000000000000000e+03 1.210514640808105469e+01 6.086094975471496582e-01 7.504254341125488281e+00 1.306985950469970703e+01 6.172234058380126953e+00 4.442971348762512207e-01
2.386000000000000000e+03 1.315033912658691406e+01 9.064809978008270264e-02 6.322046279907226562e+00 8.839878082275390625e+00 4.548577308654785156e+00 -5.399046540260314941e-01
2.387000000000000000e+03 1.238514614105224609e+01 -1.747320294380187988e-01 8.368632316589355469e+00 1.157281875610351562e+01 5.982435226440429688e+00 -1.906273722648620605e+00
2.388000000000000000e+03 1.238860797882080078e+01 2.339182138442993164e+00 5.155397415161132812e+00 8.155083656311035156e+00 3.993144273757934570e+00 -1.457210421562194824e+00
2.389000000000000000e+03 9.453781843185424805e-01 -2.876618146896362305e+00 5.528441816568374634e-02 -3.301030993461608887e-01 -8.244560658931732178e-02 -1.491207927465438843e-01
2.390000000000000000e+03 1.238613128662109375e+01 -1.483332037925720215e+00 3.743804931640625000e+00 1.280183887481689453e+01 4.963693141937255859e+00 -4.235670566558837891e+00
2.391000000000000000e+03 1.302320861816406250e+01 -2.746110677719116211e+00 1.922287106513977051e+00 1.028627872467041016e+01 3.662569761276245117e+00 -3.939231395721435547e+00
2.392000000000000000e+03 2.836821079254150391e+00 -6.135786533355712891e+00 2.703705132007598877e-01 1.020736098289489746e+00 3.873319923877716064e-01 6.653792262077331543e-01
2.393000000000000000e+03 8.444112777709960938e+00 5.862430095672607422e+00 1.001329898834228516e+01 1.432244014739990234e+01 7.300721645355224609e+00 -4.311604499816894531e+00
2.394000000000000000e+03 1.367834091186523438e+01 9.655079841613769531e-01 5.086776256561279297e+00 7.566741466522216797e+00 3.796055316925048828e+00 2.717873096466064453e+00
2.395000000000000000e+03 1.118085002899169922e+01 2.566224575042724609e+00 1.936786055564880371e+00 1.583697795867919922e+01 5.332129001617431641e+00 -5.405614852905273438e+00
2.396000000000000000e+03 3.277797698974609375e+00 -8.292133331298828125e+00 7.990150153636932373e-02 1.846178889274597168e+00 5.778241157531738281e-01 9.392285943031311035e-01
2.397000000000000000e+03 3.601168155670166016e+00 -6.547143459320068359e+00 3.289445340633392334e-01 1.558119535446166992e+00 5.661191940307617188e-01 9.451231360435485840e-01
2.398000000000000000e+03 7.891789436340332031e+00 7.779317855834960938e+00 3.132763624191284180e+00 1.208304786682128906e+01 4.564743518829345703e+00 -4.755957126617431641e+00
2.399000000000000000e+03 7.688680171966552734e+00 6.266500473022460938e+00 6.478631019592285156e+00 9.320923805236816406e+00 4.739866256713867188e+00 -4.287230491638183594e+00
2.400000000000000000e+03 3.280330896377563477e+00 -9.326763153076171875e+00 -2.846959233283996582e-02 2.073262929916381836e+00 6.134380102157592773e-01 9.280995726585388184e-01
2.401000000000000000e+03 5.212918472290039062e+01 8.793900609016418457e-01 4.780821502208709717e-01 9.129386901855468750e+00 2.882240533828735352e+00 5.757456421852111816e-01
2.402000000000000000e+03 1.187476825714111328e+01 1.678541183471679688e+01 -2.574625968933105469e+00 4.634482383728027344e+00 6.179568767547607422e-01 2.945341467857360840e-01
2.403000000000000000e+03 1.008719730377197266e+01 1.347504043579101562e+01 -2.670869588851928711e+00 6.898200035095214844e+00 1.268199205398559570e+00 -4.350940585136413574e-01
2.404000000000000000e+03 6.838982391357421875e+01 6.460968852043151855e-01 -1.405418395996093750e+00 6.931490898132324219e+00 1.657821774482727051e+00 -3.224972784519195557e-01
2.405000000000000000e+03 6.823540496826171875e+01 -1.144806981086730957e+00 -3.308861017227172852e+00 4.221501350402832031e+00 2.737921476364135742e-01 -2.742003500461578369e-01
2.406000000000000000e+03 5.887615585327148438e+01 -3.061399221420288086e+00 -1.684809625148773193e-01 4.533259391784667969e+00 1.309433579444885254e+00 -1.370110034942626953e+00
2.407000000000000000e+03 6.668346405029296875e+01 1.119310617446899414e+00 -1.006770610809326172e+00 5.417469978332519531e+00 1.323209762573242188e+00 1.975736260414123535e+00
2.408000000000000000e+03 4.073314285278320312e+01 -4.999462604522705078e+00 1.071639299392700195e+00 4.883841037750244141e+00 1.786644101142883301e+00 -1.310757637023925781e+00
2.409000000000000000e+03 6.702191162109375000e+01 -1.927989196777343750e+01 7.998501062393188477e-01 3.074834346771240234e+00 1.162405371665954590e+00 -3.633305132389068604e-01
2.410000000000000000e+03 4.099771499633789062e+01 -2.121765136718750000e+01 -6.903442740440368652e-01 4.760698795318603516e+00 1.221106290817260742e+00 6.529103517532348633e-01
2.411000000000000000e+03 3.662126541137695312e+00 8.533420562744140625e+00 1.126320600509643555e+00 2.390495061874389648e+00 1.055044770240783691e+00 -2.529591560363769531e+00
2.412000000000000000e+03 1.205329036712646484e+01 2.947668075561523438e+00 3.925813674926757812e+00 8.714386940002441406e+00 3.792060136795043945e+00 -4.377861022949218750e+00
2.413000000000000000e+03 2.737223815917968750e+01 1.994411087036132812e+01 -2.200203180313110352e+00 4.472266674041748047e+00 6.816189885139465332e-01 7.258285284042358398e-01
2.414000000000000000e+03 4.271971130371093750e+01 -1.757153320312500000e+01 -2.103712558746337891e-01 7.721754550933837891e+00 2.253415107727050781e+00 -7.215474247932434082e-01
2.415000000000000000e+03 4.572701644897460938e+01 -1.624100494384765625e+01 8.914388716220855713e-02 4.623723506927490234e+00 1.413860201835632324e+00 -1.395036816596984863e+00
2.416000000000000000e+03 4.994613265991210938e+01 2.557454109191894531e+00 1.869682788848876953e+00 4.987895965576171875e+00 2.057273626327514648e+00 1.509806632995605469e+00
2.417000000000000000e+03 4.757371139526367188e+01 2.550117015838623047e+00 3.956614136695861816e-01 2.362764120101928711e+00 8.275277018547058105e-01 2.136524438858032227e+00
2.418000000000000000e+03 2.497234344482421875e+01 2.010338211059570312e+01 -2.990617513656616211e+00 3.746862888336181641e+00 2.268736213445663452e-01 -9.509966969490051270e-01
2.419000000000000000e+03 2.588223266601562500e+01 1.919753646850585938e+01 -3.023115634918212891e+00 5.063045024871826172e+00 6.119787693023681641e-01 -2.267539650201797485e-01
2.420000000000000000e+03 6.300001525878906250e+01 -5.071672201156616211e-01 -3.721777439117431641e+00 7.780729770660400391e+00 1.217685699462890625e+00 3.761756896972656250e+00
2.421000000000000000e+03 8.144361495971679688e+00 9.886672973632812500e+00 -5.793400406837463379e-01 1.037238121032714844e+01 2.937912225723266602e+00 -3.038491249084472656e+00
2.422000000000000000e+03 9.118710517883300781e+00 9.196274757385253906e+00 -2.030271589756011963e-01 1.211321640014648438e+01 3.573056697845458984e+00 -2.645167350769042969e+00
2.423000000000000000e+03 3.362894821166992188e+01 1.946068382263183594e+01 -5.707587301731109619e-02 2.868175983428955078e+00 8.433300256729125977e-01 -2.657833695411682129e-01
2.424000000000000000e+03 4.934774017333984375e+01 -4.436737895011901855e-01 -1.040890812873840332e+00 1.990863919258117676e+00 2.849919199943542480e-01 2.323004961013793945e+00
2.425000000000000000e+03 2.041172504425048828e+00 4.424633502960205078e+00 7.336809635162353516e-01 -1.502411723136901855e+00 -2.306192368268966675e-01 9.235807657241821289e-01
2.426000000000000000e+03 1.732718825340270996e+00 3.560300827026367188e+00 1.606561392545700073e-01 -1.564924001693725586e+00 -4.212803840637207031e-01 1.235901713371276855e+00
2.427000000000000000e+03 7.114292144775390625e+01 -1.941512107849121094e+01 1.082911267876625061e-01 5.251440048217773438e+00 1.607919335365295410e+00 1.714419484138488770e+00
2.428000000000000000e+03 7.457490539550781250e+01 -1.783267402648925781e+01 -5.380827784538269043e-01 8.636365890502929688e+00 2.429484844207763672e+00 6.251242011785507202e-02
2.429000000000000000e+03 2.698395729064941406e+01 -8.689086914062500000e+00 2.786671638488769531e+00 8.576860427856445312e+00 3.409059524536132812e+00 -1.886797100305557251e-01
2.430000000000000000e+03 6.125199890136718750e+01 -1.332225608825683594e+01 -3.070720434188842773e-01 7.433986663818359375e+00 2.138074398040771484e+00 4.774706065654754639e-01
2.431000000000000000e+03 6.210611724853515625e+01 -1.176453113555908203e+01 -5.415506362915039062e-01 7.448029041290283203e+00 2.071943521499633789e+00 5.742773413658142090e-01
2.432000000000000000e+03 6.817378997802734375e+01 1.249923324584960938e+01 2.173374891281127930e+00 8.876948356628417969e+00 3.315097093582153320e+00 1.634552955627441406e+00
2.433000000000000000e+03 2.605896759033203125e+01 -1.048501849174499512e+00 1.363234400749206543e+00 3.312523365020751953e+00 1.402727365493774414e+00 -2.223415613174438477e+00
2.434000000000000000e+03 5.102400588989257812e+01 1.127489328384399414e+00 9.321336746215820312e-01 6.210566043853759766e+00 2.142809867858886719e+00 1.299866437911987305e+00
2.435000000000000000e+03 6.839078521728515625e+01 -1.880996131896972656e+01 7.829447388648986816e-01 1.826367139816284180e+00 7.827935814857482910e-01 5.071030855178833008e-01
2.436000000000000000e+03 6.993879699707031250e+01 -1.970479774475097656e+01 1.194551065564155579e-01 4.392656326293945312e+00 1.353633403778076172e+00 1.530892133712768555e+00
2.437000000000000000e+03 2.679797554016113281e+01 -1.180990028381347656e+01 -4.128073453903198242e-01 7.012685775756835938e+00 1.979963541030883789e+00 -1.991694867610931396e-01
2.438000000000000000e+03 7.510478210449218750e+01 -1.619778275489807129e+00 -3.244968354701995850e-01 5.413808345794677734e+00 1.526793479919433594e+00 5.612959861755371094e-01
2.439000000000000000e+03 7.214970397949218750e+01 1.320213031768798828e+01 2.027963161468505859e+00 4.491956710815429688e+00 1.955976009368896484e+00 -1.287243962287902832e-01
2.440000000000000000e+03 7.469611358642578125e+01 1.288377571105957031e+01 5.204713940620422363e-01 5.619550228118896484e+00 1.842006444931030273e+00 -1.710736513137817383e+00
2.441000000000000000e+03 4.508355617523193359e+00 -1.153000640869140625e+01 -2.135489284992218018e-01 3.011302232742309570e+00 8.393259644508361816e-01 9.647206664085388184e-01
2.442000000000000000e+03 6.715793609619140625e+01 2.003822773694992065e-01 -2.055088996887207031e+00 4.871557712554931641e+00 8.449406623840332031e-01 1.078457474708557129e+00
2.443000000000000000e+03 5.015436172485351562e+00 -3.323945999145507812e+01 -2.611505426466464996e-02 3.733569622039794922e+00 1.112236380577087402e+00 6.055827438831329346e-02
2.444000000000000000e+03 6.386284828186035156e+00 -3.011129760742187500e+01 -6.118561699986457825e-02 3.746211767196655273e+00 1.105507850646972656e+00 1.012957096099853516e-01
2.445000000000000000e+03 5.136106491088867188e+01 3.911097764968872070e+00 2.419812917709350586e+00 8.737920761108398438e+00 3.347320079803466797e+00 -3.313643336296081543e-01
2.446000000000000000e+03 5.168210220336914062e+01 5.229351043701171875e+00 1.431302905082702637e+00 9.812121391296386719e+00 3.373027086257934570e+00 -1.006709456443786621e+00
2.447000000000000000e+03 6.040955066680908203e+00 -2.874604797363281250e+01 -6.428045779466629028e-02 3.733329534530639648e+00 1.100714683532714844e+00 1.217256188392639160e-01
2.448000000000000000e+03 5.572678089141845703e+00 -1.790306472778320312e+01 -2.371227741241455078e-01 3.572060346603393555e+00 1.000481247901916504e+00 4.895777702331542969e-01
2.449000000000000000e+03 5.403843879699707031e+00 -1.656209945678710938e+01 -2.510083615779876709e-01 3.513843297958374023e+00 9.788504838943481445e-01 5.748269557952880859e-01
2.450000000000000000e+03 4.709059238433837891e+00 -2.486423301696777344e+01 -7.510670274496078491e-02 3.620212316513061523e+00 1.063531637191772461e+00 1.915272474288940430e-01
2.451000000000000000e+03 6.112967491149902344e+00 -2.619096565246582031e+01 -9.291132539510726929e-02 3.718661546707153320e+00 1.087725043296813965e+00 1.800346374511718750e-01
2.452000000000000000e+03 6.023571968078613281e+00 -2.474975204467773438e+01 -1.096090301871299744e-01 3.695379972457885742e+00 1.075731277465820312e+00 2.086437940597534180e-01
2.453000000000000000e+03 5.712731361389160156e+00 -1.925066184997558594e+01 -2.005154341459274292e-01 3.602336168289184570e+00 1.020546197891235352e+00 4.169413745403289795e-01
2.454000000000000000e+03 5.983911991119384766e+00 -2.198612785339355469e+01 -1.462973207235336304e-01 3.655941486358642578e+00 1.052893280982971191e+00 2.954735457897186279e-01
2.455000000000000000e+03 6.637504577636718750e+00 -3.178038787841796875e+01 -5.498588085174560547e-02 3.773308992385864258e+00 1.115496993064880371e+00 8.225432038307189941e-02
2.456000000000000000e+03 7.319940185546875000e+01 1.852088737487792969e+01 4.429007768630981445e-01 6.410530567169189453e+00 2.056029319763183594e+00 4.139046370983123779e-02
2.457000000000000000e+03 6.788123321533203125e+01 1.525177383422851562e+01 3.191012740135192871e-01 8.458317756652832031e+00 2.633225679397583008e+00 7.872024178504943848e-01
2.458000000000000000e+03 7.534554290771484375e+01 -1.269512748718261719e+01 1.600850224494934082e+00 9.289090156555175781e+00 3.266982078552246094e+00 7.592542767524719238e-01
2.459000000000000000e+03 4.735181331634521484e+00 -1.270862960815429688e+01 -2.646289765834808350e-01 3.195660829544067383e+00 8.793095350265502930e-01 8.670057058334350586e-01
2.460000000000000000e+03 3.881237983703613281e+00 -1.409223556518554688e+01 -1.870481073856353760e-01 2.993499755859375000e+00 8.419354557991027832e-01 6.861373782157897949e-01
2.461000000000000000e+03 7.374744415283203125e+01 3.126681137084960938e+01 2.162663824856281281e-02 6.274981021881103516e+00 1.888982295989990234e+00 -4.654686897993087769e-02
2.462000000000000000e+03 5.195844650268554688e+00 -1.524384403228759766e+01 -2.762821316719055176e-01 3.443208932876586914e+00 9.500780701637268066e-01 6.657227873802185059e-01
2.463000000000000000e+03 7.347798156738281250e+01 -3.054217147827148438e+01 1.704302728176116943e-01 6.212991237640380859e+00 1.915026426315307617e+00 2.632509171962738037e-01
2.464000000000000000e+03 7.497954559326171875e+01 -3.049806022644042969e+01 6.522856652736663818e-02 6.423256397247314453e+00 1.946545600891113281e+00 2.122796326875686646e-01
2.465000000000000000e+03 7.182902526855468750e+01 -4.420543670654296875e+00 -1.695652127265930176e+00 5.290996551513671875e+00 1.078603267669677734e+00 -1.081196665763854980e+00
2.466000000000000000e+03 7.410568237304687500e+01 -5.469426155090332031e+00 -5.198976993560791016e-01 7.341601371765136719e+00 2.046510934829711914e+00 7.974639534950256348e-01
2.467000000000000000e+03 7.471015167236328125e+01 2.225396156311035156e+01 4.162591695785522461e-02 6.506894588470458984e+00 1.964556097984313965e+00 -4.687049612402915955e-02
2.468000000000000000e+03 7.546408843994140625e+01 2.373886108398437500e+01 -1.261762809008359909e-02 6.499545097351074219e+00 1.946078181266784668e+00 -2.117070741951465607e-02
2.469000000000000000e+03 6.631091308593750000e+01 1.802888679504394531e+01 -4.557004272937774658e-01 6.655997753143310547e+00 1.860089302062988281e+00 -1.189834952354431152e+00
2.470000000000000000e+03 6.109926605224609375e+01 -1.438028812408447266e+01 2.125364392995834351e-01 7.447643280029296875e+00 2.298053979873657227e+00 7.265634834766387939e-02
2.471000000000000000e+03 7.443430328369140625e+01 -2.205968856811523438e+01 -1.074735224246978760e-01 6.936500549316406250e+00 2.048707962036132812e+00 6.291214823722839355e-01
2.472000000000000000e+03 7.596356201171875000e+01 -1.521413707733154297e+01 6.803396940231323242e-01 8.415725708007812500e+00 2.728819608688354492e+00 -1.507750749588012695e-01
2.473000000000000000e+03 7.371775054931640625e+01 -4.386666774749755859e+00 -8.801603317260742188e-01 6.422916889190673828e+00 1.662827014923095703e+00 4.147879183292388916e-01
2.474000000000000000e+03 7.456286621093750000e+01 -1.926296997070312500e+01 -6.387873888015747070e-01 8.164340019226074219e+00 2.257665872573852539e+00 4.892199337482452393e-01
2.475000000000000000e+03 7.563566589355468750e+01 1.862415122985839844e+01 2.601080238819122314e-01 6.447491168975830078e+00 2.012279748916625977e+00 -1.805425435304641724e-01
2.476000000000000000e+03 7.110726928710937500e+01 1.360426616668701172e+01 1.733979821205139160e+00 5.172869205474853516e+00 2.072054624557495117e+00 6.905080080032348633e-01
2.477000000000000000e+03 7.401399993896484375e+01 -2.475754165649414062e+01 1.589895784854888916e-01 6.437100410461425781e+00 1.978826999664306641e+00 5.398355722427368164e-01
2.478000000000000000e+03 7.457810211181640625e+01 2.672042274475097656e+01 -2.745745144784450531e-02 6.420729637145996094e+00 1.917981624603271484e+00 -2.626114338636398315e-02
2.479000000000000000e+03 7.404029846191406250e+01 2.823877525329589844e+01 1.429647952318191528e-02 6.321093082427978516e+00 1.900616884231567383e+00 -4.820684343576431274e-02
2.480000000000000000e+03 7.364691925048828125e+01 -2.613922500610351562e+01 5.285362154245376587e-02 6.294372081756591797e+00 1.904167652130126953e+00 4.457354247570037842e-01
2.481000000000000000e+03 7.405429077148437500e+01 1.472584152221679688e+01 9.670612215995788574e-01 5.655634880065917969e+00 1.986808896064758301e+00 -6.912369728088378906e-01
2.482000000000000000e+03 7.514534759521484375e+01 1.492386913299560547e+01 6.409696936607360840e-01 6.003385066986083984e+00 1.993306398391723633e+00 -7.975872159004211426e-01
2.483000000000000000e+03 1.564068317413330078e+01 1.872476768493652344e+01 -2.079273462295532227e+00 1.780059456825256348e+00 -8.976422250270843506e-02 4.984812140464782715e-01
2.484000000000000000e+03 7.453172302246093750e+01 -2.066960144042968750e+01 -6.465269327163696289e-01 7.316266536712646484e+00 2.000921964645385742e+00 7.162003517150878906e-01
2.485000000000000000e+03 7.407077789306640625e+01 3.284875869750976562e+01 -2.177092432975769043e-02 6.273538112640380859e+00 1.875530123710632324e+00 -5.394361913204193115e-03
2.486000000000000000e+03 7.044970703125000000e+01 3.504333877563476562e+01 3.468452766537666321e-02 6.032577037811279297e+00 1.820178508758544922e+00 -4.414337500929832458e-02
2.487000000000000000e+03 7.476723480224609375e+01 2.123809432983398438e+01 1.356776952743530273e-01 6.499468803405761719e+00 1.990543961524963379e+00 -3.743414580821990967e-02
2.488000000000000000e+03 7.437124633789062500e+01 1.879265594482421875e+01 3.763613402843475342e-01 6.351873874664306641e+00 2.018470525741577148e+00 -9.491276741027832031e-02
2.489000000000000000e+03 7.341462707519531250e+01 -2.761852645874023438e+01 2.339065372943878174e-01 6.198585987091064453e+00 1.929747700691223145e+00 3.913969397544860840e-01
2.490000000000000000e+03 1.464190101623535156e+01 -9.150194168090820312e+00 -3.457443416118621826e-01 5.639016151428222656e+00 1.587981581687927246e+00 -1.385937809944152832e+00
2.491000000000000000e+03 1.581165409088134766e+01 -8.940577507019042969e+00 -4.811180755496025085e-02 5.167825698852539062e+00 1.535914182662963867e+00 -1.734818577766418457e+00
2.492000000000000000e+03 2.789162635803222656e+01 1.660367012023925781e+01 1.066847205162048340e+00 5.831875801086425781e+00 2.069616794586181641e+00 4.050809860229492188e+00
2.493000000000000000e+03 7.376494598388671875e+01 2.973880958557128906e+01 -2.584774419665336609e-02 6.308079719543457031e+00 1.884669542312622070e+00 -2.386667206883430481e-02
2.494000000000000000e+03 5.587360382080078125e+00 2.429479408264160156e+01 -3.575512766838073730e-01 5.161230564117431641e+00 1.441103816032409668e+00 9.998937696218490601e-02
2.495000000000000000e+03 7.314759826660156250e+01 -3.495011901855468750e+01 8.189706504344940186e-02 6.166433334350585938e+00 1.874499201774597168e+00 1.022115126252174377e-01
2.496000000000000000e+03 4.062798309326171875e+01 1.482698249816894531e+01 4.421868622303009033e-01 5.046769142150878906e+00 1.646686911582946777e+00 3.161738157272338867e+00
2.497000000000000000e+03 8.561005592346191406e+00 1.486419963836669922e+01 -2.484470605850219727e+00 6.783897399902343750e+00 1.289828062057495117e+00 -1.130514383316040039e+00
2.498000000000000000e+03 5.051932334899902344e+00 1.657250595092773438e+01 -1.112980484962463379e+00 5.495908737182617188e+00 1.314878463745117188e+00 -1.569759607315063477e+00
2.499000000000000000e+03 4.486299037933349609e+00 1.239267158508300781e+01 -6.775775551795959473e-01 5.177916049957275391e+00 1.350101590156555176e+00 -3.068441629409790039e+00
2.500000000000000000e+03 6.134356975555419922e+00 2.694107627868652344e+01 -1.678974777460098267e-01 4.933970928192138672e+00 1.429821968078613281e+00 3.160687088966369629e-01
2.501000000000000000e+03 5.367338657379150391e+00 3.180264282226562500e+01 4.365644603967666626e-02 4.931836605072021484e+00 1.492647886276245117e+00 3.392763733863830566e-01
2.502000000000000000e+03 5.752897739410400391e+00 2.168562889099121094e+01 -6.595243215560913086e-01 5.265380859375000000e+00 1.381756901741027832e+00 -2.670238912105560303e-01
2.503000000000000000e+03 6.103558540344238281e+00 1.863530349731445312e+01 -1.211569547653198242e+00 5.509321212768554688e+00 1.289325594902038574e+00 -9.064874053001403809e-01
2.504000000000000000e+03 6.142638778686523438e+01 1.933362007141113281e+01 9.617316722869873047e-01 3.702811241149902344e+00 1.399362921714782715e+00 -4.166613817214965820e-01
2.505000000000000000e+03 6.049838256835937500e+01 1.851924896240234375e+01 1.306544780731201172e+00 2.806579828262329102e+00 1.233937382698059082e+00 1.521579921245574951e-01
2.506000000000000000e+03 7.417352199554443359e+00 1.671488380432128906e+01 -1.915641546249389648e+00 6.030632019042968750e+00 1.234497070312500000e+00 -1.062528252601623535e+00
2.507000000000000000e+03 5.467823982238769531e+00 1.527799892425537109e+01 -1.393438935279846191e+00 5.783151149749755859e+00 1.316913723945617676e+00 -1.985841751098632812e+00
2.508000000000000000e+03 2.582222747802734375e+01 -1.238326168060302734e+01 1.909769475460052490e-01 6.413296222686767578e+00 1.981281876564025879e+00 6.608505845069885254e-01
2.509000000000000000e+03 2.778809547424316406e+01 -1.129699611663818359e+01 6.360390782356262207e-02 6.465126991271972656e+00 1.958619236946105957e+00 -9.204604625701904297e-01
2.510000000000000000e+03 6.409912586212158203e+00 2.846005630493164062e+01 -8.938899636268615723e-02 4.802285194396972656e+00 1.413868784904479980e+00 3.891955018043518066e-01
2.511000000000000000e+03 2.156919288635253906e+01 2.110896301269531250e+01 -1.284128308296203613e+00 1.032463431358337402e+00 -7.549946755170822144e-02 -8.147188425064086914e-01
2.512000000000000000e+03 1.397419357299804688e+01 1.649750709533691406e+01 -2.703207254409790039e+00 3.018459796905517578e+00 9.457574784755706787e-02 4.510366022586822510e-01
2.513000000000000000e+03 9.135963439941406250e+00 1.185679626464843750e+01 -2.405560731887817383e+00 9.209849357604980469e+00 2.041286706924438477e+00 -1.464488744735717773e+00
2.514000000000000000e+03 7.350426197052001953e+00 8.353450775146484375e+00 1.927042245864868164e+00 9.630274772644042969e+00 3.467195034027099609e+00 -4.382915973663330078e+00
2.515000000000000000e+03 4.968078613281250000e+00 7.673462867736816406e+00 2.504824399948120117e+00 3.954167604446411133e+00 1.937697649002075195e+00 -2.924987792968750000e+00
2.516000000000000000e+03 4.999482727050781250e+01 1.220991373062133789e+00 9.752486944198608398e-01 4.102786540985107422e+00 1.523410558700561523e+00 1.733128786087036133e+00
2.517000000000000000e+03 4.755826568603515625e+01 -2.011056709289550781e+01 -1.560020148754119873e-01 3.334606170654296875e+00 9.535812735557556152e-01 -1.262789726257324219e+00
2.518000000000000000e+03 4.761476898193359375e+01 -1.817276000976562500e+01 -3.529514074325561523e-01 2.988417148590087891e+00 7.906396985054016113e-01 -1.250321984291076660e+00
2.519000000000000000e+03 4.678606796264648438e+01 -1.912742042541503906e+01 -1.390433013439178467e-01 3.684824705123901367e+00 1.063734412193298340e+00 -1.467222809791564941e+00
2.520000000000000000e+03 6.010075759887695312e+01 1.708740806579589844e+01 1.098372101783752441e+00 2.152337074279785156e+00 9.752127528190612793e-01 4.110785126686096191e-01
2.521000000000000000e+03 4.990095901489257812e+01 1.960465812683105469e+01 -2.829366624355316162e-01 5.794819831848144531e+00 1.653564929962158203e+00 -9.457213282585144043e-01
2.522000000000000000e+03 8.666312217712402344e+00 1.337593936920166016e+01 -2.550910949707031250e+00 7.781492710113525391e+00 1.569174528121948242e+00 -1.477794647216796875e+00
2.523000000000000000e+03 6.041912460327148438e+01 -3.090337038040161133e+00 9.392168372869491577e-02 6.116794109344482422e+00 1.863214731216430664e+00 -6.220365166664123535e-01
2.524000000000000000e+03 1.912355995178222656e+01 2.024985504150390625e+01 -1.754820704460144043e+00 6.879378557205200195e-01 -3.200648427009582520e-01 1.271783709526062012e-01
2.525000000000000000e+03 3.041590118408203125e+01 -1.511684799194335938e+01 -6.153568625450134277e-01 3.892908573150634766e+00 9.832655191421508789e-01 -9.869987964630126953e-01
2.526000000000000000e+03 3.301964950561523438e+01 -1.380673980712890625e+01 -4.660064876079559326e-01 2.147182464599609375e+00 5.043528079986572266e-01 -7.813778519630432129e-01
2.527000000000000000e+03 3.364788436889648438e+01 -1.540716266632080078e+01 -8.535811305046081543e-01 2.277766466140747070e+00 4.272556006908416748e-01 -8.409430980682373047e-01
2.528000000000000000e+03 5.395960998535156250e+01 -2.501114130020141602e+00 -3.330016136169433594e+00 6.178915500640869141e+00 8.546697497367858887e-01 -3.142045259475708008e+00
2.529000000000000000e+03 5.455565261840820312e+01 1.854283332824707031e+01 1.611854285001754761e-01 6.120044708251953125e+00 1.884369134902954102e+00 1.602731943130493164e+00
2.530000000000000000e+03 5.210074615478515625e+01 -4.683753848075866699e-01 -2.397011518478393555e+00 7.233981609344482422e+00 1.451090931892395020e+00 -1.299350410699844360e-01
2.531000000000000000e+03 1.505786705017089844e+01 -8.385055541992187500e+00 -2.027690857648849487e-01 5.699665069580078125e+00 1.649068832397460938e+00 -1.615936875343322754e+00
2.532000000000000000e+03 5.472212982177734375e+01 -1.108332395553588867e+00 -3.227913856506347656e+00 7.214567661285400391e+00 1.195996165275573730e+00 -3.891866922378540039e+00
2.533000000000000000e+03 5.399715805053710938e+01 -6.051462888717651367e-01 -2.723550796508789062e+00 8.684800148010253906e+00 1.788374781608581543e+00 -3.786888360977172852e+00
2.534000000000000000e+03 5.923196792602539062e+01 -1.840226364135742188e+01 1.686885714530944824e+00 8.260257720947265625e+00 2.984143018722534180e+00 -8.537226319313049316e-01
2.535000000000000000e+03 2.020185852050781250e+01 2.112927055358886719e+01 -1.343599319458007812e+00 7.780852317810058594e-01 -1.696542203426361084e-01 -2.195479422807693481e-01
2.536000000000000000e+03 7.717472839355468750e+01 -2.131754755973815918e-01 -1.483960628509521484e+00 1.032695198059082031e+01 2.652897596359252930e+00 5.993555784225463867e-01
2.537000000000000000e+03 7.703057861328125000e+01 1.017776489257812500e+00 -2.073643922805786133e+00 1.050922584533691406e+01 2.530674457550048828e+00 -8.174663186073303223e-01
2.538000000000000000e+03 4.396789169311523438e+01 -1.748596191406250000e+01 -1.169696450233459473e-01 6.223475933074951172e+00 1.831951856613159180e+00 -1.566668868064880371e+00
2.539000000000000000e+03 4.656636810302734375e+01 1.960172080993652344e+01 8.689630031585693359e-01 3.444730997085571289e+00 1.294108152389526367e+00 -5.573251247406005859e-01
2.540000000000000000e+03 4.281668472290039062e+01 1.790945816040039062e+01 3.021290898323059082e-01 3.356667041778564453e+00 1.097638845443725586e+00 1.523900508880615234e+00
2.541000000000000000e+03 1.439993190765380859e+01 1.834886169433593750e+01 -2.379265546798706055e+00 2.816030740737915039e+00 1.310295611619949341e-01 5.979481935501098633e-01
2.542000000000000000e+03 3.514856719970703125e+01 -2.128201675415039062e+01 2.012958675622940063e-01 2.880473136901855469e+00 9.245306849479675293e-01 -2.460333704948425293e-01
2.543000000000000000e+03 3.915836715698242188e+01 -2.093993186950683594e+01 1.038598045706748962e-01 3.974053859710693359e+00 1.223374128341674805e+00 8.023087978363037109e-01
2.544000000000000000e+03 5.902539062500000000e+01 -2.050782203674316406e+01 -2.852763831615447998e-01 7.845628261566162109e+00 2.268105506896972656e+00 -4.736180901527404785e-01
2.545000000000000000e+03 5.786508178710937500e+01 -1.950493812561035156e+01 -1.828123331069946289e-01 8.323223114013671875e+00 2.442123174667358398e+00 -6.695264577865600586e-01
2.546000000000000000e+03 5.203952789306640625e+01 -1.956215476989746094e+01 -1.321281045675277710e-01 7.786533236503601074e-01 1.939575672149658203e-01 -1.887262798845767975e-02
2.547000000000000000e+03 2.846657562255859375e+01 -9.597277641296386719e+00 1.447316884994506836e+00 6.117321491241455078e+00 2.269391536712646484e+00 -9.311589598655700684e-01
2.548000000000000000e+03 5.713661575317382812e+01 -7.168016433715820312e+00 1.672004163265228271e-01 6.282942295074462891e+00 1.935042858123779297e+00 -2.606627643108367920e-01
2.549000000000000000e+03 4.838596343994140625e+01 -2.112473678588867188e+01 6.992685794830322266e-02 2.984703540802001953e+00 9.163891077041625977e-01 -9.986647367477416992e-01
2.550000000000000000e+03 3.067038154602050781e+01 1.978532028198242188e+01 -4.472409188747406006e-01 3.601746320724487305e+00 9.463515877723693848e-01 1.109957337379455566e+00
2.551000000000000000e+03 5.958397293090820312e+01 -2.321922063827514648e+00 -6.262379288673400879e-01 4.539674282073974609e+00 1.174030900001525879e+00 -6.813609004020690918e-01
2.552000000000000000e+03 5.474074554443359375e+01 1.411478137969970703e+01 1.250469684600830078e+00 6.741328716278076172e+00 2.397539615631103516e+00 1.970857977867126465e+00
2.553000000000000000e+03 5.629030227661132812e+01 1.364503002166748047e+01 6.116418838500976562e-01 4.064532279968261719e+00 1.402852177619934082e+00 1.851676940917968750e+00
2.554000000000000000e+03 6.482901000976562500e+01 1.788466930389404297e+00 -1.224383115768432617e+00 5.524716377258300781e+00 1.290099978446960449e+00 3.352345705032348633e+00
2.555000000000000000e+03 1.796752738952636719e+01 2.126656150817871094e+01 -1.346904635429382324e+00 1.338136553764343262e+00 -2.630433300510048866e-03 1.972291469573974609e-01
2.556000000000000000e+03 1.803834152221679688e+01 -9.944659233093261719e+00 5.735945701599121094e-01 3.736831426620483398e+00 1.293127775192260742e+00 -1.471288561820983887e+00
2.557000000000000000e+03 6.653547668457031250e+01 3.759434223175048828e+00 1.252664566040039062e+00 7.569848060607910156e+00 2.646753787994384766e+00 1.090566068887710571e-01
2.558000000000000000e+03 4.102103805541992188e+01 1.802170562744140625e+01 -3.836636543273925781e-01 4.730253219604492188e+00 1.303976893424987793e+00 1.666727066040039062e+00
2.559000000000000000e+03 3.791846084594726562e+01 1.826759147644042969e+01 -8.957899212837219238e-01 5.792418479919433594e+00 1.468988537788391113e+00 1.355897337198257446e-01
2.560000000000000000e+03 3.670995330810546875e+01 1.804354667663574219e+01 -1.369967579841613770e+00 6.189817428588867188e+00 1.445954918861389160e+00 -3.321661353111267090e-01
2.561000000000000000e+03 5.858914184570312500e+01 -4.568444728851318359e+00 5.212508440017700195e-01 5.595113754272460938e+00 1.834909319877624512e+00 -6.131138801574707031e-01
2.562000000000000000e+03 5.672822952270507812e+01 1.443630695343017578e+01 8.400104641914367676e-01 3.402365446090698242e+00 1.272712826728820801e+00 1.941856980323791504e+00
2.563000000000000000e+03 5.382416534423828125e+01 1.412739181518554688e+01 1.468638777732849121e+00 7.593091011047363281e+00 2.718518972396850586e+00 2.020226478576660156e+00
2.564000000000000000e+03 7.087294101715087891e+00 1.322815704345703125e+01 -1.942421436309814453e+00 7.256308555603027344e+00 1.594166159629821777e+00 -2.350555419921875000e+00
2.565000000000000000e+03 2.823986434936523438e+01 -1.252383136749267578e+01 -3.127807676792144775e-01 5.684197902679443359e+00 1.611425161361694336e+00 -8.614530563354492188e-01
2.566000000000000000e+03 2.919407653808593750e+01 -1.199430656433105469e+01 -8.004998415708541870e-02 5.072359561920166016e+00 1.497692823410034180e+00 -1.238739013671875000e+00
2.567000000000000000e+03 5.310977554321289062e+01 -4.375714063644409180e-01 -3.578594923019409180e+00 9.535634994506835938e+00 1.787111878395080566e+00 -1.992451310157775879e+00
2.568000000000000000e+03 5.803066635131835938e+01 -3.524241209030151367e+00 1.652368307113647461e-01 4.168624877929687500e+00 1.300158619880676270e+00 -2.160718441009521484e+00
2.569000000000000000e+03 3.395756149291992188e+01 -1.678106498718261719e+01 -1.083050668239593506e-01 2.226443052291870117e+00 6.354414224624633789e-01 -9.540372490882873535e-01
2.570000000000000000e+03 3.389255142211914062e+01 -1.915933036804199219e+01 1.116529107093811035e-01 2.646293640136718750e+00 8.273839354515075684e-01 -6.614176034927368164e-01
2.571000000000000000e+03 6.377123260498046875e+01 1.022941231727600098e+00 -3.022413730621337891e+00 5.630741596221923828e+00 7.824983000755310059e-01 3.464174270629882812e+00
2.572000000000000000e+03 5.846382141113281250e+01 -9.981909751892089844e+00 2.621459364891052246e-01 8.134528160095214844e+00 2.519002199172973633e+00 8.283722996711730957e-01
2.573000000000000000e+03 5.911593627929687500e+01 -1.138426589965820312e+01 2.461451441049575806e-01 8.684343338012695312e+00 2.679146528244018555e+00 1.128973960876464844e+00
2.574000000000000000e+03 5.415957641601562500e+01 -3.493120908737182617e+00 -3.391525745391845703e+00 5.907013893127441406e+00 7.546464800834655762e-01 -2.535213470458984375e+00
2.575000000000000000e+03 5.596922683715820312e+01 -4.524430751800537109e+00 -1.413096189498901367e+00 5.286143302917480469e+00 1.161914229393005371e+00 -2.346612691879272461e+00
2.576000000000000000e+03 7.191045379638671875e+01 4.074127578735351562e+01 1.818719506263732910e-02 6.151799678802490234e+00 1.850996136665344238e+00 -1.225905120372772217e-02
2.577000000000000000e+03 7.369557952880859375e+01 3.691896820068359375e+01 1.279326248914003372e-02 6.289510726928710938e+00 1.890691161155700684e+00 -1.978494785726070404e-02
2.578000000000000000e+03 3.403526306152343750e+01 3.655348777770996094e+00 1.786654233932495117e+00 4.206143379211425781e+00 1.797839283943176270e+00 1.822430491447448730e+00
2.579000000000000000e+03 6.388095474243164062e+01 -1.756981658935546875e+01 2.774869203567504883e-01 4.767032146453857422e+00 1.513355731964111328e+00 -1.083132743835449219e+00
2.580000000000000000e+03 6.142694473266601562e+01 -2.203446578979492188e+01 -7.377780228853225708e-02 6.185612201690673828e+00 1.833550214767456055e+00 -9.441330432891845703e-01
2.581000000000000000e+03 2.974201583862304688e+01 1.807471275329589844e+01 -1.808661520481109619e-01 3.500149250030517578e+00 9.957849383354187012e-01 2.262046813964843750e+00
2.582000000000000000e+03 3.090756607055664062e+01 1.852581405639648438e+01 1.375679522752761841e-01 2.647858619689941406e+00 8.356279730796813965e-01 1.263632059097290039e+00
2.583000000000000000e+03 1.925473594665527344e+01 -1.203529357910156250e+01 8.113337159156799316e-01 3.557637453079223633e+00 1.310691356658935547e+00 -7.812997698783874512e-01
2.584000000000000000e+03 8.410050392150878906e+00 -2.170544862747192383e+00 2.885664224624633789e+00 5.164811134338378906e+00 2.415142536163330078e+00 4.214479923248291016e+00
2.585000000000000000e+03 5.453777790069580078e+00 -2.475582599639892578e+00 1.189239621162414551e+00 6.787325143814086914e-01 5.603916645050048828e-01 7.222730517387390137e-01
2.586000000000000000e+03 7.523412704467773438e+00 -2.225305318832397461e+00 2.526355028152465820e+00 2.470468282699584961e+00 1.499046921730041504e+00 2.684880256652832031e+00
2.587000000000000000e+03 7.783778667449951172e+00 -2.487143754959106445e+00 2.539912223815917969e+00 3.389871597290039062e+00 1.778935194015502930e+00 3.244074583053588867e+00
2.588000000000000000e+03 6.775418758392333984e+00 -2.458359003067016602e+00 1.944550633430480957e+00 1.551567077636718750e+00 1.048835277557373047e+00 1.753640890121459961e+00
2.589000000000000000e+03 7.334618568420410156e+00 -2.328764915466308594e+00 2.377324342727661133e+00 2.261884212493896484e+00 1.391762614250183105e+00 2.443430662155151367e+00
2.590000000000000000e+03 8.324210166931152344e+00 -2.459935188293457031e+00 2.503542423248291016e+00 5.191431999206542969e+00 2.308492183685302734e+00 4.069005489349365234e+00
2.591000000000000000e+03 9.543979644775390625e+00 -2.811115264892578125e+00 6.177359819412231445e-01 1.104330635070800781e+01 3.498312711715698242e+00 3.765474319458007812e+00
2.592000000000000000e+03 8.630059242248535156e+00 3.158240795135498047e+00 1.831960082054138184e+00 1.260017871856689453e+01 4.329641819000244141e+00 -3.920603752136230469e+00
2.593000000000000000e+03 1.101010036468505859e+01 -2.496139764785766602e+00 1.125994324684143066e-01 1.529442405700683594e+01 4.622107028961181641e+00 -7.273486852645874023e-01
2.594000000000000000e+03 1.050226020812988281e+01 -2.689803600311279297e+00 -2.248178869485855103e-01 1.436650848388671875e+01 4.242506980895996094e+00 1.250232815742492676e+00
2.595000000000000000e+03 4.104047298431396484e+00 -2.512805938720703125e+00 6.092160940170288086e-01 3.128180205821990967e-01 2.766102254390716553e-01 1.501778960227966309e-01
2.596000000000000000e+03 1.087077045440673828e+01 -2.942543506622314453e+00 -1.783461123704910278e-01 1.373724460601806641e+01 4.067669391632080078e+00 -4.235394671559333801e-02
2.597000000000000000e+03 7.994710445404052734e+00 2.209214210510253906e+00 1.252194643020629883e+00 6.318161964416503906e+00 2.271106958389282227e+00 -2.910928726196289062e+00
2.598000000000000000e+03 1.220822525024414062e+01 -1.830852866172790527e+00 3.168780088424682617e+00 1.300653648376464844e+01 4.852594852447509766e+00 -4.181532859802246094e+00
2.599000000000000000e+03 1.200374603271484375e+01 -2.108951568603515625e+00 2.014379739761352539e+00 1.369250774383544922e+01 4.712066173553466797e+00 -3.608600616455078125e+00
2.600000000000000000e+03 3.573426246643066406e+00 -2.566836833953857422e+00 4.694760739803314209e-01 2.433244884014129639e-01 2.138401716947555542e-01 3.160100802779197693e-02
2.601000000000000000e+03 9.654399871826171875e+00 3.410505294799804688e+00 5.315855741500854492e-01 1.744014167785644531e+01 5.391518115997314453e+00 -4.181451320648193359e+00
2.602000000000000000e+03 6.462787151336669922e+00 2.851367950439453125e+00 2.055778503417968750e+00 2.861794710159301758e+00 1.475272059440612793e+00 1.097603216767311096e-01
2.603000000000000000e+03 5.646111011505126953e+00 3.090525865554809570e+00 1.976430058479309082e+00 1.226333260536193848e+00 9.608290195465087891e-01 9.929745793342590332e-01
2.604000000000000000e+03 5.104132175445556641e+00 2.769843101501464844e+00 1.055014729499816895e+00 5.284891724586486816e-01 4.750511646270751953e-01 1.451147079467773438e+00
2.605000000000000000e+03 2.148408412933349609e+00 -2.529932737350463867e+00 1.316129714250564575e-01 7.165390998125076294e-03 4.163350909948348999e-02 -2.010626047849655151e-01
2.606000000000000000e+03 1.694833755493164062e+00 -3.442202329635620117e+00 1.473002135753631592e-01 -3.923064470291137695e-02 3.242086991667747498e-02 -9.065219014883041382e-02
2.607000000000000000e+03 2.064450979232788086e+00 2.949778318405151367e+00 9.434050321578979492e-02 -1.104805469512939453e+00 -3.031395077705383301e-01 1.591188907623291016e+00
2.608000000000000000e+03 9.202105522155761719e+00 4.093839168548583984e+00 4.317665576934814453e+00 1.707164955139160156e+01 6.416794776916503906e+00 -4.427546977996826172e+00
2.609000000000000000e+03 3.275638818740844727e+00 -5.437090396881103516e+00 4.153621792793273926e-01 1.002729892730712891e+00 4.254276156425476074e-01 6.632059216499328613e-01
2.610000000000000000e+03 8.695545196533203125e+00 4.767942428588867188e+00 5.594257354736328125e+00 1.507279586791992188e+01 6.200115680694580078e+00 -2.426624059677124023e+00
2.611000000000000000e+03 4.140223026275634766e+00 -8.449056625366210938e+00 4.482014104723930359e-02 2.397691011428833008e+00 7.327533364295959473e-01 1.126951813697814941e+00
2.612000000000000000e+03 3.382747650146484375e+00 -7.348766803741455078e+00 1.869655400514602661e-01 1.673212409019470215e+00 5.580533742904663086e-01 9.335765242576599121e-01
2.613000000000000000e+03 4.335897922515869141e+00 7.195344448089599609e+00 2.430792808532714844e+00 2.330954313278198242e+00 1.428524136543273926e+00 -2.311789989471435547e+00
2.614000000000000000e+03 4.317342281341552734e+00 -1.043188953399658203e+01 -1.596728116273880005e-01 2.811636447906494141e+00 7.955890893936157227e-01 1.035423040390014648e+00
2.615000000000000000e+03 1.246905422210693359e+01 1.158277153968811035e+00 5.876044750213623047e+00 1.104077339172363281e+01 5.075045108795166016e+00 3.115664720535278320e-01
2.616000000000000000e+03 1.269447326660156250e+01 8.075838088989257812e-01 5.792454719543457031e+00 1.054412364959716797e+01 4.900973320007324219e+00 9.793143868446350098e-01
2.617000000000000000e+03 2.315232515335083008e+00 2.709309577941894531e+00 1.662271795794367790e-03 -9.451966285705566406e-01 -2.830603122711181641e-01 1.750599145889282227e+00
2.618000000000000000e+03 1.224449825286865234e+01 1.469339847564697266e+00 5.889455318450927734e+00 1.169033050537109375e+01 5.273935794830322266e+00 1.016641139984130859e+00
2.619000000000000000e+03 3.030029535293579102e+00 -3.354767560958862305e+00 4.568423628807067871e-01 3.239766955375671387e-01 2.342457175254821777e-01 1.198116913437843323e-01
2.620000000000000000e+03 7.218848705291748047e+00 7.767425060272216797e+00 3.804936170578002930e+00 8.433426856994628906e+00 3.671508789062500000e+00 -4.716827392578125000e+00
2.621000000000000000e+03 7.963016033172607422e+00 6.990453720092773438e+00 4.834759235382080078e+00 1.122233486175537109e+01 4.817128181457519531e+00 -5.078795433044433594e+00
2.622000000000000000e+03 5.289151763916015625e+01 5.062245845794677734e+00 1.444271445274353027e+00 1.375040817260742188e+01 4.558403968811035156e+00 -1.646992802619934082e+00
2.623000000000000000e+03 8.036556243896484375e+00 5.256802082061767578e+00 7.392548561096191406e+00 1.043978881835937500e+01 5.349700927734375000e+00 -1.929373502731323242e+00
2.624000000000000000e+03 7.558681011199951172e+00 2.943930149078369141e+00 2.572360515594482422e+00 5.853878021240234375e+00 2.527871608734130859e+00 -1.701635956764221191e+00
2.625000000000000000e+03 7.256843566894531250e+01 1.432172966003417969e+01 1.365765810012817383e+00 5.213594913482666016e+00 1.973808169364929199e+00 -6.335590034723281860e-02
2.626000000000000000e+03 1.407959938049316406e+01 -3.116623878479003906e+00 2.061756372451782227e+00 7.750813007354736328e+00 2.943770885467529297e+00 -3.722546100616455078e+00
2.627000000000000000e+03 8.649325370788574219e+00 1.085757446289062500e+01 -1.580807924270629883e+00 9.346555709838867188e+00 2.329724311828613281e+00 -2.386862754821777344e+00
2.628000000000000000e+03 7.090673923492431641e+00 1.495094490051269531e+01 -2.001413822174072266e+00 6.520406723022460938e+00 1.355697870254516602e+00 -1.690414547920227051e+00
2.629000000000000000e+03 1.286182498931884766e+01 1.570310020446777344e+01 -2.546253919601440430e+00 3.675963878631591797e+00 3.389129936695098877e-01 4.395355582237243652e-01
2.630000000000000000e+03 6.627876281738281250e+01 -5.840646624565124512e-01 -2.432700157165527344e+00 2.570669412612915039e+00 4.139075800776481628e-02 2.328813791275024414e+00
2.631000000000000000e+03 5.399649810791015625e+01 -1.502140283584594727e+00 -4.180223464965820312e+00 8.003371238708496094e+00 1.146944403648376465e+00 -3.248986959457397461e+00
2.632000000000000000e+03 6.029131317138671875e+01 -1.566892743110656738e+00 -1.488578081130981445e+00 4.520639419555664062e+00 9.096183776855468750e-01 -8.329894393682479858e-02
2.633000000000000000e+03 4.701102733612060547e+00 8.508853912353515625e+00 1.598272442817687988e+00 3.726619958877563477e+00 1.597467660903930664e+00 -3.461519956588745117e+00
2.634000000000000000e+03 6.542337799072265625e+01 -1.842652511596679688e+01 4.124138057231903076e-01 3.545900106430053711e+00 1.187494158744812012e+00 -1.000012636184692383e+00
2.635000000000000000e+03 2.893480110168457031e+01 2.060633850097656250e+01 -1.559033393859863281e+00 4.087715625762939453e+00 7.586047053337097168e-01 7.351809144020080566e-01
2.636000000000000000e+03 2.609760856628417969e+01 2.040225982666015625e+01 -2.465248823165893555e+00 4.762738227844238281e+00 6.892468929290771484e-01 -7.688950300216674805e-01
2.637000000000000000e+03 2.771595716476440430e+00 5.221916675567626953e+00 1.327863216400146484e+00 -5.293055176734924316e-01 2.395673096179962158e-01 3.424339890480041504e-01
2.638000000000000000e+03 5.714925003051757812e+01 1.833177947998046875e+01 7.677437663078308105e-01 4.273804187774658203e+00 1.512464404106140137e+00 1.615388989448547363e+00
2.639000000000000000e+03 1.348455333709716797e+01 -7.511758327484130859e+00 -4.896381795406341553e-01 6.814860343933105469e+00 1.897566556930541992e+00 -1.415706515312194824e+00
2.640000000000000000e+03 1.448993968963623047e+01 -6.862517356872558594e+00 -2.940949983894824982e-03 6.396339416503906250e+00 1.918019652366638184e+00 -1.994408607482910156e+00
2.641000000000000000e+03 5.809312057495117188e+01 -2.489670038223266602e+00 -6.248611807823181152e-01 3.429851055145263672e+00 8.414969444274902344e-01 -2.118599414825439453e+00
2.642000000000000000e+03 3.586758422851562500e+01 1.945359230041503906e+01 -6.230021119117736816e-01 4.349422931671142578e+00 1.117926359176635742e+00 -6.310191750526428223e-01
2.643000000000000000e+03 6.378706741333007812e+01 -1.663682174682617188e+01 -6.958286464214324951e-02 4.788434505462646484e+00 1.415655612945556641e+00 -1.145697474479675293e+00
2.644000000000000000e+03 6.051508712768554688e+01 -1.727683448791503906e+01 5.004636049270629883e-01 6.946060657501220703e+00 2.233957290649414062e+00 -7.170602679252624512e-01
2.645000000000000000e+03 7.037180328369140625e+01 1.125572490692138672e+01 1.304500579833984375e+00 5.068635940551757812e+00 1.911940932273864746e+00 1.014152407646179199e+00
2.646000000000000000e+03 7.064309692382812500e+01 1.247471141815185547e+01 2.157754659652709961e+00 4.831171035766601562e+00 2.096677780151367188e+00 1.142208456993103027e+00
2.647000000000000000e+03 4.025817489624023438e+01 1.680691146850585938e+01 -2.456100881099700928e-01 5.307402610778808594e+00 1.518537878990173340e+00 2.040341854095458984e+00
2.648000000000000000e+03 5.496675491333007812e+00 -1.143294239044189453e+01 -3.190821111202239990e-01 3.472165107727050781e+00 9.459248781204223633e-01 1.025786995887756348e+00
2.649000000000000000e+03 4.187946319580078125e+00 -9.401725769042968750e+00 -6.066380441188812256e-02 2.593931436538696289e+00 7.599802613258361816e-01 1.095625519752502441e+00
2.650000000000000000e+03 7.340417480468750000e+01 -1.922867202758789062e+01 -1.120299339294433594e+00 7.523669242858886719e+00 1.921010971069335938e+00 1.276959657669067383e+00
2.651000000000000000e+03 7.227364349365234375e+01 -1.926803588867187500e+01 -1.694258153438568115e-01 6.782204627990722656e+00 1.983833670616149902e+00 1.899270772933959961e+00
2.652000000000000000e+03 7.336479187011718750e+01 -1.777118682861328125e+01 -7.048498392105102539e-01 9.099783897399902344e+00 2.518480300903320312e+00 9.212074279785156250e-01
2.653000000000000000e+03 7.049604797363281250e+01 -2.530363464355468750e+01 4.558481574058532715e-01 5.524065017700195312e+00 1.793973922729492188e+00 4.657524228096008301e-01
2.654000000000000000e+03 6.987657165527343750e+01 -3.188978576660156250e+01 2.553353607654571533e-01 5.834255218505859375e+00 1.826877236366271973e+00 1.583835482597351074e-01
2.655000000000000000e+03 7.394023418426513672e+00 -2.593473625183105469e+01 -1.192142739892005920e-01 3.770983457565307617e+00 1.095530748367309570e+00 1.806272417306900024e-01
2.656000000000000000e+03 8.077950477600097656e+00 -1.753826713562011719e+01 -3.822332024574279785e-01 4.009551048278808594e+00 1.088195323944091797e+00 4.468744397163391113e-01
2.657000000000000000e+03 6.589157104492187500e+00 -1.638371086120605469e+01 -3.460695743560791016e-01 3.783053159713745117e+00 1.031095027923583984e+00 5.767180919647216797e-01
2.658000000000000000e+03 7.656369686126708984e+00 1.905600547790527344e+01 -1.520491838455200195e+00 5.386197566986083984e+00 1.159711718559265137e+00 -4.674673974514007568e-01
2.659000000000000000e+03 8.289469718933105469e+00 -2.508689689636230469e+01 -1.658606827259063721e-01 3.835404157638549805e+00 1.100863099098205566e+00 1.977793276309967041e-01
2.660000000000000000e+03 7.311888122558593750e+01 1.281498050689697266e+01 1.353113532066345215e+00 4.309404850006103516e+00 1.698755502700805664e+00 -1.154569864273071289e+00
2.661000000000000000e+03 5.850186824798583984e+00 -2.061324882507324219e+01 -1.822897344827651978e-01 3.645366907119750977e+00 1.038923144340515137e+00 3.528974354267120361e-01
2.662000000000000000e+03 7.115242958068847656e+00 -2.040931892395019531e+01 -2.316910475492477417e-01 3.782865285873413086e+00 1.065352320671081543e+00 3.601624965667724609e-01
2.663000000000000000e+03 2.717627525329589844e+01 -2.652280569076538086e+00 3.401272058486938477e+00 5.776246070861816406e+00 2.753255367279052734e+00 1.366344928741455078e+00
2.664000000000000000e+03 5.250289440155029297e+00 1.046484470367431641e+01 2.134443260729312897e-02 5.705879688262939453e+00 1.718167304992675781e+00 -3.692433118820190430e+00
2.665000000000000000e+03 4.968799114227294922e+00 -1.395400047302246094e+01 -2.694903910160064697e-01 3.331989765167236328e+00 9.187498092651367188e-01 7.691769599914550781e-01
2.666000000000000000e+03 6.038696765899658203e+00 -2.753582191467285156e+01 -8.236474543809890747e-02 3.725701332092285156e+00 1.093001008033752441e+00 1.411234885454177856e-01
2.667000000000000000e+03 7.157022857666015625e+01 -3.275929260253906250e+01 1.373332142829895020e-01 6.000335693359375000e+00 1.841300606727600098e+00 1.525624841451644897e-01
2.668000000000000000e+03 7.329037475585937500e+01 -3.325400924682617188e+01 1.355040222406387329e-01 6.224462509155273438e+00 1.907989978790283203e+00 1.761086285114288330e-01
2.669000000000000000e+03 1.549962234497070312e+01 1.968630981445312500e+01 -1.975900053977966309e+00 2.089856863021850586e+00 3.418705612421035767e-02 7.157443761825561523e-01
2.670000000000000000e+03 7.316116333007812500e+01 2.269557571411132812e+01 4.399668052792549133e-02 6.492255687713623047e+00 1.960875630378723145e+00 -6.364898383617401123e-02
2.671000000000000000e+03 7.720919036865234375e+01 -1.463045716285705566e+00 -8.445711135864257812e-01 9.796982765197753906e+00 2.685723543167114258e+00 1.069893240928649902e+00
2.672000000000000000e+03 8.674516677856445312e+00 -3.376200485229492188e+01 -5.951070785522460938e-02 3.817174673080444336e+00 1.127299189567565918e+00 6.357184797525405884e-02
2.673000000000000000e+03 1.011465454101562500e+01 -3.039649009704589844e+01 -1.141423806548118591e-01 3.870787858963012695e+00 1.126993656158447266e+00 9.682527929544448853e-02
2.674000000000000000e+03 7.444169616699218750e+01 1.665051841735839844e+01 6.184163093566894531e-01 6.164268016815185547e+00 2.034805297851562500e+00 -2.793010175228118896e-01
2.675000000000000000e+03 7.385152435302734375e+01 1.562769222259521484e+01 8.261222839355468750e-01 5.932925224304199219e+00 2.027714252471923828e+00 -3.056346476078033447e-01
2.676000000000000000e+03 7.302387237548828125e+01 -2.320249176025390625e+01 1.981036961078643799e-01 6.254670143127441406e+00 1.935832142829895020e+00 7.700608968734741211e-01
2.677000000000000000e+03 8.961465835571289062e+00 2.846449279785156250e+01 -1.395613849163055420e-01 4.157820224761962891e+00 1.205477714538574219e+00 4.889315962791442871e-01
2.678000000000000000e+03 1.017934226989746094e+01 3.229336929321289062e+01 1.544746756553649902e-01 3.871438741683959961e+00 1.207774043083190918e+00 4.218104481697082520e-01
2.679000000000000000e+03 1.276799106597900391e+01 1.989001464843750000e+01 -1.870724558830261230e+00 3.443275690078735352e+00 4.717653095722198486e-01 6.659310460090637207e-01
2.680000000000000000e+03 7.304611206054687500e+01 2.621374893188476562e+01 1.908039115369319916e-02 6.309700489044189453e+00 1.898634314537048340e+00 -7.169296592473983765e-02
2.681000000000000000e+03 6.991421508789062500e+01 2.366757583618164062e+01 -3.378347679972648621e-02 6.236859321594238281e+00 1.860922694206237793e+00 -2.214418351650238037e-01
2.682000000000000000e+03 7.427690124511718750e+01 -2.914780139923095703e+00 -5.993065237998962402e-01 5.594144344329833984e+00 1.498451352119445801e+00 3.464943170547485352e-01
2.683000000000000000e+03 7.285319519042968750e+01 -5.176500320434570312e+00 -7.975335121154785156e-01 6.557498455047607422e+00 1.727989435195922852e+00 3.583731874823570251e-02
2.684000000000000000e+03 7.341531372070312500e+01 -2.060312652587890625e+01 -1.520897001028060913e-01 6.989302158355712891e+00 2.051163673400878906e+00 1.032397866249084473e+00
2.685000000000000000e+03 7.129098510742187500e+01 -2.647690391540527344e+01 2.524350285530090332e-01 5.845879554748535156e+00 1.829494357109069824e+00 4.411931633949279785e-01
2.686000000000000000e+03 8.664113044738769531e+00 2.093577003479003906e+01 -1.305724620819091797e+00 4.877582073211669922e+00 1.071557164192199707e+00 4.248996824026107788e-02
2.687000000000000000e+03 8.032523155212402344e+00 3.328744506835937500e+01 1.583840996026992798e-01 4.366196632385253906e+00 1.357374191284179688e+00 3.666580319404602051e-01
2.688000000000000000e+03 7.446081542968750000e+01 2.008393096923828125e+01 1.957681179046630859e-01 6.430826663970947266e+00 1.987978458404541016e+00 -4.534700140357017517e-02
2.689000000000000000e+03 7.237150573730468750e+01 1.950323104858398438e+01 2.249428033828735352e-01 6.403899669647216797e+00 1.988652825355529785e+00 4.125432297587394714e-02
2.690000000000000000e+03 7.149290466308593750e+01 2.559765815734863281e+01 -1.789342425763607025e-02 6.295708656311035156e+00 1.883344650268554688e+00 -1.237084046006202698e-01
2.691000000000000000e+03 7.228867340087890625e+01 2.398152732849121094e+01 1.398122683167457581e-02 6.335919857025146484e+00 1.904970288276672363e+00 -8.988976478576660156e-02
2.692000000000000000e+03 5.751723289489746094e+00 2.558068656921386719e+01 -2.906528413295745850e-01 5.058018684387207031e+00 1.430209755897521973e+00 2.577898800373077393e-01
2.693000000000000000e+03 6.060796737670898438e+00 -1.378499126434326172e+01 -3.817573189735412598e-01 3.701337099075317383e+00 9.958739280700683594e-01 7.924521565437316895e-01
2.694000000000000000e+03 8.487644195556640625e+00 1.774115371704101562e+01 -1.959020614624023438e+00 5.495682239532470703e+00 1.060998439788818359e+00 -5.787318348884582520e-01
2.695000000000000000e+03 7.294443130493164062e+00 2.052345085144042969e+01 -1.091596007347106934e+00 5.146181583404541016e+00 1.216375589370727539e+00 -3.568804860115051270e-01
2.696000000000000000e+03 5.913978099822998047e+00 2.024487304687500000e+01 -8.977419137954711914e-01 5.337906360626220703e+00 1.332049369812011719e+00 -4.129233956336975098e-01
2.697000000000000000e+03 5.378636360168457031e+00 1.310963344573974609e+01 -1.181957960128784180e+00 5.960244178771972656e+00 1.433485865592956543e+00 -2.747503519058227539e+00
2.698000000000000000e+03 6.502275466918945312e+00 1.591359806060791016e+01 -1.712288975715637207e+00 6.085259914398193359e+00 1.311891317367553711e+00 -1.715619921684265137e+00
2.699000000000000000e+03 7.762745380401611328e+00 2.854677200317382812e+01 -1.197694242000579834e-01 4.472467422485351562e+00 1.305809378623962402e+00 3.916535675525665283e-01
2.700000000000000000e+03 4.663649082183837891e+00 9.366120338439941406e+00 9.048167467117309570e-01 4.333312034606933594e+00 1.571438670158386230e+00 -3.399106264114379883e+00
2.701000000000000000e+03 6.558875560760498047e+00 8.622739791870117188e+00 1.824828267097473145e+00 7.352803707122802734e+00 2.753289461135864258e+00 -4.497791767120361328e+00
2.702000000000000000e+03 6.932953643798828125e+01 1.406423568725585938e+01 1.532144546508789062e+00 7.009449005126953125e+00 2.562478065490722656e+00 1.456173181533813477e+00
2.703000000000000000e+03 4.404393386840820312e+01 -1.936363792419433594e+01 -5.872591733932495117e-01 5.823659896850585938e+00 1.570920228958129883e+00 -1.052261471748352051e+00
2.704000000000000000e+03 4.511471557617187500e+01 -1.755731582641601562e+01 3.891524672508239746e-02 5.155689239501953125e+00 1.558381319046020508e+00 -1.361303329467773438e+00
2.705000000000000000e+03 4.276593017578125000e+01 -1.600456809997558594e+01 8.776519298553466797e-01 8.635652542114257812e+00 2.853991270065307617e+00 -9.758392572402954102e-01
2.706000000000000000e+03 5.955509185791015625e+01 -3.878513097763061523e+00 1.399747610092163086e+00 5.263442993164062500e+00 1.998957157135009766e+00 -5.412842035293579102e-01
2.707000000000000000e+03 5.240628051757812500e+01 -1.573433756828308105e+00 -3.654513597488403320e+00 6.443397045135498047e+00 8.366650342941284180e-01 -1.568933486938476562e+00
2.708000000000000000e+03 1.447151851654052734e+01 2.112201690673828125e+01 -1.526137113571166992e+00 2.650712251663208008e+00 3.373725712299346924e-01 6.767907738685607910e-01
2.709000000000000000e+03 1.412209796905517578e+01 -7.693888187408447266e+00 -3.073044717311859131e-01 6.321843147277832031e+00 1.804361581802368164e+00 -1.600661158561706543e+00
2.710000000000000000e+03 1.382731056213378906e+01 -8.234558105468750000e+00 -4.958064258098602295e-01 6.370572566986083984e+00 1.762429833412170410e+00 -1.290780663490295410e+00
2.711000000000000000e+03 3.511787796020507812e+01 5.257959842681884766e+00 -9.776420146226882935e-02 7.456099033355712891e+00 2.207500457763671875e+00 8.432497978210449219e-01
2.712000000000000000e+03 2.366207313537597656e+01 -1.436296558380126953e+01 -6.856651604175567627e-02 5.147439479827880859e+00 1.523661851882934570e+00 5.725083351135253906e-01
2.713000000000000000e+03 5.680466842651367188e+01 1.537123870849609375e+01 8.483598828315734863e-01 3.899437665939331055e+00 1.424339294433593750e+00 2.006012201309204102e+00
2.714000000000000000e+03 6.762918853759765625e+01 -2.194608879089355469e+01 9.280294179916381836e-01 4.196282863616943359e+00 1.537293672561645508e+00 2.142695486545562744e-01
2.715000000000000000e+03 6.022734069824218750e+01 -1.382385349273681641e+01 3.215245008468627930e-01 8.088572502136230469e+00 2.523029088973999023e+00 3.464109897613525391e-01
2.716000000000000000e+03 6.084946823120117188e+01 -1.217948627471923828e+01 -9.411184489727020264e-02 7.981753826141357422e+00 2.366292476654052734e+00 7.880849242210388184e-01
2.717000000000000000e+03 2.496739959716796875e+01 2.273650550842285156e+01 -1.638385415077209473e+00 2.971635818481445312e+00 3.999751508235931396e-01 -8.185184001922607422e-01
2.718000000000000000e+03 2.163698959350585938e+01 -1.387730598449707031e+01 5.892608165740966797e-01 3.979793310165405273e+00 1.370716214179992676e+00 2.018986344337463379e-01
2.719000000000000000e+03 1.980865859985351562e+01 -1.322662734985351562e+01 6.179161667823791504e-01 3.664579153060913086e+00 1.284748554229736328e+00 -3.599760830402374268e-01
2.720000000000000000e+03 4.496774291992187500e+01 1.977029991149902344e+01 7.744966149330139160e-01 3.108113527297973633e+00 1.164783000946044922e+00 4.176598489284515381e-01
2.721000000000000000e+03 4.333706283569335938e+01 1.984646034240722656e+01 3.141103982925415039e-01 3.498612403869628906e+00 1.143816828727722168e+00 9.367377161979675293e-01
2.722000000000000000e+03 1.612885284423828125e+01 -1.116366386413574219e+01 1.777825062163174152e-03 4.692083358764648438e+00 1.408158302307128906e+00 -1.171025395393371582e+00
2.723000000000000000e+03 1.709153938293457031e+01 -1.058592605590820312e+01 1.437225937843322754e-01 4.304545402526855469e+00 1.334480524063110352e+00 -1.365285754203796387e+00
2.724000000000000000e+03 6.022555160522460938e+01 -1.934261131286621094e+01 2.924696207046508789e-01 6.983070373535156250e+00 2.182662010192871094e+00 -1.341715574264526367e+00
2.725000000000000000e+03 3.913595199584960938e+01 1.760204887390136719e+01 -1.149329662322998047e+00 6.092142581939697266e+00 1.482843875885009766e+00 1.411678552627563477e+00
2.726000000000000000e+03 4.196813201904296875e+01 1.922220039367675781e+01 4.720611870288848877e-02 4.067262172698974609e+00 1.234340548515319824e+00 1.265833020210266113e+00
2.727000000000000000e+03 4.639373779296875000e+01 2.167173385620117188e+01 3.160412907600402832e-01 4.126051425933837891e+00 1.332627892494201660e+00 -1.584991663694381714e-01
2.728000000000000000e+03 4.804895019531250000e+01 1.912270355224609375e+01 2.530746161937713623e-01 4.238993644714355469e+00 1.347620487213134766e+00 -8.132913112640380859e-01
2.729000000000000000e+03 4.884292984008789062e+01 -2.325402450561523438e+01 2.843635380268096924e-01 3.320504665374755859e+00 1.081460475921630859e+00 -6.115787029266357422e-01
2.730000000000000000e+03 7.024599456787109375e+01 2.934720420837402344e+01 1.051871478557586670e-02 6.083697795867919922e+00 1.828264951705932617e+00 -9.629470109939575195e-02
2.731000000000000000e+03 3.264612197875976562e+01 -1.504918193817138672e+01 -4.625831246376037598e-01 2.711010694503784180e+00 6.745283007621765137e-01 -1.059346795082092285e+00
2.732000000000000000e+03 5.945600891113281250e+01 -2.257692909240722656e+01 -5.051029324531555176e-01 6.650567531585693359e+00 1.843639373779296875e+00 -5.513789653778076172e-01
2.733000000000000000e+03 8.158092498779296875e+00 -2.721630096435546875e+01 -1.264364123344421387e-01 3.816515684127807617e+00 1.107023715972900391e+00 1.597840636968612671e-01
2.734000000000000000e+03 5.555847930908203125e+01 -3.548095941543579102e+00 -2.384782075881958008e+00 5.788378715515136719e+00 1.021078944206237793e+00 -3.218250751495361328e+00
2.735000000000000000e+03 5.636664199829101562e+01 -2.824383974075317383e+00 -1.302982687950134277e+00 4.469196319580078125e+00 9.498640298843383789e-01 -3.815241336822509766e+00
2.736000000000000000e+03 3.903670120239257812e+01 -2.508058738708496094e+01 2.685927599668502808e-02 3.981979846954345703e+00 1.202651739120483398e+00 1.407904624938964844e-01
2.737000000000000000e+03 7.332495117187500000e+01 -2.192048454284667969e+01 -4.014822542667388916e-01 6.605290889739990234e+00 1.861142635345458984e+00 8.894369602203369141e-01
2.738000000000000000e+03 7.402536392211914062e+00 -2.182422447204589844e+01 -2.126110941171646118e-01 3.812102079391479492e+00 1.079847335815429688e+00 3.038634657859802246e-01
2.739000000000000000e+03 5.124681472778320312e+01 1.943546867370605469e+01 -6.040515303611755371e-01 6.447062969207763672e+00 1.752903461456298828e+00 -3.566597998142242432e-01
2.740000000000000000e+03 4.747577667236328125e+01 -2.230142784118652344e+01 3.284250572323799133e-02 3.569530963897705078e+00 1.080712080001831055e+00 -1.028778672218322754e+00
2.741000000000000000e+03 5.258534622192382812e+01 -2.511761856079101562e+01 5.084417462348937988e-01 3.415336847305297852e+00 1.177133560180664062e+00 4.514123201370239258e-01
2.742000000000000000e+03 6.338882446289062500e+01 -1.590183830261230469e+01 -3.228167891502380371e-01 4.776237010955810547e+00 1.336026072502136230e+00 -9.634602665901184082e-01
2.743000000000000000e+03 7.134101104736328125e+01 1.823743629455566406e+01 4.151073098182678223e-01 6.583652496337890625e+00 2.099627971649169922e+00 1.718269884586334229e-01
2.744000000000000000e+03 1.703547096252441406e+01 -1.313605690002441406e+01 1.129947379231452942e-01 4.325528621673583984e+00 1.331556916236877441e+00 -7.517473101615905762e-01
2.745000000000000000e+03 1.814678573608398438e+01 -1.262768268585205078e+01 3.459018468856811523e-01 3.938567876815795898e+00 1.285340905189514160e+00 -7.684176564216613770e-01
2.746000000000000000e+03 5.948579788208007812e+00 -2.613543272018432617e+00 1.491655230522155762e+00 1.016221046447753906e+00 7.523629069328308105e-01 1.125404477119445801e+00
2.747000000000000000e+03 1.306942176818847656e+01 -4.997287273406982422e+00 1.035983860492706299e-01 8.512771606445312500e+00 2.584910869598388672e+00 -2.180135011672973633e+00
2.748000000000000000e+03 8.458021163940429688e+00 -2.917132854461669922e+00 1.800211191177368164e+00 6.243111133575439453e+00 2.412996768951416016e+00 3.903610229492187500e+00
2.749000000000000000e+03 6.995678424835205078e+00 -2.663868665695190430e+00 2.092566728591918945e+00 2.180830717086791992e+00 1.282019138336181641e+00 2.224082946777343750e+00
2.750000000000000000e+03 9.210735321044921875e+00 -2.709366321563720703e+00 1.250234007835388184e+00 9.576545715332031250e+00 3.248034000396728516e+00 4.271981716156005859e+00
2.751000000000000000e+03 7.267871856689453125e+00 -2.873581171035766602e+00 2.093465328216552734e+00 2.810112476348876953e+00 1.471073389053344727e+00 2.617266893386840820e+00
2.752000000000000000e+03 6.744503021240234375e+00 -2.943953752517700195e+00 1.844334602355957031e+00 2.108389139175415039e+00 1.185817122459411621e+00 2.032612085342407227e+00
2.753000000000000000e+03 8.158573150634765625e+00 -2.797165870666503906e+00 2.162715435028076172e+00 5.025552272796630859e+00 2.156480312347412109e+00 3.708661079406738281e+00
2.754000000000000000e+03 7.462447166442871094e+00 -2.585542917251586914e+00 2.344867944717407227e+00 2.909111499786376953e+00 1.576193809509277344e+00 2.776872158050537109e+00
2.755000000000000000e+03 7.011971473693847656e+00 -3.242649793624877930e+00 1.833186507225036621e+00 2.802580356597900391e+00 1.390730023384094238e+00 2.417050838470458984e+00
2.756000000000000000e+03 1.067767333984375000e+01 -3.396453619003295898e+00 -5.052009820938110352e-01 1.253754901885986328e+01 3.609704494476318359e+00 6.165923476219177246e-01
2.757000000000000000e+03 1.337085056304931641e+01 -3.543081521987915039e+00 1.371178984642028809e+00 8.803068161010742188e+00 3.052273988723754883e+00 -3.340349674224853516e+00
2.758000000000000000e+03 8.023791313171386719e+00 3.238467693328857422e+00 3.038812637329101562e+00 8.114537239074707031e+00 3.346005201339721680e+00 -2.566888809204101562e+00
2.759000000000000000e+03 9.738331794738769531e+00 -3.376723289489746094e+00 8.167747408151626587e-02 1.069048404693603516e+01 3.231648445129394531e+00 2.648732423782348633e+00
2.760000000000000000e+03 1.032387256622314453e+01 -3.131628990173339844e+00 -2.424514740705490112e-01 1.269219303131103516e+01 3.734922647476196289e+00 1.634829998016357422e+00
2.761000000000000000e+03 4.476952552795410156e+00 2.410025835037231445e+00 9.609112888574600220e-02 1.347520500421524048e-01 6.925295293331146240e-02 1.831262230873107910e+00
2.762000000000000000e+03 1.141679954528808594e+01 -2.716456651687622070e+00 4.320188462734222412e-01 1.393770694732666016e+01 4.310917854309082031e+00 -1.675957441329956055e+00
2.763000000000000000e+03 2.769651412963867188e+00 -2.928656816482543945e+00 3.361342847347259521e-01 1.786126196384429932e-01 1.544240713119506836e-01 -4.399040713906288147e-02
2.764000000000000000e+03 4.332434654235839844e+00 -3.140297651290893555e+00 8.090363740921020508e-01 6.005949974060058594e-01 4.228894114494323730e-01 4.489455223083496094e-01
2.765000000000000000e+03 6.819443225860595703e+00 3.538548231124877930e+00 3.526854038238525391e+00 4.557435512542724609e+00 2.425286769866943359e+00 -8.147318363189697266e-01
2.766000000000000000e+03 4.552886962890625000e+00 -2.852801084518432617e+00 8.615483641624450684e-01 5.489972233772277832e-01 4.231636822223663330e-01 4.286317229270935059e-01
2.767000000000000000e+03 3.082855224609375000e+00 -4.248223304748535156e+00 5.113921165466308594e-01 5.565437674522399902e-01 3.203807473182678223e-01 3.669479489326477051e-01
2.768000000000000000e+03 3.291232347488403320e+00 2.911683559417724609e+00 4.829967021942138672e-01 -3.409318923950195312e-01 4.261944442987442017e-02 1.845101833343505859e+00
2.769000000000000000e+03 4.050057411193847656e+00 3.064907073974609375e+00 1.046162366867065430e+00 -3.891324251890182495e-02 3.021747469902038574e-01 1.690169334411621094e+00
2.770000000000000000e+03 4.172131538391113281e+00 3.535614252090454102e+00 1.644403696060180664e+00 3.833378255367279053e-01 6.083224415779113770e-01 1.335092306137084961e+00
2.771000000000000000e+03 2.290010452270507812e+00 -3.136664390563964844e+00 2.503379881381988525e-01 1.025686040520668030e-01 1.058719754219055176e-01 -7.590909302234649658e-02
2.772000000000000000e+03 5.889753341674804688e+00 2.301132440567016602e+00 3.663961887359619141e-01 9.847578406333923340e-01 4.053462147712707520e-01 1.250290751457214355e+00
2.773000000000000000e+03 7.070704460144042969e+00 3.115216970443725586e+00 2.711468219757080078e+00 4.467313766479492188e+00 2.153634548187255859e+00 -7.662925720214843750e-01
2.774000000000000000e+03 5.158230781555175781e+00 -2.586724996566772461e+00 1.059355497360229492e+00 6.031993031501770020e-01 4.987664222717285156e-01 5.968348979949951172e-01
2.775000000000000000e+03 4.704916477203369141e+00 3.432577848434448242e+00 1.865203261375427246e+00 4.822195470333099365e-01 7.042268514633178711e-01 1.297296047210693359e+00
2.776000000000000000e+03 1.263377857208251953e+01 -2.186995029449462891e+00 2.399059772491455078e+00 1.130378150939941406e+01 4.110852241516113281e+00 -3.838910579681396484e+00
2.777000000000000000e+03 7.925548076629638672e+00 2.848116397857666016e+00 2.149099588394165039e+00 7.453630924224853516e+00 2.880819082260131836e+00 -2.562925100326538086e+00
2.778000000000000000e+03 3.661573648452758789e+00 3.137365102767944336e+00 9.473049640655517578e-01 -1.676071286201477051e-01 2.339093536138534546e-01 1.667349576950073242e+00
2.779000000000000000e+03 8.569352149963378906e+00 3.824839353561401367e+00 3.374794960021972656e+00 1.220313739776611328e+01 4.673379421234130859e+00 -2.527907848358154297e+00
2.780000000000000000e+03 1.130101966857910156e+01 -3.205086469650268555e+00 -2.454147636890411377e-01 1.311920070648193359e+01 3.862135887145996094e+00 -9.679489135742187500e-01
2.781000000000000000e+03 6.982408046722412109e+00 6.567382335662841797e+00 5.276241779327392578e+00 7.723752498626708984e+00 3.899998426437377930e+00 -3.955592155456542969e+00
2.782000000000000000e+03 7.700154304504394531e+00 9.021629333496093750e+00 6.083909869194030762e-01 9.825960159301757812e+00 3.130305290222167969e+00 -4.109103202819824219e+00
2.783000000000000000e+03 1.385074043273925781e+01 -4.538872718811035156e+00 7.874404191970825195e-01 7.902407169342041016e+00 2.606954336166381836e+00 -2.875571727752685547e+00
2.784000000000000000e+03 8.267274856567382812e+00 4.399738788604736328e+00 5.837398529052734375e+00 1.158331775665283203e+01 5.226214885711669922e+00 -2.721108913421630859e+00
2.785000000000000000e+03 8.178163528442382812e+00 2.554803848266601562e+00 1.550826787948608398e+00 8.406646728515625000e+00 2.987241983413696289e+00 -3.459089517593383789e+00
2.786000000000000000e+03 7.334973335266113281e+00 5.660809040069580078e+00 7.625602245330810547e+00 8.249608993530273438e+00 4.762563705444335938e+00 -3.045113563537597656e+00
2.787000000000000000e+03 3.705949306488037109e+00 -3.242611169815063477e+00 6.320484876632690430e-01 4.472774863243103027e-01 3.237977921962738037e-01 2.563918828964233398e-01
2.788000000000000000e+03 5.975702762603759766e+00 7.267459869384765625e+00 3.652171134948730469e+00 5.673172950744628906e+00 2.797603130340576172e+00 -3.365794658660888672e+00
2.789000000000000000e+03 4.282482147216796875e+00 5.865840911865234375e+00 2.813321352005004883e+00 1.490254402160644531e+00 1.291072726249694824e+00 -9.011821150779724121e-01
2.790000000000000000e+03 3.909132003784179688e+00 -5.901988506317138672e+00 4.606548845767974854e-01 1.554790258407592773e+00 6.046335697174072266e-01 9.850699305534362793e-01
2.791000000000000000e+03 6.531430721282958984e+00 7.311602592468261719e+00 3.987232685089111328e+00 6.597834110260009766e+00 3.175519943237304688e+00 -4.218490600585937500e+00
2.792000000000000000e+03 7.529310226440429688e+00 1.151661491394042969e+01 -1.599387049674987793e+00 8.469934463500976562e+00 2.061164379119873047e+00 -2.793993711471557617e+00
2.793000000000000000e+03 7.012910366058349609e+00 1.051126194000244141e+01 -6.428624391555786133e-01 7.901034832000732422e+00 2.177451610565185547e+00 -3.657156705856323242e+00
2.794000000000000000e+03 5.251724720001220703e+00 -1.039864063262939453e+01 -2.330947518348693848e-01 3.300082206726074219e+00 9.200962185859680176e-01 1.131340861320495605e+00
2.795000000000000000e+03 9.072540283203125000e+00 1.572477436065673828e+01 -2.385892629623413086e+00 5.994572639465332031e+00 1.082604050636291504e+00 -6.145769953727722168e-01
2.796000000000000000e+03 6.396685123443603516e+00 1.224022674560546875e+01 -1.260797262191772461e+00 6.788661956787109375e+00 1.658359408378601074e+00 -3.118380308151245117e+00
2.797000000000000000e+03 5.754558181762695312e+01 -5.205979824066162109e+00 2.572478353977203369e-01 5.351456642150878906e+00 1.682611346244812012e+00 -1.111293911933898926e+00
2.798000000000000000e+03 5.774669170379638672e+00 7.888652801513671875e+00 2.695574522018432617e+00 5.198837280273437500e+00 2.368323564529418945e+00 -3.972939491271972656e+00
2.799000000000000000e+03 5.955871200561523438e+01 -1.479036235809326172e+01 6.425945758819580078e-01 8.789009094238281250e+00 2.829481124877929688e+00 4.365968704223632812e-01
2.800000000000000000e+03 6.139233779907226562e+01 -1.604980850219726562e+01 6.288550496101379395e-01 6.929190158843994141e+00 2.267413616180419922e+00 -6.323218345642089844e-01
2.801000000000000000e+03 7.345789337158203125e+01 1.752884674072265625e+01 6.363252997398376465e-01 6.150692939758300781e+00 2.036105394363403320e+00 -8.395390212535858154e-02
2.802000000000000000e+03 6.961125850677490234e+00 -1.905844497680664062e+01 -2.781426310539245605e-01 3.791877508163452148e+00 1.054120540618896484e+00 4.232506453990936279e-01
2.803000000000000000e+03 9.427293777465820312e+00 -1.733926582336425781e+01 -4.236958026885986328e-01 4.204522132873535156e+00 1.134248018264770508e+00 3.565025627613067627e-01
2.804000000000000000e+03 1.589494800567626953e+01 2.079353523254394531e+01 -1.504002094268798828e+00 2.048134088516235352e+00 1.632396280765533447e-01 4.760757982730865479e-01
2.805000000000000000e+03 1.297149848937988281e+01 2.132767105102539062e+01 -1.394361734390258789e+00 3.309185504913330078e+00 5.744471549987792969e-01 5.096549391746520996e-01
2.806000000000000000e+03 5.456557464599609375e+01 -2.482034873962402344e+01 2.543781697750091553e-01 4.689467430114746094e+00 1.483153700828552246e+00 1.140416264533996582e+00
2.807000000000000000e+03 5.054399490356445312e+01 -2.348342895507812500e+01 5.083631873130798340e-01 2.779391288757324219e+00 9.863263964653015137e-01 -1.774642765522003174e-01
2.808000000000000000e+03 1.086925792694091797e+01 1.587797641754150391e+01 -2.545565366744995117e+00 5.178746223449707031e+00 7.899542450904846191e-01 -2.399613708257675171e-02
2.809000000000000000e+03 7.149549865722656250e+01 1.465406513214111328e+01 1.498991966247558594e+00 5.502462863922119141e+00 2.100436449050903320e+00 2.684673666954040527e-01
2.810000000000000000e+03 1.024715709686279297e+01 -2.469108009338378906e+01 -2.171177268028259277e-01 3.957172632217407227e+00 1.122016549110412598e+00 1.755814701318740845e-01
2.811000000000000000e+03 7.164768218994140625e+01 -2.462313270568847656e+01 1.998070925474166870e-01 5.863332271575927734e+00 1.818941831588745117e+00 6.291827559471130371e-01
2.812000000000000000e+03 7.782847404479980469e+00 -1.617756080627441406e+01 -4.159948825836181641e-01 4.038875102996826172e+00 1.086863994598388672e+00 5.307838320732116699e-01
2.813000000000000000e+03 6.900388336181640625e+01 1.858804893493652344e+01 -1.522026658058166504e-01 7.064989089965820312e+00 2.073836088180541992e+00 -3.255763277411460876e-02
2.814000000000000000e+03 6.916443634033203125e+01 1.551706790924072266e+01 6.188232898712158203e-01 7.537369728088378906e+00 2.446857929229736328e+00 9.452648162841796875e-01
2.815000000000000000e+03 1.305525684356689453e+01 1.769285964965820312e+01 -2.286232233047485352e+00 3.431160688400268555e+00 3.434785306453704834e-01 5.072292685508728027e-01
2.816000000000000000e+03 8.407679557800292969e+00 2.228878211975097656e+01 -9.210188388824462891e-01 4.694705963134765625e+00 1.132106184959411621e+00 5.509653314948081970e-02
2.817000000000000000e+03 7.451982498168945312e+00 -1.106942939758300781e+01 -5.453081727027893066e-01 4.420799255371093750e+00 1.162647247314453125e+00 9.836227893829345703e-01
2.818000000000000000e+03 6.479372501373291016e+00 -1.128633403778076172e+01 -4.137804806232452393e-01 3.932415008544921875e+00 1.055590391159057617e+00 1.043873548507690430e+00
2.819000000000000000e+03 7.127515411376953125e+01 -2.072736167907714844e+01 -6.241432391107082367e-03 5.691194057464599609e+00 1.705485820770263672e+00 1.522993445396423340e+00
2.820000000000000000e+03 7.325722503662109375e+01 2.067728424072265625e+01 1.790004074573516846e-01 6.510918617248535156e+00 2.006975650787353516e+00 -4.054929688572883606e-02
2.821000000000000000e+03 1.357655239105224609e+01 -6.774430751800537109e+00 -2.537399232387542725e-01 7.185216903686523438e+00 2.079442977905273438e+00 -1.744816541671752930e+00
2.822000000000000000e+03 6.822429180145263672e+00 2.315590667724609375e+01 -5.984222292900085449e-01 4.943632125854492188e+00 1.303562998771667480e+00 1.900162361562252045e-02
2.823000000000000000e+03 8.405986785888671875e+00 2.538415527343750000e+01 -4.512200951576232910e-01 4.497434616088867188e+00 1.213864326477050781e+00 3.607354462146759033e-01
2.824000000000000000e+03 7.200318908691406250e+01 -2.273713684082031250e+01 -6.737276166677474976e-02 5.983963966369628906e+00 1.774977326393127441e+00 8.656833171844482422e-01
2.825000000000000000e+03 7.354038238525390625e+01 1.653191184997558594e+01 7.326601743698120117e-01 6.069443225860595703e+00 2.040631055831909180e+00 -2.100982517004013062e-01
2.826000000000000000e+03 7.247997283935546875e+01 1.759910202026367188e+01 6.151047945022583008e-01 6.227881431579589844e+00 2.052896022796630859e+00 1.883410960435867310e-01
2.827000000000000000e+03 6.864531707763671875e+01 -2.012177658081054688e+01 1.096005439758300781e+00 3.508697748184204102e+00 1.381410956382751465e+00 1.014323472976684570e+00
2.828000000000000000e+03 1.329858303070068359e+01 -9.731710433959960938e+00 -6.691709160804748535e-01 5.960241317749023438e+00 1.587321043014526367e+00 -8.228750824928283691e-01
2.829000000000000000e+03 1.335294914245605469e+01 -8.120588302612304688e+00 -5.800603628158569336e-01 6.573143959045410156e+00 1.797925114631652832e+00 -1.159952282905578613e+00
2.830000000000000000e+03 1.435670471191406250e+01 -1.014778327941894531e+01 -4.810533523559570312e-01 5.540073871612548828e+00 1.517706274986267090e+00 -1.053891539573669434e+00
2.831000000000000000e+03 5.299788665771484375e+01 1.808250236511230469e+01 -3.737089633941650391e-01 7.662324428558349609e+00 2.186584711074829102e+00 1.277013301849365234e+00
2.832000000000000000e+03 1.005510520935058594e+01 1.500609397888183594e+01 -2.625624656677246094e+00 6.163053989410400391e+00 1.061228871345520020e+00 -3.841137290000915527e-01
2.833000000000000000e+03 4.591372299194335938e+01 -2.005727767944335938e+01 -4.284650683403015137e-01 4.500072479248046875e+00 1.221482276916503906e+00 -1.354800820350646973e+00
2.834000000000000000e+03 8.076733589172363281e+00 1.247804737091064453e+01 -1.964122414588928223e+00 7.776785373687744141e+00 1.743798851966857910e+00 -2.191401004791259766e+00
2.835000000000000000e+03 7.836767196655273438e+00 3.019171905517578125e+01 3.254998475313186646e-02 4.424489974975585938e+00 1.337112069129943848e+00 4.445354938507080078e-01
2.836000000000000000e+03 1.099686431884765625e+01 2.933603668212890625e+01 -2.385824918746948242e-02 3.656017303466796875e+00 1.089647769927978516e+00 4.951627254486083984e-01
2.837000000000000000e+03 2.638887214660644531e+01 -1.368664360046386719e+01 -6.461279988288879395e-01 5.825550079345703125e+00 1.553826689720153809e+00 -3.332213461399078369e-01
2.838000000000000000e+03 2.476486015319824219e+01 -1.318336963653564453e+01 -8.677218854427337646e-02 5.524153232574462891e+00 1.631214380264282227e+00 4.023700952529907227e-01
2.839000000000000000e+03 7.181319427490234375e+01 -2.901495170593261719e+01 2.819116711616516113e-01 5.993933677673339844e+00 1.882753610610961914e+00 3.000856339931488037e-01
2.840000000000000000e+03 6.827172088623046875e+01 -3.068928527832031250e+01 2.373868823051452637e-01 5.637620449066162109e+00 1.762502193450927734e+00 1.015404611825942993e-01
2.841000000000000000e+03 7.309051513671875000e+01 1.522274875640869141e+01 1.205877900123596191e+00 5.640325546264648438e+00 2.053861141204833984e+00 -2.711355090141296387e-01
2.842000000000000000e+03 6.158775711059570312e+01 -1.821140670776367188e+01 9.247013330459594727e-01 6.298489093780517578e+00 2.166957139968872070e+00 -1.089403867721557617e+00
2.843000000000000000e+03 7.250327301025390625e+01 2.785733795166015625e+01 -2.312549389898777008e-02 6.281312465667724609e+00 1.877456068992614746e+00 -6.748972833156585693e-02
2.844000000000000000e+03 3.084719276428222656e+01 -1.405030250549316406e+01 -2.834029495716094971e-01 3.638117313385009766e+00 1.006414294242858887e+00 -1.202615261077880859e+00
2.845000000000000000e+03 1.473699474334716797e+01 -1.085260105133056641e+01 -3.250473737716674805e-01 5.236436367034912109e+00 1.473416686058044434e+00 -9.927354454994201660e-01
2.846000000000000000e+03 1.563359451293945312e+01 -1.034045124053955078e+01 -2.100502401590347290e-01 5.041420936584472656e+00 1.449411273002624512e+00 -1.299151062965393066e+00
2.847000000000000000e+03 7.072322082519531250e+01 -2.832612419128417969e+01 2.676915526390075684e-01 5.774773120880126953e+00 1.812739372253417969e+00 2.735210061073303223e-01
2.848000000000000000e+03 3.008372688293457031e+01 -1.366241931915283203e+01 -4.494064748287200928e-01 4.108157634735107422e+00 1.097625374794006348e+00 -1.119161128997802734e+00
2.849000000000000000e+03 8.656656265258789062e+00 -2.132617378234863281e+01 -2.443385720252990723e-01 3.913358688354492188e+00 1.100705981254577637e+00 2.952189147472381592e-01
2.850000000000000000e+03 9.701581954956054688e+00 -2.229438400268554688e+01 -2.602572143077850342e-01 3.973989725112915039e+00 1.114119768142700195e+00 2.330955564975738525e-01
2.851000000000000000e+03 3.842409515380859375e+01 1.974608421325683594e+01 -8.864318728446960449e-01 5.104097366333007812e+00 1.265299677848815918e+00 5.848730802536010742e-01
2.852000000000000000e+03 3.872126007080078125e+01 -2.702268028259277344e+01 -4.123379290103912354e-02 3.854543209075927734e+00 1.143992781639099121e+00 -1.060809642076492310e-01
2.853000000000000000e+03 2.238410758972167969e+01 -1.552153873443603516e+01 1.949603855609893799e-01 4.303543567657470703e+00 1.349551200866699219e+00 2.320998162031173706e-01
2.854000000000000000e+03 4.486094665527343750e+01 2.156549263000488281e+01 4.769107997417449951e-01 3.702723264694213867e+00 1.253890275955200195e+00 1.275084167718887329e-01
2.855000000000000000e+03 6.729928588867187500e+01 -2.058147811889648438e+01 9.196719527244567871e-01 3.362634420394897461e+00 1.284691929817199707e+00 -1.423368304967880249e-01
2.856000000000000000e+03 5.147559738159179688e+01 1.771613502502441406e+01 -5.559576153755187988e-01 8.347822189331054688e+00 2.337559461593627930e+00 -3.892088234424591064e-01
2.857000000000000000e+03 5.498017501831054688e+01 1.679571723937988281e+01 5.121786594390869141e-01 6.080642223358154297e+00 1.977846264839172363e+00 2.155507326126098633e+00
2.858000000000000000e+03 5.663059616088867188e+01 -2.488809585571289062e+01 -3.247238099575042725e-01 5.759734630584716797e+00 1.630503177642822266e+00 6.324781179428100586e-01
2.859000000000000000e+03 6.021868515014648438e+01 -2.135499572753906250e+01 9.630490839481353760e-02 6.469809055328369141e+00 1.969834208488464355e+00 -8.740703463554382324e-01
2.860000000000000000e+03 7.378700256347656250e+00 2.635001564025878906e+01 -2.840629518032073975e-01 4.597643852233886719e+00 1.294074177742004395e+00 3.596115112304687500e-01
2.861000000000000000e+03 3.271789550781250000e+01 -1.717648315429687500e+01 -4.482520818710327148e-01 2.818677902221679688e+00 7.111277580261230469e-01 -9.085879325866699219e-01
2.862000000000000000e+03 3.389729690551757812e+01 -1.435815620422363281e+01 -3.317234218120574951e-01 1.640735387802124023e+00 3.927035927772521973e-01 -6.447905302047729492e-01
2.863000000000000000e+03 8.324800491333007812e+00 -3.141379928588867188e+01 -7.979271560907363892e-02 3.803178548812866211e+00 1.117015719413757324e+00 8.800165355205535889e-02
2.864000000000000000e+03 9.145233154296875000e+00 -2.867078971862792969e+01 -1.161465346813201904e-01 3.838620662689208984e+00 1.116742253303527832e+00 1.256892830133438110e-01
2.865000000000000000e+03 3.240806198120117188e+01 2.054145622253417969e+01 -2.282101213932037354e-01 3.355168819427490234e+00 9.380875825881958008e-01 3.081516623497009277e-01
2.866000000000000000e+03 3.173202514648437500e+01 1.929838371276855469e+01 -3.331230208277702332e-02 2.555166721343994141e+00 7.565563321113586426e-01 5.520306825637817383e-01
2.867000000000000000e+03 2.973253631591796875e+01 -1.968441963195800781e+01 -2.325651198625564575e-01 3.864815711975097656e+00 1.089675188064575195e+00 -7.425867319107055664e-01
2.868000000000000000e+03 3.190636825561523438e+01 -1.973423385620117188e+01 -9.603128582239151001e-02 3.320214509963989258e+00 9.672549962997436523e-01 -7.781836986541748047e-01
2.869000000000000000e+03 6.882857513427734375e+01 -3.359120178222656250e+01 1.679172515869140625e-01 5.757041931152343750e+00 1.777487754821777344e+00 9.514888375997543335e-02
2.870000000000000000e+03 4.868735885620117188e+01 -2.503633499145507812e+01 3.168072402477264404e-01 3.410748720169067383e+00 1.118266820907592773e+00 -4.286149442195892334e-01
2.871000000000000000e+03 8.801090240478515625e+00 3.559438323974609375e+01 2.140151113271713257e-01 4.116764068603515625e+00 1.299233675003051758e+00 2.932031452655792236e-01
2.872000000000000000e+03 6.919071197509765625e+01 -2.601815032958984375e+01 4.112927615642547607e-01 5.396126270294189453e+00 1.742225766181945801e+00 2.628475725650787354e-01
2.873000000000000000e+03 7.190574645996093750e+01 -2.770207023620605469e+01 2.285220175981521606e-01 5.976161956787109375e+00 1.861405134201049805e+00 3.190514445304870605e-01
2.874000000000000000e+03 6.997777557373046875e+01 2.511671257019042969e+01 4.692139104008674622e-02 6.160834312438964844e+00 1.862326741218566895e+00 -2.036354541778564453e-01
2.875000000000000000e+03 7.099042510986328125e+01 -3.038558959960937500e+01 1.846639662981033325e-01 5.918152809143066406e+00 1.830844998359680176e+00 2.092883884906768799e-01
2.876000000000000000e+03 2.049986648559570312e+01 2.387138175964355469e+01 -5.783324837684631348e-01 1.588060736656188965e+00 3.029184937477111816e-01 -3.515764176845550537e-01
2.877000000000000000e+03 1.890798950195312500e+01 2.820694351196289062e+01 -4.183555021882057190e-03 2.150952577590942383e+00 6.440306901931762695e-01 6.438068579882383347e-03
2.878000000000000000e+03 7.600089073181152344e+00 -3.050566673278808594e+00 2.011879205703735352e+00 3.792260169982910156e+00 1.741241812705993652e+00 3.030845642089843750e+00
2.879000000000000000e+03 7.943848609924316406e+00 -2.624169349670410156e+00 2.331497192382812500e+00 4.098329067230224609e+00 1.928947806358337402e+00 3.427476882934570312e+00
2.880000000000000000e+03 7.710178375244140625e+00 -2.720500946044921875e+00 2.262509822845458984e+00 3.669445753097534180e+00 1.779586672782897949e+00 3.181482791900634766e+00
2.881000000000000000e+03 1.270096588134765625e+01 -6.161643028259277344e+00 -4.606619477272033691e-01 8.080300331115722656e+00 2.285891532897949219e+00 -1.423466563224792480e+00
2.882000000000000000e+03 9.927024841308593750e+00 -2.959422349929809570e+00 3.549565002322196960e-02 1.226926898956298828e+01 3.691429376602172852e+00 2.696179866790771484e+00
2.883000000000000000e+03 5.023177146911621094e+00 -7.071337223052978516e+00 2.662039697170257568e-01 2.656530380249023438e+00 8.768203258514404297e-01 1.381681203842163086e+00
2.884000000000000000e+03 5.066802024841308594e+00 -3.561230659484863281e+00 1.133649349212646484e+00 1.158362150192260742e+00 6.876034736633300781e-01 9.881304502487182617e-01
2.885000000000000000e+03 9.942860603332519531e+00 -3.701624631881713867e+00 -2.667441666126251221e-01 1.054257869720458984e+01 3.082750320434570312e+00 2.150275707244873047e+00
2.886000000000000000e+03 4.686083316802978516e+00 2.889362096786499023e+00 1.022703170776367188e+00 4.230709075927734375e-01 4.337322413921356201e-01 1.529318809509277344e+00
2.887000000000000000e+03 4.658001899719238281e+00 -3.224038124084472656e+00 9.414123296737670898e-01 7.629351615905761719e-01 5.113042593002319336e-01 6.206889748573303223e-01
2.888000000000000000e+03 3.826916933059692383e+00 -3.960893869400024414e+00 6.813022494316101074e-01 7.372922897338867188e-01 4.255783557891845703e-01 4.994493722915649414e-01
2.889000000000000000e+03 1.185372829437255859e+01 -3.443824052810668945e+00 1.448141485452651978e-01 1.185127353668212891e+01 3.598826408386230469e+00 -1.893179059028625488e+00
2.890000000000000000e+03 3.966155767440795898e+00 4.051990985870361328e+00 2.026716709136962891e+00 2.752415835857391357e-01 6.905874609947204590e-01 1.059969425201416016e+00
2.891000000000000000e+03 4.324524402618408203e+00 2.775160789489746094e+00 6.734313368797302246e-01 1.901860684156417847e-01 2.590852081775665283e-01 1.777728080749511719e+00
2.892000000000000000e+03 6.002528190612792969e+00 5.149467945098876953e+00 4.919030666351318359e+00 3.620004653930664062e+00 2.561710596084594727e+00 -1.106968998908996582e+00
2.893000000000000000e+03 5.991916179656982422e+00 3.146447896957397461e+00 2.270240783691406250e+00 2.060597419738769531e+00 1.299251437187194824e+00 3.924772739410400391e-01
2.894000000000000000e+03 8.947411537170410156e+00 -3.511052608489990234e+00 7.330948710441589355e-01 8.093379974365234375e+00 2.647942304611206055e+00 3.402525186538696289e+00
2.895000000000000000e+03 1.258053588867187500e+01 -3.635116577148437500e+00 5.110186338424682617e-01 1.042607688903808594e+01 3.281128644943237305e+00 -2.731100797653198242e+00
2.896000000000000000e+03 1.246366977691650391e+01 -2.926651954650878906e+00 1.369486689567565918e+00 1.115234088897705078e+01 3.756548166275024414e+00 -3.260549068450927734e+00
2.897000000000000000e+03 2.943015336990356445e+00 3.338957786560058594e+00 6.242907643318176270e-01 -6.656550168991088867e-01 -1.240928098559379578e-02 1.590407490730285645e+00
2.898000000000000000e+03 2.595602512359619141e+00 2.996685504913330078e+00 3.028373718261718750e-01 -5.822078585624694824e-01 -8.381114900112152100e-02 1.751721024513244629e+00
2.899000000000000000e+03 2.242955207824707031e+00 3.354321956634521484e+00 3.857864141464233398e-01 -1.147775650024414062e+00 -2.285967618227005005e-01 1.562062740325927734e+00
2.900000000000000000e+03 6.685292720794677734e+00 9.504432678222656250e+00 4.808683395385742188e-01 7.994194507598876953e+00 2.542518854141235352e+00 -3.897392272949218750e+00
2.901000000000000000e+03 7.955022811889648438e+00 3.751057863235473633e+00 3.887219667434692383e+00 9.358195304870605469e+00 3.973624467849731445e+00 -2.758436441421508789e+00
2.902000000000000000e+03 4.948011875152587891e+00 -7.764214515686035156e+00 1.216170191764831543e-01 2.781516551971435547e+00 8.709400892257690430e-01 1.326700806617736816e+00
2.903000000000000000e+03 4.327383041381835938e+00 -6.852379322052001953e+00 3.044671714305877686e-01 2.128436565399169922e+00 7.298710942268371582e-01 1.183986067771911621e+00
2.904000000000000000e+03 7.180719375610351562e+00 7.146450519561767578e+00 4.145885944366455078e+00 8.414560317993164062e+00 3.768133878707885742e+00 -4.055166721343994141e+00
2.905000000000000000e+03 5.428712368011474609e+00 6.960867404937744141e+00 3.549557447433471680e+00 3.752720594406127930e+00 2.190683364868164062e+00 -3.101756095886230469e+00
2.906000000000000000e+03 4.959690570831298828e+00 -8.554760932922363281e+00 -7.038341835141181946e-03 2.933572053909301758e+00 8.779600858688354492e-01 1.280899882316589355e+00
2.907000000000000000e+03 6.329268455505371094e+00 -7.891864776611328125e+00 -7.541391253471374512e-02 3.856458663940429688e+00 1.134313344955444336e+00 1.521803975105285645e+00
2.908000000000000000e+03 3.407385349273681641e+00 4.525731086730957031e+00 1.747457146644592285e+00 -3.097763657569885254e-01 4.313042461872100830e-01 8.297572731971740723e-01
2.909000000000000000e+03 3.562944412231445312e+00 5.635984897613525391e+00 2.232805728912353516e+00 2.955269515514373779e-01 7.584998011589050293e-01 -4.259043037891387939e-01
2.910000000000000000e+03 3.136236190795898438e+00 3.904426813125610352e+00 1.239791512489318848e+00 -3.965848684310913086e-01 2.529619932174682617e-01 1.229781150817871094e+00
2.911000000000000000e+03 6.670328140258789062e+00 6.053036689758300781e+00 5.507879734039306641e+00 5.731909751892089844e+00 3.371936798095703125e+00 -3.321539163589477539e+00
2.912000000000000000e+03 4.823418140411376953e+00 6.636858463287353516e+00 3.304129123687744141e+00 3.132425069808959961e+00 1.930966258049011230e+00 -2.121767997741699219e+00
2.913000000000000000e+03 4.989862918853759766e+00 6.014153003692626953e+00 3.705378293991088867e+00 2.746823310852050781e+00 1.935660481452941895e+00 -1.848667740821838379e+00
2.914000000000000000e+03 4.544826030731201172e+00 -6.229695796966552734e+00 4.525735676288604736e-01 2.046375989913940430e+00 7.496848702430725098e-01 1.221062064170837402e+00
2.915000000000000000e+03 5.065460681915283203e+00 -9.438197135925292969e+00 -1.417849808931350708e-01 3.122585773468017578e+00 8.942402601242065430e-01 1.206197857856750488e+00
2.916000000000000000e+03 5.736626625061035156e+00 -8.593100547790527344e+00 -1.067325323820114136e-01 3.472864627838134766e+00 1.009839653968811035e+00 1.367900490760803223e+00
2.917000000000000000e+03 5.667412281036376953e+00 8.655064582824707031e+00 1.904613971710205078e+00 5.912060260772705078e+00 2.345002174377441406e+00 -3.802272319793701172e+00
2.918000000000000000e+03 8.235073089599609375e+00 -1.889941024780273438e+01 -3.230634629726409912e-01 3.950898170471191406e+00 1.088350415229797363e+00 3.888990879058837891e-01
2.919000000000000000e+03 1.235249805450439453e+01 -1.505032348632812500e+01 -5.252804756164550781e-01 4.716788768768310547e+00 1.257452487945556641e+00 -3.076734021306037903e-02
2.920000000000000000e+03 1.286651134490966797e+01 -8.099618911743164062e+00 -7.419666051864624023e-01 6.819722175598144531e+00 1.823326587677001953e+00 -9.529542922973632812e-01
2.921000000000000000e+03 1.320458412170410156e+01 -8.648335456848144531e+00 -6.813634037971496582e-01 6.449356555938720703e+00 1.730397939682006836e+00 -9.364670515060424805e-01
2.922000000000000000e+03 7.156866073608398438e+00 -1.358725643157958984e+01 -4.735834598541259766e-01 4.060695648193359375e+00 1.076133608818054199e+00 7.667570710182189941e-01
2.923000000000000000e+03 1.110449314117431641e+01 -3.730102062225341797e+00 -4.229304492473602295e-01 1.191380119323730469e+01 3.447261095046997070e+00 -3.203364312648773193e-01
2.924000000000000000e+03 6.389189910888671875e+01 -2.632156753540039062e+01 2.664618492126464844e-01 5.369005203247070312e+00 1.690640091896057129e+00 -3.277362585067749023e-01
2.925000000000000000e+03 6.090515899658203125e+01 -2.317896080017089844e+01 5.112595483660697937e-02 6.004811286926269531e+00 1.816781163215637207e+00 -5.624435544013977051e-01
2.926000000000000000e+03 9.310744285583496094e+00 -2.607777023315429688e+01 -1.568308174610137939e-01 3.871747016906738281e+00 1.114474892616271973e+00 1.784833669662475586e-01
2.927000000000000000e+03 9.343555450439453125e+00 -2.027875900268554688e+01 -3.097077012062072754e-01 4.023531436920166016e+00 1.114147067070007324e+00 2.811019122600555420e-01
2.928000000000000000e+03 6.804441833496093750e+01 -2.333651733398437500e+01 6.323045492172241211e-01 4.712584495544433594e+00 1.603466749191284180e+00 1.807971298694610596e-01
2.929000000000000000e+03 6.853586578369140625e+01 -2.815837860107421875e+01 3.438733518123626709e-01 5.500541210174560547e+00 1.753324389457702637e+00 1.332231014966964722e-01
2.930000000000000000e+03 7.116892242431640625e+01 2.285738563537597656e+01 8.595037274062633514e-03 6.447358131408691406e+00 1.936785936355590820e+00 -1.416000127792358398e-01
2.931000000000000000e+03 6.859053802490234375e+01 2.114970970153808594e+01 -8.926972001791000366e-02 6.351680278778076172e+00 1.878723144531250000e+00 -3.806414306163787842e-01
2.932000000000000000e+03 7.055456542968750000e+01 1.690086936950683594e+01 4.921329915523529053e-01 6.641146659851074219e+00 2.139983892440795898e+00 5.254936218261718750e-01
2.933000000000000000e+03 1.417494106292724609e+01 1.970228767395019531e+01 -1.817069768905639648e+00 2.802428960800170898e+00 2.956077754497528076e-01 5.290181040763854980e-01
2.934000000000000000e+03 9.723544120788574219e+00 1.676757240295410156e+01 -2.381984472274780273e+00 5.686977386474609375e+00 9.914979338645935059e-01 -3.429899513721466064e-01
2.935000000000000000e+03 1.323634243011474609e+01 2.281945228576660156e+01 -1.056884527206420898e+00 3.107214927673339844e+00 6.150990724563598633e-01 6.199097633361816406e-01
2.936000000000000000e+03 9.304272651672363281e+00 2.643958854675292969e+01 -3.442278504371643066e-01 4.141665935516357422e+00 1.139231443405151367e+00 4.437158703804016113e-01
2.937000000000000000e+03 7.467040061950683594e+00 -1.485389900207519531e+01 -4.678668677806854248e-01 4.071902751922607422e+00 1.081210851669311523e+00 6.394854187965393066e-01
2.938000000000000000e+03 6.042826843261718750e+01 -1.544125080108642578e+01 3.996374905109405518e-01 7.281084060668945312e+00 2.304216384887695312e+00 -1.719542145729064941e-01
2.939000000000000000e+03 8.043682098388671875e+00 1.568845081329345703e+01 -2.190631151199340820e+00 6.223265171051025391e+00 1.209790229797363281e+00 -1.213240623474121094e+00
2.940000000000000000e+03 1.044388198852539062e+01 2.539852714538574219e+01 -5.527945756912231445e-01 4.035604953765869141e+00 1.044843196868896484e+00 4.364007413387298584e-01
2.941000000000000000e+03 1.079991054534912109e+01 1.784362983703613281e+01 -2.195549249649047852e+00 4.687420845031738281e+00 7.475614547729492188e-01 1.160795092582702637e-01
2.942000000000000000e+03 7.234090423583984375e+01 -2.059324073791503906e+01 -4.414266347885131836e-01 6.323827266693115234e+00 1.764720201492309570e+00 1.210166215896606445e+00
2.943000000000000000e+03 9.681625366210937500e+00 1.871860313415527344e+01 -1.953535318374633789e+00 5.039052963256835938e+00 9.256552457809448242e-01 -5.037269368767738342e-02
2.944000000000000000e+03 6.822282791137695312e+00 -1.238776397705078125e+01 -4.762892127037048340e-01 4.029813289642333984e+00 1.066057324409484863e+00 8.977173566818237305e-01
2.945000000000000000e+03 2.795034599304199219e+01 -1.448995113372802734e+01 -6.519306302070617676e-01 5.117645740509033203e+00 1.339714646339416504e+00 -8.402025699615478516e-01
2.946000000000000000e+03 2.887869453430175781e+01 -1.558701992034912109e+01 -6.347851753234863281e-01 4.604871749877929688e+00 1.191025972366333008e+00 -8.217043876647949219e-01
2.947000000000000000e+03 7.536079883575439453e+00 2.459756278991699219e+01 -4.898878931999206543e-01 4.625216007232666016e+00 1.240598440170288086e+00 2.552220523357391357e-01
2.948000000000000000e+03 1.381432819366455078e+01 -1.122012424468994141e+01 -5.573483109474182129e-01 5.399087905883789062e+00 1.452521800994873047e+00 -6.959852576255798340e-01
2.949000000000000000e+03 1.411127281188964844e+01 -8.950585365295410156e+00 -4.996310472488403320e-01 5.977688312530517578e+00 1.643417239189147949e+00 -1.236752152442932129e+00
2.950000000000000000e+03 6.918939208984375000e+01 1.705293464660644531e+01 2.434611618518829346e-01 7.160953521728515625e+00 2.221324443817138672e+00 3.513848483562469482e-01
2.951000000000000000e+03 7.047105407714843750e+01 1.441790962219238281e+01 1.468563318252563477e+00 6.073163509368896484e+00 2.262517929077148438e+00 9.713736176490783691e-01
2.952000000000000000e+03 6.614627075195312500e+01 1.958169746398925781e+01 1.034089177846908569e-01 6.039949417114257812e+00 1.843007564544677734e+00 -9.674835205078125000e-01
2.953000000000000000e+03 6.760488891601562500e+01 1.826885223388671875e+01 -2.775818109512329102e-01 7.068835258483886719e+00 2.037375926971435547e+00 -6.032439470291137695e-01
2.954000000000000000e+03 2.951902198791503906e+01 2.182846450805664062e+01 -1.003525614738464355e+00 3.921509265899658203e+00 8.753950595855712891e-01 2.158922553062438965e-01
2.955000000000000000e+03 1.873937988281250000e+01 2.529843902587890625e+01 -3.823091387748718262e-01 1.771265745162963867e+00 4.166869819164276123e-01 7.625349611043930054e-02
2.956000000000000000e+03 1.654598808288574219e+01 2.209146881103515625e+01 -1.206553220748901367e+00 1.821389555931091309e+00 1.844509094953536987e-01 5.466289520263671875e-01
2.957000000000000000e+03 5.672877502441406250e+01 1.673210525512695312e+01 8.504337072372436523e-01 4.235349655151367188e+00 1.525735020637512207e+00 1.947283029556274414e+00
2.958000000000000000e+03 8.911163330078125000e+00 -2.374363136291503906e+01 -1.951690018177032471e-01 3.888741254806518555e+00 1.108071684837341309e+00 2.362324148416519165e-01
2.959000000000000000e+03 7.050210571289062500e+01 -2.230432510375976562e+01 2.292101085186004639e-01 5.324770450592041016e+00 1.666194200515747070e+00 9.315414428710937500e-01
2.960000000000000000e+03 3.982528686523437500e+01 1.895428466796875000e+01 -5.225891470909118652e-01 5.110544204711914062e+00 1.376386523246765137e+00 1.092463374137878418e+00
2.961000000000000000e+03 9.394498825073242188e+00 3.016664695739746094e+01 2.959812805056571960e-02 4.093923091888427734e+00 1.237056374549865723e+00 4.368551373481750488e-01
2.962000000000000000e+03 1.158142948150634766e+01 -2.580160522460937500e+01 -1.968327313661575317e-01 3.985430479049682617e+00 1.136579275131225586e+00 1.398435533046722412e-01
2.963000000000000000e+03 5.398079299926757812e+01 2.028076744079589844e+01 -2.163465172052383423e-01 6.163846015930175781e+00 1.784249901771545410e+00 9.704059958457946777e-01
2.964000000000000000e+03 5.332213211059570312e+01 1.641393852233886719e+01 4.694751203060150146e-01 8.016719818115234375e+00 2.545858383178710938e+00 1.734821319580078125e+00
2.965000000000000000e+03 4.269128799438476562e+01 -2.138067817687988281e+01 -8.010378479957580566e-01 5.584631919860839844e+00 1.435078263282775879e+00 -1.987766772508621216e-01
2.966000000000000000e+03 7.108171081542968750e+01 -2.347735977172851562e+01 4.411268234252929688e-01 5.536628246307373047e+00 1.793326497077941895e+00 7.026656270027160645e-01
2.967000000000000000e+03 7.147545623779296875e+01 -2.187169075012207031e+01 3.183554708957672119e-01 5.543478965759277344e+00 1.758550286293029785e+00 1.005531430244445801e+00
2.968000000000000000e+03 7.031598663330078125e+01 2.156022453308105469e+01 -2.141476422548294067e-02 6.433497905731201172e+00 1.923624992370605469e+00 -1.465640217065811157e-01
2.969000000000000000e+03 6.857517242431640625e+01 1.993964576721191406e+01 -9.611117839813232422e-02 6.589891910552978516e+00 1.948134303092956543e+00 -3.908496499061584473e-01
2.970000000000000000e+03 4.068111038208007812e+01 2.041366958618164062e+01 -3.961979746818542480e-01 4.513106346130371094e+00 1.235072493553161621e+00 9.404066801071166992e-01
2.971000000000000000e+03 2.638899421691894531e+01 2.174437522888183594e+01 -1.743321537971496582e+00 3.641086101531982422e+00 5.693293213844299316e-01 -5.618723034858703613e-01
2.972000000000000000e+03 2.500542831420898438e+01 2.560442733764648438e+01 -7.464662194252014160e-01 2.683816432952880859e+00 5.812050700187683105e-01 -5.916489362716674805e-01
2.973000000000000000e+03 3.911975097656250000e+01 -2.307051849365234375e+01 -1.793317943811416626e-01 3.901290416717529297e+00 1.116587638854980469e+00 3.184479176998138428e-01
2.974000000000000000e+03 5.782083511352539062e+01 1.985442352294921875e+01 7.806854844093322754e-01 4.231089591979980469e+00 1.503532528877258301e+00 1.033219337463378906e+00
2.975000000000000000e+03 1.745174980163574219e+01 -1.430306816101074219e+01 9.704825282096862793e-02 4.239467620849609375e+00 1.300954818725585938e+00 -5.125343799591064453e-01
2.976000000000000000e+03 1.514538669586181641e+01 -1.165029335021972656e+01 -3.134159743785858154e-01 4.984034538269042969e+00 1.401185631752014160e+00 -8.909794092178344727e-01
2.977000000000000000e+03 1.592082881927490234e+01 -1.356331443786621094e+01 -1.475096791982650757e-01 4.560529708862304688e+00 1.323905944824218750e+00 -6.107731461524963379e-01
2.978000000000000000e+03 4.527204132080078125e+01 2.318019676208496094e+01 2.335717529058456421e-01 4.151257991790771484e+00 1.315448999404907227e+00 1.318379938602447510e-01
2.979000000000000000e+03 3.462943267822265625e+01 2.083852958679199219e+01 -3.830740451812744141e-01 3.879903078079223633e+00 1.049048781394958496e+00 -2.464745491743087769e-01
2.980000000000000000e+03 6.033927536010742188e+01 -2.585129737854003906e+01 -1.210698261857032776e-01 5.868797779083251953e+00 1.724318504333496094e+00 -2.199632674455642700e-01
2.981000000000000000e+03 3.003507614135742188e+01 -1.629796409606933594e+01 -4.313113391399383545e-01 3.915424585342407227e+00 1.045233964920043945e+00 -1.076336622238159180e+00
2.982000000000000000e+03 3.068362617492675781e+01 -1.858961677551269531e+01 -3.749921321868896484e-01 3.614324092864990234e+00 9.717996120452880859e-01 -9.767736196517944336e-01
2.983000000000000000e+03 1.046290874481201172e+01 -2.735904121398925781e+01 -1.685803085565567017e-01 3.917714357376098633e+00 1.124740242958068848e+00 1.334720253944396973e-01
2.984000000000000000e+03 1.913146972656250000e+01 2.245025444030761719e+01 -9.892641901969909668e-01 1.096558332443237305e+00 3.218823671340942383e-02 2.092121727764606476e-02
2.985000000000000000e+03 2.468761634826660156e+01 -1.531401920318603516e+01 -1.266248822212219238e-01 4.999411106109619141e+00 1.461835980415344238e+00 1.924987584352493286e-01
2.986000000000000000e+03 2.543648719787597656e+01 -1.428347682952880859e+01 -2.925976216793060303e-01 5.588177204132080078e+00 1.588673949241638184e+00 3.290644288063049316e-01
2.987000000000000000e+03 6.933811187744140625e+01 -2.280273437500000000e+01 7.237665057182312012e-01 4.828551769256591797e+00 1.665695428848266602e+00 6.301633119583129883e-01
2.988000000000000000e+03 1.130836391448974609e+01 2.684703826904296875e+01 -3.031511306762695312e-01 3.572125434875488281e+00 9.806923270225524902e-01 5.436982512474060059e-01
2.989000000000000000e+03 6.776333618164062500e+01 3.435883712768554688e+01 4.436684399843215942e-02 5.869388103485107422e+00 1.774126529693603516e+00 -4.802748933434486389e-02
2.990000000000000000e+03 7.084196472167968750e+01 2.740971183776855469e+01 3.977753967046737671e-02 6.136058807373046875e+00 1.852750897407531738e+00 -1.309834867715835571e-01
2.991000000000000000e+03 1.450685405731201172e+01 -1.289804458618164062e+01 -3.881108760833740234e-01 4.916559219360351562e+00 1.358534455299377441e+00 -5.613164901733398438e-01
2.992000000000000000e+03 8.232658386230468750e+00 2.735720634460449219e+01 -1.882452368736267090e-01 4.462214469909667969e+00 1.282190680503845215e+00 4.055737257003784180e-01
2.993000000000000000e+03 4.088074111938476562e+01 -2.536068916320800781e+01 -2.184108942747116089e-01 4.087580680847167969e+00 1.160750985145568848e+00 -2.849751152098178864e-02
2.994000000000000000e+03 4.561251068115234375e+01 -2.135527610778808594e+01 -3.588885366916656494e-01 4.585798740386962891e+00 1.268073081970214844e+00 -1.119465947151184082e+00
2.995000000000000000e+03 4.425686645507812500e+01 -2.137186622619628906e+01 -6.475731730461120605e-01 4.894781112670898438e+00 1.274162411689758301e+00 -8.728962540626525879e-01
2.996000000000000000e+03 2.462576866149902344e+01 -1.691856575012207031e+01 -4.652768373489379883e-01 4.816435337066650391e+00 1.305347561836242676e+00 -1.685157120227813721e-01
2.997000000000000000e+03 5.882276535034179688e+00 -3.739825439453125000e+01 -2.497102692723274231e-02 3.774395465850830078e+00 1.124827384948730469e+00 3.126674890518188477e-02
2.998000000000000000e+03 1.250192546844482422e+01 -3.483603668212890625e+01 -8.326670527458190918e-02 3.890548229217529297e+00 1.142184495925903320e+00 2.951467968523502350e-02
2.999000000000000000e+03 6.960923767089843750e+01 -2.939383888244628906e+01 3.407150506973266602e-01 5.705024719238281250e+00 1.813721895217895508e+00 1.953217238187789917e-01
3.000000000000000000e+03 6.992780303955078125e+01 -2.723867607116699219e+01 4.030658900737762451e-01 5.610533237457275391e+00 1.804079651832580566e+00 2.798718810081481934e-01
3.001000000000000000e+03 1.186865711212158203e+01 2.462682533264160156e+01 -6.604309082031250000e-01 3.521771907806396484e+00 8.584023118019104004e-01 5.546915531158447266e-01
3.002000000000000000e+03 1.547649955749511719e+01 2.609218788146972656e+01 -3.021486997604370117e-01 2.507514715194702148e+00 6.616097688674926758e-01 3.702414333820343018e-01
3.003000000000000000e+03 6.918484497070312500e+01 2.674863243103027344e+01 2.358474023640155792e-02 6.079853057861328125e+00 1.831031441688537598e+00 -1.837541460990905762e-01
3.004000000000000000e+03 2.581642532348632812e+01 -1.538036155700683594e+01 -5.750630497932434082e-01 5.175194740295410156e+00 1.380039453506469727e+00 -3.322057723999023438e-01
3.005000000000000000e+03 2.693423080444335938e+01 -1.509181213378906250e+01 -4.205140471458435059e-01 5.151368618011474609e+00 1.419256448745727539e+00 -3.718171417713165283e-01
3.006000000000000000e+03 6.591197967529296875e+01 -2.102031898498535156e+01 7.692971825599670410e-01 4.140267848968505859e+00 1.472869515419006348e+00 -6.004046201705932617e-01
3.007000000000000000e+03 6.564324188232421875e+01 -1.967627143859863281e+01 7.146779298782348633e-01 3.669971466064453125e+00 1.315394759178161621e+00 -8.463513851165771484e-01
3.008000000000000000e+03 7.958307743072509766e+00 -3.187446117401123047e+00 1.798464775085449219e+00 4.800182819366455078e+00 1.979594349861145020e+00 3.362116813659667969e+00
3.009000000000000000e+03 6.146018981933593750e+00 -2.902449846267700195e+00 1.591147065162658691e+00 1.446807980537414551e+00 9.113865494728088379e-01 1.448677659034729004e+00
3.010000000000000000e+03 6.727857112884521484e+00 -3.664007902145385742e+00 1.543617486953735352e+00 2.757885456085205078e+00 1.290450930595397949e+00 2.210771322250366211e+00
3.011000000000000000e+03 8.493767738342285156e+00 -3.819688320159912109e+00 8.880090713500976562e-01 6.635743141174316406e+00 2.257125616073608398e+00 3.204058647155761719e+00
3.012000000000000000e+03 5.369017124176025391e+00 -3.017050743103027344e+00 1.211617350578308105e+00 9.838278889656066895e-01 6.586335897445678711e-01 9.413853883743286133e-01
3.013000000000000000e+03 5.177486419677734375e+00 -4.104447841644287109e+00 1.091123580932617188e+00 1.565488576889038086e+00 7.969836592674255371e-01 1.235115647315979004e+00
3.014000000000000000e+03 1.002270984649658203e+01 -4.127518653869628906e+00 -4.374359846115112305e-01 1.026168537139892578e+01 2.947274684906005859e+00 1.750084638595581055e+00
3.015000000000000000e+03 5.780982971191406250e+00 3.430636167526245117e+00 2.596406221389770508e+00 2.032016277313232422e+00 1.388526797294616699e+00 5.681591033935546875e-01
3.016000000000000000e+03 9.080415725708007812e+00 -3.114117860794067383e+00 9.824263453483581543e-01 8.685328483581542969e+00 2.900326490402221680e+00 3.801693439483642578e+00
3.017000000000000000e+03 6.428109645843505859e+00 -3.047873973846435547e+00 1.708781957626342773e+00 1.844308614730834961e+00 1.065927147865295410e+00 1.796469449996948242e+00
3.018000000000000000e+03 5.405976772308349609e+00 3.672196149826049805e+00 2.765450239181518555e+00 1.445417046546936035e+00 1.263260245323181152e+00 6.796897649765014648e-01
3.019000000000000000e+03 1.240662002563476562e+01 -4.360322952270507812e+00 4.274467751383781433e-02 9.844315528869628906e+00 2.966118097305297852e+00 -2.097255706787109375e+00
3.020000000000000000e+03 3.681191921234130859e+00 3.634574651718139648e+00 1.334159016609191895e+00 -2.544358074665069580e-01 3.239169716835021973e-01 1.445531845092773438e+00
3.021000000000000000e+03 3.618996381759643555e+00 -4.471945285797119141e+00 6.057480573654174805e-01 8.460361957550048828e-01 4.355352818965911865e-01 5.614399909973144531e-01
3.022000000000000000e+03 7.821204662322998047e+00 4.243923187255859375e+00 4.535481452941894531e+00 8.828105926513671875e+00 4.009076118469238281e+00 -1.745808959007263184e+00
3.023000000000000000e+03 3.948071241378784180e+00 4.969449520111083984e+00 2.321647882461547852e+00 5.905165672302246094e-01 8.736493587493896484e-01 1.774882823228836060e-01
3.024000000000000000e+03 3.754662752151489258e+00 -4.977016448974609375e+00 5.914745926856994629e-01 1.087530970573425293e+00 5.037016868591308594e-01 7.435946464538574219e-01
3.025000000000000000e+03 4.254840373992919922e+00 -5.372973442077636719e+00 5.815863609313964844e-01 1.526985049247741699e+00 6.325713992118835449e-01 1.007241845130920410e+00
3.026000000000000000e+03 1.346923637390136719e+01 -5.900033950805664062e+00 -1.310908347368240356e-01 7.696890354156494141e+00 2.269739866256713867e+00 -1.979027390480041504e+00
3.027000000000000000e+03 1.168986606597900391e+01 -4.019135475158691406e+00 -3.580336868762969971e-01 1.116781806945800781e+01 3.242935419082641602e+00 -1.248093724250793457e+00
3.028000000000000000e+03 5.758012294769287109e+00 -4.035917282104492188e+00 1.257098317146301270e+00 1.940119743347167969e+00 9.591653943061828613e-01 1.558696627616882324e+00
3.029000000000000000e+03 5.165653228759765625e+00 -6.473175048828125000e+00 3.976094722747802734e-01 2.611114978790283203e+00 9.026173353195190430e-01 1.445393443107604980e+00
3.030000000000000000e+03 4.510193347930908203e+00 5.282787322998046875e+00 3.157860994338989258e+00 1.369591712951660156e+00 1.358235836029052734e+00 -5.284031033515930176e-01
3.031000000000000000e+03 7.796296596527099609e+00 4.726491451263427734e+00 6.247901916503906250e+00 9.761958122253417969e+00 4.802958011627197266e+00 -2.466012001037597656e+00
3.032000000000000000e+03 6.892290115356445312e+00 5.178575515747070312e+00 6.239124774932861328e+00 5.998323917388916016e+00 3.671234607696533203e+00 -1.788216829299926758e+00
3.033000000000000000e+03 5.994027137756347656e+00 6.426822185516357422e+00 4.699254989624023438e+00 5.051642894744873047e+00 2.925269365310668945e+00 -2.869461059570312500e+00
3.034000000000000000e+03 6.166442871093750000e+00 -1.030639362335205078e+01 -3.454027175903320312e-01 3.805202007293701172e+00 1.037939786911010742e+00 1.162616968154907227e+00
3.035000000000000000e+03 5.909315109252929688e+00 -9.410408973693847656e+00 -2.217390239238739014e-01 3.632329940795898438e+00 1.023177266120910645e+00 1.283623814582824707e+00
3.036000000000000000e+03 6.455175876617431641e+00 -8.554914474487304688e+00 -1.856503784656524658e-01 3.968511819839477539e+00 1.134858489036560059e+00 1.430831193923950195e+00
3.037000000000000000e+03 1.280563449859619141e+01 -6.884350776672363281e+00 -5.967660546302795410e-01 7.569514751434326172e+00 2.091824769973754883e+00 -1.237377882003784180e+00
3.038000000000000000e+03 7.871839046478271484e+00 -1.216474342346191406e+01 -5.671523213386535645e-01 4.442547798156738281e+00 1.162618637084960938e+00 8.246157169342041016e-01
3.039000000000000000e+03 5.612350940704345703e+00 9.569449424743652344e+00 6.321803331375122070e-01 5.673211097717285156e+00 1.891617417335510254e+00 -3.966914892196655273e+00
3.040000000000000000e+03 6.893974304199218750e+01 -2.146684074401855469e+01 5.793515443801879883e-01 4.349114418029785156e+00 1.478539824485778809e+00 6.459270715713500977e-01
3.041000000000000000e+03 1.145958423614501953e+01 -9.913866996765136719e+00 -8.629355430603027344e-01 6.078528881072998047e+00 1.564678072929382324e+00 -8.585995435714721680e-02
3.042000000000000000e+03 2.955599594116210938e+01 -1.753579139709472656e+01 -4.962821006774902344e-01 4.042842864990234375e+00 1.063968181610107422e+00 -9.298908710479736328e-01
3.043000000000000000e+03 1.284828567504882812e+01 -7.546620845794677734e+00 -6.377234458923339844e-01 7.126275062561035156e+00 1.946565508842468262e+00 -1.079054474830627441e+00
3.044000000000000000e+03 1.117569637298583984e+01 -8.330296516418457031e+00 -9.268460273742675781e-01 6.861027240753173828e+00 1.780254364013671875e+00 5.072323977947235107e-02
3.045000000000000000e+03 6.332725524902343750e+00 -1.506439781188964844e+01 -3.610725402832031250e-01 3.749024868011474609e+00 1.016385674476623535e+00 6.802055239677429199e-01
3.046000000000000000e+03 6.986583709716796875e+01 -2.408397293090820312e+01 3.944755196571350098e-01 5.297816276550292969e+00 1.707687497138977051e+00 5.062007904052734375e-01
3.047000000000000000e+03 7.235649871826171875e+01 3.303069305419921875e+01 3.161727637052536011e-02 6.160185337066650391e+00 1.857540726661682129e+00 -4.861670359969139099e-02
3.048000000000000000e+03 1.153747367858886719e+01 2.299964904785156250e+01 -9.746547937393188477e-01 3.774834871292114258e+00 8.400539755821228027e-01 4.311012327671051025e-01
3.049000000000000000e+03 8.956206321716308594e+00 1.966535949707031250e+01 -1.592045307159423828e+00 5.000421524047851562e+00 1.022512793540954590e+00 -1.882543712854385376e-01
3.050000000000000000e+03 8.938641548156738281e+00 -1.591919422149658203e+01 -4.991599917411804199e-01 4.291373252868652344e+00 1.137663960456848145e+00 4.403360486030578613e-01
3.051000000000000000e+03 7.051904678344726562e+00 2.189948081970214844e+01 -8.704637289047241211e-01 5.068949222564697266e+00 1.259545683860778809e+00 -3.290888667106628418e-02
3.052000000000000000e+03 1.202472877502441406e+01 1.878817939758300781e+01 -2.127482414245605469e+00 4.106585979461669922e+00 5.937311053276062012e-01 3.809411823749542236e-01
3.053000000000000000e+03 1.149417304992675781e+01 2.140442848205566406e+01 -1.427560925483703613e+00 3.922101259231567383e+00 7.483621239662170410e-01 5.069557428359985352e-01
3.054000000000000000e+03 1.005646038055419922e+01 2.126759719848632812e+01 -1.337133407592773438e+00 4.391782760620117188e+00 9.163948893547058105e-01 1.975887268781661987e-01
3.055000000000000000e+03 3.408874893188476562e+01 2.377460098266601562e+01 -4.782944023609161377e-01 3.934660673141479492e+00 1.036909937858581543e+00 -1.431987583637237549e-01
3.056000000000000000e+03 3.318604660034179688e+01 2.205786514282226562e+01 -4.573141634464263916e-01 3.474104642868041992e+00 9.050371050834655762e-01 -4.767295438796281815e-03
3.057000000000000000e+03 6.773841094970703125e+01 -2.678938674926757812e+01 4.867642223834991455e-01 5.307148456573486328e+00 1.738173723220825195e+00 1.003864035010337830e-01
3.058000000000000000e+03 2.309314155578613281e+01 -1.742474937438964844e+01 -2.319799959659576416e-01 4.721169948577880859e+00 1.346757054328918457e+00 7.357163727283477783e-02
3.059000000000000000e+03 1.910469436645507812e+01 -1.517368221282958984e+01 2.342588007450103760e-01 4.118436336517333984e+00 1.305808544158935547e+00 -2.634730339050292969e-01
3.060000000000000000e+03 6.277789688110351562e+01 -1.725281906127929688e+01 1.615210771560668945e-01 5.292975902557373047e+00 1.636349201202392578e+00 -1.032136440277099609e+00
3.061000000000000000e+03 9.327595710754394531e+00 2.424004173278808594e+01 -6.524239778518676758e-01 4.201247692108154297e+00 1.064647078514099121e+00 3.547973036766052246e-01
3.062000000000000000e+03 2.092644691467285156e+01 -1.631540679931640625e+01 9.951714426279067993e-02 4.325396060943603516e+00 1.327473878860473633e+00 7.516683544963598251e-03
3.063000000000000000e+03 1.231130695343017578e+01 2.823142051696777344e+01 -9.661205857992172241e-02 3.447543859481811523e+00 1.005279541015625000e+00 4.480854272842407227e-01
3.064000000000000000e+03 1.013627529144287109e+01 2.775699424743652344e+01 -1.924585402011871338e-01 3.996944427490234375e+00 1.141345739364624023e+00 4.584013223648071289e-01
3.065000000000000000e+03 4.095507049560546875e+01 -2.328072357177734375e+01 -2.524019479751586914e-01 4.507994174957275391e+00 1.276677608489990234e+00 1.547750979661941528e-01
3.066000000000000000e+03 1.357400321960449219e+01 2.434650993347167969e+01 -6.932894587516784668e-01 3.089148998260498047e+00 7.187579274177551270e-01 4.921953976154327393e-01
3.067000000000000000e+03 7.132440948486328125e+01 2.053501129150390625e+01 1.023679077625274658e-01 6.577724933624267578e+00 2.004027843475341797e+00 -2.432267554104328156e-02
3.068000000000000000e+03 6.713716125488281250e+01 -2.534305191040039062e+01 5.119706988334655762e-01 5.080903530120849609e+00 1.677862167358398438e+00 -2.734271436929702759e-02
3.069000000000000000e+03 6.266738891601562500e+01 -2.253224945068359375e+01 3.840757012367248535e-01 5.310851097106933594e+00 1.708478093147277832e+00 -9.180507659912109375e-01
3.070000000000000000e+03 1.554505252838134766e+01 -1.254616546630859375e+01 -1.794144660234451294e-01 4.757081031799316406e+00 1.373299956321716309e+00 -8.001694679260253906e-01
3.071000000000000000e+03 5.263108062744140625e+01 1.975456237792968750e+01 -5.332076549530029297e-01 6.776031017303466797e+00 1.872846961021423340e+00 4.071660637855529785e-01
3.072000000000000000e+03 4.876710128784179688e+01 2.047304916381835938e+01 2.608072161674499512e-01 4.843303203582763672e+00 1.531233191490173340e+00 -8.496973514556884766e-01
3.073000000000000000e+03 6.144529724121093750e+01 1.666059494018554688e+01 1.074470520019531250e+00 1.461930274963378906e+00 7.609202265739440918e-01 -4.541017115116119385e-01
3.074000000000000000e+03 6.393796539306640625e+01 -1.874757575988769531e+01 5.594208240509033203e-01 4.535264015197753906e+00 1.528405427932739258e+00 -1.245834946632385254e+00
3.075000000000000000e+03 6.208121490478515625e+01 -2.103538703918457031e+01 3.156344294548034668e-01 5.646084308624267578e+00 1.788515686988830566e+00 -1.251287102699279785e+00
3.076000000000000000e+03 1.547752380371093750e+01 2.424104499816894531e+01 -6.684719920158386230e-01 2.378973484039306641e+00 5.131503939628601074e-01 4.934345781803131104e-01
3.077000000000000000e+03 6.624260711669921875e+01 -2.242625999450683594e+01 7.600705623626708984e-01 4.350523948669433594e+00 1.533178329467773438e+00 -3.765496909618377686e-01
3.078000000000000000e+03 6.299769210815429688e+01 -2.038125610351562500e+01 5.327066779136657715e-01 5.209088325500488281e+00 1.722538471221923828e+00 -1.124009132385253906e+00
3.079000000000000000e+03 2.193282890319824219e+01 2.555384445190429688e+01 -4.091334939002990723e-01 1.856791496276855469e+00 4.342974126338958740e-01 -4.325822889804840088e-01
3.080000000000000000e+03 1.376292991638183594e+01 2.580478858947753906e+01 -4.360076189041137695e-01 3.004263162612915039e+00 7.704766392707824707e-01 5.425029397010803223e-01
3.081000000000000000e+03 3.813491439819335938e+01 2.217446327209472656e+01 -5.372545719146728516e-01 4.436151981353759766e+00 1.169669151306152344e+00 2.677763998508453369e-01
3.082000000000000000e+03 6.695492553710937500e+01 -2.920103645324707031e+01 3.533885180950164795e-01 5.487281799316406250e+00 1.752201080322265625e+00 3.390469029545783997e-02
3.083000000000000000e+03 3.162243270874023438e+01 -1.767065429687500000e+01 -2.992851734161376953e-01 3.435393095016479492e+00 9.408323168754577637e-01 -1.007463693618774414e+00
3.084000000000000000e+03 1.348523044586181641e+01 -1.317697048187255859e+01 -4.995573163032531738e-01 5.021403789520263672e+00 1.356553912162780762e+00 -3.704372048377990723e-01
3.085000000000000000e+03 1.350633335113525391e+01 -1.045647525787353516e+01 -5.624116063117980957e-01 5.651661396026611328e+00 1.526774883270263672e+00 -7.519778013229370117e-01
3.086000000000000000e+03 2.938425254821777344e+01 -2.317659950256347656e+01 -1.175911203026771545e-01 3.806548118591308594e+00 1.106687068939208984e+00 -5.777009725570678711e-01
3.087000000000000000e+03 5.395639801025390625e+01 -2.276263427734375000e+01 3.597514629364013672e-01 3.327116012573242188e+00 1.106060266494750977e+00 1.316613316535949707e+00
3.088000000000000000e+03 5.482961273193359375e+01 -2.687497329711914062e+01 4.757242649793624878e-02 4.739437580108642578e+00 1.436102986335754395e+00 4.823740720748901367e-01
3.089000000000000000e+03 6.765486907958984375e+01 2.567041015625000000e+01 1.117277368903160095e-01 5.871466159820556641e+00 1.794958233833312988e+00 -2.680862247943878174e-01
3.090000000000000000e+03 1.145802974700927734e+01 1.994977760314941406e+01 -1.733452200889587402e+00 4.155831336975097656e+00 7.267138361930847168e-01 2.980990111827850342e-01
3.091000000000000000e+03 5.584546661376953125e+01 1.931189727783203125e+01 3.778339922428131104e-01 5.315268516540527344e+00 1.707930684089660645e+00 1.546302556991577148e+00
3.092000000000000000e+03 1.662252426147460938e+01 -1.600777435302734375e+01 -1.329267024993896484e-01 4.394169330596923828e+00 1.278372883796691895e+00 -3.112708032131195068e-01
3.093000000000000000e+03 1.821403884887695312e+01 -1.699766921997070312e+01 -3.054478205740451813e-02 4.303338527679443359e+00 1.281838178634643555e+00 -2.014685571193695068e-01
3.094000000000000000e+03 6.872908020019531250e+01 2.440969276428222656e+01 3.056479245424270630e-02 6.116238594055175781e+00 1.844041109085083008e+00 -2.889294624328613281e-01
3.095000000000000000e+03 3.922500610351562500e+01 2.113857078552246094e+01 -4.840515255928039551e-01 4.703868389129638672e+00 1.265945076942443848e+00 4.527357518672943115e-01
3.096000000000000000e+03 7.030603027343750000e+01 3.126562881469726562e+01 5.014379322528839111e-02 6.054235935211181641e+00 1.831313967704772949e+00 -8.976114541292190552e-02
3.097000000000000000e+03 6.821756744384765625e+01 2.862447166442871094e+01 8.751068264245986938e-02 5.903069019317626953e+00 1.797173976898193359e+00 -1.595700830221176147e-01
3.098000000000000000e+03 4.201627349853515625e+01 -2.972015953063964844e+01 1.417844295501708984e-01 4.004531860351562500e+00 1.243894934654235840e+00 -1.203864663839340210e-01
3.099000000000000000e+03 4.695351409912109375e+01 -2.539689445495605469e+01 9.463143348693847656e-02 3.965981960296630859e+00 1.218183994293212891e+00 -5.563755631446838379e-01
3.100000000000000000e+03 3.334976577758789062e+01 -2.081480407714843750e+01 8.293938636779785156e-02 3.013595819473266602e+00 9.289605617523193359e-01 -5.824279189109802246e-01
3.101000000000000000e+03 3.584281921386718750e+01 -2.537780570983886719e+01 5.265472084283828735e-02 3.614180088043212891e+00 1.100050449371337891e+00 -7.975469529628753662e-02
3.102000000000000000e+03 4.063724136352539062e+01 -2.734846878051757812e+01 2.763527072966098785e-02 4.087453842163085938e+00 1.234526753425598145e+00 -2.834648825228214264e-02
3.103000000000000000e+03 8.295902252197265625e+00 -3.316577434539794922e+00 1.492365241050720215e+00 5.945544719696044922e+00 2.231373071670532227e+00 3.531349420547485352e+00
3.104000000000000000e+03 7.169258117675781250e+00 -3.917514085769653320e+00 1.408552289009094238e+00 3.666771411895751953e+00 1.522597074508666992e+00 2.553857326507568359e+00
3.105000000000000000e+03 7.389530181884765625e+00 -3.465651273727416992e+00 1.668820738792419434e+00 3.716049671173095703e+00 1.615461111068725586e+00 2.782907009124755859e+00
3.106000000000000000e+03 6.314647674560546875e+00 -3.386837959289550781e+00 1.594054937362670898e+00 1.993827104568481445e+00 1.076364636421203613e+00 1.805762290954589844e+00
3.107000000000000000e+03 5.945705413818359375e+00 -3.130556106567382812e+00 1.478406906127929688e+00 1.404561400413513184e+00 8.648905158042907715e-01 1.385833621025085449e+00
3.108000000000000000e+03 5.676211357116699219e+00 -3.404351472854614258e+00 1.377465128898620605e+00 1.407947897911071777e+00 8.356238603591918945e-01 1.299073457717895508e+00
3.109000000000000000e+03 5.689994812011718750e+00 -4.646928787231445312e+00 9.913229942321777344e-01 2.247772693634033203e+00 9.717287421226501465e-01 1.593703627586364746e+00
3.110000000000000000e+03 4.088649272918701172e+00 -3.519947052001953125e+00 7.865267992019653320e-01 6.873766779899597168e-01 4.421710371971130371e-01 4.823502898216247559e-01
3.111000000000000000e+03 1.202204895019531250e+01 -6.384442329406738281e+00 -7.856841683387756348e-01 8.228600502014160156e+00 2.232874870300292969e+00 -7.280421257019042969e-01
3.112000000000000000e+03 9.269627571105957031e+00 -3.614276409149169922e+00 3.381460607051849365e-01 8.928043365478515625e+00 2.779856920242309570e+00 3.059937000274658203e+00
3.113000000000000000e+03 9.463620185852050781e+00 -4.112923622131347656e+00 -1.011155662126839161e-03 8.985046386718750000e+00 2.695210456848144531e+00 2.463516950607299805e+00
3.114000000000000000e+03 1.086784362792968750e+01 -4.342656612396240234e+00 -7.053529620170593262e-01 1.073289299011230469e+01 3.008262157440185547e+00 3.056182861328125000e-01
3.115000000000000000e+03 7.502593517303466797e+00 3.265503168106079102e+00 3.078488826751708984e+00 6.478731632232666016e+00 2.867166042327880859e+00 -1.858271121978759766e+00
3.116000000000000000e+03 4.917445182800292969e+00 3.969307422637939453e+00 2.713779211044311523e+00 1.205579757690429688e+00 1.175807714462280273e+00 6.958062052726745605e-01
3.117000000000000000e+03 1.194238758087158203e+01 -5.760599613189697266e+00 -6.488388776779174805e-01 8.724945068359375000e+00 2.422831773757934570e+00 -8.666368126869201660e-01
3.118000000000000000e+03 6.088148593902587891e+00 3.707073926925659180e+00 3.417276382446289062e+00 2.642351627349853516e+00 1.817888379096984863e+00 1.495047239586710930e-03
3.119000000000000000e+03 1.119896888732910156e+01 -5.165972232818603516e+00 -8.089363574981689453e-01 9.532001495361328125e+00 2.616919755935668945e+00 -1.260090321302413940e-01
3.120000000000000000e+03 8.822340965270996094e+00 -3.900146722793579102e+00 5.367296338081359863e-01 7.538856983184814453e+00 2.422676086425781250e+00 3.067418336868286133e+00
3.121000000000000000e+03 5.707300186157226562e+00 4.047073364257812500e+00 3.457643508911132812e+00 2.466444730758666992e+00 1.777226448059082031e+00 7.369561493396759033e-02
3.122000000000000000e+03 8.623666763305664062e+00 -3.416469812393188477e+00 1.136044502258300781e+00 6.991785526275634766e+00 2.438349008560180664e+00 3.543575286865234375e+00
3.123000000000000000e+03 8.148102760314941406e+00 -3.739400148391723633e+00 1.187912940979003906e+00 5.682202339172363281e+00 2.061034440994262695e+00 3.214262485504150391e+00
3.124000000000000000e+03 7.299932479858398438e+00 4.209340572357177734e+00 4.828709125518798828e+00 7.308845996856689453e+00 3.641266345977783203e+00 -1.609447598457336426e+00
3.125000000000000000e+03 4.408677577972412109e+00 4.405621528625488281e+00 2.573099374771118164e+00 7.088047266006469727e-01 9.845712780952453613e-01 6.059041023254394531e-01
3.126000000000000000e+03 6.523224830627441406e+00 7.904450416564941406e+00 3.046060800552368164e+00 7.384861469268798828e+00 3.129276752471923828e+00 -4.169754505157470703e+00
3.127000000000000000e+03 1.199414730072021484e+01 -4.924941539764404297e+00 -5.161929726600646973e-01 9.524448394775390625e+00 2.702476501464843750e+00 -1.159516215324401855e+00
3.128000000000000000e+03 7.055328369140625000e+00 -1.012944793701171875e+01 -4.471873939037322998e-01 4.306677341461181641e+00 1.157846927642822266e+00 1.167502284049987793e+00
3.129000000000000000e+03 5.695420742034912109e+00 5.923898696899414062e+00 4.462047100067138672e+00 3.553275585174560547e+00 2.404596805572509766e+00 -2.180291652679443359e+00
3.130000000000000000e+03 7.619798660278320312e+00 -4.072401046752929688e+00 1.163807630538940430e+00 4.629586219787597656e+00 1.738018155097961426e+00 2.780417919158935547e+00
3.131000000000000000e+03 5.669398784637451172e+00 -7.861398220062255859e+00 4.901983588933944702e-02 3.326197862625122070e+00 1.012565255165100098e+00 1.466697335243225098e+00
3.132000000000000000e+03 5.769688129425048828e+00 -6.643607139587402344e+00 3.263987898826599121e-01 3.128639936447143555e+00 1.036511659622192383e+00 1.602315306663513184e+00
3.133000000000000000e+03 7.362996578216552734e+00 3.713262796401977539e+00 3.792661905288696289e+00 6.286801815032958984e+00 3.023839235305786133e+00 -1.271099805831909180e+00
3.134000000000000000e+03 5.263457298278808594e+00 5.089179992675781250e+00 3.987981557846069336e+00 2.267480373382568359e+00 1.876638650894165039e+00 -6.039485335350036621e-01
3.135000000000000000e+03 5.042437553405761719e+00 5.484505176544189453e+00 3.798333644866943359e+00 2.287095069885253906e+00 1.825628638267517090e+00 -1.147281646728515625e+00
3.136000000000000000e+03 7.241238594055175781e+00 4.702525138854980469e+00 5.490289688110351562e+00 7.488186836242675781e+00 3.893543004989624023e+00 -1.471306920051574707e+00
3.137000000000000000e+03 6.333164215087890625e+00 5.586856842041015625e+00 5.886750221252441406e+00 5.115046024322509766e+00 3.300538778305053711e+00 -2.348132133483886719e+00
3.138000000000000000e+03 4.809337615966796875e+00 -5.677700042724609375e+00 6.088735461235046387e-01 2.049173593521118164e+00 7.974141240119934082e-01 1.296647548675537109e+00
3.139000000000000000e+03 6.352390289306640625e+00 -7.279797077178955078e+00 8.381253480911254883e-02 3.794568061828613281e+00 1.163514137268066406e+00 1.651658773422241211e+00
3.140000000000000000e+03 5.694869041442871094e+00 -7.212015151977539062e+00 1.781342327594757080e-01 3.220983028411865234e+00 1.019735217094421387e+00 1.536467909812927246e+00
3.141000000000000000e+03 1.244507694244384766e+01 -5.459692955017089844e+00 -4.809519350528717041e-01 8.851716995239257812e+00 2.511229753494262695e+00 -1.435425996780395508e+00
3.142000000000000000e+03 1.039775848388671875e+01 -4.155016422271728516e+00 -5.693057179450988770e-01 1.059368324279785156e+01 3.007313251495361328e+00 1.047147154808044434e+00
3.143000000000000000e+03 9.360350608825683594e+00 -1.031561279296875000e+01 -7.760361433029174805e-01 5.422350406646728516e+00 1.393894314765930176e+00 6.927261948585510254e-01
3.144000000000000000e+03 1.225366687774658203e+01 -7.735570907592773438e+00 -8.089596033096313477e-01 7.134422779083251953e+00 1.897638916969299316e+00 -6.658623218536376953e-01
3.145000000000000000e+03 8.263385772705078125e+00 -1.337472152709960938e+01 -5.873265266418457031e-01 4.427029132843017578e+00 1.151910662651062012e+00 6.709349751472473145e-01
3.146000000000000000e+03 1.077087974548339844e+01 -1.114371681213378906e+01 -8.011069297790527344e-01 5.471336841583251953e+00 1.401068925857543945e+00 2.194471061229705811e-01
3.147000000000000000e+03 1.951732254028320312e+01 -1.678606605529785156e+01 3.489565476775169373e-02 4.214584350585937500e+00 1.274843931198120117e+00 -1.193398386240005493e-01
3.148000000000000000e+03 2.459353446960449219e+01 -2.076823234558105469e+01 -3.425464034080505371e-01 4.439291477203369141e+00 1.229023456573486328e+00 -2.727630734443664551e-01
3.149000000000000000e+03 1.260638999938964844e+01 -1.066217327117919922e+01 -7.480444312095642090e-01 5.771274566650390625e+00 1.506969094276428223e+00 -4.237789213657379150e-01
3.150000000000000000e+03 1.317349529266357422e+01 -9.132878303527832031e+00 -6.252503395080566406e-01 6.152991294860839844e+00 1.658322215080261230e+00 -8.632615208625793457e-01
3.151000000000000000e+03 1.384112358093261719e+01 -1.406000423431396484e+01 -4.345043599605560303e-01 4.825459957122802734e+00 1.317286610603332520e+00 -3.127248883247375488e-01
3.152000000000000000e+03 1.415772056579589844e+01 -1.202773094177246094e+01 -4.356285333633422852e-01 5.147589206695556641e+00 1.413588285446166992e+00 -6.607516407966613770e-01
3.153000000000000000e+03 6.224907684326171875e+01 -2.353921127319335938e+01 9.329139441251754761e-02 5.620521068572998047e+00 1.714143753051757812e+00 -8.159788250923156738e-01
3.154000000000000000e+03 6.558328247070312500e+01 -2.592679214477539062e+01 4.799527823925018311e-01 5.135214805603027344e+00 1.684550285339355469e+00 -2.009160220623016357e-01
3.155000000000000000e+03 6.314039230346679688e+01 -2.148252868652343750e+01 2.761252224445343018e-01 5.354799747467041016e+00 1.689277529716491699e+00 -1.036024451255798340e+00
3.156000000000000000e+03 6.118785095214843750e+01 -2.024500083923339844e+01 2.509531378746032715e-01 6.600617885589599609e+00 2.055471420288085938e+00 -1.027720093727111816e+00
3.157000000000000000e+03 8.577898979187011719e+00 -1.462623500823974609e+01 -5.364209413528442383e-01 4.354280948638916016e+00 1.145358085632324219e+00 5.517653226852416992e-01
3.158000000000000000e+03 1.217655849456787109e+01 -1.252115440368652344e+01 -6.554239392280578613e-01 5.197950363159179688e+00 1.362757921218872070e+00 -1.244255676865577698e-01
3.159000000000000000e+03 2.594227027893066406e+01 -1.669716453552246094e+01 -4.664621353149414062e-01 5.025338649749755859e+00 1.367663025856018066e+00 -1.811060756444931030e-01
3.160000000000000000e+03 2.866196441650390625e+01 -1.843453216552734375e+01 -5.824407935142517090e-01 4.221983909606933594e+00 1.091862916946411133e+00 -8.395425677299499512e-01
3.161000000000000000e+03 6.394431304931640625e+01 1.932456398010253906e+01 4.183777570724487305e-01 4.950701713562011719e+00 1.610723853111267090e+00 -1.272624015808105469e+00
3.162000000000000000e+03 6.478296661376953125e+01 -2.287012100219726562e+01 5.495374798774719238e-01 4.850132465362548828e+00 1.619900941848754883e+00 -6.681326031684875488e-01
3.163000000000000000e+03 6.448567199707031250e+01 -2.140429306030273438e+01 6.366752386093139648e-01 4.621938705444335938e+00 1.577584147453308105e+00 -8.686550259590148926e-01
3.164000000000000000e+03 7.215299224853515625e+01 3.126832580566406250e+01 -9.672458283603191376e-03 6.178639411926269531e+00 1.850690007209777832e+00 -4.618692398071289062e-02
3.165000000000000000e+03 4.455986022949218750e+01 -2.350235939025878906e+01 -3.361009061336517334e-01 4.590126037597656250e+00 1.276207566261291504e+00 -5.925395488739013672e-01
3.166000000000000000e+03 5.220560836791992188e+01 2.130162811279296875e+01 -3.208916187286376953e-01 5.862297534942626953e+00 1.662421822547912598e+00 1.471866518259048462e-01
3.167000000000000000e+03 1.333107089996337891e+01 2.706903266906738281e+01 -2.246002107858657837e-01 3.059566497802734375e+00 8.504899144172668457e-01 5.073481202125549316e-01
3.168000000000000000e+03 9.891271591186523438e+00 2.280503273010253906e+01 -1.003965616226196289e+00 4.288054466247558594e+00 9.852267503738403320e-01 3.937877714633941650e-01
3.169000000000000000e+03 5.871089935302734375e+01 2.286768150329589844e+01 5.731331110000610352e-01 4.639985561370849609e+00 1.563935637474060059e+00 4.396210908889770508e-01
3.170000000000000000e+03 5.526755142211914062e+01 2.081031227111816406e+01 1.022487878799438477e-01 5.603312969207763672e+00 1.711668491363525391e+00 1.074976086616516113e+00
3.171000000000000000e+03 5.973173522949218750e+01 2.097978973388671875e+01 8.687732815742492676e-01 4.087499141693115234e+00 1.486881732940673828e+00 3.149243295192718506e-01
3.172000000000000000e+03 5.923979568481445312e+01 1.923419570922851562e+01 1.108698010444641113e+00 3.505487680435180664e+00 1.384255647659301758e+00 6.720008254051208496e-01
3.173000000000000000e+03 2.350263786315917969e+01 2.411198234558105469e+01 -7.529340982437133789e-01 2.283740520477294922e+00 4.592418968677520752e-01 -1.009922385215759277e+00
3.174000000000000000e+03 2.779138946533203125e+01 2.499066352844238281e+01 -9.145358800888061523e-01 3.250052452087402344e+00 7.006549835205078125e-01 -3.509671688079833984e-01
3.175000000000000000e+03 4.173077011108398438e+01 2.700221824645996094e+01 -7.200384140014648438e-02 4.240733623504638672e+00 1.250618934631347656e+00 5.029337480664253235e-02
3.176000000000000000e+03 6.159502792358398438e+01 1.802461433410644531e+01 1.438450336456298828e+00 2.697235822677612305e+00 1.240705847740173340e+00 -8.109465837478637695e-01
3.177000000000000000e+03 1.245211791992187500e+01 2.604077720642089844e+01 -4.036315679550170898e-01 3.447348594665527344e+00 9.131150841712951660e-01 4.504677951335906982e-01
3.178000000000000000e+03 6.410338592529296875e+01 -2.825497245788574219e+01 2.623558640480041504e-01 5.367341995239257812e+00 1.688909411430358887e+00 -1.495731472969055176e-01
3.179000000000000000e+03 6.523893737792968750e+01 -3.399728012084960938e+01 1.679089665412902832e-01 5.518540382385253906e+00 1.705934882164001465e+00 3.125797957181930542e-02
3.180000000000000000e+03 2.033467864990234375e+01 2.694998359680175781e+01 -6.869596242904663086e-02 2.088436365127563477e+00 6.059221029281616211e-01 -2.543280720710754395e-01
3.181000000000000000e+03 5.679469299316406250e+01 -2.684793090820312500e+01 -2.624800428748130798e-02 5.190084934234619141e+00 1.549151062965393066e+00 4.431601166725158691e-01
3.182000000000000000e+03 6.217637252807617188e+01 -2.477476310729980469e+01 1.195123493671417236e-01 5.658679485321044922e+00 1.733457565307617188e+00 -4.935421347618103027e-01
3.183000000000000000e+03 5.063188552856445312e+01 -2.523837852478027344e+01 5.336678028106689453e-01 3.470087289810180664e+00 1.201126575469970703e+00 -5.513684358447790146e-03
3.184000000000000000e+03 6.641880798339843750e+01 2.721174812316894531e+01 1.246099844574928284e-01 5.759118080139160156e+00 1.765118360519409180e+00 -2.048509120941162109e-01
3.185000000000000000e+03 3.709206390380859375e+01 2.398511695861816406e+01 -5.222960710525512695e-01 4.349697113037109375e+00 1.148220300674438477e+00 1.515165157616138458e-02
3.186000000000000000e+03 5.073258209228515625e+01 -2.724545288085937500e+01 3.890108764171600342e-01 3.728432178497314453e+00 1.235232949256896973e+00 3.507550805807113647e-02
3.187000000000000000e+03 8.516443252563476562e+00 -4.557835102081298828e+00 4.066508412361145020e-01 6.544942855834960938e+00 2.085478067398071289e+00 2.689407110214233398e+00
3.188000000000000000e+03 6.447172641754150391e+00 4.781228065490722656e+00 4.840362071990966797e+00 4.800700664520263672e+00 2.892318964004516602e+00 -1.253693222999572754e+00
3.189000000000000000e+03 7.778827190399169922e+00 -3.623361349105834961e+00 1.454781174659729004e+00 4.728208065032958984e+00 1.854896783828735352e+00 3.044530868530273438e+00
3.190000000000000000e+03 8.995254516601562500e+00 -4.393414020538330078e+00 1.673178970813751221e-01 7.735044479370117188e+00 2.370708703994750977e+00 2.640339136123657227e+00
3.191000000000000000e+03 1.143121051788330078e+01 -4.587854385375976562e+00 -5.587086081504821777e-01 1.028070163726806641e+01 2.916598081588745117e+00 -6.792978048324584961e-01
3.192000000000000000e+03 4.104584693908691406e+00 -4.604229450225830078e+00 7.574079632759094238e-01 1.140314698219299316e+00 5.693168044090270996e-01 8.283499479293823242e-01
3.193000000000000000e+03 4.414492130279541016e+00 -3.801373481750488281e+00 8.895192742347717285e-01 8.930210471153259277e-01 5.347620844841003418e-01 6.964085102081298828e-01
3.194000000000000000e+03 6.487640380859375000e+00 4.010130882263183594e+00 3.924045085906982422e+00 4.240970611572265625e+00 2.449504613876342773e+00 -4.664399325847625732e-01
3.195000000000000000e+03 6.875013828277587891e+00 -7.873463153839111328e+00 -1.407462060451507568e-01 4.247205734252929688e+00 1.231937885284423828e+00 1.582364201545715332e+00
3.196000000000000000e+03 6.709874629974365234e+00 -9.299280166625976562e+00 -3.359385132789611816e-01 4.148101806640625000e+00 1.143648862838745117e+00 1.301325082778930664e+00
3.197000000000000000e+03 5.275596141815185547e+00 4.383891105651855469e+00 3.451710939407348633e+00 1.794107437133789062e+00 1.573745489120483398e+00 1.375084817409515381e-01
3.198000000000000000e+03 4.851891517639160156e+00 4.784262657165527344e+00 3.297126054763793945e+00 1.637092113494873047e+00 1.480265498161315918e+00 -1.389798223972320557e-01
3.199000000000000000e+03 5.362770080566406250e+00 -5.930144309997558594e+00 5.587548017501831055e-01 2.554610013961791992e+00 9.340094923973083496e-01 1.505981087684631348e+00
3.200000000000000000e+03 5.531661987304687500e+00 5.437045097351074219e+00 4.607614040374755859e+00 3.116552591323852539e+00 2.317250013351440430e+00 -1.523266553878784180e+00
3.201000000000000000e+03 6.067635059356689453e+00 4.402558326721191406e+00 4.313408851623535156e+00 3.165290355682373047e+00 2.243609905242919922e+00 -4.579727351665496826e-01
3.202000000000000000e+03 8.407287597656250000e+00 -1.075872230529785156e+01 -6.438824534416198730e-01 4.882194995880126953e+00 1.271493792533874512e+00 9.046887159347534180e-01
3.203000000000000000e+03 7.082591056823730469e+00 -8.422511100769042969e+00 -2.956446707248687744e-01 4.441541671752929688e+00 1.243769049644470215e+00 1.454058766365051270e+00
3.204000000000000000e+03 6.492381095886230469e+00 -5.890905857086181641e+00 4.890619218349456787e-01 3.648170948028564453e+00 1.241169929504394531e+00 1.916946649551391602e+00
3.205000000000000000e+03 7.440276622772216797e+00 -9.080497741699218750e+00 -4.284049570560455322e-01 4.670563697814941406e+00 1.272647619247436523e+00 1.308096647262573242e+00
3.206000000000000000e+03 1.210076332092285156e+01 -7.084859371185302734e+00 -7.659804224967956543e-01 7.642900943756103516e+00 2.063076257705688477e+00 -6.651641130447387695e-01
3.207000000000000000e+03 8.036750793457031250e+00 -8.731369972229003906e+00 -5.186948180198669434e-01 5.110097408294677734e+00 1.377420783042907715e+00 1.291668653488159180e+00
3.208000000000000000e+03 1.242775821685791016e+01 -8.271639823913574219e+00 -7.695226073265075684e-01 6.793774127960205078e+00 1.807275533676147461e+00 -7.029857635498046875e-01
3.209000000000000000e+03 8.907653808593750000e+00 -1.188051795959472656e+01 -6.981624960899353027e-01 4.898288726806640625e+00 1.260037899017333984e+00 6.689682006835937500e-01
3.210000000000000000e+03 1.197344493865966797e+01 -8.687843322753906250e+00 -8.465982079505920410e-01 6.610388755798339844e+00 1.729137182235717773e+00 -4.127650260925292969e-01
3.211000000000000000e+03 1.304618549346923828e+01 -1.439904212951660156e+01 -5.031052827835083008e-01 4.824491500854492188e+00 1.296415805816650391e+00 -1.319395005702972412e-01
3.212000000000000000e+03 1.289441299438476562e+01 -1.148904037475585938e+01 -6.354020237922668457e-01 5.457405567169189453e+00 1.446601033210754395e+00 -4.130834937095642090e-01
3.213000000000000000e+03 1.054586887359619141e+01 -1.276600360870361328e+01 -7.119312882423400879e-01 5.027900218963623047e+00 1.294790744781494141e+00 2.589318156242370605e-01
3.214000000000000000e+03 1.242092800140380859e+01 -9.827384948730468750e+00 -7.508717775344848633e-01 6.063694953918457031e+00 1.593846917152404785e+00 -4.681428074836730957e-01
3.215000000000000000e+03 9.434695243835449219e+00 -1.316822719573974609e+01 -6.469030380249023438e-01 4.747076511383056641e+00 1.230052113533020020e+00 4.844283759593963623e-01
3.216000000000000000e+03 5.285358047485351562e+01 -2.708526420593261719e+01 4.306049942970275879e-01 4.211853027343750000e+00 1.392737388610839844e+00 5.471773147583007812e-01
3.217000000000000000e+03 4.978104019165039062e+01 2.264770317077636719e+01 -9.539785981178283691e-02 5.275454998016357422e+00 1.554017186164855957e+00 -2.417836338281631470e-01
3.218000000000000000e+03 2.744801902770996094e+01 -1.935963630676269531e+01 -3.657673895359039307e-01 4.325647354125976562e+00 1.187963962554931641e+00 -5.539744496345520020e-01
3.219000000000000000e+03 6.345887374877929688e+01 -2.336536979675292969e+01 3.554748892784118652e-01 5.261556148529052734e+00 1.685109257698059082e+00 -6.644954681396484375e-01
3.220000000000000000e+03 6.519761657714843750e+01 -2.436238098144531250e+01 5.061491131782531738e-01 4.990110397338867188e+00 1.648877859115600586e+00 -3.833496570587158203e-01
3.221000000000000000e+03 2.270606231689453125e+01 -2.292491912841796875e+01 -3.402322232723236084e-01 4.288923740386962891e+00 1.184607386589050293e+00 -2.596334218978881836e-01
3.222000000000000000e+03 9.599744796752929688e+00 -1.887214088439941406e+01 -3.755700588226318359e-01 4.142943382263183594e+00 1.130211949348449707e+00 3.161238729953765869e-01
3.223000000000000000e+03 1.424172401428222656e+01 -1.677397537231445312e+01 -3.486624956130981445e-01 4.501821041107177734e+00 1.245947599411010742e+00 -1.246774718165397644e-01
3.224000000000000000e+03 6.500004577636718750e+01 1.928714561462402344e+01 2.314191684126853943e-02 5.508125782012939453e+00 1.659380316734313965e+00 -1.140973806381225586e+00
3.225000000000000000e+03 6.275206375122070312e+01 1.947244262695312500e+01 9.132379293441772461e-01 4.022254943847656250e+00 1.480647921562194824e+00 -7.177276015281677246e-01
3.226000000000000000e+03 1.536982059478759766e+01 -1.634953880310058594e+01 -2.520907521247863770e-01 4.466376781463623047e+00 1.264285802841186523e+00 -2.205906808376312256e-01
3.227000000000000000e+03 1.586594867706298828e+01 -1.964686393737792969e+01 -2.540419995784759521e-01 4.287847995758056641e+00 1.210141777992248535e+00 -6.517647206783294678e-02
3.228000000000000000e+03 1.973042869567871094e+01 -1.873099136352539062e+01 -1.307411640882492065e-01 4.382113933563232422e+00 1.275411844253540039e+00 -6.555262207984924316e-02
3.229000000000000000e+03 5.490776062011718750e+01 2.271501350402832031e+01 8.528871461749076843e-03 5.418826580047607422e+00 1.628206729888916016e+00 6.953820586204528809e-01
3.230000000000000000e+03 2.835985755920410156e+01 -1.696765518188476562e+01 -4.313346445560455322e-01 4.421023845672607422e+00 1.196906805038452148e+00 -8.006657361984252930e-01
3.231000000000000000e+03 2.712499618530273438e+01 -1.668964195251464844e+01 -6.951571702957153320e-01 4.840312004089355469e+00 1.243546366691589355e+00 -6.094810366630554199e-01
3.232000000000000000e+03 1.505040550231933594e+01 -1.502939510345458984e+01 -2.893528640270233154e-01 4.603559017181396484e+00 1.294261813163757324e+00 -3.321302831172943115e-01
3.233000000000000000e+03 6.057224273681640625e+01 -2.445121765136718750e+01 -1.413604319095611572e-01 5.834692478179931641e+00 1.707999587059020996e+00 -5.131340622901916504e-01
3.234000000000000000e+03 5.834428024291992188e+01 2.136907386779785156e+01 7.310333847999572754e-01 4.355547428131103516e+00 1.525974273681640625e+00 7.310278415679931641e-01
3.235000000000000000e+03 5.651316070556640625e+01 2.062257003784179688e+01 4.761015772819519043e-01 4.811788082122802734e+00 1.586366891860961914e+00 1.179067730903625488e+00
3.236000000000000000e+03 5.858533096313476562e+01 -2.534595680236816406e+01 -2.409573942422866821e-01 5.729498386383056641e+00 1.646562337875366211e+00 9.409669786691665649e-02
3.237000000000000000e+03 6.774939727783203125e+01 2.307925224304199219e+01 3.669761866331100464e-02 5.969983577728271484e+00 1.802004337310791016e+00 -4.062949717044830322e-01
3.238000000000000000e+03 3.098395156860351562e+01 2.127628898620605469e+01 -8.289633393287658691e-01 3.502329587936401367e+00 8.020098805427551270e-01 4.295819401741027832e-01
3.239000000000000000e+03 6.338159942626953125e+01 2.690421104431152344e+01 2.595324516296386719e-01 5.378367424011230469e+00 1.691370010375976562e+00 -1.174320802092552185e-01
3.240000000000000000e+03 6.140887832641601562e+01 2.286462211608886719e+01 5.955846309661865234e-01 4.744294166564941406e+00 1.601963758468627930e+00 -1.044835597276687622e-01
3.241000000000000000e+03 4.504349517822265625e+01 -2.590074539184570312e+01 -8.064063638448715210e-02 4.012619018554687500e+00 1.179593563079833984e+00 -3.976797163486480713e-01
3.242000000000000000e+03 1.732904624938964844e+01 2.693294906616210938e+01 -1.230421438813209534e-01 2.329651355743408203e+00 6.619827747344970703e-01 2.052062004804611206e-01
3.243000000000000000e+03 6.047770977020263672e+00 -3.721803665161132812e+00 1.415187358856201172e+00 2.015598058700561523e+00 1.029235601425170898e+00 1.704178690910339355e+00
3.244000000000000000e+03 6.398784637451171875e+00 -4.044941902160644531e+00 1.327273607254028320e+00 2.663397073745727539e+00 1.197201251983642578e+00 2.007543325424194336e+00
3.245000000000000000e+03 7.274921417236328125e+00 -7.709870815277099609e+00 -2.072381377220153809e-01 4.652259349822998047e+00 1.333506345748901367e+00 1.594140172004699707e+00
3.246000000000000000e+03 7.487103462219238281e+00 -4.527833938598632812e+00 9.183585047721862793e-01 4.612336635589599609e+00 1.659208536148071289e+00 2.572616815567016602e+00
3.247000000000000000e+03 9.569659233093261719e+00 -4.577835559844970703e+00 -2.692556679248809814e-01 8.590259552001953125e+00 2.496301174163818359e+00 2.129131078720092773e+00
3.248000000000000000e+03 4.573156833648681641e+00 -4.884228706359863281e+00 7.799410223960876465e-01 1.511830687522888184e+00 6.875315308570861816e-01 1.054738044738769531e+00
3.249000000000000000e+03 1.018119049072265625e+01 -5.003011226654052734e+00 -7.012357115745544434e-01 9.166256904602050781e+00 2.539506196975708008e+00 1.113980412483215332e+00
3.250000000000000000e+03 1.067352867126464844e+01 -5.055956840515136719e+00 -7.208800911903381348e-01 9.376543045043945312e+00 2.596698999404907227e+00 5.421836376190185547e-01
3.251000000000000000e+03 1.165702915191650391e+01 -5.369657993316650391e+00 -6.644774675369262695e-01 9.220358848571777344e+00 2.566764354705810547e+00 -7.316119670867919922e-01
3.252000000000000000e+03 7.910278797149658203e+00 -9.840960502624511719e+00 -5.753664374351501465e-01 4.819970130920410156e+00 1.273381114006042480e+00 1.081267833709716797e+00
3.253000000000000000e+03 6.940128803253173828e+00 -6.584652900695800781e+00 1.472796350717544556e-01 4.279687881469726562e+00 1.328090190887451172e+00 1.860475897789001465e+00
3.254000000000000000e+03 6.909610271453857422e+00 -7.401124000549316406e+00 -6.722751259803771973e-02 4.304491519927978516e+00 1.271179318428039551e+00 1.680596351623535156e+00
3.255000000000000000e+03 4.617849826812744141e+00 -4.126446247100830078e+00 9.421030282974243164e-01 1.230283975601196289e+00 6.517161130905151367e-01 9.532890915870666504e-01
3.256000000000000000e+03 5.954028129577636719e+00 -4.993045330047607422e+00 9.170948863029479980e-01 2.657623767852783203e+00 1.072415590286254883e+00 1.760937213897705078e+00
3.257000000000000000e+03 1.151860141754150391e+01 -5.818962574005126953e+00 -8.273292779922485352e-01 8.767197608947753906e+00 2.381960391998291016e+00 -3.724281787872314453e-01
3.258000000000000000e+03 7.739308357238769531e+00 -5.146244049072265625e+00 4.519797861576080322e-01 5.177315711975097656e+00 1.688788652420043945e+00 2.375545740127563477e+00
3.259000000000000000e+03 1.052140045166015625e+01 -7.567606449127197266e+00 -8.705393075942993164e-01 7.077105998992919922e+00 1.861970067024230957e+00 4.100024402141571045e-01
3.260000000000000000e+03 8.715433120727539062e+00 -9.377466201782226562e+00 -6.850217580795288086e-01 5.411425590515136719e+00 1.417921066284179688e+00 9.986360073089599609e-01
3.261000000000000000e+03 7.588596820831298828e+00 -8.170825958251953125e+00 -3.583821356296539307e-01 4.856698036193847656e+00 1.349494814872741699e+00 1.486934065818786621e+00
3.262000000000000000e+03 1.144364452362060547e+01 -7.397041320800781250e+00 -8.934749364852905273e-01 7.455461025238037109e+00 1.968595862388610840e+00 -1.418540924787521362e-01
3.263000000000000000e+03 1.147637557983398438e+01 -6.373545646667480469e+00 -8.206943869590759277e-01 8.188182830810546875e+00 2.210246562957763672e+00 -2.998194992542266846e-01
3.264000000000000000e+03 1.130489253997802734e+01 -9.030213356018066406e+00 -8.662123084068298340e-01 6.396291732788085938e+00 1.659023880958557129e+00 -3.887773677706718445e-02
3.265000000000000000e+03 1.249961280822753906e+01 -9.096037864685058594e+00 -7.955942749977111816e-01 6.362158298492431641e+00 1.669969201087951660e+00 -5.700507164001464844e-01
3.266000000000000000e+03 9.958743095397949219e+00 -1.555927658081054688e+01 -5.180653929710388184e-01 4.439987659454345703e+00 1.176576733589172363e+00 3.490743935108184814e-01
3.267000000000000000e+03 1.243060398101806641e+01 -1.346613788604736328e+01 -6.051001548767089844e-01 5.000853061676025391e+00 1.318725824356079102e+00 -1.087743267416954041e-01
3.268000000000000000e+03 5.298682022094726562e+01 -2.097060966491699219e+01 6.803264021873474121e-01 2.023785591125488281e+00 8.112336397171020508e-01 9.625083804130554199e-01
3.269000000000000000e+03 9.682868003845214844e+00 -1.443203258514404297e+01 -6.050146222114562988e-01 4.610310077667236328e+00 1.201588630676269531e+00 4.022240936756134033e-01
3.270000000000000000e+03 1.158421421051025391e+01 -1.587743949890136719e+01 -5.088801383972167969e-01 4.615743160247802734e+00 1.232058882713317871e+00 1.205494999885559082e-01
3.271000000000000000e+03 1.433985233306884766e+01 -1.929563140869140625e+01 -3.169927895069122314e-01 4.366022586822509766e+00 1.214708924293518066e+00 1.239367388188838959e-02
3.272000000000000000e+03 2.522105979919433594e+01 -1.859026145935058594e+01 -3.606309890747070312e-01 4.623962402343750000e+00 1.278999328613281250e+00 -2.594115734100341797e-01
3.273000000000000000e+03 9.871754646301269531e+00 -1.151754093170166016e+01 -7.491361498832702637e-01 5.224595546722412109e+00 1.342637777328491211e+00 4.766359329223632812e-01
3.274000000000000000e+03 6.275907516479492188e+01 1.791317367553710938e+01 6.373474597930908203e-01 3.744959831237792969e+00 1.314692139625549316e+00 -1.456659078598022461e+00
3.275000000000000000e+03 6.583040618896484375e+01 2.121626853942871094e+01 8.600972592830657959e-02 5.716630458831787109e+00 1.740792036056518555e+00 -6.983597278594970703e-01
3.276000000000000000e+03 1.626306915283203125e+01 -1.471858024597167969e+01 -1.093975827097892761e-01 4.445543766021728516e+00 1.300843834877014160e+00 -4.446591138839721680e-01
3.277000000000000000e+03 1.335917568206787109e+01 -1.588591861724853516e+01 -4.057480096817016602e-01 4.620874404907226562e+00 1.264537930488586426e+00 -9.506243467330932617e-02
3.278000000000000000e+03 1.583599567413330078e+01 -1.789219284057617188e+01 -2.460999637842178345e-01 4.400208473205566406e+00 1.246232509613037109e+00 -1.225217729806900024e-01
3.279000000000000000e+03 1.476701259613037109e+01 -2.325177764892578125e+01 -2.806847989559173584e-01 4.178721427917480469e+00 1.169410943984985352e+00 3.562762588262557983e-02
3.280000000000000000e+03 2.230637168884277344e+01 -2.024080467224121094e+01 -3.200627565383911133e-01 4.486109733581542969e+00 1.249814033508300781e+00 -1.337207704782485962e-01
3.281000000000000000e+03 1.065336799621582031e+01 -1.678133964538574219e+01 -4.818029105663299561e-01 4.397525787353515625e+00 1.174716830253601074e+00 2.565599977970123291e-01
3.282000000000000000e+03 1.102146625518798828e+01 -1.931126022338867188e+01 -3.738991320133209229e-01 4.214282989501953125e+00 1.152115225791931152e+00 2.137606739997863770e-01
3.283000000000000000e+03 2.145183753967285156e+01 -1.833446502685546875e+01 -1.339632272720336914e-01 4.332438945770263672e+00 1.259542703628540039e+00 -5.532862246036529541e-02
3.284000000000000000e+03 6.665402221679687500e+01 -2.387293624877929688e+01 6.964395642280578613e-01 4.767848491668701172e+00 1.639286518096923828e+00 -1.195174977183341980e-01
3.285000000000000000e+03 2.682188034057617188e+01 2.684980773925781250e+01 -4.552427828311920166e-01 3.053377866744995117e+00 7.794405221939086914e-01 -6.091286540031433105e-01
3.286000000000000000e+03 6.371433258056640625e+01 -2.472493934631347656e+01 3.582468330860137939e-01 5.210610866546630859e+00 1.670657396316528320e+00 -5.594117045402526855e-01
3.287000000000000000e+03 5.790253067016601562e+01 2.491263771057128906e+01 3.495892286300659180e-01 4.973195075988769531e+00 1.596835374832153320e+00 3.462497591972351074e-01
3.288000000000000000e+03 1.350768852233886719e+01 -1.758543395996093750e+01 -3.873123228549957275e-01 4.473085403442382812e+00 1.225731968879699707e+00 4.920890554785728455e-03
3.289000000000000000e+03 2.641352844238281250e+01 -2.189953613281250000e+01 -2.491096556186676025e-01 4.174098014831542969e+00 1.177496552467346191e+00 -4.756615459918975830e-01
3.290000000000000000e+03 2.821705245971679688e+01 2.228309822082519531e+01 -1.552277922630310059e+00 3.833125829696655273e+00 6.842543482780456543e-01 -5.353654175996780396e-02
3.291000000000000000e+03 3.353808212280273438e+01 2.889493560791015625e+01 -2.506515979766845703e-01 3.606768131256103516e+00 1.006834983825683594e+00 -1.973825842142105103e-01
3.292000000000000000e+03 5.725485992431640625e+01 -2.877340698242187500e+01 -8.322393521666526794e-03 5.132373332977294922e+00 1.537215232849121094e+00 2.534117400646209717e-01
3.293000000000000000e+03 5.706584167480468750e+01 2.195973014831542969e+01 4.308446943759918213e-01 4.875695705413818359e+00 1.591962099075317383e+00 8.332677483558654785e-01
3.294000000000000000e+03 5.995220184326171875e+01 2.283584022521972656e+01 6.764434576034545898e-01 4.561439990997314453e+00 1.571364998817443848e+00 2.098693549633026123e-01
3.295000000000000000e+03 3.200423049926757812e+01 2.494499206542968750e+01 -5.518978834152221680e-01 3.545861959457397461e+00 8.981891870498657227e-01 -1.287267804145812988e-01
3.296000000000000000e+03 7.058454895019531250e+01 -3.636989974975585938e+01 1.149095371365547180e-01 5.923777580261230469e+00 1.811606168746948242e+00 6.675616651773452759e-02
3.297000000000000000e+03 7.064226531982421875e+01 -3.854811096191406250e+01 1.043669581413269043e-01 6.008938789367675781e+00 1.833991646766662598e+00 5.597215145826339722e-02
3.298000000000000000e+03 7.045407772064208984e+00 -4.409859180450439453e+00 1.124273300170898438e+00 3.682067632675170898e+00 1.441902279853820801e+00 2.378719806671142578e+00
3.299000000000000000e+03 6.756831169128417969e+00 -6.172929763793945312e+00 3.312853574752807617e-01 4.011528491973876953e+00 1.302844166755676270e+00 1.918274760246276855e+00
3.300000000000000000e+03 8.034595489501953125e+00 -4.199396133422851562e+00 8.868381381034851074e-01 5.610362052917480469e+00 1.949159979820251465e+00 2.904139041900634766e+00
3.301000000000000000e+03 6.600598812103271484e+00 -4.857645988464355469e+00 9.307587146759033203e-01 3.403686761856079102e+00 1.300333619117736816e+00 2.130995750427246094e+00
3.302000000000000000e+03 5.885651588439941406e+00 -6.133525371551513672e+00 4.688487350940704346e-01 3.131534576416015625e+00 1.080115079879760742e+00 1.695734381675720215e+00
3.303000000000000000e+03 6.616661071777343750e+00 -4.431735038757324219e+00 1.172564625740051270e+00 3.177834272384643555e+00 1.305119633674621582e+00 2.169352531433105469e+00
3.304000000000000000e+03 6.357384681701660156e+00 -6.253729820251464844e+00 3.819946646690368652e-01 3.600453376770019531e+00 1.194734454154968262e+00 1.817527055740356445e+00
3.305000000000000000e+03 6.283125877380371094e+00 -4.655836582183837891e+00 1.067826390266418457e+00 2.812165737152099609e+00 1.163997650146484375e+00 1.936701297760009766e+00
3.306000000000000000e+03 9.816293716430664062e+00 -4.938894748687744141e+00 -5.408031940460205078e-01 8.751399040222167969e+00 2.463178634643554688e+00 1.612010717391967773e+00
3.307000000000000000e+03 1.018553829193115234e+01 -5.984513282775878906e+00 -7.739729881286621094e-01 8.068447113037109375e+00 2.188342332839965820e+00 9.039800763130187988e-01
3.308000000000000000e+03 5.093957901000976562e+00 -5.158199310302734375e+00 7.776484489440917969e-01 2.020846366882324219e+00 8.395484089851379395e-01 1.349649190902709961e+00
3.309000000000000000e+03 5.617739200592041016e+00 -5.420135498046875000e+00 7.495471835136413574e-01 2.581618547439575195e+00 9.993496537208557129e-01 1.619947195053100586e+00
3.310000000000000000e+03 8.402100563049316406e+00 -4.230035305023193359e+00 6.512007117271423340e-01 6.357978343963623047e+00 2.102753639221191406e+00 2.915756702423095703e+00
3.311000000000000000e+03 5.651354789733886719e+00 4.754795074462890625e+00 4.077127456665039062e+00 2.904474258422851562e+00 2.094480514526367188e+00 -6.656394004821777344e-01
3.312000000000000000e+03 9.136398315429687500e+00 -7.972120761871337891e+00 -7.108300328254699707e-01 6.186624050140380859e+00 1.642738223075866699e+00 1.112067580223083496e+00
3.313000000000000000e+03 1.103495788574218750e+01 -6.288582324981689453e+00 -9.111508727073669434e-01 8.215722084045410156e+00 2.191371202468872070e+00 1.783651262521743774e-01
3.314000000000000000e+03 1.108403396606445312e+01 -5.737894535064697266e+00 -7.813214063644409180e-01 8.701401710510253906e+00 2.376024246215820312e+00 8.489003032445907593e-02
3.315000000000000000e+03 9.878054618835449219e+00 -5.553901195526123047e+00 -6.331389546394348145e-01 8.246454238891601562e+00 2.283994674682617188e+00 1.268717646598815918e+00
3.316000000000000000e+03 1.170460224151611328e+01 -8.041967391967773438e+00 -8.497703075408935547e-01 6.956409931182861328e+00 1.831991910934448242e+00 -2.817905247211456299e-01
3.317000000000000000e+03 8.443688392639160156e+00 -8.271117210388183594e+00 -5.483617186546325684e-01 5.438870429992675781e+00 1.467152714729309082e+00 1.298782348632812500e+00
3.318000000000000000e+03 1.067483234405517578e+01 -8.346502304077148438e+00 -8.746526837348937988e-01 6.673843860626220703e+00 1.739757418632507324e+00 3.355183005332946777e-01
3.319000000000000000e+03 1.142049026489257812e+01 -1.399312400817871094e+01 -6.102754473686218262e-01 4.882638931274414062e+00 1.281708955764770508e+00 1.122277677059173584e-01
3.320000000000000000e+03 2.114262390136718750e+01 -2.194229125976562500e+01 -2.517297565937042236e-01 4.320094108581542969e+00 1.220509290695190430e+00 -1.299327760934829712e-01
3.321000000000000000e+03 1.169262790679931641e+01 -1.791572189331054688e+01 -4.202573895454406738e-01 4.381638526916503906e+00 1.188414454460144043e+00 1.708258539438247681e-01
3.322000000000000000e+03 1.937376213073730469e+01 -2.083436012268066406e+01 -2.632839083671569824e-01 4.306347370147705078e+00 1.212919116020202637e+00 -1.101042181253433228e-01
3.323000000000000000e+03 1.809298515319824219e+01 -1.843976593017578125e+01 -1.630755066871643066e-01 4.283071994781494141e+00 1.235998988151550293e+00 -1.344279944896697998e-01
3.324000000000000000e+03 6.455206298828125000e+01 2.045759010314941406e+01 5.422014594078063965e-01 5.082000255584716797e+00 1.687260508537292480e+00 -8.826889991760253906e-01
3.325000000000000000e+03 6.282234954833984375e+01 2.244678878784179688e+01 6.143119931221008301e-01 4.774709701538085938e+00 1.616706609725952148e+00 -3.221399486064910889e-01
3.326000000000000000e+03 5.659671020507812500e+01 2.747472000122070312e+01 1.451252102851867676e-01 5.143231391906738281e+00 1.586506962776184082e+00 2.284589111804962158e-01
3.327000000000000000e+03 1.049296092987060547e+01 -2.086025047302246094e+01 -3.073383569717407227e-01 4.096259117126464844e+00 1.136676192283630371e+00 2.472447752952575684e-01
3.328000000000000000e+03 5.631230163574218750e+01 2.319762420654296875e+01 2.631709873676300049e-01 5.081330776214599609e+00 1.603350639343261719e+00 6.505683660507202148e-01
3.329000000000000000e+03 5.121007919311523438e+01 2.557809066772460938e+01 -3.956622257828712463e-02 5.122683525085449219e+00 1.524935126304626465e+00 3.276687487959861755e-02
3.330000000000000000e+03 2.352708625793457031e+01 2.731422424316406250e+01 -1.991792917251586914e-01 2.478932380676269531e+00 6.839259266853332520e-01 -6.160350441932678223e-01
3.331000000000000000e+03 2.717088699340820312e+01 2.290760040283203125e+01 -1.481947779655456543e+00 3.581525087356567383e+00 6.298731565475463867e-01 -4.143490791320800781e-01
3.332000000000000000e+03 4.121887969970703125e+01 2.227982139587402344e+01 -1.156044527888298035e-01 4.203181266784667969e+00 1.226273059844970703e+00 5.421376228332519531e-01
3.333000000000000000e+03 3.909020614624023438e+01 2.480356407165527344e+01 -2.673451304435729980e-01 4.195950031280517578e+00 1.178581476211547852e+00 1.302201449871063232e-01
3.334000000000000000e+03 8.818457603454589844e+00 -4.801772117614746094e+00 3.140171617269515991e-02 7.167525768280029297e+00 2.159678220748901367e+00 2.419881582260131836e+00
3.335000000000000000e+03 9.391176223754882812e+00 -5.935300827026367188e+00 -5.363705158233642578e-01 7.327945232391357422e+00 2.037472486495971680e+00 1.585432291030883789e+00
3.336000000000000000e+03 9.204840660095214844e+00 -6.754855632781982422e+00 -5.893644690513610840e-01 6.678359985351562500e+00 1.826698660850524902e+00 1.403246998786926270e+00
3.337000000000000000e+03 9.291991233825683594e+00 -4.498144149780273438e+00 -1.114958524703979492e-01 8.227406501770019531e+00 2.434773206710815430e+00 2.382254600524902344e+00
3.338000000000000000e+03 7.246173381805419922e+00 -7.004439830780029297e+00 -2.750328369438648224e-02 4.572354793548583984e+00 1.363455533981323242e+00 1.748903274536132812e+00
3.339000000000000000e+03 6.088223457336425781e+00 -5.677187442779541016e+00 6.253615617752075195e-01 3.168764829635620117e+00 1.138237953186035156e+00 1.814160108566284180e+00
3.340000000000000000e+03 6.376054286956787109e+00 -5.266950607299804688e+00 7.704106569290161133e-01 3.317276716232299805e+00 1.226306200027465820e+00 1.979578852653503418e+00
3.341000000000000000e+03 7.629166126251220703e+00 -7.397087097167968750e+00 -2.415887862443923950e-01 4.965390682220458984e+00 1.417140603065490723e+00 1.651765942573547363e+00
3.342000000000000000e+03 8.270135879516601562e+00 -4.847640991210937500e+00 3.987089395523071289e-01 6.090893745422363281e+00 1.946880817413330078e+00 2.551183700561523438e+00
3.343000000000000000e+03 1.006186199188232422e+01 -7.619609355926513672e+00 -8.235169649124145508e-01 6.797597408294677734e+00 1.792224049568176270e+00 6.684731245040893555e-01
3.344000000000000000e+03 1.062251853942871094e+01 -5.710629940032958984e+00 -8.737468719482421875e-01 8.721401214599609375e+00 2.354296445846557617e+00 5.489175915718078613e-01
3.345000000000000000e+03 7.991537570953369141e+00 -7.824123382568359375e+00 -3.947024345397949219e-01 5.234216213226318359e+00 1.451854109764099121e+00 1.476007699966430664e+00
3.346000000000000000e+03 1.094612216949462891e+01 -7.828180313110351562e+00 -9.131413102149963379e-01 7.093909263610839844e+00 1.854230403900146484e+00 2.233264744281768799e-01
3.347000000000000000e+03 1.053982734680175781e+01 -6.922457218170166016e+00 -8.732864260673522949e-01 7.522521972656250000e+00 1.994770646095275879e+00 4.580739140510559082e-01
3.348000000000000000e+03 1.056551074981689453e+01 -6.280081272125244141e+00 -8.105355501174926758e-01 7.980839729309082031e+00 2.151091098785400391e+00 5.139650106430053711e-01
3.349000000000000000e+03 9.116152763366699219e+00 -8.667485237121582031e+00 -7.163107395172119141e-01 5.822319030761718750e+00 1.531802415847778320e+00 9.647781252861022949e-01
3.350000000000000000e+03 9.808609962463378906e+00 -8.561794281005859375e+00 -8.191163539886474609e-01 6.171858787536621094e+00 1.605822801589965820e+00 6.953533291816711426e-01
3.351000000000000000e+03 1.026675605773925781e+01 -8.071847915649414062e+00 -8.579921722412109375e-01 6.646467208862304688e+00 1.736542463302612305e+00 4.968810379505157471e-01
3.352000000000000000e+03 1.253439807891845703e+01 -1.682029342651367188e+01 -4.410397410392761230e-01 4.493310451507568359e+00 1.215681195259094238e+00 4.803840816020965576e-02
3.353000000000000000e+03 1.454913425445556641e+01 -1.793752288818359375e+01 -3.041028380393981934e-01 4.380158424377441406e+00 1.222816586494445801e+00 -6.892283260822296143e-02
3.354000000000000000e+03 1.388197517395019531e+01 -2.080809020996093750e+01 -3.057332634925842285e-01 4.241402626037597656e+00 1.180700778961181641e+00 4.573363438248634338e-02
3.355000000000000000e+03 6.380363845825195312e+01 2.157180786132812500e+01 4.014143347740173340e-01 5.033670902252197266e+00 1.630525588989257812e+00 -6.099008917808532715e-01
3.356000000000000000e+03 1.168276500701904297e+01 -1.085905647277832031e+01 -7.770721912384033203e-01 5.705232143402099609e+00 1.478448033332824707e+00 -1.035853549838066101e-01
3.357000000000000000e+03 6.609233093261718750e+01 -2.756796073913574219e+01 3.548303544521331787e-01 5.331790924072265625e+00 1.705986380577087402e+00 -9.531681239604949951e-02
3.358000000000000000e+03 1.108203792572021484e+01 -2.318655776977539062e+01 -2.441131025552749634e-01 4.035729408264160156e+00 1.137484908103942871e+00 1.910762935876846313e-01
3.359000000000000000e+03 6.993863105773925781e+00 -4.886570930480957031e+00 8.368664383888244629e-01 3.908899068832397461e+00 1.423729658126831055e+00 2.240822076797485352e+00
3.360000000000000000e+03 7.704953193664550781e+00 -6.664348125457763672e+00 -7.912015169858932495e-02 5.118730545043945312e+00 1.511883139610290527e+00 1.870416164398193359e+00
3.361000000000000000e+03 6.784417629241943359e+00 -5.553405761718750000e+00 5.766931176185607910e-01 3.890803098678588867e+00 1.340248942375183105e+00 2.053608417510986328e+00
3.362000000000000000e+03 7.901188850402832031e+00 -4.672955989837646484e+00 6.690970063209533691e-01 5.433944225311279297e+00 1.830912470817565918e+00 2.652114629745483398e+00
3.363000000000000000e+03 7.362226009368896484e+00 -4.951678276062011719e+00 7.207928895950317383e-01 4.487150192260742188e+00 1.562382817268371582e+00 2.391322374343872070e+00
3.364000000000000000e+03 8.139210700988769531e+00 -6.327361106872558594e+00 -1.323531568050384521e-01 5.692664146423339844e+00 1.668093323707580566e+00 1.878355979919433594e+00
3.365000000000000000e+03 8.754571914672851562e+00 -7.088084220886230469e+00 -5.089313387870788574e-01 6.151008605957031250e+00 1.692623138427734375e+00 1.448998093605041504e+00
3.366000000000000000e+03 7.409205913543701172e+00 -6.275826930999755859e+00 1.344919055700302124e-01 4.778495788574218750e+00 1.473896265029907227e+00 1.948265075683593750e+00
3.367000000000000000e+03 7.119790077209472656e+00 -5.901917934417724609e+00 3.308052122592926025e-01 4.415355205535888672e+00 1.423848152160644531e+00 2.028112888336181641e+00
3.368000000000000000e+03 9.950731277465820312e+00 -7.015783309936523438e+00 -7.796538472175598145e-01 7.124515533447265625e+00 1.903458476066589355e+00 9.043158888816833496e-01
3.369000000000000000e+03 8.453837394714355469e+00 -6.697638034820556641e+00 -3.395980298519134521e-01 5.919473171234130859e+00 1.673962593078613281e+00 1.705410838127136230e+00
3.370000000000000000e+03 9.711624145507812500e+00 -6.422459125518798828e+00 -6.953294277191162109e-01 7.343750000000000000e+00 1.994526147842407227e+00 1.157068252563476562e+00
3.371000000000000000e+03 8.902128219604492188e+00 -6.305618762969970703e+00 -4.147614538669586182e-01 6.608669757843017578e+00 1.858172535896301270e+00 1.638218283653259277e+00
3.372000000000000000e+03 8.357906341552734375e+00 -7.447241306304931641e+00 -4.302161931991577148e-01 5.597457885742187500e+00 1.550172448158264160e+00 1.503188729286193848e+00
3.373000000000000000e+03 8.712335586547851562e+00 -7.810392379760742188e+00 -5.644295215606689453e-01 5.844680786132812500e+00 1.584075331687927246e+00 1.259639382362365723e+00
3.374000000000000000e+03 1.041777133941650391e+01 -9.042063713073730469e+00 -8.759913444519042969e-01 6.208568096160888672e+00 1.599773049354553223e+00 4.428743422031402588e-01
3.375000000000000000e+03 1.297931098937988281e+01 -1.872809410095214844e+01 -3.643565177917480469e-01 4.334520816802978516e+00 1.191049218177795410e+00 6.030986830592155457e-02
3.376000000000000000e+03 1.243202304840087891e+01 -2.009910011291503906e+01 -3.404293954372406006e-01 4.269831180572509766e+00 1.178820490837097168e+00 1.370351910591125488e-01
3.377000000000000000e+03 1.540499496459960938e+01 -2.144064712524414062e+01 -2.654650509357452393e-01 4.274329185485839844e+00 1.202659249305725098e+00 3.044352121651172638e-02
3.378000000000000000e+03 1.707661628723144531e+01 -1.745403480529785156e+01 -1.383431404829025269e-01 4.327072143554687500e+00 1.256618618965148926e+00 -1.494804322719573975e-01
3.379000000000000000e+03 6.121212387084960938e+01 2.091760635375976562e+01 9.778107404708862305e-01 4.028196811676025391e+00 1.501802325248718262e+00 -1.143246442079544067e-01
3.380000000000000000e+03 6.209962463378906250e+01 -2.629071998596191406e+01 1.039318889379501343e-01 5.482150554656982422e+00 1.675824761390686035e+00 -3.604486286640167236e-01
3.381000000000000000e+03 8.424678802490234375e+00 -4.046735000610351562e+01 -2.845044992864131927e-02 3.796232700347900391e+00 1.130334615707397461e+00 1.269353460520505905e-02
3.382000000000000000e+03 9.446382522583007812e+00 -7.263536453247070312e+00 -7.034797072410583496e-01 6.646145820617675781e+00 1.782799720764160156e+00 1.139853596687316895e+00
3.383000000000000000e+03 8.026869773864746094e+00 -7.053833961486816406e+00 -2.756954431533813477e-01 5.400706768035888672e+00 1.537503480911254883e+00 1.655309200286865234e+00
3.384000000000000000e+03 9.021705627441406250e+00 -7.493762016296386719e+00 -6.250470876693725586e-01 6.226453304290771484e+00 1.680421829223632812e+00 1.293624877929687500e+00
3.385000000000000000e+03 1.756080055236816406e+01 -2.015141868591308594e+01 -2.092828005552291870e-01 4.335309982299804688e+00 1.237808108329772949e+00 -4.443081840872764587e-02
3.386000000000000000e+03 2.380438041687011719e+01 -1.924962425231933594e+01 -3.794147670269012451e-01 4.474888801574707031e+00 1.228642225265502930e+00 -2.690518498420715332e-01
3.387000000000000000e+03 1.553889179229736328e+01 -2.605799674987792969e+01 -2.404976636171340942e-01 4.108097553253173828e+00 1.160279989242553711e+00 1.145664881914854050e-02
3.388000000000000000e+03 7.123058795928955078e+00 -5.261977195739746094e+00 6.216003298759460449e-01 4.224273204803466797e+00 1.453762054443359375e+00 2.214830160140991211e+00
3.389000000000000000e+03 7.830264568328857422e+00 -5.933863162994384766e+00 1.114560589194297791e-01 5.325002193450927734e+00 1.630937457084655762e+00 2.105126142501831055e+00
3.390000000000000000e+03 1.790024185180664062e+01 -2.477590370178222656e+01 -2.597694396972656250e-01 4.177596569061279297e+00 1.175348162651062012e+00 -6.034306809306144714e-02
3.391000000000000000e+03 1.631544113159179688e+01 -2.403454208374023438e+01 -2.465117722749710083e-01 4.194740772247314453e+00 1.184468746185302734e+00 6.349572446197271347e-03
3.392000000000000000e+03 1.698985862731933594e+01 -2.209148025512695312e+01 -2.813073396682739258e-01 4.252982616424560547e+00 1.191502571105957031e+00 -4.546188935637474060e-02
3.393000000000000000e+03 6.728141784667968750e+01 2.144251823425292969e+01 7.643666863441467285e-02 6.103739261627197266e+00 1.854052782058715820e+00 -5.813168287277221680e-01
3.394000000000000000e+03 6.632601165771484375e+01 2.417955017089843750e+01 1.494883596897125244e-01 5.761441230773925781e+00 1.773278832435607910e+00 -3.941725492477416992e-01
3.395000000000000000e+03 2.603181648254394531e+01 -2.020359611511230469e+01 -4.605407118797302246e-01 4.335555076599121094e+00 1.162504315376281738e+00 -4.996450841426849365e-01
3.396000000000000000e+03 4.802857971191406250e+01 -2.932046890258789062e+01 2.821837365627288818e-01 3.896315097808837891e+00 1.253549695014953613e+00 -1.496827900409698486e-01
3.397000000000000000e+03 5.514256286621093750e+01 -2.871037864685058594e+01 1.920762360095977783e-01 4.748751640319824219e+00 1.482248425483703613e+00 3.833078444004058838e-01
3.398000000000000000e+03 5.731789398193359375e+01 -3.059045791625976562e+01 1.330036967992782593e-01 4.972018718719482422e+00 1.531506776809692383e+00 1.438337415456771851e-01
3.399000000000000000e+03 6.004279327392578125e+01 -2.729374885559082031e+01 -6.190888211131095886e-02 5.492938518524169922e+00 1.629308938980102539e+00 -4.866160452365875244e-02
3.400000000000000000e+03 6.915008544921875000e+01 2.237272834777832031e+01 -8.469501510262489319e-03 6.378657341003417969e+00 1.911056399345397949e+00 -3.122872412204742432e-01
3.401000000000000000e+03 1.859867095947265625e+01 -2.281068992614746094e+01 -2.430145144462585449e-01 4.270380973815917969e+00 1.208209991455078125e+00 -7.155813276767730713e-02
3.402000000000000000e+03 2.297655677795410156e+01 -2.507118797302246094e+01 -2.262397408485412598e-01 4.205303668975830078e+00 1.193719148635864258e+00 -2.334231585264205933e-01
3.403000000000000000e+03 7.484305858612060547e+00 -5.567406177520751953e+00 3.598394989967346191e-01 4.814303874969482422e+00 1.552242994308471680e+00 2.178749799728393555e+00
3.404000000000000000e+03 8.251058578491210938e+00 -5.655867099761962891e+00 5.500954389572143555e-02 5.870098590850830078e+00 1.777532458305358887e+00 2.163100242614746094e+00
3.405000000000000000e+03 6.738742828369140625e+01 1.978984260559082031e+01 -1.964072883129119873e-01 6.444584369659423828e+00 1.874453186988830566e+00 -6.516848802566528320e-01
3.406000000000000000e+03 6.492544555664062500e+01 2.558736228942871094e+01 2.820226848125457764e-01 5.436770439147949219e+00 1.715637922286987305e+00 -2.730568349361419678e-01
3.407000000000000000e+03 1.454653739929199219e+01 -2.819095802307128906e+01 -1.842042952775955200e-01 4.023328781127929688e+00 1.151737332344055176e+00 4.412196949124336243e-02
3.408000000000000000e+03 1.172569274902343750e+01 -2.882058143615722656e+01 -1.480283886194229126e-01 3.926394462585449219e+00 1.133509755134582520e+00 9.384506195783615112e-02
3.409000000000000000e+03 5.155507659912109375e+01 -3.226074600219726562e+01 2.709995210170745850e-01 4.314665794372558594e+00 1.375699639320373535e+00 1.053290739655494690e-01
3.410000000000000000e+03 5.335585403442382812e+01 -2.912202835083007812e+01 2.257099747657775879e-01 4.347505092620849609e+00 1.371964454650878906e+00 2.334858626127243042e-01
3.411000000000000000e+03 4.860198593139648438e+01 2.586007690429687500e+01 3.237665817141532898e-02 4.771249771118164062e+00 1.441087961196899414e+00 -2.821569889783859253e-02
3.412000000000000000e+03 5.130935668945312500e+01 2.243504905700683594e+01 -1.504555791616439819e-01 5.461611747741699219e+00 1.593346834182739258e+00 -1.901368983089923859e-02
3.413000000000000000e+03 6.305583190917968750e+01 -3.185683441162109375e+01 1.872083544731140137e-01 5.447349071502685547e+00 1.690367221832275391e+00 -4.479691851884126663e-03
3.414000000000000000e+03 1.634159278869628906e+01 2.887959480285644531e+01 5.540090799331665039e-02 2.617721319198608398e+00 8.019366264343261719e-01 2.251868993043899536e-01
3.415000000000000000e+03 6.042082977294921875e+01 2.591926383972167969e+01 3.627852499485015869e-01 5.058368682861328125e+00 1.626346230506896973e+00 9.413818269968032837e-02
3.416000000000000000e+03 5.428519439697265625e+01 2.759437370300292969e+01 4.226492345333099365e-02 5.089811325073242188e+00 1.539622783660888672e+00 2.039932608604431152e-01
3.417000000000000000e+03 5.437340927124023438e+01 2.494565010070800781e+01 1.155842933803796768e-02 5.274077892303466797e+00 1.585690975189208984e+00 3.067022264003753662e-01
3.418000000000000000e+03 2.175807571411132812e+01 2.890707588195800781e+01 7.865765132009983063e-03 2.284846782684326172e+00 6.878137588500976562e-01 -2.438986748456954956e-01
3.419000000000000000e+03 3.737254333496093750e+01 -2.492224502563476562e+01 5.283619463443756104e-02 3.663561582565307617e+00 1.114919304847717285e+00 2.466902881860733032e-02
3.420000000000000000e+03 8.972878456115722656e+00 3.809479904174804688e+01 2.616814672946929932e-01 4.193101406097412109e+00 1.336434841156005859e+00 1.782943606376647949e-01
3.421000000000000000e+03 2.980182266235351562e+01 2.346357727050781250e+01 -9.965571761131286621e-01 3.565626859664916992e+00 7.707208991050720215e-01 -1.622098870575428009e-02
3.422000000000000000e+03 2.900809860229492188e+01 2.773273468017578125e+01 -4.557366371154785156e-01 3.228690862655639648e+00 8.318862915039062500e-01 -3.453277349472045898e-01
3.423000000000000000e+03 8.546030998229980469e+00 -5.974336624145507812e+00 -2.191932350397109985e-01 6.343183517456054688e+00 1.837197065353393555e+00 1.961373090744018555e+00
3.424000000000000000e+03 1.984616088867187500e+01 2.991678428649902344e+01 2.113604843616485596e-01 2.364458322525024414e+00 7.727456092834472656e-01 -1.331954896450042725e-01
3.425000000000000000e+03 1.472440052032470703e+01 2.791219139099121094e+01 -5.211252719163894653e-02 2.907678365707397461e+00 8.566697835922241211e-01 3.662236630916595459e-01
3.426000000000000000e+03 6.212676620483398438e+01 2.490263175964355469e+01 4.718639552593231201e-01 4.989946365356445312e+00 1.638543009757995605e+00 -8.468335121870040894e-02
3.427000000000000000e+03 6.370327758789062500e+01 2.395913124084472656e+01 3.827953040599822998e-01 5.207381248474121094e+00 1.677052855491638184e+00 -3.179583549499511719e-01
3.428000000000000000e+03 1.911682510375976562e+01 -2.764154243469238281e+01 -2.108652442693710327e-01 4.092921733856201172e+00 1.164616942405700684e+00 -9.584262967109680176e-02
3.429000000000000000e+03 5.862222290039062500e+01 2.691181564331054688e+01 2.860092222690582275e-01 5.041052341461181641e+00 1.598118424415588379e+00 2.030471265316009521e-01
3.430000000000000000e+03 5.623703765869140625e+01 2.515336227416992188e+01 1.829528659582138062e-01 5.081691265106201172e+00 1.579393267631530762e+00 4.353498816490173340e-01
3.431000000000000000e+03 2.605323028564453125e+01 -2.640275192260742188e+01 -1.415494233369827271e-01 4.037933826446533203e+00 1.168915390968322754e+00 -3.249599039554595947e-01
3.432000000000000000e+03 2.515669822692871094e+01 -2.217607116699218750e+01 -3.253709971904754639e-01 4.217341899871826172e+00 1.167591333389282227e+00 -4.390659034252166748e-01
3.433000000000000000e+03 2.908941650390625000e+01 -2.511992263793945312e+01 -9.300349652767181396e-02 3.840908288955688477e+00 1.124371528625488281e+00 -4.467136859893798828e-01
3.434000000000000000e+03 2.019758605957031250e+01 -2.374086380004882812e+01 -2.736025750637054443e-01 4.252698898315429688e+00 1.193728923797607422e+00 -1.338759511709213257e-01
3.435000000000000000e+03 1.721847343444824219e+01 -2.693024063110351562e+01 -2.157333195209503174e-01 4.116826534271240234e+00 1.170328021049499512e+00 -2.513720653951168060e-02
3.436000000000000000e+03 2.390143585205078125e+01 -2.772664260864257812e+01 -1.827583312988281250e-01 4.026599884033203125e+00 1.153152585029602051e+00 -2.616357207298278809e-01
3.437000000000000000e+03 9.062604904174804688e+00 -3.676671218872070312e+01 -4.845035448670387268e-02 3.805545568466186523e+00 1.127128601074218750e+00 3.117342106997966766e-02
3.438000000000000000e+03 2.849131584167480469e+01 -2.771009635925292969e+01 -1.979673095047473907e-02 3.851577281951904297e+00 1.149534106254577637e+00 -3.391009867191314697e-01
3.439000000000000000e+03 1.116939640045166016e+01 -3.244248199462890625e+01 -9.773656725883483887e-02 3.863954067230224609e+00 1.129865169525146484e+00 5.768157541751861572e-02
3.440000000000000000e+03 6.678849792480468750e+01 -3.220410537719726562e+01 2.582355439662933350e-01 5.610611438751220703e+00 1.760653972625732422e+00 7.046797126531600952e-02
3.441000000000000000e+03 6.784795379638671875e+01 -3.557704162597656250e+01 1.949594616889953613e-01 5.739271163940429688e+00 1.780269145965576172e+00 9.282036870718002319e-02
3.442000000000000000e+03 1.212910842895507812e+01 3.110251045227050781e+01 1.524868905544281006e-01 3.542570352554321289e+00 1.108517169952392578e+00 3.937060832977294922e-01
3.443000000000000000e+03 1.137658405303955078e+01 3.463098526000976562e+01 3.136554658412933350e-01 3.725526094436645508e+00 1.211754441261291504e+00 3.151843845844268799e-01
3.444000000000000000e+03 4.844355773925781250e+01 -2.693181228637695312e+01 3.437930345535278320e-01 3.814726352691650391e+00 1.247555851936340332e+00 -1.933229863643646240e-01
3.445000000000000000e+03 2.976555252075195312e+01 2.540116310119628906e+01 -5.927132964134216309e-01 3.542912483215332031e+00 8.850597143173217773e-01 -3.541757762432098389e-01
3.446000000000000000e+03 6.189233398437500000e+01 -2.813597297668457031e+01 9.316188097000122070e-02 5.528326988220214844e+00 1.686446666717529297e+00 -1.692243367433547974e-01
3.447000000000000000e+03 5.008514404296875000e+01 2.719150733947753906e+01 -1.043374743312597275e-02 4.874771595001220703e+00 1.459301352500915527e+00 8.703230880200862885e-03
3.448000000000000000e+03 6.495513153076171875e+01 2.884629631042480469e+01 1.846345812082290649e-01 5.561643600463867188e+00 1.723883509635925293e+00 -1.345355659723281860e-01
3.449000000000000000e+03 3.526029205322265625e+01 -2.342075729370117188e+01 3.135750591754913330e-01 3.275573015213012695e+00 1.076744437217712402e+00 -5.926673114299774170e-02
3.450000000000000000e+03 5.747889328002929688e+01 -3.241550827026367188e+01 1.229099556803703308e-01 4.980641841888427734e+00 1.531065583229064941e+00 1.425582617521286011e-01
3.451000000000000000e+03 6.086746597290039062e+01 -2.993332290649414062e+01 4.013124108314514160e-02 5.319307804107666016e+00 1.607831716537475586e+00 -2.481262199580669403e-02
3.452000000000000000e+03 1.734382820129394531e+01 3.214666748046875000e+01 3.269702196121215820e-01 2.698937892913818359e+00 9.077724218368530273e-01 9.918870031833648682e-02
3.453000000000000000e+03 1.367094039916992188e+01 3.299845123291015625e+01 2.902812957763671875e-01 3.265885829925537109e+00 1.066850066184997559e+00 3.111111521720886230e-01
3.454000000000000000e+03 3.621496963500976562e+01 2.820250892639160156e+01 -2.561148405075073242e-01 3.945501565933227539e+00 1.106816053390502930e+00 -1.852488219738006592e-01
3.455000000000000000e+03 4.606808090209960938e+01 2.500779724121093750e+01 1.330830901861190796e-01 4.409782409667968750e+00 1.362859606742858887e+00 -4.669148847460746765e-02
3.456000000000000000e+03 4.801283645629882812e+01 2.219880104064941406e+01 2.741036415100097656e-01 4.469723701477050781e+00 1.423148274421691895e+00 -3.086775541305541992e-01
3.457000000000000000e+03 4.991358947753906250e+01 2.096953582763671875e+01 -1.514713764190673828e-01 5.430244922637939453e+00 1.583631992340087891e+00 -3.192304968833923340e-01
3.458000000000000000e+03 5.533404159545898438e+01 -3.516691970825195312e+01 2.183679938316345215e-01 4.737020969390869141e+00 1.486616730690002441e+00 1.039020717144012451e-01
3.459000000000000000e+03 5.107501220703125000e+01 -2.957954788208007812e+01 4.009577333927154541e-01 4.179594993591308594e+00 1.374165773391723633e+00 1.802931725978851318e-01
3.460000000000000000e+03 6.688877868652343750e+01 3.064256477355957031e+01 8.076907694339752197e-02 5.819898605346679688e+00 1.770200371742248535e+00 -1.029979586601257324e-01
3.461000000000000000e+03 7.577330780029296875e+01 -3.658283996582031250e+01 4.121604934334754944e-02 6.444410324096679688e+00 1.945687890052795410e+00 7.343434542417526245e-02
3.462000000000000000e+03 2.316514015197753906e+01 3.133336639404296875e+01 2.330460101366043091e-01 2.622972249984741211e+00 8.568055033683776855e-01 -3.441878259181976318e-01
3.463000000000000000e+03 2.866388702392578125e+01 -2.083701705932617188e+01 -3.389156758785247803e-01 3.958453178405761719e+00 1.085861206054687500e+00 -7.421270608901977539e-01
3.464000000000000000e+03 3.528417968750000000e+01 2.570743560791015625e+01 -4.122419357299804688e-01 3.870218515396118164e+00 1.037392973899841309e+00 -9.244837611913681030e-02
3.465000000000000000e+03 3.289595794677734375e+01 2.686938858032226562e+01 -4.126640856266021729e-01 3.702925443649291992e+00 9.870783686637878418e-01 -2.614865005016326904e-01
3.466000000000000000e+03 1.485372161865234375e+01 -3.192908477783203125e+01 -1.289969086647033691e-01 3.948783874511718750e+00 1.145936012268066406e+00 1.570838317275047302e-02
3.467000000000000000e+03 2.619875335693359375e+01 2.407069206237792969e+01 -9.679445624351501465e-01 3.154373884201049805e+00 6.559287905693054199e-01 -7.493741512298583984e-01
3.468000000000000000e+03 2.532971000671386719e+01 2.900415420532226562e+01 -1.917034089565277100e-01 2.718707799911499023e+00 7.581012845039367676e-01 -4.179044365882873535e-01
3.469000000000000000e+03 6.164980316162109375e+01 2.815679168701171875e+01 2.821097671985626221e-01 5.222695350646972656e+00 1.651441574096679688e+00 -1.048649381846189499e-02
3.470000000000000000e+03 6.875453186035156250e+01 3.221984100341796875e+01 5.930423736572265625e-02 5.916413784027099609e+00 1.792715430259704590e+00 -8.356999605894088745e-02
3.471000000000000000e+03 3.829220962524414062e+01 -2.903142547607421875e+01 1.229197531938552856e-01 3.921310663223266602e+00 1.213269114494323730e+00 -2.533898875117301941e-02
3.472000000000000000e+03 3.031102943420410156e+01 3.125053977966308594e+01 -9.459109604358673096e-02 3.224839925765991211e+00 9.390746355056762695e-01 -3.002434968948364258e-01
3.473000000000000000e+03 5.853300094604492188e+01 -2.687486457824707031e+01 -2.030374854803085327e-01 5.628448963165283203e+00 1.627623438835144043e+00 1.548650115728378296e-01
3.474000000000000000e+03 5.492944335937500000e+01 -3.036925697326660156e+01 1.706880927085876465e-01 4.742796421051025391e+00 1.474045276641845703e+00 2.990700900554656982e-01
3.475000000000000000e+03 3.833066177368164062e+01 -3.133267974853515625e+01 1.415953934192657471e-01 3.846979856491088867e+00 1.196572542190551758e+00 -1.312195509672164917e-01
3.476000000000000000e+03 4.509895324707031250e+01 -2.862825202941894531e+01 1.590914130210876465e-01 4.083395957946777344e+00 1.272746205329895020e+00 -2.111166864633560181e-01
3.477000000000000000e+03 4.080115509033203125e+01 -3.714709091186523438e+01 2.610772550106048584e-01 3.935379266738891602e+00 1.258937001228332520e+00 -6.465236842632293701e-02
3.478000000000000000e+03 3.651074218750000000e+01 -3.770493316650390625e+01 2.104111462831497192e-01 3.883342742919921875e+00 1.228126168251037598e+00 -5.329147353768348694e-02
3.479000000000000000e+03 4.724909591674804688e+01 -4.070980453491210938e+01 3.127887547016143799e-01 4.177027702331542969e+00 1.346944928169250488e+00 -1.647813059389591217e-02
3.480000000000000000e+03 4.191617584228515625e+01 -3.291858291625976562e+01 2.186494767665863037e-01 3.941209554672241211e+00 1.247957706451416016e+00 -1.010023280978202820e-01
3.481000000000000000e+03 1.900747489929199219e+01 -3.738116836547851562e+01 -6.037173047661781311e-02 3.914356946945190430e+00 1.156195521354675293e+00 -3.533455356955528259e-02
3.482000000000000000e+03 1.509672737121582031e+01 -3.663312149047851562e+01 -7.211181521415710449e-02 3.885700464248657227e+00 1.144076585769653320e+00 -1.825049053877592087e-03
3.483000000000000000e+03 5.622519302368164062e+01 -3.808404541015625000e+01 2.500741481781005859e-01 4.833588600158691406e+00 1.525098800659179688e+00 5.881087109446525574e-02
3.484000000000000000e+03 5.861128616333007812e+01 -3.470254516601562500e+01 1.939766705036163330e-01 5.068935871124267578e+00 1.578873753547668457e+00 9.949172288179397583e-02
3.485000000000000000e+03 4.789155578613281250e+01 3.727262115478515625e+01 2.123804064467549324e-03 4.607412338256835938e+00 1.382860898971557617e+00 -1.692331209778785706e-02
3.486000000000000000e+03 6.345747756958007812e+01 3.499681854248046875e+01 7.403988391160964966e-02 5.587507724761962891e+00 1.698464393615722656e+00 -5.810040514916181564e-03
3.487000000000000000e+03 6.691950225830078125e+01 3.708267974853515625e+01 5.026645958423614502e-02 5.796844005584716797e+00 1.754133105278015137e+00 -3.659790381789207458e-02
3.488000000000000000e+03 6.044427108764648438e+01 3.667096710205078125e+01 6.623988598585128784e-02 5.384500980377197266e+00 1.635222196578979492e+00 1.141236256808042526e-02
3.489000000000000000e+03 3.724727249145507812e+01 3.761410903930664062e+01 8.760554343461990356e-02 3.751310348510742188e+00 1.151674747467041016e+00 -7.440084218978881836e-02
3.490000000000000000e+03 1.932803153991699219e+01 3.627278137207031250e+01 4.946084916591644287e-01 2.797004938125610352e+00 9.874840378761291504e-01 5.070841871201992035e-03
3.491000000000000000e+03 2.391273880004882812e+01 3.686254119873046875e+01 4.418081641197204590e-01 2.838588476181030273e+00 9.841189980506896973e-01 -1.586323678493499756e-01
3.492000000000000000e+03 3.119585418701171875e+01 -2.510805130004882812e+01 8.915659040212631226e-02 3.634855508804321289e+00 1.117203712463378906e+00 -4.105840325355529785e-01
3.493000000000000000e+03 3.097391128540039062e+01 -2.088823890686035156e+01 -1.885673403739929199e-01 3.498608827590942383e+00 9.930124282836914062e-01 -8.224915862083435059e-01
3.494000000000000000e+03 4.709590148925781250e+01 2.718424987792968750e+01 4.433945578057318926e-04 4.588263511657714844e+00 1.376612186431884766e+00 1.527723204344511032e-02
3.495000000000000000e+03 4.951799774169921875e+01 2.443537139892578125e+01 -1.483319420367479324e-02 4.947238922119140625e+00 1.479721784591674805e+00 -7.954515516757965088e-02
3.496000000000000000e+03 1.526172256469726562e+01 3.094690132141113281e+01 2.163340449333190918e-01 3.019099950790405273e+00 9.706301689147949219e-01 2.721257209777832031e-01
3.497000000000000000e+03 5.968914794921875000e+01 2.930402565002441406e+01 1.957972496747970581e-01 5.232819557189941406e+00 1.628585100173950195e+00 8.150839805603027344e-02
3.498000000000000000e+03 2.132843017578125000e+01 -2.796541023254394531e+01 -1.753889024257659912e-01 4.106092453002929688e+00 1.179211020469665527e+00 -1.511042267084121704e-01
3.499000000000000000e+03 4.505005264282226562e+01 2.853331184387207031e+01 4.075238015502691269e-03 4.442911624908447266e+00 1.334096074104309082e+00 -1.734665781259536743e-02
3.500000000000000000e+03 4.342119979858398438e+01 2.395600509643554688e+01 9.406304359436035156e-02 4.172574520111083984e+00 1.279991269111633301e+00 1.709114909172058105e-01
3.501000000000000000e+03 3.906133651733398438e+01 2.755040168762207031e+01 -2.356441915035247803e-01 4.112121582031250000e+00 1.162943243980407715e+00 4.080464690923690796e-02
3.502000000000000000e+03 1.950981903076171875e+01 -2.544012832641601562e+01 -2.385966926813125610e-01 4.190773010253906250e+00 1.185652971267700195e+00 -1.057887524366378784e-01
3.503000000000000000e+03 3.411688995361328125e+01 -2.673224449157714844e+01 2.139078825712203979e-01 3.627797842025756836e+00 1.152511715888977051e+00 -1.223871037364006042e-01
3.504000000000000000e+03 3.124122810363769531e+01 2.859899711608886719e+01 -2.691377997398376465e-01 3.449804306030273438e+00 9.541999101638793945e-01 -3.639760613441467285e-01
3.505000000000000000e+03 2.018974304199218750e+01 -3.398677444458007812e+01 -7.713959366083145142e-02 3.946520328521728516e+00 1.160814285278320312e+00 -7.738079130649566650e-02
3.506000000000000000e+03 5.533756637573242188e+01 3.381968307495117188e+01 5.459096282720565796e-02 5.088289737701416016e+00 1.542864084243774414e+00 5.972738936543464661e-02
3.507000000000000000e+03 5.467083358764648438e+01 3.060054588317871094e+01 4.182985052466392517e-02 5.095201969146728516e+00 1.541109561920166016e+00 1.039499342441558838e-01
3.508000000000000000e+03 3.324288940429687500e+01 -2.427260208129882812e+01 7.345949113368988037e-02 3.393737792968750000e+00 1.040159225463867188e+00 -3.940606117248535156e-01
3.509000000000000000e+03 3.592811203002929688e+01 -2.846617507934570312e+01 6.714185327291488647e-02 3.731852054595947266e+00 1.139698147773742676e+00 -1.721021980047225952e-01
3.510000000000000000e+03 1.315336894989013672e+01 -3.039341354370117188e+01 -1.496040970087051392e-01 3.957620620727539062e+00 1.142405033111572266e+00 4.924520105123519897e-02
3.511000000000000000e+03 3.948456573486328125e+01 2.266363334655761719e+01 -4.915794432163238525e-01 4.515888214111328125e+00 1.207292556762695312e+00 4.149852693080902100e-01
3.512000000000000000e+03 6.115090179443359375e+01 -3.352798843383789062e+01 1.232611611485481262e-01 5.225628852844238281e+00 1.604667067527770996e+00 2.543134428560733795e-02
3.513000000000000000e+03 4.845331954956054688e+01 -3.466518402099609375e+01 2.838504016399383545e-01 4.199469566345214844e+00 1.344995975494384766e+00 1.138540916144847870e-02
3.514000000000000000e+03 2.567038917541503906e+01 3.331163787841796875e+01 2.042032778263092041e-01 2.790240049362182617e+00 8.983329534530639648e-01 -2.570805251598358154e-01
3.515000000000000000e+03 3.574774932861328125e+01 -3.445167541503906250e+01 1.831477582454681396e-01 3.831077575683593750e+00 1.204267621040344238e+00 -1.243891045451164246e-01
3.516000000000000000e+03 6.348421478271484375e+01 -3.609294891357421875e+01 1.921457797288894653e-01 5.454907894134521484e+00 1.694116115570068359e+00 3.796854242682456970e-02
3.517000000000000000e+03 5.161457061767578125e+01 3.055656433105468750e+01 9.766113013029098511e-03 4.905816555023193359e+00 1.474674820899963379e+00 5.978069081902503967e-02
3.518000000000000000e+03 4.047139358520507812e+01 3.366814422607421875e+01 -2.096914313733577728e-02 4.057887077331542969e+00 1.211075425148010254e+00 -6.077992171049118042e-02
3.519000000000000000e+03 4.601075363159179688e+01 -3.313471221923828125e+01 2.966724932193756104e-01 4.027394294738769531e+00 1.297219991683959961e+00 -5.775646865367889404e-02
3.520000000000000000e+03 2.388136291503906250e+01 -3.433853149414062500e+01 -4.605956003069877625e-02 3.924793481826782227e+00 1.163620233535766602e+00 -1.267892271280288696e-01
3.521000000000000000e+03 4.403716659545898438e+01 -3.548132324218750000e+01 2.592423558235168457e-01 4.036296844482421875e+00 1.288661718368530273e+00 -6.973433494567871094e-02
3.522000000000000000e+03 5.934492111206054688e+01 -3.146978187561035156e+01 1.288255006074905396e-01 5.250718593597412109e+00 1.613863348960876465e+00 1.172545552253723145e-01
3.523000000000000000e+03 6.120201873779296875e+01 3.201357269287109375e+01 1.449352353811264038e-01 5.334016323089599609e+00 1.643685460090637207e+00 1.443427335470914841e-02
3.524000000000000000e+03 3.313122177124023438e+01 3.458042144775390625e+01 7.014939188957214355e-02 3.431091070175170898e+00 1.050372123718261719e+00 -1.809592396020889282e-01
3.525000000000000000e+03 1.577795886993408203e+01 3.505578613281250000e+01 4.422127902507781982e-01 3.125708818435668945e+00 1.070376515388488770e+00 1.473789811134338379e-01
3.526000000000000000e+03 3.226731109619140625e+01 -2.229261207580566406e+01 1.366960853338241577e-01 3.398499965667724609e+00 1.060558795928955078e+00 -4.854987263679504395e-01
3.527000000000000000e+03 2.103561973571777344e+01 -3.081534385681152344e+01 -1.495172977447509766e-01 4.012465000152587891e+00 1.158884286880493164e+00 -1.314357966184616089e-01
3.528000000000000000e+03 3.159380722045898438e+01 -2.778521728515625000e+01 4.396625235676765442e-02 3.722847223281860352e+00 1.130044102668762207e+00 -2.926572859287261963e-01
3.529000000000000000e+03 4.251942443847656250e+01 2.968113517761230469e+01 -6.390661001205444336e-02 4.258423328399658203e+00 1.258355021476745605e+00 1.795587316155433655e-02
3.530000000000000000e+03 2.801680755615234375e+01 -3.096366310119628906e+01 -1.356237102299928665e-02 3.879993438720703125e+00 1.159929394721984863e+00 -2.396315932273864746e-01
3.531000000000000000e+03 4.799683761596679688e+01 3.417056274414062500e+01 7.541948929429054260e-03 4.649053573608398438e+00 1.396978616714477539e+00 -2.075413800776004791e-02
3.532000000000000000e+03 4.889469528198242188e+01 2.932651519775390625e+01 -1.029220782220363617e-02 4.783261775970458984e+00 1.431890964508056641e+00 -6.527412682771682739e-03
3.533000000000000000e+03 2.786505889892578125e+01 -3.448647689819335938e+01 6.410810351371765137e-02 3.849345445632934570e+00 1.174036026000976562e+00 -1.533946990966796875e-01
3.534000000000000000e+03 4.403918457031250000e+01 2.612989234924316406e+01 8.720629848539829254e-03 4.296863555908203125e+00 1.291675329208374023e+00 1.152500808238983154e-01
3.535000000000000000e+03 4.754986190795898438e+01 -3.740861892700195312e+01 3.341771066188812256e-01 4.177747726440429688e+00 1.353577375411987305e+00 1.533596962690353394e-02
3.536000000000000000e+03 1.838710975646972656e+01 -3.022438049316406250e+01 -1.558279544115066528e-01 4.034707546234130859e+00 1.163663983345031738e+00 -5.379300191998481750e-02
3.537000000000000000e+03 3.966324996948242188e+01 3.056018257141113281e+01 -8.445824682712554932e-02 4.077705860137939453e+00 1.197974324226379395e+00 -1.043646633625030518e-01
3.538000000000000000e+03 4.839315795898437500e+01 -3.211862945556640625e+01 3.427483141422271729e-01 4.135833263397216797e+00 1.343574523925781250e+00 -1.553161162883043289e-02
3.539000000000000000e+03 3.918194198608398438e+01 -3.402087020874023438e+01 2.033198624849319458e-01 3.913227796554565430e+00 1.234964251518249512e+00 -7.577834278345108032e-02
3.540000000000000000e+03 2.840776062011718750e+01 3.753711700439453125e+01 3.135344088077545166e-01 3.013674020767211914e+00 9.981625080108642578e-01 -1.538659781217575073e-01
3.541000000000000000e+03 2.755867195129394531e+01 -4.099490356445312500e+01 8.162198215723037720e-02 3.854758739471435547e+00 1.180914163589477539e+00 -3.730766847729682922e-02
3.542000000000000000e+03 3.284930801391601562e+01 3.776752090454101562e+01 1.848183870315551758e-01 3.414750099182128906e+00 1.079870581626892090e+00 -1.449506431818008423e-01
3.543000000000000000e+03 4.663348007202148438e+01 3.119943237304687500e+01 -2.435133792459964752e-02 4.578693389892578125e+00 1.366302609443664551e+00 9.951873682439327240e-03
3.544000000000000000e+03 2.377773672342300415e-01 1.765212059020996094e+00 -7.009251415729522705e-02 -7.679192423820495605e-01 -2.514035403728485107e-01 2.101108133792877197e-01
3.545000000000000000e+03 5.146084427833557129e-01 2.127349853515625000e+00 1.565638929605484009e-02 -1.173354864120483398e+00 -3.473095297813415527e-01 4.904612600803375244e-01
3.546000000000000000e+03 1.318697780370712280e-01 -2.018796920776367188e+00 -4.529926925897598267e-03 -3.817903101444244385e-01 -1.158960759639739990e-01 -3.631065040826797485e-02
3.547000000000000000e+03 2.105170011520385742e+00 -1.639264345169067383e+00 -3.465226665139198303e-02 -4.483336210250854492e-02 -2.384568937122821808e-02 -2.753935456275939941e-01
3.548000000000000000e+03 3.972671747207641602e+00 -1.982797265052795410e+00 3.215242624282836914e-01 1.621135324239730835e-01 1.450913399457931519e-01 -4.486927017569541931e-02
3.549000000000000000e+03 5.497237205505371094e+00 -1.603945970535278320e+00 6.217468380928039551e-01 2.636761665344238281e-01 2.656268775463104248e-01 2.789731919765472412e-01
3.550000000000000000e+03 5.637434482574462891e+00 -1.906432151794433594e+00 9.487978219985961914e-01 4.217324256896972656e-01 4.111590981483459473e-01 4.955013990402221680e-01
3.551000000000000000e+03 6.093124389648437500e+00 -1.638721227645874023e+00 9.993022680282592773e-01 4.199300706386566162e-01 4.257697165012359619e-01 5.787912607192993164e-01
3.552000000000000000e+03 6.294988632202148438e+00 -1.893944501876831055e+00 1.387480735778808594e+00 6.747647523880004883e-01 6.186736822128295898e-01 9.126316905021667480e-01
3.553000000000000000e+03 6.489585876464843750e+00 -1.867114305496215820e+00 1.560307979583740234e+00 7.239301800727844238e-01 6.852714419364929199e-01 1.039351820945739746e+00
3.554000000000000000e+03 6.493482589721679688e+00 -1.623441696166992188e+00 1.285400867462158203e+00 5.678279995918273926e-01 5.559686422348022461e-01 8.137596249580383301e-01
3.555000000000000000e+03 6.883167266845703125e+00 -1.627509593963623047e+00 1.725762724876403809e+00 7.820290923118591309e-01 7.523375749588012695e-01 1.186042666435241699e+00
3.556000000000000000e+03 7.103768825531005859e+00 -2.094934463500976562e+00 2.251093864440917969e+00 1.546353936195373535e+00 1.139234304428100586e+00 1.935429215431213379e+00
3.557000000000000000e+03 7.699101924896240234e+00 -1.942784070968627930e+00 2.769730806350708008e+00 2.312977313995361328e+00 1.524812459945678711e+00 2.759091854095458984e+00
3.558000000000000000e+03 7.898284435272216797e+00 -1.645425915718078613e+00 3.056667089462280273e+00 2.131889343261718750e+00 1.556566953659057617e+00 2.799555063247680664e+00
3.559000000000000000e+03 8.102856636047363281e+00 -1.906227588653564453e+00 3.135838508605957031e+00 3.346668481826782227e+00 1.944752097129821777e+00 3.552790641784667969e+00
3.560000000000000000e+03 8.277564048767089844e+00 -1.880754470825195312e+00 3.323632001876831055e+00 3.972468852996826172e+00 2.188830375671386719e+00 3.946062803268432617e+00
3.561000000000000000e+03 8.292550086975097656e+00 -1.631419301033020020e+00 3.572721481323242188e+00 3.403785228729248047e+00 2.092952013015747070e+00 3.842761754989624023e+00
3.562000000000000000e+03 8.648509025573730469e+00 -1.935161232948303223e+00 3.302841424942016602e+00 5.688652992248535156e+00 2.697448253631591797e+00 4.847611904144287109e+00
3.563000000000000000e+03 9.208106040954589844e+00 -1.881940603256225586e+00 2.706304073333740234e+00 9.553838729858398438e+00 3.678042888641357422e+00 5.670261383056640625e+00
3.564000000000000000e+03 9.866443634033203125e+00 -2.030686616897583008e+00 9.566177129745483398e-01 1.467026329040527344e+01 4.688064098358154297e+00 4.265831470489501953e+00
3.565000000000000000e+03 1.077180957794189453e+01 -1.891486048698425293e+00 8.152714371681213379e-01 1.829920005798339844e+01 5.734341144561767578e+00 -4.303316175937652588e-01
3.566000000000000000e+03 1.093785095214843750e+01 -1.438002109527587891e+00 2.581224441528320312e+00 1.980559158325195312e+01 6.716044425964355469e+00 -2.265357494354248047e+00
3.567000000000000000e+03 1.220465469360351562e+01 -1.084598898887634277e+00 5.190622806549072266e+00 1.316409301757812500e+01 5.506414413452148438e+00 -3.725723743438720703e+00
3.568000000000000000e+03 1.214031505584716797e+01 -4.807104468345642090e-01 7.739477157592773438e+00 1.304129409790039062e+01 6.234231472015380859e+00 -2.391722202301025391e+00
3.569000000000000000e+03 1.182267951965332031e+01 1.262869715690612793e+00 5.440518379211425781e+00 1.447320079803466797e+01 5.974115848541259766e+00 -9.023039788007736206e-02
3.570000000000000000e+03 9.509758949279785156e+00 1.616179466247558594e+00 -6.106276512145996094e-01 1.560829448699951172e+01 4.499300003051757812e+00 -8.923860549926757812e+00
3.571000000000000000e+03 9.313195228576660156e+00 2.107768774032592773e+00 -2.501149475574493408e-01 1.478760719299316406e+01 4.361247539520263672e+00 -7.716629981994628906e+00
3.572000000000000000e+03 8.462304115295410156e+00 1.662453889846801758e+00 3.992549180984497070e-01 5.454306602478027344e+00 1.756068468093872070e+00 -4.750355720520019531e+00
3.573000000000000000e+03 7.887718200683593750e+00 1.615173697471618652e+00 -4.499608278274536133e-01 3.465310573577880859e+00 9.046049118041992188e-01 -2.254931211471557617e+00
3.574000000000000000e+03 7.867166519165039062e+00 1.843641519546508789e+00 2.488936781883239746e-01 3.983434677124023438e+00 1.269698500633239746e+00 -2.369123697280883789e+00
3.575000000000000000e+03 7.334290981292724609e+00 1.857195615768432617e+00 -1.669750064611434937e-01 2.725123167037963867e+00 7.674444317817687988e-01 -7.082810401916503906e-01
3.576000000000000000e+03 6.936062812805175781e+00 1.987064480781555176e+00 -7.844238728284835815e-02 2.191523551940917969e+00 6.339243650436401367e-01 -7.848849892616271973e-02
3.577000000000000000e+03 6.905896663665771484e+00 1.662355899810791016e+00 -1.150395035743713379e+00 1.306024074554443359e+00 4.668871313333511353e-02 2.165220826864242554e-01
3.578000000000000000e+03 5.801403045654296875e+00 1.868997454643249512e+00 -9.811156392097473145e-01 5.896621942520141602e-01 -1.174360364675521851e-01 1.445413589477539062e+00
3.579000000000000000e+03 5.505470752716064453e+00 1.662290334701538086e+00 -1.642811298370361328e+00 4.221352636814117432e-01 -3.662028014659881592e-01 1.609024405479431152e+00
3.580000000000000000e+03 4.402428150177001953e+00 1.982941985130310059e+00 -8.601281642913818359e-01 1.207299716770648956e-02 -2.544165551662445068e-01 1.895931601524353027e+00
3.581000000000000000e+03 4.227542400360107422e+00 1.901383638381958008e+00 -9.773099422454833984e-01 -5.185280367732048035e-02 -3.087488114833831787e-01 1.992720603942871094e+00
3.582000000000000000e+03 4.061638355255126953e+00 1.879377365112304688e+00 -1.017392992973327637e+00 -6.454020738601684570e-02 -3.245799541473388672e-01 1.927418470382690430e+00
3.583000000000000000e+03 3.495182275772094727e+00 1.640959501266479492e+00 -1.273003101348876953e+00 -1.649645566940307617e-01 -4.313903152942657471e-01 1.821420788764953613e+00
3.584000000000000000e+03 3.298559665679931641e+00 1.640791177749633789e+00 -1.156204819679260254e+00 -2.799274027347564697e-01 -4.308396577835083008e-01 1.830151915550231934e+00
3.585000000000000000e+03 2.284545421600341797e+00 1.667606711387634277e+00 -7.088817954063415527e-01 -4.798640012741088867e-01 -3.566237390041351318e-01 1.519677400588989258e+00
3.586000000000000000e+03 1.888615489006042480e+00 1.638201951980590820e+00 -5.665364861488342285e-01 -5.658527612686157227e-01 -3.397167623043060303e-01 1.318928360939025879e+00
3.587000000000000000e+03 1.308322191238403320e+00 1.646086454391479492e+00 -3.112376928329467773e-01 -7.213729619979858398e-01 -3.097831904888153076e-01 1.037810921669006348e+00
3.588000000000000000e+03 1.103100061416625977e+00 1.634044885635375977e+00 -2.503642141819000244e-01 -7.017028331756591797e-01 -2.856201231479644775e-01 8.713610768318176270e-01
3.589000000000000000e+03 7.315660715103149414e-01 1.618771195411682129e+00 -1.317939460277557373e-01 -6.636367440223693848e-01 -2.386292070150375366e-01 5.645443797111511230e-01
3.590000000000000000e+03 2.533051371574401855e-01 3.646764516830444336e+00 -6.204589153639972210e-04 -3.031515598297119141e+00 -9.096407890319824219e-01 2.570530474185943604e-01
3.591000000000000000e+03 6.703706359863281250e+01 -1.594575500488281250e+01 -1.571103453636169434e+00 1.588730931282043457e+00 5.288232583552598953e-03 -4.328611195087432861e-01
3.592000000000000000e+03 6.816728973388671875e+01 5.563366413116455078e+00 1.096979022026062012e+00 1.170606994628906250e+01 3.840914726257324219e+00 -2.535822629928588867e+00
3.593000000000000000e+03 2.884152984619140625e+01 -7.914920449256896973e-01 5.405770778656005859e+00 4.699289798736572266e+00 3.031518220901489258e+00 2.107405185699462891e+00
3.594000000000000000e+03 2.641386604309082031e+01 1.422485828399658203e+01 5.244619846343994141e+00 8.149899482727050781e+00 4.018355846405029297e+00 3.028221607208251953e+00
3.595000000000000000e+03 1.702299118041992188e+01 5.106777667999267578e+00 1.757964134216308594e+00 1.157850503921508789e+00 8.747444152832031250e-01 4.244762420654296875e+00
3.596000000000000000e+03 6.379821014404296875e+01 5.612330436706542969e+00 2.238162010908126831e-01 3.748929023742675781e+00 1.191823601722717285e+00 1.235202431678771973e+00
3.597000000000000000e+03 8.984950780868530273e-01 -2.280326366424560547e+00 5.337111651897430420e-03 -2.588041424751281738e-01 -7.604011148214340210e-02 -1.825205534696578979e-01
3.598000000000000000e+03 4.110530376434326172e+00 -2.234601736068725586e+00 4.707614481449127197e-01 2.574914097785949707e-01 2.184758484363555908e-01 6.774820387363433838e-02
3.599000000000000000e+03 4.818059921264648438e+00 2.192497730255126953e+00 -3.414151370525360107e-01 1.319366395473480225e-01 -6.284354627132415771e-02 1.821809887886047363e+00
3.600000000000000000e+03 1.399762749671936035e+00 2.283229112625122070e+00 -1.547619104385375977e-01 -1.104693770408630371e+00 -3.778367042541503906e-01 1.286595821380615234e+00
3.601000000000000000e+03 1.562015414237976074e+00 1.914743185043334961e+00 -3.186125457286834717e-01 -8.217719197273254395e-01 -3.421153426170349121e-01 1.324640035629272461e+00
3.602000000000000000e+03 3.328662157058715820e+00 -2.322718381881713867e+00 3.112128376960754395e-01 1.822902262210845947e-01 1.480509191751480103e-01 -7.208385318517684937e-02
3.603000000000000000e+03 3.357486963272094727e+00 -2.963986873626708984e+00 5.014694333076477051e-01 2.990558147430419922e-01 2.401575744152069092e-01 8.908499032258987427e-02
3.604000000000000000e+03 3.895800113677978516e+00 -2.927455186843872070e+00 6.656347513198852539e-01 4.159164428710937500e-01 3.244653642177581787e-01 2.347444593906402588e-01
3.605000000000000000e+03 2.826109886169433594e+00 -2.502495765686035156e+00 2.486749589443206787e-01 1.327251642942428589e-01 1.144200339913368225e-01 -1.231572628021240234e-01
3.606000000000000000e+03 4.976105690002441406e+00 2.421500444412231445e+00 1.557443290948867798e-01 3.961492776870727539e-01 1.655680835247039795e-01 1.690447449684143066e+00
3.607000000000000000e+03 1.464341759681701660e+00 -2.013445377349853516e+00 2.757917158305644989e-02 -1.424899995326995850e-01 -3.447324782609939575e-02 -2.526525259017944336e-01
3.608000000000000000e+03 1.295467019081115723e+00 -1.766921639442443848e+00 -1.076770294457674026e-02 -1.401575952768325806e-01 -4.527759179472923279e-02 -2.362565398216247559e-01
3.609000000000000000e+03 1.491982817649841309e+00 -1.829226255416870117e+00 -2.196781896054744720e-02 -1.124554723501205444e-01 -4.032698646187782288e-02 -2.567594051361083984e-01
3.610000000000000000e+03 3.877732038497924805e+00 1.912173986434936523e+00 -9.387460350990295410e-01 -2.122219502925872803e-01 -3.452903926372528076e-01 1.967255949974060059e+00
3.611000000000000000e+03 3.685915470123291016e+00 2.260388612747192383e+00 -2.861164510250091553e-01 -2.609547376632690430e-01 -1.641213595867156982e-01 2.001976013183593750e+00
3.612000000000000000e+03 2.851647853851318359e+00 2.195727825164794922e+00 -4.589895308017730713e-01 -4.143480360507965088e-01 -2.620012760162353516e-01 1.841670036315917969e+00
3.613000000000000000e+03 2.542093515396118164e+00 2.028454065322875977e+00 -5.537432432174682617e-01 -4.442422091960906982e-01 -2.993956506252288818e-01 1.725052714347839355e+00
3.614000000000000000e+03 2.668743371963500977e+00 2.311879396438598633e+00 -3.140101432800292969e-01 -5.912021398544311523e-01 -2.715636789798736572e-01 1.841311573982238770e+00
3.615000000000000000e+03 5.651480555534362793e-01 1.869904756546020508e+00 -8.843308687210083008e-02 -8.859295248985290527e-01 -2.923087775707244873e-01 4.811445474624633789e-01
3.616000000000000000e+03 6.008248329162597656e+00 1.971588611602783203e+00 -5.497006177902221680e-01 9.958649277687072754e-01 1.338492929935455322e-01 1.116989970207214355e+00
3.617000000000000000e+03 8.640274047851562500e+00 -2.191934823989868164e+00 2.754416227340698242e+00 6.403687953948974609e+00 2.747431278228759766e+00 4.704662322998046875e+00
3.618000000000000000e+03 9.324714660644531250e+00 -2.318826436996459961e+00 1.596223354339599609e+00 1.040471363067626953e+01 3.600281238555908203e+00 4.793519973754882812e+00
3.619000000000000000e+03 7.495852470397949219e+00 -1.964328050613403320e+00 2.558412313461303711e+00 1.958982110023498535e+00 1.355218291282653809e+00 2.401991128921508789e+00
3.620000000000000000e+03 1.024536895751953125e+01 -2.470629453659057617e+00 1.185036823153495789e-01 1.454621219635009766e+01 4.399414539337158203e+00 2.267287731170654297e+00
3.621000000000000000e+03 4.325507164001464844e+00 -2.610637664794921875e+00 7.490146160125732422e-01 4.046114683151245117e-01 3.460878431797027588e-01 2.726318538188934326e-01
3.622000000000000000e+03 5.340017318725585938e+00 -2.198106050491333008e+00 9.452722668647766113e-01 4.785730242729187012e-01 4.271535873413085938e-01 5.013315081596374512e-01
3.623000000000000000e+03 6.115617752075195312e+00 -2.215632915496826172e+00 1.474075794219970703e+00 8.386507034301757812e-01 6.938179731369018555e-01 1.024267435073852539e+00
3.624000000000000000e+03 6.511709213256835938e+00 -2.095331430435180664e+00 1.696430087089538574e+00 9.597765803337097168e-01 7.968620061874389648e-01 1.266583442687988281e+00
3.625000000000000000e+03 6.844972610473632812e+00 -2.058818578720092773e+00 2.015518665313720703e+00 1.253499507904052734e+00 9.807054996490478516e-01 1.598730087280273438e+00
3.626000000000000000e+03 6.994587421417236328e+00 -1.915106534957885742e+00 2.087666749954223633e+00 1.250578403472900391e+00 1.001473546028137207e+00 1.661031723022460938e+00
3.627000000000000000e+03 1.264001083374023438e+01 1.984203755855560303e-01 7.019880294799804688e+00 1.109458160400390625e+01 5.434338569641113281e+00 -1.837216764688491821e-01
3.628000000000000000e+03 1.208884143829345703e+01 1.117921352386474609e+00 6.158365726470947266e+00 1.335173034667968750e+01 5.853028774261474609e+00 2.421633452177047729e-01
3.629000000000000000e+03 1.117134094238281250e+01 1.798471689224243164e+00 1.028181910514831543e+00 1.826017379760742188e+01 5.786506652832031250e+00 -3.261573553085327148e+00
3.630000000000000000e+03 1.143319225311279297e+01 1.915893673896789551e+00 1.473105669021606445e+00 1.588283443450927734e+01 5.206781864166259766e+00 -2.846559762954711914e+00
3.631000000000000000e+03 8.224865913391113281e+00 2.229772090911865234e+00 1.090388178825378418e+00 7.235294818878173828e+00 2.497704744338989258e+00 -3.870117187500000000e+00
3.632000000000000000e+03 8.203429222106933594e+00 2.024604797363281250e+00 7.377669215202331543e-01 6.262446403503417969e+00 2.100064039230346680e+00 -3.846024274826049805e+00
3.633000000000000000e+03 8.037809371948242188e+00 2.031462669372558594e+00 7.007389664649963379e-01 5.671763896942138672e+00 1.911750912666320801e+00 -3.294688701629638672e+00
3.634000000000000000e+03 7.658273696899414062e+00 2.107896327972412109e+00 9.614654183387756348e-01 3.888127565383911133e+00 1.454877853393554688e+00 -1.959121346473693848e+00
3.635000000000000000e+03 7.678893089294433594e+00 1.851201653480529785e+00 1.137543767690658569e-01 3.506591558456420898e+00 1.086103796958923340e+00 -1.734428167343139648e+00
3.636000000000000000e+03 7.442266464233398438e+00 2.038267612457275391e+00 5.544659495353698730e-01 3.576296329498291016e+00 1.239228725433349609e+00 -1.449073076248168945e+00
3.637000000000000000e+03 6.706761837005615234e+00 2.028632164001464844e+00 4.307225346565246582e-02 1.639737844467163086e+00 5.048429965972900391e-01 2.718697786331176758e-01
3.638000000000000000e+03 2.221839714050292969e+01 8.331641197204589844e+00 -3.140423297882080078e-01 7.640092372894287109e+00 2.197815179824829102e+00 2.601234436035156250e+00
3.639000000000000000e+03 7.851938629150390625e+01 8.545133590698242188e+00 -6.998714525252580643e-03 8.446649551391601562e+00 2.531895160675048828e+00 7.374792695045471191e-01
3.640000000000000000e+03 4.937648010253906250e+01 1.839010047912597656e+01 5.465527772903442383e-01 5.344376564025878906e+00 1.767278790473937988e+00 -1.339031457901000977e+00
3.641000000000000000e+03 2.119274902343750000e+01 2.107008218765258789e+00 1.986306428909301758e+00 4.582625389099121094e+00 1.970679521560668945e+00 8.769500851631164551e-01
3.642000000000000000e+03 5.285760116577148438e+01 1.315201473236083984e+01 2.750921010971069336e+00 9.987428665161132812e+00 3.821505069732666016e+00 1.053134918212890625e+00
3.643000000000000000e+03 3.787501525878906250e+01 8.927344322204589844e+00 -1.084643244743347168e+00 1.350163459777832031e+01 3.725097417831420898e+00 1.133479356765747070e+00
3.644000000000000000e+03 5.170602035522460938e+01 -2.166966247558593750e+01 4.445847570896148682e-01 2.099194288253784180e+00 7.631337046623229980e-01 1.703789234161376953e-01
3.645000000000000000e+03 2.932548713684082031e+01 2.515278100967407227e+00 -3.738989591598510742e+00 2.514564037322998047e+00 -3.673276603221893311e-01 5.417860746383666992e-01
3.646000000000000000e+03 4.362203598022460938e+01 -4.133996963500976562e+00 2.926939964294433594e+00 8.375040054321289062e+00 3.390594244003295898e+00 5.690627917647361755e-02
3.647000000000000000e+03 6.941996097564697266e+00 -2.249053239822387695e+00 2.041941881179809570e+00 1.571431040763854980e+00 1.084011912345886230e+00 1.825438857078552246e+00
3.648000000000000000e+03 4.722335815429687500e+00 2.493623495101928711e+00 2.393705397844314575e-01 1.827774494886398315e-01 1.266444027423858643e-01 1.783737301826477051e+00
3.649000000000000000e+03 3.998377799987792969e+00 -2.736257076263427734e+00 6.961467862129211426e-01 3.249129951000213623e-01 3.063179254531860352e-01 1.986258924007415771e-01
3.650000000000000000e+03 1.143072700500488281e+01 2.304122686386108398e+00 2.049340248107910156e+00 1.503890228271484375e+01 5.126472473144531250e+00 -4.199847698211669922e+00
3.651000000000000000e+03 9.710175991058349609e-01 2.153100490570068359e+00 -7.272003591060638428e-02 -1.319398164749145508e+00 -4.176354706287384033e-01 9.530147910118103027e-01
3.652000000000000000e+03 1.527440428733825684e+00 -2.267550945281982422e+00 5.157220363616943359e-02 -1.609923094511032104e-01 -3.282603248953819275e-02 -2.483628690242767334e-01
3.653000000000000000e+03 1.611554384231567383e+00 2.510351896286010742e+00 -1.195122525095939636e-01 -1.041329622268676758e+00 -3.482525646686553955e-01 1.435705184936523438e+00
3.654000000000000000e+03 1.190370941162109375e+01 -2.891302347183227539e+00 5.872650742530822754e-01 1.278700256347656250e+01 4.012279987335205078e+00 -2.512131214141845703e+00
3.655000000000000000e+03 1.190933895111083984e+01 -2.436847209930419922e+00 1.491784930229187012e+00 1.333169651031494141e+01 4.447044372558593750e+00 -3.101558208465576172e+00
3.656000000000000000e+03 3.088874816894531250e+00 -2.688306331634521484e+00 3.710033297538757324e-01 2.039069831371307373e-01 1.724731028079986572e-01 -3.686848655343055725e-02
3.657000000000000000e+03 3.030083894729614258e+00 2.501102447509765625e+00 -8.703918009996414185e-02 -5.654206871986389160e-01 -1.957379579544067383e-01 1.879880905151367188e+00
3.658000000000000000e+03 2.500105142593383789e+00 2.461704492568969727e+00 -1.399386227130889893e-01 -5.633572340011596680e-01 -2.109887599945068359e-01 1.833311557769775391e+00
3.659000000000000000e+03 8.602383613586425781e+00 -2.520568609237670898e+00 2.237741470336914062e+00 6.517968654632568359e+00 2.626713037490844727e+00 4.320765018463134766e+00
3.660000000000000000e+03 3.807708740234375000e+00 -2.680533409118652344e+00 5.654876828193664551e-01 3.399578630924224854e-01 2.716336548328399658e-01 1.070511341094970703e-01
3.661000000000000000e+03 4.135235309600830078e+00 -2.897573947906494141e+00 7.113169431686401367e-01 4.794242978096008301e-01 3.572223782539367676e-01 3.004049658775329590e-01
3.662000000000000000e+03 3.457573175430297852e+00 2.271598577499389648e+00 -2.994561195373535156e-01 -2.227559685707092285e-01 -1.566636264324188232e-01 1.910099029541015625e+00
3.663000000000000000e+03 2.742784500122070312e+00 2.620481729507446289e+00 1.633059978485107422e-02 -5.601907968521118164e-01 -1.631580591201782227e-01 1.786634564399719238e+00
3.664000000000000000e+03 5.835818099975585938e+01 1.626215744018554688e+01 8.557077050209045410e-01 2.480622529983520508e+00 1.000899076461791992e+00 1.426442742347717285e+00
3.665000000000000000e+03 4.111158847808837891e+00 2.090374946594238281e+00 -5.657200813293457031e-01 -1.311346143484115601e-01 -2.090564072132110596e-01 1.975174665451049805e+00
3.666000000000000000e+03 4.064021110534667969e+00 2.515557765960693359e+00 1.371745169162750244e-01 -1.449729055166244507e-01 -2.339517464861273766e-03 1.899494290351867676e+00
3.667000000000000000e+03 6.821978092193603516e+00 2.783538103103637695e+00 2.212588548660278320e+00 3.191675424575805664e+00 1.621279239654541016e+00 -4.265888929367065430e-01
3.668000000000000000e+03 6.459607124328613281e+00 2.424535274505615234e+00 1.026560306549072266e+00 1.836224675178527832e+00 8.588355183601379395e-01 4.165796339511871338e-01
3.669000000000000000e+03 7.872859954833984375e+00 2.065876483917236328e+00 8.269444108009338379e-01 5.114490032196044922e+00 1.782430410385131836e+00 -2.252470970153808594e+00
3.670000000000000000e+03 7.012658691406250000e+01 1.025485324859619141e+01 9.524756073951721191e-01 5.018648624420166016e+00 1.791337370872497559e+00 8.748174905776977539e-01
3.671000000000000000e+03 7.143287658691406250e+01 1.084402465820312500e+01 1.665946841239929199e+00 2.016708135604858398e+00 1.104796409606933594e+00 3.993752002716064453e-01
3.672000000000000000e+03 1.218062305450439453e+01 9.769156575202941895e-01 6.257898330688476562e+00 1.273368549346923828e+01 5.697474956512451172e+00 6.604400277137756348e-01
3.673000000000000000e+03 1.225748825073242188e+01 1.320920228958129883e+00 5.688847064971923828e+00 1.219204235076904297e+01 5.364266872406005859e+00 4.981665909290313721e-01
3.674000000000000000e+03 1.209561443328857422e+01 1.329670548439025879e+00 6.345378398895263672e+00 1.267678737640380859e+01 5.706649780273437500e+00 8.347079902887344360e-02
3.675000000000000000e+03 1.226392745971679688e+01 1.153847932815551758e+00 6.733947277069091797e+00 1.186997222900390625e+01 5.581175804138183594e+00 3.866047561168670654e-01
3.676000000000000000e+03 1.265236473083496094e+01 1.573204040527343750e+00 6.376296520233154297e+00 8.264985084533691406e+00 4.392384529113769531e+00 6.988101601600646973e-01
3.677000000000000000e+03 1.241765594482421875e+01 1.388362646102905273e+00 5.450386047363281250e+00 1.084452915191650391e+01 4.888474464416503906e+00 9.540282487869262695e-01
3.678000000000000000e+03 5.728993415832519531e+00 2.682206392288208008e+00 1.248351693153381348e+00 1.238070726394653320e+00 7.459267377853393555e-01 9.759209752082824707e-01
3.679000000000000000e+03 3.177034616470336914e+00 3.716213989257812500e+01 2.238267101347446442e-02 5.296050071716308594e+00 1.595529913902282715e+00 1.865099072456359863e-01
3.680000000000000000e+03 7.808989715576171875e+01 -3.588615417480468750e+01 -9.550457820296287537e-03 6.610580921173095703e+00 1.980309128761291504e+00 5.836399272084236145e-02
3.681000000000000000e+03 5.022223472595214844e+00 -3.148206949234008789e+00 1.110614776611328125e+00 9.238511323928833008e-01 6.103397607803344727e-01 8.219304680824279785e-01
3.682000000000000000e+03 7.617196083068847656e+00 -2.396467924118041992e+00 2.555916786193847656e+00 2.940894365310668945e+00 1.649043321609497070e+00 3.013631105422973633e+00
3.683000000000000000e+03 6.169448375701904297e+00 2.390280723571777344e+00 7.635090947151184082e-01 1.678944706916809082e+00 7.327361106872558594e-01 7.621361613273620605e-01
3.684000000000000000e+03 7.647138977050781250e+01 -3.335134506225585938e+01 4.435653612017631531e-02 6.548200607299804688e+00 1.977767229080200195e+00 1.211790740489959717e-01
3.685000000000000000e+03 8.765381813049316406e+00 -3.014180421829223633e+00 1.424321293830871582e+00 7.467172622680664062e+00 2.667448043823242188e+00 3.931293010711669922e+00
3.686000000000000000e+03 6.804618835449218750e+01 -1.658528298139572144e-01 -2.975912332534790039e+00 5.789850234985351562e+00 8.441812992095947266e-01 -1.978530175983905792e-02
3.687000000000000000e+03 7.715641021728515625e+01 -2.683811664581298828e+00 -2.021353989839553833e-01 9.526741981506347656e+00 2.797382116317749023e+00 1.587628483772277832e+00
3.688000000000000000e+03 7.017797088623046875e+01 -2.618307590484619141e+00 -3.178766012191772461e+00 4.669979095458984375e+00 4.473639726638793945e-01 -2.243740081787109375e+00
3.689000000000000000e+03 6.686318969726562500e+01 4.669788837432861328e+00 9.594569802284240723e-01 9.002423286437988281e+00 2.988564252853393555e+00 -5.017528533935546875e-01
3.690000000000000000e+03 4.673618316650390625e+01 -1.718918418884277344e+01 -3.609027341008186340e-02 3.372505187988281250e+00 1.000924468040466309e+00 -1.357256770133972168e+00
3.691000000000000000e+03 1.867630195617675781e+01 -1.095818042755126953e+01 5.135833621025085449e-01 3.541216135025024414e+00 1.216439843177795410e+00 -1.153043746948242188e+00
3.692000000000000000e+03 7.683480834960937500e+01 -8.514058113098144531e+00 2.689513564109802246e-01 8.920177459716796875e+00 2.756738662719726562e+00 1.624212384223937988e+00
3.693000000000000000e+03 6.148778915405273438e+01 5.312042236328125000e-01 -4.031238079071044922e+00 5.095613002777099609e+00 3.193126022815704346e-01 1.741032600402832031e+00
3.694000000000000000e+03 6.088684558868408203e+00 2.775649309158325195e+00 1.762712478637695312e+00 1.718535900115966797e+00 1.044374465942382812e+00 7.837957143783569336e-01
3.695000000000000000e+03 1.006062507629394531e+01 -2.343945503234863281e+00 2.825510799884796143e-01 1.509285736083984375e+01 4.612622261047363281e+00 3.130897998809814453e+00
3.696000000000000000e+03 1.001939773559570312e+01 -2.582735300064086914e+00 1.508633941411972046e-01 1.358927059173583984e+01 4.122040271759033203e+00 2.912130594253540039e+00
3.697000000000000000e+03 8.093275070190429688e+00 -2.338407754898071289e+00 2.679081916809082031e+00 4.203524112701416016e+00 2.064781904220581055e+00 3.663101434707641602e+00
3.698000000000000000e+03 7.692979335784912109e+00 -2.198564291000366211e+00 2.704308986663818359e+00 2.716398000717163086e+00 1.626212120056152344e+00 2.982182264328002930e+00
3.699000000000000000e+03 2.879099655151367188e+01 -1.365424728393554688e+01 -4.284616708755493164e-01 4.941675662994384766e+00 1.353964090347290039e+00 -9.879693984985351562e-01
3.700000000000000000e+03 7.028846740722656250e+01 -3.572569131851196289e+00 -2.761625528335571289e+00 4.027564525604248047e+00 3.797817230224609375e-01 -1.312108993530273438e+00
3.701000000000000000e+03 4.900378227233886719e+00 3.601228332519531250e+01 1.162267699837684631e-01 4.908671855926513672e+00 1.507469654083251953e+00 2.397852838039398193e-01
3.702000000000000000e+03 3.745237731933593750e+01 1.700733947753906250e+01 -1.534568548202514648e+00 6.647712707519531250e+00 1.533943295478820801e+00 4.948271811008453369e-01
3.703000000000000000e+03 5.868648147583007812e+01 1.768321418762207031e+01 1.142034411430358887e+00 2.881377696990966797e+00 1.207023620605468750e+00 1.182714700698852539e+00
3.704000000000000000e+03 2.595483303070068359e+00 3.834130525588989258e+00 1.004018187522888184e+00 -6.815463900566101074e-01 9.674154967069625854e-02 1.375473380088806152e+00
3.705000000000000000e+03 6.365047454833984375e+00 3.304430723190307617e+00 2.770101547241210938e+00 2.847110748291015625e+00 1.685163736343383789e+00 1.925606578588485718e-01
3.706000000000000000e+03 7.287288665771484375e+00 2.850679636001586914e+00 2.435497999191284180e+00 4.805879116058349609e+00 2.172413110733032227e+00 -1.390022277832031250e+00
3.707000000000000000e+03 6.367636680603027344e+00 6.852808952331542969e+00 4.239277839660644531e+00 5.622028827667236328e+00 2.958391904830932617e+00 -3.613060712814331055e+00
3.708000000000000000e+03 7.606268310546875000e+01 -1.212911128997802734e+01 8.947476148605346680e-01 8.800557136535644531e+00 2.908591508865356445e+00 1.058709979057312012e+00
3.709000000000000000e+03 2.603295326232910156e+00 -3.754189014434814453e+00 3.797488510608673096e-01 2.937675118446350098e-01 2.020549029111862183e-01 1.278560161590576172e-01
3.710000000000000000e+03 1.034659194946289062e+01 -3.617393016815185547e+00 -4.432529509067535400e-01 1.161853599548339844e+01 3.352584838867187500e+00 1.283734440803527832e+00
3.711000000000000000e+03 9.406667709350585938e+00 -3.225342750549316406e+00 4.619510173797607422e-01 1.002369213104248047e+01 3.145693063735961914e+00 3.347632408142089844e+00
3.712000000000000000e+03 6.343996047973632812e+00 -2.765419006347656250e+00 1.746555924415588379e+00 1.476662278175354004e+00 9.669654369354248047e-01 1.591156244277954102e+00
3.713000000000000000e+03 2.954454040527343750e+01 -1.300967693328857422e+01 -2.906760573387145996e-01 4.555836677551269531e+00 1.279548287391662598e+00 -1.160042881965637207e+00
3.714000000000000000e+03 1.648712539672851562e+01 -9.702003479003906250e+00 1.503040939569473267e-01 4.629634380340576172e+00 1.433981537818908691e+00 -1.552332401275634766e+00
3.715000000000000000e+03 4.159607887268066406e+00 6.522188186645507812e+00 2.683288097381591797e+00 1.538650035858154297e+00 1.266581416130065918e+00 -1.594016909599304199e+00
3.716000000000000000e+03 5.474085235595703125e+01 -3.245830535888671875e+01 2.509924173355102539e-01 4.679654121398925781e+00 1.479193925857543945e+00 1.681535094976425171e-01
3.717000000000000000e+03 7.029813385009765625e+01 1.935966682434082031e+01 9.872341156005859375e-02 6.611028671264648438e+00 2.012925624847412109e+00 6.939018517732620239e-02
3.718000000000000000e+03 7.099449157714843750e+01 -3.446021270751953125e+01 1.727688014507293701e-01 5.987778663635253906e+00 1.848164200782775879e+00 1.391863971948623657e-01
3.719000000000000000e+03 4.934917068481445312e+01 -2.190466499328613281e+01 2.920275926589965820e-01 2.674436330795288086e+00 8.899391889572143555e-01 -7.369064688682556152e-01
3.720000000000000000e+03 5.902317047119140625e+01 -7.159087657928466797e+00 9.172447919845581055e-01 6.990886688232421875e+00 2.372439384460449219e+00 7.078881859779357910e-01
3.721000000000000000e+03 5.934242630004882812e+01 -9.258176803588867188e+00 2.838573753833770752e-01 8.026416778564453125e+00 2.493082284927368164e+00 1.343647241592407227e+00
3.722000000000000000e+03 6.009065246582031250e+01 -8.668340682983398438e+00 4.805388748645782471e-01 8.209289550781250000e+00 2.606948614120483398e+00 1.228943943977355957e+00
3.723000000000000000e+03 4.601978302001953125e+01 -1.820401382446289062e+01 -2.452030181884765625e-01 4.217159271240234375e+00 1.191586852073669434e+00 -1.549491882324218750e+00
3.724000000000000000e+03 1.468068695068359375e+01 -4.076122283935546875e+00 1.695080995559692383e+00 6.637650966644287109e+00 2.499819517135620117e+00 -3.268346309661865234e+00
3.725000000000000000e+03 7.385058403015136719e+00 2.459445953369140625e+00 1.580281138420104980e+00 4.132723808288574219e+00 1.713901519775390625e+00 -1.548220634460449219e+00
3.726000000000000000e+03 7.498721599578857422e+00 2.706676244735717773e+00 2.067446947097778320e+00 5.410409450531005859e+00 2.243356943130493164e+00 -1.703590035438537598e+00
3.727000000000000000e+03 7.030648803710937500e+01 1.564701080322265625e+01 1.118445277214050293e+00 6.487927436828613281e+00 2.281911849975585938e+00 8.290061950683593750e-01
3.728000000000000000e+03 4.722610473632812500e+00 -3.591350317001342773e+00 9.954640269279479980e-01 9.402706027030944824e-01 5.807203650474548340e-01 7.687281370162963867e-01
3.729000000000000000e+03 7.136785125732421875e+01 1.592566776275634766e+01 1.033901929855346680e+00 6.086678028106689453e+00 2.136173963546752930e+00 4.221251308917999268e-01
3.730000000000000000e+03 6.424345493316650391e+00 -2.402420282363891602e+00 1.754250764846801758e+00 1.188837051391601562e+00 8.829263448715209961e-01 1.431464195251464844e+00
3.731000000000000000e+03 6.572315692901611328e+00 -2.649157524108886719e+00 1.865552663803100586e+00 1.498587965965270996e+00 1.009242177009582520e+00 1.694523453712463379e+00
3.732000000000000000e+03 7.623291015625000000e+01 -1.296311283111572266e+01 1.090861558914184570e+00 8.510330200195312500e+00 2.880357503890991211e+00 4.295898079872131348e-01
3.733000000000000000e+03 1.648182106018066406e+01 1.929279327392578125e+01 -2.206222772598266602e+00 1.683752536773681641e+00 -1.567410677671432495e-01 3.660108447074890137e-01
3.734000000000000000e+03 5.559234237670898438e+01 1.400428581237792969e+01 1.196317672729492188e+00 5.178289413452148438e+00 1.912382125854492188e+00 1.910527586936950684e+00
3.735000000000000000e+03 6.201129531860351562e+01 -1.485064220428466797e+01 -4.071007370948791504e-01 6.422319412231445312e+00 1.804565548896789551e+00 -3.009915947914123535e-01
3.736000000000000000e+03 6.844505310058593750e+00 4.384543418884277344e+00 5.119654655456542969e+00 4.972932338714599609e+00 3.027776241302490234e+00 -1.137895107269287109e+00
3.737000000000000000e+03 6.952490234375000000e+01 2.049637794494628906e+01 -9.725937247276306152e-02 6.708349227905273438e+00 1.983327031135559082e+00 -1.892756670713424683e-01
3.738000000000000000e+03 9.594326019287109375e+00 -3.730147123336791992e+00 -5.493058264255523682e-02 9.722631454467773438e+00 2.900310039520263672e+00 2.612839937210083008e+00
3.739000000000000000e+03 2.953532028198242188e+01 -1.453705501556396484e+01 -5.019010305404663086e-01 4.358696460723876953e+00 1.157038569450378418e+00 -1.120664477348327637e+00
3.740000000000000000e+03 6.930444335937500000e+01 1.139812660217285156e+01 2.229905605316162109e+00 6.875020503997802734e+00 2.731477737426757812e+00 1.205754637718200684e+00
3.741000000000000000e+03 4.246088027954101562e+00 -4.161693096160888672e+00 8.237438797950744629e-01 1.044416546821594238e+00 5.604481101036071777e-01 7.663424015045166016e-01
3.742000000000000000e+03 9.139778137207031250e+00 -4.000740051269531250e+00 2.254505604505538940e-01 8.352936744689941406e+00 2.573516130447387695e+00 2.857645034790039062e+00
3.743000000000000000e+03 5.419590950012207031e+00 -3.739811658859252930e+00 1.229206085205078125e+00 1.442949056625366211e+00 8.016465306282043457e-01 1.254045009613037109e+00
3.744000000000000000e+03 4.908873558044433594e+00 -3.872428894042968750e+00 1.046389222145080566e+00 1.278689742088317871e+00 6.975237131118774414e-01 1.022414684295654297e+00
3.745000000000000000e+03 1.299937343597412109e+01 -2.699591255187988281e+01 -2.089587450027465820e-01 4.019639015197753906e+00 1.143204092979431152e+00 8.081948757171630859e-02
3.746000000000000000e+03 2.997195625305175781e+01 -2.189853668212890625e+01 -7.404936850070953369e-02 3.720303535461425781e+00 1.093876242637634277e+00 -5.872589349746704102e-01
3.747000000000000000e+03 3.081330680847167969e+01 -2.315950012207031250e+01 -1.060094907879829407e-01 3.605586767196655273e+00 1.049873232841491699e+00 -5.744471549987792969e-01
3.748000000000000000e+03 1.512446498870849609e+01 -9.649353981018066406e+00 -2.267215996980667114e-01 5.348311901092529297e+00 1.536477088928222656e+00 -1.319681286811828613e+00
3.749000000000000000e+03 4.785345840454101562e+01 2.423548507690429688e+01 5.320043861865997314e-02 4.660303592681884766e+00 1.414051294326782227e+00 -9.888440370559692383e-02
3.750000000000000000e+03 4.519749069213867188e+01 -1.901371192932128906e+01 -3.463425040245056152e-01 4.941483974456787109e+00 1.378542423248291016e+00 -1.524940133094787598e+00
3.751000000000000000e+03 4.287908172607421875e+01 -2.568876075744628906e+01 -1.402276605367660522e-01 4.346762180328369141e+00 1.261960268020629883e+00 -2.098319530487060547e-01
3.752000000000000000e+03 4.666921615600585938e+01 -2.098873901367187500e+01 -1.584831625223159790e-01 3.794387340545654297e+00 1.090771317481994629e+00 -1.190202355384826660e+00
3.753000000000000000e+03 3.129752731323242188e+01 -1.548924922943115234e+01 -3.714237213134765625e-01 3.381553888320922852e+00 9.030390977859497070e-01 -1.178794384002685547e+00
3.754000000000000000e+03 3.208892059326171875e+01 -1.605613136291503906e+01 -3.874976634979248047e-01 3.008854389190673828e+00 7.864070534706115723e-01 -1.026563644409179688e+00
3.755000000000000000e+03 3.698901367187500000e+01 -2.655834579467773438e+01 1.760857999324798584e-01 3.769294261932373047e+00 1.183614015579223633e+00 3.912921994924545288e-02
3.756000000000000000e+03 9.338430404663085938e+00 1.419561195373535156e+01 -2.527126312255859375e+00 6.687097072601318359e+00 1.247991204261779785e+00 -7.562673091888427734e-01
3.757000000000000000e+03 4.366731643676757812e+00 1.009302043914794922e+01 2.905042469501495361e-01 4.063349246978759766e+00 1.306156039237976074e+00 -3.373226404190063477e+00
3.758000000000000000e+03 5.250044631958007812e+01 2.395869064331054688e+01 -1.268549412488937378e-01 5.366874217987060547e+00 1.572005748748779297e+00 2.004462182521820068e-01
3.759000000000000000e+03 4.030044937133789062e+01 -2.915449714660644531e+01 2.026845514774322510e-02 3.914076805114746094e+00 1.180303573608398438e+00 -1.755792647600173950e-01
3.760000000000000000e+03 4.268533325195312500e+01 -2.785674667358398438e+01 -4.559934511780738831e-02 4.006694316864013672e+00 1.188328504562377930e+00 -2.236686348915100098e-01
3.761000000000000000e+03 5.475181102752685547e+00 -4.343339443206787109e+00 1.090293288230895996e+00 1.831807374954223633e+00 8.766301870346069336e-01 1.427905917167663574e+00
3.762000000000000000e+03 5.286740779876708984e+00 -4.696769714355468750e+00 9.439331889152526855e-01 1.957365632057189941e+00 8.703896403312683105e-01 1.374375939369201660e+00
3.763000000000000000e+03 1.398263263702392578e+01 -2.511653518676757812e+01 -2.306590676307678223e-01 4.097834587097167969e+00 1.160152673721313477e+00 8.036261796951293945e-02
3.764000000000000000e+03 8.707614898681640625e+00 -4.268373012542724609e+00 4.058283269405364990e-01 7.190538883209228516e+00 2.278910160064697266e+00 2.838053703308105469e+00
3.765000000000000000e+03 9.725508689880371094e+00 -4.297186374664306641e+00 -2.642839550971984863e-01 9.353468894958496094e+00 2.726755619049072266e+00 2.086295604705810547e+00
3.766000000000000000e+03 7.247875213623046875e+01 1.631041526794433594e+01 9.562886953353881836e-01 5.888460159301757812e+00 2.053424596786499023e+00 8.195701241493225098e-02
3.767000000000000000e+03 2.788561630249023438e+01 -2.243161010742187500e+01 -2.428829818964004517e-01 4.019681453704833984e+00 1.133039474487304688e+00 -5.300762653350830078e-01
3.768000000000000000e+03 2.724352836608886719e+01 -2.436946868896484375e+01 -1.719855517148971558e-01 3.978046417236328125e+00 1.141818284988403320e+00 -4.464351832866668701e-01
3.769000000000000000e+03 7.222465515136718750e+01 2.170053291320800781e+01 7.094773650169372559e-02 6.402543544769287109e+00 1.942047357559204102e+00 -4.394124075770378113e-02
3.770000000000000000e+03 7.445614624023437500e+01 1.760383987426757812e+01 5.367166996002197266e-01 6.238391399383544922e+00 2.032532453536987305e+00 -1.837022900581359863e-01
3.771000000000000000e+03 1.406353950500488281e+01 -9.541200637817382812e+00 -4.532122313976287842e-01 5.765038967132568359e+00 1.593547940254211426e+00 -1.089336991310119629e+00
3.772000000000000000e+03 1.785485649108886719e+01 -1.560274791717529297e+01 3.994396328926086426e-02 4.243434906005859375e+00 1.285013556480407715e+00 -3.004378676414489746e-01
3.773000000000000000e+03 6.040110111236572266e+00 -4.347096920013427734e+00 1.131986498832702637e+00 2.455468177795410156e+00 1.076236367225646973e+00 1.761893272399902344e+00
3.774000000000000000e+03 2.337842941284179688e+01 -2.156187820434570312e+01 -2.928942441940307617e-01 4.298460960388183594e+00 1.201670050621032715e+00 -2.946894466876983643e-01
3.775000000000000000e+03 2.401477241516113281e+01 -2.281558227539062500e+01 -3.090763688087463379e-01 4.318914413452148438e+00 1.202951312065124512e+00 -2.570815384387969971e-01
3.776000000000000000e+03 7.065584659576416016e+00 -2.816919136047363281e+01 -8.703589439392089844e-02 3.760307073593139648e+00 1.101981401443481445e+00 1.401416063308715820e-01
3.777000000000000000e+03 4.879353523254394531e+00 -4.455530166625976562e+00 9.415254592895507812e-01 1.525843620300292969e+00 7.402107119560241699e-01 1.131942033767700195e+00
3.778000000000000000e+03 2.829596710205078125e+01 2.349306488037109375e+01 -9.748883247375488281e-01 3.626653432846069336e+00 7.955295443534851074e-01 -3.595864474773406982e-01
3.779000000000000000e+03 2.468103981018066406e+01 -2.446089172363281250e+01 -2.515522241592407227e-01 4.114468574523925781e+00 1.158874869346618652e+00 -3.652989566326141357e-01
3.780000000000000000e+03 9.838908195495605469e+00 -4.584398746490478516e+00 -5.042960643768310547e-01 9.224617958068847656e+00 2.616096496582031250e+00 1.674871802330017090e+00
3.781000000000000000e+03 1.016112422943115234e+01 -4.497407436370849609e+00 -5.601043701171875000e-01 9.725057601928710938e+00 2.749486207962036133e+00 1.265286087989807129e+00
3.782000000000000000e+03 5.199174880981445312e+01 2.768524932861328125e+01 -4.470971971750259399e-02 5.103937625885009766e+00 1.517768383026123047e+00 9.014475345611572266e-02
3.783000000000000000e+03 1.182546520233154297e+01 -2.163166236877441406e+01 -3.075307309627532959e-01 4.134726524353027344e+00 1.148158788681030273e+00 1.598674207925796509e-01
3.784000000000000000e+03 9.516382217407226562e+00 -4.920325279235839844e+00 -4.053457677364349365e-01 8.312421798706054688e+00 2.372122764587402344e+00 1.933642864227294922e+00
3.785000000000000000e+03 7.236802673339843750e+01 -2.560963630676269531e+01 3.111145496368408203e-01 5.998826980590820312e+00 1.892982482910156250e+00 4.762020111083984375e-01
3.786000000000000000e+03 1.435613441467285156e+01 -8.245512962341308594e+00 -3.048559129238128662e-01 6.079381942749023438e+00 1.732357740402221680e+00 -1.535263776779174805e+00
3.787000000000000000e+03 9.600148200988769531e+00 -5.247946739196777344e+00 -5.000150203704833984e-01 8.232169151306152344e+00 2.319646120071411133e+00 1.709857583045959473e+00
3.788000000000000000e+03 3.115224456787109375e+01 -1.652116012573242188e+01 -5.884618163108825684e-01 3.497801303863525391e+00 8.728018999099731445e-01 -1.032431006431579590e+00
3.789000000000000000e+03 6.377038002014160156e+00 -6.720110893249511719e+00 2.140223681926727295e-01 3.740613222122192383e+00 1.186390638351440430e+00 1.738579750061035156e+00
3.790000000000000000e+03 1.362059020996093750e+01 -8.804968833923339844e+00 -5.646005868911743164e-01 6.207801342010498047e+00 1.692960262298583984e+00 -1.133117198944091797e+00
3.791000000000000000e+03 8.542016029357910156e+00 -5.117377281188964844e+00 7.930502295494079590e-02 6.656143665313720703e+00 2.020634651184082031e+00 2.295737266540527344e+00
3.792000000000000000e+03 1.390132617950439453e+01 -1.497794723510742188e+01 -4.116592705249786377e-01 4.671418666839599609e+00 1.277927875518798828e+00 -2.283843755722045898e-01
3.793000000000000000e+03 1.114536571502685547e+01 -6.815044879913330078e+00 -8.730941414833068848e-01 7.789585113525390625e+00 2.074947357177734375e+00 5.264628306031227112e-02
3.794000000000000000e+03 8.280686378479003906e+00 -2.018054199218750000e+01 -2.910217046737670898e-01 3.929097414016723633e+00 1.091422796249389648e+00 3.443261086940765381e-01
3.795000000000000000e+03 9.167860031127929688e+00 -4.933676719665527344e+00 -1.653149425983428955e-01 7.657726764678955078e+00 2.247723579406738281e+00 2.207991838455200195e+00
3.796000000000000000e+03 1.016871643066406250e+01 1.986689186096191406e+01 -1.723454713821411133e+00 4.555954933166503906e+00 8.497500419616699219e-01 2.419634163379669189e-01
3.797000000000000000e+03 1.275244331359863281e+01 -8.565378189086914062e+00 -7.127191424369812012e-01 6.576448917388916016e+00 1.759118914604187012e+00 -8.334444165229797363e-01
3.798000000000000000e+03 6.220170021057128906e+00 1.710157966613769531e+01 -1.498577952384948730e+00 5.692170619964599609e+00 1.258077740669250488e+00 -1.230061292648315430e+00
3.799000000000000000e+03 8.155525207519531250e+00 -5.238331794738769531e+00 2.518072724342346191e-01 5.757776737213134766e+00 1.802875161170959473e+00 2.352890491485595703e+00
3.800000000000000000e+03 8.694198608398437500e+00 -5.537077426910400391e+00 -1.179093644022941589e-01 6.647414207458496094e+00 1.958851456642150879e+00 2.094514131546020508e+00
3.801000000000000000e+03 6.630740642547607422e+00 2.426873779296875000e+01 -5.204935669898986816e-01 4.984451293945312500e+00 1.339187264442443848e+00 2.026667743921279907e-01
3.802000000000000000e+03 9.174042701721191406e+00 -5.440995693206787109e+00 -3.254863023757934570e-01 7.441216468811035156e+00 2.134719133377075195e+00 1.896782517433166504e+00
3.803000000000000000e+03 9.607835769653320312e+00 -7.848670959472656250e+00 -7.563282847404479980e-01 6.442780971527099609e+00 1.705935716629028320e+00 9.786931276321411133e-01
3.804000000000000000e+03 1.068853855133056641e+01 -1.485235691070556641e+01 -5.886695981025695801e-01 4.660844326019287109e+00 1.221652507781982422e+00 2.443194091320037842e-01
3.805000000000000000e+03 1.317836570739746094e+01 -1.231740951538085938e+01 -5.887431502342224121e-01 5.196779727935791016e+00 1.382411003112792969e+00 -3.813585638999938965e-01
3.806000000000000000e+03 1.202469539642333984e+01 -1.171126651763916016e+01 -7.446705698966979980e-01 5.457592964172363281e+00 1.413876652717590332e+00 -1.377566009759902954e-01
3.807000000000000000e+03 1.039891147613525391e+01 -1.002938747406005859e+01 -8.212475776672363281e-01 5.815237998962402344e+00 1.498197197914123535e+00 3.965736329555511475e-01
3.808000000000000000e+03 9.900979042053222656e+00 -9.946446865797042847e-03 3.956655120849609375e+01 6.578706741333007812e+00 1.384357738494873047e+01 1.315792274475097656e+01
3.809000000000000000e+03 9.904818534851074219e+00 -2.906142920255661011e-02 3.658905410766601562e+01 1.980590629577636719e+01 1.691848754882812500e+01 2.541380310058593750e+01
3.810000000000000000e+03 9.912311553955078125e+00 -4.706101492047309875e-02 3.369954681396484375e+01 3.247786712646484375e+01 1.985322380065917969e+01 2.984316062927246094e+01
3.811000000000000000e+03 9.923169136047363281e+00 -6.325436383485794067e-02 2.911879730224609375e+01 4.604146957397460938e+01 2.254808044433593750e+01 3.123912429809570312e+01
3.812000000000000000e+03 9.936976432800292969e+00 -7.701997458934783936e-02 2.477587509155273438e+01 5.789901351928710938e+01 2.480246543884277344e+01 2.942845153808593750e+01
3.813000000000000000e+03 9.953202247619628906e+00 -8.782950043678283691e-02 2.087328529357910156e+01 6.847311401367187500e+01 2.680392074584960938e+01 2.468933486938476562e+01
3.814000000000000000e+03 9.971223831176757812e+00 -9.526807069778442383e-02 1.833959007263183594e+01 7.569458007812500000e+01 2.821025085449218750e+01 1.818712806701660156e+01
3.815000000000000000e+03 9.990350723266601562e+00 -9.905018657445907593e-02 1.803875923156738281e+01 7.991711425781250000e+01 2.938676071166992188e+01 1.024309825897216797e+01
3.816000000000000000e+03 1.000984764099121094e+01 -9.903068840503692627e-02 1.941525840759277344e+01 8.035182952880859375e+01 2.993012619018554688e+01 2.774968862533569336e+00
3.817000000000000000e+03 1.002896595001220703e+01 -9.521032124757766724e-02 2.353233909606933594e+01 7.798854064941406250e+01 3.045626258850097656e+01 -3.948907375335693359e+00
3.818000000000000000e+03 1.004697322845458984e+01 -8.773572742938995361e-02 2.784915161132812500e+01 7.329399871826171875e+01 3.034294509887695312e+01 -8.516795158386230469e+00
3.819000000000000000e+03 1.006317710876464844e+01 -7.689376920461654663e-02 3.398172378540039062e+01 6.759021759033203125e+01 3.047158241271972656e+01 -1.086613655090332031e+01
3.820000000000000000e+03 1.007695674896240234e+01 -6.310057640075683594e-02 3.869272994995117188e+01 6.172806549072265625e+01 3.012623786926269531e+01 -1.110305690765380859e+01
3.821000000000000000e+03 1.008778285980224609e+01 -4.688554257154464722e-02 4.345095443725585938e+01 5.659042739868164062e+01 3.001241493225097656e+01 -9.152859687805175781e+00
3.822000000000000000e+03 1.009523963928222656e+01 -2.887100912630558014e-02 4.662577438354492188e+01 5.326465225219726562e+01 2.996712875366210938e+01 -5.970364570617675781e+00
3.823000000000000000e+03 1.009904003143310547e+01 -9.748386219143867493e-03 4.806483459472656250e+01 5.055789184570312500e+01 2.958681869506835938e+01 -1.681277275085449219e+00
3.824000000000000000e+03 1.009904003143310547e+01 9.748386219143867493e-03 4.868889617919921875e+01 5.194919967651367188e+01 3.019142913818359375e+01 2.790992736816406250e+00
3.825000000000000000e+03 1.009523963928222656e+01 2.887100912630558014e-02 4.603056335449218750e+01 5.205978012084960938e+01 2.942710304260253906e+01 7.521492481231689453e+00
3.826000000000000000e+03 1.008778285980224609e+01 4.688554257154464722e-02 4.396057891845703125e+01 5.821920394897460938e+01 3.065393447875976562e+01 1.051470661163330078e+01
3.827000000000000000e+03 1.007695674896240234e+01 6.310057640075683594e-02 3.700754547119140625e+01 6.117611694335937500e+01 2.945509910583496094e+01 1.346929836273193359e+01
3.828000000000000000e+03 1.006317710876464844e+01 7.689376920461654663e-02 3.327753067016601562e+01 6.926508331298828125e+01 3.076278495788574219e+01 1.264523506164550781e+01
3.829000000000000000e+03 1.004697322845458984e+01 8.773572742938995361e-02 2.416324043273925781e+01 7.342727661132812500e+01 2.927715492248535156e+01 1.104801940917968750e+01
3.830000000000000000e+03 1.002896595001220703e+01 9.521032124757766724e-02 2.059143829345703125e+01 7.909500122070312500e+01 2.990593147277832031e+01 5.981700897216796875e+00
3.831000000000000000e+03 1.000984764099121094e+01 9.903068840503692627e-02 1.391434764862060547e+01 8.042942810058593750e+01 2.830313110351562500e+01 -5.030738115310668945e-01
3.832000000000000000e+03 9.990350723266601562e+00 9.905018657445907593e-02 1.220597267150878906e+01 7.997552490234375000e+01 2.765444946289062500e+01 -8.069792747497558594e+00
3.833000000000000000e+03 9.971223831176757812e+00 9.526807069778442383e-02 1.103890419006347656e+01 7.545614624023437500e+01 2.594851493835449219e+01 -1.573195934295654297e+01
3.834000000000000000e+03 9.953202247619628906e+00 8.782950043678283691e-02 1.230123996734619141e+01 6.773954772949218750e+01 2.401223754882812500e+01 -2.247611618041992188e+01
3.835000000000000000e+03 9.936976432800292969e+00 7.701997458934783936e-02 1.505938053131103516e+01 5.791004943847656250e+01 2.189082908630371094e+01 -2.697524642944335938e+01
3.836000000000000000e+03 9.923169136047363281e+00 6.325436383485794067e-02 1.824242973327636719e+01 4.534542846679687500e+01 1.907635879516601562e+01 -2.924444580078125000e+01
3.837000000000000000e+03 9.912311553955078125e+00 4.706101492047309875e-02 2.200751304626464844e+01 3.297954177856445312e+01 1.649611663818359375e+01 -2.822935867309570312e+01
3.838000000000000000e+03 9.904818534851074219e+00 2.906142920255661011e-02 2.427678298950195312e+01 1.947659492492675781e+01 1.312601280212402344e+01 -2.421773529052734375e+01
3.839000000000000000e+03 9.900979042053222656e+00 9.946446865797042847e-03 2.741741371154785156e+01 7.419798851013183594e+00 1.045116424560546875e+01 -1.270418167114257812e+01
