# el_label, x, y, sXX, sYY, sZZ, sXY
1.000000000000000000e+00 1.478255176544189453e+01 1.125994801521301270e+00 -3.366318047046661377e-01 -1.506348371505737305e+00 -5.528940558433532715e-01 -8.274464011192321777e-01
2.000000000000000000e+00 1.406890583038330078e+01 1.073610067367553711e+00 -8.249279856681823730e-01 -5.803462862968444824e-01 -4.215822815895080566e-01 -1.651631593704223633e+00
3.000000000000000000e+00 1.411068916320800781e+01 3.298048675060272217e-01 -1.059618830680847168e+00 -3.141965270042419434e-01 -4.121446013450622559e-01 -7.525421380996704102e-01
4.000000000000000000e+00 1.334397411346435547e+01 1.023863434791564941e+00 -1.283976674079895020e+00 1.365141421556472778e-01 -3.442387580871582031e-01 -1.784047961235046387e+00
5.000000000000000000e+00 1.484494400024414062e+01 3.804935514926910400e-01 -1.738539785146713257e-01 -2.651743590831756592e-01 -1.317085027694702148e-01 -2.152409255504608154e-01
6.000000000000000000e+00 1.336514949798583984e+01 2.817863523960113525e-01 -2.492765903472900391e+00 1.571547091007232666e-01 -7.006833553314208984e-01 -8.403010368347167969e-01
7.000000000000000000e+00 1.038163661956787109e+01 3.719484806060791016e-01 -7.254308223724365234e+00 5.064285546541213989e-02 -2.161099672317504883e+00 1.737171858549118042e-01
8.000000000000000000e+00 1.112833786010742188e+01 3.352923989295959473e-01 -6.632170200347900391e+00 2.139670848846435547e-01 -1.925460934638977051e+00 -9.478960186243057251e-02
9.000000000000000000e+00 1.187404060363769531e+01 3.023687005043029785e-01 -5.481461048126220703e+00 1.116639822721481323e-01 -1.610939025878906250e+00 -4.054086804389953613e-01
1.000000000000000000e+01 1.187335777282714844e+01 1.043116807937622070e+00 -2.965457439422607422e+00 6.482762694358825684e-01 -6.951543092727661133e-01 -1.555330395698547363e+00
1.100000000000000000e+01 1.261872673034667969e+01 2.733090519905090332e-01 -3.992168664932250977e+00 9.642589092254638672e-02 -1.168722867965698242e+00 -5.637919306755065918e-01
1.200000000000000000e+01 1.261125278472900391e+01 1.014356493949890137e+00 -2.094242811203002930e+00 2.338172942399978638e-01 -5.581276416778564453e-01 -1.960608124732971191e+00
1.300000000000000000e+01 1.039453697204589844e+01 1.112098097801208496e+00 -3.763694047927856445e+00 6.006625890731811523e-01 -9.489094614982604980e-01 -2.529054284095764160e-01
1.400000000000000000e+01 1.113444709777832031e+01 1.075741291046142578e+00 -3.516612768173217773e+00 7.055851221084594727e-01 -8.433083295822143555e-01 -9.436090588569641113e-01
1.500000000000000000e+01 9.623786926269531250e+00 3.900898993015289307e-01 -7.168272972106933594e+00 5.363525077700614929e-02 -2.134391307830810547e+00 2.906827330589294434e-01
1.600000000000000000e+01 8.869092941284179688e+00 1.130121707916259766e+00 -3.650599479675292969e+00 2.736217677593231201e-01 -1.013093352317810059e+00 9.673579931259155273e-01
1.700000000000000000e+01 9.639455795288085938e+00 1.130089879035949707e+00 -3.810379981994628906e+00 3.945281207561492920e-01 -1.024755597114562988e+00 5.044795870780944824e-01
1.800000000000000000e+01 6.556201934814453125e+00 1.130103111267089844e+00 -2.261039018630981445e+00 -1.327053904533386230e-01 -7.181233167648315430e-01 1.094492793083190918e+00
1.900000000000000000e+01 7.314821243286132812e+00 3.901119828224182129e-01 -4.593792438507080078e+00 -2.547902800142765045e-02 -1.385781407356262207e+00 4.872766733169555664e-01
2.000000000000000000e+01 4.234930038452148438e+00 3.901281952857971191e-01 -1.469960212707519531e+00 -4.285833239555358887e-02 -4.538455605506896973e-01 2.638560831546783447e-01
2.100000000000000000e+01 5.005080699920654297e+00 3.903138041496276855e-01 -2.074133872985839844e+00 -9.158506058156490326e-03 -6.249877214431762695e-01 3.184746801853179932e-01
2.200000000000000000e+01 2.698928356170654297e+00 1.130043506622314453e+00 -4.942596852779388428e-01 -9.509049355983734131e-02 -1.768050491809844971e-01 4.420338571071624756e-01
2.300000000000000000e+01 2.694541215896606445e+00 3.900435268878936768e-01 -5.799304246902465820e-01 -3.117062523961067200e-02 -1.833303123712539673e-01 1.706819385290145874e-01
2.400000000000000000e+01 1.927357912063598633e+00 1.130177497863769531e+00 -2.881504297256469727e-01 -1.164199411869049072e-01 -1.213711127638816833e-01 3.281093835830688477e-01
2.500000000000000000e+01 1.924224138259887695e+00 3.901774585247039795e-01 -2.822183370590209961e-01 -2.032270841300487518e-02 -9.076230973005294800e-02 1.174765080213546753e-01
2.600000000000000000e+01 1.154332518577575684e+00 3.901924192905426025e-01 -9.433761239051818848e-02 -3.247392922639846802e-02 -3.804346174001693726e-02 6.242207437753677368e-02
2.700000000000000000e+01 3.854947686195373535e-01 1.130104899406433105e+00 -3.158381581306457520e-02 -8.640664070844650269e-02 -3.539713844656944275e-02 6.077003106474876404e-02
2.800000000000000000e+01 3.848679959774017334e-01 3.901049494743347168e-01 -1.554890349507331848e-02 -1.385833416134119034e-02 -8.822171017527580261e-03 1.447953097522258759e-02
2.900000000000000000e+01 3.464860916137695312e+00 3.899480998516082764e-01 -9.782016277313232422e-01 -7.982992567121982574e-03 -2.958553731441497803e-01 2.117572873830795288e-01
3.000000000000000000e+01 4.241824626922607422e+00 1.130128264427185059e+00 -1.061094284057617188e+00 -9.955000877380371094e-02 -3.481932878494262695e-01 6.788908243179321289e-01
3.100000000000000000e+01 5.775665760040283203e+00 3.902668058872222900e-01 -2.790707826614379883e+00 -4.814602807164192200e-02 -8.516561388969421387e-01 3.766186833381652832e-01
3.200000000000000000e+01 5.785067081451416016e+00 1.130266785621643066e+00 -1.821340560913085938e+00 -1.215829625725746155e-01 -5.828770399093627930e-01 9.677796363830566406e-01
3.300000000000000000e+01 6.545547008514404297e+00 3.901031017303466797e-01 -3.638293027877807617e+00 -1.705367118120193481e-02 -1.096603989601135254e+00 4.448165595531463623e-01
3.400000000000000000e+01 8.084894180297851562e+00 3.901273906230926514e-01 -5.590782165527343750e+00 2.205375581979751587e-02 -1.670618534088134766e+00 4.907693564891815186e-01
3.500000000000000000e+01 7.326729297637939453e+00 1.130111932754516602e+00 -2.741349220275878906e+00 -6.908858567476272583e-02 -8.431313633918762207e-01 1.217893242835998535e+00
3.600000000000000000e+01 8.854677200317382812e+00 3.901217579841613770e-01 -6.491362571716308594e+00 5.699599161744117737e-02 -1.930309891700744629e+00 4.070205986499786377e-01
3.700000000000000000e+01 8.098055839538574219e+00 1.130127429962158203e+00 -3.228862285614013672e+00 9.620378166437149048e-02 -9.397975802421569824e-01 1.183171868324279785e+00
3.800000000000000000e+01 5.013228416442871094e+00 1.130313754081726074e+00 -1.402096033096313477e+00 -1.370052248239517212e-01 -4.617303907871246338e-01 8.161659240722656250e-01
3.900000000000000000e+01 3.470501661300659180e+00 1.129948139190673828e+00 -7.474955916404724121e-01 -1.060774698853492737e-01 -2.560719251632690430e-01 5.691545605659484863e-01
4.000000000000000000e+01 1.156212806701660156e+00 1.130192399024963379e+00 -1.310895085334777832e-01 -1.261175870895385742e-01 -7.716213166713714600e-02 1.860267519950866699e-01
4.100000000000000000e+01 8.742475509643554688e+00 -3.898920118808746338e-01 -1.865230351686477661e-01 5.553538212552666664e-04 -5.579030513763427734e-02 -8.004327304661273956e-03
4.200000000000000000e+01 9.575103759765625000e+00 -3.899093866348266602e-01 -1.975021660327911377e-01 4.474584013223648071e-03 -5.790827423334121704e-02 -1.981242327019572258e-03
4.300000000000000000e+01 7.909454822540283203e+00 -3.897323310375213623e-01 -1.673092097043991089e-01 1.281305099837481976e-03 -4.980837181210517883e-02 -9.814114309847354889e-03
4.400000000000000000e+01 7.076398372650146484e+00 -3.894381821155548096e-01 -1.425949186086654663e-01 6.073123659007251263e-04 -4.259628057479858398e-02 -1.225778646767139435e-02
4.500000000000000000e+01 6.243730068206787109e+00 -3.893613219261169434e-01 -1.155847162008285522e-01 -4.318111168686300516e-04 -3.480495885014533997e-02 -1.223390176892280579e-02
4.600000000000000000e+01 5.411106109619140625e+00 -3.893416821956634521e-01 -8.767846226692199707e-02 4.596056242007762194e-04 -2.616565860807895660e-02 -1.255522016435861588e-02
4.700000000000000000e+01 4.578485012054443359e+00 -3.893375098705291748e-01 -6.135305017232894897e-02 -1.543442951515316963e-03 -1.886894926428794861e-02 -1.112206559628248215e-02
4.800000000000000000e+01 3.745866298675537109e+00 -3.893402516841888428e-01 -3.791102394461631775e-02 -3.405590177862904966e-05 -1.138352416455745697e-02 -9.617262519896030426e-03
4.900000000000000000e+01 2.913257837295532227e+00 -3.893534839153289795e-01 -1.935739628970623016e-02 -2.084532985463738441e-03 -6.432578898966312408e-03 -7.006665226072072983e-03
5.000000000000000000e+01 2.080706357955932617e+00 -3.893975019454956055e-01 -6.777442991733551025e-03 -7.646126905456185341e-04 -2.262616762891411781e-03 -4.054568242281675339e-03
5.100000000000000000e+01 1.248469114303588867e+00 -3.895466327667236328e-01 -1.009636558592319489e-03 -1.601633150130510330e-03 -7.833809358999133110e-04 -1.140983076766133308e-03
5.200000000000000000e+01 4.162417650222778320e-01 -3.898310363292694092e-01 1.930311409523710608e-04 2.390520094195380807e-04 1.296249392908066511e-04 1.436126622138544917e-04
5.300000000000000000e+01 4.155627787113189697e-01 -1.129831075668334961e+00 -1.552454545162618160e-03 -7.532736635766923428e-04 -6.917184800840914249e-04 -1.012720400467514992e-03
5.400000000000000000e+01 9.559487342834472656e+00 -1.129909396171569824e+00 -1.833169311285018921e-01 9.433486498892307281e-03 -5.216503143310546875e-02 -1.245757378637790680e-02
5.500000000000000000e+01 8.728217124938964844e+00 -1.129891991615295410e+00 -1.699710786342620850e-01 8.017594926059246063e-03 -4.858604818582534790e-02 -2.002552151679992676e-02
5.600000000000000000e+01 7.896553993225097656e+00 -1.129732370376586914e+00 -1.522759348154067993e-01 3.902582684531807899e-03 -4.451200366020202637e-02 -3.014427423477172852e-02
5.700000000000000000e+01 7.064856052398681641e+00 -1.129438161849975586e+00 -1.322682350873947144e-01 2.424066886305809021e-03 -3.895324841141700745e-02 -3.223905712366104126e-02
5.800000000000000000e+01 6.233545303344726562e+00 -1.129361391067504883e+00 -1.095554232597351074e-01 5.751624703407287598e-04 -3.269407898187637329e-02 -3.602907806634902954e-02
5.900000000000000000e+01 5.402279376983642578e+00 -1.129341721534729004e+00 -8.709219843149185181e-02 -1.733300159685313702e-03 -2.664764970541000366e-02 -3.393796831369400024e-02
6.000000000000000000e+01 4.571016311645507812e+00 -1.129337549209594727e+00 -6.496528536081314087e-02 -2.464686520397663116e-03 -2.022899128496646881e-02 -3.246117383241653442e-02
6.100000000000000000e+01 3.739755392074584961e+00 -1.129340291023254395e+00 -4.533848911523818970e-02 -5.049749277532100677e-03 -1.511647179722785950e-02 -2.685126662254333496e-02
6.200000000000000000e+01 2.908504962921142578e+00 -1.129353523254394531e+00 -2.859059162437915802e-02 -5.183386150747537613e-03 -1.013219356536865234e-02 -2.090042084455490112e-02
6.300000000000000000e+01 2.077311277389526367e+00 -1.129397511482238770e+00 -1.567952707409858704e-02 -6.881820969283580780e-03 -6.768404040485620499e-03 -1.304166857153177261e-02
6.400000000000000000e+01 1.246432065963745117e+00 -1.129546642303466797e+00 -6.324422545731067657e-03 -5.290116183459758759e-03 -3.484361572191119194e-03 -5.457326769828796387e-03
6.500000000000000000e+01 1.112103080749511719e+01 -4.428110718727111816e-01 -2.057650536298751831e-01 5.048019811511039734e-03 -6.021510809659957886e-02 1.146762445569038391e-02
6.600000000000000000e+01 1.187371921539306641e+01 -4.752737879753112793e-01 -1.942157447338104248e-01 -8.146468317136168480e-04 -5.850911885499954224e-02 1.667552441358566284e-02
6.700000000000000000e+01 1.111492252349853516e+01 -1.183259963989257812e+00 -1.911868155002593994e-01 1.056332979351282120e-02 -5.418704822659492493e-02 1.177167519927024841e-02
6.800000000000000000e+01 1.262644767761230469e+01 -5.069373250007629395e-01 -1.700884252786636353e-01 5.610723514109849930e-03 -4.934331402182579041e-02 2.341719716787338257e-02
6.900000000000000000e+01 1.035515594482421875e+01 -1.148333072662353516e+00 -1.925050616264343262e-01 1.432311255484819412e-02 -5.345458164811134338e-02 6.834443192929029465e-04
7.000000000000000000e+01 1.036805534362792969e+01 -4.081833958625793457e-01 -2.035188376903533936e-01 1.251994865015149117e-03 -6.068005040287971497e-02 4.178946372121572495e-03
7.100000000000000000e+01 1.263392257690429688e+01 -1.248021602630615234e+00 -1.733984649181365967e-01 1.042782515287399292e-02 -4.889119043946266174e-02 4.696800187230110168e-02
7.200000000000000000e+01 1.187440204620361328e+01 -1.216021895408630371e+00 -1.883953660726547241e-01 1.602882705628871918e-02 -5.170996114611625671e-02 3.052972815930843353e-02
7.300000000000000000e+01 7.278588867187500000e+01 9.460186958312988281e+00 -3.570661306381225586e+00 -2.842706143856048584e-01 -1.156479597091674805e+00 -1.430723309516906738e+00
7.400000000000000000e+01 7.400640869140625000e+01 9.240597724914550781e+00 -5.136336088180541992e-01 1.846463918685913086e+00 3.998491168022155762e-01 -2.396210193634033203e+00
7.500000000000000000e+01 7.407266235351562500e+01 1.046570396423339844e+01 2.637436985969543457e-01 4.074751853942871094e+00 1.301548600196838379e+00 -3.519955158233642578e+00
7.600000000000000000e+01 7.436721038818359375e+01 1.161147499084472656e+01 3.583517968654632568e-01 5.354724407196044922e+00 1.713922858238220215e+00 -2.584183931350708008e+00
7.700000000000000000e+01 7.322671508789062500e+01 1.399884986877441406e+01 1.363852977752685547e+00 5.062131881713867188e+00 1.927795529365539551e+00 -5.149899125099182129e-01
7.800000000000000000e+01 7.323897552490234375e+01 1.638617134094238281e+01 8.343830108642578125e-01 6.026466846466064453e+00 2.058254957199096680e+00 -4.561717621982097626e-03
7.900000000000000000e+01 7.307954406738281250e+01 1.706219291687011719e+01 6.718773841857910156e-01 6.195144653320312500e+00 2.060106515884399414e+00 7.805853337049484253e-02
8.000000000000000000e+01 7.397769165039062500e+01 1.958751678466796875e+01 2.627207040786743164e-01 6.502176761627197266e+00 2.029469251632690430e+00 3.188512474298477173e-02
8.100000000000000000e+01 7.392835235595703125e+01 2.225484657287597656e+01 5.446680262684822083e-02 6.560461521148681641e+00 1.984478473663330078e+00 2.130032889544963837e-02
8.200000000000000000e+01 7.273470306396484375e+01 2.299817085266113281e+01 1.809686794877052307e-02 6.511262416839599609e+00 1.958807826042175293e+00 3.089719684794545174e-03
8.300000000000000000e+01 7.338150024414062500e+01 2.574014091491699219e+01 -9.352891705930233002e-03 6.509158134460449219e+00 1.949941635131835938e+00 -2.647530520334839821e-03
8.400000000000000000e+01 7.291210174560546875e+01 2.751708984375000000e+01 -1.288169994950294495e-02 6.435094833374023438e+00 1.926663994789123535e+00 -1.166045665740966797e-02
8.500000000000000000e+01 7.330082702636718750e+01 2.882145881652832031e+01 -1.331619359552860260e-02 6.438951969146728516e+00 1.927690744400024414e+00 2.681608893908560276e-04
8.600000000000000000e+01 7.347390747070312500e+01 3.035249900817871094e+01 -7.474678568542003632e-03 6.438826084136962891e+00 1.929405331611633301e+00 1.421210239641368389e-03
8.700000000000000000e+01 7.344187927246093750e+01 3.215031051635742188e+01 -7.193449884653091431e-03 6.430344104766845703e+00 1.926945209503173828e+00 7.976380176842212677e-03
8.800000000000000000e+01 7.330694580078125000e+01 3.408275222778320312e+01 -7.567139342427253723e-03 6.402458667755126953e+00 1.918467402458190918e+00 1.067247707396745682e-02
8.900000000000000000e+01 7.331171417236328125e+01 3.604393005371093750e+01 -7.949610240757465363e-03 6.405738830566406250e+00 1.919336795806884766e+00 1.055902987718582153e-02
9.000000000000000000e+01 7.365202331542968750e+01 3.809477615356445312e+01 -6.469393149018287659e-03 6.420835971832275391e+00 1.924309968948364258e+00 8.604868315160274506e-03
9.100000000000000000e+01 7.480207824707031250e+01 4.026247406005859375e+01 -2.003096276894211769e-03 6.522505760192871094e+00 1.956150770187377930e+00 9.395854547619819641e-03
9.200000000000000000e+01 7.196942901611328125e+01 4.117891311645507812e+01 -8.636974729597568512e-03 6.332710742950439453e+00 1.897222161293029785e+00 -3.377518383786082268e-03
9.300000000000000000e+01 7.126973724365234375e+01 3.625257492065429688e+01 -1.131742447614669800e-02 6.239349842071533203e+00 1.868409752845764160e+00 4.888011142611503601e-03
9.400000000000000000e+01 7.153225708007812500e+01 3.410940170288085938e+01 -5.086823366582393646e-04 6.266492366790771484e+00 1.879795074462890625e+00 2.196533838286995888e-03
9.500000000000000000e+01 7.216175079345703125e+01 3.047974586486816406e+01 -4.556972999125719070e-03 6.342675685882568359e+00 1.901435494422912598e+00 -6.045010872185230255e-03
9.600000000000000000e+01 7.139395904541015625e+01 2.893889427185058594e+01 -4.146409686654806137e-03 6.302901744842529297e+00 1.889626622200012207e+00 -2.693198621273040771e-02
9.700000000000000000e+01 7.052072143554687500e+01 2.837912559509277344e+01 4.045144654810428619e-03 6.218366146087646484e+00 1.866723299026489258e+00 -5.289430916309356689e-02
9.800000000000000000e+01 7.228284454345703125e+01 2.632458686828613281e+01 -1.439224276691675186e-02 6.410584926605224609e+00 1.918857812881469727e+00 -2.693832851946353912e-02
9.900000000000000000e+01 7.066584014892578125e+01 2.491407012939453125e+01 -8.314135484397411346e-03 6.350666999816894531e+00 1.902705788612365723e+00 -7.197253406047821045e-02
1.000000000000000000e+02 7.188700866699218750e+01 2.246052742004394531e+01 1.908804289996623993e-02 6.523267269134521484e+00 1.962706565856933594e+00 -9.515758603811264038e-03
1.010000000000000000e+02 7.120387268066406250e+01 1.992712783813476562e+01 1.100400462746620178e-01 6.579331398010253906e+00 2.006811380386352539e+00 9.409390389919281006e-02
1.020000000000000000e+02 7.328913116455078125e+01 1.877855491638183594e+01 3.659433722496032715e-01 6.444482326507568359e+00 2.043127775192260742e+00 8.585441112518310547e-02
1.030000000000000000e+02 7.243634796142578125e+01 1.711588478088378906e+01 6.838333606719970703e-01 6.244697093963623047e+00 2.078559160232543945e+00 2.059145122766494751e-01
1.040000000000000000e+02 7.247865295410156250e+01 1.564310932159423828e+01 1.099497199058532715e+00 5.813615798950195312e+00 2.073933839797973633e+00 1.869154423475265503e-01
1.050000000000000000e+02 7.250347137451171875e+01 1.316782855987548828e+01 1.704965472221374512e+00 4.385511875152587891e+00 1.827143192291259766e+00 -3.163354694843292236e-01
1.060000000000000000e+02 7.233801269531250000e+01 1.144145584106445312e+01 1.451567649841308594e+00 2.556194543838500977e+00 1.202328681945800781e+00 -6.484643220901489258e-01
1.070000000000000000e+02 7.294319915771484375e+01 1.079237556457519531e+01 8.172620534896850586e-01 1.744288444519042969e+00 7.684651613235473633e-01 -1.902092099189758301e+00
1.080000000000000000e+02 7.143157196044921875e+01 8.902202606201171875e+00 -3.421002626419067383e+00 -2.025989145040512085e-01 -1.087080478668212891e+00 -1.229727149009704590e+00
1.090000000000000000e+02 7.461759185791015625e+01 8.813164710998535156e+00 3.288491725921630859e+00 5.525900840759277344e+00 2.644317626953125000e+00 -3.839344024658203125e+00
1.100000000000000000e+02 7.559867858886718750e+01 8.850237846374511719e+00 6.037362813949584961e-01 1.209457874298095703e+01 3.809494495391845703e+00 -2.851224899291992188e+00
1.110000000000000000e+02 7.568496704101562500e+01 1.073465442657470703e+01 -9.956119060516357422e-01 8.546666145324707031e+00 2.265316247940063477e+00 -2.181440114974975586e+00
1.120000000000000000e+02 7.465026092529296875e+01 1.416924762725830078e+01 7.997472882270812988e-01 5.797015666961669922e+00 1.979028940200805664e+00 -9.661163687705993652e-01
1.130000000000000000e+02 7.498136901855468750e+01 1.523291015625000000e+01 6.881019473075866699e-01 6.079257965087890625e+00 2.030207872390747070e+00 -6.467730402946472168e-01
1.140000000000000000e+02 7.566535949707031250e+01 1.714158058166503906e+01 3.914813101291656494e-01 6.479255199432373047e+00 2.061220884323120117e+00 -3.098673522472381592e-01
1.150000000000000000e+02 7.565744018554687500e+01 1.994684791564941406e+01 1.653823703527450562e-01 6.605268955230712891e+00 2.031195402145385742e+00 -5.252606421709060669e-02
1.160000000000000000e+02 7.589187622070312500e+01 2.132703208923339844e+01 8.223843574523925781e-02 6.637308597564697266e+00 2.015864133834838867e+00 4.895902238786220551e-03
1.170000000000000000e+02 7.584873962402343750e+01 2.343600273132324219e+01 1.963335089385509491e-02 6.636299133300781250e+00 1.996779799461364746e+00 3.031777031719684601e-02
1.180000000000000000e+02 7.498678588867187500e+01 2.606585502624511719e+01 -7.808085530996322632e-03 6.587774276733398438e+00 1.973989844322204590e+00 2.004859223961830139e-02
1.190000000000000000e+02 7.601007843017578125e+01 2.878309249877929688e+01 -1.072274893522262573e-02 6.618926525115966797e+00 1.982461214065551758e+00 1.950325258076190948e-02
1.200000000000000000e+02 7.530291748046875000e+01 3.078495407104492188e+01 -9.087323211133480072e-03 6.560654640197753906e+00 1.965470314025878906e+00 1.374969165772199631e-02
1.210000000000000000e+02 7.493883514404296875e+01 3.217174530029296875e+01 -6.859565619379281998e-03 6.531079769134521484e+00 1.957266092300415039e+00 1.478930097073316574e-02
1.220000000000000000e+02 7.500087738037109375e+01 3.392195510864257812e+01 -9.493026882410049438e-03 6.541127681732177734e+00 1.959490418434143066e+00 1.339346449822187424e-02
1.230000000000000000e+02 7.511917877197265625e+01 3.570374298095703125e+01 -5.665602628141641617e-03 6.545786857604980469e+00 1.962036371231079102e+00 1.283871755003929138e-02
1.240000000000000000e+02 7.532789611816406250e+01 3.742829132080078125e+01 -8.304027840495109558e-03 6.577564716339111328e+00 1.970778226852416992e+00 1.815767027437686920e-02
1.250000000000000000e+02 7.602649688720703125e+01 3.889936828613281250e+01 1.475144294090569019e-03 6.643019676208496094e+00 1.993348479270935059e+00 -2.796414482872933149e-04
1.260000000000000000e+02 7.729238128662109375e+01 7.860778331756591797e+00 2.018046140670776367e+00 1.184649276733398438e+01 4.159361839294433594e+00 -4.861536026000976562e-01
1.270000000000000000e+02 7.963729095458984375e+01 6.002324581146240234e+00 -6.533632427453994751e-02 6.969717502593994141e+00 2.071314334869384766e+00 -4.180561602115631104e-01
1.280000000000000000e+02 7.961186981201171875e+01 6.799130439758300781e+00 2.273608297109603882e-01 6.307717800140380859e+00 1.960523605346679688e+00 -2.325777411460876465e-01
1.290000000000000000e+02 7.892052459716796875e+01 5.959178924560546875e+00 4.344730079174041748e-01 8.718814849853515625e+00 2.745986461639404297e+00 -1.137197375297546387e+00
1.300000000000000000e+02 7.872226715087890625e+01 9.200000762939453125e+00 3.361232578754425049e-02 8.283030509948730469e+00 2.494992733001708984e+00 5.688351392745971680e-01
1.310000000000000000e+02 7.782036590576171875e+01 1.018114948272705078e+01 -5.290910005569458008e-01 9.129620552062988281e+00 2.580158710479736328e+00 8.732076734304428101e-02
1.320000000000000000e+02 7.758267211914062500e+01 8.487897872924804688e+00 6.426102519035339355e-01 1.017301654815673828e+01 3.244688034057617188e+00 3.016741573810577393e-01
1.330000000000000000e+02 7.707011413574218750e+01 8.784944534301757812e+00 2.356505095958709717e-01 1.131536006927490234e+01 3.465303182601928711e+00 -1.995875239372253418e-01
1.340000000000000000e+02 7.612755584716796875e+01 8.442411422729492188e+00 8.986893296241760254e-01 1.267699718475341797e+01 4.072705745697021484e+00 -1.104040503501892090e+00
1.350000000000000000e+02 7.597448730468750000e+01 6.605401992797851562e+00 1.808063983917236328e+00 1.986322975158691406e+01 6.501388072967529297e+00 -2.339766979217529297e+00
1.360000000000000000e+02 7.595800018310546875e+01 5.052561283111572266e+00 3.233286738395690918e-01 1.545628547668457031e+01 4.733884334564208984e+00 -6.704934835433959961e-01
1.370000000000000000e+02 7.533713531494140625e+01 2.743846178054809570e+00 -4.781395494937896729e-01 5.657387256622314453e+00 1.553774356842041016e+00 8.376452922821044922e-01
1.380000000000000000e+02 7.429322052001953125e+01 1.588468313217163086e+00 -4.922855854034423828e+00 -7.734019160270690918e-01 -1.708877325057983398e+00 -2.293551921844482422e+00
1.390000000000000000e+02 7.298773956298828125e+01 -2.389269769191741943e-01 -1.752010941505432129e+00 8.000260591506958008e-01 -2.855954766273498535e-01 -2.017885684967041016e+00
1.400000000000000000e+02 7.471361541748046875e+01 -4.705983698368072510e-01 -1.926770567893981934e+00 3.984819173812866211e+00 6.174145340919494629e-01 6.436215043067932129e-01
1.410000000000000000e+02 7.248571777343750000e+01 8.761208653450012207e-01 -6.252361774444580078e+00 -4.268462955951690674e-01 -2.003762483596801758e+00 -2.029351711273193359e+00
1.420000000000000000e+02 7.170081329345703125e+01 1.057502150535583496e+00 -1.636406660079956055e+00 2.926594972610473633e+00 3.870565295219421387e-01 -2.311074733734130859e+00
1.430000000000000000e+02 7.099788665771484375e+01 1.503115415573120117e+00 1.608903169631958008e+00 5.569916725158691406e+00 2.153645992279052734e+00 -3.792382478713989258e+00
1.440000000000000000e+02 7.037733459472656250e+01 9.121167063713073730e-01 -1.411927580833435059e+00 7.099827289581298828e+00 1.706369996070861816e+00 -3.086571455001831055e+00
1.450000000000000000e+02 6.764672088623046875e+01 2.125951051712036133e+00 8.113223314285278320e-01 7.764355659484863281e+00 2.572703361511230469e+00 9.308348298072814941e-01
1.460000000000000000e+02 6.647213745117187500e+01 2.134370803833007812e+00 1.988922655582427979e-01 6.215252399444580078e+00 1.924243330955505371e+00 2.012094259262084961e+00
1.470000000000000000e+02 6.536721038818359375e+01 2.257506847381591797e+00 -4.802316129207611084e-01 5.645149230957031250e+00 1.549475193023681641e+00 2.542227268218994141e+00
1.480000000000000000e+02 6.289775466918945312e+01 1.810913085937500000e+00 -2.700206756591796875e+00 4.601452350616455078e+00 5.703735947608947754e-01 2.498276472091674805e+00
1.490000000000000000e+02 6.101379394531250000e+01 1.575679540634155273e+00 -4.044145584106445312e+00 3.049745559692382812e+00 -2.983200252056121826e-01 7.130407691001892090e-01
1.500000000000000000e+02 5.932004547119140625e+01 2.284290313720703125e+00 -5.140801429748535156e+00 -1.492004513740539551e+00 -1.989841818809509277e+00 -2.928493261337280273e+00
1.510000000000000000e+02 5.809885406494140625e+01 1.407287240028381348e+00 -8.658210754394531250e+00 -2.021016836166381836e+00 -3.203768253326416016e+00 -3.665322065353393555e+00
1.520000000000000000e+02 5.467869949340820312e+01 1.724900603294372559e+00 6.030287265777587891e+00 1.708803367614746094e+01 6.935496330261230469e+00 -7.471069812774658203e+00
1.530000000000000000e+02 5.457094955444335938e+01 6.860111355781555176e-01 -2.507046699523925781e+00 1.320736694335937500e+01 3.210096120834350586e+00 -4.333830833435058594e+00
1.540000000000000000e+02 5.493171691894531250e+01 1.165521815419197083e-01 -2.532170772552490234e+00 9.330379486083984375e+00 2.039462804794311523e+00 -5.851869583129882812e+00
1.550000000000000000e+02 5.443133544921875000e+01 -2.093996763229370117e+00 -3.185923576354980469e+00 6.659418582916259766e+00 1.042048573493957520e+00 -3.689421415328979492e+00
1.560000000000000000e+02 5.523977279663085938e+01 -3.902094364166259766e+00 -1.941139578819274902e+00 5.329548358917236328e+00 1.016522645950317383e+00 -2.623788118362426758e+00
1.570000000000000000e+02 5.443943023681640625e+01 -4.555275917053222656e+00 -2.235281229019165039e+00 5.224811553955078125e+00 8.968591094017028809e-01 -1.920879244804382324e+00
1.580000000000000000e+02 5.382722854614257812e+01 -6.381071567535400391e+00 -9.385157227516174316e-01 4.128801345825195312e+00 9.570856094360351562e-01 -9.866939783096313477e-01
1.590000000000000000e+02 5.475430297851562500e+01 -1.068885517120361328e+01 1.093288779258728027e+00 7.231822013854980469e+00 2.497533321380615234e+00 -2.501321554183959961e+00
1.600000000000000000e+02 5.436851119995117188e+01 -9.978965759277343750e+00 1.132815957069396973e+00 5.729634284973144531e+00 2.058735132217407227e+00 -2.314034223556518555e+00
1.610000000000000000e+02 5.515249252319335938e+01 -1.143642139434814453e+01 1.095831155776977539e+00 9.037240028381347656e+00 3.039921283721923828e+00 -2.310448408126831055e+00
1.620000000000000000e+02 5.542250061035156250e+01 -1.225681972503662109e+01 7.331635355949401855e-01 1.047027492523193359e+01 3.361031532287597656e+00 -2.222869634628295898e+00
1.630000000000000000e+02 5.567457199096679688e+01 -1.388334465026855469e+01 4.154390990734100342e-01 1.300846958160400391e+01 4.027172565460205078e+00 -1.788296818733215332e+00
1.640000000000000000e+02 5.809059524536132812e+01 -1.719486427307128906e+01 1.910876035690307617e+00 9.941366195678710938e+00 3.555672645568847656e+00 -2.283131517469882965e-02
1.650000000000000000e+02 6.017060470581054688e+01 -1.854415702819824219e+01 8.385100364685058594e-01 7.341193199157714844e+00 2.453910827636718750e+00 -9.875137805938720703e-01
1.660000000000000000e+02 6.196410369873046875e+01 -2.123985671997070312e+01 4.165904819965362549e-01 5.776518821716308594e+00 1.857932806015014648e+00 -1.120594024658203125e+00
1.670000000000000000e+02 6.452821350097656250e+01 -2.184247207641601562e+01 6.951982975006103516e-01 4.656041145324707031e+00 1.605371832847595215e+00 -8.623216748237609863e-01
1.680000000000000000e+02 6.532318115234375000e+01 -2.418235588073730469e+01 6.082623600959777832e-01 4.927300453186035156e+00 1.660668730735778809e+00 -4.985278844833374023e-01
1.690000000000000000e+02 6.651419067382812500e+01 -2.523538589477539062e+01 6.055589914321899414e-01 4.986134529113769531e+00 1.677507996559143066e+00 -2.156470119953155518e-01
1.700000000000000000e+02 7.091413879394531250e+01 -2.886632537841796875e+01 2.688751816749572754e-01 5.788619995117187500e+00 1.817248582839965820e+00 2.159639745950698853e-01
1.710000000000000000e+02 7.183703613281250000e+01 -3.101483154296875000e+01 1.853949874639511108e-01 5.963602066040039062e+00 1.844699144363403320e+00 1.617552042007446289e-01
1.720000000000000000e+02 7.338635253906250000e+01 -3.277616500854492188e+01 1.097884327173233032e-01 6.152719020843505859e+00 1.878752231597900391e+00 1.330724805593490601e-01
1.730000000000000000e+02 7.558363342285156250e+01 -3.361174392700195312e+01 5.875845998525619507e-02 6.358055114746093750e+00 1.925044059753417969e+00 1.046628803014755249e-01
1.740000000000000000e+02 7.716153717041015625e+01 -3.577252960205078125e+01 1.383103337138891220e-02 6.471514225006103516e+00 1.945603609085083008e+00 5.110680684447288513e-02
1.750000000000000000e+02 7.953893280029296875e+01 -3.641039657592773438e+01 2.171580679714679718e-03 6.596171855926513672e+00 1.979503035545349121e+00 9.145183488726615906e-03
1.760000000000000000e+02 7.853388977050781250e+01 -3.702724075317382812e+01 8.026379160583019257e-03 6.536914348602294922e+00 1.963482260704040527e+00 2.228626236319541931e-02
1.770000000000000000e+02 7.956015014648437500e+01 -3.561589813232421875e+01 -1.167986658401787281e-03 6.614568710327148438e+00 1.984020233154296875e+00 1.049833931028842926e-02
1.780000000000000000e+02 7.867989349365234375e+01 -3.547465515136718750e+01 4.766176920384168625e-03 6.575351715087890625e+00 1.974035382270812988e+00 2.985105104744434357e-02
1.790000000000000000e+02 7.794499969482421875e+01 -3.316958999633789062e+01 1.793793030083179474e-02 6.572924613952636719e+00 1.977258801460266113e+00 6.987316161394119263e-02
1.800000000000000000e+02 7.484757995605468750e+01 -3.246169662475585938e+01 7.759509980678558350e-02 6.305075168609619141e+00 1.914801120758056641e+00 1.385893970727920532e-01
1.810000000000000000e+02 7.342283630371093750e+01 -2.980289268493652344e+01 1.431332528591156006e-01 6.150000095367431641e+00 1.887940049171447754e+00 2.262251973152160645e-01
1.820000000000000000e+02 7.255472564697265625e+01 -2.831963920593261719e+01 2.002929002046585083e-01 6.010029315948486328e+00 1.863096714019775391e+00 3.015764057636260986e-01
1.830000000000000000e+02 7.020016479492187500e+01 -2.661142539978027344e+01 3.599733412265777588e-01 5.574653625488281250e+00 1.780388116836547852e+00 2.866578102111816406e-01
1.840000000000000000e+02 6.813153839111328125e+01 -2.587782859802246094e+01 5.392183065414428711e-01 5.180294036865234375e+00 1.715853691101074219e+00 7.280863076448440552e-02
1.850000000000000000e+02 6.647508239746093750e+01 -2.238427352905273438e+01 8.406904935836791992e-01 4.281638622283935547e+00 1.536698698997497559e+00 -3.182620108127593994e-01
1.860000000000000000e+02 6.535297393798828125e+01 -2.042916488647460938e+01 7.807588577270507812e-01 4.007385253906250000e+00 1.436443209648132324e+00 -8.840039968490600586e-01
1.870000000000000000e+02 6.409949493408203125e+01 -1.939453887939453125e+01 5.927354097366333008e-01 4.470673084259033203e+00 1.519022583961486816e+00 -1.233795762062072754e+00
1.880000000000000000e+02 6.131433105468750000e+01 -1.777731323242187500e+01 6.851633787155151367e-01 6.556883335113525391e+00 2.172614097595214844e+00 -9.959710836410522461e-01
1.890000000000000000e+02 5.982959747314453125e+01 -1.615953254699707031e+01 1.119772315025329590e+00 7.994528770446777344e+00 2.734290361404418945e+00 -1.416081637144088745e-01
1.900000000000000000e+02 5.760762405395507812e+01 -1.386022472381591797e+01 8.072375059127807617e-01 1.026987266540527344e+01 3.323133230209350586e+00 2.272492647171020508e-01
1.910000000000000000e+02 5.717179489135742188e+01 -1.240896797180175781e+01 4.692336022853851318e-01 9.837224960327148438e+00 3.091937780380249023e+00 -2.765966206789016724e-02
1.920000000000000000e+02 5.704288101196289062e+01 -1.376065731048583984e+01 6.472027897834777832e-01 1.113383769989013672e+01 3.534312248229980469e+00 -2.786894142627716064e-01
1.930000000000000000e+02 5.588101577758789062e+01 -1.544946575164794922e+01 2.959025204181671143e-01 1.512350082397460938e+01 4.625821113586425781e+00 -7.921727895736694336e-01
1.940000000000000000e+02 6.995468902587890625e+01 2.667442798614501953e+00 4.034810543060302734e+00 1.245600986480712891e+01 4.947246074676513672e+00 -5.981695652008056641e+00
1.950000000000000000e+02 6.869976043701171875e+01 4.465301036834716797e+00 2.828528165817260742e+00 1.338555049896240234e+01 4.864223957061767578e+00 -2.225641489028930664e+00
1.960000000000000000e+02 6.656526947021484375e+01 7.276257991790771484e+00 -6.379284858703613281e-01 1.106707000732421875e+01 3.128742456436157227e+00 -8.175626397132873535e-01
1.970000000000000000e+02 6.505434417724609375e+01 7.538136005401611328e+00 2.041130661964416504e-01 9.475625038146972656e+00 2.903921365737915039e+00 2.146190404891967773e+00
1.980000000000000000e+02 6.360174942016601562e+01 6.867253780364990234e+00 9.880492091178894043e-01 3.413678407669067383e+00 1.320518255233764648e+00 1.882017374038696289e+00
1.990000000000000000e+02 6.411604309082031250e+01 6.409578800201416016e+00 5.926191806793212891e-01 5.162229537963867188e+00 1.726454496383666992e+00 1.742129087448120117e+00
2.000000000000000000e+02 6.174682235717773438e+01 4.337166309356689453e+00 -2.701224684715270996e-01 1.011090397834777832e+00 2.222903668880462646e-01 3.520720899105072021e-01
2.010000000000000000e+02 6.118939590454101562e+01 3.755923271179199219e+00 -1.375325322151184082e+00 3.297131061553955078e-01 -3.136836588382720947e-01 -3.370919823646545410e-01
2.020000000000000000e+02 6.176138687133789062e+01 3.263160705566406250e+00 -2.051239013671875000e+00 2.135120391845703125e+00 2.516443654894828796e-02 4.984789490699768066e-01
2.030000000000000000e+02 6.297521591186523438e+01 3.438979148864746094e+00 -1.196521639823913574e+00 3.570297956466674805e+00 7.121328711509704590e-01 1.484471321105957031e+00
2.040000000000000000e+02 6.543249511718750000e+01 3.359422922134399414e+00 1.872615218162536621e-01 6.123437881469726562e+00 1.893209815025329590e+00 1.674273490905761719e+00
2.050000000000000000e+02 6.724790191650390625e+01 3.782146692276000977e+00 1.864098072052001953e+00 8.558292388916015625e+00 3.126717090606689453e+00 -5.663293972611427307e-02
2.060000000000000000e+02 6.949199676513671875e+01 3.721288442611694336e+00 3.261678695678710938e+00 1.977651977539062500e+01 6.911459445953369141e+00 -4.366829395294189453e+00
2.070000000000000000e+02 6.822541046142578125e+01 3.633099317550659180e+00 2.853857755661010742e+00 1.084606552124023438e+01 4.109977245330810547e+00 -9.446224570274353027e-01
2.080000000000000000e+02 6.966815185546875000e+01 5.861482143402099609e+00 5.179429650306701660e-01 1.306234931945800781e+01 4.074087619781494141e+00 1.730207800865173340e+00
2.090000000000000000e+02 6.992469024658203125e+01 6.867781639099121094e+00 4.181278645992279053e-01 8.467073440551757812e+00 2.665560483932495117e+00 1.390118122100830078e+00
2.100000000000000000e+02 7.061694335937500000e+01 8.078240394592285156e+00 -1.616935133934020996e+00 1.704252600669860840e+00 2.619526162743568420e-02 -2.541533410549163818e-01
2.110000000000000000e+02 7.069438934326171875e+01 8.764174461364746094e+00 -2.200129270553588867e+00 2.033332824707031250e+00 -5.003893375396728516e-02 -1.092338114976882935e-01
2.120000000000000000e+02 7.048815155029296875e+01 9.514190673828125000e+00 -1.331427335739135742e+00 4.022418022155761719e+00 8.072971701622009277e-01 8.382562994956970215e-01
2.130000000000000000e+02 6.992683410644531250e+01 8.790616989135742188e+00 -1.424831748008728027e+00 6.411678791046142578e+00 1.496054172515869141e+00 5.166324973106384277e-01
2.140000000000000000e+02 6.844522857666015625e+01 1.141101074218750000e+01 2.329933643341064453e+00 8.850074768066406250e+00 3.354002475738525391e+00 1.157732605934143066e+00
2.150000000000000000e+02 6.587296295166015625e+01 1.342108058929443359e+01 9.939653873443603516e-01 1.354487895965576172e+01 4.361653327941894531e+00 -7.157421112060546875e-01
2.160000000000000000e+02 6.460589599609375000e+01 1.344184970855712891e+01 2.697436809539794922e+00 4.213049888610839844e+00 2.073146104812622070e+00 -3.828863143920898438e+00
2.170000000000000000e+02 6.393187713623046875e+01 1.382675647735595703e+01 -4.578099250793457031e-01 1.890979290008544922e+00 4.299508035182952881e-01 -1.975152254104614258e+00
2.180000000000000000e+02 6.211437606811523438e+01 1.455578327178955078e+01 -2.765981853008270264e-01 -8.870124071836471558e-02 -1.095898300409317017e-01 -8.306021094322204590e-01
2.190000000000000000e+02 5.962197494506835938e+01 1.377572822570800781e+01 -6.115579605102539062e-01 5.586729645729064941e-01 -1.586549170315265656e-02 3.235011100769042969e-01
2.200000000000000000e+02 5.850282669067382812e+01 1.395623016357421875e+01 9.117722511291503906e-02 1.514997482299804688e+00 4.818524122238159180e-01 1.073069930076599121e+00
2.210000000000000000e+02 5.651440811157226562e+01 1.492609119415283203e+01 9.064605236053466797e-01 4.178925037384033203e+00 1.525615692138671875e+00 2.104790925979614258e+00
2.220000000000000000e+02 5.437897491455078125e+01 1.469226169586181641e+01 1.222384810447692871e+00 6.954710483551025391e+00 2.453128576278686523e+00 2.292476654052734375e+00
2.230000000000000000e+02 5.302159881591796875e+01 1.446887588500976562e+01 1.724185943603515625e+00 9.218614578247070312e+00 3.282840013504028320e+00 1.914975523948669434e+00
2.240000000000000000e+02 5.170684814453125000e+01 1.429819869995117188e+01 2.640984296798706055e+00 1.189345169067382812e+01 4.360330581665039062e+00 5.564582943916320801e-01
2.250000000000000000e+02 5.040037155151367188e+01 1.412457942962646484e+01 3.663287162780761719e+00 1.869128227233886719e+01 6.706370353698730469e+00 -4.357620239257812500e+00
2.260000000000000000e+02 5.188891983032226562e+01 1.308511638641357422e+01 2.527267694473266602e+00 1.316196918487548828e+01 4.706771373748779297e+00 4.821874499320983887e-01
2.270000000000000000e+02 5.052386474609375000e+01 1.207614040374755859e+01 5.669245030730962753e-03 2.102308845520019531e+01 6.308627128601074219e+00 8.893944025039672852e-01
2.280000000000000000e+02 5.084426879882812500e+01 1.043502712249755859e+01 1.940309286117553711e+00 1.592756462097167969e+01 5.360362052917480469e+00 1.202983260154724121e+00
2.290000000000000000e+02 5.159986114501953125e+01 8.362512588500976562e+00 -8.341882824897766113e-01 1.209564781188964844e+01 3.378437995910644531e+00 -3.468996882438659668e-01
2.300000000000000000e+02 5.372045135498046875e+01 7.334307670593261719e+00 -8.461874723434448242e-01 1.148447322845458984e+01 3.191485643386840820e+00 -2.918029576539993286e-02
2.310000000000000000e+02 5.447604751586914062e+01 5.177504539489746094e+00 1.247401714324951172e+00 1.633229827880859375e+01 5.273910045623779297e+00 3.557725667953491211e+00
2.320000000000000000e+02 5.406316757202148438e+01 6.214720249176025391e+00 3.891270980238914490e-02 1.287064266204833984e+01 3.872866630554199219e+00 1.049617409706115723e+00
2.330000000000000000e+02 5.551726913452148438e+01 7.369133472442626953e+00 7.430323362350463867e-01 5.816567897796630859e+00 1.967880010604858398e+00 2.034252643585205078e+00
2.340000000000000000e+02 5.486972808837890625e+01 7.720666885375976562e+00 -4.277448058128356934e-01 8.338649749755859375e+00 2.373271465301513672e+00 1.079936861991882324e+00
2.350000000000000000e+02 5.443925857543945312e+01 9.933083534240722656e+00 -1.472075283527374268e-01 8.101679801940917969e+00 2.386341810226440430e+00 3.286904394626617432e-01
2.360000000000000000e+02 5.275991058349609375e+01 1.154737186431884766e+01 1.838447093963623047e+00 1.124139881134033203e+01 3.923953771591186523e+00 1.407210528850555420e-01
2.370000000000000000e+02 5.104991531372070312e+01 1.355778503417968750e+01 3.068139076232910156e+00 1.762274169921875000e+01 6.207264423370361328e+00 -1.272127509117126465e+00
2.380000000000000000e+02 5.063593292236328125e+01 1.281449031829833984e+01 1.381989121437072754e+00 2.104552078247070312e+01 6.728252887725830078e+00 -9.039205312728881836e-01
2.390000000000000000e+02 5.041556549072265625e+01 1.130974769592285156e+01 1.908812165260314941e+00 2.289431953430175781e+01 7.440939903259277344e+00 2.606204509735107422e+00
2.400000000000000000e+02 5.511218261718750000e+01 6.667086601257324219e+00 1.054456472396850586e+00 8.839733123779296875e+00 2.968256711959838867e+00 2.877346754074096680e+00
2.410000000000000000e+02 6.695592498779296875e+01 -3.526358127593994141e+00 -3.607673883438110352e+00 -1.724736094474792480e+00 -1.599722981452941895e+00 2.773916482925415039e+00
2.420000000000000000e+02 6.618762969970703125e+01 -2.246223926544189453e+00 -7.522536277770996094e+00 -1.906982302665710449e+00 -2.828855514526367188e+00 2.843622207641601562e+00
2.430000000000000000e+02 6.854145050048828125e+01 -1.707461237907409668e+00 -4.139097690582275391e+00 4.372443199157714844e+00 7.000362873077392578e-02 -9.182732701301574707e-01
2.440000000000000000e+02 6.828110504150390625e+01 2.403690069913864136e-01 -2.265272378921508789e+00 6.041896820068359375e+00 1.132987380027770996e+00 -2.983045876026153564e-01
2.450000000000000000e+02 6.888736724853515625e+01 2.361759901046752930e+00 1.410184621810913086e+00 9.948510169982910156e+00 3.407608509063720703e+00 -8.476233482360839844e-01
2.460000000000000000e+02 6.908178710937500000e+01 -5.748335361480712891e+00 -2.600379288196563721e-01 8.235756754875183105e-01 1.690613180398941040e-01 -2.463098317384719849e-01
2.470000000000000000e+02 7.121932983398437500e+01 -6.966500759124755859e+00 1.010417565703392029e-01 5.361889839172363281e+00 1.638879537582397461e+00 -1.508587241172790527e+00
2.480000000000000000e+02 7.226105499267578125e+01 -8.582495689392089844e+00 8.647586703300476074e-01 9.369743347167968750e+00 3.070350408554077148e+00 -8.554477095603942871e-01
2.490000000000000000e+02 7.191078186035156250e+01 -9.625822067260742188e+00 1.233628392219543457e+00 1.261139297485351562e+01 4.153506278991699219e+00 -2.137777566909790039e+00
2.500000000000000000e+02 7.282383728027343750e+01 -1.197149848937988281e+01 5.691089034080505371e-01 1.310501003265380859e+01 4.102235794067382812e+00 4.791591465473175049e-01
2.510000000000000000e+02 7.289095306396484375e+01 -1.348622226715087891e+01 1.772571444511413574e+00 1.301078510284423828e+01 4.435007095336914062e+00 2.096194505691528320e+00
2.520000000000000000e+02 7.140174865722656250e+01 -1.552881336212158203e+01 3.181418657302856445e+00 9.823885917663574219e+00 3.901591300964355469e+00 4.671044826507568359e+00
2.530000000000000000e+02 6.997758483886718750e+01 -1.611494827270507812e+01 -2.905372619628906250e+00 -8.996354788541793823e-02 -8.986008763313293457e-01 2.147834539413452148e+00
2.540000000000000000e+02 6.916610717773437500e+01 -1.635317611694335938e+01 -2.214464426040649414e+00 -1.159832596778869629e+00 -1.012289047241210938e+00 1.392192244529724121e+00
2.550000000000000000e+02 6.832540893554687500e+01 -1.501267623901367188e+01 -1.596641302108764648e+00 -1.256092429161071777e+00 -8.558201193809509277e-01 1.662829041481018066e+00
2.560000000000000000e+02 6.880176544189453125e+01 -1.560827636718750000e+01 -3.306357622146606445e+00 -1.713813066482543945e+00 -1.506051182746887207e+00 1.815886139869689941e+00
2.570000000000000000e+02 6.781956481933593750e+01 -1.443295764923095703e+01 -1.640547633171081543e+00 -1.003812789916992188e+00 -7.933081388473510742e-01 1.169699430465698242e+00
2.580000000000000000e+02 6.664913940429687500e+01 -1.429880046844482422e+01 -1.235040545463562012e+00 6.143801808357238770e-01 -1.861981004476547241e-01 2.700578272342681885e-01
2.590000000000000000e+02 6.568795776367187500e+01 -1.216384983062744141e+01 -3.389312624931335449e-01 7.151605486869812012e-01 1.128687933087348938e-01 -1.657585799694061279e-01
2.600000000000000000e+02 6.516213226318359375e+01 -1.157467269897460938e+01 2.229580432176589966e-01 1.927419662475585938e+00 6.451132893562316895e-01 -7.180843949317932129e-01
2.610000000000000000e+02 6.301893234252929688e+01 -1.094026088714599609e+01 -2.712773978710174561e-01 7.143242359161376953e+00 2.061589479446411133e+00 1.048452258110046387e-01
2.620000000000000000e+02 6.328504562377929688e+01 -9.776943206787109375e+00 3.108234703540802002e-01 8.176666259765625000e+00 2.546247005462646484e+00 -3.886655271053314209e-01
2.630000000000000000e+02 6.216634368896484375e+01 -8.251105308532714844e+00 5.159744024276733398e-01 9.671581268310546875e+00 3.056266546249389648e+00 6.349778771400451660e-01
2.640000000000000000e+02 6.064676666259765625e+01 -6.025620460510253906e+00 1.393920540809631348e+00 8.298213958740234375e+00 2.907640218734741211e+00 1.160306215286254883e+00
2.650000000000000000e+02 5.920614242553710938e+01 -3.281427621841430664e+00 5.814058780670166016e-01 4.927941799163818359e+00 1.652804374694824219e+00 -8.167889714241027832e-01
2.660000000000000000e+02 5.668562698364257812e+01 -1.425892472267150879e+00 -1.524300217628479004e+00 3.157935857772827148e+00 4.900906682014465332e-01 -4.213333129882812500e+00
2.670000000000000000e+02 5.465438079833984375e+01 -9.633532166481018066e-01 -3.261227369308471680e+00 7.925634860992431641e+00 1.399322271347045898e+00 -4.614370346069335938e+00
2.680000000000000000e+02 6.675598907470703125e+01 -1.329923820495605469e+01 -9.998485445976257324e-01 -3.936709165573120117e-01 -4.180558323860168457e-01 6.332870125770568848e-01
2.690000000000000000e+02 6.358303070068359375e+01 -7.929280757904052734e+00 3.040919601917266846e-01 1.148063087463378906e+01 3.535416841506958008e+00 -1.180098533630371094e+00
2.700000000000000000e+02 6.199498748779296875e+01 -5.807468891143798828e+00 1.370555162429809570e+00 1.110747432708740234e+01 3.743408679962158203e+00 1.809462904930114746e+00
2.710000000000000000e+02 6.000898742675781250e+01 -3.672868013381958008e+00 1.120659828186035156e+00 5.952487945556640625e+00 2.121944427490234375e+00 -3.286090120673179626e-02
2.720000000000000000e+02 5.794000625610351562e+01 -2.068598270416259766e+00 -6.085889935493469238e-01 3.041274309158325195e+00 7.298055887222290039e-01 -2.572522401809692383e+00
2.730000000000000000e+02 5.589665222167968750e+01 -1.199721992015838623e-01 -3.108215332031250000e+00 4.042255401611328125e+00 2.802120149135589600e-01 -6.006769657135009766e+00
2.740000000000000000e+02 6.337992477416992188e+01 -5.548675537109375000e+00 4.580468535423278809e-01 1.522388935089111328e+01 4.704580783843994141e+00 3.665234148502349854e-01
2.750000000000000000e+02 6.118377685546875000e+01 -3.921199560165405273e+00 1.851172447204589844e+00 7.961555004119873047e+00 2.943818330764770508e+00 9.307599663734436035e-01
2.760000000000000000e+02 6.026063919067382812e+01 -1.528629779815673828e+00 -1.417639136314392090e+00 4.909015655517578125e+00 1.047412991523742676e+00 -1.097813248634338379e-01
2.770000000000000000e+02 5.771400833129882812e+01 8.224549293518066406e-01 -7.219645023345947266e+00 -1.482290863990783691e+00 -2.610580682754516602e+00 -2.806241750717163086e+00
2.780000000000000000e+02 5.559534835815429688e+01 6.128634214401245117e-01 -1.765513539314270020e+00 4.986711502075195312e+00 9.663593173027038574e-01 -5.284307003021240234e+00
2.790000000000000000e+02 5.628903961181640625e+01 9.111337661743164062e-01 -4.905043125152587891e+00 1.117623925209045410e+00 -1.136225819587707520e+00 -3.411742210388183594e+00
2.800000000000000000e+02 6.274192810058593750e+01 -6.462241172790527344e+00 6.768622994422912598e-01 1.233429431915283203e+01 3.903347015380859375e+00 6.896719932556152344e-01
2.810000000000000000e+02 6.334709930419921875e+01 -3.905338048934936523e+00 2.839934110641479492e+00 1.799660491943359375e+01 6.250961780548095703e+00 3.716150522232055664e+00
2.820000000000000000e+02 6.311176681518554688e+01 -1.942140579223632812e+00 -2.645432233810424805e+00 1.116996288299560547e+01 2.557358980178833008e+00 2.918221950531005859e+00
2.830000000000000000e+02 6.474472045898437500e+01 -2.366508007049560547e+00 -3.801258087158203125e+00 3.821912050247192383e+00 6.196172442287206650e-03 4.419043540954589844e+00
2.840000000000000000e+02 6.429482269287109375e+01 -6.719883084297180176e-01 -2.904591798782348633e+00 5.168966770172119141e+00 6.793125271797180176e-01 5.614215373992919922e+00
2.850000000000000000e+02 6.343078994750976562e+01 2.116205930709838867e+00 -1.982111215591430664e+00 4.835409164428710938e+00 8.559894561767578125e-01 2.764547586441040039e+00
2.860000000000000000e+02 6.394026947021484375e+01 -2.301930189132690430e+00 -1.376885652542114258e+00 9.321181297302246094e+00 2.383288860321044922e+00 4.498819351196289062e+00
2.870000000000000000e+02 6.621499633789062500e+01 1.112375482916831970e-01 -1.540582180023193359e+00 3.728789806365966797e+00 6.564623117446899414e-01 3.124760389328002930e+00
2.880000000000000000e+02 6.601593780517578125e+01 8.712218403816223145e-01 -1.166747927665710449e+00 4.863039016723632812e+00 1.108887314796447754e+00 2.878543853759765625e+00
2.890000000000000000e+02 3.656814193725585938e+01 1.401029872894287109e+01 2.261040210723876953e-01 1.181284427642822266e+01 3.611684322357177734e+00 -2.454986572265625000e+00
2.900000000000000000e+02 3.684326171875000000e+01 1.238311386108398438e+01 2.050696372985839844e+00 2.582031631469726562e+01 8.361304283142089844e+00 -1.536135435104370117e+00
2.910000000000000000e+02 3.928433609008789062e+01 1.068300247192382812e+01 3.299494981765747070e+00 8.523843765258789062e+00 3.547001600265502930e+00 1.748009324073791504e+00
2.920000000000000000e+02 4.146885299682617188e+01 1.014288902282714844e+01 8.282031416893005371e-01 1.260939717292785645e+00 6.267428398132324219e-01 6.319299340248107910e-01
2.930000000000000000e+02 4.251998519897460938e+01 1.137513065338134766e+01 9.631303548812866211e-01 5.220857262611389160e-01 4.455648064613342285e-01 7.812572121620178223e-01
2.940000000000000000e+02 4.249777603149414062e+01 1.341278839111328125e+01 1.163643956184387207e+00 2.222893953323364258e+00 1.015961408615112305e+00 2.030243396759033203e+00
2.950000000000000000e+02 3.911677169799804688e+01 1.749946975708007812e+01 -1.492271304130554199e+00 6.384571552276611328e+00 1.467690110206604004e+00 9.063997268676757812e-01
2.960000000000000000e+02 3.653631210327148438e+01 1.895481109619140625e+01 -1.155438423156738281e+00 4.395195007324218750e+00 9.719269871711730957e-01 -8.899827599525451660e-01
2.970000000000000000e+02 3.567011260986328125e+01 2.037289428710937500e+01 -6.485647559165954590e-01 3.496388912200927734e+00 8.543472290039062500e-01 -7.547944784164428711e-01
2.980000000000000000e+02 3.337219238281250000e+01 2.189761352539062500e+01 -2.050310224294662476e-01 2.616831302642822266e+00 7.235400676727294922e-01 -2.870574593544006348e-01
2.990000000000000000e+02 3.147014999389648438e+01 2.368089675903320312e+01 -3.485002219676971436e-01 2.707271814346313477e+00 7.076315283775329590e-01 -2.177026309072971344e-02
3.000000000000000000e+02 3.008384323120117188e+01 2.692233467102050781e+01 -3.879642188549041748e-01 2.684594631195068359e+00 6.889891028404235840e-01 -1.651949882507324219e-01
3.010000000000000000e+02 2.875876808166503906e+01 2.799246025085449219e+01 -3.653167188167572021e-01 2.532405376434326172e+00 6.501265764236450195e-01 -2.367729991674423218e-01
3.020000000000000000e+02 2.793186378479003906e+01 2.920057296752929688e+01 -2.985837459564208984e-01 2.396153211593627930e+00 6.292708516120910645e-01 -2.606900036334991455e-01
3.030000000000000000e+02 2.521696662902832031e+01 3.403002929687500000e+01 -2.390787377953529358e-02 1.931776762008666992e+00 5.723606348037719727e-01 -1.937520951032638550e-01
3.040000000000000000e+02 2.298279190063476562e+01 3.465475082397460938e+01 4.749970510601997375e-02 1.689646005630493164e+00 5.211437344551086426e-01 -1.918346285820007324e-01
3.050000000000000000e+02 8.067988395690917969e+00 4.120684814453125000e+01 1.066999956965446472e-01 1.033445835113525391e+00 3.420437574386596680e-01 2.141870930790901184e-02
3.060000000000000000e+02 1.089617633819580078e+01 3.591096496582031250e+01 1.524113267660140991e-01 1.016751050949096680e+00 3.507486879825592041e-01 9.155323356389999390e-02
3.070000000000000000e+02 1.402061080932617188e+01 3.684949874877929688e+01 1.849638372659683228e-01 1.075782299041748047e+00 3.782238662242889404e-01 2.785301953554153442e-02
3.080000000000000000e+02 1.195045661926269531e+01 3.290070724487304688e+01 1.471441239118576050e-01 9.556962847709655762e-01 3.308521211147308350e-01 1.051574423909187317e-01
3.090000000000000000e+02 1.112860298156738281e+01 3.133369827270507812e+01 1.241551786661148071e-01 9.264017939567565918e-01 3.151670992374420166e-01 1.488208770751953125e-01
3.100000000000000000e+02 1.037973213195800781e+01 3.001244163513183594e+01 8.706776052713394165e-02 9.052907824516296387e-01 2.977075576782226562e-01 1.756405234336853027e-01
3.110000000000000000e+02 1.066134357452392578e+01 2.801023292541503906e+01 3.213924914598464966e-02 8.461949229240417480e-01 2.635002434253692627e-01 1.875836402177810669e-01
3.120000000000000000e+02 1.112260055541992188e+01 2.535035133361816406e+01 -8.774980902671813965e-02 7.460799813270568848e-01 1.974990516901016235e-01 1.871412247419357300e-01
3.130000000000000000e+02 1.151496505737304688e+01 2.439077758789062500e+01 -1.637913435697555542e-01 7.125362753868103027e-01 1.646234691143035889e-01 1.766364723443984985e-01
3.140000000000000000e+02 1.120682334899902344e+01 2.220244407653808594e+01 -3.617537617683410645e-01 6.727046370506286621e-01 9.328526258468627930e-02 1.551187932491302490e-01
3.150000000000000000e+02 1.177033329010009766e+01 1.826802635192871094e+01 -8.860552906990051270e-01 5.912212133407592773e-01 -8.845023065805435181e-02 1.976357400417327881e-02
3.160000000000000000e+02 1.230456542968750000e+01 1.696328163146972656e+01 -1.112644910812377930e+00 5.147871971130371094e-01 -1.793572902679443359e-01 -9.150913357734680176e-02
3.170000000000000000e+02 1.187877368927001953e+01 1.493494606018066406e+01 -1.307955622673034668e+00 5.742877125740051270e-01 -2.201003730297088623e-01 -2.587752342224121094e-01
3.180000000000000000e+02 1.120154571533203125e+01 1.346026706695556641e+01 -1.309893250465393066e+00 6.944030523300170898e-01 -1.846470534801483154e-01 -3.738589584827423096e-01
3.190000000000000000e+02 1.126716613769531250e+01 1.246306037902832031e+01 -1.289659619331359863e+00 6.373533010482788086e-01 -1.956918835639953613e-01 -4.336336553096771240e-01
3.200000000000000000e+02 1.246418857574462891e+01 9.728431701660156250e+00 -7.912465333938598633e-01 -4.386422038078308105e-01 -3.689666092395782471e-01 -7.321760058403015137e-01
3.210000000000000000e+02 1.086589622497558594e+01 7.937801361083984375e+00 -2.616940736770629883e-01 1.037877559661865234e+00 2.328550517559051514e-01 2.445027977228164673e-01
3.220000000000000000e+02 1.013253879547119141e+01 6.114416122436523438e+00 4.332367479801177979e-01 8.401091575622558594e+00 2.650298595428466797e+00 -1.298872947692871094e+00
3.230000000000000000e+02 9.260211944580078125e+00 7.481839656829833984e+00 1.042372584342956543e-01 3.645544528961181641e+00 1.124934554100036621e+00 -1.970763564109802246e+00
3.240000000000000000e+02 3.771327590942382812e+01 1.186165523529052734e+01 4.789160728454589844e+00 1.586787033081054688e+01 6.197109222412109375e+00 2.205175638198852539e+00
3.250000000000000000e+02 3.717414093017578125e+01 1.087823009490966797e+01 4.233962059020996094e+00 2.173006439208984375e+01 7.789207935333251953e+00 4.107257843017578125e+00
3.260000000000000000e+02 3.612506866455078125e+01 9.749454498291015625e+00 5.706284999847412109e+00 1.646022796630859375e+01 6.649953842163085938e+00 8.694297790527343750e+00
3.270000000000000000e+02 3.498344421386718750e+01 8.591332435607910156e+00 3.368709564208984375e+00 5.993068218231201172e+00 2.808533430099487305e+00 4.560007572174072266e+00
3.280000000000000000e+02 3.534357452392578125e+01 6.814017295837402344e+00 -2.266511470079421997e-01 8.826382637023925781e+00 2.579919576644897461e+00 2.707721471786499023e+00
3.290000000000000000e+02 3.562142562866210938e+01 4.649778366088867188e+00 9.873483180999755859e-01 8.827425003051757812e+00 2.944432020187377930e+00 1.371130347251892090e+00
3.300000000000000000e+02 3.559883117675781250e+01 3.666830062866210938e+00 2.519480228424072266e+00 8.392625808715820312e+00 3.273631811141967773e+00 1.065884709358215332e+00
3.310000000000000000e+02 3.364145660400390625e+01 2.265995264053344727e+00 4.125523567199707031e+00 2.369801282882690430e+00 1.948597431182861328e+00 3.747268199920654297e+00
3.320000000000000000e+02 3.346715164184570312e+01 -7.168478965759277344e-01 -1.562292695045471191e+00 -2.842839002609252930e+00 -1.321539521217346191e+00 2.701883316040039062e+00
3.330000000000000000e+02 3.298523712158203125e+01 -1.206346273422241211e+00 -4.707295417785644531e+00 -3.077508449554443359e+00 -2.335441112518310547e+00 4.923756599426269531e+00
3.340000000000000000e+02 3.362759780883789062e+01 -1.691205739974975586e+00 -6.806453704833984375e+00 -4.591571807861328125e+00 -3.419407606124877930e+00 4.684884548187255859e+00
3.350000000000000000e+02 3.562971115112304688e+01 -7.864813208580017090e-01 -9.856735467910766602e-01 3.962190866470336914e+00 8.929551839828491211e-01 8.980541825294494629e-01
3.360000000000000000e+02 3.642977905273437500e+01 2.499830245971679688e+00 4.180919170379638672e+00 1.143638801574707031e+01 4.685192108154296875e+00 1.467883586883544922e-01
3.370000000000000000e+02 3.797629547119140625e+01 2.785508394241333008e+00 2.000064373016357422e+00 2.116650009155273438e+01 6.949969291687011719e+00 4.501749992370605469e+00
3.380000000000000000e+02 3.827507400512695312e+01 3.516562700271606445e+00 2.433503866195678711e+00 1.632184410095214844e+01 5.626604557037353516e+00 5.288931846618652344e+00
3.390000000000000000e+02 3.861817550659179688e+01 4.240026473999023438e+00 1.857629299163818359e+00 1.269464206695556641e+01 4.365681171417236328e+00 5.016760826110839844e+00
3.400000000000000000e+02 3.895928573608398438e+01 4.962544918060302734e+00 1.613137364387512207e+00 1.035452747344970703e+01 3.590299606323242188e+00 3.977077484130859375e+00
3.410000000000000000e+02 3.967356872558593750e+01 6.413831233978271484e+00 7.075825929641723633e-01 6.515176773071289062e+00 2.166827917098999023e+00 2.131048917770385742e+00
3.420000000000000000e+02 3.894763183593750000e+01 6.829430580139160156e+00 -7.419733405113220215e-01 9.228433609008789062e+00 2.545938014984130859e+00 1.632823467254638672e+00
3.430000000000000000e+02 4.056554794311523438e+01 7.778332710266113281e+00 -1.316740363836288452e-01 2.238877296447753906e+00 6.321609616279602051e-01 3.460643291473388672e-01
3.440000000000000000e+02 3.932921600341796875e+01 9.700654983520507812e+00 1.571437954902648926e+00 8.379326820373535156e+00 2.985229492187500000e+00 1.044775485992431641e+00
3.450000000000000000e+02 3.688979721069335938e+01 1.161593341827392578e+01 2.820983409881591797e+00 2.681136322021484375e+01 8.889703750610351562e+00 3.145750761032104492e+00
3.460000000000000000e+02 3.436229324340820312e+01 8.056803703308105469e+00 2.114793539047241211e+00 3.791247844696044922e+00 1.771812438964843750e+00 2.784143686294555664e+00
3.470000000000000000e+02 3.306642532348632812e+01 7.064651489257812500e+00 3.440642356872558594e-01 1.237957715988159180e+00 4.746065735816955566e-01 7.145980000495910645e-01
3.480000000000000000e+02 3.389890670776367188e+01 5.781542301177978516e+00 5.170964002609252930e-01 4.575800895690917969e+00 1.527869224548339844e+00 1.949095010757446289e+00
3.490000000000000000e+02 3.288402557373046875e+01 3.173928499221801758e+00 2.282970666885375977e+00 2.959323167800903320e+00 1.572688102722167969e+00 3.995331525802612305e+00
3.500000000000000000e+02 3.310263442993164062e+01 1.766061425209045410e+00 3.965579986572265625e+00 1.227879047393798828e+00 1.558037757873535156e+00 5.072504043579101562e+00
3.510000000000000000e+02 3.227901077270507812e+01 2.728551030158996582e-01 6.769009590148925781e+00 -7.929887175559997559e-01 1.792806267738342285e+00 8.077728271484375000e+00
3.520000000000000000e+02 3.219935989379882812e+01 5.428775310516357422e+00 -2.601098120212554932e-01 1.492927432060241699e+00 3.698452711105346680e-01 8.914189338684082031e-01
3.530000000000000000e+02 3.154734230041503906e+01 4.943496704101562500e+00 -1.099581718444824219e+00 1.259891510009765625e+00 4.809294641017913818e-02 5.444216728210449219e-01
3.540000000000000000e+02 3.239918518066406250e+01 2.730499505996704102e+00 2.069077968597412109e+00 2.316172361373901367e+00 1.315575122833251953e+00 4.690028667449951172e+00
3.550000000000000000e+02 3.055174827575683594e+01 1.395142555236816406e+00 1.346235513687133789e+00 8.199428558349609375e+00 2.863699197769165039e+00 5.579311847686767578e+00
3.560000000000000000e+02 3.035548591613769531e+01 5.716639757156372070e-01 2.388274431228637695e+00 1.049080181121826172e+01 3.863723039627075195e+00 4.688904285430908203e+00
3.570000000000000000e+02 3.166169357299804688e+01 -3.647905886173248291e-01 9.928651809692382812e+00 2.786169648170471191e-01 3.062180519104003906e+00 5.707733154296875000e+00
3.580000000000000000e+02 2.302096366882324219e+01 -2.638736486434936523e+00 3.170551061630249023e+00 6.301445007324218750e+00 2.841598987579345703e+00 -4.519450187683105469e+00
3.590000000000000000e+02 2.246419334411621094e+01 -2.030232191085815430e+00 2.642688989639282227e+00 5.790956020355224609e+00 2.530093431472778320e+00 -4.035712718963623047e+00
3.600000000000000000e+02 2.434794807434082031e+01 -2.297976493835449219e+00 2.772948741912841797e+00 6.543949604034423828e+00 2.795069456100463867e+00 -3.770603418350219727e+00
3.610000000000000000e+02 2.614751625061035156e+01 -2.010256052017211914e+00 3.517220497131347656e+00 6.336910247802734375e+00 2.956239223480224609e+00 -1.012784838676452637e+00
3.620000000000000000e+02 2.949815940856933594e+01 -1.605708718299865723e+00 6.507892131805419922e+00 1.142350196838378906e+01 5.379417896270751953e+00 5.021568775177001953e+00
3.630000000000000000e+02 2.895873069763183594e+01 -1.097169518470764160e+00 7.012131690979003906e+00 8.668439865112304688e+00 4.704171180725097656e+00 4.423779964447021484e+00
3.640000000000000000e+02 2.997658157348632812e+01 -1.139214158058166504e+00 7.700154781341552734e+00 1.777280616760253906e+01 7.641888618469238281e+00 7.788495540618896484e+00
3.650000000000000000e+02 3.016225624084472656e+01 -1.788393378257751465e+00 3.057808160781860352e+00 2.001081275939941406e+01 6.920586585998535156e+00 5.419572830200195312e+00
3.660000000000000000e+02 3.050534057617187500e+01 -6.547637581825256348e-01 1.425350189208984375e+01 2.037876701354980469e+01 1.038967990875244141e+01 1.086831092834472656e+01
3.670000000000000000e+02 2.942754364013671875e+01 -6.097877025604248047e-01 1.092691898345947266e+01 8.747231483459472656e+00 5.902245044708251953e+00 4.520429611206054688e+00
3.680000000000000000e+02 2.935405731201171875e+01 3.190988004207611084e-01 4.541719913482666016e+00 7.370840549468994141e+00 3.573768138885498047e+00 2.827283620834350586e+00
3.690000000000000000e+02 2.886741447448730469e+01 1.469767451286315918e+00 -2.024400532245635986e-01 3.451972961425781250e+00 9.748598933219909668e-01 9.865507483482360840e-01
3.700000000000000000e+02 2.971663475036621094e+01 1.456120252609252930e+00 1.339647453278303146e-02 5.974875926971435547e+00 1.796481728553771973e+00 2.192461252212524414e+00
3.710000000000000000e+02 2.861717414855957031e+01 3.657682657241821289e+00 -6.859970569610595703e+00 -1.993670344352722168e+00 -2.656092166900634766e+00 -3.700255632400512695e+00
3.720000000000000000e+02 3.022795295715332031e+01 4.093195915222167969e+00 -3.152740001678466797e+00 9.720370769500732422e-01 -6.542108654975891113e-01 -1.669056862592697144e-01
3.730000000000000000e+02 2.723060226440429688e+01 2.773483753204345703e+00 -9.874276161193847656e+00 -2.309109449386596680e+00 -3.655015707015991211e+00 -4.361143589019775391e+00
3.740000000000000000e+02 2.568677520751953125e+01 2.218840837478637695e+00 -8.006785392761230469e+00 -1.191291570663452148e+00 -2.759423017501831055e+00 -3.054826259613037109e+00
3.750000000000000000e+02 2.678560638427734375e+01 1.741224288940429688e+00 -3.463377952575683594e+00 -1.216072916984558105e+00 -1.403835296630859375e+00 -2.396826267242431641e+00
3.760000000000000000e+02 2.900356674194335938e+01 2.174139738082885742e+00 -2.830424785614013672e+00 2.644592046737670898e+00 -5.574985221028327942e-02 3.798827528953552246e-01
3.770000000000000000e+02 2.344720649719238281e+01 2.449166029691696167e-01 -3.181391954421997070e-01 8.911578178405761719e+00 2.578031778335571289e+00 -5.863794326782226562e+00
3.780000000000000000e+02 2.317560577392578125e+01 -6.685569882392883301e-01 4.139287173748016357e-01 7.407275199890136719e+00 2.346361160278320312e+00 -4.613152503967285156e+00
3.790000000000000000e+02 2.424298286437988281e+01 1.634456634521484375e+00 5.047695636749267578e-01 4.362070560455322266e+00 1.460052132606506348e+00 -6.480045318603515625e+00
3.800000000000000000e+02 2.371528625488281250e+01 2.185006618499755859e+00 5.441079616546630859e+00 1.010823726654052734e+01 4.664794921875000000e+00 -7.897302150726318359e+00
3.810000000000000000e+02 2.186155319213867188e+01 3.687809467315673828e+00 6.616703987121582031e+00 9.762942314147949219e+00 4.913894176483154297e+00 -2.922300398349761963e-01
3.820000000000000000e+02 2.033350372314453125e+01 5.048565864562988281e+00 4.921037673950195312e+00 2.922058343887329102e+00 2.352928876876831055e+00 -3.070868849754333496e-01
3.830000000000000000e+02 1.942290687561035156e+01 6.286033630371093750e+00 1.102064728736877441e+00 1.015908867120742798e-01 3.610966801643371582e-01 -5.269840359687805176e-01
3.840000000000000000e+02 1.682754707336425781e+01 7.267206668853759766e+00 -7.257863521575927734e+00 -4.142022609710693359e+00 -3.419965982437133789e+00 -5.409663677215576172e+00
3.850000000000000000e+02 1.616889762878417969e+01 6.768571376800537109e+00 -7.236627101898193359e+00 -4.024507045745849609e+00 -3.378340244293212891e+00 -5.443051338195800781e+00
3.860000000000000000e+02 1.548547840118408203e+01 6.315083503723144531e+00 -6.835031509399414062e+00 -3.864866733551025391e+00 -3.209969520568847656e+00 -5.096969604492187500e+00
3.870000000000000000e+02 1.411377811431884766e+01 5.514446735382080078e+00 -2.632911682128906250e+00 -2.360460519790649414e+00 -1.498011708259582520e+00 -3.289299249649047852e+00
3.880000000000000000e+02 1.553707122802734375e+01 3.119883298873901367e+00 9.657230377197265625e+00 -1.212799191474914551e+00 2.533329248428344727e+00 1.229098081588745117e+00
3.890000000000000000e+02 1.538767147064208984e+01 3.901736021041870117e+00 9.660429000854492188e+00 -2.745212554931640625e+00 2.074564933776855469e+00 -3.572040557861328125e+00
3.900000000000000000e+02 1.629709625244140625e+01 3.418595314025878906e+00 1.745885848999023438e+01 2.553731203079223633e+00 6.003777027130126953e+00 -2.233246713876724243e-01
3.910000000000000000e+02 1.839149665832519531e+01 5.763603687286376953e+00 1.985605359077453613e+00 -6.436358094215393066e-01 4.025908708572387695e-01 -3.179062306880950928e-01
3.920000000000000000e+02 1.747184944152832031e+01 7.779448032379150391e+00 -6.955353736877441406e+00 -4.083193778991699219e+00 -3.311564207077026367e+00 -5.312770843505859375e+00
3.930000000000000000e+02 1.726149177551269531e+01 6.670363426208496094e+00 -3.831803560256958008e+00 -2.456110715866088867e+00 -1.886374354362487793e+00 -3.141191244125366211e+00
3.940000000000000000e+02 2.318086051940917969e+01 2.696072340011596680e+00 7.356493473052978516e+00 2.157774734497070312e+01 8.680272102355957031e+00 -7.220573425292968750e+00
3.950000000000000000e+02 2.297174453735351562e+01 3.931214809417724609e+00 3.471753835678100586e+00 2.471387290954589844e+01 8.455688476562500000e+00 6.717158555984497070e-01
3.960000000000000000e+02 2.320549583435058594e+01 4.668069839477539062e+00 3.374293088912963867e+00 2.026285934448242188e+01 7.091145515441894531e+00 6.259925842285156250e+00
3.970000000000000000e+02 2.286531066894531250e+01 5.703469276428222656e+00 2.937756299972534180e+00 1.272486400604248047e+01 4.698786258697509766e+00 3.549998283386230469e+00
3.980000000000000000e+02 2.354565238952636719e+01 5.407155513763427734e+00 4.313179016113281250e+00 1.533488464355468750e+01 5.894419193267822266e+00 7.026659011840820312e+00
3.990000000000000000e+02 2.314714622497558594e+01 7.328042030334472656e+00 -9.426245093345642090e-02 8.896666526794433594e+00 2.640721082687377930e+00 2.548172473907470703e+00
4.000000000000000000e+02 2.312029457092285156e+01 6.496780872344970703e+00 1.790317416191101074e+00 1.068740367889404297e+01 3.743316411972045898e+00 3.321803092956542969e+00
4.010000000000000000e+02 2.420136451721191406e+01 8.838047027587890625e+00 -2.751241922378540039e+00 7.951110363006591797e+00 1.559960603713989258e+00 2.178022623062133789e+00
4.020000000000000000e+02 2.341962242126464844e+01 1.054543399810791016e+01 -3.665990829467773438e+00 6.014944076538085938e+00 7.046859264373779297e-01 1.459241271018981934e+00
4.030000000000000000e+02 2.380425834655761719e+01 1.274482631683349609e+01 2.358089685440063477e+00 5.881466865539550781e+00 2.471867084503173828e+00 4.117294311523437500e+00
4.040000000000000000e+02 2.437927627563476562e+01 1.334906673431396484e+01 4.052546977996826172e+00 1.085752391815185547e+01 4.473021030426025391e+00 5.717161655426025391e+00
4.050000000000000000e+02 2.570234680175781250e+01 7.993764400482177734e+00 1.640706896781921387e+00 4.458041667938232422e+00 1.829624533653259277e+00 2.870414018630981445e+00
4.060000000000000000e+02 2.513527297973632812e+01 1.026687145233154297e+01 -3.755062341690063477e+00 7.242880344390869141e+00 1.046345353126525879e+00 1.482403039932250977e+00
4.070000000000000000e+02 2.525046348571777344e+01 8.633929252624511719e+00 -1.183854818344116211e+00 6.324587821960449219e+00 1.542219996452331543e+00 2.508172273635864258e+00
4.080000000000000000e+02 2.705675315856933594e+01 1.123667812347412109e+01 -3.117141246795654297e+00 3.792369127273559570e+00 2.025683820247650146e-01 -6.042785644531250000e-01
4.090000000000000000e+02 2.698502349853515625e+01 1.016996955871582031e+01 -3.055694103240966797e+00 2.710345506668090820e+00 -1.036045327782630920e-01 -4.916093647480010986e-01
4.100000000000000000e+02 2.552351570129394531e+01 1.186042594909667969e+01 -2.799017190933227539e+00 8.647982597351074219e+00 1.754689574241638184e+00 1.016345977783203125e+00
4.110000000000000000e+02 2.706461524963378906e+01 1.571479797363281250e+01 2.666583776473999023e+00 6.042892456054687500e+00 2.612842798233032227e+00 2.268555879592895508e+00
4.120000000000000000e+02 2.691363143920898438e+01 1.769697570800781250e+01 -9.249019026756286621e-01 5.609152317047119141e+00 1.405275106430053711e+00 2.012855768203735352e+00
4.130000000000000000e+02 2.674647140502929688e+01 2.017116546630859375e+01 -1.481346368789672852e+00 4.053913116455078125e+00 7.717700600624084473e-01 3.215395510196685791e-01
4.140000000000000000e+02 2.712966918945312500e+01 2.234525489807128906e+01 -1.001022219657897949e+00 3.068629980087280273e+00 6.202823519706726074e-01 -1.043103933334350586e-01
4.150000000000000000e+02 2.534450912475585938e+01 2.356151580810546875e+01 -8.651502728462219238e-01 2.506548404693603516e+00 4.924194514751434326e-01 -5.834655761718750000e-01
4.160000000000000000e+02 2.574738121032714844e+01 2.458897972106933594e+01 -6.852409243583679199e-01 2.386349439620971680e+00 5.103325843811035156e-01 -4.487246572971343994e-01
4.170000000000000000e+02 2.652593803405761719e+01 2.692946434020996094e+01 -4.483745992183685303e-01 2.293667793273925781e+00 5.535879731178283691e-01 -3.417940437793731689e-01
4.180000000000000000e+02 2.709502410888671875e+01 2.813576126098632812e+01 -3.636292815208435059e-01 2.326999664306640625e+00 5.890110731124877930e-01 -3.007744550704956055e-01
4.190000000000000000e+02 2.583279609680175781e+01 2.911651992797851562e+01 -2.627839744091033936e-01 2.080668926239013672e+00 5.453655123710632324e-01 -3.291998803615570068e-01
4.200000000000000000e+02 2.666202545166015625e+01 3.065399169921875000e+01 -1.981024146080017090e-01 2.187728643417358398e+00 5.968878865242004395e-01 -2.685554623603820801e-01
4.210000000000000000e+02 2.920084571838378906e+01 1.125495243072509766e+01 -4.564192771911621094e+00 -2.707085371017456055e+00 -2.181383371353149414e+00 -3.613638162612915039e+00
4.220000000000000000e+02 2.871445274353027344e+01 1.178934383392333984e+01 -3.246932506561279297e+00 -8.363562822341918945e-01 -1.224986672401428223e+00 -2.146663427352905273e+00
4.230000000000000000e+02 2.897622871398925781e+01 1.396911525726318359e+01 -3.216390311717987061e-01 4.771931171417236328e-01 4.666623100638389587e-02 -2.485477030277252197e-01
4.240000000000000000e+02 2.743959808349609375e+01 1.641230964660644531e+01 7.912349700927734375e-01 4.671066761016845703e+00 1.638690590858459473e+00 2.832826137542724609e+00
4.250000000000000000e+02 2.963101387023925781e+01 2.019189834594726562e+01 -3.689457774162292480e-01 2.677666187286376953e+00 6.926161050796508789e-01 8.346937894821166992e-01
4.260000000000000000e+02 2.936055946350097656e+01 2.129971504211425781e+01 -5.542702078819274902e-01 2.771410942077636719e+00 6.651421785354614258e-01 5.073496699333190918e-01
4.270000000000000000e+02 2.781568145751953125e+01 2.328224563598632812e+01 -7.788735628128051758e-01 2.838421583175659180e+00 6.178644299507141113e-01 -5.132508650422096252e-02
4.280000000000000000e+02 2.887562942504882812e+01 2.565133666992187500e+01 -4.943998157978057861e-01 2.658992528915405273e+00 6.493777632713317871e-01 -1.330794692039489746e-01
4.290000000000000000e+02 2.727150917053222656e+01 2.506686210632324219e+01 -6.181792020797729492e-01 2.561410427093505859e+00 5.829693675041198730e-01 -2.526145875453948975e-01
4.300000000000000000e+02 3.107771110534667969e+01 1.275010967254638672e+01 -5.026103973388671875e+00 -2.919514179229736328e+00 -2.383685588836669922e+00 -3.744704246520996094e+00
4.310000000000000000e+02 3.119078254699707031e+01 1.376307010650634766e+01 -3.519460201263427734e+00 -2.020955801010131836e+00 -1.662124872207641602e+00 -2.069916963577270508e+00
4.320000000000000000e+02 3.058980369567871094e+01 1.521898460388183594e+01 -7.693204879760742188e-01 -6.352332830429077148e-01 -4.213661253452301025e-01 -1.929008774459362030e-02
4.330000000000000000e+02 3.057295417785644531e+01 1.606454086303710938e+01 -8.941103518009185791e-02 -1.774105876684188843e-01 -8.004648238420486450e-02 4.601367712020874023e-01
4.340000000000000000e+02 3.046381950378417969e+01 1.837663841247558594e+01 1.854360252618789673e-01 1.531312227249145508e+00 5.150244832038879395e-01 1.033971786499023438e+00
4.350000000000000000e+02 3.076277923583984375e+01 1.962140846252441406e+01 7.958274334669113159e-03 1.941149592399597168e+00 5.847323536872863770e-01 6.284852623939514160e-01
4.360000000000000000e+02 2.964692687988281250e+01 2.344846725463867188e+01 -5.216987133026123047e-01 2.746644258499145508e+00 6.674836874008178711e-01 1.190222874283790588e-01
4.370000000000000000e+02 3.006073570251464844e+01 2.554942131042480469e+01 -4.325075149536132812e-01 2.701361179351806641e+00 6.806560754776000977e-01 -1.000872626900672913e-01
4.380000000000000000e+02 3.057160568237304688e+01 1.327483558654785156e+01 -3.487273931503295898e+00 -2.000936985015869141e+00 -1.646463274955749512e+00 -2.376225948333740234e+00
4.390000000000000000e+02 3.178021812438964844e+01 1.426912689208984375e+01 -3.720271348953247070e+00 -1.732424616813659668e+00 -1.635808825492858887e+00 -1.563304543495178223e+00
4.400000000000000000e+02 3.252456283569335938e+01 1.658447647094726562e+01 -3.036326467990875244e-01 -4.017353951930999756e-01 -2.116104215383529663e-01 -6.754223108291625977e-01
4.410000000000000000e+02 3.271555709838867188e+01 1.838652610778808594e+01 1.275835484266281128e-01 9.840688705444335938e-01 3.334957361221313477e-01 -4.431703984737396240e-01
4.420000000000000000e+02 3.215536117553710938e+01 2.210700607299804688e+01 -1.808572411537170410e-01 2.499500513076782227e+00 6.955929994583129883e-01 1.084067113697528839e-02
4.430000000000000000e+02 3.303162002563476562e+01 1.408101081848144531e+01 -6.309306621551513672e+00 -1.611703634262084961e+00 -2.376303195953369141e+00 -2.368588924407958984e+00
4.440000000000000000e+02 3.431394958496093750e+01 1.435606288909912109e+01 -5.820474624633789062e+00 -6.075987815856933594e-01 -1.928421974182128906e+00 -1.525931000709533691e+00
4.450000000000000000e+02 3.506583786010742188e+01 1.425994014739990234e+01 -3.376292228698730469e+00 5.813735127449035645e-01 -8.384755849838256836e-01 -1.221360802650451660e+00
4.460000000000000000e+02 3.578867721557617188e+01 1.404429149627685547e+01 6.626082062721252441e-01 5.775829792022705078e+00 1.931531310081481934e+00 -3.491537570953369141e+00
4.470000000000000000e+02 3.526564788818359375e+01 1.504433917999267578e+01 -1.921780347824096680e+00 3.447520256042480469e+00 4.577219188213348389e-01 -4.086220264434814453e+00
4.480000000000000000e+02 3.592016220092773438e+01 1.489353179931640625e+01 -3.074044466018676758e+00 7.435333728790283203e+00 1.308386802673339844e+00 -3.531680107116699219e+00
4.490000000000000000e+02 3.735074234008789062e+01 1.517569828033447266e+01 -2.218503236770629883e+00 9.822001457214355469e+00 2.281049251556396484e+00 -3.533939421176910400e-01
4.500000000000000000e+02 3.750263977050781250e+01 1.335261917114257812e+01 1.206644773483276367e+00 1.428876590728759766e+01 4.648623466491699219e+00 2.250093936920166016e+00
4.510000000000000000e+02 4.851828765869140625e+01 1.576895618438720703e+01 9.078065156936645508e-01 1.539853453636169434e+00 7.342979907989501953e-01 -2.005949258804321289e+00
4.520000000000000000e+02 4.709958267211914062e+01 1.663618850708007812e+01 1.030775785446166992e+00 1.678984045982360840e+00 8.129279613494873047e-01 -2.625833749771118164e-01
4.530000000000000000e+02 4.596356201171875000e+01 1.859303283691406250e+01 8.367522954940795898e-01 2.869340419769287109e+00 1.111827850341796875e+00 3.208447694778442383e-01
4.540000000000000000e+02 4.422698593139648438e+01 2.003787612915039062e+01 3.084704875946044922e-01 3.651435375213623047e+00 1.187971711158752441e+00 7.095803618431091309e-01
4.550000000000000000e+02 4.337511444091796875e+01 2.274295043945312500e+01 -7.512894272804260254e-02 4.090385913848876953e+00 1.204577088356018066e+00 3.417227566242218018e-01
4.560000000000000000e+02 4.041030502319335938e+01 2.450235557556152344e+01 -3.925236761569976807e-01 4.022411346435546875e+00 1.088966369628906250e+00 1.105094105005264282e-01
4.570000000000000000e+02 3.925636291503906250e+01 2.660499000549316406e+01 -3.563159108161926270e-01 3.817187786102294922e+00 1.038261532783508301e+00 -2.564870193600654602e-02
4.580000000000000000e+02 3.763960647583007812e+01 2.843039131164550781e+01 -3.143747448921203613e-01 3.557256221771240234e+00 9.728644490242004395e-01 -9.834174811840057373e-02
4.590000000000000000e+02 3.533695983886718750e+01 2.971844482421875000e+01 -2.860603332519531250e-01 3.246651411056518555e+00 8.881773352622985840e-01 -1.354704052209854126e-01
4.600000000000000000e+02 3.161442947387695312e+01 3.289323806762695312e+01 -1.779092997312545776e-01 2.727633953094482422e+00 7.649173736572265625e-01 -1.858045607805252075e-01
4.610000000000000000e+02 2.318206024169921875e+01 3.745064544677734375e+01 8.394511789083480835e-02 1.758115887641906738e+00 5.526183247566223145e-01 -1.155501827597618103e-01
4.620000000000000000e+02 1.997878074645996094e+01 3.734167098999023438e+01 1.550921052694320679e-01 1.448656320571899414e+00 4.811245203018188477e-01 -6.188732385635375977e-02
4.630000000000000000e+02 2.073173332214355469e+01 3.464337158203125000e+01 9.889651834964752197e-02 1.489560604095458984e+00 4.765371382236480713e-01 -1.459048837423324585e-01
4.640000000000000000e+02 2.919944572448730469e+01 3.477439117431640625e+01 -1.049782931804656982e-01 2.475751876831054688e+00 7.112320661544799805e-01 -1.803458631038665771e-01
4.650000000000000000e+02 3.142238235473632812e+01 3.486786651611328125e+01 -1.342724561691284180e-01 2.687770128250122070e+00 7.660493254661560059e-01 -1.523003578186035156e-01
4.660000000000000000e+02 4.990011978149414062e+01 1.475348567962646484e+01 4.426541805267333984e+00 1.070032310485839844e+01 4.538059711456298828e+00 -5.641478061676025391e+00
4.670000000000000000e+02 4.997814559936523438e+01 9.745699882507324219e+00 1.803426742553710938e+00 1.243159961700439453e+01 4.270507812500000000e+00 4.248110294342041016e+00
4.680000000000000000e+02 4.956415939331054688e+01 8.983682632446289062e+00 1.346550345420837402e+00 8.519771575927734375e+00 2.959896802902221680e+00 3.220052957534790039e+00
4.690000000000000000e+02 5.094178771972656250e+01 6.372012615203857422e+00 9.015791863203048706e-02 9.495571136474609375e+00 2.875718593597412109e+00 -1.941442638635635376e-01
4.700000000000000000e+02 5.376919555664062500e+01 5.408394336700439453e+00 7.461397647857666016e-01 1.503617763519287109e+01 4.734695434570312500e+00 4.047535061836242676e-01
4.710000000000000000e+02 5.414870071411132812e+01 3.597891569137573242e+00 1.405352711677551270e+00 2.388171386718750000e+01 7.586120128631591797e+00 -3.984857201576232910e-01
4.720000000000000000e+02 4.900735855102539062e+01 8.311232566833496094e+00 1.111122131347656250e+00 5.385859966278076172e+00 1.949094653129577637e+00 2.167299509048461914e+00
4.730000000000000000e+02 4.908584976196289062e+01 5.882813453674316406e+00 9.334646463394165039e-01 5.259288787841796875e+00 1.857825994491577148e+00 1.017863035202026367e+00
4.740000000000000000e+02 4.970706176757812500e+01 5.523411750793457031e+00 8.949229717254638672e-01 6.546026229858398438e+00 2.232284784317016602e+00 7.502451539039611816e-01
4.750000000000000000e+02 4.995686340332031250e+01 2.769210577011108398e+00 2.029034614562988281e+00 5.198831558227539062e+00 2.168359994888305664e+00 1.393423557281494141e+00
4.760000000000000000e+02 4.795407104492187500e+01 1.508562326431274414e+00 5.427781939506530762e-01 2.822552204132080078e+00 1.009599089622497559e+00 2.714843988418579102e+00
4.770000000000000000e+02 4.790353775024414062e+01 -5.530753135681152344e-01 -1.898812502622604370e-01 1.749426722526550293e+00 4.678636193275451660e-01 3.816648244857788086e+00
4.780000000000000000e+02 4.815647125244140625e+01 -1.906975030899047852e+00 -1.976672410964965820e+00 -1.026880517601966858e-01 -6.238081455230712891e-01 3.066763639450073242e+00
4.790000000000000000e+02 4.684388732910156250e+01 -3.292899370193481445e+00 -4.342129230499267578e+00 -7.995146512985229492e-01 -1.542493104934692383e+00 1.889217495918273926e+00
4.800000000000000000e+02 4.824034881591796875e+01 -2.608119487762451172e+00 -3.055743217468261719e+00 -8.497180342674255371e-01 -1.171638369560241699e+00 3.138718843460083008e+00
4.810000000000000000e+02 4.834954452514648438e+01 -3.461956739425659180e+00 -8.536624908447265625e+00 -1.417462229728698730e+00 -2.986226081848144531e+00 2.601546287536621094e+00
4.820000000000000000e+02 4.910926437377929688e+01 -3.241918325424194336e+00 -7.052896976470947266e+00 -1.583080410957336426e+00 -2.590793371200561523e+00 2.372554540634155273e+00
4.830000000000000000e+02 4.970946502685546875e+01 -1.174670934677124023e+00 -1.469519853591918945e+00 1.845878481864929199e+00 1.129075884819030762e-01 1.676376581192016602e+00
4.840000000000000000e+02 4.989698791503906250e+01 2.607307434082031250e-01 3.211135864257812500e-01 3.615582227706909180e+00 1.181008696556091309e+00 2.031070709228515625e+00
4.850000000000000000e+02 5.128450012207031250e+01 1.801376581192016602e+00 2.090058565139770508e+00 7.215069770812988281e+00 2.791538476943969727e+00 1.050845623016357422e+00
4.860000000000000000e+02 5.170023727416992188e+01 4.178816795349121094e+00 2.433676004409790039e+00 9.741852760314941406e+00 3.652658700942993164e+00 -5.527729392051696777e-01
4.870000000000000000e+02 5.073191833496093750e+01 5.888642311096191406e+00 5.936168432235717773e-01 8.754570007324218750e+00 2.804456233978271484e+00 -1.037252023816108704e-01
4.880000000000000000e+02 4.971833038330078125e+01 7.661324977874755859e+00 -5.674178898334503174e-02 7.982794284820556641e+00 2.377815723419189453e+00 1.594926238059997559e+00
4.890000000000000000e+02 5.625213241577148438e+01 -1.832392501831054688e+01 3.615116357803344727e+00 1.361040210723876953e+01 5.167655467987060547e+00 2.208261251449584961e+00
4.900000000000000000e+02 5.588475799560546875e+01 -1.622250366210937500e+01 5.092698335647583008e-01 1.524466896057128906e+01 4.726181983947753906e+00 4.395789280533790588e-02
4.910000000000000000e+02 5.695869827270507812e+01 -1.786352920532226562e+01 2.315853357315063477e+00 1.103417301177978516e+01 4.005007743835449219e+00 3.454713821411132812e-01
4.920000000000000000e+02 4.031597900390625000e+01 -3.432037532329559326e-01 -7.524816989898681641e+00 -2.568745613098144531e+00 -3.028068780899047852e+00 -3.674116611480712891e+00
4.930000000000000000e+02 3.955022430419921875e+01 -4.755728244781494141e-01 -2.047818660736083984e+00 3.033383607864379883e+00 2.956694662570953369e-01 -5.132328510284423828e+00
4.940000000000000000e+02 3.863656234741210938e+01 -1.692035555839538574e+00 -3.298850059509277344e+00 6.736578941345214844e+00 1.031318664550781250e+00 -5.042166709899902344e+00
4.950000000000000000e+02 4.062265014648437500e+01 -3.190709352493286133e+00 6.000581383705139160e-01 3.300589323043823242e+00 1.170194149017333984e+00 -3.229248762130737305e+00
4.960000000000000000e+02 3.854088592529296875e+01 -5.226131439208984375e+00 8.150889724493026733e-02 3.363067388534545898e+00 1.033372879028320312e+00 -1.527729749679565430e+00
4.970000000000000000e+02 3.901787948608398438e+01 -8.725211143493652344e+00 8.004283308982849121e-01 4.153032779693603516e+00 1.486038327217102051e+00 -1.634841203689575195e+00
4.980000000000000000e+02 3.932387542724609375e+01 -7.553215503692626953e+00 7.139264941215515137e-01 4.498987674713134766e+00 1.563874125480651855e+00 -1.203770160675048828e+00
4.990000000000000000e+02 4.007560348510742188e+01 -9.092995643615722656e+00 3.060764670372009277e-01 6.988082408905029297e+00 2.188247680664062500e+00 -1.214471459388732910e+00
5.000000000000000000e+02 3.939469528198242188e+01 -9.448195457458496094e+00 7.917706966400146484e-01 5.462766647338867188e+00 1.876361250877380371e+00 -2.051635265350341797e+00
5.010000000000000000e+02 3.975410461425781250e+01 -1.017588520050048828e+01 1.009365081787109375e+00 7.397821903228759766e+00 2.522156000137329102e+00 -2.460914850234985352e+00
5.020000000000000000e+02 4.069593811035156250e+01 -1.247105884552001953e+01 1.148635029792785645e+00 1.490553283691406250e+01 4.816250324249267578e+00 -2.161731958389282227e+00
5.030000000000000000e+02 4.074967956542968750e+01 -1.058864116668701172e+01 2.961075901985168457e-01 9.947958946228027344e+00 3.073220014572143555e+00 -1.252099037170410156e+00
5.040000000000000000e+02 4.075962066650390625e+01 -8.771683692932128906e+00 -2.858365885913372040e-02 7.850551128387451172e+00 2.346590280532836914e+00 -4.910410940647125244e-01
5.050000000000000000e+02 4.114457702636718750e+01 -5.127592086791992188e+00 1.706216335296630859e+00 5.289699554443359375e+00 2.098774671554565430e+00 -9.705980420112609863e-01
5.060000000000000000e+02 3.977908706665039062e+01 -3.676206827163696289e+00 -1.146253570914268494e-02 4.062744617462158203e+00 1.215384602546691895e+00 -3.103989839553833008e+00
5.070000000000000000e+02 4.115506362915039062e+01 -3.702656626701354980e-01 -6.193369388580322266e+00 -1.296043992042541504e+00 -2.246824026107788086e+00 -2.852813720703125000e+00
5.080000000000000000e+02 4.124174499511718750e+01 -1.558142185211181641e+01 3.163833618164062500e+00 1.482947349548339844e+01 5.397992134094238281e+00 1.502454638481140137e+00
5.090000000000000000e+02 4.081906509399414062e+01 -1.486259841918945312e+01 1.251053333282470703e+00 1.709991645812988281e+01 5.505290985107421875e+00 9.106634855270385742e-01
5.100000000000000000e+02 4.200140762329101562e+01 -6.063970327377319336e-01 -3.438262462615966797e+00 1.386641144752502441e+00 -6.154864430427551270e-01 -9.007077217102050781e-01
5.110000000000000000e+02 4.254032897949218750e+01 4.501077830791473389e-01 -5.034289360046386719e+00 8.633834123611450195e-01 -1.251271724700927734e+00 -1.386319041252136230e+00
5.120000000000000000e+02 4.378204727172851562e+01 5.156679823994636536e-02 -3.506038188934326172e+00 3.515311002731323242e+00 2.781840739771723747e-03 1.120687246322631836e+00
5.130000000000000000e+02 4.676504898071289062e+01 -1.041894927620887756e-01 -9.460983276367187500e-01 2.756392478942871094e+00 5.430882573127746582e-01 3.958273887634277344e+00
5.140000000000000000e+02 4.616391754150390625e+01 2.305778115987777710e-01 -1.488968968391418457e+00 3.184478998184204102e+00 5.086529850959777832e-01 3.719181060791015625e+00
5.150000000000000000e+02 4.684588623046875000e+01 2.348551750183105469e+00 2.649131417274475098e-01 2.323887586593627930e+00 7.766401767730712891e-01 2.052178859710693359e+00
5.160000000000000000e+02 4.732425689697265625e+01 1.316524624824523926e+00 7.861141860485076904e-02 2.403394699096679688e+00 7.446018457412719727e-01 2.839544057846069336e+00
5.170000000000000000e+02 4.792242813110351562e+01 3.625388383865356445e+00 1.198298335075378418e+00 2.849287509918212891e+00 1.214275717735290527e+00 1.594814538955688477e+00
5.180000000000000000e+02 4.576513671875000000e+01 3.522283792495727539e+00 3.840559720993041992e-01 1.251420855522155762e+00 4.906430542469024658e-01 9.148006439208984375e-01
5.190000000000000000e+02 4.523030853271484375e+01 4.101132869720458984e+00 3.544030189514160156e-01 6.712629199028015137e-01 3.076997697353363037e-01 6.473143696784973145e-01
5.200000000000000000e+02 4.305309677124023438e+01 1.800498008728027344e+00 -2.506979465484619141e+00 -7.196240425109863281e-01 -9.679810404777526855e-01 -1.360512852668762207e+00
5.210000000000000000e+02 4.348598098754882812e+01 1.424724578857421875e+00 -3.265879869461059570e+00 1.187602400779724121e+00 -6.234832406044006348e-01 -4.858267605304718018e-01
5.220000000000000000e+02 4.630968093872070312e+01 4.118131160736083984e+00 6.817805767059326172e-01 1.136901140213012695e+00 5.456044673919677734e-01 1.118074655532836914e+00
5.230000000000000000e+02 4.575684738159179688e+01 4.701713085174560547e+00 5.514679551124572754e-01 7.288905978202819824e-01 3.841075599193572998e-01 5.597976446151733398e-01
5.240000000000000000e+02 3.838830184936523438e+01 2.247333228588104248e-01 4.191000461578369141e+00 1.223866271972656250e+01 4.928898811340332031e+00 -7.235942363739013672e+00
5.250000000000000000e+02 3.780005264282226562e+01 -8.697680830955505371e-01 -2.050409555435180664e+00 1.099024581909179688e+01 2.681951045989990234e+00 -3.689256191253662109e+00
5.260000000000000000e+02 3.508168029785156250e+01 -2.778132557868957520e-01 1.453542828559875488e+00 2.359032154083251953e+00 1.143772482872009277e+00 1.513960242271423340e+00
5.270000000000000000e+02 3.531019973754882812e+01 -2.317100763320922852e+00 -3.664794683456420898e+00 9.987967014312744141e-01 -7.997993826866149902e-01 2.134668588638305664e+00
5.280000000000000000e+02 3.535395050048828125e+01 -3.388046264648437500e+00 -2.880500793457031250e+00 -1.206912040710449219e+00 -1.226223826408386230e+00 2.472138881683349609e+00
5.290000000000000000e+02 3.422848129272460938e+01 -2.234074115753173828e+00 -4.958983421325683594e+00 -3.683851957321166992e+00 -2.592850685119628906e+00 4.864267826080322266e+00
5.300000000000000000e+02 3.588119506835937500e+01 -3.993824005126953125e+00 -2.091768741607666016e+00 -2.152280658483505249e-01 -6.920990347862243652e-01 9.295759797096252441e-01
5.310000000000000000e+02 3.683644866943359375e+01 -5.303387165069580078e+00 -1.418790221214294434e-01 1.457222342491149902e+00 3.946030139923095703e-01 -6.925281882286071777e-01
5.320000000000000000e+02 3.790648269653320312e+01 -5.518464088439941406e+00 -3.626623004674911499e-02 2.590987920761108398e+00 7.664164900779724121e-01 -1.246992111206054688e+00
5.330000000000000000e+02 3.861830902099609375e+01 -8.011779785156250000e+00 7.052301764488220215e-01 3.214390754699707031e+00 1.175886273384094238e+00 -1.459505200386047363e+00
5.340000000000000000e+02 3.761582183837890625e+01 -1.455052495002746582e-01 -5.971099138259887695e-01 1.375641441345214844e+01 3.947791337966918945e+00 -1.426440596580505371e+00
5.350000000000000000e+02 4.414960098266601562e+01 1.313492965698242188e+01 4.720968008041381836e-01 6.746597290039062500e-01 3.440269529819488525e-01 7.089837789535522461e-01
5.360000000000000000e+02 4.361860656738281250e+01 1.253695678710937500e+01 6.858459711074829102e-01 5.482365489006042480e-01 3.702247738838195801e-01 7.611603736877441406e-01
5.370000000000000000e+02 4.470904922485351562e+01 1.639410209655761719e+01 6.048422455787658691e-01 2.086563348770141602e+00 8.074216842651367188e-01 1.311578869819641113e+00
5.380000000000000000e+02 4.500135421752929688e+01 1.797685432434082031e+01 7.377050518989562988e-01 2.701850891113281250e+00 1.031866788864135742e+00 8.898162841796875000e-01
5.390000000000000000e+02 4.434599685668945312e+01 1.885743522644042969e+01 4.811599850654602051e-01 3.272881507873535156e+00 1.126212477684020996e+00 9.747099280357360840e-01
5.400000000000000000e+02 4.514743804931640625e+01 1.878144264221191406e+01 6.822944283485412598e-01 3.105012655258178711e+00 1.136192202568054199e+00 6.472841501235961914e-01
5.410000000000000000e+02 4.292633056640625000e+01 1.934191894531250000e+01 1.435736194252967834e-02 3.912055015563964844e+00 1.177923679351806641e+00 1.159593343734741211e+00
5.420000000000000000e+02 4.326110839843750000e+01 2.014372444152832031e+01 6.136870756745338440e-02 3.915772199630737305e+00 1.193142294883728027e+00 8.609768748283386230e-01
5.430000000000000000e+02 4.253727722167968750e+01 2.049591636657714844e+01 -1.427664607763290405e-01 4.095756530761718750e+00 1.185897111892700195e+00 8.251442313194274902e-01
5.440000000000000000e+02 4.729610824584960938e+01 1.478450393676757812e+01 -1.326935648918151855e+00 -1.436864137649536133e-01 -4.411866366863250732e-01 -5.018229484558105469e-01
5.450000000000000000e+02 4.539012145996093750e+01 1.530725479125976562e+01 2.363846302032470703e-01 1.253112435340881348e+00 4.468491375446319580e-01 9.280948638916015625e-01
5.460000000000000000e+02 4.561205673217773438e+01 1.700666236877441406e+01 8.671657443046569824e-01 2.034322738647460938e+00 8.704465627670288086e-01 7.572836875915527344e-01
5.470000000000000000e+02 4.691121292114257812e+01 1.599205780029296875e+01 8.947446346282958984e-01 1.008656740188598633e+00 5.710204243659973145e-01 -3.320011869072914124e-02
5.480000000000000000e+02 4.658164215087890625e+01 1.438288688659667969e+01 -7.479653954505920410e-01 6.974751502275466919e-02 -2.034653723239898682e-01 -2.211488932371139526e-01
5.490000000000000000e+02 4.951194381713867188e+01 -3.889693021774291992e+00 -8.145055770874023438e+00 -2.154067516326904297e+00 -3.089736938476562500e+00 3.424896478652954102e+00
5.500000000000000000e+02 5.063471221923828125e+01 -4.917185306549072266e+00 -3.545680761337280273e+00 -1.246996402740478516e+00 -1.437803149223327637e+00 2.193516254425048828e+00
5.510000000000000000e+02 5.174486541748046875e+01 -6.034069061279296875e+00 -9.836433529853820801e-01 5.768784880638122559e-01 -1.220294684171676636e-01 2.213198095560073853e-01
5.520000000000000000e+02 5.275308227539062500e+01 -7.263484477996826172e+00 5.044178962707519531e-01 2.614869117736816406e+00 9.357860684394836426e-01 -1.173834919929504395e+00
5.530000000000000000e+02 5.227270507812500000e+01 -6.625569820404052734e+00 -1.004033908247947693e-01 1.573064446449279785e+00 4.417983293533325195e-01 -6.112855672836303711e-01
5.540000000000000000e+02 5.279453659057617188e+01 -5.070039272308349609e+00 -2.724813938140869141e+00 3.639892578125000000e+00 2.745236158370971680e-01 -6.332745552062988281e-01
5.550000000000000000e+02 5.219184875488281250e+01 -4.553627014160156250e+00 -3.543563127517700195e+00 3.157471179962158203e+00 -1.158275976777076721e-01 -3.284519314765930176e-01
5.560000000000000000e+02 5.261017990112304688e+01 -4.050283908843994141e+00 -3.785540819168090820e+00 4.289474010467529297e+00 1.511799395084381104e-01 -9.848247170448303223e-01
5.570000000000000000e+02 5.120412445068359375e+01 -1.813140153884887695e+00 -2.781449317932128906e+00 4.088366031646728516e+00 3.920750319957733154e-01 -1.209027767181396484e-01
5.580000000000000000e+02 5.123257827758789062e+01 -3.485471725463867188e+00 -4.517173767089843750e+00 2.743966102600097656e+00 -5.319623947143554688e-01 -2.454502731561660767e-01
5.590000000000000000e+02 5.166010665893554688e+01 -4.038538932800292969e+00 -4.453635692596435547e+00 2.967534780502319336e+00 -4.458302557468414307e-01 -1.274088174104690552e-01
5.600000000000000000e+02 5.328965377807617188e+01 -6.830719470977783203e+00 -3.780198097229003906e-01 3.346647500991821289e+00 8.905882835388183594e-01 -9.299645423889160156e-01
5.610000000000000000e+02 5.358537292480468750e+01 -8.610518455505371094e+00 8.225057125091552734e-01 3.857823133468627930e+00 1.404098629951477051e+00 -1.734298825263977051e+00
5.620000000000000000e+02 5.580211257934570312e+01 -1.466854667663574219e+01 4.934387803077697754e-01 1.416980743408203125e+01 4.398973941802978516e+00 -1.345477461814880371e+00
5.630000000000000000e+02 5.589217758178710938e+01 -1.697344970703125000e+01 -2.970509827136993408e-01 1.664364242553710938e+01 4.903977870941162109e+00 1.976663768291473389e-01
5.640000000000000000e+02 5.820268630981445312e+01 -1.872102737426757812e+01 1.157115459442138672e+00 8.547123908996582031e+00 2.911272048950195312e+00 -9.164923429489135742e-01
5.650000000000000000e+02 6.034498596191406250e+01 -2.057355117797851562e+01 3.798784017562866211e-01 6.663191318511962891e+00 2.112920761108398438e+00 -1.058324575424194336e+00
5.660000000000000000e+02 6.267052459716796875e+01 -2.153960800170898438e+01 4.068153202533721924e-01 5.558318138122558594e+00 1.789540052413940430e+00 -1.159208655357360840e+00
5.670000000000000000e+02 6.429594421386718750e+01 -2.408889961242675781e+01 5.004432201385498047e-01 5.114471912384033203e+00 1.684474587440490723e+00 -6.031540036201477051e-01
5.680000000000000000e+02 6.553818511962890625e+01 -2.683252525329589844e+01 4.227701425552368164e-01 5.257774829864501953e+00 1.704163551330566406e+00 -2.609594762325286865e-01
5.690000000000000000e+02 6.740069580078125000e+01 -2.846251296997070312e+01 3.746812045574188232e-01 5.425365447998046875e+00 1.740013957023620605e+00 -2.768317423760890961e-02
5.700000000000000000e+02 6.968766784667968750e+01 -2.959918022155761719e+01 2.973285913467407227e-01 5.695305824279785156e+00 1.797790408134460449e+00 1.232131049036979675e-01
5.710000000000000000e+02 7.034774780273437500e+01 -3.104298782348632812e+01 2.243868857622146606e-01 5.818119525909423828e+00 1.812752008438110352e+00 1.246632412075996399e-01
5.720000000000000000e+02 7.181449127197265625e+01 -3.267648696899414062e+01 1.552629172801971436e-01 5.996185779571533203e+00 1.845434665679931641e+00 1.198680177330970764e-01
5.730000000000000000e+02 7.333959197998046875e+01 -3.463115310668945312e+01 9.089929610490798950e-02 6.159263610839843750e+00 1.875048875808715820e+00 9.504928439855575562e-02
5.740000000000000000e+02 7.623136901855468750e+01 -3.536618804931640625e+01 2.858939394354820251e-02 6.414648056030273438e+00 1.932971239089965820e+00 6.572341173887252808e-02
5.750000000000000000e+02 7.735965728759765625e+01 -3.736531066894531250e+01 1.211350131779909134e-02 6.469980239868164062e+00 1.944628119468688965e+00 3.459748625755310059e-02
5.760000000000000000e+02 7.944750976562500000e+01 -3.882587432861328125e+01 -2.169672166928648949e-03 6.562735080718994141e+00 1.968169689178466797e+00 4.412442445755004883e-03
5.770000000000000000e+02 7.830401611328125000e+01 -3.783702850341796875e+01 2.271414501592516899e-03 6.511543750762939453e+00 1.954144597053527832e+00 2.363408729434013367e-02
5.780000000000000000e+02 5.647216033935546875e+01 -1.949803352355957031e+01 -9.586832523345947266e-01 1.011396789550781250e+01 2.746585369110107422e+00 3.309843242168426514e-01
5.790000000000000000e+02 5.735284423828125000e+01 -2.004912376403808594e+01 3.007230758666992188e-01 8.574574470520019531e+00 2.662589311599731445e+00 3.565009236335754395e-01
5.800000000000000000e+02 5.959955215454101562e+01 -2.225639152526855469e+01 -1.107950136065483093e-01 6.777092456817626953e+00 1.999889254570007324e+00 -5.313388109207153320e-01
5.810000000000000000e+02 6.034593582153320312e+01 -2.457315063476562500e+01 -1.211486905813217163e-01 6.098819255828857422e+00 1.793301105499267578e+00 -4.682215750217437744e-01
5.820000000000000000e+02 6.266862487792968750e+01 -2.635580825805664062e+01 1.849474012851715088e-01 5.494640827178955078e+00 1.703876495361328125e+00 -4.495227634906768799e-01
5.830000000000000000e+02 6.396025085449218750e+01 -2.813014984130859375e+01 2.414691448211669922e-01 5.414623737335205078e+00 1.696827888488769531e+00 -2.797435224056243896e-01
5.840000000000000000e+02 6.513602447509765625e+01 -3.040226364135742188e+01 2.253963202238082886e-01 5.475604057312011719e+00 1.710300087928771973e+00 -1.205600947141647339e-01
5.850000000000000000e+02 6.673117828369140625e+01 -3.167000198364257812e+01 2.260679453611373901e-01 5.590502738952636719e+00 1.744971156120300293e+00 -2.996513433754444122e-02
5.860000000000000000e+02 6.823046875000000000e+01 -3.307039260864257812e+01 1.841172575950622559e-01 5.716587066650390625e+00 1.770211338996887207e+00 3.447936102747917175e-02
5.870000000000000000e+02 6.925402832031250000e+01 -3.595567321777343750e+01 1.186816096305847168e-01 5.846399307250976562e+00 1.789524316787719727e+00 4.445427283644676208e-02
5.880000000000000000e+02 7.137219238281250000e+01 -3.647999572753906250e+01 9.753105789422988892e-02 6.007462024688720703e+00 1.831497907638549805e+00 6.138017401099205017e-02
5.890000000000000000e+02 7.358626556396484375e+01 -3.858432388305664062e+01 4.434306919574737549e-02 6.180820465087890625e+00 1.867549061775207520e+00 2.594029530882835388e-02
5.900000000000000000e+02 7.592476654052734375e+01 -3.965177154541015625e+01 1.982991956174373627e-02 6.357816219329833984e+00 1.913293838500976562e+00 3.578935936093330383e-02
5.910000000000000000e+02 7.671833038330078125e+01 -4.181119918823242188e+01 7.244445383548736572e-03 6.390566825866699219e+00 1.919343352317810059e+00 7.275308482348918915e-03
5.920000000000000000e+02 7.958022308349609375e+01 -4.206489944458007812e+01 3.581543220207095146e-03 6.554761886596679688e+00 1.967503070831298828e+00 4.013347905129194260e-03
5.930000000000000000e+02 7.855002593994140625e+01 -4.199402236938476562e+01 -3.557352101779542863e-05 6.514221191406250000e+00 1.954255700111389160e+00 -7.992365397512912750e-03
5.940000000000000000e+02 7.951342773437500000e+01 -4.043972396850585938e+01 3.417586907744407654e-03 6.558922767639160156e+00 1.968702077865600586e+00 -4.020876716822385788e-03
5.950000000000000000e+02 7.851416015625000000e+01 -3.959057617187500000e+01 6.667443551123142242e-03 6.499334812164306641e+00 1.951800704002380371e+00 7.341377437114715576e-03
5.960000000000000000e+02 7.706800842285156250e+01 -3.897753906250000000e+01 1.611557602882385254e-02 6.429744720458984375e+00 1.933758139610290527e+00 2.646598778665065765e-02
5.970000000000000000e+02 7.480093383789062500e+01 -3.658279800415039062e+01 4.262896254658699036e-02 6.280959606170654297e+00 1.897076606750488281e+00 5.467318370938301086e-02
5.980000000000000000e+02 7.161075592041015625e+01 -3.446557235717773438e+01 1.183712482452392578e-01 6.002236366271972656e+00 1.836182355880737305e+00 8.424919843673706055e-02
5.990000000000000000e+02 7.035555267333984375e+01 -3.244269943237304688e+01 1.753353327512741089e-01 5.871635437011718750e+00 1.814091205596923828e+00 9.552050381898880005e-02
6.000000000000000000e+02 6.810723876953125000e+01 -3.032950019836425781e+01 2.713257372379302979e-01 5.596254348754882812e+00 1.760274052619934082e+00 2.137455716729164124e-02
6.010000000000000000e+02 6.416361236572265625e+01 -2.530949401855468750e+01 4.082173705101013184e-01 5.238969326019287109e+00 1.694155931472778320e+00 -5.176415443420410156e-01
6.020000000000000000e+02 6.162066650390625000e+01 -2.328808593750000000e+01 1.354851275682449341e-01 5.917974472045898438e+00 1.816037893295288086e+00 -7.743087410926818848e-01
6.030000000000000000e+02 5.947998809814453125e+01 -2.019501495361328125e+01 1.652058213949203491e-01 7.529595375061035156e+00 2.308440446853637695e+00 -1.029766559600830078e+00
6.040000000000000000e+02 5.777714538574218750e+01 -1.938689422607421875e+01 2.184399515390396118e-01 9.391669273376464844e+00 2.883032798767089844e+00 -3.813249170780181885e-01
6.050000000000000000e+02 5.554586791992187500e+01 -1.875725364685058594e+01 2.407707929611206055e+00 9.541047096252441406e+00 3.584626674652099609e+00 3.939033269882202148e+00
6.060000000000000000e+02 5.507196426391601562e+01 -1.946561241149902344e+01 4.918915331363677979e-01 4.739812374114990234e+00 1.569511055946350098e+00 3.447534322738647461e+00
6.070000000000000000e+02 5.475153732299804688e+01 -2.048213577270507812e+01 2.763135731220245361e-01 4.104873657226562500e+00 1.314356207847595215e+00 2.652157545089721680e+00
6.080000000000000000e+02 5.502484130859375000e+01 -2.294171142578125000e+01 1.983690559864044189e-01 4.805613517761230469e+00 1.501194715499877930e+00 1.324996709823608398e+00
6.090000000000000000e+02 5.619214630126953125e+01 -2.683319664001464844e+01 1.557409111410379410e-02 5.192844390869140625e+00 1.562525510787963867e+00 3.222383558750152588e-01
6.100000000000000000e+02 5.613273620605468750e+01 -2.827317428588867188e+01 7.150566577911376953e-02 5.075265407562255859e+00 1.544031381607055664e+00 2.242216914892196655e-01
6.110000000000000000e+02 5.363078689575195312e+01 -3.046135139465332031e+01 1.870835870504379272e-01 4.691144943237304688e+00 1.463468551635742188e+00 7.440532743930816650e-02
6.120000000000000000e+02 5.203002166748046875e+01 -4.071171569824218750e+01 5.427347868680953979e-02 4.702082157135009766e+00 1.426906585693359375e+00 -1.654280535876750946e-02
6.130000000000000000e+02 5.671765899658203125e+01 -3.457242584228515625e+01 8.587592095136642456e-02 5.018204689025878906e+00 1.531224250793457031e+00 1.667959988117218018e-02
6.140000000000000000e+02 5.437166976928710938e+01 -3.351061630249023438e+01 1.232390999794006348e-01 4.841787815093994141e+00 1.489508032798767090e+00 2.123670838773250580e-02
6.150000000000000000e+02 5.878798675537109375e+01 -3.254132080078125000e+01 7.479655742645263672e-02 5.207467079162597656e+00 1.584679126739501953e+00 -2.193272113800048828e-03
6.160000000000000000e+02 5.520154953002929688e+01 -3.160290527343750000e+01 1.183229759335517883e-01 4.883775234222412109e+00 1.500629544258117676e+00 7.020939886569976807e-02
6.170000000000000000e+02 5.726603317260742188e+01 -3.032725334167480469e+01 6.024866923689842224e-02 5.145218849182128906e+00 1.561640262603759766e+00 6.234930828213691711e-02
6.180000000000000000e+02 5.751802444458007812e+01 -2.847113800048828125e+01 -1.235565915703773499e-02 5.332876205444335938e+00 1.596156120300292969e+00 1.125529780983924866e-01
6.190000000000000000e+02 5.700222015380859375e+01 -2.529799652099609375e+01 -1.614392697811126709e-01 5.657559871673583984e+00 1.648836135864257812e+00 4.013360738754272461e-01
6.200000000000000000e+02 5.747613143920898438e+01 -2.203005027770996094e+01 -4.352134168148040771e-01 6.947004795074462891e+00 1.953537344932556152e+00 2.440900057554244995e-01
6.210000000000000000e+02 5.604921340942382812e+01 -2.017239952087402344e+01 -4.665897190570831299e-01 9.415502548217773438e+00 2.684673786163330078e+00 2.226659774780273438e+00
6.220000000000000000e+02 5.568186950683593750e+01 -2.101197814941406250e+01 -2.823832333087921143e-01 6.350998878479003906e+00 1.820584774017333984e+00 2.327668190002441406e+00
6.230000000000000000e+02 5.415050888061523438e+01 -1.895025634765625000e+01 -7.212728261947631836e-01 1.732421219348907471e-01 -1.644092202186584473e-01 1.957511305809020996e+00
6.240000000000000000e+02 5.266181182861328125e+01 -1.802852439880371094e+01 -1.667864322662353516e+00 -8.580970168113708496e-01 -7.577884197235107422e-01 9.257710576057434082e-01
6.250000000000000000e+02 5.295101928710937500e+01 -1.978134727478027344e+01 6.901640295982360840e-01 3.637042641639709473e-01 3.161605000495910645e-01 4.350657761096954346e-01
6.260000000000000000e+02 5.089514160156250000e+01 -1.903445243835449219e+01 -1.498945802450180054e-01 1.182749032974243164e+00 3.098563253879547119e-01 -6.255487203598022461e-01
6.270000000000000000e+02 4.916420745849609375e+01 -1.785145950317382812e+01 -7.000073790550231934e-02 1.761303901672363281e+00 5.073909163475036621e-01 -9.844533801078796387e-01
6.280000000000000000e+02 4.733145523071289062e+01 -1.851389122009277344e+01 2.081070989370346069e-01 3.258971214294433594e+00 1.040123462677001953e+00 -1.551115870475769043e+00
6.290000000000000000e+02 4.631274795532226562e+01 -1.884682464599609375e+01 2.062399238348007202e-01 4.167523860931396484e+00 1.312129139900207520e+00 -1.706354975700378418e+00
6.300000000000000000e+02 4.456201171875000000e+01 -2.023126220703125000e+01 -2.115652710199356079e-01 5.274667263031005859e+00 1.518930554389953613e+00 -1.415868282318115234e+00
6.310000000000000000e+02 4.323019027709960938e+01 -2.007052230834960938e+01 -4.321371614933013916e-01 5.990820407867431641e+00 1.667605042457580566e+00 -1.013638973236083984e+00
6.320000000000000000e+02 4.049032211303710938e+01 -2.010435867309570312e+01 -1.563295722007751465e-01 5.454688072204589844e+00 1.589507579803466797e+00 7.170597910881042480e-01
6.330000000000000000e+02 3.823491287231445312e+01 -1.884450721740722656e+01 1.150819778442382812e+00 3.060265064239501953e+00 1.263325452804565430e+00 7.872905135154724121e-01
6.340000000000000000e+02 3.669744110107421875e+01 -1.947646331787109375e+01 9.000171422958374023e-01 2.851844549179077148e+00 1.125558495521545410e+00 -2.305854344740509987e-03
6.350000000000000000e+02 3.472868728637695312e+01 -1.879307746887207031e+01 4.491918683052062988e-01 2.767411231994628906e+00 9.649809002876281738e-01 -7.659735679626464844e-01
6.360000000000000000e+02 3.309227371215820312e+01 -1.844627952575683594e+01 1.659647077322006226e-01 3.165345191955566406e+00 9.993929862976074219e-01 -1.023642539978027344e+00
6.370000000000000000e+02 2.833831787109375000e+01 -1.893992805480957031e+01 -4.590134322643280029e-01 4.156136512756347656e+00 1.109136819839477539e+00 -4.873788058757781982e-01
6.380000000000000000e+02 2.574012374877929688e+01 -1.849785232543945312e+01 -5.044031739234924316e-01 4.188796997070312500e+00 1.105318188667297363e+00 1.560546010732650757e-01
6.390000000000000000e+02 2.497834014892578125e+01 -1.906832885742187500e+01 -4.479401409626007080e-01 3.913813114166259766e+00 1.039761900901794434e+00 3.354369997978210449e-01
6.400000000000000000e+02 2.317655754089355469e+01 -1.985577201843261719e+01 -2.313419133424758911e-01 3.281141281127929688e+00 9.149398207664489746e-01 5.793076157569885254e-01
6.410000000000000000e+02 2.218822097778320312e+01 -1.887227439880371094e+01 -6.119386851787567139e-02 2.970898151397705078e+00 8.729112744331359863e-01 7.491641044616699219e-01
6.420000000000000000e+02 2.014876747131347656e+01 -1.961083030700683594e+01 9.121438860893249512e-02 2.247642040252685547e+00 7.016569375991821289e-01 6.683308482170104980e-01
6.430000000000000000e+02 1.857417869567871094e+01 -1.969758987426757812e+01 1.872974634170532227e-01 1.882328867912292480e+00 6.208878755569458008e-01 6.272805929183959961e-01
6.440000000000000000e+02 1.470802211761474609e+01 -1.868892097473144531e+01 3.295153081417083740e-01 9.324628710746765137e-01 3.785934448242187500e-01 3.066708147525787354e-01
6.450000000000000000e+02 1.359678459167480469e+01 -1.867026519775390625e+01 2.918834686279296875e-01 7.814754843711853027e-01 3.220076858997344971e-01 2.333564013242721558e-01
6.460000000000000000e+02 1.007317543029785156e+01 -1.980599784851074219e+01 1.819474548101425171e-01 4.065383076667785645e-01 1.765457242727279663e-01 7.662660628557205200e-02
6.470000000000000000e+02 8.124842643737792969e+00 -1.896806907653808594e+01 1.366908103227615356e-01 1.606471687555313110e-01 8.920139819383621216e-02 -3.254163078963756561e-03
6.480000000000000000e+02 7.452032566070556641e+00 -1.998989868164062500e+01 1.139475107192993164e-01 1.087741553783416748e-01 6.681650131940841675e-02 7.522497326135635376e-03
6.490000000000000000e+02 5.486315250396728516e+00 -1.876371383666992188e+01 7.460417598485946655e-02 -1.163367256522178650e-01 -1.251976378262042999e-02 -4.739256203174591064e-02
6.500000000000000000e+02 4.523785591125488281e+00 -2.034848785400390625e+01 4.930936545133590698e-02 -2.073776870965957642e-01 -4.742049798369407654e-02 -1.810372434556484222e-02
6.510000000000000000e+02 2.066245794296264648e+00 -1.869138908386230469e+01 1.540228072553873062e-02 -4.929591715335845947e-01 -1.432670652866363525e-01 -3.636978939175605774e-02
6.520000000000000000e+02 4.123093485832214355e-01 -1.795875549316406250e+01 -7.860693149268627167e-04 -6.896131038665771484e-01 -2.071197628974914551e-01 -1.004933007061481476e-02
6.530000000000000000e+02 4.085460007190704346e-01 -1.956642150878906250e+01 -5.414999905042350292e-04 -7.225914597511291504e-01 -2.169398814439773560e-01 -5.635715089738368988e-03
6.540000000000000000e+02 1.227588415145874023e+00 -1.952644920349121094e+01 6.937123369425535202e-03 -6.099815964698791504e-01 -1.809133291244506836e-01 -1.731529273092746735e-02
6.550000000000000000e+02 4.044674634933471680e-01 -2.117370033264160156e+01 -3.566873492673039436e-04 -7.396966218948364258e-01 -2.220159918069839478e-01 -1.850199536420404911e-03
6.560000000000000000e+02 2.014125823974609375e+00 -2.188899230957031250e+01 1.084875036031007767e-02 -5.162909030914306641e-01 -1.516326367855072021e-01 -2.037851372733712196e-03
6.570000000000000000e+02 3.870800733566284180e+00 -2.390673065185546875e+01 1.862960495054721832e-02 -2.623208761215209961e-01 -7.310737669467926025e-02 3.004657477140426636e-02
6.580000000000000000e+02 5.932454586029052734e+00 -2.565139770507812500e+01 3.781456872820854187e-02 3.688582032918930054e-02 2.241011708974838257e-02 7.446709275245666504e-02
6.590000000000000000e+02 1.033887672424316406e+01 -2.970553207397460938e+01 -1.004867255687713623e-02 6.909952759742736816e-01 2.042839825153350830e-01 1.482808887958526611e-01
6.600000000000000000e+02 1.147104549407958984e+01 -3.104066658020019531e+01 -3.932227566838264465e-02 8.794558644294738770e-01 2.520400881767272949e-01 1.578802019357681274e-01
6.610000000000000000e+02 1.275191783905029297e+01 -3.256922912597656250e+01 -6.982629001140594482e-02 1.050398945808410645e+00 2.941718101501464844e-01 1.427207142114639282e-01
6.620000000000000000e+02 1.427872657775878906e+01 -3.434584045410156250e+01 -1.108489856123924255e-01 1.300536274909973145e+00 3.569062054157257080e-01 1.258123964071273804e-01
6.630000000000000000e+02 1.157339763641357422e+01 -3.874749374389648438e+01 -8.828613162040710449e-02 9.423587918281555176e-01 2.562218010425567627e-01 5.201782658696174622e-02
6.640000000000000000e+02 2.290994262695312500e+01 -3.642692947387695312e+01 -2.459222376346588135e-01 2.489302396774291992e+00 6.730141043663024902e-01 6.472656130790710449e-02
6.650000000000000000e+02 2.732149314880371094e+01 -4.054990386962890625e+01 -2.727948427200317383e-01 2.953137874603271484e+00 8.041028976440429688e-01 8.751210407353937626e-04
6.660000000000000000e+02 2.736647224426269531e+01 -3.733740997314453125e+01 -2.678062021732330322e-01 2.966923236846923828e+00 8.097351193428039551e-01 3.628930542618036270e-03
6.670000000000000000e+02 2.530073165893554688e+01 -3.574302673339843750e+01 -2.505246102809906006e-01 2.760869503021240234e+00 7.531034350395202637e-01 1.998581551015377045e-02
6.680000000000000000e+02 2.451247024536132812e+01 -3.285384750366210938e+01 -2.540241777896881104e-01 2.702257871627807617e+00 7.344701290130615234e-01 5.859864130616188049e-02
6.690000000000000000e+02 2.441515731811523438e+01 -3.032448196411132812e+01 -2.474017888307571411e-01 2.768736839294433594e+00 7.564005255699157715e-01 8.396904170513153076e-02
6.700000000000000000e+02 2.475324630737304688e+01 -2.833653068542480469e+01 -2.716993987560272217e-01 2.886933803558349609e+00 7.845702767372131348e-01 9.063041210174560547e-02
6.710000000000000000e+02 2.525901603698730469e+01 -2.671549034118652344e+01 -2.616232335567474365e-01 3.021868228912353516e+00 8.280735015869140625e-01 7.087871432304382324e-02
6.720000000000000000e+02 2.601409530639648438e+01 -2.526049232482910156e+01 -3.085448443889617920e-01 3.218823909759521484e+00 8.730837702751159668e-01 3.810539469122886658e-02
6.730000000000000000e+02 2.549368286132812500e+01 -1.986625289916992188e+01 -4.342702031135559082e-01 3.841348648071289062e+00 1.022123575210571289e+00 1.484758555889129639e-01
6.740000000000000000e+02 5.182184219360351562e+01 -1.870021247863769531e+01 -8.955262899398803711e-01 5.158197283744812012e-01 -1.139119639992713928e-01 -5.278821289539337158e-02
6.750000000000000000e+02 5.056763839721679688e+01 -1.556281185150146484e+01 -5.879718661308288574e-01 -4.658741056919097900e-01 -3.161537945270538330e-01 4.762322604656219482e-01
6.760000000000000000e+02 4.890882110595703125e+01 -1.389860153198242188e+01 -2.955509722232818604e-01 -1.284783035516738892e-01 -1.272087842226028442e-01 2.455089837312698364e-01
6.770000000000000000e+02 4.735973739624023438e+01 -1.205598258972167969e+01 9.330398170277476311e-04 8.028535842895507812e-01 2.411359846591949463e-01 -2.373698949813842773e-01
6.780000000000000000e+02 4.570627593994140625e+01 -9.294097900390625000e+00 4.460944235324859619e-01 6.703891277313232422e+00 2.144995689392089844e+00 -1.457687020301818848e+00
6.790000000000000000e+02 4.462718582153320312e+01 -7.824176788330078125e+00 9.111414104700088501e-02 1.046200656890869141e+01 3.165936231613159180e+00 -8.755314946174621582e-01
6.800000000000000000e+02 4.469300079345703125e+01 -5.173033714294433594e+00 1.064414620399475098e+00 1.805928993225097656e+01 5.737111568450927734e+00 9.671489596366882324e-01
6.810000000000000000e+02 4.389623260498046875e+01 -4.903404712677001953e+00 3.571081876754760742e+00 1.216761779785156250e+01 4.721609592437744141e+00 2.145821809768676758e+00
6.820000000000000000e+02 4.443580245971679688e+01 -2.321621179580688477e+00 -1.190513849258422852e+00 9.104399681091308594e+00 2.374165773391723633e+00 2.357948064804077148e+00
6.830000000000000000e+02 4.523149490356445312e+01 -2.279003143310546875e+00 -2.035480976104736328e+00 7.671781539916992188e+00 1.690890192985534668e+00 4.424747943878173828e+00
6.840000000000000000e+02 4.322739028930664062e+01 -9.663227796554565430e-01 -2.912559747695922852e+00 4.491744995117187500e+00 4.737555086612701416e-01 7.549831271171569824e-01
6.850000000000000000e+02 4.265145874023437500e+01 -1.867583870887756348e+00 -1.047909259796142578e+00 4.319412708282470703e+00 9.814510345458984375e-01 -5.049970149993896484e-01
6.860000000000000000e+02 4.239129638671875000e+01 -3.558189392089843750e+00 1.620585441589355469e+00 5.720485210418701172e+00 2.202321290969848633e+00 -1.154698252677917480e+00
6.870000000000000000e+02 4.258930587768554688e+01 -5.837013721466064453e+00 2.196113348007202148e+00 8.244663238525390625e+00 3.132233142852783203e+00 8.054379820823669434e-01
6.880000000000000000e+02 4.294780349731445312e+01 -6.762729167938232422e+00 1.154053211212158203e+00 9.382773399353027344e+00 3.161048173904418945e+00 9.853101372718811035e-01
6.890000000000000000e+02 4.291192626953125000e+01 -9.438557624816894531e+00 -3.642490208148956299e-01 9.341783523559570312e+00 2.693260431289672852e+00 6.450479030609130859e-01
6.900000000000000000e+02 4.267844009399414062e+01 -1.004469680786132812e+01 -2.594071328639984131e-01 9.488697052001953125e+00 2.768787145614624023e+00 5.994036793708801270e-01
6.910000000000000000e+02 4.215150070190429688e+01 -1.159721946716308594e+01 4.859731793403625488e-01 1.022766780853271484e+01 3.214092254638671875e+00 2.417118102312088013e-01
6.920000000000000000e+02 4.276310729980468750e+01 -1.417377662658691406e+01 1.769035100936889648e+00 9.435688972473144531e+00 3.361417055130004883e+00 -2.965739369392395020e-01
6.930000000000000000e+02 4.190706253051757812e+01 -1.516429996490478516e+01 2.317696809768676758e+00 1.090130138397216797e+01 3.965699434280395508e+00 2.969946265220642090e-01
6.940000000000000000e+02 4.193909454345703125e+01 -1.629046821594238281e+01 2.374283790588378906e+00 9.265630722045898438e+00 3.491974592208862305e+00 -5.380165576934814453e-01
6.950000000000000000e+02 4.284361648559570312e+01 -1.796528053283691406e+01 2.346649467945098877e-01 7.328758716583251953e+00 2.269027233123779297e+00 -1.054825425148010254e+00
6.960000000000000000e+02 4.134423828125000000e+01 -1.672325706481933594e+01 3.667419850826263428e-01 1.014796638488769531e+01 3.154412269592285156e+00 -7.915243506431579590e-01
6.970000000000000000e+02 3.983819198608398438e+01 -1.763245010375976562e+01 6.594369411468505859e-01 4.766520500183105469e+00 1.627787351608276367e+00 2.620164394378662109e+00
6.980000000000000000e+02 4.523343276977539062e+01 -3.092392683029174805e+00 2.174735784530639648e+00 1.036463451385498047e+01 3.761811017990112305e+00 5.210088253021240234e+00
6.990000000000000000e+02 4.693378448486328125e+01 -1.744099378585815430e+00 -1.562651395797729492e+00 2.034282922744750977e+00 1.414894312620162964e-01 5.559910297393798828e+00
7.000000000000000000e+02 4.606346130371093750e+01 -2.342294454574584961e+00 -1.328219175338745117e+00 4.739044666290283203e+00 1.023247718811035156e+00 6.153809547424316406e+00
7.010000000000000000e+02 4.684929656982421875e+01 -2.502975702285766602e+00 -7.691938877105712891e-01 6.959943175315856934e-01 -2.195988222956657410e-02 4.783249378204345703e+00
7.020000000000000000e+02 3.643655014038085938e+01 -3.489012718200683594e+00 -2.791668176651000977e+00 2.641297578811645508e+00 -4.511121287941932678e-02 4.202423989772796631e-01
7.030000000000000000e+02 4.206745529174804688e+01 -1.272464084625244141e+01 1.165405750274658203e+00 1.099677467346191406e+01 3.648654222488403320e+00 -8.529265969991683960e-02
7.040000000000000000e+02 4.143221664428710938e+01 -1.407713508605957031e+01 9.415727257728576660e-01 1.519940853118896484e+01 4.842294216156005859e+00 3.563498258590698242e-01
7.050000000000000000e+02 3.909870529174804688e+01 -1.716802597045898438e+01 2.157716512680053711e+00 2.372317075729370117e+00 1.359010100364685059e+00 2.130162954330444336e+00
7.060000000000000000e+02 3.883177566528320312e+01 -1.595971012115478516e+01 -1.592508196830749512e+00 -5.959072113037109375e-01 -6.565245985984802246e-01 3.831088542938232422e-01
7.070000000000000000e+02 3.819665527343750000e+01 -1.544570159912109375e+01 -7.002149224281311035e-01 -1.718819141387939453e-02 -2.152209430932998657e-01 5.978106260299682617e-01
7.080000000000000000e+02 3.710959625244140625e+01 -1.557144832611083984e+01 -1.726093292236328125e-01 9.832403659820556641e-01 2.431893050670623779e-01 -3.269996345043182373e-01
7.090000000000000000e+02 3.590103530883789062e+01 -1.451073646545410156e+01 3.389185667037963867e-02 1.268889546394348145e+00 3.908344209194183350e-01 -6.071372628211975098e-01
7.100000000000000000e+02 3.573731231689453125e+01 -1.326405143737792969e+01 3.236701488494873047e-01 9.528296589851379395e-01 3.829499483108520508e-01 -5.979129672050476074e-01
7.110000000000000000e+02 3.336207580566406250e+01 -1.174244213104248047e+01 7.572680115699768066e-01 2.038790464401245117e+00 8.388175368309020996e-01 -1.284198522567749023e+00
7.120000000000000000e+02 3.254244995117187500e+01 -1.037560081481933594e+01 1.086814403533935547e+00 2.068656682968139648e+00 9.466413259506225586e-01 -1.453529834747314453e+00
7.130000000000000000e+02 3.050975799560546875e+01 -8.637959480285644531e+00 1.456178426742553711e+00 4.154054164886474609e+00 1.683069825172424316e+00 -1.625949501991271973e+00
7.140000000000000000e+02 3.069847679138183594e+01 -6.735593795776367188e+00 6.207042336463928223e-01 3.687376737594604492e+00 1.292424201965332031e+00 -7.097251415252685547e-01
7.150000000000000000e+02 2.917733192443847656e+01 -4.684532642364501953e+00 5.824115276336669922e-01 9.292731285095214844e+00 2.962542772293090820e+00 1.627400755882263184e+00
7.160000000000000000e+02 2.678611373901367188e+01 -4.481692314147949219e+00 2.111278772354125977e+00 1.080870819091796875e+01 3.875996112823486328e+00 7.957106828689575195e-01
7.170000000000000000e+02 2.541750335693359375e+01 -3.876585245132446289e+00 2.271618604660034180e+00 1.037607479095458984e+01 3.794307947158813477e+00 -1.828719019889831543e+00
7.180000000000000000e+02 2.350489234924316406e+01 -3.313181638717651367e+00 3.353618144989013672e+00 6.982396602630615234e+00 3.100804328918457031e+00 -4.443191528320312500e+00
7.190000000000000000e+02 2.390129089355468750e+01 -4.025532722473144531e+00 2.888332128524780273e+00 7.725788116455078125e+00 3.184236049652099609e+00 -4.768529415130615234e+00
7.200000000000000000e+02 3.462262344360351562e+01 -1.196993923187255859e+01 6.891912221908569336e-01 1.171923398971557617e+00 5.583344101905822754e-01 -9.616621136665344238e-01
7.210000000000000000e+02 3.295537567138671875e+01 -1.106009387969970703e+01 9.958450794219970703e-01 2.045049667358398438e+00 9.122684001922607422e-01 -1.339465141296386719e+00
7.220000000000000000e+02 3.317006301879882812e+01 -1.004693984985351562e+01 8.916482329368591309e-01 1.752529382705688477e+00 7.932532429695129395e-01 -1.196282386779785156e+00
7.230000000000000000e+02 3.274931716918945312e+01 -9.358065605163574219e+00 6.849133372306823730e-01 1.539392352104187012e+00 6.672917008399963379e-01 -1.045347213745117188e+00
7.240000000000000000e+02 3.234435653686523438e+01 -8.660228729248046875e+00 6.090229749679565430e-01 1.385580182075500488e+00 5.983809232711791992e-01 -8.418446779251098633e-01
7.250000000000000000e+02 3.163750076293945312e+01 -7.213177204132080078e+00 3.340484797954559326e-01 1.211014032363891602e+00 4.635187685489654541e-01 -5.609479546546936035e-01
7.260000000000000000e+02 3.047538375854492188e+01 -4.190343379974365234e+00 2.447888702154159546e-01 6.661040782928466797e+00 2.071748971939086914e+00 -5.682765841484069824e-01
7.270000000000000000e+02 3.013103866577148438e+01 -2.573911428451538086e+00 1.309156537055969238e+00 1.491810607910156250e+01 4.868178844451904297e+00 1.783923149108886719e+00
7.280000000000000000e+02 2.936633682250976562e+01 -2.810375213623046875e+00 2.385071039199829102e+00 1.187187099456787109e+01 4.277082443237304688e+00 3.994966745376586914e+00
7.290000000000000000e+02 2.957335281372070312e+01 -3.615688800811767578e+00 6.680042743682861328e-01 1.066737079620361328e+01 3.400612592697143555e+00 2.131490707397460938e+00
7.300000000000000000e+02 3.010641670227050781e+01 -5.227848529815673828e+00 7.046186178922653198e-02 6.379538059234619141e+00 1.934999942779541016e+00 6.415350735187530518e-02
7.310000000000000000e+02 3.041588020324707031e+01 -5.987656116485595703e+00 2.889232933521270752e-01 4.790255069732666016e+00 1.523753523826599121e+00 -3.646721839904785156e-01
7.320000000000000000e+02 2.506083106994628906e+01 1.610910797119140625e+01 2.077201366424560547e+00 1.477306461334228516e+01 5.055079936981201172e+00 -2.267419338226318359e+00
7.330000000000000000e+02 2.651720428466796875e+01 1.499640560150146484e+01 3.385613918304443359e+00 7.285601139068603516e+00 3.201364517211914062e+00 1.937956571578979492e+00
7.340000000000000000e+02 2.485072898864746094e+01 1.403758335113525391e+01 3.512656211853027344e+00 1.600693702697753906e+01 5.855877876281738281e+00 6.462197780609130859e+00
7.350000000000000000e+02 2.544538307189941406e+01 1.363523387908935547e+01 1.737754940986633301e+00 1.266491794586181641e+01 4.320801734924316406e+00 1.618256807327270508e+00
7.360000000000000000e+02 2.656067276000976562e+01 1.174984550476074219e+01 -2.565651416778564453e+00 5.890584468841552734e+00 9.974799156188964844e-01 -1.140630990266799927e-01
7.370000000000000000e+02 2.317153358459472656e+01 1.221186733245849609e+01 5.828666090965270996e-01 3.314825057983398438e+00 1.169307589530944824e+00 1.837625265121459961e+00
7.380000000000000000e+02 2.362521743774414062e+01 1.165663051605224609e+01 -1.961367845535278320e+00 5.735934257507324219e+00 1.132369995117187500e+00 2.191121339797973633e+00
7.390000000000000000e+02 2.170335197448730469e+01 1.019147586822509766e+01 -4.218688011169433594e+00 1.779560089111328125e+00 -7.317383885383605957e-01 -1.030346274375915527e+00
7.400000000000000000e+02 2.073801994323730469e+01 8.188417434692382812e+00 -3.085914850234985352e+00 2.005902528762817383e+00 -3.240037560462951660e-01 -1.224719047546386719e+00
7.410000000000000000e+02 2.227346420288085938e+01 6.608568668365478516e+00 7.521140575408935547e-01 8.450839996337890625e+00 2.760886192321777344e+00 1.261639118194580078e+00
7.420000000000000000e+02 2.215569877624511719e+01 5.907477855682373047e+00 2.388876438140869141e+00 9.699490547180175781e+00 3.626510143280029297e+00 9.502506256103515625e-01
7.430000000000000000e+02 2.195957374572753906e+01 5.243529319763183594e+00 4.505806922912597656e+00 9.120285034179687500e+00 4.087827682495117188e+00 3.402570188045501709e-01
7.440000000000000000e+02 2.225940322875976562e+01 4.299648761749267578e+00 6.266788482666015625e+00 1.242049026489257812e+01 5.606183528900146484e+00 -4.607801437377929688e-01
7.450000000000000000e+02 2.064511871337890625e+01 1.024524211883544922e+01 -5.067661285400390625e+00 -1.911380410194396973e+00 -2.093712568283081055e+00 -3.431117773056030273e+00
7.460000000000000000e+02 1.934399986267089844e+01 8.076468467712402344e+00 -4.341485500335693359e+00 -1.133400201797485352e+00 -1.642465710639953613e+00 -2.958361625671386719e+00
7.470000000000000000e+02 1.972216796875000000e+01 7.326545238494873047e+00 -1.807904005050659180e+00 2.468985915184020996e-01 -4.683016538619995117e-01 -1.530995845794677734e+00
7.480000000000000000e+02 1.878818702697753906e+01 8.734022140502929688e+00 -6.736892700195312500e+00 -3.571320772171020508e+00 -3.092463970184326172e+00 -4.947410106658935547e+00
7.490000000000000000e+02 1.942411422729492188e+01 9.223304748535156250e+00 -6.621003150939941406e+00 -3.178340196609497070e+00 -2.939803123474121094e+00 -4.777259349822998047e+00
7.500000000000000000e+02 1.346912574768066406e+01 5.102280139923095703e+00 4.250088334083557129e-01 -1.921163797378540039e+00 -4.488464891910552979e-01 -1.222672939300537109e+00
7.510000000000000000e+02 1.321044445037841797e+01 3.022418260574340820e+00 4.772435188293457031e+00 -1.754440307617187500e+00 9.053984880447387695e-01 -2.962682247161865234e+00
7.520000000000000000e+02 1.229236316680908203e+01 4.061450481414794922e+00 9.378338813781738281e+00 5.437747240066528320e-01 2.976634025573730469e+00 -2.048311710357666016e+00
7.530000000000000000e+02 1.187827491760253906e+01 1.805487394332885742e+00 -2.738388776779174805e-01 1.139003515243530273e+00 2.595493793487548828e-01 -2.500945329666137695e+00
7.540000000000000000e+02 1.335006427764892578e+01 1.773268461227416992e+00 8.490674495697021484e-01 -9.110932350158691406e-01 -1.860772259533405304e-02 -2.389141321182250977e+00
7.550000000000000000e+02 1.402582454681396484e+01 2.622645854949951172e+00 3.517230749130249023e+00 -2.709201574325561523e+00 2.424087822437286377e-01 -1.567583560943603516e+00
7.560000000000000000e+02 1.459471321105957031e+01 3.650221347808837891e+00 8.266092300415039062e+00 -4.653659820556640625e+00 1.083729863166809082e+00 -1.899477243423461914e+00
7.570000000000000000e+02 1.182239913940429688e+01 3.396961927413940430e+00 6.476421356201171875e+00 2.469516754150390625e+00 2.683781623840332031e+00 -4.369337558746337891e+00
7.580000000000000000e+02 1.096152782440185547e+01 4.553060054779052734e+00 1.684642410278320312e+01 7.790142536163330078e+00 7.390969753265380859e+00 -7.004579544067382812e+00
7.590000000000000000e+02 1.014700889587402344e+01 4.735468864440917969e+00 1.041328334808349609e+01 8.045014381408691406e+00 5.537489414215087891e+00 -4.601044654846191406e+00
7.600000000000000000e+02 9.361146926879882812e+00 5.433263778686523438e+00 6.423870563507080078e+00 3.009868144989013672e+00 2.830121755599975586e+00 -3.382574081420898438e+00
7.610000000000000000e+02 9.508218765258789062e+00 9.041232109069824219e+00 -8.566640615463256836e-01 2.244879007339477539e+00 4.164645075798034668e-01 -9.711279869079589844e-01
7.620000000000000000e+02 7.537567615509033203e+00 1.100617980957031250e+01 -7.449046373367309570e-01 1.713586091995239258e+00 2.906044125556945801e-01 -1.180735468864440918e+00
7.630000000000000000e+02 6.148846149444580078e+00 1.208089542388916016e+01 -6.241106390953063965e-01 1.407044053077697754e+00 2.348800301551818848e-01 -1.051832795143127441e+00
7.640000000000000000e+02 4.502786159515380859e+00 1.340628051757812500e+01 -4.087558984756469727e-01 1.231542348861694336e+00 2.468359470367431641e-01 -8.191537857055664062e-01
7.650000000000000000e+02 2.922302007675170898e+00 1.481702899932861328e+01 -2.159028351306915283e-01 1.236035704612731934e+00 3.060398399829864502e-01 -4.956720471382141113e-01
7.660000000000000000e+02 3.833157122135162354e-01 1.556230068206787109e+01 -2.055937796831130981e-02 1.564161896705627441e+00 4.630807638168334961e-01 -6.938425451517105103e-02
7.670000000000000000e+02 1.128064990043640137e+00 1.635052108764648438e+01 -4.592476785182952881e-02 1.546444892883300781e+00 4.501560330390930176e-01 -1.503464728593826294e-01
7.680000000000000000e+02 3.899681270122528076e-01 1.476374816894531250e+01 3.567558713257312775e-03 1.403430938720703125e+00 4.220995306968688965e-01 -8.808007836341857910e-02
7.690000000000000000e+02 1.184347867965698242e+00 1.476583671569824219e+01 -5.228888243436813354e-02 1.296392083168029785e+00 3.732309639453887939e-01 -2.469349801540374756e-01
7.700000000000000000e+02 2.673723697662353516e+00 1.236541366577148438e+01 -1.249240189790725708e-01 8.787599802017211914e-01 2.261507958173751831e-01 -7.335497736930847168e-01
7.710000000000000000e+02 3.995969295501708984e+00 1.158215522766113281e+01 -2.391660511493682861e-01 9.786442518234252930e-01 2.218434661626815796e-01 -1.010334372520446777e+00
7.720000000000000000e+02 6.204008102416992188e+00 8.191376686096191406e+00 6.296299695968627930e-01 1.117169022560119629e+00 5.240396857261657715e-01 -1.702990531921386719e+00
7.730000000000000000e+02 7.458848476409912109e+00 8.633001327514648438e+00 1.007369533181190491e-01 1.885423064231872559e+00 5.958480238914489746e-01 -1.851425290107727051e+00
7.740000000000000000e+02 1.043524169921875000e+01 7.295748710632324219e+00 1.927478313446044922e-01 3.585193395614624023e+00 1.133382320404052734e+00 2.218835614621639252e-02
7.750000000000000000e+02 1.134687042236328125e+01 8.573795318603515625e+00 -3.432153463363647461e-01 4.788896739482879639e-01 4.070230200886726379e-02 -2.675765156745910645e-01
7.760000000000000000e+02 1.322459602355957031e+01 1.239640426635742188e+01 -1.445915818214416504e+00 -2.402974516153335571e-01 -5.058639645576477051e-01 -6.632037758827209473e-01
7.770000000000000000e+02 1.257595348358154297e+01 1.080820941925048828e+01 -1.085569024085998535e+00 -1.888692080974578857e-01 -3.823314905166625977e-01 -6.996676325798034668e-01
7.780000000000000000e+02 1.376609992980957031e+01 1.300023078918457031e+01 -1.567312121391296387e+00 -2.335785031318664551e-01 -5.402671694755554199e-01 -7.199298739433288574e-01
7.790000000000000000e+02 1.378018188476562500e+01 1.597011947631835938e+01 -1.398451447486877441e+00 1.148455217480659485e-01 -3.850817978382110596e-01 -2.613700330257415771e-01
7.800000000000000000e+02 1.350435256958007812e+01 1.765421485900878906e+01 -1.110735654830932617e+00 3.107311129570007324e-01 -2.400013655424118042e-01 -7.333794981241226196e-02
7.810000000000000000e+02 1.359690952301025391e+01 1.937932586669921875e+01 -8.252381086349487305e-01 3.354562222957611084e-01 -1.469345688819885254e-01 6.148019805550575256e-03
7.820000000000000000e+02 1.343603801727294922e+01 2.098342132568359375e+01 -5.606098771095275879e-01 4.144991636276245117e-01 -4.383322224020957947e-02 7.147224247455596924e-02
7.830000000000000000e+02 1.300488281250000000e+01 2.280552673339843750e+01 -3.154531121253967285e-01 5.350213050842285156e-01 6.587044894695281982e-02 1.098140925168991089e-01
7.840000000000000000e+02 1.355871486663818359e+01 2.517694282531738281e+01 -1.063772961497306824e-01 6.525846719741821289e-01 1.638622134923934937e-01 9.308062493801116943e-02
7.850000000000000000e+02 1.149166011810302734e+01 2.700165557861328125e+01 1.314736902713775635e-03 7.790663242340087891e-01 2.341143190860748291e-01 1.727283298969268799e-01
7.860000000000000000e+02 1.250067424774169922e+01 3.015049362182617188e+01 1.094616055488586426e-01 8.754277825355529785e-01 2.954668104648590088e-01 1.093872338533401489e-01
7.870000000000000000e+02 1.349662685394287109e+01 3.155916976928710938e+01 1.444849073886871338e-01 9.325443506240844727e-01 3.231087923049926758e-01 7.759075611829757690e-02
7.880000000000000000e+02 1.459213638305664062e+01 3.320598602294921875e+01 1.690455675125122070e-01 9.978287816047668457e-01 3.500623106956481934e-01 2.423346415162086487e-02
7.890000000000000000e+02 1.761433982849121094e+01 3.639728164672851562e+01 1.810096353292465210e-01 1.257438540458679199e+00 4.315344393253326416e-01 -4.306404292583465576e-02
7.900000000000000000e+02 1.480828571319580078e+01 1.191328525543212891e+01 -1.613119840621948242e+00 -9.691402912139892578e-01 -7.746780514717102051e-01 -1.277754187583923340e+00
7.910000000000000000e+02 1.440331363677978516e+01 1.357132720947265625e+01 -1.720287203788757324e+00 -3.840757608413696289e-01 -6.313089132308959961e-01 -7.006654143333435059e-01
7.920000000000000000e+02 1.488265991210937500e+01 1.568487548828125000e+01 -1.590618371963500977e+00 -1.516080051660537720e-01 -5.226678848266601562e-01 -4.226930439472198486e-01
7.930000000000000000e+02 1.516620063781738281e+01 1.760953140258789062e+01 -1.260324239730834961e+00 1.684784330427646637e-02 -3.730429410934448242e-01 -1.895735561847686768e-01
7.940000000000000000e+02 1.495884895324707031e+01 1.908120536804199219e+01 -9.515053033828735352e-01 2.043801099061965942e-01 -2.241375595331192017e-01 -7.436618953943252563e-02
7.950000000000000000e+02 1.553410148620605469e+01 2.001822471618652344e+01 -7.717660069465637207e-01 1.924518793821334839e-01 -1.737942397594451904e-01 -4.222680255770683289e-02
7.960000000000000000e+02 1.499610042572021484e+01 2.234444427490234375e+01 -3.846319019794464111e-01 4.089133143424987793e-01 7.284416817128658295e-03 1.239276956766843796e-02
7.970000000000000000e+02 1.473411846160888672e+01 2.532683563232421875e+01 -8.334603160619735718e-02 5.907300710678100586e-01 1.522152125835418701e-01 6.689989008009433746e-03
7.980000000000000000e+02 1.253580951690673828e+01 2.780479049682617188e+01 3.506643697619438171e-02 7.780074477195739746e-01 2.439221739768981934e-01 1.250333338975906372e-01
7.990000000000000000e+02 1.492846775054931641e+01 3.000606727600097656e+01 1.128607019782066345e-01 8.792676925659179688e-01 2.976385354995727539e-01 3.912657033652067184e-03
8.000000000000000000e+02 1.601297569274902344e+01 3.158696174621582031e+01 1.397024393081665039e-01 1.015486598014831543e+00 3.465566933155059814e-01 -2.628566510975360870e-02
8.010000000000000000e+02 1.728923225402832031e+01 3.298247146606445312e+01 1.473281085491180420e-01 1.136979341506958008e+00 3.852922618389129639e-01 -7.308986783027648926e-02
8.020000000000000000e+02 1.850202751159667969e+01 4.065924072265625000e+01 1.875917911529541016e-01 1.343563199043273926e+00 4.593465030193328857e-01 -1.782029122114181519e-02
8.030000000000000000e+02 1.542638587951660156e+01 1.242923355102539062e+01 -1.981715202331542969e+00 -1.080334901809692383e+00 -9.186150431632995605e-01 -1.351750612258911133e+00
8.040000000000000000e+02 1.607773590087890625e+01 1.290868949890136719e+01 -2.300730228424072266e+00 -9.839076399803161621e-01 -9.853913784027099609e-01 -1.463925123214721680e+00
8.050000000000000000e+02 1.629923057556152344e+01 1.390766906738281250e+01 -2.118737220764160156e+00 -7.170708179473876953e-01 -8.507423996925354004e-01 -1.106802105903625488e+00
8.060000000000000000e+02 1.651575851440429688e+01 1.491663646697998047e+01 -2.025042772293090820e+00 -4.905000329017639160e-01 -7.546628713607788086e-01 -8.940632939338684082e-01
8.070000000000000000e+02 1.609355354309082031e+01 1.827127075195312500e+01 -1.172417163848876953e+00 -3.921980038285255432e-02 -3.634910881519317627e-01 -1.921163052320480347e-01
8.080000000000000000e+02 1.629818153381347656e+01 1.918377876281738281e+01 -9.889676570892333984e-01 8.839121460914611816e-02 -2.701729536056518555e-01 -1.519566178321838379e-01
8.090000000000000000e+02 1.660628128051757812e+01 2.014856338500976562e+01 -7.682235836982727051e-01 6.432031840085983276e-02 -2.111709862947463989e-01 -1.472522616386413574e-01
8.100000000000000000e+02 1.688119888305664062e+01 2.216200447082519531e+01 -3.755756914615631104e-01 2.799793779850006104e-01 -2.867889776825904846e-02 -1.755968779325485229e-01
8.110000000000000000e+02 1.601122474670410156e+01 2.530303955078125000e+01 -9.947739541530609131e-02 6.247928142547607422e-01 1.575946211814880371e-01 -6.023553013801574707e-02
8.120000000000000000e+02 1.601506805419921875e+01 2.697926139831542969e+01 1.777962781488895416e-02 7.243293523788452148e-01 2.226327061653137207e-01 -7.070305198431015015e-02
8.130000000000000000e+02 1.642110443115234375e+01 2.870875549316406250e+01 6.642089039087295532e-02 8.883288502693176270e-01 2.864249348640441895e-01 -6.873058527708053589e-02
8.140000000000000000e+02 1.850322341918945312e+01 2.907922172546386719e+01 3.582392260432243347e-02 1.058879375457763672e+00 3.284109830856323242e-01 -1.999353021383285522e-01
8.150000000000000000e+02 1.832885360717773438e+01 3.134943771362304688e+01 1.017789468169212341e-01 1.156615614891052246e+00 3.775183558464050293e-01 -1.346769481897354126e-01
8.160000000000000000e+02 1.746181297302246094e+01 1.374037551879882812e+01 -2.499881982803344727e+00 -7.060430049896240234e-01 -9.617775082588195801e-01 -1.367758154869079590e+00
8.170000000000000000e+02 1.768660354614257812e+01 1.476237583160400391e+01 -2.396263599395751953e+00 -5.610609054565429688e-01 -8.871973156929016113e-01 -1.188275694847106934e+00
8.180000000000000000e+02 1.729710578918457031e+01 1.748856925964355469e+01 -1.587464809417724609e+00 -2.031654417514801025e-01 -5.371890664100646973e-01 -4.051463305950164795e-01
8.190000000000000000e+02 1.760541725158691406e+01 1.975063896179199219e+01 -8.836330771446228027e-01 -2.445005998015403748e-02 -2.724249362945556641e-01 -2.695566117763519287e-01
8.200000000000000000e+02 1.784960937500000000e+01 2.077934837341308594e+01 -6.094951033592224121e-01 1.068469360470771790e-01 -1.507944613695144653e-01 -2.905566096305847168e-01
8.210000000000000000e+02 1.789609718322753906e+01 2.341915512084960938e+01 -2.795318961143493652e-01 4.989118576049804688e-01 6.581398844718933105e-02 -3.033654987812042236e-01
8.220000000000000000e+02 1.734558105468750000e+01 2.506193351745605469e+01 -1.119712293148040771e-01 6.240233778953552246e-01 1.536156386137008667e-01 -2.196284383535385132e-01
8.230000000000000000e+02 1.755522346496582031e+01 2.642188644409179688e+01 -4.730979353189468384e-02 8.123683333396911621e-01 2.295175641775131226e-01 -1.881783008575439453e-01
8.240000000000000000e+02 2.012508392333984375e+01 2.945305061340332031e+01 -1.046549528837203979e-02 1.252295374870300293e+00 3.725489675998687744e-01 -2.805796265602111816e-01
8.250000000000000000e+02 1.961646461486816406e+01 3.211079788208007812e+01 7.899356633424758911e-02 1.308751821517944336e+00 4.163236320018768311e-01 -1.782792359590530396e-01
8.260000000000000000e+02 2.240983581542968750e+01 1.645092201232910156e+01 -4.405692100524902344e+00 -7.598525285720825195e-01 -1.549663305282592773e+00 -1.526014685630798340e+00
8.270000000000000000e+02 2.137150001525878906e+01 1.807572555541992188e+01 -1.431968212127685547e+00 -3.125559091567993164e-01 -5.233572125434875488e-01 -9.640508890151977539e-01
8.280000000000000000e+02 1.905464935302734375e+01 2.032542228698730469e+01 -6.987008452415466309e-01 5.333587154746055603e-02 -1.936094760894775391e-01 -4.648668169975280762e-01
8.290000000000000000e+02 2.009752273559570312e+01 1.854132080078125000e+01 -1.292814612388610840e+00 -2.469961494207382202e-01 -4.619432091712951660e-01 -6.519511938095092773e-01
8.300000000000000000e+02 1.875938796997070312e+01 1.906497955322265625e+01 -1.116498589515686035e+00 -1.586920171976089478e-01 -3.825571835041046143e-01 -4.336690008640289307e-01
8.310000000000000000e+02 1.928740119934082031e+01 1.812638282775878906e+01 -1.558481335639953613e+00 -2.483055293560028076e-01 -5.420360565185546875e-01 -5.026247501373291016e-01
8.320000000000000000e+02 2.168029975891113281e+01 1.610930252075195312e+01 -3.994246959686279297e+00 -7.471045255661010742e-01 -1.422405481338500977e+00 -1.670215606689453125e+00
8.330000000000000000e+02 2.118717765808105469e+01 1.688311958312988281e+01 -2.910273313522338867e+00 -5.092305541038513184e-01 -1.025851130485534668e+00 -9.281767606735229492e-01
8.340000000000000000e+02 6.523059082031250000e+01 1.403471565246582031e+01 -6.860575079917907715e-01 1.045370960235595703e+01 2.930295467376708984e+00 -3.488372564315795898e+00
8.350000000000000000e+02 6.562445831298828125e+01 1.129041385650634766e+01 -9.402448683977127075e-02 2.220218276977539062e+01 6.632447719573974609e+00 1.624204218387603760e-02
8.360000000000000000e+02 6.560688781738281250e+01 1.213067054748535156e+01 3.432363271713256836e+00 2.218836021423339844e+01 7.686217308044433594e+00 -3.144284725189208984e+00
8.370000000000000000e+02 6.549904632568359375e+01 9.790297508239746094e+00 2.019053220748901367e+00 1.904759597778320312e+01 6.319994926452636719e+00 4.377624034881591797e+00
8.380000000000000000e+02 6.564978790283203125e+01 9.096113204956054688e+00 1.647736310958862305e+00 1.454719734191894531e+01 4.858479976654052734e+00 2.864764213562011719e+00
8.390000000000000000e+02 6.675481414794921875e+01 8.778268814086914062e+00 3.277682662010192871e-01 1.313039588928222656e+01 4.037449359893798828e+00 -2.927181720733642578e-01
8.400000000000000000e+02 6.724102020263671875e+01 7.382060050964355469e+00 -5.802412629127502441e-01 1.140038394927978516e+01 3.246042728424072266e+00 -1.267849683761596680e+00
8.410000000000000000e+02 6.930484008789062500e+01 7.263228893280029297e+00 -1.009022951126098633e+00 9.735751152038574219e+00 2.618018627166748047e+00 -6.043485999107360840e-01
8.420000000000000000e+02 6.890210723876953125e+01 6.736808776855468750e+00 -4.419206976890563965e-01 1.099510383605957031e+01 3.165955066680908203e+00 -1.085838079452514648e+00
8.430000000000000000e+02 6.730564880371093750e+01 6.639432430267333984e+00 -4.115543067455291748e-01 1.092287158966064453e+01 3.153395175933837891e+00 -1.520112872123718262e+00
8.440000000000000000e+02 6.937903594970703125e+01 8.177491188049316406e+00 -1.427197694778442383e+00 8.831061363220214844e+00 2.221158981323242188e+00 -2.968108952045440674e-01
8.450000000000000000e+02 6.869461822509765625e+01 8.626718521118164062e+00 -9.698589444160461426e-01 1.004422378540039062e+01 2.722309350967407227e+00 -6.134734153747558594e-01
8.460000000000000000e+02 6.847602844238281250e+01 9.229211807250976562e+00 -2.391146570444107056e-01 1.008924770355224609e+01 2.955039978027343750e+00 -4.337950348854064941e-01
8.470000000000000000e+02 6.626904296875000000e+01 1.130542755126953125e+01 2.491427421569824219e+00 1.860894393920898438e+01 6.330111503601074219e+00 -2.700759768486022949e-01
8.480000000000000000e+02 6.684122467041015625e+01 1.011402416229248047e+01 1.319961547851562500e+00 1.441380310058593750e+01 4.720129489898681641e+00 3.257696628570556641e-01
8.490000000000000000e+02 6.680883026123046875e+01 1.060338306427001953e+01 2.192471981048583984e+00 1.486518478393554688e+01 5.117297172546386719e+00 -1.704397648572921753e-01
8.500000000000000000e+02 6.559389495849609375e+01 1.050897693634033203e+01 1.876693844795227051e+00 2.322577857971191406e+01 7.530742168426513672e+00 2.323444843292236328e+00
8.510000000000000000e+02 5.400000000000000000e+01 2.085449218750000000e+00 4.894364356994628906e+00 1.812532806396484375e+01 6.905908107757568359e+00 -4.159403800964355469e+00
8.520000000000000000e+02 5.257415390014648438e+01 1.171588301658630371e+00 1.119031667709350586e+00 1.022819232940673828e+01 3.404167175292968750e+00 5.332453846931457520e-01
8.530000000000000000e+02 5.021262359619140625e+01 7.275152802467346191e-01 6.602531075477600098e-01 4.462492465972900391e+00 1.536823630332946777e+00 1.865208029747009277e+00
8.540000000000000000e+02 5.048246002197265625e+01 -1.460237950086593628e-01 -5.549234151840209961e-01 4.073083400726318359e+00 1.055447936058044434e+00 1.380722522735595703e+00
8.550000000000000000e+02 5.291952133178710938e+01 -3.514135837554931641e+00 -3.618204832077026367e+00 5.128231048583984375e+00 4.530078768730163574e-01 -1.690249681472778320e+00
8.560000000000000000e+02 5.340353012084960938e+01 -1.732916235923767090e+00 -3.363650798797607422e+00 7.371604442596435547e+00 1.202386021614074707e+00 -2.480156421661376953e+00
8.570000000000000000e+02 5.369576644897460938e+01 8.447239398956298828e-01 -1.122905492782592773e+00 1.218207073211669922e+01 3.317749500274658203e+00 -1.803114175796508789e+00
8.580000000000000000e+02 5.324583816528320312e+01 2.978554010391235352e+00 4.410655975341796875e+00 1.399110221862792969e+01 5.520527362823486328e+00 -1.273412942886352539e+00
8.590000000000000000e+02 5.414546966552734375e+01 2.824857473373413086e+00 3.173589229583740234e+00 2.342105293273925781e+01 7.978393077850341797e+00 -4.117232322692871094e+00
8.600000000000000000e+02 5.353655624389648438e+01 4.585013389587402344e+00 1.851892471313476562e+00 1.622214317321777344e+01 5.422210693359375000e+00 -4.332781136035919189e-01
8.610000000000000000e+02 5.256024551391601562e+01 3.970189094543457031e+00 3.254288911819458008e+00 1.188096809387207031e+01 4.540576934814453125e+00 -1.028578042984008789e+00
8.620000000000000000e+02 5.336875915527343750e+01 3.766735553741455078e+00 3.331138372421264648e+00 1.631482315063476562e+01 5.893788337707519531e+00 -1.557183146476745605e+00
8.630000000000000000e+02 5.695585250854492188e+01 9.296454429626464844e+00 -4.536649882793426514e-01 5.748474001884460449e-01 3.635471314191818237e-02 -1.029516085982322693e-01
8.640000000000000000e+02 5.580900955200195312e+01 9.101055145263671875e+00 -3.948297500610351562e-01 4.361777305603027344e+00 1.190084218978881836e+00 7.175991535186767578e-01
8.650000000000000000e+02 5.663798141479492188e+01 1.407461357116699219e+01 7.287814021110534668e-01 3.827019214630126953e+00 1.366740107536315918e+00 1.916484236717224121e+00
8.660000000000000000e+02 6.052571487426757812e+01 1.255481147766113281e+01 -2.229200839996337891e+00 -7.309197187423706055e-01 -8.880361318588256836e-01 -1.350796937942504883e+00
8.670000000000000000e+02 5.985379028320312500e+01 1.210807895660400391e+01 -2.028413534164428711e+00 -8.630980849266052246e-01 -8.674534559249877930e-01 -1.163483738899230957e+00
8.680000000000000000e+02 6.119821929931640625e+01 1.299416351318359375e+01 -2.687018156051635742e+00 -9.026549458503723145e-01 -1.076901912689208984e+00 -1.390308737754821777e+00
8.690000000000000000e+02 6.258655929565429688e+01 1.379677963256835938e+01 -3.095804691314697266e+00 -7.358709573745727539e-01 -1.149502754211425781e+00 -1.300875902175903320e+00
8.700000000000000000e+02 1.606986045837402344e+01 -2.768110513687133789e+00 -2.141388952732086182e-01 -1.855764836072921753e-01 -1.199146136641502380e-01 1.860516071319580078e-01
8.710000000000000000e+02 1.476908683776855469e+01 -3.623377323150634766e+00 -3.015950024127960205e-01 3.045296855270862579e-02 -8.134261518716812134e-02 1.281116753816604614e-01
8.720000000000000000e+02 1.189882850646972656e+01 -3.342858076095581055e+00 -2.308110594749450684e-01 8.123295009136199951e-02 -4.487343132495880127e-02 1.293694972991943359e-02
8.730000000000000000e+02 1.040760898590087891e+01 -3.430886745452880859e+00 -1.912965774536132812e-01 6.507937610149383545e-02 -3.786516189575195312e-02 -3.634092211723327637e-02
8.740000000000000000e+02 9.587026596069335938e+00 -2.685035943984985352e+00 -1.727949380874633789e-01 3.731149435043334961e-02 -4.064503312110900879e-02 -3.914157673716545105e-02
8.750000000000000000e+02 6.382557868957519531e+00 -3.624119281768798828e+00 -9.850627183914184570e-02 4.886758979409933090e-03 -2.808585390448570251e-02 -9.334687143564224243e-02
8.760000000000000000e+02 4.675042629241943359e+00 -3.682949066162109375e+00 -6.154625862836837769e-02 -2.110555768013000488e-02 -2.479554526507854462e-02 -8.739636093378067017e-02
8.770000000000000000e+02 1.258434176445007324e+00 -3.547779083251953125e+00 -7.249138783663511276e-03 -4.291990399360656738e-02 -1.505071297287940979e-02 -3.025988303124904633e-02
8.780000000000000000e+02 4.140689969062805176e-01 -4.326382160186767578e+00 -1.718198182061314583e-03 -5.543851107358932495e-02 -1.714701391756534576e-02 -1.289020758122205734e-02
8.790000000000000000e+02 4.058791399002075195e-01 -5.130893707275390625e+00 -4.838664608541876078e-04 -8.289153873920440674e-02 -2.501262165606021881e-02 -1.518535707145929337e-02
8.800000000000000000e+02 1.243214726448059082e+00 -4.359359264373779297e+00 -6.009862758219242096e-03 -6.252666562795639038e-02 -2.056095935404300690e-02 -3.753981366753578186e-02
8.810000000000000000e+02 3.865053355693817139e-01 -6.740982532501220703e+00 -5.431079189293086529e-04 -1.512405872344970703e-01 -4.553510993719100952e-02 -1.836137287318706512e-02
8.820000000000000000e+02 1.856469511985778809e+00 -8.408469200134277344e+00 -5.427353084087371826e-03 -1.901298314332962036e-01 -5.866715684533119202e-02 -8.843354135751724243e-02
8.830000000000000000e+02 4.835885524749755859e+00 -9.819446563720703125e+00 -8.765496313571929932e-03 -9.857143461704254150e-02 -3.220107778906822205e-02 -1.747598797082901001e-01
8.840000000000000000e+02 6.061303138732910156e+00 -1.287784194946289062e+01 4.998781532049179077e-02 -6.577459722757339478e-02 -4.736035596579313278e-03 -1.700553596019744873e-01
8.850000000000000000e+02 7.838584899902343750e+00 -1.359488677978515625e+01 9.108084440231323242e-02 5.418973416090011597e-02 4.358117282390594482e-02 -1.624138355255126953e-01
8.860000000000000000e+02 9.098971366882324219e+00 -1.518479633331298828e+01 1.626163870096206665e-01 1.540363132953643799e-01 9.499580413103103638e-02 -9.985884279012680054e-02
8.870000000000000000e+02 1.099681758880615234e+01 -1.676057434082031250e+01 2.481959164142608643e-01 3.719211518764495850e-01 1.860351264476776123e-01 1.672193221747875214e-02
8.880000000000000000e+02 1.293483543395996094e+01 -1.661925697326660156e+01 3.214088976383209229e-01 5.537239909172058105e-01 2.625398635864257812e-01 1.140598356723785400e-01
8.890000000000000000e+02 1.494869232177734375e+01 -1.763031005859375000e+01 3.673540353775024414e-01 8.842067718505859375e-01 3.754682242870330811e-01 3.163828253746032715e-01
8.900000000000000000e+02 1.416013431549072266e+01 -1.705002593994140625e+01 3.565562069416046143e-01 7.365502715110778809e-01 3.279319405555725098e-01 2.180016636848449707e-01
8.910000000000000000e+02 1.456076526641845703e+01 -1.461382007598876953e+01 4.261492490768432617e-01 5.661733150482177734e-01 2.976967692375183105e-01 1.220103874802589417e-01
8.920000000000000000e+02 1.487303829193115234e+01 -1.307092666625976562e+01 3.785164654254913330e-01 4.473815560340881348e-01 2.477694004774093628e-01 4.397776722908020020e-02
8.930000000000000000e+02 1.405238819122314453e+01 -1.189756965637207031e+01 2.261325418949127197e-01 3.484450578689575195e-01 1.723732799291610718e-01 -8.847976475954055786e-02
8.940000000000000000e+02 1.389727973937988281e+01 -9.882437705993652344e+00 -2.293833158910274506e-02 2.884018719196319580e-01 7.963906228542327881e-02 -1.395632177591323853e-01
8.950000000000000000e+02 1.416455745697021484e+01 -8.006153106689453125e+00 -2.086254209280014038e-01 2.483527362346649170e-01 1.191819366067647934e-02 -1.136421039700508118e-01
8.960000000000000000e+02 1.472104167938232422e+01 -7.373696804046630859e+00 -3.380264341831207275e-01 2.314683496952056885e-01 -3.196742385625839233e-02 -5.358463525772094727e-02
8.970000000000000000e+02 1.568125820159912109e+01 -4.527678966522216797e+00 -3.715330958366394043e-01 4.342755768448114395e-03 -1.101571097970008850e-01 1.671657562255859375e-01
8.980000000000000000e+02 1.544410705566406250e+01 -1.831051230430603027e+00 -1.253949254751205444e-01 -9.590609371662139893e-02 -6.639030575752258301e-02 1.112944409251213074e-01
8.990000000000000000e+02 1.560552406311035156e+01 -2.350009441375732422e+00 -1.673129051923751831e-01 -1.223054975271224976e-01 -8.688551932573318481e-02 1.364703774452209473e-01
9.000000000000000000e+02 1.403208732604980469e+01 -2.558256387710571289e+00 -2.206707000732421875e-01 2.438079938292503357e-02 -5.888697132468223572e-02 1.028314307332038879e-01
9.010000000000000000e+02 1.467334175109863281e+01 -2.663138151168823242e+00 -2.396360933780670166e-01 -3.850857494398951530e-03 -7.304608076810836792e-02 1.272398531436920166e-01
9.020000000000000000e+02 1.261054706573486328e+01 -2.593204736709594727e+00 -2.171399146318435669e-01 5.059284344315528870e-02 -4.996411874890327454e-02 5.206194519996643066e-02
9.030000000000000000e+02 1.186956310272216797e+01 -1.924930453300476074e+00 -1.943219602108001709e-01 2.895886078476905823e-02 -4.960893094539642334e-02 3.167392313480377197e-02
9.040000000000000000e+02 1.034818744659423828e+01 -1.898206114768981934e+00 -1.860153675079345703e-01 2.534330263733863831e-02 -4.820162057876586914e-02 -8.823983371257781982e-03
9.050000000000000000e+02 8.740868568420410156e+00 -1.901157021522521973e+00 -1.609273105859756470e-01 1.659839227795600891e-02 -4.329867288470268250e-02 -3.782084211707115173e-02
9.060000000000000000e+02 7.087069034576416016e+00 -1.917441248893737793e+00 -1.249369457364082336e-01 6.422135047614574432e-03 -3.555444255471229553e-02 -5.420250818133354187e-02
9.070000000000000000e+02 4.588123321533203125e+00 -1.930140733718872070e+00 -6.601284444332122803e-02 -7.952743209898471832e-03 -2.218967676162719727e-02 -5.041627958416938782e-02
9.080000000000000000e+02 6.254668235778808594e+00 -1.923325181007385254e+00 -1.055021211504936218e-01 9.620580240152776241e-04 -3.136201947927474976e-02 -5.450464040040969849e-02
9.090000000000000000e+02 5.421071052551269531e+00 -1.927491903305053711e+00 -8.501239866018295288e-02 -2.714049769565463066e-03 -2.631793357431888580e-02 -5.599618703126907349e-02
9.100000000000000000e+02 3.788812398910522461e+00 -2.790699005126953125e+00 -4.758392274379730225e-02 -2.082640118896961212e-02 -2.052309736609458923e-02 -6.124898418784141541e-02
9.110000000000000000e+02 2.086876392364501953e+00 -1.918156385421752930e+00 -1.850263588130474091e-02 -1.534025929868221283e-02 -1.015286892652511597e-02 -2.440631948411464691e-02
9.120000000000000000e+02 4.204415678977966309e-01 -2.714159488677978516e+00 -2.068208297714591026e-03 -1.620174944400787354e-02 -5.480987485498189926e-03 -7.317516952753067017e-03
9.130000000000000000e+02 1.184133529663085938e+00 -5.974772930145263672e+00 -4.425642080605030060e-03 -1.133401915431022644e-01 -3.532975167036056519e-02 -4.842629656195640564e-02
9.140000000000000000e+02 3.731182515621185303e-01 -9.146410942077636719e+00 7.751365192234516144e-04 -2.774880826473236084e-01 -8.301388472318649292e-02 -2.030169963836669922e-02
9.150000000000000000e+02 1.866344809532165527e+00 -9.960625648498535156e+00 -2.150690415874123573e-03 -2.501797080039978027e-01 -7.569912075996398926e-02 -9.312890470027923584e-02
9.160000000000000000e+02 4.410492897033691406e+00 -1.294890022277832031e+01 2.918260917067527771e-02 -1.781381368637084961e-01 -4.468665644526481628e-02 -1.509212553501129150e-01
9.170000000000000000e+02 6.263713836669921875e+00 -1.451142215728759766e+01 7.753298431634902954e-02 -5.846478417515754700e-02 5.720460787415504456e-03 -1.419267803430557251e-01
9.180000000000000000e+02 8.166116714477539062e+00 -1.529052639007568359e+01 1.278314590454101562e-01 9.304833412170410156e-02 6.626393646001815796e-02 -1.146195530891418457e-01
9.190000000000000000e+02 9.175730705261230469e+00 -1.748740959167480469e+01 1.794335842132568359e-01 2.202380895614624023e-01 1.199015006422996521e-01 -2.598151564598083496e-02
9.200000000000000000e+02 1.118140697479248047e+00 -9.165444374084472656e+00 -1.983649563044309616e-03 -2.496091574430465698e-01 -7.547784596681594849e-02 -5.924322828650474548e-02
9.210000000000000000e+02 1.129433870315551758e+00 -1.074151897430419922e+01 -9.238867205567657948e-04 -3.239325284957885742e-01 -9.745692461729049683e-02 -6.069347262382507324e-02
9.220000000000000000e+02 1.906910896301269531e+00 -1.151193714141845703e+01 1.238602213561534882e-03 -3.090702295303344727e-01 -9.234948456287384033e-02 -9.343782812356948853e-02
9.230000000000000000e+02 4.479127883911132812e+00 -1.374334430694580078e+01 3.277888894081115723e-02 -1.840469092130661011e-01 -4.538040608167648315e-02 -1.437181234359741211e-01
9.240000000000000000e+02 6.348689079284667969e+00 -1.534959316253662109e+01 8.078259229660034180e-02 -4.880616068840026855e-02 9.592930786311626434e-03 -1.247575208544731140e-01
9.250000000000000000e+02 7.340877056121826172e+00 -1.711157226562500000e+01 1.247233822941780090e-01 4.299589246511459351e-02 5.031578242778778076e-02 -7.111789286136627197e-02
9.260000000000000000e+02 8.963848114013671875e+00 -1.827341270446777344e+01 1.623063534498214722e-01 2.203558087348937988e-01 1.147986501455307007e-01 1.046421821229159832e-04
9.270000000000000000e+02 3.760029971599578857e-01 -1.074436950683593750e+01 1.384200062602758408e-03 -3.681568503379821777e-01 -1.100317984819412231e-01 -2.067477069795131683e-02
9.280000000000000000e+02 1.140180110931396484e+00 -1.152994155883789062e+01 2.604622161015868187e-03 -3.609128594398498535e-01 -1.074924692511558533e-01 -5.955474823713302612e-02
9.290000000000000000e+02 2.808870077133178711e+00 -1.382281970977783203e+01 1.355177722871303558e-02 -3.174254298210144043e-01 -9.116209298372268677e-02 -1.088635176420211792e-01
9.300000000000000000e+02 4.629458427429199219e+00 -1.619633674621582031e+01 5.413897708058357239e-02 -1.980977356433868408e-01 -4.318762570619583130e-02 -1.023677065968513489e-01
9.310000000000000000e+02 6.432353496551513672e+00 -1.707414436340332031e+01 9.197760373353958130e-02 -3.266735374927520752e-02 1.779307425022125244e-02 -8.113244175910949707e-02
9.320000000000000000e+02 7.307261466979980469e+00 -1.802654266357421875e+01 1.180581077933311462e-01 5.861946940422058105e-02 5.300327390432357788e-02 -4.450045526027679443e-02
9.330000000000000000e+02 3.881842494010925293e-01 -1.314309978485107422e+01 -1.250106957741081715e-03 -4.995016455650329590e-01 -1.502255201339721680e-01 -1.946630887687206268e-02
9.340000000000000000e+02 1.169129490852355957e+00 -1.311203670501708984e+01 4.322770982980728149e-03 -4.302672445774078369e-01 -1.277833431959152222e-01 -5.646118894219398499e-02
9.350000000000000000e+02 2.021541357040405273e+00 -1.466370010375976562e+01 8.051933720707893372e-03 -4.102370142936706543e-01 -1.206555217504501343e-01 -7.854381203651428223e-02
9.360000000000000000e+02 4.649311065673828125e+00 -1.703071975708007812e+01 5.260845646262168884e-02 -1.993456780910491943e-01 -4.402116686105728149e-02 -8.587419241666793823e-02
9.370000000000000000e+02 6.426087856292724609e+00 -1.797201156616210938e+01 1.026631668210029602e-01 -2.682351507246494293e-02 2.275189384818077087e-02 -5.904719233512878418e-02
9.380000000000000000e+02 4.004744589328765869e-01 -1.474643802642822266e+01 -1.163975684903562069e-03 -5.763862133026123047e-01 -1.732650548219680786e-01 -1.720603182911872864e-02
9.390000000000000000e+02 4.058991372585296631e-01 -1.554876708984375000e+01 2.738752169534564018e-03 -6.101920008659362793e-01 -1.822359710931777954e-01 -1.546133961528539658e-02
9.400000000000000000e+02 2.917950868606567383e+00 -1.704606819152832031e+01 2.189574018120765686e-02 -3.729240596294403076e-01 -1.053085029125213623e-01 -6.992064416408538818e-02
9.410000000000000000e+02 4.646193027496337891e+00 -1.786741065979003906e+01 5.733914300799369812e-02 -2.032966762781143188e-01 -4.378726333379745483e-02 -6.836110353469848633e-02
9.420000000000000000e+02 1.205843329429626465e+00 -1.470690155029296875e+01 5.718248430639505386e-03 -4.911192059516906738e-01 -1.456202864646911621e-01 -5.022367462515830994e-02
9.430000000000000000e+02 4.120607674121856689e-01 -1.715510368347167969e+01 2.956223208457231522e-03 -6.670107245445251465e-01 -1.992163509130477905e-01 -1.193311624228954315e-02
9.440000000000000000e+02 2.918004751205444336e+00 -1.786043357849121094e+01 2.643827348947525024e-02 -3.841977417469024658e-01 -1.073278412222862244e-01 -5.794774368405342102e-02
9.450000000000000000e+02 1.212911128997802734e+00 -2.113100051879882812e+01 5.636315792798995972e-03 -6.245242357254028320e-01 -1.856663823127746582e-01 -6.317444145679473877e-03
9.460000000000000000e+02 4.084652066230773926e-01 -2.278156661987304688e+01 -9.784988360479474068e-04 -7.424501776695251465e-01 -2.230286002159118652e-01 1.149391755461692810e-03
9.470000000000000000e+02 2.996455669403076172e+00 -2.412151145935058594e+01 1.151311118155717850e-02 -3.767069280147552490e-01 -1.095581427216529846e-01 2.271532639861106873e-02
9.480000000000000000e+02 4.246338367462158203e+00 -2.557306098937988281e+01 2.241427265107631683e-02 -1.922166794538497925e-01 -5.094072222709655762e-02 4.760404303669929504e-02
9.490000000000000000e+02 7.229823112487792969e+00 -2.768842124938964844e+01 1.869336515665054321e-02 2.351276129484176636e-01 7.614629715681076050e-02 1.090553328394889832e-01
9.500000000000000000e+02 9.315914154052734375e+00 -3.053337097167968750e+01 -1.574951782822608948e-02 5.737625360488891602e-01 1.674039065837860107e-01 1.413484960794448853e-01
9.510000000000000000e+02 1.144560050964355469e+01 -3.358411026000976562e+01 -6.360264122486114502e-02 8.962882757186889648e-01 2.498056888580322266e-01 1.337459087371826172e-01
9.520000000000000000e+02 1.273869800567626953e+01 -3.555082702636718750e+01 -1.005736067891120911e-01 1.070646882057189941e+00 2.910219728946685791e-01 1.029309332370758057e-01
9.530000000000000000e+02 1.899543190002441406e+01 -3.891429138183593750e+01 -2.047456502914428711e-01 1.968336224555969238e+00 5.290771722793579102e-01 4.446419700980186462e-02
9.540000000000000000e+02 1.222465395927429199e+00 -2.273334693908691406e+01 4.968949593603610992e-03 -6.239465475082397461e-01 -1.856932789087295532e-01 3.601656062528491020e-03
9.550000000000000000e+02 4.309709072113037109e-01 -2.518683815002441406e+01 2.553482539951801300e-03 -7.229754328727722168e-01 -2.161265909671783447e-01 5.568434018641710281e-03
9.560000000000000000e+02 3.196922779083251953e+00 -2.575433540344238281e+01 1.303720753639936447e-02 -3.350202143192291260e-01 -9.659490734338760376e-02 3.325594589114189148e-02
9.570000000000000000e+02 4.205201625823974609e+00 -2.755737876892089844e+01 5.873435176908969879e-03 -1.743309795856475830e-01 -5.053726211190223694e-02 5.954754352569580078e-02
9.580000000000000000e+02 7.402546405792236328e+00 -3.006076049804687500e+01 -3.640957409515976906e-03 2.953569591045379639e-01 8.751479536294937134e-02 1.074698194861412048e-01
9.590000000000000000e+02 8.189355850219726562e+00 -3.124308776855468750e+01 -1.982605829834938049e-02 4.132926762104034424e-01 1.180399879813194275e-01 1.132172048091888428e-01
9.600000000000000000e+02 9.019125938415527344e+00 -3.265493774414062500e+01 -3.524519503116607666e-02 5.580710768699645996e-01 1.568477600812911987e-01 1.206842884421348572e-01
9.610000000000000000e+02 4.223560690879821777e-01 -2.438677597045898438e+01 -1.873842556960880756e-03 -7.317919135093688965e-01 -2.200997173786163330e-01 4.694084636867046356e-03
9.620000000000000000e+02 4.392387568950653076e-01 -2.598745155334472656e+01 -1.230322872288525105e-03 -7.125980854034423828e-01 -2.141485214233398438e-01 6.585762836039066315e-03
9.630000000000000000e+02 2.294993400573730469e+00 -2.741716957092285156e+01 2.327093854546546936e-03 -4.282761812210083008e-01 -1.277847290039062500e-01 3.469558432698249817e-02
9.640000000000000000e+02 5.388202667236328125e+00 -2.991434860229492188e+01 3.771018702536821365e-03 2.411612868309020996e-02 8.366144262254238129e-03 8.105680346488952637e-02
9.650000000000000000e+02 6.945353031158447266e+00 -3.177351760864257812e+01 -1.706648059189319611e-02 2.661981284618377686e-01 7.473950088024139404e-02 9.823950380086898804e-02
9.660000000000000000e+02 7.568875312805175781e+00 -3.316633224487304688e+01 -2.848008275032043457e-02 3.614445030689239502e-01 9.988932311534881592e-02 9.333080798387527466e-02
9.670000000000000000e+02 9.888287544250488281e+00 -3.435268402099609375e+01 -5.903003364801406860e-02 6.891481876373291016e-01 1.890354454517364502e-01 1.100538894534111023e-01
9.680000000000000000e+02 1.076372528076171875e+01 -3.638611984252929688e+01 -7.696634531021118164e-02 8.285758495330810547e-01 2.254828512668609619e-01 9.572631865739822388e-02
9.690000000000000000e+02 1.222533607482910156e+01 -4.125077819824218750e+01 -1.174378469586372375e-01 1.037327051162719727e+00 2.759667932987213135e-01 9.770317003130912781e-03
9.700000000000000000e+02 1.300268650054931641e+00 -2.512112236022949219e+01 2.728925319388508797e-04 -5.999752283096313477e-01 -1.799106895923614502e-01 1.518900785595178604e-02
9.710000000000000000e+02 4.657816886901855469e-01 -2.760083007812500000e+01 -2.000559616135433316e-04 -6.882789731025695801e-01 -2.065436989068984985e-01 8.183681406080722809e-03
9.720000000000000000e+02 2.619070053100585938e+00 -2.907153320312500000e+01 1.530596753582358360e-03 -3.674584627151489258e-01 -1.097783669829368591e-01 3.751077130436897278e-02
9.730000000000000000e+02 5.629629611968994141e+00 -3.211972427368164062e+01 -7.997079752385616302e-03 7.570706307888031006e-02 2.031299471855163574e-02 7.761255651712417603e-02
9.740000000000000000e+02 6.079891204833984375e+00 -3.347904586791992188e+01 -2.222040295600891113e-02 1.640626341104507446e-01 4.255267232656478882e-02 7.544559240341186523e-02
9.750000000000000000e+02 8.161182403564453125e+00 -3.481387329101562500e+01 -4.520389810204505920e-02 4.695190489292144775e-01 1.272945404052734375e-01 8.944268524646759033e-02
9.760000000000000000e+02 8.669507980346679688e+00 -3.892035675048828125e+01 -5.326454713940620422e-02 5.377154946327209473e-01 1.453352868556976318e-01 5.311869829893112183e-02
9.770000000000000000e+02 1.633388900756835938e+01 -4.083898162841796875e+01 -1.747541129589080811e-01 1.643908977508544922e+00 4.407464563846588135e-01 1.918713189661502838e-02
9.780000000000000000e+02 1.346889972686767578e+00 -2.671395874023437500e+01 6.787260062992572784e-04 -5.743755102157592773e-01 -1.721090376377105713e-01 1.872737891972064972e-02
9.790000000000000000e+02 5.026517510414123535e-01 -2.921896553039550781e+01 -3.931511018890887499e-04 -6.597983837127685547e-01 -1.980574578046798706e-01 9.617151692509651184e-03
9.800000000000000000e+02 2.710300683975219727e+00 -3.079160118103027344e+01 2.156303497031331062e-03 -3.385930061340332031e-01 -1.009310111403465271e-01 4.171021655201911926e-02
9.810000000000000000e+02 4.713552951812744141e+00 -3.348994445800781250e+01 -6.630919873714447021e-03 -2.027820050716400146e-02 -8.072735741734504700e-03 5.799951404333114624e-02
9.820000000000000000e+02 6.460795879364013672e+00 -3.501929855346679688e+01 -2.037832513451576233e-02 2.264236509799957275e-01 6.181359663605690002e-02 5.781754106283187866e-02
9.830000000000000000e+02 1.459638714790344238e+00 -2.835348892211914062e+01 1.205014297738671303e-03 -5.362672805786132812e-01 -1.605186909437179565e-01 2.316162921488285065e-02
9.840000000000000000e+02 5.146011114120483398e-01 -3.163367652893066406e+01 -1.867162878625094891e-03 -6.188526153564453125e-01 -1.862159371376037598e-01 9.214336983859539032e-03
9.850000000000000000e+02 2.538912773132324219e+00 -3.326163101196289062e+01 -7.970675826072692871e-03 -3.278224170207977295e-01 -1.007379218935966492e-01 2.831142023205757141e-02
9.860000000000000000e+02 4.070631504058837891e+00 -3.515054702758789062e+01 -1.536025106906890869e-02 -1.012639105319976807e-01 -3.498724848031997681e-02 3.298836573958396912e-02
9.870000000000000000e+02 6.666555881500244141e+00 -3.671131896972656250e+01 -3.492204472422599792e-02 2.659305334091186523e-01 6.930254399776458740e-02 5.191128328442573547e-02
9.880000000000000000e+02 1.552640914916992188e+00 -3.161297035217285156e+01 3.384463954716920853e-03 -4.818544089794158936e-01 -1.435409784317016602e-01 2.511771768331527710e-02
9.890000000000000000e+02 5.212556719779968262e-01 -3.326412582397460938e+01 -3.839474171400070190e-03 -5.893807411193847656e-01 -1.779660731554031372e-01 9.159854613244533539e-03
9.900000000000000000e+02 3.106837749481201172e+00 -3.470886230468750000e+01 4.672210663557052612e-03 -2.410799711942672729e-01 -7.092233002185821533e-02 3.832382708787918091e-02
9.910000000000000000e+02 4.672286987304687500e+00 -3.784819412231445312e+01 -1.114497240632772446e-02 -3.242599964141845703e-02 -1.307129207998514175e-02 2.990892529487609863e-02
9.920000000000000000e+02 1.550765991210937500e+00 -3.327185058593750000e+01 1.055093598552048206e-03 -4.539668560028076172e-01 -1.358735263347625732e-01 2.843281999230384827e-02
9.930000000000000000e+02 5.211080312728881836e-01 -3.490287399291992188e+01 -5.709138698875904083e-03 -5.613986253738403320e-01 -1.701323240995407104e-01 9.635415859520435333e-03
9.940000000000000000e+02 4.058672428131103516e+00 -3.920194625854492188e+01 -2.041654102504253387e-02 -9.130162745714187622e-02 -3.351544961333274841e-02 4.332208633422851562e-02
9.950000000000000000e+02 8.042496681213378906e+00 -4.128058624267578125e+01 -4.924167320132255554e-02 4.137922227382659912e-01 1.093651652336120605e-01 2.090705931186676025e-02
9.960000000000000000e+02 1.601664423942565918e+00 -3.503763580322265625e+01 3.315882291644811630e-03 -4.295892417430877686e-01 -1.278820037841796875e-01 2.423956245183944702e-02
9.970000000000000000e+02 4.839025437831878662e-01 -3.649477386474609375e+01 -8.004133589565753937e-03 -5.370454788208007812e-01 -1.635148823261260986e-01 4.969845525920391083e-03
9.980000000000000000e+02 2.735310316085815430e+00 -3.878040695190429688e+01 -1.130565535277128220e-02 -2.503125965595245361e-01 -7.848547399044036865e-02 1.633754745125770569e-02
9.990000000000000000e+02 5.384050369262695312e+00 -4.042255783081054688e+01 -3.411745652556419373e-02 9.641420096158981323e-02 1.868902333080768585e-02 7.262652274221181870e-03
1.000000000000000000e+03 3.230848550796508789e+00 -3.703672409057617188e+01 -9.746179915964603424e-03 -2.154461890459060669e-01 -6.755771487951278687e-02 4.009481519460678101e-02
1.001000000000000000e+03 4.944535493850708008e-01 -3.806907272338867188e+01 -7.446384523063898087e-03 -5.181725621223449707e-01 -1.576856821775436401e-01 7.235129363834857941e-03
1.002000000000000000e+03 2.543622255325317383e+00 -3.968747329711914062e+01 9.237806661985814571e-04 -2.571368217468261719e-01 -7.686391472816467285e-02 1.969288289546966553e-02
1.003000000000000000e+03 1.481002926826477051e+00 -3.804275131225585938e+01 -3.991811536252498627e-03 -4.076958000659942627e-01 -1.235062852501869202e-01 7.246064022183418274e-03
1.004000000000000000e+03 5.093541741371154785e-01 -3.967126464843750000e+01 2.754231216385960579e-03 -5.113973617553710938e-01 -1.525929421186447144e-01 1.459043705835938454e-03
1.005000000000000000e+03 3.076084136962890625e+00 -4.208980178833007812e+01 -8.075393736362457275e-03 -1.792855858802795410e-01 -5.620829388499259949e-02 1.312438584864139557e-02
1.006000000000000000e+03 1.536221861839294434e+00 -3.965046310424804688e+01 -8.839686634019017220e-04 -3.889068663120269775e-01 -1.169372498989105225e-01 3.707801457494497299e-03
1.007000000000000000e+03 4.009231030941009521e-01 -4.209653472900390625e+01 -1.075062807649374008e-02 -5.120936036109924316e-01 -1.568532586097717285e-01 1.233654282987117767e-02
1.008000000000000000e+03 1.380061864852905273e+00 -4.210943222045898438e+01 2.972870832309126854e-03 -4.324070215225219727e-01 -1.288302391767501831e-01 -2.283644676208496094e-02
1.009000000000000000e+03 2.648507881164550781e+01 -3.259203338623046875e+01 -2.612060010433197021e-01 2.979171991348266602e+00 8.153897523880004883e-01 1.228357572108507156e-02
1.010000000000000000e+03 2.611362648010253906e+01 -3.043307685852050781e+01 -2.675101459026336670e-01 2.962543964385986328e+00 8.085101246833801270e-01 2.619704790413379669e-02
1.011000000000000000e+03 2.717788314819335938e+01 -2.854078102111816406e+01 -2.691928744316101074e-01 3.147063016891479492e+00 8.633610010147094727e-01 -1.707396097481250763e-02
1.012000000000000000e+03 2.734360313415527344e+01 -2.638290214538574219e+01 -2.715577781200408936e-01 3.262749910354614258e+00 8.973576426506042480e-01 -5.838199704885482788e-02
1.013000000000000000e+03 2.866870307922363281e+01 -2.554418563842773438e+01 -2.259963452816009521e-01 3.393227100372314453e+00 9.501692056655883789e-01 -1.436278223991394043e-01
1.014000000000000000e+03 2.754843330383300781e+01 -2.276769447326660156e+01 -3.161336481571197510e-01 3.561330318450927734e+00 9.735590219497680664e-01 -1.276722550392150879e-01
1.015000000000000000e+03 2.757192230224609375e+01 -1.942737960815429688e+01 -4.884655475616455078e-01 4.151241779327392578e+00 1.098832964897155762e+00 -2.430473715066909790e-01
1.016000000000000000e+03 2.704711723327636719e+01 -1.855720710754394531e+01 -5.453751087188720703e-01 4.329254150390625000e+00 1.135163664817810059e+00 -1.838541030883789062e-01
1.017000000000000000e+03 3.022587776184082031e+01 -3.707798767089843750e+01 -2.773844003677368164e-01 3.264042854309082031e+00 8.959975838661193848e-01 -3.474301844835281372e-02
1.018000000000000000e+03 3.097151184082031250e+01 -3.349933624267578125e+01 -2.419001758098602295e-01 3.363942623138427734e+00 9.366127252578735352e-01 -6.165288016200065613e-02
1.019000000000000000e+03 2.828769683837890625e+01 -3.215282440185546875e+01 -2.541987299919128418e-01 3.165536642074584961e+00 8.734014034271240234e-01 -9.573606774210929871e-03
1.020000000000000000e+03 2.765738677978515625e+01 -3.016312599182128906e+01 -2.627537548542022705e-01 3.149417877197265625e+00 8.659992814064025879e-01 -2.335636317729949951e-02
1.021000000000000000e+03 2.829777526855468750e+01 -2.789767265319824219e+01 -2.413147538900375366e-01 3.268990993499755859e+00 9.083029031753540039e-01 -7.231653481721878052e-02
1.022000000000000000e+03 2.956427574157714844e+01 -2.721878814697265625e+01 -2.172260433435440063e-01 3.370369672775268555e+00 9.459431171417236328e-01 -1.370415538549423218e-01
1.023000000000000000e+03 3.016874122619628906e+01 -2.498305892944335938e+01 -1.767554134130477905e-01 3.474918842315673828e+00 9.894490242004394531e-01 -2.499181479215621948e-01
1.024000000000000000e+03 2.891396522521972656e+01 -2.206843948364257812e+01 -2.768545746803283691e-01 3.645825624465942383e+00 1.010691285133361816e+00 -3.749844729900360107e-01
1.025000000000000000e+03 2.876899909973144531e+01 -2.040464210510253906e+01 -3.364247679710388184e-01 3.875173807144165039e+00 1.061624646186828613e+00 -4.458734095096588135e-01
1.026000000000000000e+03 2.985726928710937500e+01 -3.149165344238281250e+01 -2.275237143039703369e-01 3.290772676467895508e+00 9.189746975898742676e-01 -5.142749100923538208e-02
1.027000000000000000e+03 3.092918777465820312e+01 -2.662162208557128906e+01 -1.460755169391632080e-01 3.461543321609497070e+00 9.946403503417968750e-01 -1.725044995546340942e-01
1.028000000000000000e+03 3.151984596252441406e+01 -2.452470588684082031e+01 -5.850152671337127686e-02 3.498120069503784180e+00 1.031885623931884766e+00 -2.762781381607055664e-01
1.029000000000000000e+03 3.108877563476562500e+01 -2.298872756958007812e+01 -1.281268745660781860e-01 3.550565242767333984e+00 1.026731491088867188e+00 -4.136763513088226318e-01
1.030000000000000000e+03 3.195490264892578125e+01 -2.011501693725585938e+01 -1.476937439292669296e-02 3.524095058441162109e+00 1.052797675132751465e+00 -7.493966817855834961e-01
1.031000000000000000e+03 3.163165283203125000e+01 -4.051742935180664062e+01 -2.485276311635971069e-01 3.400572299957275391e+00 9.456134438514709473e-01 -1.561293937265872955e-02
1.032000000000000000e+03 3.477850723266601562e+01 -3.870938873291015625e+01 -2.335506826639175415e-01 3.644725322723388672e+00 1.023352384567260742e+00 -4.011376947164535522e-02
1.033000000000000000e+03 3.423412322998046875e+01 -3.372077560424804688e+01 -2.198254913091659546e-01 3.635182142257690430e+00 1.024607062339782715e+00 -1.099030822515487671e-01
1.034000000000000000e+03 3.119956970214843750e+01 -3.068847274780273438e+01 -2.252426594495773315e-01 3.406313419342041016e+00 9.543212652206420898e-01 -9.774301201105117798e-02
1.035000000000000000e+03 3.039929580688476562e+01 -2.894512367248535156e+01 -1.949736326932907104e-01 3.382899761199951172e+00 9.563778638839721680e-01 -9.905911982059478760e-02
1.036000000000000000e+03 3.178448867797851562e+01 -2.833806419372558594e+01 -1.729963421821594238e-01 3.503617048263549805e+00 9.991862177848815918e-01 -1.470122635364532471e-01
1.037000000000000000e+03 3.226439285278320312e+01 -2.604873085021972656e+01 -1.117390245199203491e-01 3.545172929763793945e+00 1.030030131340026855e+00 -2.166226655244827271e-01
1.038000000000000000e+03 3.267293167114257812e+01 -2.412304878234863281e+01 -2.802872657775878906e-02 3.537052392959594727e+00 1.052707076072692871e+00 -3.127990067005157471e-01
1.039000000000000000e+03 3.269605636596679688e+01 -1.921088409423828125e+01 1.201658174395561218e-01 3.333625316619873047e+00 1.036137342453002930e+00 -9.674530029296875000e-01
1.040000000000000000e+03 3.260554122924804688e+01 -3.025502014160156250e+01 -1.753125339746475220e-01 3.535678386688232422e+00 1.008109688758850098e+00 -1.198097541928291321e-01
1.041000000000000000e+03 3.316867828369140625e+01 -2.771037101745605469e+01 -1.088033169507980347e-01 3.585801124572753906e+00 1.043099284172058105e+00 -1.560680717229843140e-01
1.042000000000000000e+03 3.350165939331054688e+01 -2.535346031188964844e+01 1.431046985089778900e-03 3.580223083496093750e+00 1.074496269226074219e+00 -2.142984867095947266e-01
1.043000000000000000e+03 3.457823562622070312e+01 -2.439175605773925781e+01 7.386225461959838867e-02 3.584744691848754883e+00 1.097582101821899414e+00 -2.233178466558456421e-01
1.044000000000000000e+03 3.392480087280273438e+01 -2.239805221557617188e+01 2.244521677494049072e-01 3.378666877746582031e+00 1.080935716629028320e+00 -3.796911537647247314e-01
1.045000000000000000e+03 3.437021255493164062e+01 -2.116897964477539062e+01 3.274377286434173584e-01 3.260938644409179688e+00 1.076512932777404785e+00 -4.329499006271362305e-01
1.046000000000000000e+03 3.385761260986328125e+01 -1.867284202575683594e+01 3.499639332294464111e-01 2.994056701660156250e+00 1.003206133842468262e+00 -9.592987298965454102e-01
1.047000000000000000e+03 3.824425888061523438e+01 -4.057844924926757812e+01 -1.782321333885192871e-01 3.858622550964355469e+00 1.104117035865783691e+00 -2.615821547806262970e-02
1.048000000000000000e+03 3.657870483398437500e+01 -3.569011688232421875e+01 -1.814604103565216064e-01 3.820847988128662109e+00 1.091816306114196777e+00 -9.267017245292663574e-02
1.049000000000000000e+03 3.560414505004882812e+01 -3.162317085266113281e+01 -1.711545437574386597e-01 3.786086797714233398e+00 1.084479689598083496e+00 -1.206660345196723938e-01
1.050000000000000000e+03 3.412968826293945312e+01 -2.967980766296386719e+01 -1.677198708057403564e-01 3.663973093032836914e+00 1.048875927925109863e+00 -1.382714509963989258e-01
1.051000000000000000e+03 3.456167984008789062e+01 -2.686086463928222656e+01 -7.806012034416198730e-02 3.683578968048095703e+00 1.081655621528625488e+00 -1.714123636484146118e-01
1.052000000000000000e+03 3.573653030395507812e+01 -2.571231079101562500e+01 2.487188577651977539e-02 3.775775671005249023e+00 1.140194296836853027e+00 -1.227304786443710327e-01
1.053000000000000000e+03 3.612072372436523438e+01 -2.073608779907226562e+01 6.045631170272827148e-01 3.204751253128051758e+00 1.142794251441955566e+00 -1.060870289802551270e-01
1.054000000000000000e+03 3.775308609008789062e+01 -3.309534072875976562e+01 -1.836331188678741455e-01 3.914563417434692383e+00 1.119279146194458008e+00 -1.534211039543151855e-01
1.055000000000000000e+03 3.668521499633789062e+01 -2.993974113464355469e+01 -1.646641045808792114e-01 3.895181655883789062e+00 1.119155287742614746e+00 -1.597001552581787109e-01
1.056000000000000000e+03 3.701787185668945312e+01 -2.826040458679199219e+01 -1.120185330510139465e-01 3.948404073715209961e+00 1.150915622711181641e+00 -1.392276734113693237e-01
1.057000000000000000e+03 3.709860610961914062e+01 -2.659264183044433594e+01 -7.944180816411972046e-02 3.954628944396972656e+00 1.162556171417236328e+00 -1.323174238204956055e-01
1.058000000000000000e+03 3.859970092773437500e+01 -2.504940605163574219e+01 -6.657119840383529663e-02 4.176670074462890625e+00 1.233029603958129883e+00 -7.659360021352767944e-02
1.059000000000000000e+03 3.789147949218750000e+01 -2.217324638366699219e+01 2.563102543354034424e-01 3.954850435256958008e+00 1.263348221778869629e+00 1.667035073041915894e-01
1.060000000000000000e+03 3.749653244018554688e+01 -1.842132949829101562e+01 1.175008535385131836e+00 2.311345338821411133e+00 1.045906186103820801e+00 1.531693488359451294e-01
1.061000000000000000e+03 3.947522354125976562e+01 -3.706354141235351562e+01 -1.584270149469375610e-01 3.964833498001098633e+00 1.141921997070312500e+00 -1.095111519098281860e-01
1.062000000000000000e+03 4.024067306518554688e+01 -3.406346511840820312e+01 -1.232098564505577087e-01 4.051056385040283203e+00 1.178354024887084961e+00 -1.553568840026855469e-01
1.063000000000000000e+03 3.881980514526367188e+01 -2.868835067749023438e+01 -1.487590074539184570e-01 4.100630283355712891e+00 1.185561418533325195e+00 -2.014726549386978149e-01
1.064000000000000000e+03 3.882819747924804688e+01 -2.677760314941406250e+01 -1.209560334682464600e-01 4.171904563903808594e+00 1.215284585952758789e+00 -1.478351205587387085e-01
1.065000000000000000e+03 4.023266220092773438e+01 -2.492941474914550781e+01 -1.725509762763977051e-01 4.470995903015136719e+00 1.289533495903015137e+00 -1.617649495601654053e-01
1.066000000000000000e+03 3.965439605712890625e+01 -2.329553222656250000e+01 -1.126347482204437256e-01 4.509040355682373047e+00 1.318921566009521484e+00 5.039059743285179138e-02
1.067000000000000000e+03 3.854879379272460938e+01 -2.152982139587402344e+01 1.857053786516189575e-01 4.098534107208251953e+00 1.285271763801574707e+00 3.265499770641326904e-01
1.068000000000000000e+03 3.871579360961914062e+01 -2.042844581604003906e+01 5.082364678382873535e-01 4.044249534606933594e+00 1.365745782852172852e+00 6.354022026062011719e-01
1.069000000000000000e+03 4.266765213012695312e+01 -4.090146636962890625e+01 -8.984786272048950195e-02 4.140043735504150391e+00 1.215058684349060059e+00 -3.471643105149269104e-02
1.070000000000000000e+03 4.307013702392578125e+01 -3.452116394042968750e+01 -6.775804609060287476e-02 4.166334152221679688e+00 1.229572892189025879e+00 -1.905393600463867188e-01
1.071000000000000000e+03 4.062958908081054688e+01 -3.139964866638183594e+01 -1.327243000268936157e-01 4.115895748138427734e+00 1.194951415061950684e+00 -2.358532845973968506e-01
1.072000000000000000e+03 4.073089218139648438e+01 -2.901743507385253906e+01 -1.218248680233955383e-01 4.208451747894287109e+00 1.225988030433654785e+00 -2.648950517177581787e-01
1.073000000000000000e+03 4.065774917602539062e+01 -2.684298133850097656e+01 -1.778590381145477295e-01 4.333510398864746094e+00 1.246695399284362793e+00 -2.816415429115295410e-01
1.074000000000000000e+03 4.152964019775390625e+01 -2.431908798217773438e+01 -2.394070476293563843e-01 4.683929443359375000e+00 1.333356738090515137e+00 -3.125233948230743408e-01
1.075000000000000000e+03 4.201721572875976562e+01 -2.203169631958007812e+01 -4.318703114986419678e-01 5.383389472961425781e+00 1.485455751419067383e+00 -4.122660458087921143e-01
1.076000000000000000e+03 4.099943542480468750e+01 -2.059882545471191406e+01 -3.331040441989898682e-01 5.701121807098388672e+00 1.610405325889587402e+00 4.035032093524932861e-01
1.077000000000000000e+03 4.089306259155273438e+01 -1.943173408508300781e+01 -2.771645486354827881e-01 6.375785827636718750e+00 1.829586386680603027e+00 8.651403784751892090e-01
1.078000000000000000e+03 4.295838546752929688e+01 -3.768123626708984375e+01 -8.460466563701629639e-02 4.152377605438232422e+00 1.220331788063049316e+00 -9.747503697872161865e-02
1.079000000000000000e+03 4.268395614624023438e+01 -2.918807792663574219e+01 -9.643014520406723022e-02 4.247458457946777344e+00 1.245308518409729004e+00 -3.533551692962646484e-01
1.080000000000000000e+03 4.253831481933593750e+01 -2.698889732360839844e+01 -1.272336989641189575e-01 4.395888328552246094e+00 1.280596375465393066e+00 -4.118036925792694092e-01
1.081000000000000000e+03 4.282678222656250000e+01 -2.521611976623535156e+01 -2.382550984621047974e-01 4.576678752899169922e+00 1.301527142524719238e+00 -5.165572166442871094e-01
1.082000000000000000e+03 4.376005935668945312e+01 -2.274726295471191406e+01 -3.183064460754394531e-01 4.946879386901855469e+00 1.388571858406066895e+00 -8.694382309913635254e-01
1.083000000000000000e+03 4.286333465576171875e+01 -2.130588531494140625e+01 -4.661988019943237305e-01 5.556393623352050781e+00 1.527058362960815430e+00 -7.436931133270263672e-01
1.084000000000000000e+03 4.609036254882812500e+01 -3.439299392700195312e+01 2.543052472174167633e-02 4.296201705932617188e+00 1.296489715576171875e+00 -1.739224046468734741e-01
1.085000000000000000e+03 4.522241592407226562e+01 -3.143955993652343750e+01 2.472514472901821136e-02 4.226040840148925781e+00 1.275229811668395996e+00 -2.936449348926544189e-01
1.086000000000000000e+03 4.449638366699218750e+01 -2.910041427612304688e+01 -5.970343481749296188e-03 4.259653568267822266e+00 1.276104927062988281e+00 -4.038257300853729248e-01
1.087000000000000000e+03 4.424121475219726562e+01 -2.715507698059082031e+01 -5.875615775585174561e-02 4.307742118835449219e+00 1.274695873260498047e+00 -5.386422276496887207e-01
1.088000000000000000e+03 4.441284179687500000e+01 -2.552078628540039062e+01 -5.394689738750457764e-02 4.394445896148681641e+00 1.302149653434753418e+00 -6.679512262344360352e-01
1.089000000000000000e+03 4.419955444335937500e+01 -2.182167816162109375e+01 -2.816062569618225098e-01 5.067772865295410156e+00 1.435850024223327637e+00 -1.075430274009704590e+00
1.090000000000000000e+03 4.442319869995117188e+01 -2.100736045837402344e+01 -2.845089137554168701e-01 5.216954231262207031e+00 1.479733586311340332e+00 -1.220905423164367676e+00
1.091000000000000000e+03 4.450593948364257812e+01 -1.913228797912597656e+01 -1.172223761677742004e-01 5.593791484832763672e+00 1.642970681190490723e+00 -1.585093498229980469e+00
1.092000000000000000e+03 5.983313369750976562e+01 -3.736537170410156250e+01 7.742175459861755371e-02 5.251102447509765625e+00 1.598557233810424805e+00 -9.263546206057071686e-03
1.093000000000000000e+03 4.731047821044921875e+01 -4.094264602661132812e+01 -1.053693005815148354e-03 4.394900798797607422e+00 1.318154096603393555e+00 -1.938266679644584656e-02
1.094000000000000000e+03 4.679039001464843750e+01 -3.772248840332031250e+01 6.400269456207752228e-03 4.356595516204833984e+00 1.308898687362670898e+00 -8.956922590732574463e-02
1.095000000000000000e+03 4.602064895629882812e+01 -2.864096260070800781e+01 8.451532572507858276e-02 4.191694736480712891e+00 1.282863020896911621e+00 -4.509622454643249512e-01
1.096000000000000000e+03 4.559260940551757812e+01 -2.709935951232910156e+01 6.754708290100097656e-02 4.230196952819824219e+00 1.289323210716247559e+00 -5.693014264106750488e-01
1.097000000000000000e+03 4.574962997436523438e+01 -2.581875610351562500e+01 3.008998930454254150e-02 4.223299026489257812e+00 1.276016712188720703e+00 -7.348595857620239258e-01
1.098000000000000000e+03 4.520685958862304688e+01 -2.223264503479003906e+01 -1.592943072319030762e-01 4.609514713287353516e+00 1.335066199302673340e+00 -1.190244913101196289e+00
1.099000000000000000e+03 4.611153793334960938e+01 -2.019573783874511719e+01 4.630292579531669617e-02 4.333553791046142578e+00 1.313956975936889648e+00 -1.590547442436218262e+00
1.100000000000000000e+03 4.571995162963867188e+01 -1.938667106628417969e+01 2.294005639851093292e-02 4.623644351959228516e+00 1.393975257873535156e+00 -1.655103325843811035e+00
1.101000000000000000e+03 4.838241195678710938e+01 -3.132671546936035156e+01 1.564379781484603882e-01 4.280658721923828125e+00 1.331129074096679688e+00 -2.038228362798690796e-01
1.102000000000000000e+03 4.810528945922851562e+01 -2.941910362243652344e+01 2.268888503313064575e-01 4.153262138366699219e+00 1.314045310020446777e+00 -3.101471066474914551e-01
1.103000000000000000e+03 4.733647918701171875e+01 -2.786333847045898438e+01 2.321387976408004761e-01 4.087628364562988281e+00 1.295930147171020508e+00 -4.499449133872985840e-01
1.104000000000000000e+03 4.834750747680664062e+01 -2.673305702209472656e+01 3.846329748630523682e-01 3.891279697418212891e+00 1.282773733139038086e+00 -4.400159716606140137e-01
1.105000000000000000e+03 4.659770584106445312e+01 -2.466307258605957031e+01 1.794277131557464600e-01 4.022521972656250000e+00 1.260584950447082520e+00 -8.691028356552124023e-01
1.106000000000000000e+03 4.799990844726562500e+01 -2.112218284606933594e+01 2.808730304241180420e-01 3.225176095962524414e+00 1.051814675331115723e+00 -1.340720891952514648e+00
1.107000000000000000e+03 4.800522994995117188e+01 -1.778968811035156250e+01 1.221135035157203674e-01 2.543658494949340820e+00 7.997316122055053711e-01 -1.317262768745422363e+00
1.108000000000000000e+03 5.056037521362304688e+01 -3.720483779907226562e+01 6.584957242012023926e-02 4.588386058807373047e+00 1.396270751953125000e+00 -4.255490377545356750e-02
1.109000000000000000e+03 4.894238662719726562e+01 -3.391759109497070312e+01 1.029714196920394897e-01 4.385281085968017578e+00 1.346475839614868164e+00 -1.321431249380111694e-01
1.110000000000000000e+03 4.952903747558593750e+01 -2.727292060852050781e+01 3.752860724925994873e-01 3.968616485595703125e+00 1.303170800209045410e+00 -2.819732129573822021e-01
1.111000000000000000e+03 4.991865921020507812e+01 -2.227233505249023438e+01 6.819936037063598633e-01 2.713059186935424805e+00 1.018515825271606445e+00 -7.131814360618591309e-01
1.112000000000000000e+03 4.806922149658203125e+01 -2.017436599731445312e+01 2.484644502401351929e-01 3.029831409454345703e+00 9.834887385368347168e-01 -1.444951653480529785e+00
1.113000000000000000e+03 4.905521011352539062e+01 -1.932644653320312500e+01 1.704607307910919189e-01 2.294185876846313477e+00 7.393939495086669922e-01 -1.258306145668029785e+00
1.114000000000000000e+03 5.313327407836914062e+01 -3.566146087646484375e+01 1.022768318653106689e-01 4.722102165222167969e+00 1.447313666343688965e+00 -2.279951237142086029e-02
1.115000000000000000e+03 5.005608749389648438e+01 -3.085956001281738281e+01 2.062339633703231812e-01 4.306544303894042969e+00 1.353833436965942383e+00 -1.470931619405746460e-01
1.116000000000000000e+03 5.054342269897460938e+01 -2.826663017272949219e+01 3.766766786575317383e-01 4.085591793060302734e+00 1.338680505752563477e+00 -1.319131851196289062e-01
1.117000000000000000e+03 5.276996612548828125e+01 -2.701417732238769531e+01 3.947764039039611816e-01 4.202682971954345703e+00 1.379237890243530273e+00 1.865172982215881348e-01
1.118000000000000000e+03 5.245497512817382812e+01 -2.420578384399414062e+01 6.155301928520202637e-01 3.601783514022827148e+00 1.265194058418273926e+00 3.272498548030853271e-01
1.119000000000000000e+03 5.178666305541992188e+01 -2.201454734802246094e+01 9.236831068992614746e-01 2.464981794357299805e+00 1.016599416732788086e+00 2.253382802009582520e-01
1.120000000000000000e+03 5.089068603515625000e+01 -2.211791801452636719e+01 8.621788620948791504e-01 2.374247550964355469e+00 9.709278941154479980e-01 -3.443350493907928467e-01
1.121000000000000000e+03 5.098889160156250000e+01 -1.994819450378417969e+01 2.367475181818008423e-01 1.373378038406372070e+00 4.830376803874969482e-01 -5.864736437797546387e-01
1.122000000000000000e+03 5.684379959106445312e+01 -4.064520645141601562e+01 6.647311896085739136e-02 5.031076908111572266e+00 1.529265046119689941e+00 2.452709246426820755e-03
1.123000000000000000e+03 5.137042236328125000e+01 -3.000348472595214844e+01 2.622323930263519287e-01 4.372945785522460938e+00 1.390553474426269531e+00 -3.728893026709556580e-02
1.124000000000000000e+03 5.244885253906250000e+01 -2.904785156250000000e+01 2.786525487899780273e-01 4.406366348266601562e+00 1.405505657196044922e+00 4.605859145522117615e-02
1.125000000000000000e+03 5.424695587158203125e+01 -2.624645614624023438e+01 2.963247299194335938e-01 4.582551002502441406e+00 1.463662624359130859e+00 4.165832102298736572e-01
1.126000000000000000e+03 5.330771636962890625e+01 -2.404646110534667969e+01 6.311737895011901855e-01 3.907171487808227539e+00 1.361503601074218750e+00 6.512174606323242188e-01
1.127000000000000000e+03 5.322304916381835938e+01 -2.312441253662109375e+01 6.323609948158264160e-01 3.482439756393432617e+00 1.234440207481384277e+00 7.681702971458435059e-01
1.128000000000000000e+03 5.276810455322265625e+01 -2.094830322265625000e+01 1.076751589775085449e+00 1.936676144599914551e+00 9.040283560752868652e-01 9.234479665756225586e-01
1.129000000000000000e+03 5.334029006958007812e+01 -1.861383628845214844e+01 -2.081750154495239258e+00 -6.833584904670715332e-01 -8.295326232910156250e-01 1.128643870353698730e+00
1.130000000000000000e+03 5.901094055175781250e+01 -2.879513168334960938e+01 -7.413362152874469757e-03 5.405097007751464844e+00 1.619305133819580078e+00 -2.941584773361682892e-02
1.131000000000000000e+03 6.009741210937500000e+01 -2.579029273986816406e+01 -7.825482636690139771e-02 5.812890529632568359e+00 1.720390677452087402e+00 -3.123435676097869873e-01
1.132000000000000000e+03 5.915695190429687500e+01 -2.300432586669921875e+01 -2.375469505786895752e-01 6.524515151977539062e+00 1.886090517044067383e+00 -4.875308275222778320e-01
1.133000000000000000e+03 5.637594223022460938e+01 -3.728879928588867188e+01 7.309911400079727173e-02 5.001697063446044922e+00 1.522438883781433105e+00 -7.415862637571990490e-04
1.134000000000000000e+03 5.911895751953125000e+01 -3.475043487548828125e+01 6.177460029721260071e-02 5.206578731536865234e+00 1.580505967140197754e+00 -1.347317174077033997e-02
1.135000000000000000e+03 5.998322296142578125e+01 -3.073963356018066406e+01 5.151891335844993591e-02 5.359250545501708984e+00 1.623230814933776855e+00 -4.529315605759620667e-02
1.136000000000000000e+03 6.021092987060546875e+01 -2.945330429077148438e+01 3.133524954319000244e-02 5.472666263580322266e+00 1.651200532913208008e+00 -8.590380847454071045e-02
1.137000000000000000e+03 6.112994766235351562e+01 -2.876271057128906250e+01 2.875572070479393005e-02 5.503925800323486328e+00 1.659804344177246094e+00 -1.934091150760650635e-01
1.138000000000000000e+03 6.104182434082031250e+01 -2.748028373718261719e+01 4.725022986531257629e-02 5.542354583740234375e+00 1.676881551742553711e+00 -2.567315101623535156e-01
1.139000000000000000e+03 6.131659317016601562e+01 -2.606922340393066406e+01 3.028899058699607849e-02 5.704097270965576172e+00 1.720315933227539062e+00 -3.746375739574432373e-01
1.140000000000000000e+03 6.112852859497070312e+01 -3.426589584350585938e+01 9.085549414157867432e-02 5.349379539489746094e+00 1.632070541381835938e+00 -3.125591576099395752e-02
1.141000000000000000e+03 6.037445831298828125e+01 -3.234292602539062500e+01 5.995726212859153748e-02 5.328346729278564453e+00 1.616491198539733887e+00 -5.555858090519905090e-02
1.142000000000000000e+03 6.096461486816406250e+01 -3.042773056030273438e+01 7.035456597805023193e-02 5.405287742614746094e+00 1.642692685127258301e+00 -1.420914083719253540e-01
1.143000000000000000e+03 6.179129028320312500e+01 -2.976424217224121094e+01 1.062578707933425903e-01 5.444971084594726562e+00 1.665368676185607910e+00 -1.397655904293060303e-01
1.144000000000000000e+03 6.248941802978515625e+01 -2.770010185241699219e+01 1.372103542089462280e-01 5.513612270355224609e+00 1.695246696472167969e+00 -3.092578053474426270e-01
1.145000000000000000e+03 6.412538146972656250e+01 -3.512700653076171875e+01 1.125709637999534607e-01 5.534719467163085938e+00 1.694187164306640625e+00 -3.870074078440666199e-02
1.146000000000000000e+03 6.280558395385742188e+01 -3.076484870910644531e+01 1.330477744340896606e-01 5.435457706451416016e+00 1.670551657676696777e+00 -1.442918032407760620e-01
1.147000000000000000e+03 6.357558059692382812e+01 -2.954368019104003906e+01 1.821682900190353394e-01 5.462664604187011719e+00 1.693449854850769043e+00 -1.956023722887039185e-01
1.148000000000000000e+03 6.788461303710937500e+01 -4.102383804321289062e+01 7.681461423635482788e-02 5.767339706420898438e+00 1.753246307373046875e+00 1.343417912721633911e-03
1.149000000000000000e+03 6.140832138061523438e+01 -4.064504241943359375e+01 7.494255155324935913e-02 5.371318817138671875e+00 1.633878469467163086e+00 -6.028068717569112778e-03
1.150000000000000000e+03 6.274108886718750000e+01 -3.331313323974609375e+01 1.040387675166130066e-01 5.425220966339111328e+00 1.658777952194213867e+00 -7.548069953918457031e-02
1.151000000000000000e+03 6.406484222412109375e+01 -3.199324035644531250e+01 1.534121036529541016e-01 5.506857872009277344e+00 1.698081016540527344e+00 -9.082679450511932373e-02
1.152000000000000000e+03 6.445874023437500000e+01 -3.929801940917968750e+01 9.522954374551773071e-02 5.569701671600341797e+00 1.699479341506958008e+00 -2.174813533201813698e-03
1.153000000000000000e+03 6.552842712402343750e+01 -3.343490600585937500e+01 1.509956866502761841e-01 5.571268558502197266e+00 1.716679215431213379e+00 -4.498829320073127747e-02
1.154000000000000000e+03 7.198876190185546875e+01 -4.121868896484375000e+01 4.938251897692680359e-02 6.097621440887451172e+00 1.844101190567016602e+00 1.231404393911361694e-02
1.155000000000000000e+03 6.724094390869140625e+01 -3.488069152832031250e+01 1.483690142631530762e-01 5.707534313201904297e+00 1.756770968437194824e+00 1.188247371464967728e-02
1.156000000000000000e+03 6.605072021484375000e+01 -3.697591400146484375e+01 1.091845780611038208e-01 5.655024051666259766e+00 1.729262590408325195e+00 -1.146029680967330933e-03
1.157000000000000000e+03 6.860102844238281250e+01 -3.828900909423828125e+01 9.748326987028121948e-02 5.829485416412353516e+00 1.778090715408325195e+00 2.438885346055030823e-02
1.158000000000000000e+03 7.469113159179687500e+01 -4.062755584716796875e+01 3.695239871740341187e-02 6.281049251556396484e+00 1.895400524139404297e+00 9.951625019311904907e-03
1.159000000000000000e+03 7.960167694091796875e+01 -3.326175689697265625e+01 7.467062678188085556e-03 6.685941219329833984e+00 2.008022546768188477e+00 1.327975746244192123e-02
1.160000000000000000e+03 7.879074859619140625e+01 -3.322039031982421875e+01 -1.121942652389407158e-03 6.636656761169433594e+00 1.990660429000854492e+00 3.816178441047668457e-02
1.161000000000000000e+03 7.804388427734375000e+01 -3.182356452941894531e+01 2.068898640573024750e-02 6.630370140075683594e+00 1.995317697525024414e+00 8.595051616430282593e-02
1.162000000000000000e+03 7.581208801269531250e+01 -2.880138206481933594e+01 7.124027609825134277e-02 6.493091583251953125e+00 1.969299435615539551e+00 2.280436456203460693e-01
1.163000000000000000e+03 7.194194793701171875e+01 -2.679083633422851562e+01 2.399712502956390381e-01 5.883352279663085938e+00 1.836997032165527344e+00 3.700284659862518311e-01
1.164000000000000000e+03 6.970588684082031250e+01 -2.573578643798828125e+01 4.820196330547332764e-01 5.352695941925048828e+00 1.750414609909057617e+00 3.051532804965972900e-01
1.165000000000000000e+03 6.835272979736328125e+01 -2.254178237915039062e+01 7.968301773071289062e-01 4.456299304962158203e+00 1.575938940048217773e+00 3.296847343444824219e-01
1.166000000000000000e+03 6.655465698242187500e+01 -2.039146614074707031e+01 8.863289952278137207e-01 3.546016454696655273e+00 1.329703688621520996e+00 -4.820223748683929443e-01
1.167000000000000000e+03 6.528400421142578125e+01 -1.926737213134765625e+01 6.205004453659057617e-01 3.682440996170043945e+00 1.290882468223571777e+00 -1.055094361305236816e+00
1.168000000000000000e+03 6.335643768310546875e+01 -1.721252822875976562e+01 2.606063485145568848e-01 4.930915832519531250e+00 1.557456612586975098e+00 -1.118972182273864746e+00
1.169000000000000000e+03 5.890055084228515625e+01 -1.438541603088378906e+01 8.373866081237792969e-01 9.189802169799804688e+00 3.008156776428222656e+00 4.354090690612792969e-01
1.170000000000000000e+03 5.858555603027343750e+01 -1.280704689025878906e+01 3.648599982261657715e-01 9.124004364013671875e+00 2.846659183502197266e+00 6.168019175529479980e-01
1.171000000000000000e+03 5.662614440917968750e+01 -1.139664840698242188e+01 4.951673150062561035e-01 9.147328376770019531e+00 2.892748594284057617e+00 -4.300685524940490723e-01
1.172000000000000000e+03 5.634317779541015625e+01 -1.221961593627929688e+01 6.940211057662963867e-01 1.000015544891357422e+01 3.208252906799316406e+00 -8.939186930656433105e-01
1.173000000000000000e+03 7.960812377929687500e+01 -3.169176864624023438e+01 9.244316257536411285e-03 6.750746726989746094e+00 2.027997255325317383e+00 1.725332252681255341e-02
1.174000000000000000e+03 7.881902313232421875e+01 -3.173819160461425781e+01 5.991518264636397362e-04 6.693582534790039062e+00 2.008254528045654297e+00 5.251442641019821167e-02
1.175000000000000000e+03 7.781234741210937500e+01 -3.035813522338867188e+01 2.396814152598381042e-02 6.669815063476562500e+00 2.008135080337524414e+00 1.118814721703529358e-01
1.176000000000000000e+03 7.494495391845703125e+01 -2.777810478210449219e+01 9.820389747619628906e-02 6.401607513427734375e+00 1.949943423271179199e+00 2.937728464603424072e-01
1.177000000000000000e+03 7.334632110595703125e+01 -2.632047462463378906e+01 1.393445879220962524e-01 6.143207073211669922e+00 1.884765505790710449e+00 4.149531126022338867e-01
1.178000000000000000e+03 7.187125396728515625e+01 -2.532711029052734375e+01 2.476473003625869751e-01 5.815504074096679688e+00 1.818945407867431641e+00 5.015101432800292969e-01
1.179000000000000000e+03 7.026820373535156250e+01 -2.244579124450683594e+01 4.746356308460235596e-01 5.057898044586181641e+00 1.659759998321533203e+00 8.163844943046569824e-01
1.180000000000000000e+03 6.848636627197265625e+01 -2.045762062072753906e+01 9.169142842292785645e-01 3.468332052230834961e+00 1.315573811531066895e+00 5.860674381256103516e-01
1.181000000000000000e+03 6.634309387207031250e+01 -1.835531425476074219e+01 4.697652161121368408e-01 2.828354835510253906e+00 9.894360303878784180e-01 -7.674291133880615234e-01
1.182000000000000000e+03 6.511730194091796875e+01 -1.754598999023437500e+01 1.742782741785049438e-01 3.543270111083984375e+00 1.115264534950256348e+00 -1.023725032806396484e+00
1.183000000000000000e+03 6.369369506835937500e+01 -1.559100055694580078e+01 -1.916954666376113892e-01 4.787657260894775391e+00 1.378788471221923828e+00 -8.059836030006408691e-01
1.184000000000000000e+03 6.264301300048828125e+01 -1.449574565887451172e+01 -2.127124965190887451e-01 5.984365940093994141e+00 1.731495976448059082e+00 -3.332891166210174561e-01
1.185000000000000000e+03 6.020997238159179688e+01 -1.272796058654785156e+01 4.503870010375976562e-02 8.244634628295898438e+00 2.486901998519897461e+00 7.624953985214233398e-01
1.186000000000000000e+03 5.948953628540039062e+01 -1.115111827850341797e+01 1.577203422784805298e-01 8.482655525207519531e+00 2.592112779617309570e+00 1.063088417053222656e+00
1.187000000000000000e+03 5.661454772949218750e+01 -9.196870803833007812e+00 2.334997504949569702e-01 7.365270614624023438e+00 2.279631137847900391e+00 -1.587361544370651245e-01
1.188000000000000000e+03 5.463536071777343750e+01 -8.807444572448730469e+00 4.344660639762878418e-01 5.417098522186279297e+00 1.755469441413879395e+00 -1.531707048416137695e+00
1.189000000000000000e+03 7.957929992675781250e+01 -3.010978698730468750e+01 7.952211424708366394e-03 6.837280273437500000e+00 2.053569793701171875e+00 2.404212579131126404e-02
1.190000000000000000e+03 7.871998596191406250e+01 -3.020722770690917969e+01 2.323659136891365051e-03 6.762825012207031250e+00 2.029544591903686523e+00 7.429818809032440186e-02
1.191000000000000000e+03 7.687284851074218750e+01 -2.785933303833007812e+01 3.728406503796577454e-02 6.675627231597900391e+00 2.013873338699340820e+00 2.067565768957138062e-01
1.192000000000000000e+03 7.531328582763671875e+01 -2.602457427978515625e+01 4.750021547079086304e-02 6.543601512908935547e+00 1.977330446243286133e+00 3.487447798252105713e-01
1.193000000000000000e+03 7.401429748535156250e+01 -2.497480201721191406e+01 3.717489913105964661e-02 6.370930194854736328e+00 1.922431468963623047e+00 4.960813224315643311e-01
1.194000000000000000e+03 7.158991241455078125e+01 -2.189517402648925781e+01 1.706819087266921997e-01 5.701537132263183594e+00 1.761665701866149902e+00 1.082911849021911621e+00
1.195000000000000000e+03 7.019652557373046875e+01 -2.090416717529296875e+01 5.064043402671813965e-01 4.709935665130615234e+00 1.564902067184448242e+00 1.250556230545043945e+00
1.196000000000000000e+03 6.886224365234375000e+01 -1.841054916381835938e+01 8.982994556427001953e-01 2.044187307357788086e+00 8.827459812164306641e-01 1.110282659530639648e+00
1.197000000000000000e+03 6.781224822998046875e+01 -1.787958717346191406e+01 3.733590245246887207e-01 1.797272920608520508e+00 6.511895656585693359e-01 -1.120244637131690979e-01
1.198000000000000000e+03 6.489996337890625000e+01 -1.459216022491455078e+01 -6.338148117065429688e-01 3.321912765502929688e+00 8.064293861389160156e-01 -5.654956698417663574e-01
1.199000000000000000e+03 6.339834213256835938e+01 -1.280720520019531250e+01 -7.512871623039245605e-01 5.652822017669677734e+00 1.470460414886474609e+00 -2.415635734796524048e-01
1.200000000000000000e+03 6.178847885131835938e+01 -1.199243831634521484e+01 -3.193993866443634033e-01 7.593569755554199219e+00 2.182251214981079102e+00 6.305710673332214355e-01
1.201000000000000000e+03 5.991584396362304688e+01 -1.049868392944335938e+01 1.194572374224662781e-01 8.381172180175781250e+00 2.550189018249511719e+00 1.205493927001953125e+00
1.202000000000000000e+03 5.757477569580078125e+01 -8.941392898559570312e+00 2.490577846765518188e-01 7.450675010681152344e+00 2.309919834136962891e+00 3.946382701396942139e-01
1.203000000000000000e+03 5.617540359497070312e+01 -7.957798004150390625e+00 -1.197604462504386902e-02 6.320563316345214844e+00 1.892576098442077637e+00 -5.333763957023620605e-01
1.204000000000000000e+03 7.956401824951171875e+01 -2.850627326965332031e+01 4.947794601321220398e-03 6.946671009063720703e+00 2.085485696792602539e+00 3.091015852987766266e-02
1.205000000000000000e+03 7.868240356445312500e+01 -2.858795166015625000e+01 3.234270727261900902e-03 6.850392818450927734e+00 2.056088209152221680e+00 9.144767373800277710e-02
1.206000000000000000e+03 7.701001739501953125e+01 -2.614044570922851562e+01 1.328153070062398911e-02 6.796408176422119141e+00 2.042906999588012695e+00 2.268040180206298828e-01
1.207000000000000000e+03 7.551309204101562500e+01 -2.440221405029296875e+01 -3.540651500225067139e-02 6.716382026672363281e+00 2.004292726516723633e+00 3.734632730484008789e-01
1.208000000000000000e+03 7.354821014404296875e+01 -2.340229415893554688e+01 -1.067010778933763504e-02 6.379851818084716797e+00 1.910754561424255371e+00 6.538487076759338379e-01
1.209000000000000000e+03 6.992440032958984375e+01 -1.906448554992675781e+01 5.623398423194885254e-01 3.737154483795166016e+00 1.289848327636718750e+00 1.920341730117797852e+00
1.210000000000000000e+03 6.652041625976562500e+01 -1.684161949157714844e+01 -3.230966031551361084e-01 2.214414596557617188e+00 5.673953890800476074e-01 -6.604323387145996094e-01
1.211000000000000000e+03 6.552133941650390625e+01 -1.415040397644042969e+01 -9.561098814010620117e-01 2.280888795852661133e+00 3.974336981773376465e-01 -3.439747393131256104e-01
1.212000000000000000e+03 6.401187133789062500e+01 -1.235596084594726562e+01 -6.042014360427856445e-01 4.843126773834228516e+00 1.271677613258361816e+00 -4.220421612262725830e-01
1.213000000000000000e+03 6.180594253540039062e+01 -1.068975067138671875e+01 -1.274607926607131958e-01 8.083313941955566406e+00 2.386755943298339844e+00 8.515932559967041016e-01
1.214000000000000000e+03 6.004801940917968750e+01 -8.139653205871582031e+00 6.355736255645751953e-01 8.145734786987304688e+00 2.634392499923706055e+00 1.299832224845886230e+00
1.215000000000000000e+03 5.791648864746093750e+01 -7.695386886596679688e+00 3.659742772579193115e-01 6.945261478424072266e+00 2.193370580673217773e+00 3.537755310535430908e-01
1.216000000000000000e+03 5.593581390380859375e+01 -5.547560691833496094e+00 -8.586902022361755371e-01 5.420543193817138672e+00 1.368555784225463867e+00 -1.384979724884033203e+00
1.217000000000000000e+03 5.520729827880859375e+01 -5.904999256134033203e+00 -1.057555675506591797e+00 5.243267536163330078e+00 1.255713462829589844e+00 -1.272330999374389648e+00
1.218000000000000000e+03 7.957019805908203125e+01 -2.688961791992187500e+01 3.556018462404608727e-03 7.075772285461425781e+00 2.123798370361328125e+00 3.487733006477355957e-02
1.219000000000000000e+03 7.870729827880859375e+01 -2.693779182434082031e+01 -1.623482443392276764e-03 6.965416908264160156e+00 2.089138031005859375e+00 1.011567488312721252e-01
1.220000000000000000e+03 7.710198974609375000e+01 -2.448237228393554688e+01 -3.077904880046844482e-02 6.938735008239746094e+00 2.072386741638183594e+00 2.162210941314697266e-01
1.221000000000000000e+03 7.558531951904296875e+01 -2.280587196350097656e+01 -1.447718590497970581e-01 6.920739650726318359e+00 2.032790422439575195e+00 3.727652728557586670e-01
1.222000000000000000e+03 7.268855285644531250e+01 -1.887398719787597656e+01 -7.049624919891357422e-01 7.319543361663818359e+00 1.984374284744262695e+00 1.554796814918518066e+00
1.223000000000000000e+03 6.968454742431640625e+01 -1.813670539855957031e+01 5.966271758079528809e-01 2.419959783554077148e+00 9.049761295318603516e-01 2.170337200164794922e+00
1.224000000000000000e+03 6.833155059814453125e+01 -1.676461410522460938e+01 -5.287809967994689941e-01 5.011905431747436523e-01 -8.277122862637042999e-03 1.140013337135314941e-01
1.225000000000000000e+03 7.958108520507812500e+01 -2.527516746520996094e+01 2.049379050731658936e-03 7.212541580200195312e+00 2.164377212524414062e+00 3.241719678044319153e-02
1.226000000000000000e+03 7.874287414550781250e+01 -2.530147933959960938e+01 -1.183908432722091675e-02 7.091464519500732422e+00 2.123887538909912109e+00 9.743159264326095581e-02
1.227000000000000000e+03 7.796883392333984375e+01 -2.288582611083984375e+01 -8.154890686273574829e-02 7.166985988616943359e+00 2.125631093978881836e+00 8.474227041006088257e-02
1.228000000000000000e+03 7.551522827148437500e+01 -2.131666183471679688e+01 -3.033167421817779541e-01 7.232941627502441406e+00 2.078887462615966797e+00 3.407642245292663574e-01
1.229000000000000000e+03 7.397884368896484375e+01 -1.907508659362792969e+01 -6.288915276527404785e-01 7.823281288146972656e+00 2.158316850662231445e+00 8.045427799224853516e-01
1.230000000000000000e+03 7.175389099121093750e+01 -1.641363143920898438e+01 -1.141690015792846680e+00 9.475629806518554688e+00 2.500182151794433594e+00 2.302879095077514648e+00
1.231000000000000000e+03 7.021188354492187500e+01 -1.698486137390136719e+01 3.622320294380187988e-01 1.827645778656005859e+00 6.569633483886718750e-01 3.481189489364624023e+00
1.232000000000000000e+03 7.958968353271484375e+01 -2.366694259643554688e+01 -1.323646050877869129e-03 7.327838420867919922e+00 2.197954416275024414e+00 2.009081281721591949e-02
1.233000000000000000e+03 7.876875305175781250e+01 -2.368413162231445312e+01 -2.840592339634895325e-02 7.205142974853515625e+00 2.153021097183227539e+00 6.732695549726486206e-02
1.234000000000000000e+03 7.800830078125000000e+01 -2.129397583007812500e+01 -1.270839869976043701e-01 7.268446445465087891e+00 2.142408609390258789e+00 -4.178341850638389587e-02
1.235000000000000000e+03 7.580911254882812500e+01 -1.929942703247070312e+01 -4.316610991954803467e-01 7.770280838012695312e+00 2.201586008071899414e+00 2.236331440508365631e-02
1.236000000000000000e+03 7.390939331054687500e+01 -1.766589164733886719e+01 -5.884410738945007324e-01 8.797512054443359375e+00 2.462721347808837891e+00 5.368896126747131348e-01
1.237000000000000000e+03 7.254119110107421875e+01 -1.612220764160156250e+01 1.125482469797134399e-02 9.877487182617187500e+00 2.966622591018676758e+00 1.054818868637084961e+00
1.238000000000000000e+03 7.204349517822265625e+01 -1.728921127319335938e+01 -9.887728691101074219e-01 8.023686408996582031e+00 2.110474109649658203e+00 2.409387111663818359e+00
1.239000000000000000e+03 7.959855651855468750e+01 -2.206386756896972656e+01 -3.702163463458418846e-03 7.370248317718505859e+00 2.209963798522949219e+00 -6.373011507093906403e-03
1.240000000000000000e+03 7.879407501220703125e+01 -2.208245468139648438e+01 -4.925475642085075378e-02 7.275523185729980469e+00 2.167880535125732422e+00 -4.340007901191711426e-03
1.241000000000000000e+03 7.808479309082031250e+01 -1.970291137695312500e+01 -1.468383967876434326e-01 7.307588100433349609e+00 2.148224830627441406e+00 -2.047594338655471802e-01
1.242000000000000000e+03 7.574776458740234375e+01 -1.651063919067382812e+01 3.164769113063812256e-01 8.423348426818847656e+00 2.621947765350341797e+00 -3.483244180679321289e-01
1.243000000000000000e+03 7.455469512939453125e+01 -1.639262580871582031e+01 3.214392960071563721e-01 9.170083999633789062e+00 2.847457170486450195e+00 -1.181457638740539551e-01
1.244000000000000000e+03 7.392924499511718750e+01 -1.479175662994384766e+01 1.677775144577026367e+00 1.001951408386230469e+01 3.509186744689941406e+00 5.778250694274902344e-01
1.245000000000000000e+03 7.296240997314453125e+01 -1.424041652679443359e+01 2.562151670455932617e+00 1.131354618072509766e+01 4.162709236145019531e+00 1.328206300735473633e+00
1.246000000000000000e+03 7.961870574951171875e+01 -1.966398239135742188e+01 -2.276634983718395233e-02 7.158787250518798828e+00 2.140806198120117188e+00 -7.312662899494171143e-02
1.247000000000000000e+03 7.885392761230468750e+01 -1.969267272949218750e+01 -4.025992006063461304e-02 7.207066059112548828e+00 2.150041818618774414e+00 -1.677476018667221069e-01
1.248000000000000000e+03 7.747004699707031250e+01 -1.814609527587890625e+01 -1.062070503830909729e-01 7.476926803588867188e+00 2.211215972900390625e+00 -3.613033890724182129e-01
1.249000000000000000e+03 7.526638793945312500e+01 -1.591862583160400391e+01 4.813357591629028320e-01 8.662903785705566406e+00 2.743271827697753906e+00 -2.080149352550506592e-01
1.250000000000000000e+03 7.538137817382812500e+01 -1.430345916748046875e+01 1.153787255287170410e+00 8.890915870666503906e+00 3.013410806655883789e+00 2.776945233345031738e-01
1.251000000000000000e+03 7.367516326904296875e+01 -1.332278537750244141e+01 1.688603639602661133e+00 1.099520206451416016e+01 3.805141687393188477e+00 1.011976599693298340e+00
1.252000000000000000e+03 7.284543609619140625e+01 -1.272555923461914062e+01 6.122768521308898926e-01 1.352816200256347656e+01 4.242131710052490234e+00 1.109735965728759766e+00
1.253000000000000000e+03 7.963026428222656250e+01 -1.806256675720214844e+01 -1.718973368406295776e-02 6.776550769805908203e+00 2.027808189392089844e+00 -1.101521626114845276e-01
1.254000000000000000e+03 7.889348602294921875e+01 -1.809949684143066406e+01 -1.644985005259513855e-02 6.995737075805664062e+00 2.093786239624023438e+00 -2.817580997943878174e-01
1.255000000000000000e+03 7.519536590576171875e+01 -1.297462940216064453e+01 1.288594365119934082e+00 9.243759155273437500e+00 3.159706115722656250e+00 7.096853852272033691e-01
1.256000000000000000e+03 7.361172485351562500e+01 -1.050891304016113281e+01 1.065389871597290039e+00 1.059755802154541016e+01 3.498884439468383789e+00 5.648663640022277832e-01
1.257000000000000000e+03 7.259368896484375000e+01 -9.239311218261718750e+00 1.155838012695312500e+00 1.038887691497802734e+01 3.463414430618286133e+00 -4.347387254238128662e-01
1.258000000000000000e+03 7.962449645996093750e+01 -1.646013259887695312e+01 1.174941472709178925e-02 6.271529197692871094e+00 1.884983539581298828e+00 -1.127022504806518555e-01
1.259000000000000000e+03 7.887538146972656250e+01 -1.650947761535644531e+01 4.344490543007850647e-02 6.747687816619873047e+00 2.037339687347412109e+00 -3.090615570545196533e-01
1.260000000000000000e+03 7.884447479248046875e+01 -1.570685577392578125e+01 6.978356838226318359e-02 6.632789134979248047e+00 2.010771751403808594e+00 -2.340132296085357666e-01
1.261000000000000000e+03 7.885491180419921875e+01 -1.408745288848876953e+01 1.295017898082733154e-01 6.559254169464111328e+00 2.006626844406127930e+00 -3.666936419904232025e-03
1.262000000000000000e+03 7.887151336669921875e+01 -1.249389743804931641e+01 1.357409656047821045e-01 6.745916366577148438e+00 2.064497232437133789e+00 2.946682274341583252e-01
1.263000000000000000e+03 7.883093261718750000e+01 -1.010199546813964844e+01 9.322532266378402710e-02 7.660757541656494141e+00 2.326194763183593750e+00 7.343197464942932129e-01
1.264000000000000000e+03 7.962628173828125000e+01 -7.641966342926025391e+00 -1.442534569650888443e-02 9.193859100341796875e+00 2.753830194473266602e+00 3.543344140052795410e-01
1.265000000000000000e+03 7.890256500244140625e+01 -6.898118019104003906e+00 -2.017911896109580994e-02 9.639037132263183594e+00 2.885657548904418945e+00 9.505176544189453125e-01
1.266000000000000000e+03 7.887014007568359375e+01 -5.323842525482177734e+00 -3.751917183399200439e-02 1.067844200134277344e+01 3.192276716232299805e+00 9.642717838287353516e-01
1.267000000000000000e+03 7.885401916503906250e+01 -3.680124998092651367e+00 -1.003662794828414917e-01 1.170569038391113281e+01 3.481597185134887695e+00 9.298638105392456055e-01
1.268000000000000000e+03 7.887049865722656250e+01 -2.099015235900878906e+00 -1.694366484880447388e-01 1.267447853088378906e+01 3.751512527465820312e+00 7.221993207931518555e-01
1.269000000000000000e+03 7.872859191894531250e+01 4.128588140010833740e-01 -4.721646010875701904e-01 1.299808692932128906e+01 3.757776737213134766e+00 -2.726498842239379883e-01
1.270000000000000000e+03 7.878299713134765625e+01 2.055204153060913086e+00 -4.472146034240722656e-01 1.246911907196044922e+01 3.606571197509765625e+00 -1.464567899703979492e+00
1.271000000000000000e+03 7.963307952880859375e+01 3.624787807464599609e+00 7.659671455621719360e-02 1.100371646881103516e+01 3.324094057083129883e+00 -7.529377937316894531e-01
1.272000000000000000e+03 7.895642852783203125e+01 5.202047824859619141e+00 2.027002722024917603e-01 9.394037246704101562e+00 2.879021167755126953e+00 -1.516378641128540039e+00
1.273000000000000000e+03 7.679672241210937500e+01 5.056934833526611328e+00 4.276515841484069824e-01 1.389589118957519531e+01 4.297062873840332031e+00 -1.452043294906616211e+00
1.274000000000000000e+03 7.623387908935546875e+01 7.375715732574462891e+00 3.405421733856201172e+00 1.720953369140625000e+01 6.184486389160156250e+00 -2.742268800735473633e+00
1.275000000000000000e+03 7.957270050048828125e+01 9.223358154296875000e+00 3.341865912079811096e-02 6.907242774963378906e+00 2.082198381423950195e+00 3.072863817214965820e-01
1.276000000000000000e+03 7.795569610595703125e+01 1.179774761199951172e+01 -4.128774106502532959e-01 8.164859771728515625e+00 2.325594663619995117e+00 -2.807835638523101807e-01
1.277000000000000000e+03 7.791220855712890625e+01 1.099863147735595703e+01 -4.588151276111602783e-01 8.451179504394531250e+00 2.397709131240844727e+00 -5.213379487395286560e-02
1.278000000000000000e+03 7.956914520263671875e+01 1.084905052185058594e+01 -3.257203847169876099e-02 7.783638954162597656e+00 2.325320243835449219e+00 1.450597643852233887e-01
1.279000000000000000e+03 7.872340393066406250e+01 1.090711688995361328e+01 -2.742317020893096924e-01 8.174303054809570312e+00 2.370021343231201172e+00 1.842268258333206177e-01
1.280000000000000000e+03 7.729727935791015625e+01 1.373071479797363281e+01 -2.828284911811351776e-02 7.301769256591796875e+00 2.182045936584472656e+00 -6.799959540367126465e-01
1.281000000000000000e+03 7.793937683105468750e+01 1.262833213806152344e+01 -1.868004500865936279e-01 7.743653297424316406e+00 2.267055749893188477e+00 -4.654083251953125000e-01
1.282000000000000000e+03 7.958930206298828125e+01 1.246589183807373047e+01 6.397760473191738129e-03 7.942410945892333984e+00 2.384642601013183594e+00 -4.710611701011657715e-02
1.283000000000000000e+03 7.876992797851562500e+01 1.254574298858642578e+01 -1.342290639877319336e-01 7.833918094635009766e+00 2.309906721115112305e+00 -1.670500040054321289e-01
1.284000000000000000e+03 7.737975311279296875e+01 1.505914211273193359e+01 1.277371048927307129e-01 6.998767852783203125e+00 2.137951612472534180e+00 -5.405899882316589355e-01
1.285000000000000000e+03 7.962360382080078125e+01 1.487061405181884766e+01 -1.279744040220975876e-02 7.431587696075439453e+00 2.225637197494506836e+00 -9.040242433547973633e-02
1.286000000000000000e+03 7.885057830810546875e+01 1.415368843078613281e+01 -2.357588335871696472e-02 7.471196651458740234e+00 2.234286308288574219e+00 -2.778103351593017578e-01
1.287000000000000000e+03 7.737377929687500000e+01 1.732750320434570312e+01 1.633539497852325439e-01 6.753782749176025391e+00 2.075140953063964844e+00 -2.741408646106719971e-01
1.288000000000000000e+03 7.730469512939453125e+01 1.583456897735595703e+01 1.506262570619583130e-01 6.879015445709228516e+00 2.108892440795898438e+00 -4.365929365158081055e-01
1.289000000000000000e+03 7.962390136718750000e+01 1.646078300476074219e+01 -4.612170159816741943e-03 7.075120449066162109e+00 2.121152639389038086e+00 -6.272959709167480469e-02
1.290000000000000000e+03 7.961683654785156250e+01 1.725703620910644531e+01 1.496298983693122864e-02 6.946016788482666016e+00 2.088293790817260742e+00 -5.271151289343833923e-02
1.291000000000000000e+03 7.794226837158203125e+01 1.884987449645996094e+01 8.016640692949295044e-02 6.753686904907226562e+00 2.050156116485595703e+00 -1.133781298995018005e-01
1.292000000000000000e+03 7.673258972167968750e+01 1.757009315490722656e+01 2.261728495359420776e-01 6.667262554168701172e+00 2.068030595779418945e+00 -2.564068734645843506e-01
1.293000000000000000e+03 7.886698150634765625e+01 1.650243949890136719e+01 4.444788396358489990e-02 7.030703067779541016e+00 2.122545242309570312e+00 -1.960096955299377441e-01
1.294000000000000000e+03 7.958784484863281250e+01 1.885623168945312500e+01 1.020448468625545502e-02 6.785385608673095703e+00 2.038676977157592773e+00 -2.418624237179756165e-02
1.295000000000000000e+03 7.780274200439453125e+01 2.052370643615722656e+01 4.995385557413101196e-02 6.707932949066162109e+00 2.027365922927856445e+00 -2.852544188499450684e-02
1.296000000000000000e+03 7.787302398681640625e+01 1.967769813537597656e+01 6.143919005990028381e-02 6.727049827575683594e+00 2.036546707153320312e+00 -6.340482085943222046e-02
1.297000000000000000e+03 7.881435394287109375e+01 1.807133865356445312e+01 4.098973795771598816e-02 6.842867374420166016e+00 2.065157175064086914e+00 -1.108751744031906128e-01
1.298000000000000000e+03 7.954466247558593750e+01 2.128041267395019531e+01 8.148939814418554306e-04 6.721837520599365234e+00 2.016795635223388672e+00 3.445911454036831856e-03
1.299000000000000000e+03 7.769012451171875000e+01 2.224698257446289062e+01 2.208150923252105713e-02 6.698962688446044922e+00 2.016313076019287109e+00 1.302328985184431076e-02
1.300000000000000000e+03 7.773192596435546875e+01 2.137820053100585938e+01 3.075660206377506256e-02 6.705532550811767578e+00 2.020886659622192383e+00 -3.527965163812041283e-04
1.301000000000000000e+03 7.867333984375000000e+01 2.050491142272949219e+01 1.771249994635581970e-02 6.732700347900390625e+00 2.025123834609985352e+00 -1.613905467092990875e-02
1.302000000000000000e+03 7.861634063720703125e+01 2.216720962524414062e+01 7.649429142475128174e-03 6.721281051635742188e+00 2.018679141998291016e+00 1.462391205132007599e-02
1.303000000000000000e+03 7.773023223876953125e+01 2.397219085693359375e+01 4.045954905450344086e-03 6.704638957977294922e+00 2.012605428695678711e+00 2.902509644627571106e-02
1.304000000000000000e+03 7.769210815429687500e+01 2.311701011657714844e+01 1.070682983845472336e-02 6.702488899230957031e+00 2.013958692550659180e+00 2.786927483975887299e-02
1.305000000000000000e+03 7.953878784179687500e+01 2.289985656738281250e+01 3.719216620083898306e-04 6.736213684082031250e+00 2.020975589752197266e+00 1.062749885022640228e-02
1.306000000000000000e+03 7.861661529541015625e+01 2.299886322021484375e+01 5.432799458503723145e-03 6.723063945770263672e+00 2.018548965454101562e+00 1.926737278699874878e-02
1.307000000000000000e+03 7.708180999755859375e+01 2.578134918212890625e+01 -7.538298610597848892e-03 6.683182239532470703e+00 2.002693176269531250e+00 3.565323352813720703e-02
1.308000000000000000e+03 7.780363464355468750e+01 2.478848838806152344e+01 -7.721091969870030880e-04 6.711375236511230469e+00 2.013180971145629883e+00 3.378484398126602173e-02
1.309000000000000000e+03 7.957848358154296875e+01 2.530416297912597656e+01 -2.742873039096593857e-03 6.781809806823730469e+00 2.033720016479492188e+00 1.088853552937507629e-02
1.310000000000000000e+03 7.960191345214843750e+01 2.689654541015625000e+01 -2.638154663145542145e-03 6.811736583709716797e+00 2.042729616165161133e+00 9.488897398114204407e-03
1.311000000000000000e+03 7.738509368896484375e+01 2.711010360717773438e+01 -7.035214453935623169e-03 6.700290679931640625e+00 2.007976770401000977e+00 2.687487564980983734e-02
1.312000000000000000e+03 7.724553680419921875e+01 2.648263359069824219e+01 -5.283449776470661163e-03 6.695118427276611328e+00 2.006950378417968750e+00 2.967624180018901825e-02
1.313000000000000000e+03 7.959410858154296875e+01 2.609947204589843750e+01 2.022208645939826965e-03 6.797621250152587891e+00 2.039892911911010742e+00 9.822856634855270386e-03
1.314000000000000000e+03 7.959709930419921875e+01 2.769438552856445312e+01 1.088322140276432037e-03 6.824949741363525391e+00 2.047811508178710938e+00 7.724571973085403442e-03
1.315000000000000000e+03 7.793236541748046875e+01 2.848528289794921875e+01 -2.792180981487035751e-03 6.733290672302246094e+00 2.019149541854858398e+00 2.430734038352966309e-02
1.316000000000000000e+03 7.735533905029296875e+01 2.768773078918457031e+01 -2.219086047261953354e-03 6.696632862091064453e+00 2.008324146270751953e+00 2.915303781628608704e-02
1.317000000000000000e+03 7.879026031494140625e+01 2.618638801574707031e+01 -2.626174129545688629e-03 6.761856079101562500e+00 2.027769088745117188e+00 2.196675725281238556e-02
1.318000000000000000e+03 7.955316162109375000e+01 2.929738998413085938e+01 -6.163411308079957962e-04 6.845371723175048828e+00 2.053426504135131836e+00 6.549885496497154236e-03
1.319000000000000000e+03 7.760794067382812500e+01 3.013030433654785156e+01 -6.069829221814870834e-03 6.719608306884765625e+00 2.014061450958251953e+00 2.052213251590728760e-02
1.320000000000000000e+03 7.777334594726562500e+01 2.927303886413574219e+01 -4.650741815567016602e-03 6.730088233947753906e+00 2.017631292343139648e+00 2.118948288261890411e-02
1.321000000000000000e+03 7.880396270751953125e+01 2.773898315429687500e+01 -2.132723340764641762e-03 6.778745174407958984e+00 2.032983779907226562e+00 1.915029436349868774e-02
1.322000000000000000e+03 7.950968170166015625e+01 3.092175674438476562e+01 -1.466056331992149353e-03 6.858941555023193359e+00 2.057242631912231445e+00 5.180411506444215775e-03
1.323000000000000000e+03 7.744600677490234375e+01 3.203767395019531250e+01 -3.798346500843763351e-03 6.719367504119873047e+00 2.014670848846435547e+00 1.353586185723543167e-02
1.324000000000000000e+03 7.747611236572265625e+01 3.106225967407226562e+01 -7.813373580574989319e-03 6.718395709991455078e+00 2.013174772262573242e+00 1.760811172425746918e-02
1.325000000000000000e+03 7.851285552978515625e+01 3.101023483276367188e+01 -2.458610571920871735e-03 6.788872241973876953e+00 2.035923957824707031e+00 1.138970535248517990e-02
1.326000000000000000e+03 7.951329803466796875e+01 3.173067283630371094e+01 3.286347491666674614e-04 6.863247871398925781e+00 2.059072971343994141e+00 3.964599687606096268e-03
1.327000000000000000e+03 7.799344635009765625e+01 3.369832611083984375e+01 -5.080755217932164669e-04 6.762474060058593750e+00 2.028589725494384766e+00 9.767333045601844788e-03
1.328000000000000000e+03 7.760136413574218750e+01 3.296680831909179688e+01 -1.194778014905750751e-03 6.734528064727783203e+00 2.019999980926513672e+00 1.207164302468299866e-02
1.329000000000000000e+03 7.859560394287109375e+01 3.266683197021484375e+01 7.286580512300133705e-05 6.804675579071044922e+00 2.041424512863159180e+00 6.724515464156866074e-03
1.330000000000000000e+03 7.946620178222656250e+01 3.490113067626953125e+01 5.266179330646991730e-03 6.872962951660156250e+00 2.063468694686889648e+00 -1.299176074098795652e-04
1.331000000000000000e+03 7.676731109619140625e+01 3.701023101806640625e+01 -4.423529375344514847e-03 6.679103851318359375e+00 2.002403974533081055e+00 -4.029415082186460495e-03
1.332000000000000000e+03 7.723398590087890625e+01 3.445304107666015625e+01 -8.879400789737701416e-03 6.698641300201416016e+00 2.006928682327270508e+00 1.079302839934825897e-02
1.333000000000000000e+03 7.866967773437500000e+01 3.404956436157226562e+01 -6.512425374239683151e-03 6.808040142059326172e+00 2.040458202362060547e+00 8.960638195276260376e-03
1.334000000000000000e+03 7.939932250976562500e+01 3.663026809692382812e+01 2.078829798847436905e-03 6.875956058502197266e+00 2.063410520553588867e+00 3.047932405024766922e-03
1.335000000000000000e+03 7.703067016601562500e+01 3.817571640014648438e+01 2.163205528631806374e-03 6.690031528472900391e+00 2.007658481597900391e+00 -4.015048965811729431e-03
1.336000000000000000e+03 7.967210388183593750e+01 3.810977554321289062e+01 1.267291372641921043e-04 6.889975070953369141e+00 2.067030429840087891e+00 4.245748743414878845e-03
1.337000000000000000e+03 7.718102264404296875e+01 3.933249664306640625e+01 -9.270195150747895241e-04 6.697598457336425781e+00 2.009001493453979492e+00 -1.560079748742282391e-03
1.338000000000000000e+03 7.901837158203125000e+01 3.797709655761718750e+01 -1.927866484038531780e-03 6.858725070953369141e+00 2.057039260864257812e+00 2.215611049905419350e-03
1.339000000000000000e+03 7.959843444824218750e+01 3.964243698120117188e+01 1.717703882604837418e-03 6.895121097564697266e+00 2.069051742553710938e+00 4.501303774304687977e-04
1.340000000000000000e+03 7.763331604003906250e+01 4.046050643920898438e+01 -4.919748753309249878e-03 6.713913440704345703e+00 2.012698173522949219e+00 8.005336858332157135e-04
1.341000000000000000e+03 7.863962554931640625e+01 4.025334930419921875e+01 -3.985705319792032242e-03 6.810886383056640625e+00 2.042070150375366211e+00 3.861249933834187686e-05
1.342000000000000000e+03 7.956455230712890625e+01 4.042704391479492188e+01 3.492521820589900017e-03 6.900878906250000000e+00 2.071311473846435547e+00 5.677699111402034760e-03
1.343000000000000000e+03 7.683949279785156250e+01 4.163655853271484375e+01 -1.660249195992946625e-03 6.683148860931396484e+00 2.004446506500244141e+00 -4.199051763862371445e-04
1.344000000000000000e+03 7.860882568359375000e+01 4.196189117431640625e+01 5.022410769015550613e-03 6.836068630218505859e+00 2.052327394485473633e+00 6.879725959151983261e-03
1.345000000000000000e+03 7.038848876953125000e+01 3.192490577697753906e+01 6.421222351491451263e-03 6.185304164886474609e+00 1.857517600059509277e+00 -1.168193761259317398e-02
1.346000000000000000e+03 6.981932067871093750e+01 2.979295921325683594e+01 1.609962992370128632e-02 6.147604465484619141e+00 1.849111318588256836e+00 -3.423995524644851685e-02
1.347000000000000000e+03 6.957996368408203125e+01 2.778486442565917969e+01 2.427387423813343048e-02 6.143883228302001953e+00 1.850447177886962891e+00 -6.672547757625579834e-02
1.348000000000000000e+03 6.903897094726562500e+01 2.606089210510253906e+01 2.602835185825824738e-02 6.129961013793945312e+00 1.846796751022338867e+00 -1.172513589262962341e-01
1.349000000000000000e+03 6.919860076904296875e+01 2.463150024414062500e+01 3.975813742727041245e-03 6.202515125274658203e+00 1.861947298049926758e+00 -1.496100425720214844e-01
1.350000000000000000e+03 7.024343109130859375e+01 2.190359115600585938e+01 -1.942536793649196625e-02 6.463354110717773438e+00 1.933178663253784180e+00 -7.745622098445892334e-02
1.351000000000000000e+03 6.941754913330078125e+01 2.097560882568359375e+01 -4.666678234934806824e-02 6.508176803588867188e+00 1.938453078269958496e+00 -1.262504607439041138e-01
1.352000000000000000e+03 7.097792816162109375e+01 1.816034698486328125e+01 2.999497652053833008e-01 6.609710216522216797e+00 2.072897911071777344e+00 2.960824072360992432e-01
1.353000000000000000e+03 7.168228912353515625e+01 1.645562171936035156e+01 8.386080861091613770e-01 6.221819877624511719e+00 2.118128299713134766e+00 4.169200956821441650e-01
1.354000000000000000e+03 7.008084869384765625e+01 1.491878032684326172e+01 1.179583787918090820e+00 6.604110240936279297e+00 2.335108280181884766e+00 1.120975613594055176e+00
1.355000000000000000e+03 7.091949462890625000e+01 1.340367984771728516e+01 1.883057951927185059e+00 5.230223655700683594e+00 2.133984565734863281e+00 9.894621968269348145e-01
1.356000000000000000e+03 7.000155639648437500e+01 1.137198257446289062e+01 1.614771962165832520e+00 5.468710899353027344e+00 2.125044822692871094e+00 1.238879561424255371e+00
1.357000000000000000e+03 7.136367797851562500e+01 1.067969512939453125e+01 1.008934617042541504e+00 2.295913934707641602e+00 9.914545416831970215e-01 5.810893177986145020e-01
1.358000000000000000e+03 6.551456451416015625e+01 3.783761215209960938e+01 -1.338783558458089828e-02 5.804141044616699219e+00 1.737225890159606934e+00 2.558994106948375702e-02
1.359000000000000000e+03 6.902268981933593750e+01 3.606356811523437500e+01 -2.347088651731610298e-03 6.072370052337646484e+00 1.821006894111633301e+00 4.215671680867671967e-03
1.360000000000000000e+03 6.810095977783203125e+01 3.324386596679687500e+01 1.447939686477184296e-02 5.997242927551269531e+00 1.803516745567321777e+00 -3.353179898113012314e-03
1.361000000000000000e+03 6.903932952880859375e+01 3.140166854858398438e+01 2.063306793570518494e-02 6.067699432373046875e+00 1.826499819755554199e+00 -2.167048677802085876e-02
1.362000000000000000e+03 6.878363800048828125e+01 2.917426490783691406e+01 2.897570282220840454e-02 6.051854133605957031e+00 1.824248909950256348e+00 -5.058001726865768433e-02
1.363000000000000000e+03 6.866840362548828125e+01 2.724973678588867188e+01 3.229009360074996948e-02 6.065116405487060547e+00 1.829221963882446289e+00 -8.929297327995300293e-02
1.364000000000000000e+03 6.797317504882812500e+01 2.649317932128906250e+01 5.319035053253173828e-02 6.010689258575439453e+00 1.819163918495178223e+00 -1.377020925283432007e-01
1.365000000000000000e+03 6.796909332275390625e+01 2.299891853332519531e+01 1.087808422744274139e-02 6.118907928466796875e+00 1.838935732841491699e+00 -2.688950896263122559e-01
1.366000000000000000e+03 6.827241516113281250e+01 2.176148414611816406e+01 -4.774514585733413696e-02 6.319701194763183594e+00 1.881586790084838867e+00 -2.755843698978424072e-01
1.367000000000000000e+03 6.823348999023437500e+01 1.822986030578613281e+01 -2.116448879241943359e-01 7.128153324127197266e+00 2.074952602386474609e+00 -1.079617291688919067e-01
1.368000000000000000e+03 6.914089202880859375e+01 1.654565811157226562e+01 1.759327352046966553e-01 7.281270980834960938e+00 2.237161159515380859e+00 6.226505041122436523e-01
1.369000000000000000e+03 6.834918212890625000e+01 1.550111389160156250e+01 1.101516038179397583e-01 8.139255523681640625e+00 2.474822282791137695e+00 8.412681818008422852e-01
1.370000000000000000e+03 6.934482574462890625e+01 1.322404098510742188e+01 1.956789255142211914e+00 7.116415500640869141e+00 2.721961498260498047e+00 1.612050175666809082e+00
1.371000000000000000e+03 6.937988281250000000e+01 1.165846347808837891e+01 1.935915470123291016e+00 6.659859180450439453e+00 2.578732490539550781e+00 1.505167722702026367e+00
1.372000000000000000e+03 6.784307861328125000e+01 3.067354202270507812e+01 3.805905953049659729e-02 5.965394496917724609e+00 1.801036000251770020e+00 -2.768177725374698639e-02
1.373000000000000000e+03 6.782502746582031250e+01 2.844319152832031250e+01 5.564699321985244751e-02 5.965092182159423828e+00 1.806221723556518555e+00 -7.291425019502639771e-02
1.374000000000000000e+03 6.699456787109375000e+01 2.756886100769042969e+01 8.787414431571960449e-02 5.835991382598876953e+00 1.777159690856933594e+00 -1.030848026275634766e-01
1.375000000000000000e+03 6.627684783935546875e+01 2.662318229675292969e+01 1.330363899469375610e-01 5.747552871704101562e+00 1.764176726341247559e+00 -1.127397194504737854e-01
1.376000000000000000e+03 6.765937805175781250e+01 2.439604187011718750e+01 4.831601306796073914e-02 6.019432067871093750e+00 1.820324420928955078e+00 -2.135426104068756104e-01
1.377000000000000000e+03 6.669416046142578125e+01 2.260985946655273438e+01 8.440286666154861450e-02 5.898000240325927734e+00 1.794720888137817383e+00 -3.782521486282348633e-01
1.378000000000000000e+03 6.724809265136718750e+01 2.134746360778808594e+01 -2.137603797018527985e-02 6.116963863372802734e+00 1.828676342964172363e+00 -4.414201676845550537e-01
1.379000000000000000e+03 6.811460113525390625e+01 1.919693374633789062e+01 -1.839056611061096191e-01 6.742903709411621094e+00 1.967699527740478516e+00 -2.584959268569946289e-01
1.380000000000000000e+03 6.747973632812500000e+01 1.722749710083007812e+01 -3.916141986846923828e-01 7.619488239288330078e+00 2.168362379074096680e+00 -2.893756628036499023e-01
1.381000000000000000e+03 6.726996612548828125e+01 1.562141799926757812e+01 -4.474311470985412598e-01 8.765536308288574219e+00 2.495431423187255859e+00 1.308647841215133667e-01
1.382000000000000000e+03 6.644668579101562500e+01 1.405315208435058594e+01 -1.227230858057737350e-02 1.094467163085937500e+01 3.279719829559326172e+00 -9.324091486632823944e-03
1.383000000000000000e+03 6.695217132568359375e+01 3.536805725097656250e+01 8.640387095510959625e-03 5.913198947906494141e+00 1.776551842689514160e+00 1.244861353188753128e-02
1.384000000000000000e+03 6.530523681640625000e+01 3.427473831176757812e+01 1.788867637515068054e-02 5.772682666778564453e+00 1.737171411514282227e+00 2.718195505440235138e-02
1.385000000000000000e+03 6.552268981933593750e+01 3.125795936584472656e+01 6.257372349500656128e-02 5.753080844879150391e+00 1.744696378707885742e+00 9.241829626262187958e-03
1.386000000000000000e+03 6.584619903564453125e+01 2.871289825439453125e+01 1.055970564484596252e-01 5.739346981048583984e+00 1.753483176231384277e+00 -3.787906467914581299e-02
1.387000000000000000e+03 6.506777954101562500e+01 2.747446250915527344e+01 1.474543958902359009e-01 5.610288619995117188e+00 1.727322936058044434e+00 -6.110218167304992676e-02
1.388000000000000000e+03 6.448231506347656250e+01 2.606513595581054688e+01 2.246266752481460571e-01 5.486966609954833984e+00 1.713478088378906250e+00 -1.158852651715278625e-01
1.389000000000000000e+03 6.617005157470703125e+01 2.406950378417968750e+01 1.504755467176437378e-01 5.704193592071533203e+00 1.756400823593139648e+00 -2.856127917766571045e-01
1.390000000000000000e+03 6.546524047851562500e+01 2.218336296081542969e+01 1.978519558906555176e-01 5.565072059631347656e+00 1.728877186775207520e+00 -4.800691306591033936e-01
1.391000000000000000e+03 6.499729919433593750e+01 2.012217140197753906e+01 2.070234268903732300e-01 5.436985969543457031e+00 1.693202853202819824e+00 -8.297882676124572754e-01
1.392000000000000000e+03 6.508007049560546875e+01 1.925844573974609375e+01 1.385394930839538574e-01 5.518246650695800781e+00 1.697035789489746094e+00 -1.031210780143737793e+00
1.393000000000000000e+03 6.461907196044921875e+01 1.733210563659667969e+01 3.431467339396476746e-03 5.382302284240722656e+00 1.615720152854919434e+00 -1.862837433815002441e+00
1.394000000000000000e+03 6.485639953613281250e+01 1.591536617279052734e+01 -3.923467695713043213e-01 6.073821544647216797e+00 1.704442381858825684e+00 -2.614629030227661133e+00
1.395000000000000000e+03 6.775341796875000000e+01 4.119592285156250000e+01 -1.174054108560085297e-02 5.982022285461425781e+00 1.791084527969360352e+00 5.143450573086738586e-03
1.396000000000000000e+03 6.400787353515625000e+01 3.289921951293945312e+01 3.929085657000541687e-02 5.648093700408935547e+00 1.706215262413024902e+00 4.003549367189407349e-02
1.397000000000000000e+03 6.451065826416015625e+01 2.997211074829101562e+01 9.719325602054595947e-02 5.622160434722900391e+00 1.715806007385253906e+00 9.499455802142620087e-03
1.398000000000000000e+03 6.365934371948242188e+01 2.853452682495117188e+01 1.567663699388504028e-01 5.499333858489990234e+00 1.696830034255981445e+00 1.709393039345741272e-02
1.399000000000000000e+03 6.291561126708984375e+01 2.702160835266113281e+01 2.433629482984542847e-01 5.298271656036376953e+00 1.662490367889404297e+00 2.967325784265995026e-02
1.400000000000000000e+03 6.215680694580078125e+01 2.431270599365234375e+01 4.207002520561218262e-01 4.985873222351074219e+00 1.621971964836120605e+00 3.171498654410243034e-03
1.401000000000000000e+03 6.268478775024414062e+01 2.291500854492187500e+01 5.257945656776428223e-01 4.790697097778320312e+00 1.594947457313537598e+00 -1.191479340195655823e-01
1.402000000000000000e+03 6.306326293945312500e+01 2.078321647644042969e+01 6.418733596801757812e-01 4.546787738800048828e+00 1.556598305702209473e+00 -4.965847730636596680e-01
1.403000000000000000e+03 6.342720031738281250e+01 1.843115806579589844e+01 7.037811875343322754e-01 3.975622892379760742e+00 1.403821229934692383e+00 -1.242256641387939453e+00
1.404000000000000000e+03 6.346602249145507812e+01 1.711488342285156250e+01 6.716205477714538574e-01 3.405460834503173828e+00 1.223124384880065918e+00 -1.761178374290466309e+00
1.405000000000000000e+03 6.409741210937500000e+01 1.516148948669433594e+01 3.878957927227020264e-01 4.161828994750976562e+00 1.364917516708374023e+00 -3.168225526809692383e+00
1.406000000000000000e+03 6.419317626953125000e+01 1.653462600708007812e+01 2.324411720037460327e-01 4.823308944702148438e+00 1.516724944114685059e+00 -2.343360185623168945e+00
1.407000000000000000e+03 6.360510635375976562e+01 4.083439636230468750e+01 -3.861614316701889038e-02 5.647419452667236328e+00 1.682641029357910156e+00 9.005270898342132568e-03
1.408000000000000000e+03 6.346878433227539062e+01 3.647517776489257812e+01 -3.110577585175633430e-03 5.658983707427978516e+00 1.696761965751647949e+00 4.073937982320785522e-02
1.409000000000000000e+03 6.210118865966796875e+01 3.466001129150390625e+01 3.722839523106813431e-03 5.530478477478027344e+00 1.660260438919067383e+00 7.502071559429168701e-02
1.410000000000000000e+03 6.296766281127929688e+01 3.132939720153808594e+01 7.559214532375335693e-02 5.532465934753417969e+00 1.682417511940002441e+00 6.843042373657226562e-02
1.411000000000000000e+03 6.212996292114257812e+01 2.968787574768066406e+01 1.308206915855407715e-01 5.383388519287109375e+00 1.654262661933898926e+00 9.123875945806503296e-02
1.412000000000000000e+03 6.138585662841796875e+01 2.810116958618164062e+01 2.011720687150955200e-01 5.264653205871582031e+00 1.639747619628906250e+00 1.386012285947799683e-01
1.413000000000000000e+03 6.047680664062500000e+01 2.697692489624023438e+01 2.517783045768737793e-01 5.122001647949218750e+00 1.612134099006652832e+00 1.991321593523025513e-01
1.414000000000000000e+03 6.097114181518554688e+01 2.563724517822265625e+01 3.521193861961364746e-01 5.019177436828613281e+00 1.611389040946960449e+00 1.860424131155014038e-01
1.415000000000000000e+03 6.171598815917968750e+01 2.339157104492187500e+01 5.348624587059020996e-01 4.798057556152343750e+00 1.599876046180725098e+00 3.227373957633972168e-02
1.416000000000000000e+03 6.165734481811523438e+01 2.153260231018066406e+01 7.400061488151550293e-01 4.364233970642089844e+00 1.531271934509277344e+00 -1.283213216811418533e-02
1.417000000000000000e+03 6.122422409057617188e+01 1.903161621093750000e+01 1.069157004356384277e+00 3.389725685119628906e+00 1.337664842605590820e+00 -6.826652586460113525e-02
1.418000000000000000e+03 6.101432800292968750e+01 1.704698371887207031e+01 1.079572796821594238e+00 2.043158531188964844e+00 9.368193745613098145e-01 2.483844989910721779e-03
1.419000000000000000e+03 6.159813308715820312e+01 1.523212623596191406e+01 3.062849640846252441e-01 6.166816353797912598e-01 2.768899798393249512e-01 -4.976756870746612549e-01
1.420000000000000000e+03 5.891543579101562500e+01 3.386424636840820312e+01 -2.390959486365318298e-02 5.297029495239257812e+00 1.581935882568359375e+00 1.182071492075920105e-01
1.421000000000000000e+03 6.041344070434570312e+01 3.079880714416503906e+01 7.717201858758926392e-02 5.322613716125488281e+00 1.619935750961303711e+00 1.464931219816207886e-01
1.422000000000000000e+03 5.985698699951171875e+01 2.912677383422851562e+01 1.179506108164787292e-01 5.214668273925781250e+00 1.599785685539245605e+00 2.047905772924423218e-01
1.423000000000000000e+03 5.957039260864257812e+01 2.528250122070312500e+01 3.393737375736236572e-01 4.955257415771484375e+00 1.588389277458190918e+00 3.481253981590270996e-01
1.424000000000000000e+03 6.003633880615234375e+01 2.388960647583007812e+01 4.705867469310760498e-01 4.783150196075439453e+00 1.576121091842651367e+00 3.490734994411468506e-01
1.425000000000000000e+03 6.038278198242187500e+01 1.991706848144531250e+01 1.001367568969726562e+00 3.659326076507568359e+00 1.398208022117614746e+00 3.631765544414520264e-01
1.426000000000000000e+03 5.962530899047851562e+01 1.863616752624511719e+01 1.060954928398132324e+00 3.248927831649780273e+00 1.292964816093444824e+00 8.209226727485656738e-01
1.427000000000000000e+03 5.986115646362304688e+01 1.808697509765625000e+01 1.103470563888549805e+00 2.890192508697509766e+00 1.198099017143249512e+00 7.169890403747558594e-01
1.428000000000000000e+03 6.044154357910156250e+01 1.533212852478027344e+01 4.085525870323181152e-01 9.678788185119628906e-01 4.129294157028198242e-01 3.786018192768096924e-01
1.429000000000000000e+03 5.938891601562500000e+01 1.644269180297851562e+01 9.559458494186401367e-01 2.146911621093750000e+00 9.308572411537170410e-01 1.044992923736572266e+00
1.430000000000000000e+03 5.664061355590820312e+01 3.740847015380859375e+01 -1.011177673935890198e-01 5.185101985931396484e+00 1.525195240974426270e+00 6.915907561779022217e-02
1.431000000000000000e+03 5.714944076538085938e+01 4.071933364868164062e+01 -1.006686836481094360e-01 5.225292682647705078e+00 1.537387251853942871e+00 2.096091769635677338e-02
1.432000000000000000e+03 5.964113616943359375e+01 3.634318923950195312e+01 -5.316222086548805237e-02 5.347741127014160156e+00 1.588373661041259766e+00 7.282435148954391479e-02
1.433000000000000000e+03 5.643741989135742188e+01 3.456734848022460938e+01 -9.033084660768508911e-02 5.141914844512939453e+00 1.515475153923034668e+00 1.235138177871704102e-01
1.434000000000000000e+03 5.801595687866210938e+01 2.813949394226074219e+01 9.386138617992401123e-02 5.129640579223632812e+00 1.567050576210021973e+00 2.969050407409667969e-01
1.435000000000000000e+03 5.800655364990234375e+01 2.664643096923828125e+01 1.740159392356872559e-01 5.083718776702880859e+00 1.577320456504821777e+00 3.798736035823822021e-01
1.436000000000000000e+03 5.810832977294921875e+01 2.519874954223632812e+01 2.541583478450775146e-01 4.965218544006347656e+00 1.565813064575195312e+00 4.824449419975280762e-01
1.437000000000000000e+03 5.719155883789062500e+01 2.281468772888183594e+01 3.151356875896453857e-01 4.929171085357666016e+00 1.573292016983032227e+00 7.953819036483764648e-01
1.438000000000000000e+03 5.823733520507812500e+01 1.982717895507812500e+01 7.724349498748779297e-01 4.145414352416992188e+00 1.475354790687561035e+00 1.147782564163208008e+00
1.439000000000000000e+03 5.903666687011718750e+01 1.847134208679199219e+01 1.034655451774597168e+00 3.338870525360107422e+00 1.312057852745056152e+00 1.055004000663757324e+00
1.440000000000000000e+03 5.892932128906250000e+01 1.688978385925292969e+01 9.953538179397583008e-01 2.580431938171386719e+00 1.072735786437988281e+00 1.235335588455200195e+00
1.441000000000000000e+03 5.826690292358398438e+01 1.556096935272216797e+01 7.689926028251647949e-01 2.527540445327758789e+00 9.889599084854125977e-01 1.608206987380981445e+00
1.442000000000000000e+03 5.881703186035156250e+01 1.600961112976074219e+01 8.927984237670898438e-01 2.302003622055053711e+00 9.584406614303588867e-01 1.381280064582824707e+00
1.443000000000000000e+03 5.640720367431640625e+01 3.213903427124023438e+01 -4.934980347752571106e-02 5.149175643920898438e+00 1.529947638511657715e+00 1.758829206228256226e-01
1.444000000000000000e+03 5.646708297729492188e+01 3.007537651062011719e+01 -2.266150899231433868e-02 5.132633209228515625e+00 1.532991409301757812e+00 2.463542520999908447e-01
1.445000000000000000e+03 5.517598342895507812e+01 2.828824043273925781e+01 -4.639033973217010498e-02 5.115094661712646484e+00 1.520611166954040527e+00 3.282102048397064209e-01
1.446000000000000000e+03 5.666747283935546875e+01 2.674666023254394531e+01 6.839909404516220093e-02 5.097824096679687500e+00 1.549866914749145508e+00 4.123308658599853516e-01
1.447000000000000000e+03 5.661160659790039062e+01 2.525992774963378906e+01 1.271330714225769043e-01 5.101302623748779297e+00 1.568530678749084473e+00 5.500582456588745117e-01
1.448000000000000000e+03 5.639207077026367188e+01 2.212492752075195312e+01 2.278643250465393066e-01 5.070084095001220703e+00 1.589384555816650391e+00 9.725456237792968750e-01
1.449000000000000000e+03 5.603189849853515625e+01 2.111807441711425781e+01 2.184343189001083374e-01 5.108235836029052734e+00 1.598001003265380859e+00 1.158060312271118164e+00
1.450000000000000000e+03 5.718041610717773438e+01 1.834873008728027344e+01 7.084969282150268555e-01 4.271848201751708984e+00 1.494103550910949707e+00 1.702150583267211914e+00
1.451000000000000000e+03 5.701452636718750000e+01 1.750227928161621094e+01 7.372274398803710938e-01 4.265520095825195312e+00 1.500824332237243652e+00 1.868920087814331055e+00
1.452000000000000000e+03 5.735249328613281250e+01 1.544890594482421875e+01 8.773050308227539062e-01 3.326311826705932617e+00 1.261085033416748047e+00 1.951694130897521973e+00
1.453000000000000000e+03 5.567115783691406250e+01 1.517758941650390625e+01 9.395401477813720703e-01 5.238017559051513672e+00 1.853267312049865723e+00 2.329567193984985352e+00
1.454000000000000000e+03 5.277986907958984375e+01 4.083962249755859375e+01 -1.597585678100585938e-01 4.891976833343505859e+00 1.419665455818176270e+00 1.731945946812629700e-02
1.455000000000000000e+03 5.334103393554687500e+01 3.759790802001953125e+01 -1.535286009311676025e-01 4.933399200439453125e+00 1.433961153030395508e+00 6.504312157630920410e-02
1.456000000000000000e+03 5.479686355590820312e+01 3.005607604980468750e+01 -7.831391692161560059e-02 5.098261833190917969e+00 1.505984306335449219e+00 2.375932335853576660e-01
1.457000000000000000e+03 5.390736007690429688e+01 2.800131416320800781e+01 -1.106411069631576538e-01 5.123433113098144531e+00 1.503837704658508301e+00 3.005187809467315674e-01
1.458000000000000000e+03 5.533072280883789062e+01 2.561602592468261719e+01 3.982221242040395737e-04 5.165002346038818359e+00 1.549620270729064941e+00 5.152512788772583008e-01
1.459000000000000000e+03 5.451811981201171875e+01 2.465206718444824219e+01 -7.421047985553741455e-02 5.262314796447753906e+00 1.556431293487548828e+00 5.640708208084106445e-01
1.460000000000000000e+03 5.443239212036132812e+01 2.222461128234863281e+01 -1.217800900340080261e-01 5.519532203674316406e+00 1.619325637817382812e+00 8.443440198898315430e-01
1.461000000000000000e+03 5.428642654418945312e+01 2.042518615722656250e+01 -1.735863536596298218e-01 5.892422676086425781e+00 1.715650796890258789e+00 1.133349776268005371e+00
1.462000000000000000e+03 5.528401184082031250e+01 1.934377670288085938e+01 1.579683870077133179e-01 5.531618118286132812e+00 1.706876039505004883e+00 1.569524049758911133e+00
1.463000000000000000e+03 5.483754730224609375e+01 1.772914314270019531e+01 2.076977491378784180e-01 6.080299377441406250e+00 1.886399149894714355e+00 1.961140155792236328e+00
1.464000000000000000e+03 5.408211898803710938e+01 1.602124404907226562e+01 5.626948475837707520e-01 7.185183048248291016e+00 2.324363231658935547e+00 2.249094009399414062e+00
1.465000000000000000e+03 5.451840972900390625e+01 1.686234664916992188e+01 3.494491279125213623e-01 6.627519607543945312e+00 2.093090534210205078e+00 2.106094121932983398e+00
1.466000000000000000e+03 5.436722946166992188e+01 3.217028045654296875e+01 -1.111210063099861145e-01 5.041920661926269531e+00 1.479239940643310547e+00 1.682576984167098999e-01
1.467000000000000000e+03 5.326738357543945312e+01 2.972486877441406250e+01 -1.283467411994934082e-01 5.032577037811279297e+00 1.471269130706787109e+00 2.271640449762344360e-01
1.468000000000000000e+03 5.277083587646484375e+01 2.748623657226562500e+01 -1.521483659744262695e-01 5.093701839447021484e+00 1.482466101646423340e+00 2.886186242103576660e-01
1.469000000000000000e+03 5.264011001586914062e+01 2.544980621337890625e+01 -1.787462234497070312e-01 5.220790863037109375e+00 1.512613296508789062e+00 3.554947078227996826e-01
1.470000000000000000e+03 5.170845413208007812e+01 2.477921295166015625e+01 -2.228516787290573120e-01 5.277212142944335938e+00 1.516308069229125977e+00 2.611351013183593750e-01
1.471000000000000000e+03 5.268288803100585938e+01 2.209493446350097656e+01 -3.017447292804718018e-01 5.723708152770996094e+00 1.626589059829711914e+00 5.285240411758422852e-01
1.472000000000000000e+03 5.383662033081054688e+01 1.972046470642089844e+01 -2.215303331613540649e-01 6.197126388549804688e+00 1.792678833007812500e+00 1.157308220863342285e+00
1.473000000000000000e+03 5.316939926147460938e+01 1.884444427490234375e+01 -3.901832103729248047e-01 6.829818725585937500e+00 1.931890726089477539e+00 1.126705288887023926e+00
1.474000000000000000e+03 5.358609771728515625e+01 1.831135177612304688e+01 -1.964399069547653198e-01 6.856376647949218750e+00 1.997981071472167969e+00 1.411403179168701172e+00
1.475000000000000000e+03 5.335800933837890625e+01 1.649311447143554688e+01 1.588896661996841431e-01 8.040263175964355469e+00 2.459745883941650391e+00 1.866946458816528320e+00
1.476000000000000000e+03 5.029690933227539062e+01 3.706027984619140625e+01 -1.884465962648391724e-01 4.710649967193603516e+00 1.356661081314086914e+00 4.494405537843704224e-02
1.477000000000000000e+03 5.251159667968750000e+01 3.177401733398437500e+01 -1.582649499177932739e-01 4.962359905242919922e+00 1.441228508949279785e+00 1.485137790441513062e-01
1.478000000000000000e+03 5.191068267822265625e+01 2.914440155029296875e+01 -1.753764897584915161e-01 4.996176242828369141e+00 1.446239948272705078e+00 1.888685822486877441e-01
1.479000000000000000e+03 5.172029876708984375e+01 2.681933784484863281e+01 -1.922597736120223999e-01 5.097801685333251953e+00 1.471662521362304688e+00 2.273161411285400391e-01
1.480000000000000000e+03 5.073382186889648438e+01 2.601672363281250000e+01 -2.064868062734603882e-01 5.051301956176757812e+00 1.453444480895996094e+00 1.808620691299438477e-01
1.481000000000000000e+03 4.981312942504882812e+01 2.514041137695312500e+01 -1.861601918935775757e-01 5.002315998077392578e+00 1.444846630096435547e+00 9.170366078615188599e-02
1.482000000000000000e+03 5.001928329467773438e+01 2.315837860107421875e+01 -1.897096931934356689e-01 5.190867424011230469e+00 1.500347256660461426e+00 -3.546976251527667046e-03
1.483000000000000000e+03 5.190172195434570312e+01 2.121409797668457031e+01 -3.719078004360198975e-01 5.992775917053222656e+00 1.686260461807250977e+00 2.967061400413513184e-01
1.484000000000000000e+03 5.150653076171875000e+01 1.683940887451171875e+01 -4.726651608943939209e-01 9.005979537963867188e+00 2.559994459152221680e+00 6.717466562986373901e-02
1.485000000000000000e+03 5.162551498413085938e+01 1.556417942047119141e+01 3.008299171924591064e-01 1.074842357635498047e+01 3.314775943756103516e+00 5.521615147590637207e-01
1.486000000000000000e+03 5.156047821044921875e+01 3.419266891479492188e+01 -1.640497297048568726e-01 4.845797061920166016e+00 1.404524207115173340e+00 9.888635575771331787e-02
1.487000000000000000e+03 5.091274642944335938e+01 3.105017852783203125e+01 -1.795703172683715820e-01 4.859950065612792969e+00 1.404113888740539551e+00 1.399297416210174561e-01
1.488000000000000000e+03 5.070184707641601562e+01 2.835712432861328125e+01 -1.923069804906845093e-01 4.926701068878173828e+00 1.420318245887756348e+00 1.705322414636611938e-01
1.489000000000000000e+03 4.961877441406250000e+01 2.740428543090820312e+01 -1.958525031805038452e-01 4.869930267333984375e+00 1.402223348617553711e+00 1.176125630736351013e-01
1.490000000000000000e+03 4.864937973022460938e+01 2.637775802612304688e+01 -1.786892861127853394e-01 4.769730567932128906e+00 1.377312302589416504e+00 8.892218023538589478e-02
1.491000000000000000e+03 4.896624755859375000e+01 2.422585487365722656e+01 -1.404286772012710571e-01 4.871540546417236328e+00 1.419333577156066895e+00 3.119688481092453003e-02
1.492000000000000000e+03 4.922967529296875000e+01 2.236092185974121094e+01 -1.024728491902351379e-01 4.994632720947265625e+00 1.467648029327392578e+00 -1.151860132813453674e-01
1.493000000000000000e+03 4.914679718017578125e+01 2.089677047729492188e+01 -6.325789727270603180e-03 5.043622493743896484e+00 1.511189103126525879e+00 -4.381987452507019043e-01
1.494000000000000000e+03 4.979273986816406250e+01 1.894540405273437500e+01 -1.705159097909927368e-01 5.879920959472656250e+00 1.712821483612060547e+00 -9.361498355865478516e-01
1.495000000000000000e+03 4.957077407836914062e+01 1.750492095947265625e+01 -1.214255858212709427e-02 6.017473697662353516e+00 1.801599383354187012e+00 -1.814506530761718750e+00
1.496000000000000000e+03 4.923104858398437500e+01 1.523349285125732422e+01 2.250891447067260742e+00 3.685353994369506836e+00 1.780873656272888184e+00 -3.223330736160278320e+00
1.497000000000000000e+03 4.853503799438476562e+01 4.056016540527343750e+01 -2.000414133071899414e-01 4.506918907165527344e+00 1.292063355445861816e+00 1.152465399354696274e-02
1.498000000000000000e+03 4.551796340942382812e+01 3.872229766845703125e+01 -2.157851308584213257e-01 4.265810966491699219e+00 1.215007781982421875e+00 -1.930317608639597893e-03
1.499000000000000000e+03 4.631327438354492188e+01 3.393462753295898438e+01 -2.207025736570358276e-01 4.395829677581787109e+00 1.252538084983825684e+00 3.751247376203536987e-02
1.500000000000000000e+03 4.953499221801757812e+01 3.007288551330566406e+01 -2.025119662284851074e-01 4.776510238647460938e+00 1.372199535369873047e+00 1.047989279031753540e-01
1.501000000000000000e+03 4.834948730468750000e+01 2.890524101257324219e+01 -2.051480263471603394e-01 4.680193424224853516e+00 1.342513680458068848e+00 9.394599497318267822e-02
1.502000000000000000e+03 4.733911132812500000e+01 2.766877174377441406e+01 -1.883213073015213013e-01 4.596666336059570312e+00 1.322503566741943359e+00 6.836739927530288696e-02
1.503000000000000000e+03 4.778501129150390625e+01 2.531741333007812500e+01 -1.287279576063156128e-01 4.678506374359130859e+00 1.364933490753173828e+00 4.532025381922721863e-02
1.504000000000000000e+03 4.700395965576171875e+01 2.424766349792480469e+01 -5.632616579532623291e-02 4.508700370788574219e+00 1.335712194442749023e+00 3.782019019126892090e-02
1.505000000000000000e+03 4.750231552124023438e+01 2.229283332824707031e+01 7.461580634117126465e-02 4.493479251861572266e+00 1.370428562164306641e+00 -7.711330056190490723e-02
1.506000000000000000e+03 4.718463897705078125e+01 2.114067840576171875e+01 3.057494163513183594e-01 4.238157749176025391e+00 1.363172173500061035e+00 -1.886624246835708618e-01
1.507000000000000000e+03 4.703751373291015625e+01 1.880870437622070312e+01 9.077360033988952637e-01 3.209012985229492188e+00 1.235024690628051758e+00 -3.709063827991485596e-01
1.508000000000000000e+03 4.782104873657226562e+01 1.632331466674804688e+01 1.181847333908081055e+00 1.624131083488464355e+00 8.417935371398925781e-01 -1.098371744155883789e+00
1.509000000000000000e+03 4.687007522583007812e+01 3.046765899658203125e+01 -2.197290956974029541e-01 4.502543926239013672e+00 1.284844398498535156e+00 5.678691342473030090e-02
1.510000000000000000e+03 4.647386169433593750e+01 2.643510437011718750e+01 -1.574571132659912109e-01 4.474922180175781250e+00 1.295239567756652832e+00 7.072941958904266357e-02
1.511000000000000000e+03 4.572218322753906250e+01 2.524610900878906250e+01 -1.028643324971199036e-01 4.382581233978271484e+00 1.283915042877197266e+00 8.009494841098785400e-02
1.512000000000000000e+03 4.626741790771484375e+01 2.318287467956542969e+01 5.510927736759185791e-02 4.340938091278076172e+00 1.318814158439636230e+00 4.422884434461593628e-02
1.513000000000000000e+03 4.615129852294921875e+01 2.134979629516601562e+01 2.834478020668029785e-01 4.023683071136474609e+00 1.292139172554016113e+00 8.868020027875900269e-02
1.514000000000000000e+03 4.667902374267578125e+01 1.825576400756835938e+01 9.302776455879211426e-01 2.814960956573486328e+00 1.123571634292602539e+00 -8.359424024820327759e-02
1.515000000000000000e+03 4.187936401367187500e+01 4.048405075073242188e+01 -2.025949954986572266e-01 3.910961866378784180e+00 1.112510085105895996e+00 -6.728346343152225018e-04
1.516000000000000000e+03 4.395121002197265625e+01 3.573504638671875000e+01 -2.308021634817123413e-01 4.104965209960937500e+00 1.162248849868774414e+00 -1.783411600627005100e-03
1.517000000000000000e+03 4.586254882812500000e+01 2.895221519470214844e+01 -2.121853232383728027e-01 4.394671916961669922e+00 1.254745960235595703e+00 5.805280059576034546e-02
1.518000000000000000e+03 4.502397155761718750e+01 2.752316665649414062e+01 -1.934299021959304810e-01 4.327171325683593750e+00 1.240122437477111816e+00 5.600702390074729919e-02
1.519000000000000000e+03 4.431468582153320312e+01 2.619811630249023438e+01 -1.827204674482345581e-01 4.232805728912353516e+00 1.215025663375854492e+00 9.710602462291717529e-02
1.520000000000000000e+03 4.541233444213867188e+01 2.229418182373046875e+01 1.459516435861587524e-01 4.068236827850341797e+00 1.264256477355957031e+00 1.875519603490829468e-01
1.521000000000000000e+03 4.476992034912109375e+01 2.018584251403808594e+01 3.573437929153442383e-01 3.675175666809082031e+00 1.209755897521972656e+00 5.542050600051879883e-01
1.522000000000000000e+03 4.304796600341796875e+01 3.316227340698242188e+01 -2.310430854558944702e-01 4.057151794433593750e+00 1.147832632064819336e+00 -1.617149263620376587e-02
1.523000000000000000e+03 4.422943115234375000e+01 3.012595558166503906e+01 -2.326546609401702881e-01 4.213405132293701172e+00 1.194225072860717773e+00 1.315390411764383316e-02
1.524000000000000000e+03 4.345428848266601562e+01 2.853654479980468750e+01 -2.407422363758087158e-01 4.143942832946777344e+00 1.170960068702697754e+00 3.580095246434211731e-02
1.525000000000000000e+03 4.277637100219726562e+01 2.707648849487304688e+01 -2.382144033908843994e-01 4.127504348754882812e+00 1.166787028312683105e+00 5.131462588906288147e-02
1.526000000000000000e+03 4.226690292358398438e+01 2.559506797790527344e+01 -2.727697491645812988e-01 4.088559150695800781e+00 1.144736766815185547e+00 1.121063381433486938e-01
1.527000000000000000e+03 4.102670288085937500e+01 3.680202102661132812e+01 -2.095152586698532104e-01 3.807255744934082031e+00 1.079322099685668945e+00 -3.312115743756294250e-02
1.528000000000000000e+03 4.075200653076171875e+01 3.373406219482421875e+01 -2.381175607442855835e-01 3.784031867980957031e+00 1.063774347305297852e+00 -5.049045011401176453e-02
1.529000000000000000e+03 4.253479385375976562e+01 3.104941368103027344e+01 -2.400478273630142212e-01 4.016860485076904297e+00 1.133043766021728516e+00 -1.790452282875776291e-03
1.530000000000000000e+03 4.181560897827148438e+01 2.952771568298339844e+01 -2.601122558116912842e-01 3.980155944824218750e+00 1.116013169288635254e+00 -2.038011513650417328e-02
1.531000000000000000e+03 4.108612060546875000e+01 2.798015594482421875e+01 -2.871824800968170166e-01 3.935884237289428711e+00 1.094610571861267090e+00 6.221390212886035442e-04
1.532000000000000000e+03 4.074110412597656250e+01 2.617486763000488281e+01 -3.200048208236694336e-01 3.973101377487182617e+00 1.095928907394409180e+00 3.032174892723560333e-02
1.533000000000000000e+03 3.733496093750000000e+01 4.056366729736328125e+01 -1.649179607629776001e-01 3.359223842620849609e+00 9.582917690277099609e-01 -3.069208748638629913e-02
1.534000000000000000e+03 3.838700485229492188e+01 3.359932327270507812e+01 -2.279280573129653931e-01 3.551502466201782227e+00 9.970723390579223633e-01 -9.476034343242645264e-02
1.535000000000000000e+03 3.899462127685546875e+01 3.084703445434570312e+01 -2.673034965991973877e-01 3.672351121902465820e+00 1.021514296531677246e+00 -7.697018235921859741e-02
1.536000000000000000e+03 3.930478286743164062e+01 2.850735664367675781e+01 -3.043557107448577881e-01 3.763608932495117188e+00 1.037775993347167969e+00 -6.391789019107818604e-02
1.537000000000000000e+03 3.763065338134765625e+01 3.684667968750000000e+01 -1.800365000963211060e-01 3.423462390899658203e+00 9.730277657508850098e-01 -6.182058528065681458e-02
1.538000000000000000e+03 3.707637405395507812e+01 3.047600364685058594e+01 -2.766587734222412109e-01 3.446062564849853516e+00 9.508211612701416016e-01 -1.201576143503189087e-01
1.539000000000000000e+03 3.620474624633789062e+01 3.286820602416992188e+01 -2.252253592014312744e-01 3.349494457244873047e+00 9.372807145118713379e-01 -9.773138910531997681e-02
1.540000000000000000e+03 3.252458190917968750e+01 4.067618179321289062e+01 -9.246377646923065186e-02 2.827349662780761719e+00 8.204658031463623047e-01 -2.785477228462696075e-02
1.541000000000000000e+03 3.208104705810546875e+01 3.738401031494140625e+01 -1.097535416483879089e-01 2.780244588851928711e+00 8.011472821235656738e-01 -9.619010984897613525e-02
1.542000000000000000e+03 3.482552337646484375e+01 3.558499908447265625e+01 -1.663507670164108276e-01 3.102526187896728516e+00 8.808525800704956055e-01 -8.876841515302658081e-02
1.543000000000000000e+03 2.843543243408203125e+01 3.752153015136718750e+01 -2.328176423907279968e-02 2.318029642105102539e+00 6.884243488311767578e-01 -1.046120300889015198e-01
1.544000000000000000e+03 2.294709968566894531e+01 4.073967742919921875e+01 1.160376295447349548e-01 1.746503829956054688e+00 5.587624311447143555e-01 -3.390448540449142456e-02
1.545000000000000000e+03 1.554108715057373047e+01 3.922817993164062500e+01 1.956373751163482666e-01 1.188196778297424316e+00 4.151502549648284912e-01 7.526333793066442013e-04
1.546000000000000000e+03 1.150461101531982422e+01 3.823062515258789062e+01 1.648010164499282837e-01 1.065103769302368164e+00 3.689714372158050537e-01 5.528675392270088196e-02
1.547000000000000000e+03 8.771825790405273438e+00 3.873714828491210938e+01 1.323743760585784912e-01 1.037952065467834473e+00 3.510979413986206055e-01 7.338062673807144165e-02
1.548000000000000000e+03 9.648224830627441406e+00 3.224761199951171875e+01 1.126532480120658875e-01 9.649266004562377930e-01 3.232739567756652832e-01 1.628671288490295410e-01
1.549000000000000000e+03 9.104603767395019531e+00 3.079072570800781250e+01 9.205308556556701660e-02 9.578920006752014160e-01 3.149835169315338135e-01 1.953914910554885864e-01
1.550000000000000000e+03 8.652230262756347656e+00 2.956594657897949219e+01 5.902473255991935730e-02 9.537057876586914062e-01 3.038191497325897217e-01 2.112407237291336060e-01
1.551000000000000000e+03 9.873969078063964844e+00 2.714704513549804688e+01 -3.201436775270849466e-04 8.593564033508300781e-01 2.577108740806579590e-01 2.126138508319854736e-01
1.552000000000000000e+03 1.058758831024169922e+01 2.628575706481933594e+01 -4.069802910089492798e-02 8.087943792343139648e-01 2.304289042949676514e-01 1.978296786546707153e-01
1.553000000000000000e+03 9.368823051452636719e+00 2.443292617797851562e+01 -1.383401602506637573e-01 8.538060784339904785e-01 2.146397680044174194e-01 2.126023024320602417e-01
1.554000000000000000e+03 9.988386154174804688e+00 2.266592597961425781e+01 -2.889722883701324463e-01 7.916244864463806152e-01 1.507956683635711670e-01 1.763732433319091797e-01
1.555000000000000000e+03 1.067786788940429688e+01 2.101729774475097656e+01 -4.810962080955505371e-01 7.118518948554992676e-01 6.922671943902969360e-02 1.294061690568923950e-01
1.556000000000000000e+03 9.787407875061035156e+00 1.845083808898925781e+01 -7.386640310287475586e-01 8.531975150108337402e-01 3.436003252863883972e-02 -1.750237308442592621e-02
1.557000000000000000e+03 1.003963947296142578e+01 1.653457069396972656e+01 -9.862412214279174805e-01 9.139840006828308105e-01 -2.167716808617115021e-02 -1.474667489528656006e-01
1.558000000000000000e+03 9.603843688964843750e+00 1.436842918395996094e+01 -1.136055231094360352e+00 1.114274621009826660e+00 -6.534214597195386887e-03 -3.782539665699005127e-01
1.559000000000000000e+03 1.078089809417724609e+01 1.207212924957275391e+01 -1.259894251823425293e+00 1.008824229240417480e+00 -7.532098889350891113e-02 -4.475106894969940186e-01
1.560000000000000000e+03 8.737496376037597656e+00 9.779747009277343750e+00 -8.057907819747924805e-01 2.112136363983154297e+00 3.919036388397216797e-01 -1.179945588111877441e+00
1.561000000000000000e+03 8.834854125976562500e+00 9.068101882934570312e+00 -6.040524840354919434e-01 2.527544498443603516e+00 5.770475864410400391e-01 -1.402924776077270508e+00
1.562000000000000000e+03 8.840528488159179688e+00 3.654448318481445312e+01 1.237846761941909790e-01 1.033671975135803223e+00 3.472369909286499023e-01 1.088125407695770264e-01
1.563000000000000000e+03 8.577039718627929688e+00 3.462258529663085938e+01 1.138391271233558655e-01 1.011862397193908691e+00 3.377104699611663818e-01 1.391036808490753174e-01
1.564000000000000000e+03 8.091154098510742188e+00 3.289619064331054688e+01 9.865874797105789185e-02 1.011516332626342773e+00 3.330525159835815430e-01 1.783353090286254883e-01
1.565000000000000000e+03 7.742483615875244141e+00 3.128288078308105469e+01 7.718618214130401611e-02 1.006525516510009766e+00 3.251135051250457764e-01 1.973753422498703003e-01
1.566000000000000000e+03 8.003689765930175781e+00 2.869678497314453125e+01 3.873788192868232727e-02 9.773936271667480469e-01 3.048394620418548584e-01 2.268587052822113037e-01
1.567000000000000000e+03 8.959326744079589844e+00 2.789203262329101562e+01 1.657203584909439087e-02 9.253091216087341309e-01 2.825643420219421387e-01 2.227286547422409058e-01
1.568000000000000000e+03 7.303235530853271484e+00 2.582018470764160156e+01 -5.030455440282821655e-02 1.004780173301696777e+00 2.863426804542541504e-01 2.281814515590667725e-01
1.569000000000000000e+03 8.312479019165039062e+00 2.498815155029296875e+01 -1.012092083692550659e-01 9.335599541664123535e-01 2.497052252292633057e-01 2.229939252138137817e-01
1.570000000000000000e+03 7.323955535888671875e+00 2.289033699035644531e+01 -2.005634009838104248e-01 1.019639730453491211e+00 2.457228899002075195e-01 1.776876300573348999e-01
1.571000000000000000e+03 7.967985153198242188e+00 2.088185119628906250e+01 -3.780202865600585938e-01 9.820734858512878418e-01 1.812159568071365356e-01 9.312858432531356812e-02
1.572000000000000000e+03 7.967634677886962891e+00 1.948119735717773438e+01 -5.214760303497314453e-01 1.036274433135986328e+00 1.544395238161087036e-01 2.913555596023797989e-03
1.573000000000000000e+03 9.007681846618652344e+00 1.664708900451660156e+01 -8.739085197448730469e-01 1.052489757537841797e+00 5.357437208294868469e-02 -1.955597251653671265e-01
1.574000000000000000e+03 7.443331241607666016e+00 1.603890228271484375e+01 -7.717131972312927246e-01 1.204052329063415527e+00 1.297017484903335571e-01 -3.558018207550048828e-01
1.575000000000000000e+03 7.693121433258056641e+00 1.346667098999023438e+01 -9.386098980903625488e-01 1.410447835922241211e+00 1.415513902902603149e-01 -6.769353747367858887e-01
1.576000000000000000e+03 7.861705303192138672e+00 1.195192432403564453e+01 -9.225550889968872070e-01 1.583814620971679688e+00 1.983778774738311768e-01 -9.286919236183166504e-01
1.577000000000000000e+03 7.839357852935791016e+00 1.034288501739501953e+01 -7.244255542755126953e-01 1.876183986663818359e+00 3.455275297164916992e-01 -1.270304918289184570e+00
1.578000000000000000e+03 6.606262207031250000e+00 3.858451843261718750e+01 8.940541744232177734e-02 1.029235243797302246e+00 3.355921804904937744e-01 7.285828143358230591e-02
1.579000000000000000e+03 7.051790714263916016e+00 3.672383880615234375e+01 9.785392880439758301e-02 1.031557440757751465e+00 3.388234376907348633e-01 1.145691871643066406e-01
1.580000000000000000e+03 7.055880546569824219e+00 3.504881286621093750e+01 9.058849513530731201e-02 1.036304354667663574e+00 3.380678296089172363e-01 1.439250558614730835e-01
1.581000000000000000e+03 5.827875614166259766e+00 3.251205062866210938e+01 6.518436223268508911e-02 1.060786843299865723e+00 3.377913534641265869e-01 1.833668351173400879e-01
1.582000000000000000e+03 6.465172290802001953e+00 3.127607154846191406e+01 6.005751714110374451e-02 1.052958250045776367e+00 3.339047431945800781e-01 2.024599015712738037e-01
1.583000000000000000e+03 6.540955543518066406e+00 2.987072944641113281e+01 4.698791727423667908e-02 1.047805786132812500e+00 3.284381330013275146e-01 2.160796225070953369e-01
1.584000000000000000e+03 6.405241489410400391e+00 2.714848136901855469e+01 -4.442168865352869034e-03 1.065844416618347168e+00 3.184206485748291016e-01 2.355260699987411499e-01
1.585000000000000000e+03 5.889547824859619141e+00 2.635411834716796875e+01 -2.581129036843776703e-02 1.110524535179138184e+00 3.254139721393585205e-01 2.256140410900115967e-01
1.586000000000000000e+03 5.992798805236816406e+00 2.394108963012695312e+01 -1.078066229820251465e-01 1.127867579460144043e+00 3.060182631015777588e-01 1.914901286363601685e-01
1.587000000000000000e+03 6.207656383514404297e+00 2.267556571960449219e+01 -1.691946089267730713e-01 1.129039287567138672e+00 2.879534065723419189e-01 1.547701060771942139e-01
1.588000000000000000e+03 6.502703666687011719e+00 2.085896301269531250e+01 -2.955481708049774170e-01 1.131251811981201172e+00 2.507110834121704102e-01 6.090893223881721497e-02
1.589000000000000000e+03 6.048009872436523438e+00 1.881446266174316406e+01 -4.016485810279846191e-01 1.202256441116333008e+00 2.401823699474334717e-01 -1.017603427171707153e-01
1.590000000000000000e+03 6.169471263885498047e+00 1.818632888793945312e+01 -4.526838362216949463e-01 1.206899166107177734e+00 2.262645810842514038e-01 -1.525889337062835693e-01
1.591000000000000000e+03 6.406463146209716797e+00 1.613652801513671875e+01 -6.324920058250427246e-01 1.250406861305236816e+00 1.853744685649871826e-01 -3.939686417579650879e-01
1.592000000000000000e+03 6.111522197723388672e+00 1.384937763214111328e+01 -6.842578649520874023e-01 1.340402126312255859e+00 1.968432813882827759e-01 -7.345192432403564453e-01
1.593000000000000000e+03 5.907558441162109375e+00 1.280483818054199219e+01 -6.133186221122741699e-01 1.359833359718322754e+00 2.239544242620468140e-01 -9.261187911033630371e-01
1.594000000000000000e+03 3.305814981460571289e+00 4.179725646972656250e+01 2.753199636936187744e-02 9.921129941940307617e-01 3.058935105800628662e-01 7.974130101501941681e-03
1.595000000000000000e+03 5.395668029785156250e+00 4.060683059692382812e+01 5.544064193964004517e-02 1.024742364883422852e+00 3.240549266338348389e-01 3.369695693254470825e-02
1.596000000000000000e+03 4.185571670532226562e+00 3.958336639404296875e+01 3.435130044817924500e-02 1.013334751129150391e+00 3.143058121204376221e-01 4.764040187001228333e-02
1.597000000000000000e+03 5.083019733428955078e+00 3.811465072631835938e+01 5.428917333483695984e-02 1.030143857002258301e+00 3.253299295902252197e-01 7.831005007028579712e-02
1.598000000000000000e+03 4.394576549530029297e+00 3.626714706420898438e+01 4.414577782154083252e-02 1.049846172332763672e+00 3.281975686550140381e-01 1.066292971372604370e-01
1.599000000000000000e+03 5.548609256744384766e+00 3.426700973510742188e+01 6.361079216003417969e-02 1.060719728469848633e+00 3.372991383075714111e-01 1.532516628503799438e-01
1.600000000000000000e+03 4.230414867401123047e+00 3.102877044677734375e+01 2.981406077742576599e-02 1.143080830574035645e+00 3.518684804439544678e-01 1.792455017566680908e-01
1.601000000000000000e+03 3.812983274459838867e+00 2.872197723388671875e+01 1.417945977300405502e-02 1.216893672943115234e+00 3.693219423294067383e-01 1.863843798637390137e-01
1.602000000000000000e+03 4.158591747283935547e+00 2.759617424011230469e+01 8.406029082834720612e-04 1.221062302589416504e+00 3.665708899497985840e-01 2.025037258863449097e-01
1.603000000000000000e+03 4.340736389160156250e+00 2.585790061950683594e+01 -2.602684311568737030e-02 1.240115880966186523e+00 3.642266988754272461e-01 1.999901682138442993e-01
1.604000000000000000e+03 5.115460395812988281e+00 2.429414558410644531e+01 -7.157033681869506836e-02 1.209773778915405273e+00 3.414610326290130615e-01 1.851165145635604858e-01
1.605000000000000000e+03 4.207566261291503906e+00 2.272464179992675781e+01 -9.213053435087203979e-02 1.320464611053466797e+00 3.685002028942108154e-01 1.230266168713569641e-01
1.606000000000000000e+03 4.205692768096923828e+00 2.004390144348144531e+01 -1.694030761718750000e-01 1.350746750831604004e+00 3.544031083583831787e-01 -1.641603186726570129e-02
1.607000000000000000e+03 5.118411540985107422e+00 1.934896659851074219e+01 -2.892103493213653564e-01 1.266223788261413574e+00 2.931040525436401367e-01 -7.248600572347640991e-02
1.608000000000000000e+03 5.029264450073242188e+00 1.776070785522460938e+01 -3.473544418811798096e-01 1.287595748901367188e+00 2.820723950862884521e-01 -2.127538323402404785e-01
1.609000000000000000e+03 4.906569480895996094e+00 1.494233417510986328e+01 -4.851696789264678955e-01 1.282255649566650391e+00 2.391258031129837036e-01 -5.700312852859497070e-01
1.610000000000000000e+03 4.294405937194824219e+00 1.441363716125488281e+01 -3.761073946952819824e-01 1.251825213432312012e+00 2.627153396606445312e-01 -6.505830883979797363e-01
1.611000000000000000e+03 2.336586475372314453e+00 3.982236099243164062e+01 1.114265713840723038e-02 9.879977107048034668e-01 2.997421026229858398e-01 3.034763038158416748e-02
1.612000000000000000e+03 3.752525091171264648e+00 3.757652664184570312e+01 2.969071082770824432e-02 1.028894424438476562e+00 3.175755441188812256e-01 7.221268117427825928e-02
1.613000000000000000e+03 2.013492584228515625e+00 3.643157958984375000e+01 9.415656328201293945e-03 1.037015080451965332e+00 3.139292299747467041e-01 5.820732936263084412e-02
1.614000000000000000e+03 2.223332643508911133e+00 3.390022277832031250e+01 1.283571496605873108e-02 1.112440705299377441e+00 3.375829160213470459e-01 9.027525782585144043e-02
1.615000000000000000e+03 2.297746896743774414e+00 3.227903366088867188e+01 1.432654820382595062e-02 1.163435578346252441e+00 3.533286452293395996e-01 1.089688986539840698e-01
1.616000000000000000e+03 2.227223634719848633e+00 3.061359024047851562e+01 1.014618854969739914e-02 1.230664134025573730e+00 3.722430765628814697e-01 1.206400170922279358e-01
1.617000000000000000e+03 2.085626602172851562e+00 2.903392410278320312e+01 5.603570025414228439e-03 1.308999300003051758e+00 3.943808674812316895e-01 1.253510266542434692e-01
1.618000000000000000e+03 2.748114585876464844e+00 2.751827239990234375e+01 3.583122743293642998e-04 1.331879138946533203e+00 3.996712565422058105e-01 1.589255481958389282e-01
1.619000000000000000e+03 2.724799156188964844e+00 2.689380645751953125e+01 -1.053064130246639252e-03 1.355494856834411621e+00 4.063325226306915283e-01 1.564946174621582031e-01
1.620000000000000000e+03 3.287179708480834961e+00 2.487654876708984375e+01 -2.673781849443912506e-02 1.367807030677795410e+00 4.023207724094390869e-01 1.624864488840103149e-01
1.621000000000000000e+03 1.853857517242431641e+00 2.270956611633300781e+01 -2.001564949750900269e-02 1.607562780380249023e+00 4.762641489505767822e-01 7.635322958230972290e-02
1.622000000000000000e+03 2.128306865692138672e+00 2.124031829833984375e+01 -3.869468346238136292e-02 1.592585086822509766e+00 4.661671221256256104e-01 4.337955638766288757e-02
1.623000000000000000e+03 1.965671300888061523e+00 1.934287452697753906e+01 -4.686316475272178650e-02 1.610618352890014648e+00 4.691265523433685303e-01 -4.401787370443344116e-02
1.624000000000000000e+03 2.541901350021362305e+00 1.785858726501464844e+01 -1.258048713207244873e-01 1.479228258132934570e+00 4.060270190238952637e-01 -1.598418802022933960e-01
1.625000000000000000e+03 2.645642042160034180e+00 1.641258811950683594e+01 -1.549079269170761108e-01 1.385515928268432617e+00 3.691824078559875488e-01 -2.914611101150512695e-01
1.626000000000000000e+03 4.238598048686981201e-01 4.205994033813476562e+01 7.801819592714309692e-04 9.151987433433532715e-01 2.747936844825744629e-01 7.084517274051904678e-04
1.627000000000000000e+03 1.462180614471435547e+00 4.198282241821289062e+01 3.856005612760782242e-03 9.446877241134643555e-01 2.845631241798400879e-01 2.808559685945510864e-03
1.628000000000000000e+03 1.598234891891479492e+00 4.104172515869140625e+01 1.183327194303274155e-02 9.554628133773803711e-01 2.901888191699981689e-01 9.953218512237071991e-03
1.629000000000000000e+03 1.529432892799377441e+00 3.953157806396484375e+01 6.505747791379690170e-03 9.737460017204284668e-01 2.940755188465118408e-01 2.366085350513458252e-02
1.630000000000000000e+03 1.722817420959472656e+00 3.768618011474609375e+01 6.337388884276151657e-03 1.005778789520263672e+00 3.036348521709442139e-01 4.067511856555938721e-02
1.631000000000000000e+03 4.446602761745452881e-01 3.482194137573242188e+01 -8.898590749595314264e-05 1.072309970855712891e+00 3.216663002967834473e-01 1.790011115372180939e-02
1.632000000000000000e+03 1.339363455772399902e+00 3.395413589477539062e+01 6.556650623679161072e-03 1.111030936241149902e+00 3.352762758731842041e-01 5.976029857993125916e-02
1.633000000000000000e+03 1.360931992530822754e+00 3.233810806274414062e+01 3.942421637475490570e-03 1.179973840713500977e+00 3.551748991012573242e-01 6.981755048036575317e-02
1.634000000000000000e+03 1.330314517021179199e+00 3.071953582763671875e+01 3.079475136473774910e-03 1.258392214775085449e+00 3.784415125846862793e-01 7.885866612195968628e-02
1.635000000000000000e+03 1.253745913505554199e+00 2.912970161437988281e+01 9.978761663660407066e-04 1.348212599754333496e+00 4.047631323337554932e-01 8.173407614231109619e-02
1.636000000000000000e+03 1.224439859390258789e+00 2.756766891479492188e+01 4.438217147253453732e-04 1.440845012664794922e+00 4.323866665363311768e-01 8.355657011270523071e-02
1.637000000000000000e+03 2.209380149841308594e+00 2.605648612976074219e+01 -5.745858419686555862e-03 1.435142040252685547e+00 4.288188517093658447e-01 1.319751143455505371e-01
1.638000000000000000e+03 1.195105075836181641e+00 2.426049423217773438e+01 -9.845156222581863403e-03 1.631897330284118652e+00 4.866156578063964844e-01 7.277406007051467896e-02
1.639000000000000000e+03 3.971803784370422363e-01 2.196887397766113281e+01 -8.108978159725666046e-03 1.866305828094482422e+00 5.574590563774108887e-01 1.578042469918727875e-02
1.640000000000000000e+03 1.294340729713439941e+00 2.028720474243164062e+01 -1.524170953780412674e-02 1.728916883468627930e+00 5.141025185585021973e-01 7.302173413336277008e-03
1.641000000000000000e+03 1.187703490257263184e+00 1.948537826538085938e+01 -3.094635717570781708e-02 1.740582108497619629e+00 5.128906965255737305e-01 -1.803661696612834930e-02
1.642000000000000000e+03 1.097173094749450684e+00 1.792254257202148438e+01 -3.424848243594169617e-02 1.696011662483215332e+00 4.985289573669433594e-01 -7.254709303379058838e-02
1.643000000000000000e+03 3.892277181148529053e-01 1.316630840301513672e+01 2.705049235373735428e-03 9.781538844108581543e-01 2.942576706409454346e-01 -1.216753125190734863e-01
1.644000000000000000e+03 1.175202488899230957e+00 1.318299484252929688e+01 -5.008983612060546875e-02 9.527771472930908203e-01 2.708061933517456055e-01 -3.404194712638854980e-01
1.645000000000000000e+03 1.876757740974426270e+00 1.082352638244628906e+01 -3.955380618572235107e-02 4.077424705028533936e-01 1.104566007852554321e-01 -6.443779468536376953e-01
1.646000000000000000e+03 5.372625827789306641e+00 9.081758499145507812e+00 2.304734885692596436e-01 9.767062664031982422e-01 3.621539473533630371e-01 -1.444005608558654785e+00
1.647000000000000000e+03 7.210948944091796875e+00 7.430160522460937500e+00 1.215431809425354004e+00 1.529031991958618164e+00 8.233391642570495605e-01 -2.117725849151611328e+00
1.648000000000000000e+03 8.587326049804687500e+00 5.543255329132080078e+00 4.189445972442626953e+00 2.380727529525756836e+00 1.971051931381225586e+00 -2.290844440460205078e+00
1.649000000000000000e+03 9.229980468750000000e+00 3.439396381378173828e+00 3.952552318572998047e+00 1.932684302330017090e+00 1.765570998191833496e+00 8.172969222068786621e-01
1.650000000000000000e+03 1.136473274230957031e+01 2.883241653442382812e+00 2.746798992156982422e+00 3.723350763320922852e+00 1.941044926643371582e+00 -2.649082899093627930e+00
1.651000000000000000e+03 1.166279315948486328e+01 4.369093894958496094e+00 1.535805702209472656e+01 1.403933048248291016e+00 5.028596878051757812e+00 -2.639829397201538086e+00
1.652000000000000000e+03 3.791518807411193848e-01 1.156130695343017578e+01 5.451671313494443893e-03 4.124072194099426270e-01 1.253576725721359253e-01 -1.480449289083480835e-01
1.653000000000000000e+03 1.135934948921203613e+00 1.158405208587646484e+01 -3.476006910204887390e-02 4.995228946208953857e-01 1.394288390874862671e-01 -4.108190238475799561e-01
1.654000000000000000e+03 1.952866315841674805e+00 9.268168449401855469e+00 6.178227812051773071e-02 1.407260634005069733e-02 2.275646477937698364e-02 -6.402305364608764648e-01
1.655000000000000000e+03 6.217762947082519531e+00 3.678569555282592773e+00 1.818865656852722168e+00 -5.578430294990539551e-01 3.783067762851715088e-01 7.162014842033386230e-01
1.656000000000000000e+03 8.301756858825683594e+00 4.222128391265869141e+00 4.630002021789550781e+00 4.301294088363647461e-01 1.518039464950561523e+00 -1.173024922609329224e-01
1.657000000000000000e+03 9.644554138183593750e+00 1.819056749343872070e+00 -1.297695159912109375e+00 1.005040168762207031e+00 -8.779647201299667358e-02 4.509463906288146973e-01
1.658000000000000000e+03 1.040609455108642578e+01 1.797401189804077148e+00 -1.364931821823120117e+00 1.405192613601684570e+00 1.207824982702732086e-02 -3.374715447425842285e-01
1.659000000000000000e+03 3.799765706062316895e-01 9.956730842590332031e+00 1.079189497977495193e-02 -2.411789894104003906e-01 -6.911613047122955322e-02 -1.563387960195541382e-01
1.660000000000000000e+03 1.141448616981506348e+00 9.993341445922851562e+00 -1.649622921831905842e-03 -6.890645716339349747e-03 -2.562080509960651398e-03 -4.317720234394073486e-01
1.661000000000000000e+03 3.054145336151123047e+00 7.113808155059814453e+00 5.246883034706115723e-01 -1.745558381080627441e-01 1.050397455692291260e-01 -5.680701732635498047e-01
1.662000000000000000e+03 4.763580799102783203e+00 4.762862205505371094e+00 1.374133706092834473e+00 -4.877355694770812988e-01 2.659194171428680420e-01 1.149514019489288330e-01
1.663000000000000000e+03 6.009079933166503906e+00 3.090835332870483398e+00 1.010884284973144531e+00 -4.604758620262145996e-01 1.651225388050079346e-01 1.099367737770080566e+00
1.664000000000000000e+03 8.173924446105957031e+00 2.472938299179077148e+00 6.599731445312500000e-01 3.185340762138366699e-01 2.935521602630615234e-01 1.388297200202941895e+00
1.665000000000000000e+03 8.122270584106445312e+00 1.819883823394775391e+00 -1.147580027580261230e+00 1.814726442098617554e-01 -2.898322045803070068e-01 1.509882807731628418e+00
1.666000000000000000e+03 8.877045631408691406e+00 1.815498948097229004e+00 -1.303289890289306641e+00 6.961545348167419434e-01 -1.821406334638595581e-01 1.148134469985961914e+00
1.667000000000000000e+03 3.848266303539276123e-01 7.564027786254882812e+00 1.644667237997055054e-02 -1.055063724517822266e+00 -3.115851283073425293e-01 -9.200081974267959595e-02
1.668000000000000000e+03 1.163154244422912598e+00 7.630544662475585938e+00 8.849456906318664551e-02 -6.635808348655700684e-01 -1.725258827209472656e-01 -2.783310413360595703e-01
1.669000000000000000e+03 2.521079540252685547e+00 6.325427532196044922e+00 4.718795716762542725e-01 -4.605990350246429443e-01 3.384161042049527168e-03 -2.319823801517486572e-01
1.670000000000000000e+03 4.535585880279541016e+00 3.302952766418457031e+00 6.065558791160583496e-01 -4.903975427150726318e-01 3.484750166535377502e-02 8.461926579475402832e-01
1.671000000000000000e+03 5.894474506378173828e+00 2.467508316040039062e+00 2.178263850510120392e-02 -3.988855779170989990e-01 -1.131308823823928833e-01 1.251041889190673828e+00
1.672000000000000000e+03 6.590696334838867188e+00 1.820628762245178223e+00 -9.417187571525573730e-01 -2.310722470283508301e-01 -3.518373072147369385e-01 1.392404556274414062e+00
1.673000000000000000e+03 3.966982066631317139e-01 5.957867622375488281e+00 3.429627791047096252e-02 -1.245106697082519531e+00 -3.632431328296661377e-01 7.715355604887008667e-03
1.674000000000000000e+03 1.169079780578613281e+00 6.052272796630859375e+00 1.283142119646072388e-01 -8.727207183837890625e-01 -2.233219444751739502e-01 -3.343650326132774353e-02
1.675000000000000000e+03 2.936279296875000000e+00 3.420058012008666992e+00 2.426285743713378906e-01 -4.737290143966674805e-01 -6.933013349771499634e-02 6.129138469696044922e-01
1.676000000000000000e+03 4.288493156433105469e+00 1.861039400100708008e+00 -5.353235006332397461e-01 -2.409838736057281494e-01 -2.328922152519226074e-01 9.255440831184387207e-01
1.677000000000000000e+03 5.054780960083007812e+00 1.842618465423583984e+00 -7.061048150062561035e-01 -2.563163042068481445e-01 -2.887263298034667969e-01 1.065706610679626465e+00
1.678000000000000000e+03 4.382340610027313232e-01 4.337646961212158203e+00 2.177464589476585388e-02 -1.012979984283447266e+00 -2.973615825176239014e-01 1.060864254832267761e-01
1.679000000000000000e+03 2.108504056930541992e+00 3.496506690979003906e+00 1.219911277294158936e-01 -5.380700826644897461e-01 -1.248236820101737976e-01 4.970418512821197510e-01
1.680000000000000000e+03 2.738975286483764648e+00 1.893028974533081055e+00 -2.875732779502868652e-01 -2.309077829122543335e-01 -1.555443257093429565e-01 6.280748248100280762e-01
1.681000000000000000e+03 1.176844120025634766e+00 1.909274458885192871e+00 -8.399078994989395142e-02 -2.864968776702880859e-01 -1.111463010311126709e-01 3.098882734775543213e-01
1.682000000000000000e+03 4.077843129634857178e-01 2.716056823730468750e+00 -1.067639887332916260e-02 -5.131529569625854492e-01 -1.571488082408905029e-01 1.419312357902526855e-01
1.683000000000000000e+03 1.958151340484619141e+00 1.904383540153503418e+00 -1.814742535352706909e-01 -2.556107342243194580e-01 -1.311254948377609253e-01 4.665958881378173828e-01
1.684000000000000000e+03 1.719087600708007812e+01 3.772340536117553711e+00 1.262232398986816406e+01 1.324729681015014648e+00 4.184115886688232422e+00 -5.377600789070129395e-01
1.685000000000000000e+03 1.757715415954589844e+01 3.194449663162231445e+00 1.333606433868408203e+01 1.554012417793273926e+00 4.467022895812988281e+00 -2.908169507980346680e+00
1.686000000000000000e+03 1.930531311035156250e+01 1.658724427223205566e+00 1.064978241920471191e+00 -3.164387345314025879e-01 2.245618402957916260e-01 -3.160599768161773682e-01
1.687000000000000000e+03 2.039006614685058594e+01 1.699365735054016113e+00 2.513384342193603516e+00 2.263223648071289062e+00 1.432982444763183594e+00 -1.060639619827270508e+00
1.688000000000000000e+03 2.094178962707519531e+01 -8.033931255340576172e-02 5.167247653007507324e-01 3.077855110168457031e+00 1.078374028205871582e+00 -1.007815599441528320e+00
1.689000000000000000e+03 2.149797821044921875e+01 -6.823649406433105469e-01 6.742767691612243652e-01 4.363233566284179688e+00 1.511253118515014648e+00 -2.319370746612548828e+00
1.690000000000000000e+03 2.197601699829101562e+01 -1.385252714157104492e+00 1.811352014541625977e+00 5.239740848541259766e+00 2.115327835083007812e+00 -3.371010541915893555e+00
1.691000000000000000e+03 1.816657638549804688e+01 2.748223543167114258e+00 7.319655895233154297e+00 1.051633119583129883e+00 2.511386632919311523e+00 -2.944146394729614258e+00
1.692000000000000000e+03 2.476852798461914062e+01 -5.398888587951660156e+00 2.818630933761596680e+00 1.443738460540771484e+01 5.176804542541503906e+00 -5.433559417724609375e+00
1.693000000000000000e+03 2.643928527832031250e+01 -5.722189426422119141e+00 2.331161737442016602e+00 1.364196968078613281e+01 4.791939735412597656e+00 6.878422498703002930e-01
1.694000000000000000e+03 2.788967132568359375e+01 -8.701156616210937500e+00 3.174547910690307617e+00 9.297720909118652344e+00 3.741680622100830078e+00 -9.009582996368408203e-01
1.695000000000000000e+03 2.865920066833496094e+01 -1.057660961151123047e+01 1.389593958854675293e+00 6.959372043609619141e+00 2.504689693450927734e+00 -1.934639334678649902e+00
1.696000000000000000e+03 3.127857780456542969e+01 -1.096392154693603516e+01 9.966575503349304199e-01 3.434520006179809570e+00 1.329353213310241699e+00 -1.882492423057556152e+00
1.697000000000000000e+03 3.235208892822265625e+01 -1.376367378234863281e+01 2.504216730594635010e-01 3.200165748596191406e+00 1.035176277160644531e+00 -1.589298605918884277e+00
1.698000000000000000e+03 3.355996704101562500e+01 -1.516448688507080078e+01 1.114826202392578125e-01 2.725289344787597656e+00 8.510316014289855957e-01 -1.299732089042663574e+00
1.699000000000000000e+03 3.639782333374023438e+01 -1.750705528259277344e+01 8.880290985107421875e-01 1.938674449920654297e+00 8.480110764503479004e-01 -5.149846076965332031e-01
1.700000000000000000e+03 3.865646362304687500e+01 -1.799868583679199219e+01 1.153970003128051758e+00 2.768637895584106445e+00 1.176782369613647461e+00 1.207248687744140625e+00
1.701000000000000000e+03 2.574758148193359375e+01 -5.878492832183837891e+00 2.357144594192504883e+00 1.509678268432617188e+01 5.236178398132324219e+00 -1.190984606742858887e+00
1.702000000000000000e+03 2.537001037597656250e+01 -5.049685001373291016e+00 2.156119108200073242e+00 1.375094509124755859e+01 4.772119522094726562e+00 -1.961670398712158203e+00
1.703000000000000000e+03 2.530298805236816406e+01 -7.014559745788574219e+00 9.889496564865112305e-01 2.078122329711914062e+01 6.531051635742187500e+00 -1.327568292617797852e+00
1.704000000000000000e+03 2.628174591064453125e+01 -9.225080490112304688e+00 4.753394603729248047e+00 1.236315727233886719e+01 5.134965419769287109e+00 -1.146581023931503296e-02
1.705000000000000000e+03 2.514509963989257812e+01 -9.015763282775878906e+00 6.813228607177734375e+00 2.003668212890625000e+01 8.054972648620605469e+00 6.418371677398681641e+00
1.706000000000000000e+03 2.578697395324707031e+01 -9.751967430114746094e+00 1.442708849906921387e+00 1.274718570709228516e+01 4.256968498229980469e+00 -5.788699984550476074e-01
1.707000000000000000e+03 2.400264358520507812e+01 -9.405475616455078125e+00 4.662970542907714844e+00 2.004528760910034180e+00 2.000249862670898438e+00 3.706741571426391602e+00
1.708000000000000000e+03 2.328822708129882812e+01 -9.139731407165527344e+00 -9.118768572807312012e-01 -8.418193459510803223e-01 -5.261088609695434570e-01 7.245571613311767578e-01
1.709000000000000000e+03 2.257835006713867188e+01 -8.764651298522949219e+00 -1.471388339996337891e+00 -2.458712160587310791e-01 -5.151778459548950195e-01 1.192081093788146973e+00
1.710000000000000000e+03 2.154701805114746094e+01 -9.034907341003417969e+00 -4.195169210433959961e-01 -3.053052723407745361e-01 -2.174466550350189209e-01 5.917400121688842773e-01
1.711000000000000000e+03 2.088606452941894531e+01 -8.640810966491699219e+00 -9.940142631530761719e-01 -3.742454648017883301e-01 -4.104779064655303955e-01 3.336529731750488281e-01
1.712000000000000000e+03 1.949384117126464844e+01 -9.265011787414550781e+00 -2.895925939083099365e-01 1.407645940780639648e-01 -4.464839398860931396e-02 1.616182178258895874e-01
1.713000000000000000e+03 2.000300788879394531e+01 -1.072627925872802734e+01 8.464411497116088867e-01 2.815329730510711670e-01 3.383922278881072998e-01 5.726781487464904785e-01
1.714000000000000000e+03 1.991617393493652344e+01 -1.300317859649658203e+01 9.575755000114440918e-01 1.124346852302551270e+00 6.245766878128051758e-01 9.308832287788391113e-01
1.715000000000000000e+03 1.953498840332031250e+01 -1.359286499023437500e+01 8.554930090904235840e-01 1.230517148971557617e+00 6.258030533790588379e-01 9.446626305580139160e-01
1.716000000000000000e+03 1.962818336486816406e+01 -1.494759845733642578e+01 7.223477959632873535e-01 1.547991991043090820e+00 6.811019778251647949e-01 9.795532226562500000e-01
1.717000000000000000e+03 1.938864707946777344e+01 -1.623546600341796875e+01 5.394677519798278809e-01 1.735006809234619141e+00 6.823424100875854492e-01 8.931224942207336426e-01
1.718000000000000000e+03 2.055725669860839844e+01 -1.720989227294921875e+01 2.894393503665924072e-01 2.352973699569702148e+00 7.927238941192626953e-01 9.813609719276428223e-01
1.719000000000000000e+03 2.155456352233886719e+01 -1.831589889526367188e+01 2.454008162021636963e-02 2.775446653366088867e+00 8.399959802627563477e-01 8.428936004638671875e-01
1.720000000000000000e+03 2.200503730773925781e+01 -1.533953380584716797e+01 3.231148123741149902e-01 2.861919641494750977e+00 9.555103182792663574e-01 1.347249746322631836e+00
1.721000000000000000e+03 2.237635612487792969e+01 -1.368322849273681641e+01 5.890761613845825195e-01 3.021028041839599609e+00 1.083031296730041504e+00 1.815580010414123535e+00
1.722000000000000000e+03 2.194478416442871094e+01 -1.133427333831787109e+01 1.524035453796386719e+00 1.243409514427185059e+00 8.302335143089294434e-01 1.636962056159973145e+00
1.723000000000000000e+03 2.288034629821777344e+01 -9.861638069152832031e+00 2.792756080627441406e+00 -5.803997442126274109e-02 8.204148411750793457e-01 1.652782320976257324e+00
1.724000000000000000e+03 2.117549705505371094e+01 -9.703192710876464844e+00 1.573954075574874878e-01 -7.152985781431198120e-02 2.575966715812683105e-02 3.856305181980133057e-01
1.725000000000000000e+03 2.067774772644042969e+01 -1.032450199127197266e+01 9.561314582824707031e-01 4.022500291466712952e-02 2.989069223403930664e-01 3.789193332195281982e-01
1.726000000000000000e+03 1.988757896423339844e+01 -6.887477397918701172e+00 -8.595994710922241211e-01 -5.083334445953369141e-01 -4.103798568248748779e-01 7.087584137916564941e-01
1.727000000000000000e+03 1.824234771728515625e+01 -5.044803619384765625e+00 -5.265353322029113770e-01 -3.749016523361206055e-01 -2.704311013221740723e-01 4.041208326816558838e-01
1.728000000000000000e+03 1.768394660949707031e+01 -4.473084449768066406e+00 -4.081797301769256592e-01 -2.984857857227325439e-01 -2.119996547698974609e-01 3.768164813518524170e-01
1.729000000000000000e+03 1.658640289306640625e+01 -3.333442926406860352e+00 -2.715874314308166504e-01 -2.179495841264724731e-01 -1.468611061573028564e-01 2.543604075908660889e-01
1.730000000000000000e+03 1.565968132019042969e+01 -3.410266399383544922e+00 -2.906564772129058838e-01 -6.888888031244277954e-02 -1.078636050224304199e-01 1.809968203306198120e-01
1.731000000000000000e+03 2.553294754028320312e+01 -1.160204696655273438e+01 -5.531126260757446289e-01 9.286031723022460938e+00 2.619875907897949219e+00 1.166294574737548828e+00
1.732000000000000000e+03 2.720645332336425781e+01 -1.301745319366455078e+01 -5.010372996330261230e-01 7.234396934509277344e+00 2.020007848739624023e+00 -3.740050792694091797e-01
1.733000000000000000e+03 2.970508384704589844e+01 -1.564311218261718750e+01 -3.715782165527343750e-01 4.689531803131103516e+00 1.295386075973510742e+00 -1.273695349693298340e+00
1.734000000000000000e+03 3.073135375976562500e+01 -1.746954917907714844e+01 -2.639493346214294434e-01 3.979720830917358398e+00 1.114731431007385254e+00 -1.138921499252319336e+00
1.735000000000000000e+03 3.158351325988769531e+01 -1.840749549865722656e+01 -1.025537550449371338e-01 3.618001461029052734e+00 1.054634332656860352e+00 -1.030449986457824707e+00
1.736000000000000000e+03 3.163322067260742188e+01 -1.738781356811523438e+01 -4.906819760799407959e-02 3.657128095626831055e+00 1.082417964935302734e+00 -1.198114275932312012e+00
1.737000000000000000e+03 3.402391815185546875e+01 -1.776119613647460938e+01 2.745098173618316650e-01 2.803044557571411133e+00 9.232662916183471680e-01 -1.051472783088684082e+00
1.738000000000000000e+03 3.326668167114257812e+01 -1.756427001953125000e+01 2.121323645114898682e-01 3.078746795654296875e+00 9.872637987136840820e-01 -1.173222780227661133e+00
1.739000000000000000e+03 3.457508468627929688e+01 -1.629006958007812500e+01 8.129194378852844238e-02 2.465394973754882812e+00 7.640060782432556152e-01 -1.116425275802612305e+00
1.740000000000000000e+03 3.270540618896484375e+01 -1.544987201690673828e+01 5.569824483245611191e-03 3.185778617858886719e+00 9.574045538902282715e-01 -1.450080871582031250e+00
1.741000000000000000e+03 3.255370712280273438e+01 -1.455304813385009766e+01 1.815868318080902100e-01 3.179167032241821289e+00 1.008226156234741211e+00 -1.475054144859313965e+00
1.742000000000000000e+03 2.997382354736328125e+01 -1.383765697479248047e+01 -7.962036132812500000e-02 4.903185844421386719e+00 1.447069644927978516e+00 -1.659589648246765137e+00
1.743000000000000000e+03 2.885012435913085938e+01 -1.369103336334228516e+01 -3.235521316528320312e-01 5.814093112945556641e+00 1.647162318229675293e+00 -1.425660490989685059e+00
1.744000000000000000e+03 2.812331581115722656e+01 -1.502835178375244141e+01 -5.183071494102478027e-01 5.590961933135986328e+00 1.521796464920043945e+00 -7.687988281250000000e-01
1.745000000000000000e+03 7.599985504150390625e+01 9.403540611267089844e+00 -8.706602454185485840e-01 1.059483909606933594e+01 2.917253732681274414e+00 -1.378323078155517578e+00
1.746000000000000000e+03 7.190855407714843750e+01 1.097241592407226562e+01 1.107327103614807129e+00 2.005347251892089844e+00 9.338023066520690918e-01 -2.371017038822174072e-01
1.747000000000000000e+03 6.607791900634765625e+01 8.441383361816406250e+00 -3.256247937679290771e-02 1.253526115417480469e+01 3.750809669494628906e+00 1.968678832054138184e-01
1.748000000000000000e+03 6.499016571044921875e+01 8.684827804565429688e+00 2.162282228469848633e+00 1.129922676086425781e+01 4.038452625274658203e+00 4.066031455993652344e+00
1.749000000000000000e+03 6.507503509521484375e+01 6.490326404571533203e+00 -5.058349110186100006e-03 7.997022151947021484e+00 2.397589206695556641e+00 1.251303315162658691e+00
1.750000000000000000e+03 6.479685211181640625e+01 5.052003383636474609e+00 2.970561981201171875e-01 5.984803199768066406e+00 1.884557843208312988e+00 1.229217171669006348e+00
1.751000000000000000e+03 6.425762176513671875e+01 3.820902109146118164e+00 -2.733410596847534180e-01 4.903855323791503906e+00 1.389154314994812012e+00 1.772314548492431641e+00
1.752000000000000000e+03 7.730957794189453125e+01 3.423656702041625977e+00 -3.027533590793609619e-01 1.132015991210937500e+01 3.305222034454345703e+00 -2.475531101226806641e+00
1.753000000000000000e+03 7.569130706787109375e+01 3.454799413681030273e+00 5.278896093368530273e-01 1.167943191528320312e+01 3.662196636199951172e+00 1.187894582748413086e+00
1.754000000000000000e+03 7.662763977050781250e+01 3.846994161605834961e+00 5.328997969627380371e-01 1.210394954681396484e+01 3.791054964065551758e+00 -1.727182388305664062e+00
1.755000000000000000e+03 4.138015747070312500e+01 3.159623444080352783e-01 -6.621828079223632812e+00 -2.236920118331909180e+00 -2.657624483108520508e+00 -3.770693540573120117e+00
1.756000000000000000e+03 4.456577301025390625e+01 8.928017020225524902e-01 -2.867041110992431641e+00 2.971576213836669922e+00 3.136052936315536499e-02 1.390609622001647949e+00
1.757000000000000000e+03 4.891758346557617188e+01 8.267425894737243652e-01 5.745912790298461914e-01 3.037124156951904297e+00 1.083514571189880371e+00 2.673547744750976562e+00
1.758000000000000000e+03 4.912266921997070312e+01 2.199511528015136719e+00 1.391545057296752930e+00 3.888046503067016602e+00 1.583877444267272949e+00 2.050326347351074219e+00
1.759000000000000000e+03 4.813242721557617188e+01 1.170943155884742737e-01 -2.744873464107513428e-01 2.341016769409179688e+00 6.199588775634765625e-01 3.460480451583862305e+00
1.760000000000000000e+03 5.841884231567382812e+01 3.838064372539520264e-01 -4.053253173828125000e+00 -2.284422963857650757e-01 -1.284508585929870605e+00 -1.512296795845031738e+00
1.761000000000000000e+03 5.922544097900390625e+01 -1.474306344985961914e+00 -1.209247827529907227e+00 3.161155939102172852e+00 5.855724215507507324e-01 -9.119452834129333496e-01
1.762000000000000000e+03 6.201467132568359375e+01 -3.334559440612792969e+00 1.830692172050476074e+00 8.995846748352050781e+00 3.247961759567260742e+00 7.603985071182250977e-01
1.763000000000000000e+03 6.361510848999023438e+01 -3.116626024246215820e+00 3.422297954559326172e+00 1.378187465667724609e+01 5.161251544952392578e+00 4.727343082427978516e+00
1.764000000000000000e+03 6.049039077758789062e+01 2.195817470550537109e+00 -4.098558425903320312e+00 1.268214702606201172e+00 -8.491031527519226074e-01 -5.956775546073913574e-01
1.765000000000000000e+03 6.033864974975585938e+01 1.203423261642456055e+00 -4.514139652252197266e+00 2.565978288650512695e+00 -5.844484567642211914e-01 1.715993732213973999e-01
1.766000000000000000e+03 6.134422302246093750e+01 -1.513508915901184082e+00 -1.923859596252441406e+00 6.691375255584716797e+00 1.430254697799682617e+00 6.838920712471008301e-01
1.767000000000000000e+03 6.240195465087890625e+01 1.518930941820144653e-01 -3.769436120986938477e+00 6.523231506347656250e+00 8.261386156082153320e-01 2.645710945129394531e+00
1.768000000000000000e+03 6.367161560058593750e+01 -4.804062247276306152e-01 -3.892467498779296875e+00 6.624201774597167969e+00 8.195202350616455078e-01 4.762076377868652344e+00
1.769000000000000000e+03 6.710076141357421875e+01 -2.806523442268371582e-01 -2.286082983016967773e+00 3.685470819473266602e+00 4.198163151741027832e-01 1.250117659568786621e+00
1.770000000000000000e+03 6.882382202148437500e+01 -8.111029267311096191e-01 -3.460566520690917969e+00 5.512352466583251953e+00 6.155356764793395996e-01 -1.215830206871032715e+00
1.771000000000000000e+03 6.986997222900390625e+01 1.539829850196838379e+00 2.307226657867431641e-01 9.502612113952636719e+00 2.920000314712524414e+00 -3.093308925628662109e+00
1.772000000000000000e+03 7.195538330078125000e+01 -1.447070121765136719e+00 -1.916069269180297852e+00 3.699369907379150391e+00 5.349901914596557617e-01 -2.899226903915405273e+00
1.773000000000000000e+03 7.460240936279296875e+01 -2.157895565032958984e+00 -6.972031593322753906e-01 5.213209629058837891e+00 1.354802012443542480e+00 4.575635790824890137e-01
1.774000000000000000e+03 7.604688262939453125e+01 -4.574435710906982422e+00 -2.390488386154174805e-01 8.194818496704101562e+00 2.386730909347534180e+00 1.505792737007141113e+00
1.775000000000000000e+03 7.750843048095703125e+01 -6.304136753082275391e+00 2.304666861891746521e-02 9.303343772888183594e+00 2.797917366027832031e+00 1.634666681289672852e+00
1.776000000000000000e+03 7.890327453613281250e+01 -6.114514350891113281e+00 3.919734060764312744e-02 1.019446849822998047e+01 3.070099830627441406e+00 9.710137844085693359e-01
1.777000000000000000e+03 7.371530151367187500e+01 1.143049478530883789e+00 -7.118420124053955078e+00 -1.273142814636230469e+00 -2.517468929290771484e+00 -2.325705051422119141e+00
1.778000000000000000e+03 7.573886108398437500e+01 -3.426535129547119141e-01 -1.930975914001464844e+00 6.775865077972412109e+00 1.453466653823852539e+00 1.093769550323486328e+00
1.779000000000000000e+03 7.697870635986328125e+01 -2.852867126464843750e+00 -3.832519054412841797e-01 9.125372886657714844e+00 2.622636079788208008e+00 1.414196133613586426e+00
1.780000000000000000e+03 7.880876159667968750e+01 -4.509206295013427734e+00 1.642996072769165039e-02 1.117066001892089844e+01 3.356127023696899414e+00 1.006754279136657715e+00
1.781000000000000000e+03 7.150162506103515625e+01 2.168586701154708862e-01 -3.165088891983032227e+00 4.239935398101806641e+00 3.224539756774902344e-01 -4.275370597839355469e+00
1.782000000000000000e+03 7.403069305419921875e+01 2.192469313740730286e-03 -2.212945699691772461e+00 1.527278184890747070e+00 -2.057002633810043335e-01 -1.333600133657455444e-01
1.783000000000000000e+03 7.435773468017578125e+01 -1.085813879966735840e+00 -1.158441424369812012e+00 3.703810691833496094e+00 7.636107802391052246e-01 3.120362758636474609e-01
1.784000000000000000e+03 7.609447479248046875e+01 -2.595331907272338867e+00 -6.003824472427368164e-01 7.853672027587890625e+00 2.175986766815185547e+00 1.308230757713317871e+00
1.785000000000000000e+03 7.725249481201171875e+01 -4.952342510223388672e+00 -8.627371490001678467e-02 9.378177642822265625e+00 2.787570953369140625e+00 1.642225742340087891e+00
1.786000000000000000e+03 7.738946533203125000e+01 1.545411944389343262e+00 -1.907812714576721191e+00 1.091896152496337891e+01 2.703344583511352539e+00 -1.126181960105895996e+00
1.787000000000000000e+03 7.777503204345703125e+01 -3.136487007141113281e-01 -8.634777069091796875e-01 1.111772632598876953e+01 3.076274394989013672e+00 3.400535881519317627e-01
1.788000000000000000e+03 7.793396759033203125e+01 -1.556909203529357910e+00 -5.148733258247375488e-01 1.110050678253173828e+01 3.175689935684204102e+00 9.035056829452514648e-01
1.789000000000000000e+03 7.893167114257812500e+01 -2.878676176071166992e+00 -1.328569464385509491e-02 1.237797832489013672e+01 3.709407806396484375e+00 8.279967308044433594e-01
1.790000000000000000e+03 7.537708282470703125e+01 -8.892772197723388672e-01 -1.342053055763244629e+00 5.789824962615966797e+00 1.334331512451171875e+00 1.014239311218261719e+00
1.791000000000000000e+03 7.484886169433593750e+01 2.123464345932006836e+00 -2.618242502212524414e+00 1.171815991401672363e+00 -4.339279234409332275e-01 -8.389715552330017090e-01
1.792000000000000000e+03 7.488401794433593750e+01 1.116862058639526367e+00 -4.386111259460449219e+00 3.509594202041625977e+00 -2.629551589488983154e-01 2.078907042741775513e-01
1.793000000000000000e+03 7.871972656250000000e+01 -1.291693687438964844e+00 -2.173929959535598755e-01 1.265341567993164062e+01 3.730806827545166016e+00 5.536173582077026367e-01
1.794000000000000000e+03 6.681111145019531250e+01 4.374217510223388672e+00 1.352923989295959473e+00 8.385753631591796875e+00 2.921603441238403320e+00 -1.084691211581230164e-01
1.795000000000000000e+03 6.461656188964843750e+01 5.964981079101562500e+00 3.077423274517059326e-01 6.209789752960205078e+00 1.955259680747985840e+00 1.369036078453063965e+00
1.796000000000000000e+03 6.282937622070312500e+01 4.531837463378906250e+00 -1.045679375529289246e-01 2.673183917999267578e+00 7.705848217010498047e-01 1.102275133132934570e+00
1.797000000000000000e+03 6.236558532714843750e+01 2.758960962295532227e+00 -2.350225925445556641e+00 3.505529165267944336e+00 3.465909659862518311e-01 1.398078680038452148e+00
1.798000000000000000e+03 6.951587677001953125e+01 5.180056095123291016e+00 7.383169531822204590e-01 1.659639358520507812e+01 5.200412750244140625e+00 9.367684721946716309e-01
1.799000000000000000e+03 6.878903198242187500e+01 5.231107234954833984e+00 1.129026651382446289e+00 1.349977970123291016e+01 4.388641834259033203e+00 -1.385367751121520996e+00
1.800000000000000000e+03 6.753067016601562500e+01 6.008883476257324219e+00 3.924364745616912842e-01 1.064999198913574219e+01 3.312728643417358398e+00 -1.481611609458923340e+00
1.801000000000000000e+03 7.564999389648437500e+01 -2.029867887496948242e+00 -7.410309314727783203e-01 6.800040245056152344e+00 1.817702770233154297e+00 1.136193871498107910e+00
1.802000000000000000e+03 7.247565460205078125e+01 -2.884209871292114258e+00 -1.435932874679565430e+00 4.592501163482666016e+00 9.469704627990722656e-01 -1.381114482879638672e+00
1.803000000000000000e+03 7.351859283447265625e+01 -5.322088718414306641e+00 -6.536906957626342773e-01 6.763219356536865234e+00 1.832858681678771973e+00 3.595534265041351318e-01
1.804000000000000000e+03 7.590522766113281250e+01 -6.385408878326416016e+00 -7.691822946071624756e-02 8.462531089782714844e+00 2.515683889389038086e+00 1.697575211524963379e+00
1.805000000000000000e+03 7.808842468261718750e+01 -8.512785911560058594e+00 1.545797586441040039e-01 8.647112846374511719e+00 2.640507698059082031e+00 1.332342624664306641e+00
1.806000000000000000e+03 7.961703491210937500e+01 -8.442602157592773438e+00 2.392553724348545074e-02 8.486005783081054688e+00 2.552979469299316406e+00 3.479423224925994873e-01
1.807000000000000000e+03 7.421224975585937500e+01 -2.818511009216308594e+00 -7.060201764106750488e-01 5.254573822021484375e+00 1.364566087722778320e+00 1.937083005905151367e-01
1.808000000000000000e+03 7.082050323486328125e+01 -6.269932985305786133e-01 -3.137303113937377930e+00 4.990098476409912109e+00 5.558387041091918945e-01 -3.685396194458007812e+00
1.809000000000000000e+03 7.252689361572265625e+01 -1.591111898422241211e+00 -1.549779176712036133e+00 3.424133300781250000e+00 5.623062252998352051e-01 -2.215510129928588867e+00
1.810000000000000000e+03 6.985832214355468750e+01 -3.188845396041870117e+00 -3.180625677108764648e+00 3.946335315704345703e+00 2.297128289937973022e-01 -1.242875814437866211e+00
1.811000000000000000e+03 7.150645446777343750e+01 -5.267999172210693359e+00 -1.095386028289794922e+00 5.121641159057617188e+00 1.207876563072204590e+00 -8.255610466003417969e-01
1.812000000000000000e+03 7.362455749511718750e+01 -6.377789497375488281e+00 -4.280000925064086914e-01 7.599660873413085938e+00 2.151498317718505859e+00 6.446253657341003418e-01
1.813000000000000000e+03 7.530488586425781250e+01 -8.575242042541503906e+00 5.100927352905273438e-01 8.851313591003417969e+00 2.808421850204467773e+00 1.597129940986633301e+00
1.814000000000000000e+03 7.805263519287109375e+01 -1.016784000396728516e+01 2.561299502849578857e-01 8.003787040710449219e+00 2.477975130081176758e+00 1.064066886901855469e+00
1.815000000000000000e+03 7.886006927490234375e+01 -1.170263195037841797e+01 1.217433735728263855e-01 6.971198558807373047e+00 2.127882480621337891e+00 4.506363570690155029e-01
1.816000000000000000e+03 6.695210266113281250e+01 -1.882642745971679688e+00 -4.380726337432861328e+00 1.324389457702636719e+00 -9.169011116027832031e-01 4.957250356674194336e-01
1.817000000000000000e+03 6.028881072998046875e+01 -2.589884757995605469e+00 -9.113550931215286255e-02 5.721785068511962891e+00 1.689194917678833008e+00 -2.431070059537887573e-01
1.818000000000000000e+03 6.183737182617187500e+01 -1.028601884841918945e+00 -2.697925329208374023e+00 6.982807636260986328e+00 1.285464763641357422e+00 1.688738822937011719e+00
1.819000000000000000e+03 5.812375640869140625e+01 -3.669937849044799805e+00 1.166404113173484802e-01 4.534439086914062500e+00 1.395323872566223145e+00 -1.595728516578674316e+00
1.820000000000000000e+03 5.658900833129882812e+01 -2.438861370086669922e+00 -1.249806046485900879e+00 4.106289863586425781e+00 8.569452166557312012e-01 -3.572124958038330078e+00
1.821000000000000000e+03 5.642460632324218750e+01 -4.513496875762939453e+00 -7.463806867599487305e-01 5.089365005493164062e+00 1.302895307540893555e+00 -1.957607984542846680e+00
1.822000000000000000e+03 5.617861938476562500e+01 -5.065510272979736328e+00 -7.531663775444030762e-01 5.304583072662353516e+00 1.365424990653991699e+00 -1.648116827011108398e+00
1.823000000000000000e+03 5.705278778076171875e+01 -5.473765850067138672e+00 -1.351912617683410645e-01 5.537396430969238281e+00 1.620661616325378418e+00 -1.046146392822265625e+00
1.824000000000000000e+03 5.844194412231445312e+01 -6.069780349731445312e+00 5.982184410095214844e-01 6.283834457397460938e+00 2.064615964889526367e+00 -3.860759362578392029e-02
1.825000000000000000e+03 6.007035446166992188e+01 -6.909994125366210938e+00 1.010947346687316895e+00 7.920938968658447266e+00 2.679565906524658203e+00 1.124904870986938477e+00
1.826000000000000000e+03 5.452204513549804688e+01 -3.441062688827514648e+00 -2.809314250946044922e+00 5.713092327117919922e+00 8.711333870887756348e-01 -2.786043882369995117e+00
1.827000000000000000e+03 4.814285659790039062e+01 -1.312350153923034668e+00 -4.768576622009277344e-01 6.986849308013916016e-01 6.654817610979080200e-02 3.853294610977172852e+00
1.828000000000000000e+03 4.870318984985351562e+01 -1.807974696159362793e+00 -1.995707035064697266e+00 2.869851589202880859e-01 -5.126165747642517090e-01 2.869090795516967773e+00
1.829000000000000000e+03 4.428841781616210938e+01 -3.606319904327392578e+00 2.713004827499389648e+00 1.096865558624267578e+01 4.104497909545898438e+00 5.243862867355346680e-01
1.830000000000000000e+03 4.357000732421875000e+01 -3.468830823898315430e+00 2.248516321182250977e+00 8.577485084533691406e+00 3.247800588607788086e+00 5.427177548408508301e-01
1.831000000000000000e+03 4.116658020019531250e+01 -3.977764606475830078e+00 1.549011111259460449e+00 4.351393699645996094e+00 1.770121455192565918e+00 -1.923334240913391113e+00
1.832000000000000000e+03 3.911919403076171875e+01 -3.405761957168579102e+00 -1.118505239486694336e+00 4.436196804046630859e+00 9.953075051307678223e-01 -3.390657901763916016e+00
1.833000000000000000e+03 3.980752563476562500e+01 -1.395813703536987305e+00 -1.153607487678527832e+00 2.458777189254760742e+00 3.915508985519409180e-01 -6.518719196319580078e+00
1.834000000000000000e+03 4.001999664306640625e+01 -2.130755662918090820e+00 -1.966328173875808716e-01 2.569721698760986328e+00 7.119266390800476074e-01 -4.246653079986572266e+00
1.835000000000000000e+03 3.693092346191406250e+01 -4.145488739013671875e+00 -2.071264982223510742e+00 2.737363576889038086e+00 1.998295783996582031e-01 -5.226091742515563965e-01
1.836000000000000000e+03 3.747278594970703125e+01 -3.661053180694580078e+00 -2.163710832595825195e+00 3.937746047973632812e+00 5.322105288505554199e-01 -1.498015165328979492e+00
1.837000000000000000e+03 3.692277526855468750e+01 -1.622034668922424316e+00 -3.275178670883178711e+00 7.416469097137451172e+00 1.242387056350708008e+00 -1.184455513954162598e+00
1.838000000000000000e+03 3.480019760131835938e+01 -2.805129528045654297e+00 -4.487061977386474609e+00 -2.792282581329345703e+00 -2.183803319931030273e+00 3.301154136657714844e+00
1.839000000000000000e+03 4.156902313232421875e+01 -4.516633510589599609e+00 1.784765839576721191e+00 5.383727550506591797e+00 2.150547981262207031e+00 -1.196885824203491211e+00
1.840000000000000000e+03 4.435977172851562500e+01 -5.827956199645996094e+00 1.600066304206848145e+00 1.491405677795410156e+01 4.954236984252929688e+00 2.074894458055496216e-01
1.841000000000000000e+03 4.361047363281250000e+01 -5.508840560913085938e+00 2.436368703842163086e+00 1.131581592559814453e+01 4.125655174255371094e+00 1.481575608253479004e+00
1.842000000000000000e+03 5.837428283691406250e+01 -5.468125820159912109e+00 6.030759811401367188e-01 5.918687820434570312e+00 1.956529140472412109e+00 -3.355007171630859375e-01
1.843000000000000000e+03 6.055414581298828125e+01 -5.214119911193847656e+00 1.685916066169738770e+00 7.621387958526611328e+00 2.792191267013549805e+00 9.670042991638183594e-01
1.844000000000000000e+03 6.191078567504882812e+01 -5.088623523712158203e+00 2.276240110397338867e+00 1.007339382171630859e+01 3.704890012741088867e+00 1.867009878158569336e+00
1.845000000000000000e+03 6.811830902099609375e+01 -3.624471902847290039e+00 -3.351690292358398438e+00 1.105683207511901855e+00 -6.738020777702331543e-01 8.865900635719299316e-01
1.846000000000000000e+03 6.922367858886718750e+01 -3.707036972045898438e+00 -2.862148523330688477e+00 2.798067808151245117e+00 -1.922417059540748596e-02 -4.751312732696533203e-01
1.847000000000000000e+03 7.012477874755859375e+01 -5.849673748016357422e+00 -4.214680194854736328e-01 2.777555704116821289e+00 7.068263292312622070e-01 -9.081204533576965332e-01
1.848000000000000000e+03 7.228813171386718750e+01 -6.946307182312011719e+00 -3.228496015071868896e-01 7.118595123291015625e+00 2.038723707199096680e+00 -4.019641280174255371e-01
1.849000000000000000e+03 7.390221405029296875e+01 -7.214405536651611328e+00 -4.770860448479652405e-02 8.235925674438476562e+00 2.456465244293212891e+00 9.868625998497009277e-01
1.850000000000000000e+03 7.495464324951171875e+01 -1.033989429473876953e+01 9.460828900337219238e-01 9.397393226623535156e+00 3.103042840957641602e+00 1.207391738891601562e+00
1.851000000000000000e+03 7.811273193359375000e+01 -1.176943969726562500e+01 3.113482296466827393e-01 7.482098102569580078e+00 2.338033914566040039e+00 6.538821458816528320e-01
1.852000000000000000e+03 7.887060546875000000e+01 -1.328597450256347656e+01 1.177859529852867126e-01 6.606091976165771484e+00 2.017163276672363281e+00 1.417552530765533447e-01
1.853000000000000000e+03 7.205973052978515625e+01 -4.547859668731689453e+00 -1.342031717300415039e+00 5.255712985992431641e+00 1.174104332923889160e+00 -7.918361425399780273e-01
1.854000000000000000e+03 7.359138488769531250e+01 -4.212641716003417969e+00 -8.221387863159179688e-01 5.975445270538330078e+00 1.545992016792297363e+00 6.003897264599800110e-02
1.855000000000000000e+03 7.539174652099609375e+01 -3.405157804489135742e+00 -4.497773349285125732e-01 6.925691127777099609e+00 1.942774176597595215e+00 1.116683959960937500e+00
1.856000000000000000e+03 6.855081939697265625e+01 -5.183140754699707031e+00 -1.005914092063903809e+00 1.934670060873031616e-01 -2.437341362237930298e-01 3.587360084056854248e-01
1.857000000000000000e+03 7.118588256835937500e+01 -5.860379695892333984e+00 -7.234792113304138184e-01 4.810667037963867188e+00 1.226156353950500488e+00 -1.008419394493103027e+00
1.858000000000000000e+03 7.014251708984375000e+01 -6.900451183319091797e+00 7.674364447593688965e-01 2.385557651519775391e+00 9.458982348442077637e-01 -1.349731445312500000e+00
1.859000000000000000e+03 7.119210052490234375e+01 -8.115221023559570312e+00 1.589688062667846680e+00 6.428818702697753906e+00 2.405552148818969727e+00 -2.615702390670776367e+00
1.860000000000000000e+03 7.372406005859375000e+01 -9.908642768859863281e+00 1.166406154632568359e+00 1.019716930389404297e+01 3.409072637557983398e+00 6.759055256843566895e-01
1.861000000000000000e+03 7.509381103515625000e+01 -1.161035442352294922e+01 1.120172500610351562e+00 9.456988334655761719e+00 3.173148393630981445e+00 1.027175784111022949e+00
1.862000000000000000e+03 7.813764953613281250e+01 -1.331497383117675781e+01 3.015818595886230469e-01 7.172989845275878906e+00 2.242371559143066406e+00 2.245338261127471924e-01
1.863000000000000000e+03 7.883468627929687500e+01 -1.489756107330322266e+01 9.201804548501968384e-02 6.573308944702148438e+00 1.999598026275634766e+00 -1.382186710834503174e-01
1.864000000000000000e+03 7.544653320312500000e+01 -7.971187591552734375e+00 2.284807562828063965e-01 8.613288879394531250e+00 2.652530908584594727e+00 1.641241788864135742e+00
1.865000000000000000e+03 7.735155487060546875e+01 -7.693672657012939453e+00 1.510300338268280029e-01 8.891694068908691406e+00 2.712817192077636719e+00 1.658535838127136230e+00
1.866000000000000000e+03 6.910094451904296875e+01 -4.725883483886718750e+00 -1.699683427810668945e+00 1.660070300102233887e+00 -1.188392378389835358e-02 -7.632893323898315430e-02
1.867000000000000000e+03 7.356648254394531250e+01 -9.125294685363769531e+00 9.220954775810241699e-01 9.474029541015625000e+00 3.118837594985961914e+00 7.054332494735717773e-01
1.868000000000000000e+03 7.595680236816406250e+01 -8.622564315795898438e+00 4.240621924400329590e-01 8.719338417053222656e+00 2.743020057678222656e+00 1.679838180541992188e+00
1.869000000000000000e+03 7.805605316162109375e+01 -9.341999053955078125e+00 1.807519048452377319e-01 8.282491683959960938e+00 2.538973093032836914e+00 1.199113965034484863e+00
1.870000000000000000e+03 7.357659912109375000e+01 -1.118016624450683594e+01 1.163017749786376953e+00 1.114068508148193359e+01 3.691110849380493164e+00 5.386292338371276855e-01
1.871000000000000000e+03 7.808110809326171875e+01 -1.097815322875976562e+01 2.737676501274108887e-01 7.709023475646972656e+00 2.394837379455566406e+00 8.616807460784912109e-01
1.872000000000000000e+03 7.377182769775390625e+01 -1.404921722412109375e+01 1.679447174072265625e+00 1.082590675354003906e+01 3.751605987548828125e+00 8.904066085815429688e-01
1.873000000000000000e+03 7.813462066650390625e+01 -1.254426097869873047e+01 2.892186939716339111e-01 7.287032127380371094e+00 2.272875308990478516e+00 4.346902966499328613e-01
1.874000000000000000e+03 7.526759338378906250e+01 -1.364890289306640625e+01 1.205874681472778320e+00 9.172270774841308594e+00 3.113443851470947266e+00 4.778263568878173828e-01
1.875000000000000000e+03 7.219712829589843750e+01 -1.521391582489013672e+01 2.653753519058227539e+00 1.281462001800537109e+01 4.640511989593505859e+00 2.680942058563232422e+00
1.876000000000000000e+03 7.311234283447265625e+01 -1.502031898498535156e+01 1.725190758705139160e+00 1.111401748657226562e+01 3.851762533187866211e+00 5.816687345504760742e-01
1.877000000000000000e+03 7.589155578613281250e+01 -1.549956130981445312e+01 6.415438652038574219e-01 8.433559417724609375e+00 2.722530841827392578e+00 -2.084385454654693604e-01
1.878000000000000000e+03 7.641056823730468750e+01 -1.510809516906738281e+01 5.441511869430541992e-01 8.099427223205566406e+00 2.593073606491088867e+00 -1.280753463506698608e-01
1.879000000000000000e+03 5.754742431640625000e+01 -1.553631687164306641e+01 1.023863077163696289e+00 1.108082008361816406e+01 3.631404876708984375e+00 2.118843197822570801e-01
1.880000000000000000e+03 5.821353149414062500e+01 -1.412630176544189453e+01 7.399066686630249023e-01 9.763773918151855469e+00 3.151104211807250977e+00 3.480756282806396484e-01
1.881000000000000000e+03 5.912926483154296875e+01 -1.598323059082031250e+01 1.075476646423339844e+00 8.636728286743164062e+00 2.913661479949951172e+00 -6.452862918376922607e-02
1.882000000000000000e+03 5.956052398681640625e+01 -1.755558013916015625e+01 1.366587758064270020e+00 7.987524509429931641e+00 2.806233644485473633e+00 -5.362766385078430176e-01
1.883000000000000000e+03 5.970505905151367188e+01 -1.684005165100097656e+01 1.128610134124755859e+00 7.806891918182373047e+00 2.680650711059570312e+00 -4.561935961246490479e-01
1.884000000000000000e+03 6.201114654541015625e+01 -1.639258384704589844e+01 2.857764661312103271e-01 6.111292839050292969e+00 1.919120788574218750e+00 -8.262332081794738770e-01
1.885000000000000000e+03 6.363869094848632812e+01 -1.658355522155761719e+01 1.292067319154739380e-01 4.815940856933593750e+00 1.483544349670410156e+00 -9.765026569366455078e-01
1.886000000000000000e+03 6.552915954589843750e+01 -1.664400863647460938e+01 -2.122514843940734863e-01 3.078960895538330078e+00 8.600127696990966797e-01 -9.234492182731628418e-01
1.887000000000000000e+03 6.582464599609375000e+01 -1.720048713684082031e+01 -2.795097045600414276e-02 2.810450315475463867e+00 8.347498178482055664e-01 -9.188666343688964844e-01
1.888000000000000000e+03 7.371746826171875000e+01 -1.675604629516601562e+01 -4.227740764617919922e-01 9.310722351074218750e+00 2.666384458541870117e+00 2.958139479160308838e-01
1.889000000000000000e+03 7.741442108154296875e+01 -1.666743659973144531e+01 1.045372784137725830e-01 7.497714042663574219e+00 2.280675411224365234e+00 -4.486499428749084473e-01
1.890000000000000000e+03 6.728557586669921875e+01 -1.387153339385986328e+01 -1.169002294540405273e+00 -6.959126591682434082e-01 -5.594744682312011719e-01 1.044504404067993164e+00
1.891000000000000000e+03 6.713689422607421875e+01 -1.487531471252441406e+01 -1.162852525711059570e+00 3.512512445449829102e-01 -2.434803992509841919e-01 5.737771391868591309e-01
1.892000000000000000e+03 6.537094879150390625e+01 -1.514388084411621094e+01 -8.849337697029113770e-01 2.859308958053588867e+00 5.923125743865966797e-01 -5.901172161102294922e-01
1.893000000000000000e+03 6.378909683227539062e+01 -1.452209281921386719e+01 -4.759263396263122559e-01 4.766671180725097656e+00 1.287223458290100098e+00 -5.809736251831054688e-01
1.894000000000000000e+03 6.206237030029296875e+01 -1.510888290405273438e+01 -4.690159484744071960e-02 6.354770183563232422e+00 1.892360568046569824e+00 -4.187560975551605225e-01
1.895000000000000000e+03 5.961167144775390625e+01 -1.459916400909423828e+01 5.378486514091491699e-01 8.452936172485351562e+00 2.697235584259033203e+00 2.696582973003387451e-01
1.896000000000000000e+03 6.562958526611328125e+01 -1.315058803558349609e+01 -7.819333076477050781e-01 1.584330797195434570e+00 2.407192438840866089e-01 -2.037643492221832275e-01
1.897000000000000000e+03 6.389890670776367188e+01 -1.343733406066894531e+01 -6.565560102462768555e-01 4.773603916168212891e+00 1.235114455223083496e+00 -4.176958501338958740e-01
1.898000000000000000e+03 5.915621566772460938e+01 -1.371450614929199219e+01 5.099678039550781250e-01 8.898212432861328125e+00 2.822453975677490234e+00 5.502881407737731934e-01
1.899000000000000000e+03 5.776366806030273438e+01 -1.325093269348144531e+01 5.884038805961608887e-01 9.909029960632324219e+00 3.149230241775512695e+00 2.864623963832855225e-01
1.900000000000000000e+03 6.451483154296875000e+01 -1.298560714721679688e+01 -7.983214259147644043e-01 3.800896644592285156e+00 9.007725119590759277e-01 -5.059707760810852051e-01
1.901000000000000000e+03 6.428396606445312500e+01 -1.023229408264160156e+01 7.757855653762817383e-01 5.904921054840087891e+00 2.004211902618408203e+00 -1.791544198989868164e+00
1.902000000000000000e+03 5.959717941284179688e+01 -9.494907379150390625e+00 2.965087294578552246e-01 8.216567039489746094e+00 2.553922891616821289e+00 1.224989175796508789e+00
1.903000000000000000e+03 6.238370132446289062e+01 -1.142662811279296875e+01 -4.402465820312500000e-01 7.385482788085937500e+00 2.083570957183837891e+00 4.330686926841735840e-01
1.904000000000000000e+03 6.010971450805664062e+01 -1.158088207244873047e+01 8.562023751437664032e-03 8.356385231018066406e+00 2.509484291076660156e+00 1.033724784851074219e+00
1.905000000000000000e+03 5.873166656494140625e+01 -1.226524162292480469e+01 3.691937029361724854e-01 8.910243988037109375e+00 2.783831357955932617e+00 7.369782328605651855e-01
1.906000000000000000e+03 6.223370361328125000e+01 -9.194986343383789062e+00 3.364565968513488770e-01 8.888525009155273438e+00 2.767494440078735352e+00 6.408275365829467773e-01
1.907000000000000000e+03 6.030411911010742188e+01 -9.784977912902832031e+00 2.303551882505416870e-01 8.374725341796875000e+00 2.581524133682250977e+00 1.271960139274597168e+00
1.908000000000000000e+03 5.778095626831054688e+01 -1.104094696044921875e+01 3.186169564723968506e-01 8.730818748474121094e+00 2.714830875396728516e+00 5.086917281150817871e-01
1.909000000000000000e+03 5.708480072021484375e+01 -9.603549003601074219e+00 2.236794382333755493e-01 7.701157569885253906e+00 2.377451181411743164e+00 9.380996227264404297e-02
1.910000000000000000e+03 5.819148635864257812e+01 -8.383996009826660156e+00 3.161326050758361816e-01 7.380622386932373047e+00 2.309026479721069336e+00 5.951975584030151367e-01
1.911000000000000000e+03 5.698160934448242188e+01 -8.617436408996582031e+00 1.606936901807785034e-01 7.062978267669677734e+00 2.167101621627807617e+00 3.856392204761505127e-02
1.912000000000000000e+03 6.206235122680664062e+01 -6.581216812133789062e+00 8.574811220169067383e-01 1.079078960418701172e+01 3.494481325149536133e+00 1.085230708122253418e+00
1.913000000000000000e+03 5.619535064697265625e+01 -7.115816593170166016e+00 -2.031891644001007080e-01 5.975357532501220703e+00 1.731650471687316895e+00 -6.775463223457336426e-01
1.914000000000000000e+03 4.479690933227539062e+01 1.262180328369140625e+01 6.486473232507705688e-02 6.310155242681503296e-02 3.838988766074180603e-02 1.237557157874107361e-01
1.915000000000000000e+03 4.331924057006835938e+01 1.455691814422607422e+01 7.019792199134826660e-01 2.158394098281860352e+00 8.581120371818542480e-01 1.833167314529418945e+00
1.916000000000000000e+03 4.274769973754882812e+01 1.483281993865966797e+01 7.670457959175109863e-01 2.796924114227294922e+00 1.069190979003906250e+00 2.195229291915893555e+00
1.917000000000000000e+03 4.078306198120117188e+01 1.718291282653808594e+01 -5.584764480590820312e-01 5.339386940002441406e+00 1.434273123741149902e+00 1.951043367385864258e+00
1.918000000000000000e+03 3.910956192016601562e+01 1.992120170593261719e+01 -9.955112338066101074e-01 4.857608795166015625e+00 1.158629298210144043e+00 2.937178611755371094e-01
1.919000000000000000e+03 3.679429244995117188e+01 2.005667114257812500e+01 -9.874440431594848633e-01 4.249242305755615234e+00 9.785394668579101562e-01 -6.198594570159912109e-01
1.920000000000000000e+03 3.438540649414062500e+01 2.297828102111816406e+01 -3.385261893272399902e-01 3.025108814239501953e+00 8.059747815132141113e-01 -3.122989237308502197e-01
1.921000000000000000e+03 3.324038314819335938e+01 2.543342208862304688e+01 -3.296135365962982178e-01 2.954968214035034180e+00 7.876064181327819824e-01 -1.649015694856643677e-01
1.922000000000000000e+03 3.276473999023437500e+01 2.698653411865234375e+01 -3.207545876502990723e-01 2.938305616378784180e+00 7.852652668952941895e-01 -1.575062721967697144e-01
1.923000000000000000e+03 3.112360954284667969e+01 2.866859436035156250e+01 -2.967979609966278076e-01 2.746229887008666992e+00 7.348296046257019043e-01 -1.885171383619308472e-01
1.924000000000000000e+03 2.910595130920410156e+01 2.998316192626953125e+01 -2.683541178703308105e-01 2.514132022857666016e+00 6.737333536148071289e-01 -2.390922158956527710e-01
1.925000000000000000e+03 2.804660224914550781e+01 3.184165382385253906e+01 -1.760415583848953247e-01 2.340456962585449219e+00 6.493246555328369141e-01 -2.269171923398971558e-01
1.926000000000000000e+03 2.294889450073242188e+01 3.235638046264648438e+01 -8.578727953135967255e-03 1.659769296646118164e+00 4.953571557998657227e-01 -2.503654360771179199e-01
1.927000000000000000e+03 4.302690124511718750e+01 1.606456947326660156e+01 5.063817501068115234e-01 3.085903882980346680e+00 1.077685713768005371e+00 2.028290748596191406e+00
1.928000000000000000e+03 4.157064819335937500e+01 1.705487060546875000e+01 -1.835070699453353882e-01 4.629454612731933594e+00 1.333784222602844238e+00 2.090898513793945312e+00
1.929000000000000000e+03 4.195708084106445312e+01 1.876046562194824219e+01 -2.765109539031982422e-01 4.342730045318603516e+00 1.219865679740905762e+00 1.399294137954711914e+00
1.930000000000000000e+03 4.147209548950195312e+01 1.989021873474121094e+01 -4.638352990150451660e-01 4.445930480957031250e+00 1.194628477096557617e+00 9.444250464439392090e-01
1.931000000000000000e+03 4.069498062133789062e+01 2.012487220764160156e+01 -6.429882645606994629e-01 4.621588230133056641e+00 1.193580031394958496e+00 7.425677776336669922e-01
1.932000000000000000e+03 4.076710510253906250e+01 2.217960166931152344e+01 -4.808436334133148193e-01 4.252883911132812500e+00 1.131612062454223633e+00 3.504910469055175781e-01
1.933000000000000000e+03 3.793102264404296875e+01 2.538960075378417969e+01 -4.261620640754699707e-01 3.734185218811035156e+00 9.924069643020629883e-01 -8.763903379440307617e-02
1.934000000000000000e+03 3.667311096191406250e+01 2.655350875854492188e+01 -3.579008579254150391e-01 3.481962203979492188e+00 9.372184276580810547e-01 -1.419128626585006714e-01
1.935000000000000000e+03 3.508361053466796875e+01 2.743653869628906250e+01 -3.202429115772247314e-01 3.254010200500488281e+00 8.801302313804626465e-01 -1.448111832141876221e-01
1.936000000000000000e+03 2.984044647216796875e+01 3.248786544799804688e+01 -1.766144037246704102e-01 2.564566612243652344e+00 7.163856625556945801e-01 -2.025506049394607544e-01
1.937000000000000000e+03 2.716619300842285156e+01 3.405485153198242188e+01 -8.342067897319793701e-02 2.245545864105224609e+00 6.486375927925109863e-01 -1.746563911437988281e-01
1.938000000000000000e+03 3.059432601928710938e+01 3.050304222106933594e+01 -2.534204721450805664e-01 2.643569469451904297e+00 7.170447111129760742e-01 -2.151075452566146851e-01
1.939000000000000000e+03 3.237693405151367188e+01 3.091794204711914062e+01 -2.359656691551208496e-01 2.849061727523803711e+00 7.839288711547851562e-01 -1.750738173723220825e-01
1.940000000000000000e+03 4.174135589599609375e+01 1.425148487091064453e+01 1.052676558494567871e+00 3.645044088363647461e+00 1.409316182136535645e+00 2.706485271453857422e+00
1.941000000000000000e+03 4.205775833129882812e+01 1.383231639862060547e+01 1.196895718574523926e+00 2.973673582077026367e+00 1.251170754432678223e+00 2.412911415100097656e+00
1.942000000000000000e+03 4.073196029663085938e+01 1.172039222717285156e+01 2.438945293426513672e+00 3.981986761093139648e+00 1.926279664039611816e+00 2.462504148483276367e+00
1.943000000000000000e+03 4.153303909301757812e+01 9.074920654296875000e+00 -4.049642682075500488e-01 -2.250404655933380127e-01 -1.890014261007308960e-01 -5.238099694252014160e-01
1.944000000000000000e+03 4.096153259277343750e+01 9.495997428894042969e+00 5.311651229858398438e-01 2.147681713104248047e+00 8.036540746688842773e-01 5.944175720214843750e-01
1.945000000000000000e+03 3.979185104370117188e+01 1.545142555236816406e+01 -4.358242452144622803e-01 6.978549003601074219e+00 1.962817311286926270e+00 2.694940328598022461e+00
1.946000000000000000e+03 3.901037216186523438e+01 1.538706302642822266e+01 -9.097918272018432617e-01 8.168594360351562500e+00 2.177640914916992188e+00 2.297100067138671875e+00
1.947000000000000000e+03 3.990260696411132812e+01 1.372037601470947266e+01 1.370313405990600586e+00 6.862859249114990234e+00 2.469951868057250977e+00 3.391308784484863281e+00
1.948000000000000000e+03 4.003389358520507812e+01 1.286932849884033203e+01 2.312419891357421875e+00 6.110826492309570312e+00 2.526973962783813477e+00 3.389558792114257812e+00
1.949000000000000000e+03 3.919526290893554688e+01 1.211980438232421875e+01 3.362084865570068359e+00 8.448695182800292969e+00 3.543234109878540039e+00 3.275555372238159180e+00
1.950000000000000000e+03 3.391204452514648438e+01 1.558106040954589844e+01 -1.442707300186157227e+00 -3.449231982231140137e-01 -5.362891554832458496e-01 -1.943556547164916992e+00
1.951000000000000000e+03 3.459101867675781250e+01 1.523905944824218750e+01 -1.345373630523681641e+00 1.525957286357879639e-01 -3.578333854675292969e-01 -2.811526536941528320e+00
1.952000000000000000e+03 3.362719726562500000e+01 1.678327751159667969e+01 -3.670479357242584229e-01 4.567053020000457764e-01 2.689720503985881805e-02 -1.638080954551696777e+00
1.953000000000000000e+03 3.428255462646484375e+01 1.633973121643066406e+01 -8.705675601959228516e-01 9.780569672584533691e-01 3.224681317806243896e-02 -2.384768486022949219e+00
1.954000000000000000e+03 3.530179977416992188e+01 1.649710464477539062e+01 -1.579796910285949707e+00 3.560483455657958984e+00 5.942059755325317383e-01 -2.510513067245483398e+00
1.955000000000000000e+03 3.551822280883789062e+01 1.840206718444824219e+01 -9.323354363441467285e-01 3.563320159912109375e+00 7.892954349517822266e-01 -1.546331524848937988e+00
1.956000000000000000e+03 3.492589187622070312e+01 1.896651077270507812e+01 -5.804795026779174805e-01 2.885627269744873047e+00 6.915443539619445801e-01 -1.171212553977966309e+00
1.957000000000000000e+03 3.377343368530273438e+01 1.872967338562011719e+01 -1.590486466884613037e-01 1.795575618743896484e+00 4.909580945968627930e-01 -9.813550710678100586e-01
1.958000000000000000e+03 3.334729003906250000e+01 2.089002227783203125e+01 -1.268306225538253784e-01 2.400744915008544922e+00 6.821742653846740723e-01 -3.902066946029663086e-01
1.959000000000000000e+03 3.449605941772460938e+01 2.061968231201171875e+01 -3.646648526191711426e-01 2.853102922439575195e+00 7.465314269065856934e-01 -6.565562486648559570e-01
1.960000000000000000e+03 3.231660079956054688e+01 1.478633499145507812e+01 -2.606891155242919922e+00 -1.617645263671875000e+00 -1.267360925674438477e+00 -1.098020672798156738e+00
1.961000000000000000e+03 3.106977272033691406e+01 1.576211452484130859e+01 -4.725188910961151123e-01 -7.236434221267700195e-01 -3.588486909866333008e-01 1.916791498661041260e-01
1.962000000000000000e+03 2.884007072448730469e+01 1.618791580200195312e+01 9.437497258186340332e-01 1.931210041046142578e+00 8.624879121780395508e-01 1.940374612808227539e+00
1.963000000000000000e+03 2.790409088134765625e+01 1.546378707885742188e+01 1.834683179855346680e+00 3.319277524948120117e+00 1.546188235282897949e+00 1.923920750617980957e+00
1.964000000000000000e+03 2.712197685241699219e+01 1.335985660552978516e+01 1.337614357471466064e-01 4.860234737396240234e+00 1.498198866844177246e+00 -2.456749379634857178e-01
1.965000000000000000e+03 3.172281837463378906e+01 1.322761631011962891e+01 -5.564967155456542969e+00 -2.652953624725341797e+00 -2.465376138687133789e+00 -3.518973112106323242e+00
1.966000000000000000e+03 4.194393157958984375e+01 1.290448188781738281e+01 1.556623101234436035e+00 2.509278297424316406e+00 1.219770431518554688e+00 2.232058763504028320e+00
1.967000000000000000e+03 4.309752655029296875e+01 1.091693782806396484e+01 7.245779270306229591e-04 -3.823494911193847656e-01 -1.144874691963195801e-01 -1.864478290081024170e-01
1.968000000000000000e+03 3.905622100830078125e+01 1.447028827667236328e+01 8.091425150632858276e-02 8.751570701599121094e+00 2.649745702743530273e+00 3.090932846069335938e+00
1.969000000000000000e+03 3.771720123291015625e+01 8.000254631042480469e+00 -8.806005716323852539e-01 1.247304439544677734e+01 3.477733373641967773e+00 1.563115358352661133e+00
1.970000000000000000e+03 3.708632659912109375e+01 6.398198604583740234e+00 -1.189896941184997559e+00 1.211453819274902344e+01 3.277392387390136719e+00 1.712390184402465820e+00
1.971000000000000000e+03 3.746801376342773438e+01 4.837630271911621094e+00 1.253103371709585190e-02 1.283588314056396484e+01 3.854524374008178711e+00 2.007565975189208984e+00
1.972000000000000000e+03 3.778882598876953125e+01 2.064026355743408203e+00 2.517471313476562500e+00 2.537297630310058594e+01 8.367134094238281250e+00 3.779294788837432861e-01
1.973000000000000000e+03 3.717692947387695312e+01 8.587195396423339844e+00 -6.095363292843103409e-03 1.366490745544433594e+01 4.097643375396728516e+00 1.938981294631958008e+00
1.974000000000000000e+03 3.937693023681640625e+01 8.645944595336914062e+00 -3.057062067091464996e-02 8.042989730834960938e+00 2.403725624084472656e+00 7.671425938606262207e-01
1.975000000000000000e+03 3.826418685913085938e+01 9.634141921997070312e+00 1.726161241531372070e+00 1.231606006622314453e+01 4.212666511535644531e+00 1.135317087173461914e+00
1.976000000000000000e+03 3.598713684082031250e+01 7.443284988403320312e+00 -5.963500738143920898e-01 1.108748817443847656e+01 3.147341489791870117e+00 3.067938566207885742e+00
1.977000000000000000e+03 3.712323760986328125e+01 7.467908859252929688e+00 -1.230459690093994141e+00 1.249696636199951172e+01 3.379951953887939453e+00 1.816734671592712402e+00
1.978000000000000000e+03 3.242458343505859375e+01 6.572849750518798828e+00 -2.252080440521240234e-01 5.093201398849487305e-01 8.523362874984741211e-02 2.772089838981628418e-01
1.979000000000000000e+03 3.802566909790039062e+01 4.548463821411132812e+00 7.644354701042175293e-01 1.329830932617187500e+01 4.218823432922363281e+00 3.053958892822265625e+00
1.980000000000000000e+03 3.052523422241210938e+01 5.098688125610351562e+00 -2.024025440216064453e+00 -4.313517808914184570e-01 -7.366131544113159180e-01 -1.018747091293334961e+00
1.981000000000000000e+03 2.989088630676269531e+01 4.618735790252685547e+00 -3.154746770858764648e+00 -9.209257364273071289e-01 -1.222701668739318848e+00 -1.802327990531921387e+00
1.982000000000000000e+03 3.057059478759765625e+01 2.966605424880981445e+00 -1.990944266319274902e+00 3.641153097152709961e+00 4.950626790523529053e-01 2.793109655380249023e+00
1.983000000000000000e+03 3.260539627075195312e+01 4.793671131134033203e+00 2.489311695098876953e-01 2.603430986404418945e+00 8.557085990905761719e-01 1.779111504554748535e+00
1.984000000000000000e+03 3.303665924072265625e+01 4.194170951843261719e+00 1.102527737617492676e+00 3.369389772415161133e+00 1.341575264930725098e+00 2.475639820098876953e+00
1.985000000000000000e+03 3.610301589965820312e+01 4.167778968811035156e+00 1.570399641990661621e+00 9.978155136108398438e+00 3.464566469192504883e+00 1.039858460426330566e+00
1.986000000000000000e+03 3.729609680175781250e+01 3.155904054641723633e+00 2.448254108428955078e+00 1.588704299926757812e+01 5.500589370727539062e+00 8.220750689506530762e-01
1.987000000000000000e+03 2.646347045898437500e+01 2.460803031921386719e+00 -9.598018646240234375e+00 -1.723002791404724121e+00 -3.396306514739990234e+00 -3.818042278289794922e+00
1.988000000000000000e+03 3.138867568969726562e+01 1.517078280448913574e+00 2.357646226882934570e+00 5.005608558654785156e+00 2.208976507186889648e+00 7.238245487213134766e+00
1.989000000000000000e+03 3.629401397705078125e+01 1.576665163040161133e+00 5.580984115600585938e+00 1.015108299255371094e+01 4.719620227813720703e+00 2.003400772809982300e-01
1.990000000000000000e+03 3.571530914306640625e+01 1.159755706787109375e+00 4.970154762268066406e+00 5.685678482055664062e+00 3.196749925613403320e+00 1.484048604965209961e+00
1.991000000000000000e+03 1.982229042053222656e+01 2.104244709014892578e+00 4.113351345062255859e+00 4.551713764667510986e-01 1.370556831359863281e+00 -8.312644958496093750e-01
1.992000000000000000e+03 2.315945625305175781e+01 7.770195007324218750e-01 -1.285153627395629883e+00 1.076034259796142578e+01 2.842556715011596680e+00 -4.500929832458496094e+00
1.993000000000000000e+03 2.490533638000488281e+01 3.073140084743499756e-01 1.364664316177368164e+00 3.448402643203735352e+00 1.443920016288757324e+00 -5.409082889556884766e+00
1.994000000000000000e+03 2.553666687011718750e+01 5.391879081726074219e-01 1.256908059120178223e+00 1.471961855888366699e+00 8.186609745025634766e-01 -4.743963241577148438e+00
1.995000000000000000e+03 2.778679466247558594e+01 -1.100972965359687805e-01 4.261394023895263672e+00 3.031232833862304688e+00 2.187788009643554688e+00 -6.092575564980506897e-02
1.996000000000000000e+03 2.709762382507324219e+01 1.731419116258621216e-01 3.216513395309448242e+00 1.650696039199829102e+00 1.460162878036499023e+00 -1.067131400108337402e+00
1.997000000000000000e+03 3.399407958984375000e+01 -2.302046269178390503e-01 2.544526100158691406e+00 -1.291779041290283203e+00 3.758241534233093262e-01 2.314864873886108398e+00
1.998000000000000000e+03 3.408512496948242188e+01 -1.231155395507812500e+00 -2.344049453735351562e+00 -1.879536986351013184e+00 -1.267075896263122559e+00 2.876509904861450195e+00
1.999000000000000000e+03 1.956953620910644531e+01 3.642237186431884766e+00 7.536261081695556641e+00 -2.240266948938369751e-01 2.193670272827148438e+00 5.350613966584205627e-02
2.000000000000000000e+03 1.782830619812011719e+01 4.886660099029541016e+00 5.105932712554931641e+00 -1.793207526206970215e-01 1.477983593940734863e+00 4.325447082519531250e-01
2.001000000000000000e+03 1.943939208984375000e+01 5.053252220153808594e+00 4.803604602813720703e+00 6.585755348205566406e-01 1.638653993606567383e+00 1.016865000128746033e-01
2.002000000000000000e+03 1.683945846557617188e+01 5.346140861511230469e+00 1.062837004661560059e+00 -9.659880399703979492e-01 2.905467525124549866e-02 -1.726247072219848633e+00
2.003000000000000000e+03 1.601676940917968750e+01 4.966657638549804688e+00 2.890908241271972656e+00 -1.748495221138000488e+00 3.427239358425140381e-01 -2.429044008255004883e+00
2.004000000000000000e+03 1.479710197448730469e+01 5.900131225585937500e+00 -5.696243286132812500e+00 -3.213175773620605469e+00 -2.672825813293457031e+00 -4.380919456481933594e+00
2.005000000000000000e+03 1.018323040008544922e+01 5.412162780761718750e+00 5.732172489166259766e+00 1.186166477203369141e+01 5.278151512145996094e+00 -5.381554126739501953e+00
2.006000000000000000e+03 7.800458431243896484e+00 5.031083106994628906e+00 4.081320285797119141e+00 4.341105818748474121e-01 1.354629278182983398e+00 -1.042237520217895508e+00
2.007000000000000000e+03 5.869453907012939453e+00 4.483837604522705078e+00 1.981451392173767090e+00 -4.774897098541259766e-01 4.511885344982147217e-01 1.186255812644958496e-01
2.008000000000000000e+03 3.882241010665893555e+00 4.058278560638427734e+00 7.238180637359619141e-01 -5.109450817108154297e-01 6.386189162731170654e-02 5.003032684326171875e-01
2.009000000000000000e+03 3.073960781097412109e+00 4.125699520111083984e+00 4.741085171699523926e-01 -5.430144667625427246e-01 -2.067177370190620422e-02 4.613530635833740234e-01
2.010000000000000000e+03 2.023042917251586914e+00 2.705586433410644531e+00 -2.351543307304382324e-02 -4.082104563713073730e-01 -1.295177638530731201e-01 5.366137027740478516e-01
2.011000000000000000e+03 5.292390346527099609e+00 3.212146997451782227e+00 7.577080130577087402e-01 -5.316493511199951172e-01 6.781760603189468384e-02 9.490756392478942871e-01
2.012000000000000000e+03 5.149608612060546875e+00 2.527300119400024414e+00 7.197988778352737427e-02 -3.954350352287292480e-01 -9.703654795885086060e-02 1.119979500770568848e+00
2.013000000000000000e+03 7.426106929779052734e+00 2.505701780319213867e+00 5.022203326225280762e-01 -1.698673516511917114e-01 9.970589727163314819e-02 1.424689769744873047e+00
2.014000000000000000e+03 8.553610801696777344e+00 3.048089027404785156e+00 2.533509969711303711e+00 8.350495100021362305e-01 1.010567784309387207e+00 1.063420295715332031e+00
2.015000000000000000e+03 2.229973793029785156e+01 7.311790943145751953e+00 -6.123324036598205566e-01 7.785434246063232422e+00 2.151930570602416992e+00 1.144677639007568359e+00
2.016000000000000000e+03 2.394399833679199219e+01 6.163693428039550781e+00 4.039432048797607422e+00 1.146045398712158203e+01 4.649965763092041016e+00 6.482529163360595703e+00
2.017000000000000000e+03 2.105740165710449219e+01 8.812280654907226562e+00 -4.063753604888916016e+00 1.962237119674682617e+00 -6.304550170898437500e-01 -1.151937007904052734e+00
2.018000000000000000e+03 2.395428657531738281e+01 1.003852176666259766e+01 -3.932496309280395508e+00 7.496543407440185547e+00 1.069214224815368652e+00 1.633420586585998535e+00
2.019000000000000000e+03 2.556377601623535156e+01 1.255981445312500000e+01 -1.253322362899780273e+00 9.500071525573730469e+00 2.474024772644042969e+00 8.612637519836425781e-01
2.020000000000000000e+03 2.233861351013183594e+01 1.065454483032226562e+01 -3.538779973983764648e+00 2.747721433639526367e+00 -2.373175919055938721e-01 9.655483067035675049e-02
2.021000000000000000e+03 2.800657272338867188e+01 1.018827056884765625e+01 -3.275132417678833008e+00 -1.268246293067932129e+00 -1.363013625144958496e+00 -2.379077196121215820e+00
2.022000000000000000e+03 7.603240966796875000e+01 1.798693466186523438e+01 2.757226526737213135e-01 6.564242362976074219e+00 2.051989555358886719e+00 -1.960072666406631470e-01
2.023000000000000000e+03 7.273949432373046875e+01 1.846686744689941406e+01 3.972084224224090576e-01 6.426782131195068359e+00 2.047197103500366211e+00 1.415255814790725708e-01
2.024000000000000000e+03 7.356844329833984375e+01 1.724914741516113281e+01 6.250759959220886230e-01 6.230672836303710938e+00 2.056724548339843750e+00 7.992498576641082764e-03
2.025000000000000000e+03 7.004481506347656250e+01 1.573404026031494141e+01 7.194860577583312988e-01 6.816244125366210938e+00 2.260719060897827148e+00 9.141669869422912598e-01
2.026000000000000000e+03 6.797225952148437500e+01 1.603754043579101562e+01 -7.763363420963287354e-02 7.986186504364013672e+00 2.372565746307373047e+00 4.122120738029479980e-01
2.027000000000000000e+03 6.764172363281250000e+01 1.655237770080566406e+01 -3.833780884742736816e-01 7.874964714050292969e+00 2.247475862503051758e+00 5.036934465169906616e-02
2.028000000000000000e+03 4.745794296264648438e+01 1.572529697418212891e+01 8.123060464859008789e-01 7.184686064720153809e-01 4.592323899269104004e-01 -4.261837601661682129e-01
2.029000000000000000e+03 4.392787551879882812e+01 1.660631752014160156e+01 5.533818602561950684e-01 2.664988756179809570e+00 9.655112028121948242e-01 1.612512469291687012e+00
2.030000000000000000e+03 4.143949890136718750e+01 1.621937561035156250e+01 6.944911181926727295e-02 4.689817905426025391e+00 1.427780151367187500e+00 2.430396556854248047e+00
2.031000000000000000e+03 4.098033523559570312e+01 1.807831764221191406e+01 -6.251555681228637695e-01 5.006641387939453125e+00 1.314445734024047852e+00 1.578856348991394043e+00
2.032000000000000000e+03 3.974528503417968750e+01 1.942278480529785156e+01 -9.827924966812133789e-01 5.082269191741943359e+00 1.229843020439147949e+00 6.540083289146423340e-01
2.033000000000000000e+03 4.001015472412109375e+01 2.129945945739746094e+01 -7.044404745101928711e-01 4.475100517272949219e+00 1.131198048591613770e+00 3.387089967727661133e-01
2.034000000000000000e+03 3.898317337036132812e+01 2.185450172424316406e+01 -7.275399565696716309e-01 4.310429573059082031e+00 1.074866890907287598e+00 1.003013402223587036e-01
2.035000000000000000e+03 3.777385711669921875e+01 2.260021209716796875e+01 -6.347905993461608887e-01 3.961294651031494141e+00 9.979512095451354980e-01 -1.559479981660842896e-01
2.036000000000000000e+03 3.555091476440429688e+01 2.615393829345703125e+01 -3.481282591819763184e-01 3.308147430419921875e+00 8.880057334899902344e-01 -1.706473231315612793e-01
2.037000000000000000e+03 3.419989013671875000e+01 2.850885772705078125e+01 -2.881998419761657715e-01 3.094480514526367188e+00 8.418841958045959473e-01 -1.473274827003479004e-01
2.038000000000000000e+03 3.271171951293945312e+01 2.886801719665527344e+01 -2.882786691188812256e-01 2.916854858398437500e+00 7.885728478431701660e-01 -1.698832958936691284e-01
2.039000000000000000e+03 3.700165939331054688e+01 1.751218032836914062e+01 -1.723664641380310059e+00 5.622254371643066406e+00 1.169576883316040039e+00 -9.000306129455566406e-01
2.040000000000000000e+03 3.776282882690429688e+01 1.701181221008300781e+01 -1.988504171371459961e+00 6.713871002197265625e+00 1.417610049247741699e+00 -3.110437095165252686e-01
2.041000000000000000e+03 3.180327224731445312e+01 1.710939979553222656e+01 7.324635982513427734e-02 -3.428747132420539856e-02 1.168766617774963379e-02 1.875878125429153442e-02
2.042000000000000000e+03 2.965680122375488281e+01 1.690302658081054688e+01 4.842985868453979492e-01 1.322416663169860840e+00 5.420145392417907715e-01 1.627581000328063965e+00
2.043000000000000000e+03 2.898953247070312500e+01 1.697330284118652344e+01 5.694483518600463867e-01 2.347035408020019531e+00 8.749451637268066406e-01 1.972141146659851074e+00
2.044000000000000000e+03 2.450214004516601562e+01 1.664941215515136719e+01 -1.055993080139160156e+00 4.585433006286621094e+00 1.058831930160522461e+00 -3.087330818176269531e+00
2.045000000000000000e+03 2.268780899047851562e+01 1.887270355224609375e+01 -1.092057585716247559e+00 8.431675434112548828e-01 -7.466702163219451904e-02 -1.457274913787841797e+00
2.046000000000000000e+03 2.105400466918945312e+01 2.105609893798828125e+01 -6.033574342727661133e-01 5.143047571182250977e-01 -2.671581320464611053e-02 -9.409082531929016113e-01
2.047000000000000000e+03 1.929765319824218750e+01 2.153612518310546875e+01 -4.443222582340240479e-01 3.085177838802337646e-01 -4.074133560061454773e-02 -4.717545807361602783e-01
2.048000000000000000e+03 1.975403594970703125e+01 2.072863197326660156e+01 -7.300943136215209961e-01 2.675425410270690918e-01 -1.387655287981033325e-01 -6.513527631759643555e-01
2.049000000000000000e+03 2.517564582824707031e+01 1.750123023986816406e+01 -2.658036231994628906e+00 8.471778869628906250e+00 1.744122743606567383e+00 -1.549999475479125977e+00
2.050000000000000000e+03 2.599726486206054688e+01 2.062740135192871094e+01 -1.561164736747741699e+00 3.862381696701049805e+00 6.903650760650634766e-01 -4.037793278694152832e-01
2.051000000000000000e+03 2.445347023010253906e+01 2.405520629882812500e+01 -7.012176513671875000e-01 2.128962278366088867e+00 4.283233582973480225e-01 -6.933720707893371582e-01
2.052000000000000000e+03 2.465803718566894531e+01 2.502160072326660156e+01 -5.978291034698486328e-01 2.101094484329223633e+00 4.509796500205993652e-01 -5.948560833930969238e-01
2.053000000000000000e+03 2.482800674438476562e+01 2.626099014282226562e+01 -4.548689424991607666e-01 2.036679744720458984e+00 4.745432138442993164e-01 -4.834260642528533936e-01
2.054000000000000000e+03 2.435208511352539062e+01 2.994011878967285156e+01 -1.721226572990417480e-01 1.862471461296081543e+00 5.071046352386474609e-01 -3.433942794799804688e-01
2.055000000000000000e+03 2.391448974609375000e+01 2.831589508056640625e+01 -2.463805824518203735e-01 1.803695559501647949e+00 4.671944975852966309e-01 -4.131561219692230225e-01
2.056000000000000000e+03 2.490206336975097656e+01 3.181404304504394531e+01 -8.847131580114364624e-02 1.920166373252868652e+00 5.495085120201110840e-01 -2.577951550483703613e-01
2.057000000000000000e+03 2.116170310974121094e+01 3.244754028320312500e+01 4.601831734180450439e-02 1.468470454216003418e+00 4.543466567993164062e-01 -2.172745168209075928e-01
2.058000000000000000e+03 1.883211326599121094e+01 3.403702545166015625e+01 1.361610740423202515e-01 1.295536518096923828e+00 4.295092821121215820e-01 -9.810824692249298096e-02
2.059000000000000000e+03 2.280340194702148438e+01 3.045309066772460938e+01 -7.177820056676864624e-02 1.631723642349243164e+00 4.679836332798004150e-01 -3.125495314598083496e-01
2.060000000000000000e+03 1.991437721252441406e+01 1.727730178833007812e+01 -2.165562391281127930e+00 -4.053682684898376465e-01 -7.712792158126831055e-01 -6.838979125022888184e-01
2.061000000000000000e+03 1.733066368103027344e+01 1.641583442687988281e+01 -1.933682203292846680e+00 -3.309133350849151611e-01 -6.793786287307739258e-01 -6.275439262390136719e-01
2.062000000000000000e+03 1.616810989379882812e+01 1.649383163452148438e+01 -1.666799426078796387e+00 -2.261320501565933228e-01 -5.678794384002685547e-01 -4.591077566146850586e-01
2.063000000000000000e+03 1.504744625091552734e+01 1.667050552368164062e+01 -1.447262883186340332e+00 -5.464400723576545715e-02 -4.505720734596252441e-01 -2.953728437423706055e-01
2.064000000000000000e+03 1.441777992248535156e+01 1.631473922729492188e+01 -1.420858025550842285e+00 6.693369150161743164e-02 -4.061773121356964111e-01 -2.765170633792877197e-01
2.065000000000000000e+03 1.192431163787841797e+01 1.760377693176269531e+01 -1.007872700691223145e+00 5.504343509674072266e-01 -1.372314989566802979e-01 -4.215364903211593628e-02
2.066000000000000000e+03 1.045576286315917969e+01 1.586051845550537109e+01 -1.101582050323486328e+00 8.295895457267761230e-01 -8.159773796796798706e-02 -2.079387158155441284e-01
2.067000000000000000e+03 7.968028545379638672e+00 1.547391891479492188e+01 -8.739988207817077637e-01 1.246345996856689453e+00 1.117041409015655518e-01 -3.951932787895202637e-01
2.068000000000000000e+03 5.764564037322998047e+00 1.571793079376220703e+01 -5.592929124832153320e-01 1.291802763938903809e+00 2.197529673576354980e-01 -4.653360247611999512e-01
2.069000000000000000e+03 4.460250854492187500e+00 1.538127422332763672e+01 -3.880985975265502930e-01 1.288255095481872559e+00 2.700469493865966797e-01 -5.124843120574951172e-01
2.070000000000000000e+03 2.780404329299926758e+00 1.314647579193115234e+01 -1.906311064958572388e-01 1.015653252601623535e+00 2.475066334009170532e-01 -6.698416471481323242e-01
2.071000000000000000e+03 2.928323745727539062e+00 1.396882915496826172e+01 -1.936697959899902344e-01 1.146957516670227051e+00 2.859863042831420898e-01 -5.938392877578735352e-01
2.072000000000000000e+03 8.118253707885742188e+00 1.383082199096679688e+01 -1.020871639251708984e+00 1.344906091690063477e+00 9.721034020185470581e-02 -6.161414980888366699e-01
2.073000000000000000e+03 1.025058174133300781e+01 1.477495479583740234e+01 -1.178739070892333984e+00 9.158973693847656250e-01 -7.885250449180603027e-02 -3.176058828830718994e-01
2.074000000000000000e+03 1.317020034790039062e+01 1.340358066558837891e+01 -1.509455680847167969e+00 -1.091356761753559113e-02 -4.561107754707336426e-01 -5.219118595123291016e-01
2.075000000000000000e+03 1.173077297210693359e+01 1.391949081420898438e+01 -1.329687833786010742e+00 6.044753789901733398e-01 -2.175637185573577881e-01 -3.459407687187194824e-01
2.076000000000000000e+03 1.465875148773193359e+01 1.466216945648193359e+01 -1.686897158622741699e+00 -2.688802480697631836e-01 -5.867332220077514648e-01 -5.559986829757690430e-01
2.077000000000000000e+03 1.885363960266113281e+01 1.455525875091552734e+01 -2.722578048706054688e+00 -7.756974101066589355e-01 -1.049482703208923340e+00 -1.489346504211425781e+00
2.078000000000000000e+03 6.799109649658203125e+01 1.464102554321289062e+01 3.912250995635986328e-01 8.920824050903320312e+00 2.793614625930786133e+00 1.067190170288085938e+00
2.079000000000000000e+03 7.020360565185546875e+01 1.418478584289550781e+01 1.495490550994873047e+00 6.346787452697753906e+00 2.352683305740356445e+00 1.292068839073181152e+00
2.080000000000000000e+03 7.394539642333984375e+01 1.402791023254394531e+01 1.090655326843261719e+00 5.359874725341796875e+00 1.935159087181091309e+00 -7.971851229667663574e-01
2.081000000000000000e+03 7.247951507568359375e+01 1.485479259490966797e+01 1.303685784339904785e+00 5.486370563507080078e+00 2.037016868591308594e+00 9.599280357360839844e-02
2.082000000000000000e+03 7.566116333007812500e+01 1.563373756408691406e+01 4.710811376571655273e-01 6.385868549346923828e+00 2.057085037231445312e+00 -5.720866322517395020e-01
2.083000000000000000e+03 1.816018486022949219e+01 1.414001846313476562e+01 -2.546733140945434570e+00 -7.571414113044738770e-01 -9.911623597145080566e-01 -1.353747129440307617e+00
2.084000000000000000e+03 1.837805557250976562e+01 1.520209407806396484e+01 -2.565157413482666016e+00 -5.661239027976989746e-01 -9.393844008445739746e-01 -1.114699602127075195e+00
2.085000000000000000e+03 1.975987052917480469e+01 1.608374595642089844e+01 -2.810076475143432617e+00 -5.760753154754638672e-01 -1.015845537185668945e+00 -1.078026413917541504e+00
2.086000000000000000e+03 3.738768005371093750e+01 1.617691230773925781e+01 -2.486320495605468750e+00 7.775980949401855469e+00 1.586898207664489746e+00 -6.427246928215026855e-01
2.087000000000000000e+03 4.454775238037109375e+01 1.560359668731689453e+01 5.157064199447631836e-01 1.861338019371032715e+00 7.131133079528808594e-01 1.378159523010253906e+00
2.088000000000000000e+03 5.230036163330078125e+01 1.501478290557861328e+01 1.162847161293029785e+00 1.046381092071533203e+01 3.487997531890869141e+00 1.636844158172607422e+00
2.089000000000000000e+03 5.321053314208984375e+01 1.207786560058593750e+01 1.965904474258422852e+00 9.863507270812988281e+00 3.548823595046997070e+00 8.398961424827575684e-01
2.090000000000000000e+03 5.521302032470703125e+01 1.126697731018066406e+01 4.798392057418823242e-01 5.879035949707031250e+00 1.907662510871887207e+00 9.637414813041687012e-01
2.091000000000000000e+03 5.644683456420898438e+01 8.683714866638183594e+00 -1.036635115742683411e-01 1.686260700225830078e+00 4.747791588306427002e-01 4.404620528221130371e-01
2.092000000000000000e+03 5.377914428710937500e+01 1.389380645751953125e+01 1.845149040222167969e+00 8.204059600830078125e+00 3.014762639999389648e+00 1.881771683692932129e+00
2.093000000000000000e+03 5.373553466796875000e+01 1.263741302490234375e+01 1.804094552993774414e+00 8.838398933410644531e+00 3.192748308181762695e+00 1.249072432518005371e+00
2.094000000000000000e+03 5.658154678344726562e+01 1.139867687225341797e+01 4.557883366942405701e-02 2.913715839385986328e+00 8.877883553504943848e-01 8.313569426536560059e-01
2.095000000000000000e+03 5.919512939453125000e+01 1.162805366516113281e+01 -1.601833105087280273e+00 -8.058389425277709961e-01 -7.223016023635864258e-01 -1.139312624931335449e+00
2.096000000000000000e+03 5.857085037231445312e+01 1.109753036499023438e+01 -1.286000967025756836e+00 -7.850962281227111816e-01 -6.213291883468627930e-01 -9.080101847648620605e-01
2.097000000000000000e+03 5.792661666870117188e+01 1.171180725097656250e+01 -5.109871029853820801e-01 8.605257868766784668e-01 1.048616096377372742e-01 1.660951673984527588e-01
2.098000000000000000e+03 6.029476928710937500e+01 1.423689365386962891e+01 -6.591714024543762207e-01 4.156846404075622559e-01 -7.304602116346359253e-02 2.959650158882141113e-01
2.099000000000000000e+03 6.635250091552734375e+01 1.212042522430419922e+01 3.798815488815307617e+00 1.522719097137451172e+01 5.707801818847656250e+00 -7.326821088790893555e-01
2.100000000000000000e+03 7.097663116455078125e+01 1.138601303100585938e+01 1.529803395271301270e+00 3.771616935729980469e+00 1.590426206588745117e+00 7.663328051567077637e-01
2.101000000000000000e+03 7.532644653320312500e+01 1.443888187408447266e+01 5.202802419662475586e-01 6.208703041076660156e+00 2.018694877624511719e+00 -9.246828556060791016e-01
2.102000000000000000e+03 5.220340728759765625e+01 1.018719387054443359e+01 6.425072550773620605e-01 1.263402366638183594e+01 3.982959270477294922e+00 -2.051562964916229248e-01
2.103000000000000000e+03 5.800635910034179688e+01 1.050997543334960938e+01 -8.825830817222595215e-01 -5.011426210403442383e-01 -4.151177406311035156e-01 -7.796326875686645508e-01
2.104000000000000000e+03 5.866068267822265625e+01 1.223351573944091797e+01 -8.566048741340637207e-01 2.486629486083984375e-01 -1.823825836181640625e-01 -1.515564695000648499e-02
2.105000000000000000e+03 5.480914306640625000e+01 1.246963596343994141e+01 1.201087474822998047e+00 6.577015876770019531e+00 2.333431005477905273e+00 1.448145389556884766e+00
2.106000000000000000e+03 5.630516815185546875e+01 9.742146492004394531e+00 -4.231320619583129883e-01 2.956208705902099609e+00 7.599229812622070312e-01 5.351338386535644531e-01
2.107000000000000000e+03 5.181050872802734375e+01 9.325572967529296875e+00 -1.394186764955520630e-01 1.312657260894775391e+01 3.896146059036254883e+00 -4.351646602153778076e-01
2.108000000000000000e+03 5.362290573120117188e+01 8.455574989318847656e+00 -9.302663207054138184e-01 1.075415611267089844e+01 2.947166919708251953e+00 -2.634389996528625488e-01
2.109000000000000000e+03 4.686268234252929688e+01 5.865390777587890625e+00 6.665937304496765137e-01 9.485070705413818359e-01 4.845302402973175049e-01 6.062484979629516602e-01
2.110000000000000000e+03 4.741281127929687500e+01 5.296774387359619141e+00 9.372408390045166016e-01 1.835192561149597168e+00 8.317300081253051758e-01 1.188323020935058594e+00
2.111000000000000000e+03 4.741373443603515625e+01 6.452152252197265625e+00 5.603981018066406250e-01 1.282102704048156738e+00 5.527502894401550293e-01 8.825368285179138184e-01
2.112000000000000000e+03 4.793912124633789062e+01 7.059803485870361328e+00 7.195630073547363281e-01 2.170210361480712891e+00 8.669320344924926758e-01 9.968122839927673340e-01
2.113000000000000000e+03 4.846216964721679688e+01 7.682016849517822266e+00 7.030693888664245605e-01 3.264631032943725586e+00 1.190310120582580566e+00 1.566618084907531738e+00
2.114000000000000000e+03 5.193588638305664062e+01 5.052877426147460938e+00 1.690517663955688477e+00 1.059716415405273438e+01 3.686304569244384766e+00 -9.385645389556884766e-01
2.115000000000000000e+03 4.904138183593750000e+01 4.628172874450683594e+00 1.393252849578857422e+00 4.798746109008789062e+00 1.857599735260009766e+00 1.103337883949279785e+00
2.116000000000000000e+03 5.330905532836914062e+01 6.514816284179687500e+00 -4.430819451808929443e-01 1.266092205047607422e+01 3.665352106094360352e+00 -4.597963094711303711e-01
2.117000000000000000e+03 5.160464096069335938e+01 3.320138454437255859e+00 3.102936744689941406e+00 8.592308044433593750e+00 3.508573532104492188e+00 -6.312488764524459839e-02
2.118000000000000000e+03 4.795046997070312500e+01 4.729306697845458984e+00 1.238205194473266602e+00 2.850194931030273438e+00 1.226519942283630371e+00 1.270675778388977051e+00
2.119000000000000000e+03 4.298651123046875000e+01 9.389784336090087891e-01 -4.055533885955810547e+00 8.025331497192382812e-01 -9.759001731872558594e-01 -8.916160464286804199e-01
2.120000000000000000e+03 2.543837738037109375e+01 -1.799563050270080566e+00 3.355216264724731445e+00 5.805417537689208984e+00 2.748190164566040039e+00 -2.311729431152343750e+00
2.121000000000000000e+03 2.705156707763671875e+01 -1.477924942970275879e+00 4.601216316223144531e+00 5.354335784912109375e+00 2.986665487289428711e+00 5.675825476646423340e-01
2.122000000000000000e+03 5.628731918334960938e+01 -7.773200273513793945e-01 -1.859806299209594727e+00 3.077600479125976562e+00 3.653382658958435059e-01 -5.146569252014160156e+00
2.123000000000000000e+03 6.032997512817382812e+01 -6.703244149684906006e-02 -3.327353477478027344e+00 3.722829580307006836e+00 1.186428219079971313e-01 4.334592223167419434e-01
2.124000000000000000e+03 5.860494613647460938e+01 -1.061923146247863770e+00 -1.597885012626647949e+00 1.863846182823181152e+00 7.978834211826324463e-02 -1.506275177001953125e+00
2.125000000000000000e+03 6.111838150024414062e+01 4.157955646514892578e-01 -3.782271623611450195e+00 4.466872692108154297e+00 2.053802311420440674e-01 1.192015647888183594e+00
2.126000000000000000e+03 6.489723205566406250e+01 -7.938699722290039062e-01 -2.551775932312011719e+00 3.559010028839111328e+00 3.021702468395233154e-01 4.684307575225830078e+00
2.127000000000000000e+03 6.688263702392578125e+01 3.614043593406677246e-01 -1.386680245399475098e+00 4.623492717742919922e+00 9.710437655448913574e-01 1.727101206779479980e+00
2.128000000000000000e+03 6.969373321533203125e+01 4.829035103321075439e-01 -2.470764398574829102e+00 7.744653224945068359e+00 1.582166671752929688e+00 -2.429479598999023438e+00
2.129000000000000000e+03 5.119278717041015625e+01 -5.471641540527343750e+00 -2.061115026473999023e+00 -3.495158851146697998e-01 -7.231892347335815430e-01 1.140830039978027344e+00
2.130000000000000000e+03 5.792179870605468750e+01 -1.777237510681152344e+01 1.643925070762634277e+00 9.386224746704101562e+00 3.309044837951660156e+00 -5.734975636005401611e-02
2.131000000000000000e+03 6.070961380004882812e+01 -1.968825721740722656e+01 4.648989140987396240e-01 6.782352924346923828e+00 2.174175500869750977e+00 -1.214387178421020508e+00
2.132000000000000000e+03 6.105917358398437500e+01 -1.876693725585937500e+01 7.369669079780578613e-01 6.382908344268798828e+00 2.135962724685668945e+00 -1.219895958900451660e+00
2.133000000000000000e+03 6.468459320068359375e+01 -1.871652412414550781e+01 4.715213179588317871e-01 4.101358890533447266e+00 1.371864080429077148e+00 -1.111274957656860352e+00
2.134000000000000000e+03 6.716876983642578125e+01 -1.899232864379882812e+01 7.571158409118652344e-01 2.772894382476806641e+00 1.059002995491027832e+00 -3.113025128841400146e-01
2.135000000000000000e+03 7.078132629394531250e+01 -1.887873268127441406e+01 9.288231842219829559e-03 4.912570953369140625e+00 1.476557731628417969e+00 2.256802320480346680e+00
2.136000000000000000e+03 7.608160400390625000e+01 -1.858374595642089844e+01 -3.624363243579864502e-01 7.895012378692626953e+00 2.259772777557373047e+00 -1.626425087451934814e-01
2.137000000000000000e+03 7.813619995117187500e+01 -1.891413497924804688e+01 -9.347222745418548584e-02 7.282554626464843750e+00 2.156724691390991211e+00 -2.833677232265472412e-01
2.138000000000000000e+03 2.053373098373413086e+00 -1.949737167358398438e+01 1.150093972682952881e-02 -5.032435059547424316e-01 -1.475227624177932739e-01 -2.633725665509700775e-02
2.139000000000000000e+03 2.037377595901489258e+00 -2.030021286010742188e+01 1.386121194809675217e-02 -5.116148591041564941e-01 -1.493260860443115234e-01 -1.753425598144531250e-02
2.140000000000000000e+03 6.309692859649658203e+00 -2.338455963134765625e+01 6.158213689923286438e-02 4.291900247335433960e-02 3.135034069418907166e-02 5.072402209043502808e-02
2.141000000000000000e+03 8.975312232971191406e+00 -2.545527267456054688e+01 5.920685455203056335e-02 4.158021807670593262e-01 1.425027102231979370e-01 1.280684471130371094e-01
2.142000000000000000e+03 1.031428050994873047e+01 -2.771674728393554688e+01 2.451837062835693359e-02 6.517625451087951660e-01 2.028842866420745850e-01 1.611059904098510742e-01
2.143000000000000000e+03 1.130967617034912109e+01 -2.884037971496582031e+01 -8.783180266618728638e-03 8.254841566085815430e-01 2.450102865695953369e-01 1.718142330646514893e-01
2.144000000000000000e+03 1.623447036743164062e+01 -3.641141891479492188e+01 -1.570764333009719849e-01 1.539857864379882812e+00 4.148344397544860840e-01 8.760213851928710938e-02
2.145000000000000000e+03 2.284779930114746094e+01 -4.034816741943359375e+01 -2.486777305603027344e-01 2.435108184814453125e+00 6.559291481971740723e-01 1.911004818975925446e-02
2.146000000000000000e+03 4.568743228912353516e+00 -1.952022171020507812e+01 5.593932792544364929e-02 -2.074472755193710327e-01 -4.545238614082336426e-02 -3.601287305355072021e-02
2.147000000000000000e+03 3.655791044235229492e+00 -2.110514259338378906e+01 3.095154277980327606e-02 -3.121247887611389160e-01 -8.435197174549102783e-02 -8.833844214677810669e-03
2.148000000000000000e+03 7.524537563323974609e+00 -2.455347824096679688e+01 6.188253313302993774e-02 2.066683173179626465e-01 8.056525886058807373e-02 9.086813777685165405e-02
2.149000000000000000e+03 1.171659851074218750e+01 -2.619267654418945312e+01 5.358776822686195374e-02 8.320566415786743164e-01 2.656933367252349854e-01 2.052230983972549438e-01
2.150000000000000000e+03 1.119833850860595703e+01 -2.702849388122558594e+01 2.492080815136432648e-02 7.755868434906005859e-01 2.401522845029830933e-01 1.822073459625244141e-01
2.151000000000000000e+03 1.385009288787841797e+01 -3.137478828430175781e+01 -7.451625168323516846e-02 1.224665164947509766e+00 3.450446724891662598e-01 1.641808003187179565e-01
2.152000000000000000e+03 1.545458984375000000e+01 -3.287337112426757812e+01 -1.112667471170425415e-01 1.444899201393127441e+00 4.000897109508514404e-01 1.500962972640991211e-01
2.153000000000000000e+03 5.393577575683593750e+00 -1.958152580261230469e+01 7.132624834775924683e-02 -1.166336536407470703e-01 -1.359222177416086197e-02 -2.717852406203746796e-02
2.154000000000000000e+03 6.063496589660644531e+00 -2.044278335571289062e+01 7.352579385042190552e-02 -3.559987246990203857e-02 1.137777604162693024e-02 -1.174891600385308266e-03
2.155000000000000000e+03 7.939555644989013672e+00 -2.190321922302246094e+01 9.786129742860794067e-02 2.026560902595520020e-01 9.015521407127380371e-02 5.887745320796966553e-02
2.156000000000000000e+03 9.834342002868652344e+00 -2.358160781860351562e+01 9.624788910150527954e-02 4.964428246021270752e-01 1.778072118759155273e-01 1.380136311054229736e-01
2.157000000000000000e+03 1.216991043090820312e+01 -2.787923049926757812e+01 8.572573773562908173e-03 9.200421571731567383e-01 2.785844206809997559e-01 1.944876611232757568e-01
2.158000000000000000e+03 1.337622356414794922e+01 -2.887337875366210938e+01 -3.054923377931118011e-02 1.129516601562500000e+00 3.296902179718017578e-01 1.931249052286148071e-01
2.159000000000000000e+03 1.743718910217285156e+01 -3.444585800170898438e+01 -1.623943150043487549e-01 1.751183867454528809e+00 4.766368567943572998e-01 9.676498919725418091e-02
2.160000000000000000e+03 1.995926094055175781e+01 -3.583123397827148438e+01 -2.057066708803176880e-01 2.143476009368896484e+00 5.813307762145996094e-01 8.226992189884185791e-02
2.161000000000000000e+03 7.293191909790039062e+00 -1.899556541442871094e+01 1.210098266601562500e-01 7.165969163179397583e-02 5.780085548758506775e-02 -2.012016996741294861e-02
2.162000000000000000e+03 7.720911026000976562e+00 -2.095327568054199219e+01 1.120827645063400269e-01 1.585462242364883423e-01 8.118869364261627197e-02 3.695662692189216614e-02
2.163000000000000000e+03 9.892073631286621094e+00 -2.250387382507324219e+01 1.289698183536529541e-01 4.587840437889099121e-01 1.763261556625366211e-01 1.187498047947883606e-01
2.164000000000000000e+03 1.205490493774414062e+01 -2.379748725891113281e+01 1.009098514914512634e-01 8.091563582420349121e-01 2.730198800563812256e-01 2.070652693510055542e-01
2.165000000000000000e+03 1.283247375488281250e+01 -2.674698638916015625e+01 2.197184227406978607e-02 1.017115235328674316e+00 3.117261230945587158e-01 2.093911916017532349e-01
2.166000000000000000e+03 1.411655712127685547e+01 -2.755640792846679688e+01 -7.435035426169633865e-03 1.217480659484863281e+00 3.630136847496032715e-01 2.269046306610107422e-01
2.167000000000000000e+03 1.477043437957763672e+01 -3.001429557800292969e+01 -6.267943978309631348e-02 1.342894673347473145e+00 3.840645551681518555e-01 1.950643658638000488e-01
2.168000000000000000e+03 1.635691642761230469e+01 -3.122543525695800781e+01 -1.111849248409271240e-01 1.602228522300720215e+00 4.473130702972412109e-01 1.644123643636703491e-01
2.169000000000000000e+03 2.027562332153320312e+01 -3.315037155151367188e+01 -2.109135687351226807e-01 2.190964698791503906e+00 5.940153002738952637e-01 1.238038912415504456e-01
2.170000000000000000e+03 2.244215011596679688e+01 -3.318797683715820312e+01 -2.327639311552047729e-01 2.480580806732177734e+00 6.743450760841369629e-01 1.060857325792312622e-01
2.171000000000000000e+03 8.977561950683593750e+00 -1.966225624084472656e+01 1.557032316923141479e-01 2.673597633838653564e-01 1.269188970327377319e-01 3.599508479237556458e-02
2.172000000000000000e+03 9.420472145080566406e+00 -2.041353607177734375e+01 1.588370203971862793e-01 3.436398804187774658e-01 1.507430672645568848e-01 7.158859074115753174e-02
2.173000000000000000e+03 1.181740856170654297e+01 -2.125401115417480469e+01 1.862109154462814331e-01 6.865730285644531250e-01 2.618351876735687256e-01 1.862743794918060303e-01
2.174000000000000000e+03 1.336457633972167969e+01 -2.384940338134765625e+01 1.034552901983261108e-01 1.019814372062683105e+00 3.369809091091156006e-01 2.474893331527709961e-01
2.175000000000000000e+03 1.473902511596679688e+01 -2.611175537109375000e+01 1.402822043746709824e-02 1.301313996315002441e+00 3.946026563644409180e-01 2.538583874702453613e-01
2.176000000000000000e+03 1.553485679626464844e+01 -2.854824256896972656e+01 -5.687403678894042969e-02 1.467296600341796875e+00 4.231267571449279785e-01 2.196544855833053589e-01
2.177000000000000000e+03 1.706393623352050781e+01 -2.956384277343750000e+01 -1.058831065893173218e-01 1.730807304382324219e+00 4.874772727489471436e-01 2.058125436305999756e-01
2.178000000000000000e+03 2.717852020263671875e+01 -3.491803359985351562e+01 -2.607586085796356201e-01 3.024778604507446289e+00 8.292059898376464844e-01 2.088668569922447205e-02
2.179000000000000000e+03 1.074844360351562500e+01 -1.828352165222167969e+01 2.230598181486129761e-01 4.069117605686187744e-01 1.889914721250534058e-01 5.763541907072067261e-02
2.180000000000000000e+03 1.169478225708007812e+01 -2.015666961669921875e+01 2.148874551057815552e-01 5.980564951896667480e-01 2.438831776380538940e-01 1.531043797731399536e-01
2.181000000000000000e+03 1.463655281066894531e+01 -2.250985717773437500e+01 1.357679665088653564e-01 1.134540319442749023e+00 3.810924887657165527e-01 2.893867790699005127e-01
2.182000000000000000e+03 1.635050582885742188e+01 -2.378033447265625000e+01 5.615598335862159729e-02 1.537304639816284180e+00 4.780381917953491211e-01 3.534219861030578613e-01
2.183000000000000000e+03 1.620411872863769531e+01 -2.710008239746093750e+01 -3.731292113661766052e-02 1.574564814567565918e+00 4.611755609512329102e-01 2.664332389831542969e-01
2.184000000000000000e+03 1.768774223327636719e+01 -2.801810455322265625e+01 -1.044219955801963806e-01 1.836913108825683594e+00 5.197473168373107910e-01 2.444047629833221436e-01
2.185000000000000000e+03 1.868597221374511719e+01 -3.046470260620117188e+01 -1.566839665174484253e-01 1.988652825355529785e+00 5.495906472206115723e-01 1.820590049028396606e-01
2.186000000000000000e+03 2.031057167053222656e+01 -3.107417678833007812e+01 -1.893301308155059814e-01 2.224786520004272461e+00 6.106368899345397949e-01 1.565978378057479858e-01
2.187000000000000000e+03 2.177620315551757812e+01 -3.087110519409179688e+01 -2.234276533126831055e-01 2.427500009536743164e+00 6.612217426300048828e-01 1.374591141939163208e-01
2.188000000000000000e+03 1.254649257659912109e+01 -1.877587699890136719e+01 2.708751857280731201e-01 6.249117255210876465e-01 2.687360644340515137e-01 1.611856669187545776e-01
2.189000000000000000e+03 1.360905647277832031e+01 -1.984321784973144531e+01 2.622931599617004395e-01 8.400850296020507812e-01 3.307134509086608887e-01 2.509571611881256104e-01
2.190000000000000000e+03 1.597915744781494141e+01 -2.106465530395507812e+01 1.784831732511520386e-01 1.348510265350341797e+00 4.580980539321899414e-01 3.985865414142608643e-01
2.191000000000000000e+03 1.755495262145996094e+01 -2.454056358337402344e+01 -3.246893640607595444e-03 1.771606683731079102e+00 5.305079221725463867e-01 3.615103662014007568e-01
2.192000000000000000e+03 1.830413818359375000e+01 -2.661889266967773438e+01 -8.604980260133743286e-02 1.932239532470703125e+00 5.538569092750549316e-01 2.955656647682189941e-01
2.193000000000000000e+03 1.919157028198242188e+01 -2.886115074157714844e+01 -1.489506512880325317e-01 2.080342292785644531e+00 5.794174671173095703e-01 2.217975109815597534e-01
2.194000000000000000e+03 2.061807250976562500e+01 -2.964429473876953125e+01 -1.996488422155380249e-01 2.293958902359008789e+00 6.282930374145507812e-01 1.936400383710861206e-01
2.195000000000000000e+03 2.277277565002441406e+01 -2.951033782958984375e+01 -2.420671284198760986e-01 2.588969469070434570e+00 7.040706872940063477e-01 1.378193050622940063e-01
2.196000000000000000e+03 1.582070636749267578e+01 -1.879282569885253906e+01 3.266127109527587891e-01 1.143139004707336426e+00 4.409255087375640869e-01 4.171744287014007568e-01
2.197000000000000000e+03 1.576605987548828125e+01 -1.992989540100097656e+01 2.699632644653320312e-01 1.217886090278625488e+00 4.463548064231872559e-01 4.034720957279205322e-01
2.198000000000000000e+03 1.754831123352050781e+01 -2.163978767395019531e+01 1.117547154426574707e-01 1.671418666839599609e+00 5.349520444869995117e-01 4.613175988197326660e-01
2.199000000000000000e+03 1.891556358337402344e+01 -2.528741455078125000e+01 -9.278344362974166870e-02 2.052262544631958008e+00 5.878437161445617676e-01 3.374387025833129883e-01
2.200000000000000000e+03 1.977939796447753906e+01 -2.744257164001464844e+01 -1.620990186929702759e-01 2.190331459045410156e+00 6.084697246551513672e-01 2.594756186008453369e-01
2.201000000000000000e+03 2.126998329162597656e+01 -2.835441017150878906e+01 -1.958921551704406738e-01 2.383602857589721680e+00 6.563132405281066895e-01 2.109763771295547485e-01
2.202000000000000000e+03 2.334931182861328125e+01 -2.769604110717773438e+01 -2.368177473545074463e-01 2.739188671112060547e+00 7.507112622261047363e-01 1.463217437267303467e-01
2.203000000000000000e+03 1.691598510742187500e+01 -1.879871940612792969e+01 3.277590572834014893e-01 1.375823736190795898e+00 5.110748410224914551e-01 5.019657015800476074e-01
2.204000000000000000e+03 1.680588150024414062e+01 -1.984410858154296875e+01 2.416678816080093384e-01 1.445690870285034180e+00 5.062076449394226074e-01 4.801598191261291504e-01
2.205000000000000000e+03 1.870988655090332031e+01 -2.209929466247558594e+01 4.638339206576347351e-02 1.988595366477966309e+00 6.104936599731445312e-01 5.040360093116760254e-01
2.206000000000000000e+03 2.037034797668457031e+01 -2.605977821350097656e+01 -1.439351290464401245e-01 2.296377420425415039e+00 6.457327008247375488e-01 2.998991906642913818e-01
2.207000000000000000e+03 2.187145805358886719e+01 -2.688148307800292969e+01 -2.148322463035583496e-01 2.538357734680175781e+00 6.970576643943786621e-01 2.203889787197113037e-01
2.208000000000000000e+03 2.389128494262695312e+01 -2.604725646972656250e+01 -2.708051204681396484e-01 2.894520998001098633e+00 7.871147394180297852e-01 1.566899716854095459e-01
2.209000000000000000e+03 1.852151870727539062e+01 -1.824946784973144531e+01 3.100826144218444824e-01 1.711156725883483887e+00 6.063718199729919434e-01 6.744564175605773926e-01
2.210000000000000000e+03 2.004777526855468750e+01 -2.269004058837890625e+01 -6.655959039926528931e-02 2.285246849060058594e+00 6.656062006950378418e-01 4.556779563426971436e-01
2.211000000000000000e+03 2.243130111694335938e+01 -2.537904930114746094e+01 -2.140046060085296631e-01 2.696259498596191406e+00 7.446764111518859863e-01 2.477657943964004517e-01
2.212000000000000000e+03 2.448580932617187500e+01 -2.451852607727050781e+01 -2.731302082538604736e-01 3.063744783401489258e+00 8.371844291687011719e-01 1.512814760208129883e-01
2.213000000000000000e+03 2.077321434020996094e+01 -1.882471275329589844e+01 1.074531301856040955e-01 2.489202260971069336e+00 7.789965867996215820e-01 7.642315626144409180e-01
2.214000000000000000e+03 2.147375488281250000e+01 -2.337538909912109375e+01 -1.534243375062942505e-01 2.608623266220092773e+00 7.365596890449523926e-01 3.939991593360900879e-01
2.215000000000000000e+03 2.507828521728515625e+01 -2.297676277160644531e+01 -3.484400212764739990e-01 3.306995630264282227e+00 8.875666260719299316e-01 1.343307346105575562e-01
2.216000000000000000e+03 2.340919685363769531e+01 -2.248704338073730469e+01 -2.577213943004608154e-01 3.074042320251464844e+00 8.448963165283203125e-01 3.291052877902984619e-01
2.217000000000000000e+03 2.664592170715332031e+01 -2.379921722412109375e+01 -3.052468001842498779e-01 3.403548955917358398e+00 9.294906854629516602e-01 -4.440888762474060059e-02
2.218000000000000000e+03 2.303011703491210938e+01 -1.890944290161132812e+01 -2.125686407089233398e-01 3.287081480026245117e+00 9.223538637161254883e-01 6.873041987419128418e-01
2.219000000000000000e+03 2.210275840759277344e+01 -2.097480010986328125e+01 -1.394351720809936523e-01 2.846701860427856445e+00 8.121800422668457031e-01 5.314425230026245117e-01
2.220000000000000000e+03 2.463412094116210938e+01 -2.064946556091308594e+01 -3.701832592487335205e-01 3.524303674697875977e+00 9.462361335754394531e-01 2.913006246089935303e-01
2.221000000000000000e+03 2.414468765258789062e+01 -1.957629394531250000e+01 -3.373258709907531738e-01 3.554082155227661133e+00 9.650269150733947754e-01 4.564562737941741943e-01
2.222000000000000000e+03 2.564791107177734375e+01 -2.154249572753906250e+01 -3.564704358577728271e-01 3.554077863693237305e+00 9.592822194099426270e-01 9.671635180711746216e-02
2.223000000000000000e+03 5.932773208618164062e+01 -1.830616188049316406e+01 1.204239726066589355e+00 7.714641094207763672e+00 2.675664186477661133e+00 -9.489462375640869141e-01
2.224000000000000000e+03 5.910407638549804688e+01 -2.098156356811523438e+01 9.109554439783096313e-02 7.304330825805664062e+00 2.218627929687500000e+00 -5.903068780899047852e-01
2.225000000000000000e+03 5.822499847412109375e+01 -2.052461433410644531e+01 -2.879815697669982910e-01 8.073892593383789062e+00 2.335773229598999023e+00 -6.484604477882385254e-01
2.226000000000000000e+03 6.354707336425781250e+01 -2.009921455383300781e+01 5.553273558616638184e-01 4.984596729278564453e+00 1.661977171897888184e+00 -1.192088723182678223e+00
2.227000000000000000e+03 6.421944427490234375e+01 -2.063269615173339844e+01 6.900948286056518555e-01 4.538783550262451172e+00 1.568663597106933594e+00 -1.093846917152404785e+00
2.228000000000000000e+03 6.770267486572265625e+01 -2.080727767944335938e+01 9.661035537719726562e-01 3.639157056808471680e+00 1.381578207015991211e+00 1.469543576240539551e-01
2.229000000000000000e+03 6.928639984130859375e+01 -2.018697547912597656e+01 8.110656142234802246e-01 3.773394346237182617e+00 1.375337958335876465e+00 1.148426771163940430e+00
2.230000000000000000e+03 7.092285156250000000e+01 -2.089373207092285156e+01 2.553646564483642578e-01 5.249341487884521484e+00 1.651411890983581543e+00 1.349093079566955566e+00
2.231000000000000000e+03 7.210535430908203125e+01 -1.935449981689453125e+01 -5.152702331542968750e-01 6.516084671020507812e+00 1.800244331359863281e+00 1.736509084701538086e+00
2.232000000000000000e+03 7.415907287597656250e+01 -1.952775001525878906e+01 -6.740036606788635254e-01 7.618069648742675781e+00 2.083219766616821289e+00 6.801470518112182617e-01
2.233000000000000000e+03 7.640516662597656250e+01 -2.045451354980468750e+01 -2.976445555686950684e-01 7.435431957244873047e+00 2.141336202621459961e+00 6.937935948371887207e-02
2.234000000000000000e+03 7.803856658935546875e+01 -2.049777221679687500e+01 -1.078220382332801819e-01 7.298739910125732422e+00 2.157275438308715820e+00 -1.114657968282699585e-01
2.235000000000000000e+03 5.057264328002929688e+01 -1.660021972656250000e+01 -6.158987283706665039e-01 8.085740357637405396e-02 -1.605124026536941528e-01 1.792486608028411865e-01
2.236000000000000000e+03 5.162089157104492188e+01 -1.671985054016113281e+01 -9.130595922470092773e-01 -6.344757080078125000e-01 -4.642605781555175781e-01 6.925090551376342773e-01
2.237000000000000000e+03 4.960139846801757812e+01 -1.649685859680175781e+01 -3.054283559322357178e-01 7.088995575904846191e-01 1.210413575172424316e-01 -2.906300723552703857e-01
2.238000000000000000e+03 4.828419494628906250e+01 -1.696115112304687500e+01 9.813237935304641724e-02 2.031820535659790039e+00 6.389858722686767578e-01 -1.048353791236877441e+00
2.239000000000000000e+03 4.723865890502929688e+01 -1.786744117736816406e+01 2.802725732326507568e-01 3.205852031707763672e+00 1.045837402343750000e+00 -1.571805477142333984e+00
2.240000000000000000e+03 4.427025604248046875e+01 -1.741067123413085938e+01 6.209514737129211426e-01 6.110939025878906250e+00 2.019567251205444336e+00 -1.709856271743774414e+00
2.241000000000000000e+03 4.356133651733398438e+01 -1.767692756652832031e+01 2.945219576358795166e-01 6.956187248229980469e+00 2.175212860107421875e+00 -1.460283637046813965e+00
2.242000000000000000e+03 4.910383605957031250e+01 -1.601078224182128906e+01 -8.286555111408233643e-02 8.607157468795776367e-01 2.333550602197647095e-01 -3.736240863800048828e-01
2.243000000000000000e+03 4.779661560058593750e+01 -1.718102645874023438e+01 2.017294317483901978e-01 2.501778602600097656e+00 8.110524415969848633e-01 -1.305871844291687012e+00
2.244000000000000000e+03 4.604438400268554688e+01 -1.772287940979003906e+01 4.076998233795166016e-01 4.249323368072509766e+00 1.397107005119323730e+00 -1.674799561500549316e+00
2.245000000000000000e+03 3.557069396972656250e+01 -1.780002593994140625e+01 5.109106898307800293e-01 2.335387468338012695e+00 8.538894653320312500e-01 -7.895820140838623047e-01
2.246000000000000000e+03 2.978322601318359375e+01 -1.758888626098632812e+01 -3.425016999244689941e-01 4.279642581939697266e+00 1.181142210960388184e+00 -9.300276637077331543e-01
2.247000000000000000e+03 2.757392692565917969e+01 -1.706295013427734375e+01 -6.507940292358398438e-01 4.799080371856689453e+00 1.244485855102539062e+00 -3.805825114250183105e-01
2.248000000000000000e+03 2.408502769470214844e+01 -1.747820472717285156e+01 -3.548293113708496094e-01 4.002052783966064453e+00 1.094166994094848633e+00 7.636656165122985840e-01
2.249000000000000000e+03 2.350208663940429688e+01 -1.795590972900390625e+01 -2.223252058029174805e-01 3.599805116653442383e+00 1.013244032859802246e+00 8.037118911743164062e-01
2.250000000000000000e+03 2.850578117370605469e+01 -1.681194496154785156e+01 -5.231277346611022949e-01 4.785570621490478516e+00 1.278732895851135254e+00 -6.903951764106750488e-01
2.251000000000000000e+03 2.668944549560546875e+01 -1.714652824401855469e+01 -5.842760801315307617e-01 4.758666992187500000e+00 1.252317309379577637e+00 -2.194124087691307068e-02
2.252000000000000000e+03 2.525312042236328125e+01 -1.775560188293457031e+01 -5.248883962631225586e-01 4.349951744079589844e+00 1.147519111633300781e+00 4.025427997112274170e-01
2.253000000000000000e+03 1.763286209106445312e+01 -1.653215026855468750e+01 4.782547354698181152e-01 1.254440426826477051e+00 5.198085308074951172e-01 6.050952672958374023e-01
2.254000000000000000e+03 1.652906608581542969e+01 -1.590455150604248047e+01 4.901531636714935303e-01 9.624859690666198730e-01 4.357917308807373047e-01 4.212694764137268066e-01
2.255000000000000000e+03 1.682028198242187500e+01 -1.674517822265625000e+01 4.851571619510650635e-01 1.114701747894287109e+00 4.799576699733734131e-01 4.942960441112518311e-01
2.256000000000000000e+03 1.582624530792236328e+01 -1.632957267761230469e+01 4.764921665191650391e-01 8.893417716026306152e-01 4.097501635551452637e-01 3.648350536823272705e-01
2.257000000000000000e+03 5.003244018554687500e+01 -1.499852657318115234e+01 -4.257075786590576172e-01 -3.205342888832092285e-01 -2.238725572824478149e-01 4.189339578151702881e-01
2.258000000000000000e+03 4.955485916137695312e+01 -1.550416088104248047e+01 -2.766008973121643066e-01 2.311952859163284302e-01 -1.362168323248624802e-02 -4.487552214413881302e-03
2.259000000000000000e+03 4.793467712402343750e+01 -1.510098266601562500e+01 2.221439629793167114e-01 1.548904657363891602e+00 5.313145518302917480e-01 -7.033246159553527832e-01
2.260000000000000000e+03 4.589482116699218750e+01 -1.585664653778076172e+01 6.792393326759338379e-01 4.230552196502685547e+00 1.472937464714050293e+00 -1.420096039772033691e+00
2.261000000000000000e+03 4.356696701049804688e+01 -1.539316463470458984e+01 1.766622066497802734e+00 7.703030109405517578e+00 2.840895652770996094e+00 -8.130474090576171875e-01
2.262000000000000000e+03 4.622530746459960938e+01 -1.514317607879638672e+01 6.397147178649902344e-01 3.630115270614624023e+00 1.280948996543884277e+00 -1.242815136909484863e+00
2.263000000000000000e+03 3.771261978149414062e+01 -1.615244483947753906e+01 -4.345957338809967041e-01 9.305739998817443848e-01 1.487934738397598267e-01 -4.149595499038696289e-01
2.264000000000000000e+03 3.504006958007812500e+01 -1.574040508270263672e+01 1.503574699163436890e-01 2.114656686782836914e+00 6.795042157173156738e-01 -1.141564846038818359e+00
2.265000000000000000e+03 3.548437881469726562e+01 -1.517165279388427734e+01 -7.243740558624267578e-02 1.758414030075073242e+00 5.057929754257202148e-01 -9.390892982482910156e-01
2.266000000000000000e+03 3.266415786743164062e+01 -1.644304084777832031e+01 9.227520227432250977e-02 3.231534004211425781e+00 9.971427917480468750e-01 -1.324320673942565918e+00
2.267000000000000000e+03 3.041256904602050781e+01 -1.556693935394287109e+01 -2.004243880510330200e-01 4.395332813262939453e+00 1.258472561836242676e+00 -1.361164927482604980e+00
2.268000000000000000e+03 2.899612998962402344e+01 -1.576831150054931641e+01 -4.372619092464447021e-01 4.989180088043212891e+00 1.365575432777404785e+00 -9.870567917823791504e-01
2.269000000000000000e+03 2.701070594787597656e+01 -1.422430419921875000e+01 -6.327980160713195801e-01 6.294523715972900391e+00 1.698517680168151855e+00 -2.110639661550521851e-01
2.270000000000000000e+03 2.620469856262207031e+01 -1.524909877777099609e+01 -6.550551056861877441e-01 5.689618587493896484e+00 1.510369062423706055e+00 3.647959232330322266e-01
2.271000000000000000e+03 2.379388809204101562e+01 -1.524284267425537109e+01 -1.001254022121429443e-01 4.194738388061523438e+00 1.228383898735046387e+00 1.334366321563720703e+00
2.272000000000000000e+03 2.285544967651367188e+01 -1.545842075347900391e+01 1.640825122594833374e-01 3.502851963043212891e+00 1.100080370903015137e+00 1.383877515792846680e+00
2.273000000000000000e+03 2.720596122741699219e+01 -1.509838294982910156e+01 -7.330913543701171875e-01 5.803642272949218750e+00 1.521165251731872559e+00 -3.973480165004730225e-01
2.274000000000000000e+03 2.520256805419921875e+01 -1.556090354919433594e+01 -5.076766610145568848e-01 5.049273490905761719e+00 1.362479090690612793e+00 7.776988148689270020e-01
2.275000000000000000e+03 2.003059959411621094e+01 -1.568530559539794922e+01 5.232462882995605469e-01 1.941255688667297363e+00 7.393506169319152832e-01 1.043483734130859375e+00
2.276000000000000000e+03 2.130847740173339844e+01 -1.518042850494384766e+01 5.153816342353820801e-01 2.465293645858764648e+00 8.942026495933532715e-01 1.318665981292724609e+00
2.277000000000000000e+03 1.872420501708984375e+01 -1.685513114929199219e+01 4.395613670349121094e-01 1.614684343338012695e+00 6.162737011909484863e-01 7.535810470581054688e-01
2.278000000000000000e+03 1.783904075622558594e+01 -1.448384284973144531e+01 6.574112772941589355e-01 9.712225198745727539e-01 4.885901510715484619e-01 5.418928861618041992e-01
2.279000000000000000e+03 1.617306137084960938e+01 -1.416492176055908203e+01 5.251115560531616211e-01 6.675547361373901367e-01 3.577998876571655273e-01 2.888514101505279541e-01
2.280000000000000000e+03 1.608173942565917969e+01 -1.526076889038085938e+01 5.278996825218200684e-01 7.886269092559814453e-01 3.949579596519470215e-01 3.554007112979888916e-01
2.281000000000000000e+03 1.478580379486083984e+01 -1.636302757263183594e+01 4.206992685794830322e-01 7.551331520080566406e-01 3.527497351169586182e-01 2.655956447124481201e-01
2.282000000000000000e+03 1.318247127532958984e+01 -1.544955730438232422e+01 3.354145884513854980e-01 4.936534464359283447e-01 2.487204223871231079e-01 6.693933159112930298e-02
2.283000000000000000e+03 1.106128311157226562e+01 -1.502864837646484375e+01 2.417788952589035034e-01 3.016513884067535400e-01 1.630290895700454712e-01 -4.657625406980514526e-02
2.284000000000000000e+03 1.242659759521484375e+01 -1.579067325592041016e+01 3.070244789123535156e-01 4.373596012592315674e-01 2.233152240514755249e-01 5.190088599920272827e-02
2.285000000000000000e+03 9.263316154479980469e+00 -1.609643363952636719e+01 1.729379594326019287e-01 1.966746598482131958e-01 1.108837872743606567e-01 -6.776476651430130005e-02
2.286000000000000000e+03 7.328481674194335938e+00 -1.621574592590332031e+01 1.111566796898841858e-01 3.595557436347007751e-02 4.413367435336112976e-02 -9.637156128883361816e-02
2.287000000000000000e+03 5.511435985565185547e+00 -1.619625473022460938e+01 6.707896292209625244e-02 -1.179076880216598511e-01 -1.524861715734004974e-02 -1.056529060006141663e-01
2.288000000000000000e+03 3.760506153106689453e+00 -1.620792007446289062e+01 3.397201374173164368e-02 -2.777499556541442871e-01 -7.313337922096252441e-02 -9.450956434011459351e-02
2.289000000000000000e+03 2.063889741897583008e+00 -1.626779174804687500e+01 1.033439114689826965e-02 -4.487084448337554932e-01 -1.315122246742248535e-01 -6.373764574527740479e-02
2.290000000000000000e+03 4.775601196289062500e+01 -1.393088817596435547e+01 1.588036268949508667e-01 1.293556690216064453e+00 4.357081055641174316e-01 -4.691788852214813232e-01
2.291000000000000000e+03 4.835871505737304688e+01 -1.332384681701660156e+01 -2.226980775594711304e-01 4.553432390093803406e-02 -5.314912647008895874e-02 1.220025867223739624e-01
2.292000000000000000e+03 4.651796340942382812e+01 -1.438138771057128906e+01 5.501957535743713379e-01 3.173409700393676758e+00 1.117081642150878906e+00 -9.560341238975524902e-01
2.293000000000000000e+03 4.322353363037109375e+01 -1.380891990661621094e+01 1.381613373756408691e+00 8.642954826354980469e+00 3.007370471954345703e+00 -1.462956815958023071e-01
2.294000000000000000e+03 4.193604278564453125e+01 -1.427606678009033203e+01 2.139286279678344727e+00 1.124483489990234375e+01 4.015236377716064453e+00 -3.124050796031951904e-01
2.295000000000000000e+03 4.327640151977539062e+01 -1.444480705261230469e+01 1.587678074836730957e+00 8.557340621948242188e+00 3.043505430221557617e+00 -4.104310274124145508e-01
2.296000000000000000e+03 4.588653564453125000e+01 -1.366158580780029297e+01 4.497629404067993164e-01 4.227171897888183594e+00 1.403080463409423828e+00 -8.480888605117797852e-01
2.297000000000000000e+03 4.585359954833984375e+01 -1.115890598297119141e+01 -7.912775874137878418e-02 4.802700996398925781e+00 1.417071938514709473e+00 -5.819186568260192871e-01
2.298000000000000000e+03 4.631437683105468750e+01 -1.181358814239501953e+01 3.293165564537048340e-02 3.488480567932128906e+00 1.056423664093017578e+00 -6.332066655158996582e-01
2.299000000000000000e+03 4.532527160644531250e+01 -1.267392349243164062e+01 1.558054089546203613e-01 5.339997768402099609e+00 1.648741006851196289e+00 -5.108464360237121582e-01
2.300000000000000000e+03 4.467437744140625000e+01 -1.234619140625000000e+01 2.941841483116149902e-01 6.723197937011718750e+00 2.105214595794677734e+00 -1.740309596061706543e-01
2.301000000000000000e+03 4.478136825561523438e+01 -1.095023727416992188e+01 -2.137054502964019775e-01 7.098880290985107422e+00 2.065552473068237305e+00 -8.233290910720825195e-02
2.302000000000000000e+03 4.204140472412109375e+01 -9.968788146972656250e+00 -1.701019555330276489e-01 9.721881866455078125e+00 2.865534067153930664e+00 4.883681535720825195e-01
2.303000000000000000e+03 4.149272918701171875e+01 -1.209020328521728516e+01 9.733980298042297363e-01 1.205701732635498047e+01 3.909124612808227539e+00 -1.578631252050399780e-01
2.304000000000000000e+03 4.544392395019531250e+01 -1.047764110565185547e+01 -4.355983063578605652e-02 6.064220428466796875e+00 1.806198120117187500e+00 -5.655016899108886719e-01
2.305000000000000000e+03 4.464429473876953125e+01 -8.565836906433105469e+00 -1.097194179892539978e-01 9.374298095703125000e+00 2.779373645782470703e+00 -4.831843674182891846e-01
2.306000000000000000e+03 4.320383071899414062e+01 -8.283275604248046875e+00 -1.423601806163787842e-02 9.746054649353027344e+00 2.919545650482177734e+00 8.011031150817871094e-01
2.307000000000000000e+03 4.526995086669921875e+01 -7.711975097656250000e+00 5.651549696922302246e-01 1.023985767364501953e+01 3.241503715515136719e+00 -2.131564140319824219e+00
2.308000000000000000e+03 4.487034606933593750e+01 -6.322567939758300781e+00 1.048226714134216309e+00 1.560657405853271484e+01 4.996440410614013672e+00 -1.469342827796936035e+00
2.309000000000000000e+03 4.269930267333984375e+01 -7.444896221160888672e+00 5.864559412002563477e-01 9.280629158020019531e+00 2.960125446319580078e+00 8.264331221580505371e-01
2.310000000000000000e+03 3.882363510131835938e+01 -6.856747627258300781e+00 6.239857077598571777e-01 3.560905218124389648e+00 1.255467295646667480e+00 -1.315022945404052734e+00
2.311000000000000000e+03 4.006771469116210938e+01 -7.190986633300781250e+00 5.669096112251281738e-01 5.526264190673828125e+00 1.827952146530151367e+00 -7.950948476791381836e-01
2.312000000000000000e+03 3.727343368530273438e+01 -5.984102249145507812e+00 4.907016754150390625e-01 1.777998208999633789e+00 6.806099414825439453e-01 -8.837291598320007324e-01
2.313000000000000000e+03 3.429697799682617188e+01 -1.403596305847167969e+01 2.464509904384613037e-01 2.064539909362792969e+00 6.932972669601440430e-01 -1.108407020568847656e+00
2.314000000000000000e+03 3.411818695068359375e+01 -1.134284782409667969e+01 9.358202815055847168e-01 1.396548032760620117e+00 6.997104883193969727e-01 -1.120905280113220215e+00
2.315000000000000000e+03 3.088364791870117188e+01 -1.416933917999267578e+01 -2.518716827034950256e-02 4.224181652069091797e+00 1.259698271751403809e+00 -1.645602345466613770e+00
2.316000000000000000e+03 2.657381629943847656e+01 -1.358781051635742188e+01 -5.795513391494750977e-01 6.759548187255859375e+00 1.853999018669128418e+00 -2.243165113031864166e-02
2.317000000000000000e+03 2.593838310241699219e+01 -1.300823783874511719e+01 -7.364954948425292969e-01 7.586928844451904297e+00 2.055130004882812500e+00 6.995941400527954102e-01
2.318000000000000000e+03 2.408199501037597656e+01 -1.394222545623779297e+01 3.770232200622558594e-02 4.840804100036621094e+00 1.463551878929138184e+00 1.760782599449157715e+00
2.319000000000000000e+03 2.345628356933593750e+01 -1.337100791931152344e+01 3.095294833183288574e-01 4.152976036071777344e+00 1.338751673698425293e+00 2.114969968795776367e+00
2.320000000000000000e+03 2.465186882019042969e+01 -1.324222755432128906e+01 -2.247408628463745117e-01 5.766210079193115234e+00 1.662440776824951172e+00 1.804515719413757324e+00
2.321000000000000000e+03 2.027291488647460938e+01 -1.358730983734130859e+01 9.814238548278808594e-01 1.458036065101623535e+00 7.318379878997802734e-01 1.155429005622863770e+00
2.322000000000000000e+03 2.135864067077636719e+01 -1.432274246215820312e+01 6.849906444549560547e-01 2.284276247024536133e+00 8.907800912857055664e-01 1.399668335914611816e+00
2.323000000000000000e+03 1.841190910339355469e+01 -1.501984405517578125e+01 6.622236967086791992e-01 1.199558496475219727e+00 5.585346817970275879e-01 7.139093279838562012e-01
2.324000000000000000e+03 1.841438102722167969e+01 -1.377655887603759766e+01 7.586147785186767578e-01 9.237393736839294434e-01 5.047062635421752930e-01 6.493963003158569336e-01
2.325000000000000000e+03 1.662701606750488281e+01 -1.173700809478759766e+01 3.910834193229675293e-01 4.202064275741577148e-01 2.433869540691375732e-01 5.108821764588356018e-02
2.326000000000000000e+03 1.403937625885009766e+01 -1.333183288574218750e+01 3.193575739860534668e-01 4.270356893539428711e-01 2.239179760217666626e-01 -4.058240447193384171e-03
2.327000000000000000e+03 1.335349178314208984e+01 -1.378095340728759766e+01 3.046525716781616211e-01 4.032258391380310059e-01 2.123635113239288330e-01 -7.515253033488988876e-03
2.328000000000000000e+03 1.096881103515625000e+01 -1.316084289550781250e+01 1.823056191205978394e-01 2.341608703136444092e-01 1.249399483203887939e-01 -1.291971653699874878e-01
2.329000000000000000e+03 8.920504570007324219e+00 -1.430948734283447266e+01 1.316119581460952759e-01 1.333302259445190430e-01 7.948265224695205688e-02 -1.340250372886657715e-01
2.330000000000000000e+03 1.270239067077636719e+01 -1.398060894012451172e+01 2.630175948143005371e-01 3.821926116943359375e-01 1.935630589723587036e-01 -3.598218038678169250e-02
2.331000000000000000e+03 1.181959629058837891e+01 -1.327430248260498047e+01 2.023854851722717285e-01 3.027733564376831055e-01 1.515476554632186890e-01 -1.031011417508125305e-01
2.332000000000000000e+03 7.132977962493896484e+00 -1.448142719268798828e+01 8.945254236459732056e-02 9.577062912285327911e-03 2.970888093113899231e-02 -1.443453431129455566e-01
2.333000000000000000e+03 5.400133132934570312e+00 -1.453073215484619141e+01 5.428712442517280579e-02 -1.214255467057228088e-01 -2.014152705669403076e-02 -1.402691304683685303e-01
2.334000000000000000e+03 3.730467319488525391e+00 -1.539001274108886719e+01 3.488695248961448669e-02 -2.705998122692108154e-01 -7.071386277675628662e-02 -1.069342270493507385e-01
2.335000000000000000e+03 1.991799950599670410e+00 -1.386708354949951172e+01 1.006623543798923492e-02 -3.883218169212341309e-01 -1.134766712784767151e-01 -8.346177637577056885e-02
2.336000000000000000e+03 3.224704742431640625e+01 -1.136539840698242188e+01 8.967905640602111816e-01 2.661488294601440430e+00 1.067483663558959961e+00 -1.607257604598999023e+00
2.337000000000000000e+03 3.290412521362304688e+01 -1.276914691925048828e+01 5.075692534446716309e-01 2.621560573577880859e+00 9.387389421463012695e-01 -1.468472599983215332e+00
2.338000000000000000e+03 3.060594940185546875e+01 -1.100274944305419922e+01 1.038965821266174316e+00 4.325545310974121094e+00 1.609353303909301758e+00 -2.127761125564575195e+00
2.339000000000000000e+03 2.859933090209960938e+01 -1.186323833465576172e+01 4.526453614234924316e-01 6.706733703613281250e+00 2.147813796997070312e+00 -1.640463352203369141e+00
2.340000000000000000e+03 2.738382339477539062e+01 -1.176443290710449219e+01 1.374789774417877197e-01 8.227592468261718750e+00 2.509521484375000000e+00 -8.281542658805847168e-01
2.341000000000000000e+03 2.689544296264648438e+01 -1.108472537994384766e+01 1.967205852270126343e-01 9.194189071655273438e+00 2.817272901535034180e+00 -1.157032012939453125e+00
2.342000000000000000e+03 2.372178459167480469e+01 -1.145241260528564453e+01 1.602766752243041992e+00 4.483904361724853516e+00 1.826001286506652832e+00 3.340652227401733398e+00
2.343000000000000000e+03 2.259701538085937500e+01 -1.176424217224121094e+01 1.648817658424377441e+00 2.347054958343505859e+00 1.198761820793151855e+00 2.519120931625366211e+00
2.344000000000000000e+03 1.989143371582031250e+01 -1.204576587677001953e+01 1.109116435050964355e+00 6.828920841217041016e-01 5.376025438308715820e-01 7.532938122749328613e-01
2.345000000000000000e+03 2.126751518249511719e+01 -1.087888526916503906e+01 1.221488833427429199e+00 5.513566136360168457e-01 5.318536162376403809e-01 1.269865393638610840e+00
2.346000000000000000e+03 1.907131767272949219e+01 -1.431095886230468750e+01 7.290362119674682617e-01 1.241636991500854492e+00 5.912019610404968262e-01 7.896512746810913086e-01
2.347000000000000000e+03 1.838048934936523438e+01 -1.256013774871826172e+01 7.332406044006347656e-01 6.485034823417663574e-01 4.145232141017913818e-01 4.791397750377655029e-01
2.348000000000000000e+03 1.711147880554199219e+01 -1.010277843475341797e+01 8.289487659931182861e-02 3.020299077033996582e-01 1.154774352908134460e-01 -5.936507880687713623e-02
2.349000000000000000e+03 1.578099441528320312e+01 -1.307631587982177734e+01 4.143126010894775391e-01 5.163502097129821777e-01 2.791988551616668701e-01 1.180926263332366943e-01
2.350000000000000000e+03 1.493307113647460938e+01 -1.210555362701416016e+01 2.803762853145599365e-01 3.992334902286529541e-01 2.038829326629638672e-01 -2.735132165253162384e-02
2.351000000000000000e+03 1.251313304901123047e+01 -1.127862834930419922e+01 1.105032786726951599e-01 2.687664031982421875e-01 1.137809082865715027e-01 -1.548882126808166504e-01
2.352000000000000000e+03 1.155228710174560547e+01 -1.176429748535156250e+01 1.173399239778518677e-01 2.315879911184310913e-01 1.046783775091171265e-01 -1.615966260433197021e-01
2.353000000000000000e+03 9.634693145751953125e+00 -1.142826843261718750e+01 4.899337142705917358e-02 1.470568776130676270e-01 5.881507322192192078e-02 -1.924373805522918701e-01
2.354000000000000000e+03 7.506355762481689453e+00 -1.200455474853515625e+01 4.463592544198036194e-02 3.020735643804073334e-02 2.245298400521278381e-02 -1.940870136022567749e-01
2.355000000000000000e+03 7.658047676086425781e+00 -1.279596519470214844e+01 7.612489908933639526e-02 3.530418500304222107e-02 3.342872485518455505e-02 -1.741808056831359863e-01
2.356000000000000000e+03 1.326579570770263672e+01 -1.154973983764648438e+01 1.278312504291534424e-01 3.119192421436309814e-01 1.319251507520675659e-01 -1.233922466635704041e-01
2.357000000000000000e+03 1.126260662078857422e+01 -1.243674182891845703e+01 1.263325065374374390e-01 2.443985491991043091e-01 1.112193167209625244e-01 -1.451076120138168335e-01
2.358000000000000000e+03 1.932680726051330566e+00 -1.229195690155029297e+01 6.232598796486854553e-03 -3.376669883728027344e-01 -9.943031519651412964e-02 -9.064637869596481323e-02
2.359000000000000000e+03 3.518326187133789062e+01 -1.409735774993896484e+01 1.252871006727218628e-01 1.511358141899108887e+00 4.909935891628265381e-01 -8.957011103630065918e-01
2.360000000000000000e+03 3.102183914184570312e+01 -9.392203330993652344e+00 1.375972390174865723e+00 3.363850116729736328e+00 1.421946763992309570e+00 -1.858454585075378418e+00
2.361000000000000000e+03 3.094797897338867188e+01 -1.043721103668212891e+01 1.292943477630615234e+00 3.718391895294189453e+00 1.503400564193725586e+00 -1.984408378601074219e+00
2.362000000000000000e+03 2.989633941650390625e+01 -1.058605480194091797e+01 1.265404343605041504e+00 5.106523990631103516e+00 1.911578536033630371e+00 -2.115859985351562500e+00
2.363000000000000000e+03 2.689731979370117188e+01 -9.876166343688964844e+00 1.439378499984741211e+00 1.097179889678955078e+01 3.723353385925292969e+00 -1.502419352531433105e+00
2.364000000000000000e+03 2.528776168823242188e+01 -1.038537311553955078e+01 2.636964023113250732e-01 1.277984142303466797e+01 3.913061380386352539e+00 2.420711994171142578e+00
2.365000000000000000e+03 2.483358573913574219e+01 -1.114526462554931641e+01 6.300528645515441895e-01 8.389537811279296875e+00 2.705877304077148438e+00 3.636451005935668945e+00
2.366000000000000000e+03 2.804579544067382812e+01 -1.118496227264404297e+01 4.691936969757080078e-01 7.816896915435791016e+00 2.485827207565307617e+00 -1.829345345497131348e+00
2.367000000000000000e+03 2.306915092468261719e+01 -1.101749992370605469e+01 1.576247215270996094e+00 2.444579601287841797e+00 1.206248044967651367e+00 2.695095062255859375e+00
2.368000000000000000e+03 1.787222671508789062e+01 -1.189205741882324219e+01 5.888069868087768555e-01 4.662138223648071289e-01 3.165062367916107178e-01 2.049431502819061279e-01
2.369000000000000000e+03 1.823228454589843750e+01 -1.065765190124511719e+01 3.437245190143585205e-01 2.940714955329895020e-01 1.913388073444366455e-01 6.888341158628463745e-02
2.370000000000000000e+03 1.660671997070312500e+01 -8.895627975463867188e+00 -2.117184847593307495e-01 2.627633213996887207e-01 1.531345397233963013e-02 -5.365055426955223083e-02
2.371000000000000000e+03 1.612289237976074219e+01 -1.021521663665771484e+01 8.342041075229644775e-02 3.161110877990722656e-01 1.198594421148300171e-01 -6.201930716633796692e-02
2.372000000000000000e+03 1.433252239227294922e+01 -1.100014114379882812e+01 1.083905547857284546e-01 3.310896158218383789e-01 1.318440586328506470e-01 -1.110284775495529175e-01
2.373000000000000000e+03 1.203073883056640625e+01 -9.603549003601074219e+00 -5.001156404614448547e-02 2.374887615442276001e-01 5.624315887689590454e-02 -1.831265240907669067e-01
2.374000000000000000e+03 1.044180679321289062e+01 -1.000636672973632812e+01 -4.840355366468429565e-03 1.678148359060287476e-01 4.889234527945518494e-02 -1.917168200016021729e-01
2.375000000000000000e+03 7.314040660858154297e+00 -9.548117637634277344e+00 -1.959540322422981262e-02 2.527393214404582977e-02 1.703558373264968395e-03 -1.951168179512023926e-01
2.376000000000000000e+03 6.540266036987304688e+00 -1.038467121124267578e+01 1.794809126295149326e-03 -1.922800764441490173e-02 -5.229959264397621155e-03 -1.920804083347320557e-01
2.377000000000000000e+03 5.858274936676025391e+00 -1.126816177368164062e+01 1.763588562607765198e-02 -6.325434148311614990e-02 -1.368553563952445984e-02 -1.840896904468536377e-01
2.378000000000000000e+03 1.354524135589599609e+01 -1.070152187347412109e+01 8.356488496065139771e-02 2.964551150798797607e-01 1.140060052275657654e-01 -1.489271372556686401e-01
2.379000000000000000e+03 1.193066501617431641e+01 -1.033852005004882812e+01 2.658038027584552765e-02 2.298204451799392700e-01 7.692024856805801392e-02 -1.754213720560073853e-01
2.380000000000000000e+03 8.932928085327148438e+00 -9.737386703491210938e+00 -1.816087588667869568e-02 1.002702638506889343e-01 2.463281713426113129e-02 -1.982329934835433960e-01
2.381000000000000000e+03 7.401197910308837891e+00 -1.120277118682861328e+01 2.563402801752090454e-02 2.218122407793998718e-02 1.434457581490278244e-02 -1.935943365097045898e-01
2.382000000000000000e+03 4.176683902740478516e+00 -1.064257049560546875e+01 8.508867467753589153e-04 -1.480305045843124390e-01 -4.415388405323028564e-02 -1.629180312156677246e-01
2.383000000000000000e+03 1.884358882904052734e+00 -1.073541545867919922e+01 2.243604045361280441e-03 -2.805650234222412109e-01 -8.349642902612686157e-02 -9.261029213666915894e-02
2.384000000000000000e+03 2.611205291748046875e+01 -8.060036659240722656e+00 4.225328445434570312e+00 1.523930263519287109e+01 5.839389324188232422e+00 1.114982962608337402e+00
2.385000000000000000e+03 2.604263687133789062e+01 -6.744029521942138672e+00 2.665326595306396484e+00 1.696828842163085938e+01 5.890084743499755859e+00 1.451884359121322632e-01
2.386000000000000000e+03 1.926814079284667969e+01 -1.100591278076171875e+01 6.383490562438964844e-01 3.441207706928253174e-01 2.947409451007843018e-01 2.918267846107482910e-01
2.387000000000000000e+03 1.862482833862304688e+01 -8.718330383300781250e+00 -4.256275892257690430e-01 1.518054157495498657e-01 -8.214665204286575317e-02 1.042912006378173828e-01
2.388000000000000000e+03 1.768414306640625000e+01 -6.639814376831054688e+00 -5.684437155723571777e-01 -1.527379825711250305e-02 -1.751152426004409790e-01 2.620252072811126709e-01
2.389000000000000000e+03 1.619255256652832031e+01 -7.571843147277832031e+00 -3.657170832157135010e-01 1.923751682043075562e-01 -5.200257524847984314e-02 1.562855392694473267e-02
2.390000000000000000e+03 1.524423122406005859e+01 -7.947242736816406250e+00 -2.528685331344604492e-01 2.418090254068374634e-01 -3.317853901535272598e-03 -8.001791685819625854e-02
2.391000000000000000e+03 1.374081134796142578e+01 -8.732074737548828125e+00 -1.565651446580886841e-01 2.668539881706237793e-01 3.308665752410888672e-02 -1.365176439285278320e-01
2.392000000000000000e+03 1.215523815155029297e+01 -8.851375579833984375e+00 -8.615802973508834839e-02 2.210078686475753784e-01 4.045495018362998962e-02 -1.668617278337478638e-01
2.393000000000000000e+03 1.069817352294921875e+01 -8.504726409912109375e+00 -9.251930564641952515e-02 1.669829487800598145e-01 2.233909256756305695e-02 -1.756126135587692261e-01
2.394000000000000000e+03 7.355378627777099609e+00 -8.704615592956542969e+00 -4.616514965891838074e-02 3.108388185501098633e-02 -4.524379968643188477e-03 -1.955034434795379639e-01
2.395000000000000000e+03 5.898524284362792969e+00 -7.549628734588623047e+00 -4.436234757304191589e-02 -2.227372489869594574e-02 -1.999082230031490326e-02 -1.668843477964401245e-01
2.396000000000000000e+03 4.813744544982910156e+00 -7.953163623809814453e+00 -3.044678643345832825e-02 -6.853257864713668823e-02 -2.969381026923656464e-02 -1.576100140810012817e-01
2.397000000000000000e+03 3.302233695983886719e+00 -9.214508056640625000e+00 -6.277459207922220230e-03 -1.584878116846084595e-01 -4.942958056926727295e-02 -1.367882490158081055e-01
2.398000000000000000e+03 1.144213485717773438e+01 -8.689661026000976562e+00 -1.097611263394355774e-01 2.033403068780899048e-01 2.807375602424144745e-02 -1.817548722028732300e-01
2.399000000000000000e+03 9.786282539367675781e+00 -9.080837249755859375e+00 -5.045702308416366577e-02 1.349160075187683105e-01 2.533769421279430389e-02 -1.913338005542755127e-01
2.400000000000000000e+03 5.606916427612304688e+00 -9.611930847167968750e+00 -1.504959259182214737e-02 -5.687684938311576843e-02 -2.157793194055557251e-02 -1.817822605371475220e-01
2.401000000000000000e+03 1.855817556381225586e+00 -9.185488700866699219e+00 -1.502974540926516056e-03 -2.206887751817703247e-01 -6.665752083063125610e-02 -8.987110853195190430e-02
2.402000000000000000e+03 2.984385108947753906e+01 -6.265202522277832031e+00 6.929936408996582031e-01 6.284737110137939453e+00 2.093319177627563477e+00 -9.280759841203689575e-02
2.403000000000000000e+03 2.951111793518066406e+01 -6.821384429931640625e+00 1.208214879035949707e+00 6.811531543731689453e+00 2.405924081802368164e+00 -2.871746122837066650e-01
2.404000000000000000e+03 3.100774955749511719e+01 -5.729659080505371094e+00 1.986744105815887451e-01 2.600597620010375977e+00 8.397815823554992676e-01 -4.460114836692810059e-01
2.405000000000000000e+03 2.651480102539062500e+01 -5.014528274536132812e+00 2.060185909271240234e+00 1.218641185760498047e+01 4.273979187011718750e+00 4.475425481796264648e-01
2.406000000000000000e+03 2.738103675842285156e+01 -3.018928050994873047e+00 3.443610668182373047e+00 8.358534812927246094e+00 3.540643692016601562e+00 2.060328245162963867e+00
2.407000000000000000e+03 8.210633277893066406e+00 6.535162925720214844e+00 2.456268548965454102e+00 2.356029272079467773e+00 1.443689346313476562e+00 -2.588403940200805664e+00
2.408000000000000000e+03 6.770832061767578125e+00 7.000254631042480469e+00 1.691561222076416016e+00 1.004529953002929688e+00 8.088273406028747559e-01 -1.842247128486633301e+00
2.409000000000000000e+03 4.012114048004150391e+00 6.391646385192871094e+00 1.013156056404113770e+00 -2.239100337028503418e-01 2.367738187313079834e-01 -5.536179542541503906e-01
2.410000000000000000e+03 2.520581960678100586e+00 6.907914161682128906e+00 3.758552968502044678e-01 -3.877936899662017822e-01 -3.581524128094315529e-03 -3.655340373516082764e-01
2.411000000000000000e+03 6.699233055114746094e+00 7.805059432983398438e+00 9.308939576148986816e-01 1.291357398033142090e+00 6.666754484176635742e-01 -1.846016764640808105e+00
2.412000000000000000e+03 4.093092441558837891e+00 7.701557159423828125e+00 6.510877013206481934e-01 2.033183574676513672e-01 2.563218176364898682e-01 -9.862850904464721680e-01
2.413000000000000000e+03 2.023197174072265625e+00 8.471567153930664062e+00 1.635682731866836548e-01 -1.706870645284652710e-01 -2.135636750608682632e-03 -5.874488353729248047e-01
2.414000000000000000e+03 6.560318470001220703e+00 9.846093177795410156e+00 -2.359036356210708618e-01 1.539782881736755371e+00 3.911637663841247559e-01 -1.501552581787109375e+00
2.415000000000000000e+03 6.856769561767578125e+00 1.072911453247070312e+01 -5.605233311653137207e-01 1.617716789245605469e+00 3.171580135822296143e-01 -1.304212093353271484e+00
2.416000000000000000e+03 4.189455509185791016e+00 9.803093910217285156e+00 8.679680526256561279e-02 7.440991401672363281e-01 2.492687851190567017e-01 -1.185792326927185059e+00
2.417000000000000000e+03 1.900533080101013184e+00 1.004799652099609375e+01 3.029164299368858337e-02 2.054608762264251709e-01 7.072575390338897705e-02 -6.613911390304565430e-01
2.418000000000000000e+03 1.198306846618652344e+01 1.028063869476318359e+01 -9.802107214927673340e-01 -4.867281764745712280e-02 -3.086650669574737549e-01 -4.866462051868438721e-01
2.419000000000000000e+03 1.304202747344970703e+01 1.028435802459716797e+01 -1.052730560302734375e+00 -7.570098638534545898e-01 -5.429221391677856445e-01 -8.063062429428100586e-01
2.420000000000000000e+03 9.485720634460449219e+00 9.830163002014160156e+00 -9.471639394760131836e-01 2.057363033294677734e+00 3.330596983432769775e-01 -9.006330966949462891e-01
2.421000000000000000e+03 4.811691284179687500e+00 1.261716938018798828e+01 -4.136513173580169678e-01 1.232744216918945312e+00 2.457278519868850708e-01 -9.705965518951416016e-01
2.422000000000000000e+03 4.640348434448242188e+00 1.155194091796875000e+01 -3.005446791648864746e-01 1.116260051727294922e+00 2.447146177291870117e-01 -1.064811348915100098e+00
2.423000000000000000e+03 1.884579181671142578e+00 1.160210704803466797e+01 -4.273789748549461365e-02 6.078315973281860352e-01 1.695281118154525757e-01 -6.205941438674926758e-01
2.424000000000000000e+03 1.582406520843505859e+01 1.448312187194824219e+01 -1.947726249694824219e+00 -5.450309514999389648e-01 -7.478271722793579102e-01 -8.159160614013671875e-01
2.425000000000000000e+03 9.832154273986816406e+00 1.280623531341552734e+01 -1.242499589920043945e+00 1.174078345298767090e+00 -2.052638679742813110e-02 -5.282505750656127930e-01
2.426000000000000000e+03 8.055328369140625000e+00 1.291647434234619141e+01 -1.004461884498596191e+00 1.435257434844970703e+00 1.292386502027511597e-01 -7.347195744514465332e-01
2.427000000000000000e+03 6.894469451904296875e+01 1.104981803894042969e+01 1.627587199211120605e+00 7.789201736450195312e+00 2.825036764144897461e+00 1.070859193801879883e+00
2.428000000000000000e+03 7.536898040771484375e+01 1.130773162841796875e+01 -3.742133677005767822e-01 7.189645767211914062e+00 2.044629812240600586e+00 -2.348051548004150391e+00
2.429000000000000000e+03 7.975216865539550781e+00 -2.734310626983642578e+00 -1.393043100833892822e-01 2.091070450842380524e-02 -3.551808372139930725e-02 -6.590756773948669434e-02
2.430000000000000000e+03 1.036398601531982422e+01 -2.663078069686889648e+00 -1.913187205791473389e-01 4.690765589475631714e-02 -4.332331940531730652e-02 -1.583707146346569061e-02
2.431000000000000000e+03 2.101843357086181641e+00 -3.584962129592895508e+00 -1.715008169412612915e-02 -4.385218024253845215e-02 -1.830067858099937439e-02 -4.879655689001083374e-02
2.432000000000000000e+03 2.841194629669189453e+00 -5.319674968719482422e+00 -2.178752794861793518e-02 -7.350762933492660522e-02 -2.858854644000530243e-02 -8.748146891593933105e-02
2.433000000000000000e+03 4.665932655334472656e+00 -6.451859951019287109e+00 -4.609083756804466248e-02 -5.031361430883407593e-02 -2.892133593559265137e-02 -1.388764381408691406e-01
2.434000000000000000e+03 6.025720596313476562e+00 -6.901251792907714844e+00 -6.174700707197189331e-02 -9.475965052843093872e-03 -2.136689238250255585e-02 -1.615222096443176270e-01
2.435000000000000000e+03 8.338274002075195312e+00 -7.071935176849365234e+00 -9.814525395631790161e-02 6.834600120782852173e-02 -8.939773775637149811e-03 -1.616608500480651855e-01
2.436000000000000000e+03 7.490602970123291016e+00 -7.006110668182373047e+00 -8.584359288215637207e-02 3.906375542283058167e-02 -1.403395179659128189e-02 -1.691918969154357910e-01
2.437000000000000000e+03 7.404097080230712891e+00 -5.292716979980468750e+00 -1.081300824880599976e-01 3.354219347238540649e-02 -2.237636595964431763e-02 -1.321094632148742676e-01
2.438000000000000000e+03 3.815566539764404297e+00 -3.674742698669433594e+00 -4.602582007646560669e-02 -3.026882745325565338e-02 -2.288839407265186310e-02 -8.005604147911071777e-02
2.439000000000000000e+03 4.738292694091796875e+00 -4.606480121612548828e+00 -5.647003278136253357e-02 -2.863727509975433350e-02 -2.553219348192214966e-02 -1.089557707309722900e-01
2.440000000000000000e+03 6.577118396759033203e+00 -5.304728031158447266e+00 -8.860314637422561646e-02 9.169184602797031403e-03 -2.383018843829631805e-02 -1.294891685247421265e-01
2.441000000000000000e+03 5.763462543487548828e+00 -5.354848384857177734e+00 -7.135815173387527466e-02 -1.010853052139282227e-02 -2.444000542163848877e-02 -1.313208639621734619e-01
2.442000000000000000e+03 8.788904190063476562e+00 -2.709874868392944336e+00 -1.587481349706649780e-01 2.999200113117694855e-02 -3.862683847546577454e-02 -4.958927258849143982e-02
2.443000000000000000e+03 9.728942871093750000e+00 -4.293681621551513672e+00 -1.739934086799621582e-01 7.482382655143737793e-02 -2.975087240338325500e-02 -7.697315514087677002e-02
2.444000000000000000e+03 1.124634552001953125e+01 -6.173387050628662109e+00 -1.955679506063461304e-01 1.477104127407073975e-01 -1.435726135969161987e-02 -9.735157340764999390e-02
2.445000000000000000e+03 1.375506591796875000e+01 -6.804844856262207031e+00 -2.752969861030578613e-01 2.063894867897033691e-01 -2.067224681377410889e-02 -6.019305437803268433e-02
2.446000000000000000e+03 1.533002471923828125e+01 -6.889058589935302734e+00 -3.695133030414581299e-01 1.975547820329666138e-01 -5.158755555748939514e-02 -3.709919285029172897e-03
2.447000000000000000e+03 1.120979404449462891e+01 -4.116565704345703125e+00 -2.167017757892608643e-01 9.633610397577285767e-02 -3.610970079898834229e-02 -3.190393745899200439e-02
2.448000000000000000e+03 1.265515232086181641e+01 -4.086153030395507812e+00 -2.716340720653533936e-01 1.124946549534797668e-01 -4.774182662367820740e-02 1.743320003151893616e-02
2.449000000000000000e+03 1.503868389129638672e+01 -6.268628120422363281e+00 -4.205914139747619629e-01 1.763368993997573853e-01 -7.327635586261749268e-02 3.064123354852199554e-02
2.450000000000000000e+03 1.192825984954833984e+01 -4.069467067718505859e+00 -2.458481192588806152e-01 1.075525656342506409e-01 -4.148866608738899231e-02 -4.379625432193279266e-03
2.451000000000000000e+03 1.712861061096191406e+01 -3.904805898666381836e+00 -3.668092191219329834e-01 -2.755686640739440918e-01 -1.927133649587631226e-01 2.933464646339416504e-01
2.452000000000000000e+03 1.908267259597778320e+00 -6.839113235473632812e+00 -9.161812253296375275e-03 -1.324617713689804077e-01 -4.248707368969917297e-02 -8.050127327442169189e-02
2.453000000000000000e+03 4.805017471313476562e+00 -7.189225196838378906e+00 -3.751524165272712708e-02 -5.797575414180755615e-02 -2.864729799330234528e-02 -1.516656279563903809e-01
2.454000000000000000e+03 4.961174488067626953e+00 -5.487087726593017578e+00 -5.663863942027091980e-02 -3.452350571751594543e-02 -2.734864316880702972e-02 -1.240711957216262817e-01
2.455000000000000000e+03 9.078871726989746094e+00 -5.244846820831298828e+00 -1.509546041488647461e-01 7.686130702495574951e-02 -2.222798764705657959e-02 -1.147090196609497070e-01
2.456000000000000000e+03 1.011077594757080078e+01 -5.998083591461181641e+00 -1.644874364137649536e-01 1.176062524318695068e-01 -1.406435575336217880e-02 -1.218734905123710632e-01
2.457000000000000000e+03 1.132118034362792969e+01 -7.261139869689941406e+00 -1.575756371021270752e-01 1.747285872697830200e-01 5.145884118974208832e-03 -1.480118781328201294e-01
2.458000000000000000e+03 1.142284488677978516e+01 -5.541825771331787109e+00 -2.271973192691802979e-01 1.481268852949142456e-01 -2.372113056480884552e-02 -8.349183946847915649e-02
2.459000000000000000e+03 1.667421340942382812e+01 -4.452228069305419922e+00 -3.862013518810272217e-01 -1.311923712491989136e-01 -1.552181243896484375e-01 2.604725658893585205e-01
2.460000000000000000e+03 1.637205696105957031e+01 -7.040082931518554688e+00 -5.107917785644531250e-01 1.746057420969009399e-01 -1.008558124303817749e-01 4.758133366703987122e-02
2.461000000000000000e+03 1.823899459838867188e+01 -6.164433956146240234e+00 -6.779597997665405273e-01 -1.949262768030166626e-01 -2.618658244609832764e-01 3.631961345672607422e-01
2.462000000000000000e+03 1.933977699279785156e+01 -6.233699321746826172e+00 -7.515363693237304688e-01 -5.095524191856384277e-01 -3.783266544342041016e-01 5.436792373657226562e-01
2.463000000000000000e+03 1.872719883918762207e+00 -7.628063201904296875e+00 -5.215390119701623917e-03 -1.615333259105682373e-01 -5.002461373805999756e-02 -8.343029022216796875e-02
2.464000000000000000e+03 9.255970001220703125e+00 -7.158263683319091797e+00 -1.240062043070793152e-01 1.062753051519393921e-01 -5.319270305335521698e-03 -1.666353344917297363e-01
2.465000000000000000e+03 2.119621658325195312e+01 -7.939347743988037109e+00 -1.503596663475036621e+00 -6.323149800300598145e-01 -6.407734751701354980e-01 1.113364338874816895e+00
2.466000000000000000e+03 2.740507507324218750e+01 -9.303930282592773438e+00 3.218778610229492188e+00 9.478217124938964844e+00 3.809098720550537109e+00 -1.429316639900207520e+00
2.467000000000000000e+03 2.021775484085083008e+00 -2.109738159179687500e+01 8.765350095927715302e-03 -5.165389180183410645e-01 -1.523320674896240234e-01 -8.527916856110095978e-03
2.468000000000000000e+03 5.302852630615234375e+00 -2.126670646667480469e+01 5.532955750823020935e-02 -1.060051620006561279e-01 -1.520268246531486511e-02 5.561843514442443848e-03
2.469000000000000000e+03 7.085114002227783203e+00 -2.214037513732910156e+01 8.408591896295547485e-02 1.086266711354255676e-01 5.781377479434013367e-02 4.842545092105865479e-02
2.470000000000000000e+03 9.777758598327636719e+00 -2.139546775817871094e+01 1.429155021905899048e-01 4.206277430057525635e-01 1.690629720687866211e-01 1.030982509255409241e-01
2.471000000000000000e+03 1.080680179595947266e+01 -2.129378509521484375e+01 1.736119240522384644e-01 5.320873856544494629e-01 2.117097973823547363e-01 1.292488574981689453e-01
2.472000000000000000e+03 1.274985980987548828e+01 -2.110292434692382812e+01 2.066871225833892822e-01 7.888817787170410156e-01 2.986706793308258057e-01 2.232716083526611328e-01
2.473000000000000000e+03 1.596566295623779297e+01 -2.208965492248535156e+01 1.316126585006713867e-01 1.401351213455200195e+00 4.598891437053680420e-01 3.718929886817932129e-01
2.474000000000000000e+03 1.888208198547363281e+01 -2.081787872314453125e+01 1.043260991573333740e-01 1.973048925399780273e+00 6.232125163078308105e-01 5.619986653327941895e-01
2.475000000000000000e+03 2.062774848937988281e+01 -2.164214706420898438e+01 -4.596191272139549255e-02 2.422602891921997070e+00 7.129923105239868164e-01 5.333176255226135254e-01
2.476000000000000000e+03 2.189974021911621094e+01 -2.214826202392578125e+01 -1.839940696954727173e-01 2.736957788467407227e+00 7.658891081809997559e-01 4.414105415344238281e-01
2.477000000000000000e+03 2.702304077148437500e+01 -2.165252876281738281e+01 -3.973877131938934326e-01 3.673349857330322266e+00 9.827886819839477539e-01 -1.545202583074569702e-01
2.478000000000000000e+03 3.125047302246093750e+01 -2.144075393676757812e+01 -4.021866247057914734e-02 3.539629697799682617e+00 1.049823284149169922e+00 -5.920718312263488770e-01
2.479000000000000000e+03 3.264796447753906250e+01 -2.186296844482421875e+01 8.140307664871215820e-02 3.431630373001098633e+00 1.053910017013549805e+00 -5.155631303787231445e-01
2.480000000000000000e+03 3.558309936523437500e+01 -2.172019958496093750e+01 4.140793383121490479e-01 3.323374509811401367e+00 1.121236085891723633e+00 -1.952890306711196899e-01
2.481000000000000000e+03 3.959344863891601562e+01 -2.074045562744140625e+01 6.466538459062576294e-02 4.651628017425537109e+00 1.414888024330139160e+00 6.453376412391662598e-01
2.482000000000000000e+03 4.254554367065429688e+01 -2.037692070007324219e+01 -4.498233497142791748e-01 6.115888595581054688e+00 1.699819564819335938e+00 -5.498359799385070801e-01
2.483000000000000000e+03 4.626849746704101562e+01 -2.112856864929199219e+01 1.515873521566390991e-02 4.162052154541015625e+00 1.253163218498229980e+00 -1.424434542655944824e+00
2.484000000000000000e+03 4.898297119140625000e+01 -2.117152214050292969e+01 4.336107373237609863e-01 2.761204004287719727e+00 9.584444165229797363e-01 -1.151643753051757812e+00
2.485000000000000000e+03 5.340184783935546875e+01 -2.216438102722167969e+01 9.129004478454589844e-01 3.138594150543212891e+00 1.215448379516601562e+00 1.104878187179565430e+00
2.486000000000000000e+03 5.535546493530273438e+01 -2.196813011169433594e+01 2.514031343162059784e-02 5.384019851684570312e+00 1.622748017311096191e+00 1.714232921600341797e+00
2.487000000000000000e+03 6.172279739379882812e+01 -2.216576004028320312e+01 2.319511771202087402e-01 5.934621334075927734e+00 1.849971652030944824e+00 -1.096049427986145020e+00
2.488000000000000000e+03 5.998360443115234375e+01 -2.364405441284179688e+01 -1.066839322447776794e-01 6.272281646728515625e+00 1.849679231643676758e+00 -4.642701148986816406e-01
2.489000000000000000e+03 6.541551208496093750e+01 -2.307610702514648438e+01 7.272093296051025391e-01 4.623732566833496094e+00 1.605282664299011230e+00 -5.670089721679687500e-01
2.490000000000000000e+03 6.963006591796875000e+01 -2.183130836486816406e+01 6.717804074287414551e-01 4.617765426635742188e+00 1.586863756179809570e+00 8.516150116920471191e-01
2.491000000000000000e+03 7.233255004882812500e+01 -2.208932876586914062e+01 -2.099924534559249878e-02 6.049546718597412109e+00 1.808564186096191406e+00 9.825223684310913086e-01
2.492000000000000000e+03 7.425125885009765625e+01 -2.193179702758789062e+01 -2.398514002561569214e-01 6.859787464141845703e+00 1.985980868339538574e+00 6.400476098060607910e-01
2.493000000000000000e+03 7.637410736083984375e+01 -2.207778549194335938e+01 -1.946537941694259644e-01 7.155663967132568359e+00 2.088303089141845703e+00 2.159253954887390137e-01
2.494000000000000000e+03 7.798748016357421875e+01 -2.208898925781250000e+01 -8.210796862840652466e-02 7.229825496673583984e+00 2.144315242767333984e+00 3.548818081617355347e-02
2.495000000000000000e+03 2.026102066040039062e+00 -2.267846488952636719e+01 8.669525384902954102e-03 -5.143487453460693359e-01 -1.517037749290466309e-01 4.513210151344537735e-03
2.496000000000000000e+03 7.333360195159912109e+00 -2.324073219299316406e+01 7.163435220718383789e-02 1.609532833099365234e-01 6.977628916501998901e-02 7.536802440881729126e-02
2.497000000000000000e+03 8.855825424194335938e+00 -2.342572212219238281e+01 8.939460664987564087e-02 3.484674692153930664e-01 1.313586235046386719e-01 1.014260351657867432e-01
2.498000000000000000e+03 1.089720249176025391e+01 -2.249869346618652344e+01 1.335925161838531494e-01 6.014547944068908691e-01 2.205141931772232056e-01 1.612237095832824707e-01
2.499000000000000000e+03 1.543008899688720703e+01 -2.303061103820800781e+01 1.182998865842819214e-01 1.358212590217590332e+00 4.429537355899810791e-01 3.552993237972259521e-01
2.500000000000000000e+03 1.818078041076660156e+01 -2.330856704711914062e+01 6.407855544239282608e-03 1.891969919204711914e+00 5.695133209228515625e-01 4.146021902561187744e-01
2.501000000000000000e+03 1.950720214843750000e+01 -2.398190879821777344e+01 -6.312885135412216187e-02 2.156265020370483398e+00 6.279408931732177734e-01 3.992471992969512939e-01
2.502000000000000000e+03 2.094380760192871094e+01 -2.468952178955078125e+01 -1.655730307102203369e-01 2.450418472290039062e+00 6.854535937309265137e-01 3.341992497444152832e-01
2.503000000000000000e+03 2.810730361938476562e+01 -2.400109672546386719e+01 -2.921956777572631836e-01 3.452543973922729492e+00 9.481045007705688477e-01 -1.781465411186218262e-01
2.504000000000000000e+03 2.960722732543945312e+01 -2.337407875061035156e+01 -1.838043779134750366e-01 3.538713932037353516e+00 1.006472826004028320e+00 -3.009383678436279297e-01
2.505000000000000000e+03 3.671791839599609375e+01 -2.352023696899414062e+01 1.746108978986740112e-01 3.761664867401123047e+00 1.180882692337036133e+00 -3.995356336236000061e-02
2.506000000000000000e+03 4.232113647460937500e+01 -2.333633613586425781e+01 -3.522434532642364502e-01 4.957060813903808594e+00 1.381445288658142090e+00 -4.804741740226745605e-01
2.507000000000000000e+03 4.335437393188476562e+01 -2.390151023864746094e+01 -2.265868633985519409e-01 4.758825302124023438e+00 1.359671473503112793e+00 -6.562563776969909668e-01
2.508000000000000000e+03 4.561885070800781250e+01 -2.380879592895507812e+01 -2.361011132597923279e-02 4.319261074066162109e+00 1.288695216178894043e+00 -9.792562127113342285e-01
2.509000000000000000e+03 4.740427780151367188e+01 -2.342481613159179688e+01 2.703849673271179199e-01 3.734962940216064453e+00 1.201604366302490234e+00 -1.028779506683349609e+00
2.510000000000000000e+03 4.868652725219726562e+01 -2.373960876464843750e+01 4.962990581989288330e-01 3.459388971328735352e+00 1.186706423759460449e+00 -7.808396220207214355e-01
2.511000000000000000e+03 5.175340652465820312e+01 -2.306709861755371094e+01 8.554697036743164062e-01 2.870731592178344727e+00 1.117860436439514160e+00 1.646341234445571899e-01
2.512000000000000000e+03 5.540576553344726562e+01 -2.441514205932617188e+01 5.518534779548645020e-02 5.082568645477294922e+00 1.541326284408569336e+00 8.256905078887939453e-01
2.513000000000000000e+03 6.346875000000000000e+01 -2.290378379821777344e+01 4.862208366394042969e-01 5.194275856018066406e+00 1.704149007797241211e+00 -8.706899285316467285e-01
2.514000000000000000e+03 6.152972030639648438e+01 -2.464937973022460938e+01 9.157966077327728271e-02 5.746655464172363281e+00 1.751470565795898438e+00 -6.287332177162170410e-01
2.515000000000000000e+03 6.623692321777343750e+01 -2.414670181274414062e+01 6.658676266670227051e-01 4.801096916198730469e+00 1.640089392662048340e+00 -2.897163331508636475e-01
2.516000000000000000e+03 6.900515747070312500e+01 -2.491429519653320312e+01 5.446275472640991211e-01 5.121748924255371094e+00 1.699913024902343750e+00 2.851751744747161865e-01
2.517000000000000000e+03 6.988050079345703125e+01 -2.419049263000488281e+01 5.352404713630676270e-01 5.206599712371826172e+00 1.722552061080932617e+00 4.877806603908538818e-01
2.518000000000000000e+03 7.190188598632812500e+01 -2.387644195556640625e+01 1.982392966747283936e-01 5.819117546081542969e+00 1.805207014083862305e+00 6.819750070571899414e-01
2.519000000000000000e+03 7.408757781982421875e+01 -2.428346443176269531e+01 1.926373573951423168e-03 6.454073429107666016e+00 1.936800003051757812e+00 5.300507545471191406e-01
2.520000000000000000e+03 7.632546997070312500e+01 -2.363873100280761719e+01 -7.950644940137863159e-02 6.923900127410888672e+00 2.053318023681640625e+00 2.801659703254699707e-01
2.521000000000000000e+03 7.794890594482421875e+01 -2.368710517883300781e+01 -3.778173029422760010e-02 7.108744144439697266e+00 2.121288776397705078e+00 1.243847906589508057e-01
2.522000000000000000e+03 2.190532922744750977e+00 -2.503673744201660156e+01 8.528332225978374481e-03 -4.798848330974578857e-01 -1.414069533348083496e-01 2.031275257468223572e-02
2.523000000000000000e+03 4.012975692749023438e+00 -2.473711013793945312e+01 1.702268980443477631e-02 -2.395199090242385864e-01 -6.674917042255401611e-02 3.548258915543556213e-02
2.524000000000000000e+03 6.395483970642089844e+00 -2.458647537231445312e+01 4.435205832123756409e-02 7.497214525938034058e-02 3.579726070165634155e-02 7.403606176376342773e-02
2.525000000000000000e+03 7.856471061706542969e+00 -2.591574096679687500e+01 4.557929933071136475e-02 2.759872376918792725e-01 9.646995365619659424e-02 1.096205860376358032e-01
2.526000000000000000e+03 1.070314788818359375e+01 -2.492152404785156250e+01 7.571356743574142456e-02 6.407370567321777344e-01 2.149351984262466431e-01 1.718740761280059814e-01
2.527000000000000000e+03 1.195173740386962891e+01 -2.507665252685546875e+01 7.760753482580184937e-02 8.296599388122558594e-01 2.721802294254302979e-01 1.957993805408477783e-01
2.528000000000000000e+03 1.329643058776855469e+01 -2.540296936035156250e+01 6.270194053649902344e-02 1.059066891670227051e+00 3.365306556224822998e-01 2.492692321538925171e-01
2.529000000000000000e+03 1.687670707702636719e+01 -2.578595352172851562e+01 -3.672081604599952698e-02 1.679188132286071777e+00 4.927401840686798096e-01 3.013532161712646484e-01
2.530000000000000000e+03 3.699087905883789062e+01 -2.505909919738769531e+01 2.435954846441745758e-02 3.911103963851928711e+00 1.180639028549194336e+00 -6.702372431755065918e-02
2.531000000000000000e+03 4.660606002807617188e+01 -2.662426567077636719e+01 1.867604702711105347e-01 4.056001186370849609e+00 1.272828459739685059e+00 -6.454170942306518555e-01
2.532000000000000000e+03 4.998074340820312500e+01 -2.548768234252929688e+01 5.751159787178039551e-01 3.629646301269531250e+00 1.261428713798522949e+00 -2.997824549674987793e-01
2.533000000000000000e+03 5.130706405639648438e+01 -2.562068748474121094e+01 5.641484856605529785e-01 3.710157155990600586e+00 1.282291650772094727e+00 -4.291381314396858215e-02
2.534000000000000000e+03 5.256262969970703125e+01 -2.555688667297363281e+01 5.397867560386657715e-01 3.997508049011230469e+00 1.361188411712646484e+00 3.033922910690307617e-01
2.535000000000000000e+03 5.739933776855468750e+01 -2.678564834594726562e+01 -5.434561520814895630e-02 5.459127426147460938e+00 1.621434450149536133e+00 2.033411413431167603e-01
2.536000000000000000e+03 5.594855117797851562e+01 -2.549224853515625000e+01 1.797058992087841034e-02 5.275012493133544922e+00 1.587894797325134277e+00 5.699281096458435059e-01
2.537000000000000000e+03 5.905009078979492188e+01 -2.534345245361328125e+01 -2.131787389516830444e-01 6.052176475524902344e+00 1.751699328422546387e+00 -1.344694048166275024e-01
2.538000000000000000e+03 6.538953399658203125e+01 -2.540887260437011719e+01 5.007191896438598633e-01 5.117463111877441406e+00 1.685454607009887695e+00 -3.467907607555389404e-01
2.539000000000000000e+03 6.408626556396484375e+01 -2.666691589355468750e+01 3.149865567684173584e-01 5.367787837982177734e+00 1.704832315444946289e+00 -3.760006129741668701e-01
2.540000000000000000e+03 7.053034973144531250e+01 -2.506647491455078125e+01 3.861477375030517578e-01 5.460269927978515625e+00 1.753925204277038574e+00 4.374945759773254395e-01
2.541000000000000000e+03 7.376183319091796875e+01 -2.558872222900390625e+01 1.169079914689064026e-01 6.255028247833251953e+00 1.911580920219421387e+00 4.616438746452331543e-01
2.542000000000000000e+03 7.623717498779296875e+01 -2.527263641357421875e+01 -1.915627857670187950e-03 6.748017311096191406e+00 2.023830652236938477e+00 2.947175204753875732e-01
2.543000000000000000e+03 7.790203094482421875e+01 -2.531358337402343750e+01 -4.272138234227895737e-03 6.978042125701904297e+00 2.092130899429321289e+00 1.610613167285919189e-01
2.544000000000000000e+03 2.237322568893432617e+00 -2.661440849304199219e+01 4.928048700094223022e-03 -4.524338245391845703e-01 -1.342517286539077759e-01 3.078426793217658997e-02
2.545000000000000000e+03 3.760850906372070312e+00 -2.686475563049316406e+01 1.063057780265808105e-02 -2.429265081882476807e-01 -6.968877464532852173e-02 5.767148360610008240e-02
2.546000000000000000e+03 8.451677322387695312e+00 -2.722188758850097656e+01 2.602020651102066040e-02 3.767175078392028809e-01 1.208213120698928833e-01 1.180212274193763733e-01
2.547000000000000000e+03 9.592406272888183594e+00 -2.653833961486816406e+01 3.839806094765663147e-02 5.377720594406127930e-01 1.728510409593582153e-01 1.497828960418701172e-01
2.548000000000000000e+03 5.331359481811523438e+01 -2.820388793945312500e+01 2.890048325061798096e-01 4.501277446746826172e+00 1.437084674835205078e+00 1.594648212194442749e-01
2.549000000000000000e+03 5.958837509155273438e+01 -2.716182136535644531e+01 -6.845577806234359741e-02 5.666618347167968750e+00 1.679448723793029785e+00 -9.298766404390335083e-02
2.550000000000000000e+03 6.561893463134765625e+01 -2.857701683044433594e+01 3.172042667865753174e-01 5.408442974090576172e+00 1.717694282531738281e+00 -1.655477881431579590e-01
2.551000000000000000e+03 7.604346466064453125e+01 -2.696205902099609375e+01 4.775894060730934143e-02 6.605175971984863281e+00 1.995880484580993652e+00 2.734106183052062988e-01
2.552000000000000000e+03 7.779791259765625000e+01 -2.781969070434570312e+01 1.084770169109106064e-02 6.793530941009521484e+00 2.041313648223876953e+00 1.531802117824554443e-01
2.553000000000000000e+03 2.445245504379272461e+00 -2.823638534545898438e+01 1.221487182192504406e-03 -3.974658846855163574e-01 -1.188733205199241638e-01 3.350335732102394104e-02
2.554000000000000000e+03 4.802477359771728516e+00 -2.829784774780273438e+01 1.119931228458881378e-03 -8.105263113975524902e-02 -2.397980913519859314e-02 6.191794201731681824e-02
2.555000000000000000e+03 7.201298236846923828e+00 -2.892668342590332031e+01 4.175465553998947144e-03 2.589131891727447510e-01 7.892660051584243774e-02 1.055648103356361389e-01
2.556000000000000000e+03 8.359151840209960938e+00 -2.937178039550781250e+01 1.297802547924220562e-03 4.096360802650451660e-01 1.232801675796508789e-01 1.243184581398963928e-01
2.557000000000000000e+03 9.270503044128417969e+00 -2.848283004760742188e+01 1.199406106024980545e-02 5.291040539741516113e-01 1.623294353485107422e-01 1.448523551225662231e-01
2.558000000000000000e+03 2.603887748718261719e+01 -2.870166015625000000e+01 -2.638654410839080811e-01 3.011672258377075195e+00 8.243420124053955078e-01 3.684253990650177002e-02
2.559000000000000000e+03 2.905113029479980469e+01 -2.960824203491210938e+01 -2.479047626256942749e-01 3.277671337127685547e+00 9.089300036430358887e-01 -6.344018876552581787e-02
2.560000000000000000e+03 4.941679382324218750e+01 -2.895696258544921875e+01 2.992705404758453369e-01 4.144534111022949219e+00 1.333141326904296875e+00 -2.391083687543869019e-01
2.561000000000000000e+03 5.577864074707031250e+01 -2.986629676818847656e+01 9.754573553800582886e-02 5.002940177917480469e+00 1.530145764350891113e+00 1.356261074542999268e-01
2.562000000000000000e+03 7.208464813232421875e+01 -2.954414939880371094e+01 2.255889475345611572e-01 5.958499431610107422e+00 1.855226516723632812e+00 2.257525324821472168e-01
2.563000000000000000e+03 7.366434478759765625e+01 -2.862843513488769531e+01 1.608165055513381958e-01 6.182210922241210938e+00 1.902908325195312500e+00 2.800552248954772949e-01
2.564000000000000000e+03 7.776815795898437500e+01 -2.952808380126953125e+01 1.691171526908874512e-02 6.700664043426513672e+00 2.015272617340087891e+00 1.303677409887313843e-01
2.565000000000000000e+03 2.718745946884155273e+00 -2.992717742919921875e+01 -4.056658945046365261e-04 -3.480881750583648682e-01 -1.045481562614440918e-01 3.770934045314788818e-02
2.566000000000000000e+03 5.264266014099121094e+00 -3.095483207702636719e+01 -1.178153883665800095e-02 1.434661261737346649e-02 7.695222157053649426e-04 7.321943342685699463e-02
2.567000000000000000e+03 6.342726230621337891e+00 -3.059580993652343750e+01 -8.184858597815036774e-03 1.687428355216979980e-01 4.816739261150360107e-02 9.725660830736160278e-02
2.568000000000000000e+03 1.248824214935302734e+01 -3.003183174133300781e+01 -3.053871355950832367e-02 9.936541318893432617e-01 2.889346182346343994e-01 1.739543825387954712e-01
2.569000000000000000e+03 3.850286102294921875e+01 -3.079877090454101562e+01 -1.414427757263183594e-01 4.011210441589355469e+00 1.160930395126342773e+00 -1.757769137620925903e-01
2.570000000000000000e+03 4.292896652221679688e+01 -3.166192054748535156e+01 -5.528715625405311584e-02 4.203792095184326172e+00 1.244551539421081543e+00 -2.585881650447845459e-01
2.571000000000000000e+03 4.687736129760742188e+01 -3.046689414978027344e+01 1.163285449147224426e-01 4.226989746093750000e+00 1.302995443344116211e+00 -3.145288228988647461e-01
2.572000000000000000e+03 5.256632614135742188e+01 -3.182071113586425781e+01 1.745147705078125000e-01 4.580904483795166016e+00 1.426625728607177734e+00 -1.148269325494766235e-02
2.573000000000000000e+03 5.872334289550781250e+01 -3.060615730285644531e+01 4.179640486836433411e-02 5.283969402313232422e+00 1.597729802131652832e+00 1.419363729655742645e-02
2.574000000000000000e+03 6.916758728027343750e+01 -3.172331809997558594e+01 2.252288162708282471e-01 5.744809627532958984e+00 1.791011571884155273e+00 6.982171535491943359e-02
2.575000000000000000e+03 7.580400085449218750e+01 -3.084470367431640625e+01 6.420690566301345825e-02 6.436533927917480469e+00 1.950222134590148926e+00 1.644603312015533447e-01
2.576000000000000000e+03 7.791152191162109375e+01 -3.113387298583984375e+01 1.319807861000299454e-02 6.651227951049804688e+00 1.999327898025512695e+00 9.804083406925201416e-02
2.577000000000000000e+03 2.626789093017578125e+00 -3.163142585754394531e+01 3.663475858047604561e-03 -3.304716646671295166e-01 -9.804245829582214355e-02 4.135429114103317261e-02
2.578000000000000000e+03 1.032521629333496094e+01 -3.192950630187988281e+01 -4.219131171703338623e-02 7.171831727027893066e-01 2.024975568056106567e-01 1.330412179231643677e-01
2.579000000000000000e+03 1.818555259704589844e+01 -3.236041641235351562e+01 -1.637820303440093994e-01 1.900324344635009766e+00 5.209626555442810059e-01 1.412543356418609619e-01
2.580000000000000000e+03 3.239117050170898438e+01 -3.210881042480468750e+01 -2.067968100309371948e-01 3.503350973129272461e+00 9.889662265777587891e-01 -7.624752819538116455e-02
2.581000000000000000e+03 5.111549377441406250e+01 -3.309312820434570312e+01 1.526818275451660156e-01 4.504848480224609375e+00 1.397259116172790527e+00 -5.906015634536743164e-02
2.582000000000000000e+03 5.700245666503906250e+01 -3.231610870361328125e+01 8.118162304162979126e-02 5.084697246551513672e+00 1.549763679504394531e+00 4.556108266115188599e-02
2.583000000000000000e+03 6.171330642700195312e+01 -3.173426246643066406e+01 1.000351607799530029e-01 5.418902397155761719e+00 1.655681252479553223e+00 -7.914446294307708740e-02
2.584000000000000000e+03 6.986753082275390625e+01 -3.400463485717773438e+01 1.568719446659088135e-01 5.868370532989501953e+00 1.807572722434997559e+00 7.197334617376327515e-02
2.585000000000000000e+03 7.799204254150390625e+01 -3.248226547241210938e+01 1.032961253076791763e-02 6.597783088684082031e+00 1.982433795928955078e+00 7.373708486557006836e-02
2.586000000000000000e+03 4.463446617126464844e+00 -3.439829254150390625e+01 -5.387877579778432846e-03 -4.664204642176628113e-02 -1.560897752642631531e-02 5.169463157653808594e-02
2.587000000000000000e+03 2.917721176147460938e+01 -3.442234420776367188e+01 -2.481735944747924805e-01 3.175207853317260742e+00 8.781102895736694336e-01 -1.683582738041877747e-02
2.588000000000000000e+03 7.771996307373046875e+01 -3.461962890625000000e+01 1.399704441428184509e-02 6.530761241912841797e+00 1.963427424430847168e+00 5.396028980612754822e-02
2.589000000000000000e+03 7.790797424316406250e+01 -3.385826110839843750e+01 6.229309830814599991e-03 6.548947811126708984e+00 1.966553092002868652e+00 5.294904485344886780e-02
2.590000000000000000e+03 5.085021972656250000e+00 -3.648155593872070312e+01 -1.432544365525245667e-02 4.789637774229049683e-02 1.007127948105335236e-02 3.832851350307464600e-02
2.591000000000000000e+03 7.491035461425781250e+01 -3.492663955688476562e+01 5.190271511673927307e-02 6.289975643157958984e+00 1.902563571929931641e+00 8.544503152370452881e-02
2.592000000000000000e+03 7.325127410888671875e+01 -3.658987426757812500e+01 6.609447300434112549e-02 6.147452354431152344e+00 1.864063978195190430e+00 5.262606590986251831e-02
2.593000000000000000e+03 2.425990581512451172e+00 -3.778183746337890625e+01 -9.094855748116970062e-03 -2.768818736076354980e-01 -8.579301834106445312e-02 2.252081967890262604e-02
2.594000000000000000e+03 6.396728992462158203e+00 -3.851249694824218750e+01 -3.279210254549980164e-02 2.555172443389892578e-01 6.681753695011138916e-02 2.259293757379055023e-02
2.595000000000000000e+03 8.599255561828613281e+00 -3.674161148071289062e+01 -4.775999858975410461e-02 5.419912338256835938e-01 1.482693850994110107e-01 6.618136912584304810e-02
2.596000000000000000e+03 3.253847885131835938e+01 -3.580402755737304688e+01 -2.502997517585754395e-01 3.459298849105834961e+00 9.626997113227844238e-01 -5.805204063653945923e-02
2.597000000000000000e+03 6.235004043579101562e+01 -3.654665374755859375e+01 7.634533196687698364e-02 5.395574569702148438e+00 1.641575932502746582e+00 -3.517713770270347595e-02
2.598000000000000000e+03 7.137934112548828125e+01 -3.874604797363281250e+01 6.394736468791961670e-02 6.014863014221191406e+00 1.823643088340759277e+00 3.258623555302619934e-02
2.599000000000000000e+03 7.700457000732421875e+01 -3.657964706420898438e+01 1.676120981574058533e-02 6.451762676239013672e+00 1.940557122230529785e+00 4.533189535140991211e-02
2.600000000000000000e+03 7.645620727539062500e+01 -3.782003784179687500e+01 1.915935613214969635e-02 6.402461051940917969e+00 1.926486134529113770e+00 4.460488632321357727e-02
2.601000000000000000e+03 1.430263328552246094e+01 -3.789897918701171875e+01 -1.316042393445968628e-01 1.324077486991882324e+00 3.577419519424438477e-01 7.048976421356201172e-02
2.602000000000000000e+03 7.713888549804687500e+01 -4.064969635009765625e+01 1.918150670826435089e-02 6.409768104553222656e+00 1.928684830665588379e+00 1.764353178441524506e-02
2.603000000000000000e+03 7.772136688232421875e+01 -3.988671493530273438e+01 8.406103588640689850e-03 6.453887462615966797e+00 1.938688039779663086e+00 1.849629916250705719e-02
2.604000000000000000e+03 1.512103557586669922e+00 -4.047568130493164062e+01 -7.602059282362461090e-03 -3.691809177398681641e-01 -1.130348965525627136e-01 1.500029023736715317e-02
2.605000000000000000e+03 7.547704315185546875e+01 1.914445495605468750e+01 2.392762005329132080e-01 6.548416614532470703e+00 2.036307811737060547e+00 -7.624998688697814941e-02
2.606000000000000000e+03 7.312285614013671875e+01 1.963715553283691406e+01 2.414072751998901367e-01 6.499497413635253906e+00 2.022271394729614258e+00 7.076130062341690063e-02
2.607000000000000000e+03 7.333284759521484375e+01 1.811439704895019531e+01 4.661152362823486328e-01 6.370777606964111328e+00 2.051067829132080078e+00 6.805464625358581543e-02
2.608000000000000000e+03 7.004624176025390625e+01 1.738964462280273438e+01 2.605973482131958008e-01 6.843615531921386719e+00 2.131263971328735352e+00 4.491958320140838623e-01
2.609000000000000000e+03 6.640746307373046875e+01 1.772190284729003906e+01 -4.406799972057342529e-01 7.075732231140136719e+00 1.990515589714050293e+00 -9.581118822097778320e-01
2.610000000000000000e+03 6.547750091552734375e+01 1.739613342285156250e+01 -2.990373671054840088e-01 6.285223484039306641e+00 1.795855760574340820e+00 -1.602767944335937500e+00
2.611000000000000000e+03 6.163969039916992188e+01 1.644857597351074219e+01 9.902857542037963867e-01 1.712424874305725098e+00 8.108131885528564453e-01 -4.857377707958221436e-01
2.612000000000000000e+03 5.987639236450195312e+01 1.699106979370117188e+01 1.052807688713073730e+00 2.226135969161987305e+00 9.836830496788024902e-01 7.528463006019592285e-01
2.613000000000000000e+03 5.843841934204101562e+01 1.719162750244140625e+01 1.014159440994262695e+00 3.176789045333862305e+00 1.257284522056579590e+00 1.494022488594055176e+00
2.614000000000000000e+03 5.661770629882812500e+01 1.683802986145019531e+01 7.546344995498657227e-01 4.484458923339843750e+00 1.571728110313415527e+00 2.096428394317626953e+00
2.615000000000000000e+03 5.501399993896484375e+01 1.857702636718750000e+01 1.232455223798751831e-01 5.900598049163818359e+00 1.807153105735778809e+00 1.719418287277221680e+00
2.616000000000000000e+03 5.316510009765625000e+01 1.770893859863281250e+01 -2.996673285961151123e-01 7.503986358642578125e+00 2.161295652389526367e+00 1.412307977676391602e+00
2.617000000000000000e+03 5.143729782104492188e+01 1.810045814514160156e+01 -5.742009878158569336e-01 7.662925243377685547e+00 2.126617193222045898e+00 -5.928705260157585144e-02
2.618000000000000000e+03 5.028741455078125000e+01 1.676410865783691406e+01 -3.788535594940185547e-01 8.397976875305175781e+00 2.405737161636352539e+00 -1.638878941535949707e+00
2.619000000000000000e+03 4.635773086547851562e+01 1.683044624328613281e+01 9.558905959129333496e-01 1.855030775070190430e+00 8.432763814926147461e-01 3.163625895977020264e-01
2.620000000000000000e+03 3.942583084106445312e+01 1.853158569335937500e+01 -1.221392393112182617e+00 5.484889984130859375e+00 1.279049277305603027e+00 7.471587061882019043e-01
2.621000000000000000e+03 3.304559707641601562e+01 1.911001777648925781e+01 5.355183407664299011e-02 1.670061707496643066e+00 5.170840620994567871e-01 -5.633627772331237793e-01
2.622000000000000000e+03 3.165702629089355469e+01 1.826053237915039062e+01 2.422959506511688232e-01 8.714492917060852051e-01 3.341235816478729248e-01 2.568870186805725098e-01
2.623000000000000000e+03 2.818416976928710938e+01 1.854795837402343750e+01 -6.769469380378723145e-01 3.691280364990234375e+00 9.042999744415283203e-01 1.674390077590942383e+00
2.624000000000000000e+03 2.634016609191894531e+01 1.930150032043457031e+01 -1.705282568931579590e+00 4.792771339416503906e+00 9.262465238571166992e-01 8.063751459121704102e-02
2.625000000000000000e+03 2.384946823120117188e+01 1.728947067260742188e+01 -2.009269952774047852e+00 1.619251847267150879e+00 -1.170054152607917786e-01 -2.211809396743774414e+00
2.626000000000000000e+03 2.385007667541503906e+01 1.873578262329101562e+01 -1.461364269256591797e+00 2.219709873199462891e+00 2.275036722421646118e-01 -2.078887939453125000e+00
2.627000000000000000e+03 2.359710121154785156e+01 2.001225662231445312e+01 -1.183623790740966797e+00 2.019239187240600586e+00 2.506846189498901367e-01 -1.614791274070739746e+00
2.628000000000000000e+03 2.307564735412597656e+01 2.391554641723632812e+01 -5.406482815742492676e-01 1.617970466613769531e+00 3.231966495513916016e-01 -8.039901256561279297e-01
2.629000000000000000e+03 2.372996330261230469e+01 2.476423645019531250e+01 -5.526240468025207520e-01 1.898754715919494629e+00 4.038392007350921631e-01 -6.533765196800231934e-01
2.630000000000000000e+03 2.349122428894042969e+01 2.685010147094726562e+01 -3.469909131526947021e-01 1.772924542427062988e+00 4.277800619602203369e-01 -5.191495418548583984e-01
2.631000000000000000e+03 2.255848121643066406e+01 2.883951950073242188e+01 -1.562443822622299194e-01 1.583130002021789551e+00 4.280656874179840088e-01 -4.015771448612213135e-01
2.632000000000000000e+03 2.134941673278808594e+01 3.067298126220703125e+01 -9.436097927391529083e-03 1.440070390701293945e+00 4.291903078556060791e-01 -2.829863727092742920e-01
2.633000000000000000e+03 1.975371742248535156e+01 2.832379722595214844e+01 -2.385153435170650482e-02 1.134139895439147949e+00 3.330865204334259033e-01 -3.098545074462890625e-01
2.634000000000000000e+03 2.073281860351562500e+01 2.665115928649902344e+01 -1.289575994014739990e-01 1.141272544860839844e+00 3.036944866180419922e-01 -4.503583610057830811e-01
2.635000000000000000e+03 2.112219619750976562e+01 2.554386711120605469e+01 -2.448332309722900391e-01 1.179820537567138672e+00 2.804961800575256348e-01 -5.587314963340759277e-01
2.636000000000000000e+03 1.774950599670410156e+01 1.813188934326171875e+01 -1.430463552474975586e+00 -1.774547994136810303e-01 -4.823755025863647461e-01 -3.793254196643829346e-01
2.637000000000000000e+03 1.475084209442138672e+01 1.820901870727539062e+01 -1.096414327621459961e+00 1.709221154451370239e-01 -2.776476442813873291e-01 -9.707043319940567017e-02
2.638000000000000000e+03 1.097525787353515625e+01 1.806694793701171875e+01 -8.786397576332092285e-01 6.997586488723754883e-01 -5.366432666778564453e-02 -2.385769039392471313e-02
2.639000000000000000e+03 1.271439456939697266e+01 1.919482040405273438e+01 -8.102841973304748535e-01 4.842036068439483643e-01 -9.782418608665466309e-02 6.108033284544944763e-02
2.640000000000000000e+03 7.502283573150634766e+00 1.709048080444335938e+01 -6.879839301109313965e-01 1.148136258125305176e+00 1.380456984043121338e-01 -2.322568148374557495e-01
2.641000000000000000e+03 5.992211818695068359e+00 1.765847587585449219e+01 -4.660475254058837891e-01 1.237951040267944336e+00 2.315710633993148804e-01 -2.168665230274200439e-01
2.642000000000000000e+03 4.017023563385009766e+00 1.733033561706542969e+01 -2.758973538875579834e-01 1.342913031578063965e+00 3.201047182083129883e-01 -2.546848952770233154e-01
2.643000000000000000e+03 2.643765258789062500e+01 1.803398895263671875e+01 -1.437101364135742188e+00 6.090943336486816406e+00 1.396152496337890625e+00 8.662347793579101562e-01
2.644000000000000000e+03 4.235705184936523438e+01 1.693005371093750000e+01 1.641661673784255981e-01 3.948976039886474609e+00 1.233942627906799316e+00 2.042706012725830078e+00
2.645000000000000000e+03 7.615377807617187500e+01 2.042438125610351562e+01 1.199125498533248901e-01 6.624934196472167969e+00 2.023453950881958008e+00 -2.822372876107692719e-02
2.646000000000000000e+03 7.126585388183593750e+01 2.094308853149414062e+01 4.766214266419410706e-02 6.559062004089355469e+00 1.982017278671264648e+00 3.412469848990440369e-02
2.647000000000000000e+03 7.406948089599609375e+01 2.131848907470703125e+01 1.123754978179931641e-01 6.568609237670898438e+00 2.004295349121093750e+00 3.607949987053871155e-02
2.648000000000000000e+03 7.025750732421875000e+01 2.002605628967285156e+01 1.574473083019256592e-02 6.643367290496826172e+00 1.997733592987060547e+00 3.724632039666175842e-02
2.649000000000000000e+03 6.714463806152343750e+01 1.891437530517578125e+01 -2.619816660881042480e-01 6.758232593536376953e+00 1.948875308036804199e+00 -5.598048567771911621e-01
2.650000000000000000e+03 6.207677841186523438e+01 1.853747177124023438e+01 1.019992828369140625e+00 3.222314119338989258e+00 1.272692084312438965e+00 -5.516182184219360352e-01
2.651000000000000000e+03 5.874703216552734375e+01 1.913406562805175781e+01 9.262745976448059082e-01 3.732844114303588867e+00 1.397735595703125000e+00 1.119628190994262695e+00
2.652000000000000000e+03 5.753953552246093750e+01 1.919417762756347656e+01 7.185301184654235840e-01 4.303569316864013672e+00 1.506629824638366699e+00 1.424307942390441895e+00
2.653000000000000000e+03 5.454756546020507812e+01 1.959374618530273438e+01 -1.021213736385107040e-02 5.863756179809570312e+00 1.756063222885131836e+00 1.351052284240722656e+00
2.654000000000000000e+03 4.767614746093750000e+01 1.929267501831054688e+01 5.604473948478698730e-01 4.007534980773925781e+00 1.370394706726074219e+00 -5.645039677619934082e-01
2.655000000000000000e+03 3.739690399169921875e+01 1.848287391662597656e+01 -1.494482994079589844e+00 5.257179260253906250e+00 1.128808975219726562e+00 -6.065637469291687012e-01
2.656000000000000000e+03 3.174914741516113281e+01 1.924940681457519531e+01 1.616699397563934326e-01 1.485401034355163574e+00 4.941212832927703857e-01 1.771237999200820923e-01
2.657000000000000000e+03 2.839938545227050781e+01 2.072939682006835938e+01 -8.650712370872497559e-01 3.304860591888427734e+00 7.319368124008178711e-01 6.227120757102966309e-01
2.658000000000000000e+03 2.716582679748535156e+01 2.091095924377441406e+01 -1.210655450820922852e+00 3.541671276092529297e+00 6.993047595024108887e-01 1.470584571361541748e-01
2.659000000000000000e+03 2.522025871276855469e+01 2.116351890563964844e+01 -1.329223036766052246e+00 3.116544485092163086e+00 5.361964106559753418e-01 -7.627846002578735352e-01
2.660000000000000000e+03 2.108513641357421875e+01 2.015456771850585938e+01 -8.352289199829101562e-01 3.820052742958068848e-01 -1.359670907258987427e-01 -9.249773621559143066e-01
2.661000000000000000e+03 2.237973594665527344e+01 2.089895439147949219e+01 -8.050627708435058594e-01 1.097808003425598145e+00 8.782358467578887939e-02 -1.263903260231018066e+00
2.662000000000000000e+03 2.033364677429199219e+01 2.472580337524414062e+01 -2.502793669700622559e-01 9.904838800430297852e-01 2.220613509416580200e-01 -5.125986933708190918e-01
2.663000000000000000e+03 1.903423118591308594e+01 2.573044395446777344e+01 -1.062063202261924744e-01 8.343445062637329102e-01 2.184414565563201904e-01 -3.702880740165710449e-01
2.664000000000000000e+03 1.941761589050292969e+01 2.701932144165039062e+01 -8.727151900529861450e-02 1.037537097930908203e+00 2.850796878337860107e-01 -3.357343077659606934e-01
2.665000000000000000e+03 1.595961380004882812e+01 2.067465972900390625e+01 -6.642708182334899902e-01 2.005080878734588623e-01 -1.391288191080093384e-01 -7.968501001596450806e-02
2.666000000000000000e+03 1.453364753723144531e+01 2.019116973876953125e+01 -7.175068259239196777e-01 2.626644372940063477e-01 -1.364527195692062378e-01 -1.111549325287342072e-02
2.667000000000000000e+03 1.252923583984375000e+01 2.081781387329101562e+01 -5.594623684883117676e-01 5.469876527786254883e-01 -3.742404049262404442e-03 1.098502799868583679e-01
2.668000000000000000e+03 9.326354026794433594e+00 1.932577133178710938e+01 -6.171645522117614746e-01 9.148640632629394531e-01 8.930985629558563232e-02 3.627660125494003296e-02
2.669000000000000000e+03 8.484057426452636719e+00 1.896028518676757812e+01 -5.858830213546752930e-01 9.758133888244628906e-01 1.169791221618652344e-01 -1.640566997230052948e-02
2.670000000000000000e+03 5.912801265716552734e+00 1.944828605651855469e+01 -3.479476869106292725e-01 1.202360033988952637e+00 2.563237249851226807e-01 -4.278676584362983704e-02
2.671000000000000000e+03 4.236581802368164062e+00 1.923008537292480469e+01 -2.100935727357864380e-01 1.344783782958984375e+00 3.404070734977722168e-01 -7.715190947055816650e-02
2.672000000000000000e+03 2.170533895492553711e+00 2.005887413024902344e+01 -6.591790169477462769e-02 1.585524082183837891e+00 4.558818638324737549e-01 -3.167163813486695290e-03
2.673000000000000000e+03 2.555540847778320312e+01 1.977789878845214844e+01 -1.723178505897521973e+00 4.139407634735107422e+00 7.248688340187072754e-01 -5.241571664810180664e-01
2.674000000000000000e+03 7.576983642578125000e+01 2.243527221679687500e+01 4.378717020153999329e-02 6.633541584014892578e+00 2.003198623657226562e+00 1.763484813272953033e-02
2.675000000000000000e+03 7.119126129150390625e+01 2.355498695373535156e+01 -1.600342430174350739e-02 6.421696662902832031e+00 1.921707987785339355e+00 -5.852908268570899963e-02
2.676000000000000000e+03 7.109017181396484375e+01 2.198913955688476562e+01 7.180764805525541306e-03 6.491184234619140625e+00 1.949509501457214355e+00 -2.640228159725666046e-02
2.677000000000000000e+03 6.492889404296875000e+01 2.087734031677246094e+01 2.543080151081085205e-01 5.408548831939697266e+00 1.698857069015502930e+00 -6.111314892768859863e-01
2.678000000000000000e+03 6.088520050048828125e+01 2.266738319396972656e+01 6.287729144096374512e-01 4.549538135528564453e+00 1.553493380546569824e+00 1.948917061090469360e-01
2.679000000000000000e+03 5.950885772705078125e+01 2.111924552917480469e+01 7.908170223236083984e-01 4.142825126647949219e+00 1.480092644691467285e+00 6.082122921943664551e-01
2.680000000000000000e+03 5.095936965942382812e+01 2.208164596557617188e+01 -3.074514269828796387e-01 5.584157943725585938e+00 1.583011984825134277e+00 8.869682997465133667e-02
2.681000000000000000e+03 4.612372207641601562e+01 2.053649330139160156e+01 4.526284337043762207e-01 3.854760408401489258e+00 1.292216658592224121e+00 6.766901165246963501e-02
2.682000000000000000e+03 3.581679916381835938e+01 2.171660423278808594e+01 -5.466415286064147949e-01 3.482851982116699219e+00 8.808631300926208496e-01 -4.662779867649078369e-01
2.683000000000000000e+03 3.558116912841796875e+01 2.313614463806152344e+01 -4.466162621974945068e-01 3.372476577758789062e+00 8.777580857276916504e-01 -2.990586459636688232e-01
2.684000000000000000e+03 3.442809677124023438e+01 2.577719879150390625e+01 -3.353669941425323486e-01 3.134194374084472656e+00 8.396481871604919434e-01 -1.663428843021392822e-01
2.685000000000000000e+03 3.403031921386718750e+01 2.709984016418457031e+01 -3.179723918437957764e-01 3.060665845870971680e+00 8.228080868721008301e-01 -1.638012677431106567e-01
2.686000000000000000e+03 3.455231094360351562e+01 2.178883934020996094e+01 -3.399174511432647705e-01 2.992129087448120117e+00 7.956634759902954102e-01 -4.464102685451507568e-01
2.687000000000000000e+03 3.086272048950195312e+01 2.256594467163085938e+01 -3.482486605644226074e-01 2.590815544128417969e+00 6.727700829505920410e-01 1.595540195703506470e-01
2.688000000000000000e+03 2.877561759948730469e+01 2.239701271057128906e+01 -7.213795781135559082e-01 2.932837247848510742e+00 6.634373068809509277e-01 2.116602063179016113e-01
2.689000000000000000e+03 2.626039695739746094e+01 2.299029541015625000e+01 -9.404292106628417969e-01 2.782045602798461914e+00 5.524849295616149902e-01 -3.495775461196899414e-01
2.690000000000000000e+03 2.486403465270996094e+01 2.261472702026367188e+01 -9.597898721694946289e-01 2.494999170303344727e+00 4.605627655982971191e-01 -7.476428747177124023e-01
2.691000000000000000e+03 2.397367858886718750e+01 2.321159934997558594e+01 -8.130608797073364258e-01 2.141326665878295898e+00 3.984797298908233643e-01 -8.187206983566284180e-01
2.692000000000000000e+03 2.011136054992675781e+01 2.269035530090332031e+01 -3.509785234928131104e-01 6.382542252540588379e-01 8.618270605802536011e-02 -6.088919639587402344e-01
2.693000000000000000e+03 1.960066795349121094e+01 2.392819595336914062e+01 -2.727309167385101318e-01 7.479690313339233398e-01 1.425714343786239624e-01 -5.307626128196716309e-01
2.694000000000000000e+03 1.751954650878906250e+01 2.243287277221679688e+01 -3.839341104030609131e-01 3.704460561275482178e-01 -4.046410787850618362e-03 -2.391235828399658203e-01
2.695000000000000000e+03 1.182618618011474609e+01 2.344375801086425781e+01 -2.392970770597457886e-01 6.458448171615600586e-01 1.219643205404281616e-01 1.603937149047851562e-01
2.696000000000000000e+03 1.324106788635253906e+01 2.187282180786132812e+01 -4.384230375289916992e-01 4.969376623630523682e-01 1.755437999963760376e-02 1.071692854166030884e-01
2.697000000000000000e+03 8.120364189147949219e+00 2.014213180541992188e+01 -4.597663879394531250e-01 9.956145286560058594e-01 1.607544422149658203e-01 6.623607128858566284e-02
2.698000000000000000e+03 6.621861457824707031e+00 2.158448028564453125e+01 -2.530431747436523438e-01 1.105833172798156738e+00 2.558369934558868408e-01 1.106012836098670959e-01
2.699000000000000000e+03 4.586315631866455078e+00 2.153932571411132812e+01 -1.435408145189285278e-01 1.300274252891540527e+00 3.470200598239898682e-01 8.235178887844085693e-02
2.700000000000000000e+03 1.296441316604614258e+00 2.112037849426269531e+01 -2.156386151909828186e-02 1.724470853805541992e+00 5.108721256256103516e-01 2.575707063078880310e-02
2.701000000000000000e+03 7.594878387451171875e+01 2.535390281677246094e+01 -3.378812223672866821e-03 6.634644985198974609e+00 1.989379763603210449e+00 3.193353861570358276e-02
2.702000000000000000e+03 7.219076538085937500e+01 2.400213432312011719e+01 -2.748917788267135620e-03 6.477133274078369141e+00 1.942315220832824707e+00 -2.596970647573471069e-02
2.703000000000000000e+03 6.929639434814453125e+01 2.316534805297851562e+01 -1.972715370357036591e-02 6.311833381652832031e+00 1.887631893157958984e+00 -1.544503718614578247e-01
2.704000000000000000e+03 6.483335876464843750e+01 2.355062484741210938e+01 2.622216939926147461e-01 5.443443775177001953e+00 1.711699724197387695e+00 -2.999128401279449463e-01
2.705000000000000000e+03 6.312201309204101562e+01 2.380485534667968750e+01 4.110715389251708984e-01 5.095071792602539062e+00 1.651842951774597168e+00 -1.318501979112625122e-01
2.706000000000000000e+03 6.115254974365234375e+01 2.433392524719238281e+01 4.647056162357330322e-01 4.875001907348632812e+00 1.601912260055541992e+00 1.383401453495025635e-01
2.707000000000000000e+03 5.805554962158203125e+01 2.400181579589843750e+01 3.510705530643463135e-01 4.897180557250976562e+00 1.574475288391113281e+00 5.552369952201843262e-01
2.708000000000000000e+03 5.672095108032226562e+01 2.388412475585937500e+01 1.798420399427413940e-01 5.022387504577636719e+00 1.560668945312500000e+00 6.795564889907836914e-01
2.709000000000000000e+03 5.341878509521484375e+01 2.302902030944824219e+01 -1.872323304414749146e-01 5.503298282623291016e+00 1.594819784164428711e+00 5.668997764587402344e-01
2.710000000000000000e+03 4.504536056518554688e+01 2.415954399108886719e+01 -4.720360040664672852e-02 4.220765590667724609e+00 1.252068638801574707e+00 1.555286645889282227e-01
2.711000000000000000e+03 4.373010635375976562e+01 2.496145439147949219e+01 -1.739839911460876465e-01 4.208346843719482422e+00 1.210308790206909180e+00 1.535360366106033325e-01
2.712000000000000000e+03 3.855342864990234375e+01 2.374746131896972656e+01 -5.132055282592773438e-01 3.930464267730712891e+00 1.025177597999572754e+00 -3.157182782888412476e-02
2.713000000000000000e+03 3.603617095947265625e+01 2.487749099731445312e+01 -3.949618637561798096e-01 3.399333238601684570e+00 9.013113975524902344e-01 -1.970838755369186401e-01
2.714000000000000000e+03 3.498653793334960938e+01 2.449312782287597656e+01 -3.620857298374176025e-01 3.211345195770263672e+00 8.547778725624084473e-01 -2.133158296346664429e-01
2.715000000000000000e+03 3.300325775146484375e+01 2.376741409301757812e+01 -3.043554723262786865e-01 2.856880187988281250e+00 7.657574415206909180e-01 -1.582420319318771362e-01
2.716000000000000000e+03 2.847127723693847656e+01 2.436904907226562500e+01 -6.341149210929870605e-01 2.743460655212402344e+00 6.328036785125732422e-01 -1.020654216408729553e-01
2.717000000000000000e+03 1.718570327758789062e+01 2.397935676574707031e+01 -1.947021782398223877e-01 5.263532400131225586e-01 9.949532151222229004e-02 -1.809031665325164795e-01
2.718000000000000000e+03 1.469472408294677734e+01 2.322619438171386719e+01 -2.751637995243072510e-01 4.458570480346679688e-01 5.120797827839851379e-02 1.929367706179618835e-02
2.719000000000000000e+03 1.249599170684814453e+01 2.481709098815917969e+01 -1.202976033091545105e-01 6.518798470497131348e-01 1.594746857881546021e-01 1.414726972579956055e-01
2.720000000000000000e+03 7.922446250915527344e+00 2.263296127319335938e+01 -2.372912764549255371e-01 9.787327647209167480e-01 2.224324345588684082e-01 1.723067760467529297e-01
2.721000000000000000e+03 1.834492921829223633e+00 2.339681434631347656e+01 -1.807818748056888580e-02 1.589255332946777344e+00 4.713531434535980225e-01 9.065874665975570679e-02
2.722000000000000000e+03 1.126094698905944824e+00 2.348235321044921875e+01 -2.608161885291337967e-03 1.679539203643798828e+00 5.030792951583862305e-01 6.183291599154472351e-02
2.723000000000000000e+03 2.118654060363769531e+01 2.267942810058593750e+01 -4.906926453113555908e-01 9.673810005187988281e-01 1.430065035820007324e-01 -7.917785644531250000e-01
2.724000000000000000e+03 7.629232788085937500e+01 2.611625480651855469e+01 -5.978469271212816238e-03 6.643323421478271484e+00 1.991203427314758301e+00 3.142885491251945496e-02
2.725000000000000000e+03 7.127635955810546875e+01 2.715285301208496094e+01 -8.552707731723785400e-03 6.333132266998291016e+00 1.897373914718627930e+00 -4.486118257045745850e-02
2.726000000000000000e+03 6.715204620361328125e+01 2.569856834411621094e+01 8.261245489120483398e-02 5.887567520141601562e+00 1.791054010391235352e+00 -1.889497041702270508e-01
2.727000000000000000e+03 6.242176818847656250e+01 2.554177856445312500e+01 3.299456238746643066e-01 5.175343990325927734e+00 1.651586890220642090e+00 2.197294123470783234e-02
2.728000000000000000e+03 5.359764099121093750e+01 2.602893447875976562e+01 -1.375322490930557251e-01 5.213471889495849609e+00 1.522781968116760254e+00 3.705831766128540039e-01
2.729000000000000000e+03 3.905494689941406250e+01 2.504240989685058594e+01 -4.290976524353027344e-01 3.895576477050781250e+00 1.039943695068359375e+00 -2.084160782396793365e-02
2.730000000000000000e+03 3.789509963989257812e+01 2.673398017883300781e+01 -3.655932247638702393e-01 3.668298959732055664e+00 9.908117651939392090e-01 -1.056124493479728699e-01
2.731000000000000000e+03 2.287211227416992188e+01 2.563265228271484375e+01 -3.701967597007751465e-01 1.592039585113525391e+00 3.665528595447540283e-01 -6.152517199516296387e-01
2.732000000000000000e+03 1.451327896118164062e+01 2.699393272399902344e+01 4.747005179524421692e-03 7.382612228393554688e-01 2.229024618864059448e-01 2.769041433930397034e-02
2.733000000000000000e+03 1.209940814971923828e+01 2.591802787780761719e+01 -5.765219405293464661e-02 7.275852560997009277e-01 2.009799182415008545e-01 1.525664776563644409e-01
2.734000000000000000e+03 9.789709091186523438e+00 2.567217826843261719e+01 -6.977519392967224121e-02 8.383744955062866211e-01 2.305797934532165527e-01 2.142569124698638916e-01
2.735000000000000000e+03 6.357577323913574219e+00 2.491816902160644531e+01 -7.501578330993652344e-02 1.091193914413452148e+00 3.048534393310546875e-01 2.124274224042892456e-01
2.736000000000000000e+03 4.659701347351074219e+00 2.348992729187011719e+01 -8.807274699211120605e-02 1.257067084312438965e+00 3.506982922554016113e-01 1.614340990781784058e-01
2.737000000000000000e+03 2.852400541305541992e+00 2.439301872253417969e+01 -2.481499500572681427e-02 1.433468461036682129e+00 4.225960373878479004e-01 1.403546333312988281e-01
2.738000000000000000e+03 1.336621642112731934e+00 2.507240486145019531e+01 -1.300194649957120419e-03 1.569188356399536133e+00 4.703664481639862061e-01 8.683039993047714233e-02
2.739000000000000000e+03 7.443418884277343750e+01 2.833017921447753906e+01 -1.206680946052074432e-02 6.522052764892578125e+00 1.952995777130126953e+00 9.120090864598751068e-03
2.740000000000000000e+03 7.200535583496093750e+01 2.807102966308593750e+01 -1.078034564852714539e-02 6.359749794006347656e+00 1.904690861701965332e+00 -2.369450964033603668e-02
2.741000000000000000e+03 7.024814605712890625e+01 2.641165351867675781e+01 -5.383580923080444336e-03 6.246530532836914062e+00 1.872344136238098145e+00 -8.678166568279266357e-02
2.742000000000000000e+03 5.546641159057617188e+01 2.683278656005859375e+01 7.686601486057043076e-03 5.137644767761230469e+00 1.543599367141723633e+00 4.145008921623229980e-01
2.743000000000000000e+03 5.449443817138671875e+01 2.659566497802734375e+01 -8.267539739608764648e-02 5.174494266510009766e+00 1.527545690536499023e+00 4.188330769538879395e-01
2.744000000000000000e+03 3.136453819274902344e+01 2.692550468444824219e+01 -3.497919738292694092e-01 2.795448064804077148e+00 7.336968183517456055e-01 -1.521008014678955078e-01
2.745000000000000000e+03 1.794191169738769531e+01 2.780352592468261719e+01 1.768590882420539856e-02 8.886212110519409180e-01 2.718921303749084473e-01 -2.061541378498077393e-01
2.746000000000000000e+03 1.375626087188720703e+01 2.870646286010742188e+01 8.541590720415115356e-02 8.055343627929687500e-01 2.672850787639617920e-01 7.167704403400421143e-02
2.747000000000000000e+03 9.671233177185058594e+00 2.887382507324218750e+01 5.915586650371551514e-02 9.063116908073425293e-01 2.896402478218078613e-01 2.054811269044876099e-01
2.748000000000000000e+03 1.154732322692871094e+01 2.899996566772460938e+01 7.914894074201583862e-02 8.455346226692199707e-01 2.774050533771514893e-01 1.577634066343307495e-01
2.749000000000000000e+03 8.462180137634277344e+00 2.699402999877929688e+01 -8.093066513538360596e-03 9.367429018020629883e-01 2.785949409008026123e-01 2.336330711841583252e-01
2.750000000000000000e+03 3.863876104354858398e+00 2.640089607238769531e+01 -1.305260788649320602e-02 1.277258753776550293e+00 3.792618513107299805e-01 1.886041313409805298e-01
2.751000000000000000e+03 2.886158227920532227e+00 2.635926055908203125e+01 -8.924728259444236755e-03 1.359596014022827148e+00 4.052014052867889404e-01 1.626853942871093750e-01
2.752000000000000000e+03 1.263571739196777344e+00 2.676634407043457031e+01 1.931935548782348633e-03 1.481651425361633301e+00 4.450750052928924561e-01 8.589180558919906616e-02
2.753000000000000000e+03 7.567218780517578125e+01 2.969459342956542969e+01 -8.909992873668670654e-03 6.593905448913574219e+00 1.975498557090759277e+00 1.764370687305927277e-02
2.754000000000000000e+03 7.228263854980468750e+01 2.910269355773925781e+01 -7.713029626756906509e-03 6.366788864135742188e+00 1.907722711563110352e+00 -1.553692575544118881e-02
2.755000000000000000e+03 5.818477249145507812e+01 2.977212142944335938e+01 5.563582479953765869e-02 5.194172859191894531e+00 1.574942588806152344e+00 2.300248444080352783e-01
2.756000000000000000e+03 5.657012939453125000e+01 2.831227111816406250e+01 3.758593276143074036e-02 5.131515026092529297e+00 1.550730347633361816e+00 3.191290199756622314e-01
2.757000000000000000e+03 3.621462249755859375e+01 2.803784751892089844e+01 -3.120611011981964111e-01 3.385144233703613281e+00 9.219249486923217773e-01 -1.470299661159515381e-01
2.758000000000000000e+03 2.979819679260253906e+01 2.838302230834960938e+01 -3.295389711856842041e-01 2.606220483779907227e+00 6.830044388771057129e-01 -2.179168015718460083e-01
2.759000000000000000e+03 1.919010353088378906e+01 3.010647201538085938e+01 4.757682234048843384e-02 1.169218063354492188e+00 3.650384843349456787e-01 -2.176690399646759033e-01
2.760000000000000000e+03 1.727963447570800781e+01 3.018061637878417969e+01 9.889995306730270386e-02 1.004935145378112793e+00 3.311505317687988281e-01 -1.129993647336959839e-01
2.761000000000000000e+03 5.211275100708007812e+00 2.918205451965332031e+01 2.592280507087707520e-02 1.123023986816406250e+00 3.446840643882751465e-01 2.122777998447418213e-01
2.762000000000000000e+03 2.817754983901977539e+00 2.819351196289062500e+01 3.661656752228736877e-03 1.296947836875915527e+00 3.901828527450561523e-01 1.606114059686660767e-01
2.763000000000000000e+03 1.226804852485656738e+00 2.835055732727050781e+01 2.783662872388958931e-03 1.395258903503417969e+00 4.194127619266510010e-01 8.216549456119537354e-02
2.764000000000000000e+03 7.093492126464843750e+01 3.027532386779785156e+01 4.282325506210327148e-03 6.234302043914794922e+00 1.871575236320495605e+00 -2.737783081829547882e-02
2.765000000000000000e+03 6.677581787109375000e+01 2.977540969848632812e+01 6.401946395635604858e-02 5.845268249511718750e+00 1.772786378860473633e+00 -3.681309148669242859e-02
2.766000000000000000e+03 5.846927642822265625e+01 3.166629219055175781e+01 4.882137291133403778e-03 5.223659992218017578e+00 1.568562626838684082e+00 1.779996454715728760e-01
2.767000000000000000e+03 4.511526870727539062e+01 3.196429824829101562e+01 -2.231828123331069946e-01 4.271707057952880859e+00 1.214557290077209473e+00 3.023223206400871277e-02
2.768000000000000000e+03 4.084700393676757812e+01 3.118424224853515625e+01 -2.490647733211517334e-01 3.846286296844482422e+00 1.079166412353515625e+00 -5.311534926295280457e-02
2.769000000000000000e+03 3.427381515502929688e+01 3.173630714416503906e+01 -2.219944149255752563e-01 3.063197374343872070e+00 8.523608446121215820e-01 -1.266473084688186646e-01
2.770000000000000000e+03 2.011191177368164062e+01 3.062179374694824219e+01 3.481456637382507324e-02 1.296846508979797363e+00 3.994983136653900146e-01 -2.375889271497726440e-01
2.771000000000000000e+03 7.621407032012939453e+00 2.982486152648925781e+01 5.564276501536369324e-02 1.008742213249206543e+00 3.193154931068420410e-01 2.250846326351165771e-01
2.772000000000000000e+03 3.842391490936279297e+00 2.950549507141113281e+01 1.738771051168441772e-02 1.195109844207763672e+00 3.637492954730987549e-01 1.865980327129364014e-01
2.773000000000000000e+03 2.152136325836181641e+00 2.980471038818359375e+01 7.439907174557447433e-03 1.269232630729675293e+00 3.830017447471618652e-01 1.248146370053291321e-01
2.774000000000000000e+03 1.291520118713378906e+00 2.991736030578613281e+01 3.789532463997602463e-03 1.302430748939514160e+00 3.918660581111907959e-01 8.011247217655181885e-02
2.775000000000000000e+03 7.188372802734375000e+01 3.217542266845703125e+01 -2.495013875886797905e-03 6.298533916473388672e+00 1.888811707496643066e+00 -6.107816938310861588e-03
2.776000000000000000e+03 6.670998382568359375e+01 3.235898590087890625e+01 3.467304259538650513e-02 5.871352672576904297e+00 1.771807670593261719e+00 7.391929975710809231e-04
2.777000000000000000e+03 6.112265777587890625e+01 3.269320678710937500e+01 3.273664414882659912e-02 5.401122093200683594e+00 1.630157589912414551e+00 1.044218167662620544e-01
2.778000000000000000e+03 5.388137817382812500e+01 3.466927719116210938e+01 -1.322181522846221924e-01 5.003043174743652344e+00 1.461247563362121582e+00 1.088786199688911438e-01
2.779000000000000000e+03 4.812097167968750000e+01 3.195949363708496094e+01 -2.115489095449447632e-01 4.605855941772460938e+00 1.318292140960693359e+00 7.102163136005401611e-02
2.780000000000000000e+03 3.315467834472656250e+01 3.379262924194335938e+01 -1.789444833993911743e-01 2.887410163879394531e+00 8.125397562980651855e-01 -1.332531720399856567e-01
2.781000000000000000e+03 1.592613697052001953e+01 3.490603637695312500e+01 1.804533302783966064e-01 1.123862385749816895e+00 3.912946879863739014e-01 -4.484209697693586349e-03
2.782000000000000000e+03 1.288420581817626953e+01 3.474565124511718750e+01 1.707694530487060547e-01 1.019670128822326660e+00 3.571318686008453369e-01 7.031690329313278198e-02
2.783000000000000000e+03 4.867478847503662109e+00 3.181509971618652344e+01 4.051862284541130066e-02 1.101890563964843750e+00 3.427227735519409180e-01 1.823801696300506592e-01
2.784000000000000000e+03 2.293297529220581055e+00 3.144365119934082031e+01 1.103640068322420120e-02 1.196079254150390625e+00 3.621346950531005859e-01 1.174131631851196289e-01
2.785000000000000000e+03 1.356382608413696289e+00 3.152783012390136719e+01 5.714931525290012360e-03 1.216899991035461426e+00 3.667844831943511963e-01 7.473801076412200928e-02
2.786000000000000000e+03 6.973538970947265625e+01 3.384820556640625000e+01 5.831121467053890228e-03 6.122788906097412109e+00 1.838585972785949707e+00 -6.258333567529916763e-03
2.787000000000000000e+03 4.966307067871093750e+01 3.324878692626953125e+01 -1.988517045974731445e-01 4.719149589538574219e+00 1.356089353561401367e+00 7.443346083164215088e-02
2.788000000000000000e+03 1.027073287963867188e+01 3.393737792968750000e+01 1.377612501382827759e-01 9.933789968490600586e-01 3.393420875072479248e-01 1.340416818857192993e-01
2.789000000000000000e+03 6.658818244934082031e+00 3.355780792236328125e+01 7.620370388031005859e-02 1.039772391319274902e+00 3.347928524017333984e-01 1.657655090093612671e-01
2.790000000000000000e+03 4.813037872314453125e+00 3.348657989501953125e+01 4.728442057967185974e-02 1.079900622367858887e+00 3.381555080413818359e-01 1.537861675024032593e-01
2.791000000000000000e+03 2.274724721908569336e+00 3.310580825805664062e+01 1.208417303860187531e-02 1.133882164955139160e+00 3.437898755073547363e-01 9.862429648637771606e-02
2.792000000000000000e+03 1.350575923919677734e+00 3.314727783203125000e+01 5.375742446631193161e-03 1.145766258239746094e+00 3.453426063060760498e-01 6.431633979082107544e-02
2.793000000000000000e+03 2.770753479003906250e+01 4.076310729980468750e+01 1.499328482896089554e-02 2.217205047607421875e+00 6.696594953536987305e-01 -4.170830920338630676e-02
2.794000000000000000e+03 2.593385887145996094e+01 3.626133346557617188e+01 1.413312740623950958e-02 2.033511161804199219e+00 6.142932772636413574e-01 -1.267506629228591919e-01
2.795000000000000000e+03 1.215380382537841797e+01 4.099586486816406250e+01 1.804490536451339722e-01 1.095347523689270020e+00 3.827389776706695557e-01 1.617255434393882751e-02
2.796000000000000000e+03 4.858342647552490234e+00 3.509897613525390625e+01 5.160080641508102417e-02 1.057914137840270996e+00 3.328544795513153076e-01 1.269185990095138550e-01
2.797000000000000000e+03 2.324884653091430664e+00 3.464630508422851562e+01 1.777245849370956421e-02 1.083540439605712891e+00 3.303938508033752441e-01 8.656258881092071533e-02
2.798000000000000000e+03 4.449383318424224854e-01 3.402231979370117188e+01 2.442717319354414940e-03 1.105890512466430664e+00 3.324999511241912842e-01 1.956192776560783386e-02
2.799000000000000000e+03 6.085838317871093750e+01 3.910520553588867188e+01 -5.578368902206420898e-02 5.470262527465820312e+00 1.624343633651733398e+00 3.239944204688072205e-02
2.800000000000000000e+03 4.797718429565429688e+01 3.577581405639648438e+01 -2.002165317535400391e-01 4.549732685089111328e+00 1.304854869842529297e+00 4.197042062878608704e-02
2.801000000000000000e+03 1.377501606941223145e+00 3.696485519409179688e+01 5.599682219326496124e-03 1.017758965492248535e+00 3.070075809955596924e-01 3.936771303415298462e-02
2.802000000000000000e+03 3.034041881561279297e+00 3.884825897216796875e+01 1.915431581437587738e-02 1.012754440307617188e+00 3.095726370811462402e-01 4.775287955999374390e-02
2.803000000000000000e+03 1.790607213973999023e+00 3.861831283569335938e+01 6.715259980410337448e-03 9.922769069671630859e-01 2.996976375579833984e-01 3.594119846820831299e-02
2.804000000000000000e+03 7.131081390380859375e+01 3.861923599243164062e+01 -1.251285430043935776e-02 6.260143280029296875e+00 1.874289035797119141e+00 -2.057476376648992300e-04
2.805000000000000000e+03 2.914323329925537109e+00 4.060720825195312500e+01 2.421822585165500641e-02 9.957696199417114258e-01 3.059963583946228027e-01 2.429601363837718964e-02
2.806000000000000000e+03 1.478303551673889160e+00 4.027221298217773438e+01 9.364267811179161072e-03 9.618917703628540039e-01 2.913767993450164795e-01 1.841373182833194733e-02
2.807000000000000000e+03 7.280400848388671875e+01 -8.284120559692382812e+00 4.856542646884918213e-01 9.126641273498535156e+00 2.883688688278198242e+00 1.974917203187942505e-01
2.808000000000000000e+03 5.007467651367187500e+01 -4.374880790710449219e+00 -5.669569015502929688e+00 -2.028220415115356445e+00 -2.309336900711059570e+00 3.284569501876831055e+00
2.809000000000000000e+03 1.841857719421386719e+01 3.737651824951171875e+00 8.676668167114257812e+00 -1.467290759086608887e+00 2.162813186645507812e+00 9.538639187812805176e-01
2.810000000000000000e+03 1.871307945251464844e+01 -6.808753967285156250e+00 -6.881100535392761230e-01 -1.779055893421173096e-01 -2.598046958446502686e-01 4.315222203731536865e-01
2.811000000000000000e+03 7.564094543457031250e+01 7.754759311676025391e+00 3.958082675933837891e+00 1.765743064880371094e+01 6.484654426574707031e+00 -5.602504253387451172e+00
2.812000000000000000e+03 7.594322204589843750e+01 5.854163169860839844e+00 -2.080011367797851562e-01 1.681184196472167969e+01 4.981152057647705078e+00 -7.347747683525085449e-01
2.813000000000000000e+03 7.590426635742187500e+01 4.233644962310791016e+00 6.984820365905761719e-01 1.497456645965576172e+01 4.701914787292480469e+00 7.425259053707122803e-02
2.814000000000000000e+03 7.026964569091796875e+01 7.484004974365234375e+00 9.491785615682601929e-02 4.606762409210205078e+00 1.410504102706909180e+00 9.367809295654296875e-01
2.815000000000000000e+03 7.209368896484375000e+01 9.216270446777343750e+00 -4.464208126068115234e+00 -6.636461615562438965e-01 -1.538356184959411621e+00 -1.508006334304809570e+00
2.816000000000000000e+03 6.647914886474609375e+01 -2.955898523330688477e+00 -6.721127510070800781e+00 -2.769474983215332031e+00 -2.847180843353271484e+00 3.801489591598510742e+00
2.817000000000000000e+03 6.801584625244140625e+01 -4.628695487976074219e+00 -1.810696721076965332e+00 -4.238025546073913574e-01 -6.703497767448425293e-01 1.077245593070983887e+00
2.818000000000000000e+03 6.961228942871093750e+01 -6.322330474853515625e+00 2.847883999347686768e-01 1.472497105598449707e+00 5.271856784820556641e-01 -8.155469298362731934e-01
2.819000000000000000e+03 7.066864013671875000e+01 -7.489831924438476562e+00 1.169166207313537598e+00 3.666696310043334961e+00 1.450758695602416992e+00 -2.070375442504882812e+00
2.820000000000000000e+03 7.207353210449218750e+01 -1.126648426055908203e+01 2.950277626514434814e-01 1.409715747833251953e+01 4.317655563354492188e+00 -1.727388352155685425e-01
2.821000000000000000e+03 7.207238006591796875e+01 -1.205187702178955078e+01 5.074593052268028259e-02 1.412057876586914062e+01 4.251397609710693359e+00 1.691866070032119751e-01
2.822000000000000000e+03 7.209432983398437500e+01 -1.361121273040771484e+01 5.852069854736328125e-01 1.663598632812500000e+01 5.166357994079589844e+00 1.378156304359436035e+00
2.823000000000000000e+03 6.622749328613281250e+01 -1.272778511047363281e+01 -5.447134971618652344e-01 1.059398278594017029e-01 -1.316321045160293579e-01 3.570702373981475830e-01
2.824000000000000000e+03 6.468841552734375000e+01 -1.093041419982910156e+01 5.301341414451599121e-01 3.699859857559204102e+00 1.268998265266418457e+00 -1.398764252662658691e+00
2.825000000000000000e+03 6.395948028564453125e+01 -9.492697715759277344e+00 6.875733733177185059e-01 8.216646194458007812e+00 2.671265840530395508e+00 -1.900287747383117676e+00
2.826000000000000000e+03 6.288626861572265625e+01 -8.104082107543945312e+00 5.656908154487609863e-01 1.042393302917480469e+01 3.296887159347534180e+00 -1.306998878717422485e-01
2.827000000000000000e+03 6.342090988159179688e+01 -6.341274261474609375e+00 1.645943373441696167e-01 1.398771381378173828e+01 4.245692729949951172e+00 -3.735548257827758789e-01
2.828000000000000000e+03 6.334993362426757812e+01 -4.745380401611328125e+00 4.163804948329925537e-01 1.704002189636230469e+01 5.236920833587646484e+00 1.307565569877624512e+00
2.829000000000000000e+03 3.657371139526367188e+01 1.037583827972412109e+01 4.891146183013916016e+00 2.339440917968750000e+01 8.485666275024414062e+00 7.385633945465087891e+00
2.830000000000000000e+03 3.557706069946289062e+01 9.153975486755371094e+00 4.939381122589111328e+00 1.005174350738525391e+01 4.497337341308593750e+00 6.596099376678466797e+00
2.831000000000000000e+03 3.349878311157226562e+01 6.410650730133056641e+00 4.089805781841278076e-01 3.083896160125732422e+00 1.047863006591796875e+00 1.651961803436279297e+00
2.832000000000000000e+03 3.115812873840332031e+01 5.583911895751953125e+00 -1.180765509605407715e+00 -2.253158688545227051e-01 -4.218244254589080811e-01 -5.137788057327270508e-01
2.833000000000000000e+03 2.925783348083496094e+01 4.138123512268066406e+00 -4.870759010314941406e+00 -1.550652623176574707e+00 -1.926423549652099609e+00 -2.658422470092773438e+00
2.834000000000000000e+03 2.794936561584472656e+01 3.186789274215698242e+00 -8.680996894836425781e+00 -2.395308494567871094e+00 -3.322891712188720703e+00 -4.369534969329833984e+00
2.835000000000000000e+03 2.493433761596679688e+01 1.994975090026855469e+00 -3.368132829666137695e+00 -1.022256240248680115e-01 -1.041107535362243652e+00 -3.909827709197998047e+00
2.836000000000000000e+03 2.510927391052246094e+01 7.441849708557128906e+00 2.806170701980590820e+00 6.258031368255615234e+00 2.719260692596435547e+00 4.356007099151611328e+00
2.837000000000000000e+03 2.686571693420410156e+01 9.084332466125488281e+00 -9.590411186218261719e-01 1.402526140213012695e+00 1.330455094575881958e-01 4.400580376386642456e-02
2.838000000000000000e+03 2.859564208984375000e+01 1.072951412200927734e+01 -4.138453483581542969e+00 -2.301404476165771484e+00 -1.931957244873046875e+00 -3.097805738449096680e+00
2.839000000000000000e+03 2.981824111938476562e+01 1.176447486877441406e+01 -4.745839595794677734e+00 -2.990193843841552734e+00 -2.320810079574584961e+00 -3.756191968917846680e+00
2.840000000000000000e+03 3.237973022460937500e+01 1.367795753479003906e+01 -5.900529861450195312e+00 -2.074040651321411133e+00 -2.392371177673339844e+00 -3.216732501983642578e+00
2.841000000000000000e+03 5.156253051757812500e+01 9.884063720703125000e+00 7.059222459793090820e-01 1.349058723449707031e+01 4.258953094482421875e+00 -4.008062779903411865e-01
2.842000000000000000e+03 4.417785263061523438e+01 2.907277345657348633e+00 -2.606202065944671631e-01 5.202539563179016113e-01 7.789012789726257324e-02 2.449253499507904053e-01
2.843000000000000000e+03 4.247364807128906250e+01 1.292212724685668945e+00 -4.276721477508544922e+00 -1.317455649375915527e+00 -1.678253173828125000e+00 -2.408917188644409180e+00
2.844000000000000000e+03 3.929818344116210938e+01 5.691820144653320312e+00 8.856818675994873047e-01 8.315217018127441406e+00 2.760269880294799805e+00 3.163641214370727539e+00
2.845000000000000000e+03 4.010145187377929688e+01 7.110117912292480469e+00 1.228449791669845581e-01 4.305387973785400391e+00 1.328469872474670410e+00 1.338692665100097656e+00
2.846000000000000000e+03 4.104598999023437500e+01 8.429340362548828125e+00 -4.153612852096557617e-01 5.984812378883361816e-01 5.493597686290740967e-02 -1.760267019271850586e-01
2.847000000000000000e+03 4.255746459960937500e+01 1.032332420349121094e+01 -1.892005354166030884e-01 -5.700803399085998535e-01 -2.277842760086059570e-01 -3.662596642971038818e-01
2.848000000000000000e+03 4.422623825073242188e+01 1.205568790435791016e+01 1.393276304006576538e-01 3.462891327217221260e-03 4.283715412020683289e-02 6.899678707122802734e-02
2.849000000000000000e+03 4.511865997314453125e+01 1.446821689605712891e+01 6.356844305992126465e-02 1.007440567016601562e+00 3.213027119636535645e-01 7.847494482994079590e-01
2.850000000000000000e+03 4.591960144042968750e+01 1.384489631652832031e+01 -4.016356468200683594e-01 7.911498844623565674e-02 -9.675619751214981079e-02 -2.138599986210465431e-03
2.851000000000000000e+03 4.985312271118164062e+01 -2.758797407150268555e+00 -3.874236106872558594e+00 2.199506312608718872e-01 -1.096285700798034668e+00 9.679263830184936523e-01
2.852000000000000000e+03 5.225959777832031250e+01 -5.575352191925048828e+00 -2.008562564849853516e+00 2.228853225708007812e+00 6.608721613883972168e-02 -1.377660334110260010e-01
2.853000000000000000e+03 5.318463516235351562e+01 -7.933411598205566406e+00 6.868449449539184570e-01 3.311562538146972656e+00 1.199522256851196289e+00 -1.536181926727294922e+00
2.854000000000000000e+03 5.502447891235351562e+01 -9.505429267883300781e+00 4.639830887317657471e-01 6.346640110015869141e+00 2.043187141418457031e+00 -1.532470226287841797e+00
2.855000000000000000e+03 5.554690933227539062e+01 -1.308960056304931641e+01 6.114524602890014648e-01 1.185664653778076172e+01 3.740429639816284180e+00 -2.039545059204101562e+00
2.856000000000000000e+03 5.668632888793945312e+01 -1.541354656219482422e+01 1.010452032089233398e+00 1.276786327362060547e+01 4.133494377136230469e+00 -1.469561923295259476e-02
2.857000000000000000e+03 5.213392639160156250e+01 -1.733627319335937500e+01 -1.052430272102355957e+00 -6.819375753402709961e-01 -5.203103423118591309e-01 8.965276479721069336e-01
2.858000000000000000e+03 4.947607421875000000e+01 -1.444890785217285156e+01 -3.995989263057708740e-01 -2.556504607200622559e-01 -1.965748220682144165e-01 3.039847612380981445e-01
2.859000000000000000e+03 4.645066070556640625e+01 -1.073625946044921875e+01 3.557553589344024658e-01 3.176781654357910156e+00 1.059761166572570801e+00 -1.005258798599243164e+00
2.860000000000000000e+03 4.576011276245117188e+01 -1.222585582733154297e+01 1.438693702220916748e-01 4.641771316528320312e+00 1.435692191123962402e+00 -5.467929840087890625e-01
2.861000000000000000e+03 4.508823013305664062e+01 -6.988424777984619141e+00 4.493237435817718506e-01 1.225222492218017578e+01 3.810464620590209961e+00 -2.594524145126342773e+00
2.862000000000000000e+03 3.637530136108398438e+01 -4.634558200836181641e+00 -5.928345322608947754e-01 9.825734496116638184e-01 1.169216781854629517e-01 1.580982506275177002e-01
2.863000000000000000e+03 3.771617889404296875e+01 -6.660802364349365234e+00 5.569044351577758789e-01 1.978037595748901367e+00 7.604826092720031738e-01 -1.201054692268371582e+00
2.864000000000000000e+03 4.039702224731445312e+01 -1.167441844940185547e+01 1.033217549324035645e+00 1.207675075531005859e+01 3.932990550994873047e+00 -2.896028041839599609e+00
2.865000000000000000e+03 4.080697631835937500e+01 -1.331161880493164062e+01 1.051709890365600586e+00 1.613138198852539062e+01 5.154927253723144531e+00 -8.227328658103942871e-01
2.866000000000000000e+03 3.702325057983398438e+01 -1.432729816436767578e+01 -1.169414296746253967e-01 4.125996530055999756e-01 8.869747072458267212e-02 -6.288719922304153442e-02
2.867000000000000000e+03 3.641278839111328125e+01 -1.379022312164306641e+01 5.329639092087745667e-02 6.541123390197753906e-01 2.122226208448410034e-01 -3.896924257278442383e-01
2.868000000000000000e+03 3.512370300292968750e+01 -1.264603424072265625e+01 4.558119177818298340e-01 1.069590330123901367e+00 4.576206505298614502e-01 -8.012504577636718750e-01
2.869000000000000000e+03 3.362345504760742188e+01 -1.071301937103271484e+01 1.019999265670776367e+00 1.697264909744262695e+00 8.151792883872985840e-01 -1.262891650199890137e+00
2.870000000000000000e+03 3.168024444580078125e+01 -9.003421783447265625e+00 1.099867701530456543e+00 2.350775718688964844e+00 1.035193085670471191e+00 -1.438194751739501953e+00
2.871000000000000000e+03 3.197302627563476562e+01 -7.944471359252929688e+00 4.008373022079467773e-01 1.250245451927185059e+00 4.953248202800750732e-01 -6.845409870147705078e-01
2.872000000000000000e+03 2.253299713134765625e+01 1.170825576782226562e+01 -1.338700175285339355e+00 1.278560519218444824e+00 -1.804186776280403137e-02 3.592422604560852051e-01
2.873000000000000000e+03 2.189720153808593750e+01 1.122124958038330078e+01 -2.696252346038818359e+00 2.135509848594665527e-01 -7.448104023933410645e-01 -1.191578984260559082e+00
2.874000000000000000e+03 2.003493118286132812e+01 9.735690116882324219e+00 -6.221615314483642578e+00 -2.883557558059692383e+00 -2.731551885604858398e+00 -4.180508136749267578e+00
2.875000000000000000e+03 1.812781143188476562e+01 8.263573646545410156e+00 -6.771600723266601562e+00 -3.787422895431518555e+00 -3.167706966400146484e+00 -5.176952838897705078e+00
2.876000000000000000e+03 1.441210460662841797e+01 4.983023166656494141e+00 1.149644374847412109e+00 -3.242996215820312500e+00 -6.280055046081542969e-01 -2.919131278991699219e+00
2.877000000000000000e+03 1.421129989624023438e+01 1.137724685668945312e+01 -1.418942332267761230e+00 -9.587321281433105469e-01 -7.133023738861083984e-01 -1.089345216751098633e+00
2.878000000000000000e+03 1.676137542724609375e+01 1.334204292297363281e+01 -2.552443981170654297e+00 -9.019277691841125488e-01 -1.036311507225036621e+00 -1.382681846618652344e+00
2.879000000000000000e+03 1.954936981201171875e+01 1.496762752532958984e+01 -3.047117471694946289e+00 -8.709295988082885742e-01 -1.175414085388183594e+00 -1.508689284324645996e+00
2.880000000000000000e+03 2.096096038818359375e+01 1.574312400817871094e+01 -3.593323230743408203e+00 -8.285142183303833008e-01 -1.326551198959350586e+00 -1.590752243995666504e+00
2.881000000000000000e+03 2.259033203125000000e+01 1.764439582824707031e+01 -1.400765061378479004e+00 -1.067434474825859070e-01 -4.522525668144226074e-01 -1.429330348968505859e+00
2.882000000000000000e+03 6.526271820068359375e+01 1.289401435852050781e+01 4.960987567901611328e+00 1.463319301605224609e+01 5.878254413604736328e+00 -5.439729690551757812e+00
2.883000000000000000e+03 6.406444549560546875e+01 7.490058422088623047e+00 1.358114600181579590e+00 4.923871994018554688e+00 1.884595870971679688e+00 2.420145273208618164e+00
2.884000000000000000e+03 6.270602798461914062e+01 5.593551635742187500e+00 6.461948752403259277e-01 2.051383256912231445e+00 8.092734217643737793e-01 1.193557381629943848e+00
2.885000000000000000e+03 6.224723815917968750e+01 4.955609798431396484e+00 3.354448378086090088e-01 1.614326000213623047e+00 5.849312543869018555e-01 8.544985651969909668e-01
2.886000000000000000e+03 6.058239746093750000e+01 3.228971242904663086e+00 -2.617198228836059570e+00 -2.847868204116821289e-01 -8.705955147743225098e-01 -1.159472584724426270e+00
2.887000000000000000e+03 5.869977188110351562e+01 1.824156045913696289e+00 -7.100843429565429688e+00 -2.125590324401855469e+00 -2.767930269241333008e+00 -3.677175760269165039e+00
2.888000000000000000e+03 5.697970581054687500e+01 1.002722144126892090e+00 -8.958679199218750000e+00 -1.760243296623229980e+00 -3.215676784515380859e+00 -2.955450296401977539e+00
2.889000000000000000e+03 5.426128768920898438e+01 4.393948554992675781e+00 1.468851089477539062e+00 2.096200942993164062e+01 6.729258060455322266e+00 2.289928436279296875e+00
2.890000000000000000e+03 5.476430130004882812e+01 5.936231613159179688e+00 1.273690223693847656e+00 1.228052043914794922e+01 4.066263198852539062e+00 3.411567926406860352e+00
2.891000000000000000e+03 5.596533584594726562e+01 8.042002677917480469e+00 3.069712519645690918e-01 3.393209695816040039e+00 1.110054254531860352e+00 1.188299179077148438e+00
2.892000000000000000e+03 6.187888336181640625e+01 1.342605113983154297e+01 -3.206924915313720703e+00 -7.948424220085144043e-01 -1.200530171394348145e+00 -1.579337716102600098e+00
2.893000000000000000e+03 1.339710330963134766e+01 -1.915224790573120117e+00 -1.883583515882492065e-01 2.179507911205291748e-02 -4.996898397803306580e-02 7.817367464303970337e-02
2.894000000000000000e+03 7.916320800781250000e+00 -1.909721851348876953e+00 -1.445767432451248169e-01 1.139116007834672928e-02 -3.995567560195922852e-02 -4.442283883690834045e-02
2.895000000000000000e+03 7.148165702819824219e+00 -2.755117654800415039e+00 -1.211504191160202026e-01 1.162276789546012878e-02 -3.285829350352287292e-02 -7.004823535680770874e-02
2.896000000000000000e+03 3.755432128906250000e+00 -1.928825616836547852e+00 -4.807605594396591187e-02 -1.055723801255226135e-02 -1.758998818695545197e-02 -4.496509954333305359e-02
2.897000000000000000e+03 2.921552896499633789e+00 -1.924293637275695801e+00 -3.200919926166534424e-02 -1.480230595916509628e-02 -1.404345221817493439e-02 -3.489445149898529053e-02
2.898000000000000000e+03 1.252435564994812012e+00 -1.911451101303100586e+00 -8.094336837530136108e-03 -1.439295057207345963e-02 -6.746186409145593643e-03 -1.323994155973196030e-02
2.899000000000000000e+03 4.176837503910064697e-01 -1.905212998390197754e+00 -1.521294820122420788e-03 -5.281771998852491379e-03 -2.040920080617070198e-03 -3.935096319764852524e-03
2.900000000000000000e+03 4.705210030078887939e-01 -4.129107284545898438e+01 2.441716380417346954e-02 -5.236167311668395996e-01 -1.497598737478256226e-01 3.480722371023148298e-04
2.901000000000000000e+03 4.898609519004821777e-01 -3.728022003173828125e+01 9.687984362244606018e-03 -5.289323925971984863e-01 -1.557733267545700073e-01 5.582183599472045898e-03
2.902000000000000000e+03 1.433750033378601074e+00 -3.580974578857421875e+01 -8.002528920769691467e-03 -4.347403049468994141e-01 -1.328228563070297241e-01 2.394373342394828796e-02
2.903000000000000000e+03 1.627041816711425781e+00 -3.415316390991210938e+01 -4.118329379707574844e-03 -4.318189024925231934e-01 -1.307811737060546875e-01 2.522294595837593079e-02
2.904000000000000000e+03 1.534590959548950195e+00 -3.243475723266601562e+01 -7.070455467328429222e-04 -4.711409211158752441e-01 -1.415543854236602783e-01 2.557255141437053680e-02
2.905000000000000000e+03 1.573368787765502930e+00 -3.079691123962402344e+01 -8.866464486345648766e-04 -4.895573854446411133e-01 -1.471332013607025146e-01 2.341656386852264404e-02
2.906000000000000000e+03 1.528068542480468750e+00 -2.917102241516113281e+01 -5.545350722968578339e-04 -5.181936025619506836e-01 -1.556244492530822754e-01 2.313566207885742188e-02
2.907000000000000000e+03 1.391492843627929688e+00 -2.753017234802246094e+01 2.715080277994275093e-03 -5.561353564262390137e-01 -1.660260856151580811e-01 2.022934891283512115e-02
2.908000000000000000e+03 1.323423385620117188e+00 -2.591362380981445312e+01 2.639077138155698776e-03 -5.882263183593750000e-01 -1.756761670112609863e-01 1.582761108875274658e-02
2.909000000000000000e+03 1.243330717086791992e+00 -2.353325080871582031e+01 2.396012889221310616e-03 -6.184992790222167969e-01 -1.848309785127639771e-01 6.351341027766466141e-03
2.910000000000000000e+03 1.212657570838928223e+00 -2.193188285827636719e+01 2.725894562900066376e-03 -6.270327568054199219e-01 -1.872920542955398560e-01 -1.734168152324855328e-03
2.911000000000000000e+03 1.219218850135803223e+00 -2.032944107055664062e+01 3.072210354730486870e-03 -6.191024184226989746e-01 -1.848090589046478271e-01 -1.108458358794450760e-02
2.912000000000000000e+03 4.108643233776092529e-01 -1.876260948181152344e+01 2.928404137492179871e-03 -7.082488536834716797e-01 -2.115961313247680664e-01 -7.782477419823408127e-03
2.913000000000000000e+03 1.239036321640014648e+00 -1.711289405822753906e+01 3.277322510257363319e-03 -5.625737905502319336e-01 -1.677889376878738403e-01 -3.570978716015815735e-02
2.914000000000000000e+03 1.221306085586547852e+00 -1.550688171386718750e+01 2.565139438956975937e-03 -5.174506902694702148e-01 -1.544656753540039062e-01 -4.633171856403350830e-02
2.915000000000000000e+03 1.187725543975830078e+00 -1.390845298767089844e+01 1.523218466900289059e-03 -4.617531299591064453e-01 -1.380689740180969238e-01 -5.424950271844863892e-02
2.916000000000000000e+03 1.153017401695251465e+00 -1.231990146636962891e+01 2.542505681049078703e-04 -3.962190449237823486e-01 -1.187894344329833984e-01 -5.900795757770538330e-02
2.917000000000000000e+03 1.121445178985595703e+00 -9.954019546508789062e+00 8.557455730624496937e-04 -2.870905399322509766e-01 -8.587044477462768555e-02 -5.948051065206527710e-02
2.918000000000000000e+03 1.120947122573852539e+00 -8.374722480773925781e+00 -9.004393359646201134e-04 -2.133394628763198853e-01 -6.427197158336639404e-02 -5.655828863382339478e-02
2.919000000000000000e+03 1.153882384300231934e+00 -6.780573844909667969e+00 -2.893720520660281181e-03 -1.444095075130462646e-01 -4.419096931815147400e-02 -5.116483196616172791e-02
2.920000000000000000e+03 4.192134141921997070e-01 -3.520916700363159180e+00 -9.858737466856837273e-04 -3.290149942040443420e-02 -1.016621198505163193e-02 -1.034189295023679733e-02
2.921000000000000000e+03 7.959741973876953125e+01 4.206414794921875000e+01 5.813483148813247681e-03 6.890026569366455078e+00 2.068752050399780273e+00 -6.595671176910400391e-03
2.922000000000000000e+03 7.964008331298828125e+01 3.886687850952148438e+01 -2.727279672399163246e-03 6.894675254821777344e+00 2.067584276199340820e+00 1.274553476832807064e-03
2.923000000000000000e+03 7.955484771728515625e+01 3.741534805297851562e+01 -5.460637039504945278e-04 6.879684925079345703e+00 2.063741683959960938e+00 5.096964538097381592e-03
2.924000000000000000e+03 7.940312194824218750e+01 3.574363708496093750e+01 -1.258973847143352032e-03 6.873461246490478516e+00 2.061660766601562500e+00 3.118255641311407089e-03
2.925000000000000000e+03 7.954346466064453125e+01 3.409271621704101562e+01 -5.883949808776378632e-03 6.874973297119140625e+00 2.060726642608642578e+00 6.657330668531358242e-04
2.926000000000000000e+03 7.956636047363281250e+01 3.330595397949218750e+01 1.276811351999640465e-03 6.872129917144775391e+00 2.062021970748901367e+00 4.630130715668201447e-03
2.927000000000000000e+03 7.857387542724609375e+01 3.015449523925781250e+01 -3.711391706019639969e-03 6.788083553314208984e+00 2.035311698913574219e+00 1.420670188963413239e-02
2.928000000000000000e+03 7.874594879150390625e+01 2.852194976806640625e+01 -1.380468951538205147e-03 6.784548282623291016e+00 2.034950256347656250e+00 1.642836816608905792e-02
2.929000000000000000e+03 7.881826019287109375e+01 2.696209526062011719e+01 -1.064099022187292576e-03 6.772409915924072266e+00 2.031403779983520508e+00 1.918808557093143463e-02
2.930000000000000000e+03 7.873882293701171875e+01 2.541021919250488281e+01 -2.665435313247144222e-04 6.750900268554687500e+00 2.025190114974975586e+00 2.438403852283954620e-02
2.931000000000000000e+03 7.863979339599609375e+01 2.382144737243652344e+01 2.052570227533578873e-03 6.731280803680419922e+00 2.019999980926513672e+00 2.583243697881698608e-02
2.932000000000000000e+03 7.953843688964843750e+01 2.209034347534179688e+01 3.481514286249876022e-03 6.725373268127441406e+00 2.018656492233276367e+00 6.861805450171232224e-03
2.933000000000000000e+03 7.863735961914062500e+01 2.133509635925292969e+01 1.594128273427486420e-02 6.720815181732177734e+00 2.021026849746704102e+00 1.862037170212715864e-04
2.934000000000000000e+03 7.871668243408203125e+01 1.967917633056640625e+01 2.930609136819839478e-02 6.751812458038330078e+00 2.034335613250732422e+00 -4.260914400219917297e-02
2.935000000000000000e+03 7.887110137939453125e+01 1.494641208648681641e+01 4.109331220388412476e-02 7.298845767974853516e+00 2.201981782913208008e+00 -2.690697908401489258e-01
2.936000000000000000e+03 7.880484771728515625e+01 1.335289764404296875e+01 -3.231190517544746399e-02 7.663529396057128906e+00 2.289365291595458984e+00 -2.719158828258514404e-01
2.937000000000000000e+03 7.875350189208984375e+01 1.172926330566406250e+01 -1.609667688608169556e-01 7.979984760284423828e+00 2.345705270767211914e+00 -2.871301956474781036e-02
2.938000000000000000e+03 7.955976867675781250e+01 1.003609943389892578e+01 -8.829915523529052734e-02 7.417434692382812500e+00 2.198740720748901367e+00 2.583664655685424805e-01
2.939000000000000000e+03 7.959325408935546875e+01 8.409505844116210938e+00 8.180814981460571289e-02 6.417083740234375000e+00 1.949667572975158691e+00 1.941979825496673584e-01
2.940000000000000000e+03 7.878406524658203125e+01 7.560186862945556641e+00 5.846980214118957520e-01 8.321681022644042969e+00 2.671913623809814453e+00 -2.199784517288208008e-01
2.941000000000000000e+03 7.964944458007812500e+01 4.419389724731445312e+00 -4.593487083911895752e-02 9.429688453674316406e+00 2.815126180648803711e+00 -7.215786576271057129e-01
2.942000000000000000e+03 7.881356811523437500e+01 2.889376878738403320e+00 -2.355289012193679810e-01 1.185634613037109375e+01 3.486245155334472656e+00 -1.759938478469848633e+00
2.943000000000000000e+03 7.878417968750000000e+01 1.225042581558227539e+00 -5.718290209770202637e-01 1.295662593841552734e+01 3.715439081192016602e+00 -8.017376661300659180e-01
2.944000000000000000e+03 7.866208648681640625e+01 -4.362710416316986084e-01 -4.492610692977905273e-01 1.276319599151611328e+01 3.694180488586425781e+00 2.722041904926300049e-01
2.945000000000000000e+03 7.963354492187500000e+01 -6.843997955322265625e+00 2.372499927878379822e-02 9.940690994262695312e+00 2.989324569702148438e+00 3.655503392219543457e-01
2.946000000000000000e+03 7.887857818603515625e+01 -7.683692455291748047e+00 5.897311866283416748e-02 9.098786354064941406e+00 2.747327804565429688e+00 9.573146700859069824e-01
2.947000000000000000e+03 7.883293914794921875e+01 -9.293122291564941406e+00 9.229291230440139771e-02 8.104947090148925781e+00 2.459172010421752930e+00 8.495200276374816895e-01
2.948000000000000000e+03 7.884339141845703125e+01 -1.090561389923095703e+01 1.290630698204040527e-01 7.289570808410644531e+00 2.225590229034423828e+00 6.057495474815368652e-01
2.949000000000000000e+03 7.961069488525390625e+01 -2.046372222900390625e+01 -1.980927307158708572e-03 7.275695800781250000e+00 2.182114362716674805e+00 -4.654904454946517944e-02
2.950000000000000000e+03 7.880927276611328125e+01 -2.128493309020996094e+01 -3.716162219643592834e-02 7.283726692199707031e+00 2.173969507217407227e+00 -4.932584241032600403e-02
2.951000000000000000e+03 7.869160461425781250e+01 -2.776208877563476562e+01 9.883875027298927307e-03 6.907024860382080078e+00 2.075072526931762695e+00 9.808830916881561279e-02
2.952000000000000000e+03 7.868970489501953125e+01 -2.940664863586425781e+01 1.216257642954587936e-02 6.804079055786132812e+00 2.044872522354125977e+00 8.162795752286911011e-02
2.953000000000000000e+03 7.877197265625000000e+01 -3.098138809204101562e+01 1.381664071232080460e-02 6.726340293884277344e+00 2.022047042846679688e+00 6.271399557590484619e-02
2.954000000000000000e+03 7.881810760498046875e+01 -3.248347091674804688e+01 1.184897683560848236e-02 6.662528038024902344e+00 2.002313137054443359e+00 4.560473188757896423e-02
2.955000000000000000e+03 7.958752441406250000e+01 -3.404650878906250000e+01 -4.680007696151733398e-03 6.659915924072265625e+00 1.996570706367492676e+00 1.118992548435926437e-02
2.956000000000000000e+03 7.874765777587890625e+01 -3.396799468994140625e+01 7.128486409783363342e-03 6.609583377838134766e+00 1.985013484954833984e+00 3.914135694503784180e-02
2.957000000000000000e+03 7.944984436035156250e+01 -3.801734924316406250e+01 4.272014833986759186e-03 6.570005416870117188e+00 1.972283244132995605e+00 5.179330706596374512e-03
2.958000000000000000e+03 7.949459838867187500e+01 -3.963906097412109375e+01 4.109709523618221283e-03 6.557413578033447266e+00 1.968456983566284180e+00 2.398381708189845085e-03
2.959000000000000000e+03 7.950868225097656250e+01 -4.123277664184570312e+01 -8.533331565558910370e-03 6.560052871704101562e+00 1.965455889701843262e+00 1.743017579428851604e-03
2.960000000000000000e+03 7.861206817626953125e+01 4.105439758300781250e+01 -1.016394421458244324e-02 6.805643558502197266e+00 2.038643836975097656e+00 1.483459724113345146e-03
2.961000000000000000e+03 3.929307758808135986e-01 1.905930399894714355e+00 -1.945624686777591705e-02 -2.595753669738769531e-01 -8.370947837829589844e-02 1.104487031698226929e-01
2.962000000000000000e+03 1.339780569076538086e+00 4.382637500762939453e+00 1.211416646838188171e-01 -7.488546967506408691e-01 -1.883139014244079590e-01 2.706401050090789795e-01
2.963000000000000000e+03 3.869659900665283203e-01 8.359524726867675781e+00 1.408356335014104843e-02 -8.313089609146118164e-01 -2.451676130294799805e-01 -1.247248351573944092e-01
2.964000000000000000e+03 1.162111282348632812e+00 9.200326919555664062e+00 4.856773838400840759e-02 -2.557661831378936768e-01 -6.215953826904296875e-02 -4.178037643432617188e-01
2.965000000000000000e+03 1.159929513931274414e+00 1.555708694458007812e+01 -2.725620381534099579e-02 1.431903481483459473e+00 4.213941693305969238e-01 -1.992506682872772217e-01
2.966000000000000000e+03 3.671317398548126221e-01 1.716233062744140625e+01 -1.754807494580745697e-02 1.787520289421081543e+00 5.309916734695434570e-01 -3.729048371315002441e-02
2.967000000000000000e+03 1.122308135032653809e+00 1.870206069946289062e+01 -1.344766654074192047e-02 1.732418775558471680e+00 5.156913399696350098e-01 -4.503079503774642944e-02
2.968000000000000000e+03 4.201316535472869873e-01 2.036182785034179688e+01 -1.143991108983755112e-02 1.908125400543212891e+00 5.690056681632995605e-01 4.589550197124481201e-03
2.969000000000000000e+03 1.129334926605224609e+00 2.271520233154296875e+01 -1.378830056637525558e-02 1.712325334548950195e+00 5.095611214637756348e-01 5.398272722959518433e-02
2.970000000000000000e+03 1.359163999557495117e+00 2.592383193969726562e+01 -4.319968167692422867e-03 1.522541880607604980e+00 4.554665684700012207e-01 8.996471017599105835e-02
2.971000000000000000e+03 4.402432143688201904e-01 3.561577987670898438e+01 1.888111815787851810e-03 1.042195558547973633e+00 3.132250905036926270e-01 1.581742428243160248e-02
2.972000000000000000e+03 1.347961783409118652e+00 3.553528594970703125e+01 3.557384712621569633e-03 1.056791305541992188e+00 3.181046247482299805e-01 4.584562778472900391e-02
2.973000000000000000e+03 5.006941556930541992e-01 4.122048950195312500e+01 8.705923100933432579e-04 9.173462390899658203e-01 2.754650413990020752e-01 2.241445705294609070e-03
2.974000000000000000e+03 7.362174034118652344e+00 1.828260183334350586e+00 -1.026791691780090332e+00 -1.375052034854888916e-01 -3.492890596389770508e-01 1.459069371223449707e+00
2.975000000000000000e+03 5.820161342620849609e+00 1.826253414154052734e+00 -8.003184795379638672e-01 -2.834593355655670166e-01 -3.251333236694335938e-01 1.219084262847900391e+00
2.976000000000000000e+03 3.516866445541381836e+00 1.878193974494934082e+00 -4.122133851051330566e-01 -2.272653132677078247e-01 -1.918436139822006226e-01 7.640120983123779297e-01
2.977000000000000000e+03 1.113981437683105469e+01 1.771266222000122070e+00 -1.145185589790344238e+00 1.730724334716796875e+00 1.756616383790969849e-01 -1.594437718391418457e+00
2.978000000000000000e+03 1.262672996520996094e+01 1.798427104949951172e+00 2.242332398891448975e-01 5.718010663986206055e-01 2.388103008270263672e-01 -2.789455175399780273e+00
2.979000000000000000e+03 1.406383037567138672e+01 1.844624638557434082e+00 8.653472661972045898e-01 -8.374372124671936035e-01 8.373021148145198822e-03 -1.261847376823425293e+00
2.980000000000000000e+03 1.481761169433593750e+01 1.933704257011413574e+00 1.514706611633300781e-01 -2.700670242309570312e+00 -7.647598981857299805e-01 -7.818450927734375000e-01
2.981000000000000000e+03 1.874487304687500000e+01 2.219552993774414062e+00 3.647363424301147461e+00 4.127635359764099121e-01 1.218038082122802734e+00 -1.302485585212707520e+00
2.982000000000000000e+03 1.991690444946289062e+01 1.103959441184997559e+00 2.143719047307968140e-01 4.644693136215209961e-01 2.036523669958114624e-01 3.629744946956634521e-01
2.983000000000000000e+03 2.434041976928710938e+01 -4.695335388183593750e+00 3.234764814376831055e+00 9.959220886230468750e+00 3.958195686340332031e+00 -5.022376060485839844e+00
2.984000000000000000e+03 2.536441612243652344e+01 -7.823801994323730469e+00 2.323462009429931641e+00 2.403274345397949219e+01 7.906861782073974609e+00 1.658800840377807617e+00
2.985000000000000000e+03 2.187354469299316406e+01 -8.378555297851562500e+00 -1.990149140357971191e+00 -8.716961741447448730e-01 -8.585535883903503418e-01 9.283363223075866699e-01
2.986000000000000000e+03 2.051667404174804688e+01 -7.466734409332275391e+00 -1.181170821189880371e+00 -6.761770844459533691e-01 -5.572043657302856445e-01 7.415145039558410645e-01
2.987000000000000000e+03 1.618146133422851562e+01 -5.042997360229492188e+00 -4.660724401473999023e-01 -8.075292222201824188e-03 -1.422443240880966187e-01 1.800252646207809448e-01
2.988000000000000000e+03 1.568559932708740234e+01 -1.770605564117431641e+00 -8.998104929924011230e-02 -1.684706211090087891e-01 -7.753550261259078979e-02 1.215490996837615967e-01
2.989000000000000000e+03 1.494505214691162109e+01 -1.891961812973022461e+00 -1.387298852205276489e-01 -4.339792206883430481e-02 -5.463834479451179504e-02 1.051914244890213013e-01
2.990000000000000000e+03 6.947261810302734375e+01 6.371603012084960938e+00 2.060061693191528320e-01 1.137221622467041016e+01 3.473466634750366211e+00 8.853285312652587891e-01
2.991000000000000000e+03 7.344630432128906250e+01 9.887920379638671875e+00 -1.170184612274169922e+00 1.261953711509704590e+00 2.753072604537010193e-02 -2.261110544204711914e+00
2.992000000000000000e+03 7.454344940185546875e+01 9.840942382812500000e+00 -6.322029232978820801e-01 6.178396224975585938e+00 1.663858056068420410e+00 -3.916350126266479492e+00
2.993000000000000000e+03 2.467225837707519531e+01 -9.784143447875976562e+00 4.364338874816894531e+00 1.007219409942626953e+01 4.330959796905517578e+00 5.851637363433837891e+00
2.994000000000000000e+03 5.658609771728515625e+01 -1.460526371002197266e+01 6.481142044067382812e-01 1.237278175354003906e+01 3.906268596649169922e+00 -4.444819092750549316e-01
2.995000000000000000e+03 7.235226440429687500e+01 1.030439472198486328e+01 6.056917905807495117e-01 4.966348707675933838e-01 3.306979835033416748e-01 -8.252139091491699219e-01
2.996000000000000000e+03 4.066727066040039062e+01 -1.607143974304199219e+01 4.030351161956787109e+00 1.499079704284667969e+01 5.706344127655029297e+00 3.810366630554199219e+00
2.997000000000000000e+03 4.026219940185546875e+01 -1.679421615600585938e+01 2.233344554901123047e+00 8.052914619445800781e+00 3.085877656936645508e+00 4.194414615631103516e+00
2.998000000000000000e+03 1.279265975952148438e+01 2.528862476348876953e+00 2.758665323257446289e+00 -4.365102350711822510e-01 6.966465115547180176e-01 -3.479741573333740234e+00
2.999000000000000000e+03 1.175227928161621094e+01 2.466900110244750977e+00 1.654394984245300293e+00 2.028839111328125000e+00 1.104970216751098633e+00 -3.260902404785156250e+00
3.000000000000000000e+03 1.337339973449707031e+01 2.466465473175048828e+00 2.564363956451416016e+00 -1.048178911209106445e+00 4.548555016517639160e-01 -2.539765596389770508e+00
3.001000000000000000e+03 1.477992820739746094e+01 2.803693056106567383e+00 4.612467765808105469e+00 -2.978544235229492188e+00 4.901770949363708496e-01 -9.566599875688552856e-02
3.002000000000000000e+03 3.173934555053710938e+01 8.121685981750488281e-01 3.285802125930786133e+00 2.666658639907836914e+00 1.785738229751586914e+00 8.553040504455566406e+00
3.003000000000000000e+03 3.232622146606445312e+01 -7.510213255882263184e-01 -3.286026239395141602e+00 -3.230590820312500000e+00 -1.954985141754150391e+00 2.641242742538452148e+00
3.004000000000000000e+03 1.506497478485107422e+01 5.297727108001708984e+00 2.462290078401565552e-01 -3.498641252517700195e+00 -9.757236838340759277e-01 -3.481327295303344727e+00
3.005000000000000000e+03 9.881208419799804688e+00 3.550935745239257812e+00 4.967173099517822266e+00 3.999569177627563477e+00 2.690022706985473633e+00 -2.646177113056182861e-01
3.006000000000000000e+03 1.043553066253662109e+01 2.422485113143920898e+00 7.866604328155517578e-01 2.352391719818115234e+00 9.417156577110290527e-01 -7.091924548149108887e-01
3.007000000000000000e+03 4.504678344726562500e+01 -3.771345615386962891e+00 6.304310321807861328e+00 1.635846519470214844e+01 6.798832416534423828e+00 6.898940563201904297e+00
3.008000000000000000e+03 2.565442466735839844e+01 -8.548196792602539062e+00 5.330458641052246094e+00 2.077185630798339844e+01 7.830694675445556641e+00 2.579111814498901367e+00
3.009000000000000000e+03 6.543453216552734375e+01 -8.880715370178222656e-01 -3.141758441925048828e+00 2.927097797393798828e+00 -6.439815461635589600e-02 4.852969169616699219e+00
3.010000000000000000e+03 6.543238830566406250e+01 -2.350480794906616211e+00 -1.010940551757812500e+01 -2.881776571273803711e+00 -3.897354602813720703e+00 4.192389965057373047e+00
3.011000000000000000e+03 5.662544631958007812e+01 -1.739103126525878906e+01 2.414223432540893555e+00 1.179823112487792969e+01 4.263736724853515625e+00 1.696978092193603516e+00
3.012000000000000000e+03 5.591886520385742188e+01 -1.767099380493164062e+01 2.687357902526855469e+00 1.817172241210937500e+01 6.257723808288574219e+00 3.040207147598266602e+00
3.013000000000000000e+03 1.112359333038330078e+01 -2.642921924591064453e+00 -2.010331898927688599e-01 5.053716897964477539e-02 -4.514880850911140442e-02 1.677736756391823292e-03
3.014000000000000000e+03 1.111092662811279297e+01 -1.912545561790466309e+00 -1.956492364406585693e-01 3.235206007957458496e-02 -4.898915067315101624e-02 1.389062311500310898e-02
3.015000000000000000e+03 7.633121490478515625e+01 3.077150344848632812e+00 -7.369203567504882812e-01 1.086553668975830078e+01 3.038584709167480469e+00 -1.563626289367675781e+00
3.016000000000000000e+03 7.442577362060546875e+01 5.749727487564086914e-01 -3.308064699172973633e+00 2.230754375457763672e+00 -3.231930732727050781e-01 5.996965169906616211e-01
3.017000000000000000e+03 7.327120971679687500e+01 5.381408333778381348e-01 -5.247972965240478516e+00 -7.284682989120483398e-01 -1.792932271957397461e+00 -1.678268432617187500e+00
3.018000000000000000e+03 6.992884826660156250e+01 8.230985641479492188e+00 -1.960979819297790527e+00 6.778905391693115234e+00 1.445377588272094727e+00 1.785238534212112427e-01
3.019000000000000000e+03 7.680824279785156250e+01 6.511595726013183594e+00 2.230472326278686523e+00 1.308749961853027344e+01 4.595391273498535156e+00 -2.606079339981079102e+00
3.020000000000000000e+03 3.103339767456054688e+01 1.038261428475379944e-01 9.940650939941406250e+00 1.134788703918457031e+01 6.386561393737792969e+00 9.791457176208496094e+00
3.021000000000000000e+03 7.538613128662109375e+01 1.700221180915832520e+00 -3.518583297729492188e+00 5.537212848663330078e+00 6.055889129638671875e-01 -4.981473833322525024e-02
3.022000000000000000e+03 7.591400909423828125e+01 2.337879419326782227e+00 -2.551595687866210938e+00 8.829428672790527344e+00 1.883350014686584473e+00 -7.644545435905456543e-01
3.023000000000000000e+03 7.517942047119140625e+01 8.300108909606933594e+00 4.295026779174804688e+00 1.050900459289550781e+01 4.441209316253662109e+00 -6.302068233489990234e+00
3.024000000000000000e+03 2.315736579895019531e+01 1.656395077705383301e+00 -9.197250604629516602e-01 1.455578708648681641e+01 4.090818405151367188e+00 -5.031447887420654297e+00
3.025000000000000000e+03 6.944113922119140625e+01 4.438798427581787109e+00 1.024803519248962402e+00 1.996604156494140625e+01 6.297253608703613281e+00 -9.371862411499023438e-01
3.026000000000000000e+03 6.905804443359375000e+01 5.898065567016601562e+00 2.302904129028320312e-01 1.310256576538085938e+01 3.999856948852539062e+00 -6.954736709594726562e-01
3.027000000000000000e+03 7.704673767089843750e+01 4.376295089721679688e+00 6.333118081092834473e-01 1.233843517303466797e+01 3.891524076461791992e+00 -1.804250001907348633e+00
3.028000000000000000e+03 7.675915527343750000e+01 5.811083316802978516e+00 9.379467964172363281e-01 1.513236904144287109e+01 4.821094989776611328e+00 -2.494573354721069336e+00
3.029000000000000000e+03 7.044869995117187500e+01 2.109747886657714844e+00 3.381735563278198242e+00 7.786053180694580078e+00 3.350336551666259766e+00 -5.067539691925048828e+00
3.030000000000000000e+03 6.942852020263671875e+01 2.058313846588134766e+00 6.249157786369323730e-01 1.061658382415771484e+01 3.372449874877929688e+00 -1.744316339492797852e+00
3.031000000000000000e+03 2.991183090209960938e+01 -1.003443077206611633e-01 7.396878719329833984e+00 9.820905685424804688e+00 5.165335178375244141e+00 2.239025831222534180e+00
3.032000000000000000e+03 1.048274993896484375e+01 3.454177141189575195e+00 5.066343784332275391e+00 4.330361366271972656e+00 2.819011449813842773e+00 -1.253080368041992188e+00
3.033000000000000000e+03 8.867212295532226562e+00 2.452875137329101562e+00 8.727670907974243164e-01 1.045311331748962402e+00 5.754234790802001953e-01 1.194005727767944336e+00
3.034000000000000000e+03 4.393670082092285156e+00 2.582660675048828125e+00 1.361133158206939697e-02 -3.918137848377227783e-01 -1.134607344865798950e-01 9.557171463966369629e-01
3.035000000000000000e+03 3.619067668914794922e+00 2.627783298492431641e+00 -2.187059726566076279e-03 -3.609326481819152832e-01 -1.089359149336814880e-01 8.300879001617431641e-01
3.036000000000000000e+03 6.643249511718750000e+00 2.441637992858886719e+00 2.106273472309112549e-01 -3.143112659454345703e-01 -3.110517561435699463e-02 1.332109689712524414e+00
3.037000000000000000e+03 1.218420624732971191e+00 2.723794460296630859e+00 -1.823260448873043060e-02 -4.655101895332336426e-01 -1.451228410005569458e-01 3.668061196804046631e-01
3.038000000000000000e+03 2.418046569824218750e+01 -1.066400051116943359e+01 1.068211793899536133e+00 5.246873855590820312e+00 1.894525647163391113e+00 4.058434963226318359e+00
3.039000000000000000e+03 6.410279083251953125e+01 -1.441117763519287109e+00 -4.930372714996337891e+00 6.926493167877197266e+00 5.988360643386840820e-01 5.435063838958740234e+00
3.040000000000000000e+03 5.384663772583007812e+01 -2.007407379150390625e+01 1.193004727363586426e+00 1.708292007446289062e+00 8.703890442848205566e-01 2.205441713333129883e+00
3.041000000000000000e+03 4.606514739990234375e+01 -3.195654392242431641e+00 1.089845299720764160e+00 3.049836635589599609e+00 1.241904616355895996e+00 4.456804275512695312e+00
3.042000000000000000e+03 6.243201828002929688e+01 -4.066917896270751953e+00 3.054251194000244141e+00 1.093365859985351562e+01 4.196372985839843750e+00 2.308478355407714844e+00
3.043000000000000000e+03 6.259778594970703125e+01 -4.874608516693115234e+00 1.833380699157714844e+00 1.359573841094970703e+01 4.628735542297363281e+00 2.572435140609741211e+00
3.044000000000000000e+03 7.205882263183593750e+01 -1.437595653533935547e+01 2.614943027496337891e+00 1.655541419982910156e+01 5.751107215881347656e+00 3.527339458465576172e+00
3.045000000000000000e+03 6.268957138061523438e+01 -2.679642200469970703e+00 -3.234184980392456055e-01 1.088116455078125000e+01 3.167323827743530273e+00 7.821714878082275391e-01
3.046000000000000000e+03 2.520166778564453125e+01 1.476663589477539062e+01 3.227622270584106445e+00 1.993377685546875000e+01 6.948419570922851562e+00 2.980291128158569336e+00
3.047000000000000000e+03 2.576351737976074219e+01 1.685359764099121094e+01 -1.676523447036743164e+00 8.886713027954101562e+00 2.163056850433349609e+00 2.145255565643310547e+00
3.048000000000000000e+03 2.324406433105468750e+01 1.811098861694335938e+01 -1.534080624580383301e+00 8.372607827186584473e-01 -2.090459465980529785e-01 -2.135127305984497070e+00
3.049000000000000000e+03 5.644425964355468750e+01 1.899999231100082397e-01 -2.373579978942871094e+00 1.112522840499877930e+00 -3.783171474933624268e-01 -5.898355484008789062e+00
3.050000000000000000e+03 5.517929458618164062e+01 1.225727319717407227e+00 2.549222230911254883e+00 7.724699974060058594e+00 3.082176685333251953e+00 -6.209396362304687500e+00
3.051000000000000000e+03 7.160797119140625000e+01 -8.836956977844238281e+00 1.412349224090576172e+00 9.528032302856445312e+00 3.282114505767822266e+00 -2.930458307266235352e+00
3.052000000000000000e+03 7.206662750244140625e+01 -1.044437408447265625e+01 7.324264049530029297e-01 1.385502433776855469e+01 4.376235485076904297e+00 -1.076145768165588379e+00
3.053000000000000000e+03 5.421287155151367188e+01 1.164045333862304688e+00 -4.585539996623992920e-01 1.312695026397705078e+01 3.800518989562988281e+00 -1.655516266822814941e+00
3.054000000000000000e+03 6.460439300537109375e+01 -1.194886016845703125e+01 -4.712942838668823242e-01 3.670938491821289062e+00 9.598932266235351562e-01 -6.833506226539611816e-01
3.055000000000000000e+03 6.511444854736328125e+01 -1.256699848175048828e+01 -4.851148426532745361e-01 2.471499919891357422e+00 5.959154963493347168e-01 -4.425466358661651611e-01
3.056000000000000000e+03 6.333900833129882812e+01 1.437276458740234375e+01 -1.037273168563842773e+00 7.679706811904907227e-01 -8.079074323177337646e-02 -2.161577463150024414e+00
3.057000000000000000e+03 6.372854995727539062e+01 -8.720419883728027344e+00 6.217630505561828613e-01 1.019258880615234375e+01 3.244305610656738281e+00 -1.570267558097839355e+00
3.058000000000000000e+03 7.286573791503906250e+01 -1.042892551422119141e+01 1.288910627365112305e+00 1.162153911590576172e+01 3.873134851455688477e+00 -2.731502950191497803e-01
3.059000000000000000e+03 6.366668319702148438e+01 -1.055410099029541016e+01 -2.536976523697376251e-02 6.738772392272949219e+00 2.014020919799804688e+00 -6.375798583030700684e-01
3.060000000000000000e+03 6.302552795410156250e+01 -8.950744628906250000e+00 4.503718018531799316e-01 9.281796455383300781e+00 2.919650554656982422e+00 -3.039812147617340088e-01
3.061000000000000000e+03 6.143368530273437500e+01 1.408592319488525391e+01 -1.524292707443237305e+00 -1.949437111616134644e-01 -5.157709121704101562e-01 -3.016401231288909912e-01
3.062000000000000000e+03 6.762107086181640625e+01 -1.517994046211242676e+00 -4.265745639801025391e+00 3.168922424316406250e+00 -3.290470242500305176e-01 1.817769259214401245e-01
3.063000000000000000e+03 6.747808837890625000e+01 -4.080724239349365234e+00 -2.917443037033081055e+00 -1.051361441612243652e+00 -1.190641283988952637e+00 1.779352068901062012e+00
3.064000000000000000e+03 6.726372528076171875e+01 -2.496176481246948242e+00 -5.603317260742187500e+00 1.893298268318176270e+00 -1.113005757331848145e+00 7.072660923004150391e-01
3.065000000000000000e+03 6.348891067504882812e+01 -7.134584426879882812e+00 2.976589798927307129e-01 1.257835292816162109e+01 3.862803459167480469e+00 -7.634156346321105957e-01
3.066000000000000000e+03 6.268287658691406250e+01 -5.667933464050292969e+00 7.455503344535827637e-01 1.315179061889648438e+01 4.169202327728271484e+00 1.097176313400268555e+00
3.067000000000000000e+03 6.614191436767578125e+01 -1.372319507598876953e+01 -8.109678030014038086e-01 1.033233046531677246e+00 6.667956709861755371e-02 1.312217116355895996e-01
3.068000000000000000e+03 7.207831573486328125e+01 -1.282993793487548828e+01 2.464280128479003906e-01 1.472474956512451172e+01 4.491353511810302734e+00 4.976358413696289062e-01
3.069000000000000000e+03 7.067214202880859375e+01 -6.403222560882568359e+00 -4.221157729625701904e-02 3.776434898376464844e+00 1.120267033576965332e+00 -1.297451257705688477e+00
3.070000000000000000e+03 6.860727691650390625e+01 -4.174973487854003906e+00 -2.698277950286865234e+00 1.378876805305480957e+00 -3.958203494548797607e-01 3.572450578212738037e-01
3.071000000000000000e+03 6.765937805175781250e+01 -3.064671277999877930e+00 -5.194059371948242188e+00 1.174986720085144043e+00 -1.205721735954284668e+00 1.462658762931823730e+00
3.072000000000000000e+03 7.060935211181640625e+01 -5.372807025909423828e+00 -1.022071123123168945e+00 3.703193902969360352e+00 8.043368458747863770e-01 -9.607831239700317383e-01
3.073000000000000000e+03 6.280441665649414062e+01 -7.273288249969482422e+00 4.137549102306365967e-01 1.148883914947509766e+01 3.570778131484985352e+00 1.293206214904785156e-01
3.074000000000000000e+03 7.282508087158203125e+01 -1.121430110931396484e+01 7.158608436584472656e-01 1.266501808166503906e+01 4.014263629913330078e+00 -1.326554119586944580e-01
3.075000000000000000e+03 5.198238372802734375e+01 -1.974876022338867188e+01 1.181763559579849243e-01 9.308130741119384766e-01 3.146968185901641846e-01 -2.358410656452178955e-01
3.076000000000000000e+03 6.621478271484375000e+01 1.058220005035400391e+01 2.129501342773437500e+00 1.683586692810058594e+01 5.689610481262207031e+00 1.397973060607910156e+00
3.077000000000000000e+03 4.480825424194335938e+01 -4.442961692810058594e+00 3.017741441726684570e+00 2.089677810668945312e+01 7.174355983734130859e+00 4.342539787292480469e+00
3.078000000000000000e+03 4.407301330566406250e+01 -7.199924945831298828e+00 7.182084321975708008e-01 1.076750278472900391e+01 3.445713281631469727e+00 2.703174948692321777e-01
3.079000000000000000e+03 4.607061386108398438e+01 -1.003675556182861328e+01 4.648661613464355469e-01 4.905862331390380859e+00 1.611218571662902832e+00 -1.278109908103942871e+00
3.080000000000000000e+03 4.410967254638671875e+01 -4.258312702178955078e+00 4.841337680816650391e+00 1.126060676574707031e+01 4.830583572387695312e+00 1.976066589355468750e+00
3.081000000000000000e+03 5.376895904541015625e+01 -7.490260601043701172e+00 1.662834733724594116e-01 3.933969259262084961e+00 1.230075836181640625e+00 -1.220698714256286621e+00
3.082000000000000000e+03 4.503604888916015625e+01 -9.778203964233398438e+00 -8.941220492124557495e-02 7.418091773986816406e+00 2.198603868484497070e+00 -4.957827627658843994e-01
3.083000000000000000e+03 5.632650756835937500e+01 -1.304485225677490234e+01 5.683260560035705566e-01 1.113772106170654297e+01 3.511814355850219727e+00 -1.069240808486938477e+00
3.084000000000000000e+03 4.688769912719726562e+01 -1.140297222137451172e+01 1.748166382312774658e-01 1.723693847656250000e+00 5.695531368255615234e-01 -5.813100337982177734e-01
3.085000000000000000e+03 5.593873596191406250e+01 -1.088626670837402344e+01 5.438508391380310059e-01 8.539814949035644531e+00 2.725099802017211914e+00 -1.009233713150024414e+00
3.086000000000000000e+03 5.544324493408203125e+01 -1.020225048065185547e+01 5.719053149223327637e-01 7.567556858062744141e+00 2.441838502883911133e+00 -1.344459533691406250e+00
3.087000000000000000e+03 4.839160919189453125e+01 -1.447422409057617188e+01 1.676656678318977356e-02 7.329301238059997559e-01 2.249090075492858887e-01 -3.266034126281738281e-01
3.088000000000000000e+03 5.567628479003906250e+01 -9.039566040039062500e+00 2.360284775495529175e-01 6.719311237335205078e+00 2.086601972579956055e+00 -8.702948093414306641e-01
3.089000000000000000e+03 4.899114227294921875e+01 -1.498899173736572266e+01 -8.458663523197174072e-02 4.264902174472808838e-01 1.025710776448249817e-01 -1.177525818347930908e-01
3.090000000000000000e+03 5.653694915771484375e+01 -1.686226844787597656e+01 1.658396840095520020e+00 1.413446712493896484e+01 4.737859249114990234e+00 2.018128156661987305e+00
3.091000000000000000e+03 5.661428451538085938e+01 -1.619303321838378906e+01 6.849297881126403809e-01 1.361039638519287109e+01 4.288598060607910156e+00 1.295322477817535400e-01
3.092000000000000000e+03 4.784609222412109375e+01 -1.270485210418701172e+01 -1.132416874170303345e-01 3.226712644100189209e-01 6.282887607812881470e-02 -1.267554704099893570e-02
3.093000000000000000e+03 4.726008987426757812e+01 -1.465925312042236328e+01 3.636707067489624023e-01 2.198889732360839844e+00 7.687681317329406738e-01 -8.848997950553894043e-01
3.094000000000000000e+03 4.433688354492187500e+01 -6.740504264831542969e+00 6.211661100387573242e-01 1.232272529602050781e+01 3.883167266845703125e+00 3.668908476829528809e-01
3.095000000000000000e+03 4.456113815307617188e+01 -7.197976589202880859e+00 2.146202921867370605e-01 1.247696590423583984e+01 3.807475805282592773e+00 -4.314977228641510010e-01
3.096000000000000000e+03 4.677463150024414062e+01 -1.249535369873046875e+01 9.693763405084609985e-02 2.449524879455566406e+00 7.639387845993041992e-01 -6.401114463806152344e-01
3.097000000000000000e+03 5.397706222534179688e+01 -9.289236068725585938e+00 9.114487171173095703e-01 4.519890785217285156e+00 1.629401803016662598e+00 -2.062764406204223633e+00
3.098000000000000000e+03 5.143409729003906250e+01 -1.788939285278320312e+01 -1.109230160713195801e+00 2.215087711811065674e-01 -2.663164436817169189e-01 2.649876475334167480e-01
3.099000000000000000e+03 4.757361984252929688e+01 -2.601836204528808594e+00 -3.458905696868896484e+00 -7.544092535972595215e-01 -1.263994455337524414e+00 3.432967185974121094e+00
3.100000000000000000e+03 4.760990524291992188e+01 -3.396859645843505859e+00 -6.572549343109130859e+00 9.822478890419006348e-02 -1.942297339439392090e+00 1.983598351478576660e+00
3.101000000000000000e+03 5.008121109008789062e+01 -1.603659248352050781e+01 -3.892284035682678223e-01 1.536169648170471191e-01 -7.068343460559844971e-02 1.275344491004943848e-01
3.102000000000000000e+03 5.422394943237304688e+01 -8.139473915100097656e+00 3.430710434913635254e-01 4.583102703094482422e+00 1.477852106094360352e+00 -1.483259558677673340e+00
3.103000000000000000e+03 5.109543991088867188e+01 -1.613688468933105469e+01 -6.898093223571777344e-01 -5.167901515960693359e-01 -3.619798421859741211e-01 6.354601979255676270e-01
3.104000000000000000e+03 5.004502105712890625e+01 -1.701448631286621094e+01 -3.862612545490264893e-01 6.929714083671569824e-01 9.201303869485855103e-02 -2.060225903987884521e-01
3.105000000000000000e+03 5.170140457153320312e+01 -5.018663883209228516e+00 -3.086268901824951172e+00 1.689897656440734863e+00 -4.189113676548004150e-01 4.385390281677246094e-01
3.106000000000000000e+03 4.721324157714843750e+01 -1.324855709075927734e+01 1.388828754425048828e-01 1.810924530029296875e+00 5.849422216415405273e-01 -5.742673873901367188e-01
3.107000000000000000e+03 5.927619171142578125e+01 1.320303797721862793e+00 -5.758085727691650391e+00 4.461940526962280273e-01 -1.593567490577697754e+00 -1.314581155776977539e+00
3.108000000000000000e+03 5.695854568481445312e+01 2.553845345973968506e-01 -1.931228756904602051e+00 -7.073637843132019043e-01 -7.915777564048767090e-01 -4.208818912506103516e+00
3.109000000000000000e+03 5.879216384887695312e+01 8.734055161476135254e-01 -5.146559715270996094e+00 -4.239971563220024109e-02 -1.556687831878662109e+00 -1.033331394195556641e+00
3.110000000000000000e+03 6.465023803710937500e+01 1.458731651306152344e+01 -1.055843681097030640e-01 5.906328201293945312e+00 1.740223050117492676e+00 -3.959465265274047852e+00
3.111000000000000000e+03 6.113806915283203125e+01 2.688964843750000000e+00 -3.109439373016357422e+00 1.742488026618957520e+00 -4.100853800773620605e-01 5.556806176900863647e-02
3.112000000000000000e+03 5.731658935546875000e+01 1.105662918090820312e+01 -3.861646652221679688e-01 1.385020256042480469e+00 2.996566891670227051e-01 2.886930108070373535e-01
3.113000000000000000e+03 5.443313217163085938e+01 6.984797477722167969e+00 -2.721505761146545410e-01 1.067824840545654297e+01 3.121829271316528320e+00 1.083954691886901855e+00
3.114000000000000000e+03 5.937373352050781250e+01 1.271003341674804688e+01 -1.110755205154418945e+00 -9.242674568668007851e-04 -3.335038423538208008e-01 -3.029090464115142822e-01
3.115000000000000000e+03 5.533156967163085938e+01 8.427502632141113281e+00 -4.710254669189453125e-01 6.190554141998291016e+00 1.715858578681945801e+00 9.113436341285705566e-01
3.116000000000000000e+03 5.468370437622070312e+01 8.813963890075683594e+00 -6.691987514495849609e-01 8.023949623107910156e+00 2.206425428390502930e+00 4.581820070743560791e-01
3.117000000000000000e+03 6.452854919433593750e+01 8.100783348083496094e+00 1.637303113937377930e+00 6.846435546875000000e+00 2.545121669769287109e+00 3.371594190597534180e+00
3.118000000000000000e+03 5.747911453247070312e+01 9.898922920227050781e+00 -7.267335057258605957e-01 -7.838759571313858032e-02 -2.415363341569900513e-01 -4.836375117301940918e-01
3.119000000000000000e+03 5.681887054443359375e+01 1.036615276336669922e+01 -2.561253607273101807e-01 1.975072979927062988e+00 5.156842470169067383e-01 3.403377234935760498e-01
3.120000000000000000e+03 6.552420806884765625e+01 8.034933090209960938e+00 -2.505616843700408936e-01 1.141030883789062500e+01 3.347924232482910156e+00 1.197780489921569824e+00
3.121000000000000000e+03 5.985530090332031250e+01 1.759015679359436035e+00 -5.071709156036376953e+00 8.716996312141418457e-01 -1.260002851486206055e+00 -1.126640081405639648e+00
3.122000000000000000e+03 6.348451614379882812e+01 4.111418247222900391e+00 -4.414311349391937256e-01 3.925353765487670898e+00 1.045176744461059570e+00 1.434115171432495117e+00
3.123000000000000000e+03 6.315061569213867188e+01 6.234272956848144531e+00 8.431520462036132812e-01 2.642708539962768555e+00 1.045758128166198730e+00 1.415032029151916504e+00
3.124000000000000000e+03 6.458006286621093750e+01 6.989950656890869141e+00 4.618097841739654541e-01 6.695836067199707031e+00 2.147293806076049805e+00 2.027743816375732422e+00
3.125000000000000000e+03 6.368060684204101562e+01 5.805927276611328125e+00 5.911824107170104980e-01 3.904853820800781250e+00 1.348810911178588867e+00 1.560962677001953125e+00
3.126000000000000000e+03 9.274171829223632812e+00 4.795512676239013672e+00 6.421066284179687500e+00 2.671791553497314453e+00 2.727857351303100586e+00 -1.550326585769653320e+00
3.127000000000000000e+03 4.049681472778320312e+01 -1.242485523223876953e+00 5.190232992172241211e-01 -1.559714674949645996e-01 1.089155450463294983e-01 -4.122596740722656250e+00
3.128000000000000000e+03 3.867253494262695312e+01 -6.440102458000183105e-01 -2.135191708803176880e-01 8.212359428405761719e+00 2.399652242660522461e+00 -5.479223251342773438e+00
3.129000000000000000e+03 3.954015350341796875e+01 -1.634785652160644531e+01 1.727063536643981934e+00 7.865643501281738281e-01 7.540883421897888184e-01 2.282309293746948242e+00
3.130000000000000000e+03 4.695678329467773438e+01 1.539446258544921875e+01 4.138053953647613525e-02 4.396386742591857910e-01 1.443057656288146973e-01 2.352907657623291016e-01
3.131000000000000000e+03 4.795744705200195312e+01 1.515378379821777344e+01 -6.225010156631469727e-01 -1.486119776964187622e-01 -2.313338965177536011e-01 -8.590431213378906250e-01
3.132000000000000000e+03 9.855570793151855469e+00 6.837658882141113281e+00 6.445999145507812500e-01 5.068275928497314453e+00 1.713862776756286621e+00 -9.000829458236694336e-01
3.133000000000000000e+03 9.396024703979492188e+00 6.022552013397216797e+00 3.757138729095458984e+00 5.536812782287597656e+00 2.788185358047485352e+00 -4.326238155364990234e+00
3.134000000000000000e+03 4.973783493041992188e+01 1.604125785827636719e+01 1.381632983684539795e-01 7.732128620147705078e+00 2.361087560653686523e+00 -3.383613109588623047e+00
3.135000000000000000e+03 3.457283782958984375e+01 -7.550317645072937012e-01 -1.009618043899536133e+00 1.820555478334426880e-01 -2.482687532901763916e-01 1.784651994705200195e+00
3.136000000000000000e+03 3.796617126464843750e+01 8.544437885284423828e-01 5.903549671173095703e+00 2.167166137695312500e+01 8.272562980651855469e+00 -6.411549091339111328e+00
3.137000000000000000e+03 3.742397689819335938e+01 1.472316265106201172e+00 5.360296249389648438e+00 2.010406494140625000e+01 7.639308452606201172e+00 -2.190069198608398438e+00
3.138000000000000000e+03 2.593613243103027344e+01 1.432056713104248047e+01 3.515845298767089844e+00 9.968003273010253906e+00 4.045154571533203125e+00 6.988300681114196777e-01
3.139000000000000000e+03 3.666375732421875000e+01 1.314556503295898438e+01 2.914237260818481445e+00 1.815450477600097656e+01 6.320622444152832031e+00 -4.001317501068115234e+00
3.140000000000000000e+03 2.258180427551269531e+01 3.249265432357788086e+00 6.340258598327636719e+00 1.885345840454101562e+01 7.558115005493164062e+00 -2.476959705352783203e+00
3.141000000000000000e+03 5.148890304565429688e+01 1.244807338714599609e+01 2.247122287750244141e+00 1.550510120391845703e+01 5.325666904449462891e+00 -1.497975438833236694e-01
3.142000000000000000e+03 1.700885772705078125e+01 4.542006015777587891e+00 5.845391273498535156e+00 8.746142983436584473e-01 2.016001701354980469e+00 8.019646257162094116e-02
3.143000000000000000e+03 5.023387908935546875e+01 1.053612232208251953e+01 2.081925630569458008e+00 1.898462295532226562e+01 6.319964408874511719e+00 5.088344573974609375e+00
3.144000000000000000e+03 1.340781497955322266e+01 4.039625167846679688e+00 6.885810375213623047e+00 -3.574847936630249023e+00 9.932887554168701172e-01 -2.926017522811889648e+00
3.145000000000000000e+03 1.285118865966796875e+01 4.656725406646728516e+00 6.626594543457031250e+00 -6.099596619606018066e-01 1.804990530014038086e+00 -6.403695940971374512e-01
3.146000000000000000e+03 2.432584571838378906e+01 1.220809841156005859e+01 -1.163194537162780762e+00 8.601265907287597656e+00 2.231421470642089844e+00 2.599647283554077148e+00
3.147000000000000000e+03 2.494349288940429688e+01 1.288887405395507812e+01 -1.033807522617280483e-03 1.046537399291992188e+01 3.139302015304565430e+00 2.673871278762817383e+00
3.148000000000000000e+03 2.314102554321289062e+01 1.675042915344238281e+01 -3.804206848144531250e+00 -3.562923669815063477e-01 -1.248149752616882324e+00 -1.587165594100952148e+00
3.149000000000000000e+03 3.706553649902343750e+01 2.484888076782226562e+00 4.427972793579101562e+00 1.379668617248535156e+01 5.467397689819335938e+00 -3.080057799816131592e-01
3.150000000000000000e+03 4.624038314819335938e+01 1.522805786132812500e+01 -3.431640937924385071e-02 7.770348787307739258e-01 2.228155434131622314e-01 5.346280336380004883e-01
3.151000000000000000e+03 1.189078712463378906e+01 9.163230895996093750e+00 -6.864930391311645508e-01 -2.673805356025695801e-01 -2.861620783805847168e-01 -4.042409956455230713e-01
3.152000000000000000e+03 1.020165824890136719e+01 8.596823692321777344e+00 -7.632018327713012695e-01 2.585928916931152344e+00 5.468180775642395020e-01 -4.837526381015777588e-01
3.153000000000000000e+03 9.755722045898437500e+00 7.969595432281494141e+00 -5.786681771278381348e-01 3.270925521850585938e+00 8.076772093772888184e-01 -1.089302659034729004e+00
3.154000000000000000e+03 3.718080520629882812e+01 9.720074653625488281e+00 2.531096696853637695e+00 1.580902194976806641e+01 5.502035617828369141e+00 2.140722990036010742e+00
3.155000000000000000e+03 4.076164627075195312e+01 -1.412174797058105469e+01 -4.441871345043182373e-01 1.549823093414306641e+01 4.516213417053222656e+00 -3.809204101562500000e-01
3.156000000000000000e+03 4.161615371704101562e+01 -1.339772891998291016e+01 1.219666004180908203e+00 1.283281803131103516e+01 4.215744972229003906e+00 -7.232991456985473633e-01
3.157000000000000000e+03 3.027161788940429688e+01 -3.394771575927734375e+00 2.476670145988464355e-01 1.021581649780273438e+01 3.139045000076293945e+00 -2.033257037401199341e-01
3.158000000000000000e+03 4.220314788818359375e+01 -5.229472741484642029e-02 -4.982261180877685547e+00 1.523400783538818359e+00 -1.037658095359802246e+00 -9.271318316459655762e-01
3.159000000000000000e+03 1.153269290924072266e+01 1.087253284454345703e+01 -1.104685664176940918e+00 5.454522371292114258e-01 -1.677700430154800415e-01 -4.741920530796051025e-01
3.160000000000000000e+03 1.073620510101318359e+01 9.229738235473632812e+00 -8.363174796104431152e-01 1.144295215606689453e+00 9.239332377910614014e-02 -2.716966271400451660e-01
3.161000000000000000e+03 2.046668434143066406e+01 1.649361228942871094e+01 -2.922954559326171875e+00 -4.920524358749389648e-01 -1.024502158164978027e+00 -1.052600264549255371e+00
3.162000000000000000e+03 1.699437332153320312e+01 1.433517456054687500e+01 -2.277655839920043945e+00 -7.054401636123657227e-01 -8.949288129806518555e-01 -1.142712593078613281e+00
3.163000000000000000e+03 3.837805557250976562e+01 -1.669305419921875000e+01 1.354416370391845703e+00 5.260130167007446289e-01 5.641288161277770996e-01 -3.686330467462539673e-02
3.164000000000000000e+03 3.761068725585937500e+01 -1.488321208953857422e+01 -5.689650177955627441e-01 5.515634641051292419e-02 -1.541426032781600952e-01 6.985162198543548584e-02
3.165000000000000000e+03 2.000432586669921875e+01 8.615154266357421875e+00 -4.470649242401123047e+00 -6.187459826469421387e-01 -1.526818633079528809e+00 -2.528303623199462891e+00
3.166000000000000000e+03 2.053357124328613281e+01 9.219845771789550781e+00 -4.841913700103759766e+00 4.805288463830947876e-02 -1.438158273696899414e+00 -2.351574182510375977e+00
3.167000000000000000e+03 2.126492309570312500e+01 1.073842430114746094e+01 -4.009658336639404297e+00 -1.080009937286376953e+00 -1.526900410652160645e+00 -2.216347217559814453e+00
3.168000000000000000e+03 2.151038551330566406e+01 9.233774185180664062e+00 -4.185072898864746094e+00 2.935705423355102539e+00 -3.748103082180023193e-01 -7.325508594512939453e-01
3.169000000000000000e+03 4.797298049926757812e+01 5.879271984100341797e+00 9.481073021888732910e-01 2.764678478240966797e+00 1.113835692405700684e+00 1.116859674453735352e+00
3.170000000000000000e+03 4.630294036865234375e+01 5.287648200988769531e+00 5.222926139831542969e-01 6.138114929199218750e-01 3.408312201499938965e-01 6.805249452590942383e-01
3.171000000000000000e+03 2.025126647949218750e+01 1.536360549926757812e+01 -3.276058435440063477e+00 -7.723340392112731934e-01 -1.214517712593078613e+00 -1.597730159759521484e+00
3.172000000000000000e+03 1.452592277526855469e+01 4.392112731933593750e+00 6.294710159301757812e+00 -4.274879932403564453e+00 6.059490442276000977e-01 -3.626482248306274414e+00
3.173000000000000000e+03 5.120781707763671875e+01 1.182129955291748047e+01 2.058702230453491211e+00 1.798218345642089844e+01 6.012265682220458984e+00 9.402405619621276855e-01
3.174000000000000000e+03 1.362363433837890625e+01 1.083394718170166016e+01 -1.179351449012756348e+00 -7.800201773643493652e-01 -5.878114700317382812e-01 -1.029182910919189453e+00
3.175000000000000000e+03 1.578720664978027344e+01 5.670317173004150391e+00 -1.934069752693176270e+00 -2.722288370132446289e+00 -1.396907448768615723e+00 -3.408183813095092773e+00
3.176000000000000000e+03 1.656088066101074219e+01 6.104245662689208984e+00 -3.006342649459838867e+00 -2.400654077529907227e+00 -1.622099041938781738e+00 -2.953124761581420898e+00
3.177000000000000000e+03 1.372727870941162109e+01 1.189315509796142578e+01 -1.419214606285095215e+00 -4.935962259769439697e-01 -5.738432407379150391e-01 -9.195360541343688965e-01
3.178000000000000000e+03 1.854029655456542969e+01 1.632189750671386719e+01 -2.285996675491333008e+00 -3.980948626995086670e-01 -8.052274584770202637e-01 -7.888382077217102051e-01
3.179000000000000000e+03 1.789316558837890625e+01 7.238819122314453125e+00 -4.712468624114990234e+00 -2.576466798782348633e+00 -2.186680555343627930e+00 -3.446637153625488281e+00
3.180000000000000000e+03 1.858633232116699219e+01 7.668652057647705078e+00 -4.465431213378906250e+00 -2.196445465087890625e+00 -1.998563051223754883e+00 -3.405303001403808594e+00
3.181000000000000000e+03 2.297400665283203125e+01 1.113976860046386719e+01 -2.741248130798339844e+00 4.330277919769287109e+00 4.767089188098907471e-01 9.929144978523254395e-01
3.182000000000000000e+03 3.945908355712890625e+01 7.536089897155761719e+00 -5.938284397125244141e-01 7.488059043884277344e+00 2.068269252777099609e+00 9.593025445938110352e-01
3.183000000000000000e+03 1.431062221527099609e+01 1.244850635528564453e+01 -1.666328787803649902e+00 -6.467618942260742188e-01 -6.939271688461303711e-01 -9.405559897422790527e-01
3.184000000000000000e+03 3.354250335693359375e+01 1.472659111022949219e+01 -4.385040283203125000e+00 -1.290208816528320312e+00 -1.702574849128723145e+00 -1.743012070655822754e+00
3.185000000000000000e+03 4.402782058715820312e+01 1.917067170143127441e+00 -1.922186493873596191e+00 1.222182631492614746e+00 -2.100011408329010010e-01 1.037594825029373169e-01
3.186000000000000000e+03 3.767095184326171875e+01 3.854325771331787109e+00 1.100245475769042969e+00 1.499123191833496094e+01 4.827443122863769531e+00 2.680023193359375000e+00
3.187000000000000000e+03 4.151140594482421875e+01 -1.463041114807128906e+01 1.379578232765197754e+00 1.356787014007568359e+01 4.484234333038330078e+00 1.358209848403930664e+00
3.188000000000000000e+03 3.072448730468750000e+01 -4.969383716583251953e+00 8.166122436523437500e-02 4.210806369781494141e+00 1.287740230560302734e+00 -5.973619222640991211e-01
3.189000000000000000e+03 3.211581420898437500e+01 -9.693483352661132812e+00 1.113929510116577148e+00 2.178389549255371094e+00 9.876956939697265625e-01 -1.512984752655029297e+00
3.190000000000000000e+03 4.362241744995117188e+01 2.341708421707153320e+00 -1.033711791038513184e+00 1.316994130611419678e-01 -2.706036865711212158e-01 -4.742922186851501465e-01
3.191000000000000000e+03 4.629603576660156250e+01 2.928118705749511719e+00 2.224367111921310425e-01 1.703075647354125977e+00 5.776537060737609863e-01 1.548071503639221191e+00
3.192000000000000000e+03 4.461461639404296875e+01 2.412791252136230469e+00 -9.054198265075683594e-01 1.338630199432373047e+00 1.299631148576736450e-01 4.436720013618469238e-01
3.193000000000000000e+03 2.982192993164062500e+01 -4.425832271575927734e+00 1.350408047437667847e-01 8.386009216308593750e+00 2.556314945220947266e+00 7.871276736259460449e-01
3.194000000000000000e+03 4.174106597900390625e+01 -1.095274829864501953e+01 2.103030532598495483e-01 1.053141498565673828e+01 3.222515583038330078e+00 1.971344053745269775e-01
3.195000000000000000e+03 4.109619140625000000e+01 -1.133469581604003906e+01 3.543468117713928223e-01 1.153030776977539062e+01 3.565396547317504883e+00 -9.064407944679260254e-01
3.196000000000000000e+03 4.008488464355468750e+01 -1.091654205322265625e+01 9.895747303962707520e-01 9.561509132385253906e+00 3.165324926376342773e+00 -2.804656982421875000e+00
3.197000000000000000e+03 3.580287933349609375e+01 -1.795542120933532715e+00 -3.557249069213867188e+00 3.725347995758056641e+00 5.042966082692146301e-02 7.419680953025817871e-01
3.198000000000000000e+03 3.470095443725585938e+01 -1.768074631690979004e+00 -4.382192611694335938e+00 -5.593537688255310059e-01 -1.482463836669921875e+00 2.297255277633666992e+00
3.199000000000000000e+03 3.131654548645019531e+01 -6.475042343139648438e+00 2.581291794776916504e-01 1.553108096122741699e+00 5.433711409568786621e-01 -4.814838171005249023e-01
3.200000000000000000e+03 4.471121215820312500e+01 3.496706485748291016e+00 2.522466182708740234e-01 8.063104748725891113e-01 3.175671398639678955e-01 4.478831291198730469e-01
3.201000000000000000e+03 4.520132827758789062e+01 2.945361375808715820e+00 -1.912057846784591675e-01 1.167759776115417480e+00 2.929662168025970459e-01 7.933811545372009277e-01
3.202000000000000000e+03 4.203526306152343750e+01 9.709154129028320312e+00 -3.234376907348632812e-01 -6.313274502754211426e-01 -2.864295542240142822e-01 -5.021499395370483398e-01
3.203000000000000000e+03 4.088626861572265625e+01 1.057535171508789062e+01 1.798694968223571777e+00 3.027639389038085938e+00 1.447900295257568359e+00 1.450317502021789551e+00
3.204000000000000000e+03 4.365522766113281250e+01 1.149246692657470703e+01 7.007201761007308960e-02 -1.737304627895355225e-01 -3.109753690659999847e-02 3.034512046724557877e-03
3.205000000000000000e+03 4.248373794555664062e+01 1.242096519470214844e+01 1.388767957687377930e+00 1.490751743316650391e+00 8.638558983802795410e-01 1.590453147888183594e+00
3.206000000000000000e+03 4.906486511230468750e+01 7.073103427886962891e+00 5.044755935668945312e-01 5.525565624237060547e+00 1.809012413024902344e+00 1.401394128799438477e+00
3.207000000000000000e+03 4.198639678955078125e+01 1.077283954620361328e+01 1.011408805847167969e+00 6.427985429763793945e-01 4.962621927261352539e-01 7.579973340034484863e-01
3.208000000000000000e+03 4.685419082641601562e+01 4.710705280303955078e+00 9.531386494636535645e-01 1.484130024909973145e+00 7.311806082725524902e-01 1.041707396507263184e+00
3.209000000000000000e+03 3.856158828735351562e+01 6.044042587280273438e+00 -3.059488236904144287e-01 1.049781894683837891e+01 3.057561159133911133e+00 2.130497455596923828e+00
3.210000000000000000e+03 4.189917373657226562e+01 8.068026304244995117e-01 -5.281199932098388672e+00 -1.792916297912597656e+00 -2.122234821319580078e+00 -3.152179241180419922e+00
3.211000000000000000e+03 4.046109771728515625e+01 8.847894668579101562e+00 7.221749424934387207e-02 3.766801118850708008e+00 1.151705503463745117e+00 5.425490140914916992e-01
3.212000000000000000e+03 3.817698669433593750e+01 -7.327874183654785156e+00 8.366792798042297363e-01 2.532156705856323242e+00 1.010650753974914551e+00 -1.243341803550720215e+00
3.213000000000000000e+03 4.535633850097656250e+01 1.321005153656005859e+01 -5.206305533647537231e-02 1.133052036166191101e-01 1.837264373898506165e-02 6.844577938318252563e-02
3.214000000000000000e+03 4.465036773681640625e+01 1.376793479919433594e+01 1.674771755933761597e-01 7.924214005470275879e-01 2.879695594310760498e-01 6.954663991928100586e-01
3.215000000000000000e+03 4.395738983154296875e+01 1.420409393310546875e+01 5.131649971008300781e-01 1.517326116561889648e+00 6.091473698616027832e-01 1.355347514152526855e+00
3.216000000000000000e+03 3.257919692993164062e+01 -1.205763721466064453e+01 7.704265117645263672e-01 2.605299711227416992e+00 1.012717843055725098e+00 -1.505889654159545898e+00
3.217000000000000000e+03 3.590065383911132812e+01 -2.880356073379516602e+00 -3.963216543197631836e+00 1.957587122917175293e+00 -6.016888618469238281e-01 9.439866542816162109e-01
3.218000000000000000e+03 3.744693374633789062e+01 -4.812814712524414062e+00 -5.337606668472290039e-01 2.583013772964477539e+00 6.147758960723876953e-01 -9.235959053039550781e-01
3.219000000000000000e+03 3.831414413452148438e+01 5.261668682098388672e+00 4.792178794741630554e-02 1.160930728912353516e+01 3.497168540954589844e+00 2.906416654586791992e+00
3.220000000000000000e+03 3.971830368041992188e+01 -8.330410003662109375e+00 3.775072693824768066e-01 5.619257926940917969e+00 1.799029588699340820e+00 -1.254175066947937012e+00
3.221000000000000000e+03 2.461578750610351562e+01 9.513571858406066895e-01 5.360012128949165344e-02 3.493806600570678711e+00 1.064221978187561035e+00 -6.646662235260009766e+00
3.222000000000000000e+03 7.953858947753906250e+01 3.252372360229492188e+01 -4.024383088108152151e-04 6.867482185363769531e+00 2.060123920440673828e+00 4.079053178429603577e-03
3.223000000000000000e+03 7.955486297607421875e+01 4.122776794433593750e+01 -1.156138163059949875e-02 6.900282382965087891e+00 2.066616296768188477e+00 -4.263092298060655594e-03
3.224000000000000000e+03 7.875035858154296875e+01 3.948811340332031250e+01 1.036263164132833481e-02 6.824761867523193359e+00 2.050537347793579102e+00 6.435571704059839249e-03
3.225000000000000000e+03 7.813207244873046875e+01 3.683158111572265625e+01 3.105789888650178909e-03 6.778752803802490234e+00 2.034557580947875977e+00 4.384822212159633636e-03
3.226000000000000000e+03 7.837380981445312500e+01 3.483280944824218750e+01 -3.051100764423608780e-03 6.797870159149169922e+00 2.038445711135864258e+00 4.727813415229320526e-03
3.227000000000000000e+03 7.958026885986328125e+01 1.165939044952392578e+01 -8.490389585494995117e-02 7.955666065216064453e+00 2.361228704452514648e+00 3.661566600203514099e-02
3.228000000000000000e+03 7.866954040527343750e+01 1.005564880371093750e+01 -2.562222182750701904e-01 8.297728538513183594e+00 2.412451744079589844e+00 4.745774865150451660e-01
3.229000000000000000e+03 7.960147094726562500e+01 1.326853942871093750e+01 -3.691266849637031555e-02 7.819577693939208984e+00 2.334799528121948242e+00 -7.344347238540649414e-02
3.230000000000000000e+03 7.961504364013671875e+01 1.407058334350585938e+01 1.749971881508827209e-02 7.637026786804199219e+00 2.296358108520507812e+00 -9.845576435327529907e-02
3.231000000000000000e+03 7.962616729736328125e+01 1.566650581359863281e+01 2.208365127444267273e-02 7.237360954284667969e+00 2.177833318710327148e+00 -8.347936719655990601e-02
3.232000000000000000e+03 7.887276458740234375e+01 1.572692680358886719e+01 1.858551613986492157e-02 7.158211231231689453e+00 2.153038978576660156e+00 -2.213214784860610962e-01
3.233000000000000000e+03 7.960424041748046875e+01 1.805566596984863281e+01 1.250770175829529762e-03 6.850552082061767578e+00 2.055540800094604492e+00 -3.525093570351600647e-02
3.234000000000000000e+03 7.885089111328125000e+01 1.728350067138671875e+01 2.929800935089588165e-02 6.923881053924560547e+00 2.085953712463378906e+00 -1.441698819398880005e-01
3.235000000000000000e+03 7.957099914550781250e+01 1.966116714477539062e+01 2.257562940940260887e-03 6.746745109558105469e+00 2.024700641632080078e+00 -1.190878823399543762e-02
3.236000000000000000e+03 7.876472473144531250e+01 1.886665725708007812e+01 2.755441889166831970e-02 6.788737773895263672e+00 2.044887781143188477e+00 -7.023241370916366577e-02
3.237000000000000000e+03 7.955614471435546875e+01 2.047008705139160156e+01 6.825214717537164688e-03 6.726531028747558594e+00 2.020006895065307617e+00 -3.860643832013010979e-03
3.238000000000000000e+03 7.954649353027343750e+01 2.370638275146484375e+01 -1.139533706009387970e-04 6.749763965606689453e+00 2.024894952774047852e+00 1.076433435082435608e-02
3.239000000000000000e+03 7.956114959716796875e+01 2.450726509094238281e+01 1.368680153973400593e-03 6.765738487243652344e+00 2.030132055282592773e+00 1.184761431068181992e-02
3.240000000000000000e+03 7.868340301513671875e+01 2.462496757507324219e+01 -9.938683360815048218e-04 6.740209102630615234e+00 2.021764516830444336e+00 2.379086427390575409e-02
3.241000000000000000e+03 7.957962799072265625e+01 2.849354171752929688e+01 -9.256476769223809242e-04 6.835454463958740234e+00 2.050358533859252930e+00 7.913550361990928650e-03
3.242000000000000000e+03 7.952628326416015625e+01 3.010749244689941406e+01 1.743702305248007178e-04 6.852431297302246094e+00 2.055781602859497070e+00 6.020409520715475082e-03
3.243000000000000000e+03 7.866178131103515625e+01 2.932389259338378906e+01 -1.934683066792786121e-03 6.784934997558593750e+00 2.034900188446044922e+00 1.711312681436538696e-02
3.244000000000000000e+03 7.895529174804687500e+01 4.446724414825439453e+00 2.524630427360534668e-01 1.015911293029785156e+01 3.123472690582275391e+00 -1.694812536239624023e+00
3.245000000000000000e+03 7.965076446533203125e+01 5.210196971893310547e+00 1.948233097791671753e-01 8.018040657043457031e+00 2.463859081268310547e+00 -5.551913380622863770e-01
3.246000000000000000e+03 7.959759521484375000e+01 7.599875450134277344e+00 6.276046484708786011e-02 6.159077644348144531e+00 1.866551399230957031e+00 4.930630326271057129e-02
3.247000000000000000e+03 7.882270050048828125e+01 6.745118141174316406e+00 4.401239454746246338e-01 8.581119537353515625e+00 2.706372976303100586e+00 -6.083462238311767578e-01
3.248000000000000000e+03 7.827150726318359375e+01 -3.873286056518554688e+01 9.415129199624061584e-03 6.499134063720703125e+00 1.952564835548400879e+00 1.880264654755592346e-02
3.249000000000000000e+03 7.949800109863281250e+01 -3.721455764770507812e+01 -8.394873002544045448e-04 6.580467224121093750e+00 1.973888278007507324e+00 8.370516821742057800e-03
3.250000000000000000e+03 7.957238769531250000e+01 -3.483131790161132812e+01 3.222808009013533592e-03 6.636518955230712891e+00 1.991922497749328613e+00 1.191115286201238632e-02
3.251000000000000000e+03 7.865093231201171875e+01 -3.624345779418945312e+01 2.133517293259501457e-03 6.555960178375244141e+00 1.967428088188171387e+00 2.738116681575775146e-02
3.252000000000000000e+03 7.855513763427734375e+01 -4.031076049804687500e+01 1.015135925263166428e-02 6.489131450653076172e+00 1.949784874916076660e+00 5.838185548782348633e-03
3.253000000000000000e+03 7.842976379394531250e+01 -4.107004547119140625e+01 -1.085417810827493668e-03 6.486946582794189453e+00 1.945758342742919922e+00 -5.752949509769678116e-03
3.254000000000000000e+03 7.960993194580078125e+01 -3.247867202758789062e+01 -6.783894263207912445e-03 6.715762138366699219e+00 2.012693405151367188e+00 1.416058931499719620e-02
3.255000000000000000e+03 7.959523773193359375e+01 -3.090197753906250000e+01 -5.345583893358707428e-03 6.791151523590087891e+00 2.035741806030273438e+00 2.034212276339530945e-02
3.256000000000000000e+03 7.956819915771484375e+01 -2.931104278564453125e+01 -2.608441049233078957e-03 6.888880729675292969e+00 2.065881729125976562e+00 2.804712951183319092e-02
3.257000000000000000e+03 7.956565856933593750e+01 -2.769806098937988281e+01 -2.004778711125254631e-03 7.008562088012695312e+00 2.101967096328735352e+00 3.310891985893249512e-02
3.258000000000000000e+03 7.957576751708984375e+01 -2.608201980590820312e+01 -4.023535177111625671e-03 7.144178867340087891e+00 2.142046451568603516e+00 3.412376344203948975e-02
3.259000000000000000e+03 7.958527374267578125e+01 -2.447032737731933594e+01 -6.654100026935338974e-03 7.275185108184814453e+00 2.180559396743774414e+00 2.782448381185531616e-02
3.260000000000000000e+03 7.872454833984375000e+01 -2.611807060241699219e+01 4.247362259775400162e-03 7.028833866119384766e+00 2.109924316406250000e+00 1.027945280075073242e-01
3.261000000000000000e+03 7.959382629394531250e+01 -2.286485290527343750e+01 -1.081802602857351303e-02 7.361378669738769531e+00 2.205168247222900391e+00 8.029302582144737244e-03
3.262000000000000000e+03 7.875637817382812500e+01 -2.449035072326660156e+01 -6.537863053381443024e-03 7.152401447296142578e+00 2.143759012222290039e+00 8.697540313005447388e-02
3.263000000000000000e+03 7.960407257080078125e+01 -2.126346969604492188e+01 -1.696264557540416718e-02 7.343214035034179688e+00 2.197875261306762695e+00 -2.748350799083709717e-02
3.264000000000000000e+03 7.878105926513671875e+01 -2.288183212280273438e+01 -2.336760424077510834e-02 7.251028060913085938e+00 2.168298006057739258e+00 3.908073157072067261e-02
3.265000000000000000e+03 7.962605285644531250e+01 -1.886376953125000000e+01 2.742110751569271088e-03 6.989346981048583984e+00 2.097626686096191406e+00 -9.357998520135879517e-02
3.266000000000000000e+03 7.882886505126953125e+01 -2.048836898803710938e+01 -6.558752059936523438e-02 7.259961128234863281e+00 2.158312082290649414e+00 -1.131245419383049011e-01
3.267000000000000000e+03 7.962989044189453125e+01 -1.726142311096191406e+01 9.693837491795420647e-04 6.524311065673828125e+00 1.957584142684936523e+00 -1.273287087678909302e-01
3.268000000000000000e+03 7.887861633300781250e+01 -1.889684867858886719e+01 -6.336602568626403809e-02 7.124196529388427734e+00 2.118249177932739258e+00 -2.305992543697357178e-01
3.269000000000000000e+03 7.961645507812500000e+01 -1.565794372558593750e+01 7.759701460599899292e-03 6.058221340179443359e+00 1.819794297218322754e+00 -9.261982887983322144e-02
3.270000000000000000e+03 7.889264678955078125e+01 -1.730457115173339844e+01 -2.885889820754528046e-02 6.877122879028320312e+00 2.054479122161865234e+00 -2.956504225730895996e-01
3.271000000000000000e+03 7.961336517333984375e+01 -1.485567188262939453e+01 2.465862780809402466e-02 5.905116558074951172e+00 1.778932571411132812e+00 -5.782004445791244507e-02
3.272000000000000000e+03 7.961711883544921875e+01 -1.405268383026123047e+01 2.330876886844635010e-02 5.835687637329101562e+00 1.757699012756347656e+00 -8.116455748677253723e-03
3.273000000000000000e+03 7.962163543701171875e+01 -1.325039672851562500e+01 3.186190128326416016e-02 5.878451347351074219e+00 1.773094058036804199e+00 5.085759982466697693e-02
3.274000000000000000e+03 7.962211608886718750e+01 -1.245016860961914062e+01 2.468079142272472382e-02 6.042376518249511719e+00 1.820117235183715820e+00 1.104942858219146729e-01
3.275000000000000000e+03 7.961881256103515625e+01 -1.165067958831787109e+01 3.208066523075103760e-02 6.331026077270507812e+00 1.908932089805603027e+00 1.709755510091781616e-01
3.276000000000000000e+03 7.961375427246093750e+01 -1.085021495819091797e+01 2.403220161795616150e-02 6.733596801757812500e+00 2.027288675308227539e+00 2.286285609006881714e-01
3.277000000000000000e+03 7.961018371582031250e+01 -1.004856491088867188e+01 2.676690742373466492e-02 7.241107940673828125e+00 2.180362462997436523e+00 2.806193232536315918e-01
3.278000000000000000e+03 7.961113739013671875e+01 -9.245712280273437500e+00 8.456021547317504883e-03 7.826972007751464844e+00 2.350628376007080078e+00 3.145873546600341797e-01
3.279000000000000000e+03 7.885150146484375000e+01 -8.483581542968750000e+00 4.086053743958473206e-02 8.575929641723632812e+00 2.585036993026733398e+00 9.003459215164184570e-01
3.280000000000000000e+03 7.963307189941406250e+01 -6.045524597167968750e+00 -2.062275446951389313e-02 1.070243549346923828e+01 3.204543828964233398e+00 3.639578223228454590e-01
3.281000000000000000e+03 7.962325286865234375e+01 -5.244630813598632812e+00 3.448347747325897217e-02 1.147689247131347656e+01 3.453412771224975586e+00 3.822773694992065430e-01
3.282000000000000000e+03 7.961147308349609375e+01 -4.443371295928955078e+00 -4.514072462916374207e-02 1.222054862976074219e+01 3.652622222900390625e+00 3.635554611682891846e-01
3.283000000000000000e+03 7.962031555175781250e+01 -3.640437126159667969e+00 3.096070885658264160e-02 1.292681407928466797e+01 3.887332439422607422e+00 3.541981875896453857e-01
3.284000000000000000e+03 7.963335418701171875e+01 -2.833546876907348633e+00 -6.565899401903152466e-02 1.362886238098144531e+01 4.068960666656494141e+00 3.079461753368377686e-01
3.285000000000000000e+03 7.961579895019531250e+01 -2.027112483978271484e+00 3.221317380666732788e-02 1.426263427734375000e+01 4.288454055786132812e+00 2.764532566070556641e-01
3.286000000000000000e+03 7.957866668701171875e+01 -1.221938371658325195e+00 -1.145351752638816833e-01 1.473356628417968750e+01 4.385709285736083984e+00 1.866891235113143921e-01
3.287000000000000000e+03 7.956161499023437500e+01 -4.133466780185699463e-01 -4.518528282642364502e-02 1.496770191192626953e+01 4.476755142211914062e+00 4.250207915902137756e-02
3.288000000000000000e+03 7.957347869873046875e+01 3.977912664413452148e-01 -1.331309974193572998e-01 1.493621253967285156e+01 4.440924644470214844e+00 -1.237921416759490967e-01
3.289000000000000000e+03 7.958785247802734375e+01 1.207691311836242676e+00 -1.167899817228317261e-01 1.453719520568847656e+01 4.326121807098388672e+00 -3.679174482822418213e-01
3.290000000000000000e+03 7.959368133544921875e+01 2.019208669662475586e+00 -8.957487344741821289e-02 1.369339179992675781e+01 4.081144809722900391e+00 -5.749583840370178223e-01
3.291000000000000000e+03 7.960727691650390625e+01 2.826351165771484375e+00 -7.383053749799728394e-02 1.249495887756347656e+01 3.726338386535644531e+00 -7.441143393516540527e-01
3.292000000000000000e+03 7.890833282470703125e+01 3.680350780487060547e+00 -4.178506508469581604e-02 1.107371807098388672e+01 3.309580087661743164e+00 -1.945322155952453613e+00
3.293000000000000000e+03 7.881252288818359375e+01 8.376943588256835938e+00 3.119922876358032227e-01 8.094123840332031250e+00 2.521834850311279297e+00 4.313108026981353760e-01
3.294000000000000000e+03 7.851306915283203125e+01 3.186350822448730469e+01 -2.387395594269037247e-03 6.795978546142578125e+00 2.038077354431152344e+00 9.526889771223068237e-03
3.295000000000000000e+03 7.815374755859375000e+01 3.578208160400390625e+01 3.279172349721193314e-03 6.782176494598388672e+00 2.035636663436889648e+00 8.716278825886547565e-04
3.296000000000000000e+03 7.893296813964843750e+01 3.878288650512695312e+01 -7.922748103737831116e-03 6.839491367340087891e+00 2.049470663070678711e+00 -3.876218106597661972e-03
3.297000000000000000e+03 7.873042297363281250e+01 3.337810134887695312e+01 -3.431248478591442108e-04 6.811363220214843750e+00 2.043306112289428711e+00 5.124857183545827866e-03
3.298000000000000000e+03 7.869242858886718750e+01 -3.472228622436523438e+01 1.669869874604046345e-03 6.588355064392089844e+00 1.977007389068603516e+00 3.084025345742702484e-02
3.299000000000000000e+03 2.598834037780761719e+01 1.490369200706481934e+00 -1.427942156791687012e+00 -1.173621654510498047e+00 -7.804691791534423828e-01 -3.599812269210815430e+00
3.300000000000000000e+03 3.792243194580078125e+01 1.121614170074462891e+01 4.279673099517822266e+00 1.500767707824707031e+01 5.786205291748046875e+00 1.924075007438659668e+00
3.301000000000000000e+03 3.065776252746582031e+01 1.426076984405517578e+01 -2.142922639846801758e+00 -1.282424092292785645e+00 -1.027603983879089355e+00 -9.549909830093383789e-01
3.302000000000000000e+03 2.448237228393554688e+01 6.858258247375488281e+00 3.807159662246704102e+00 9.042352676391601562e+00 3.854853630065917969e+00 5.449725151062011719e+00
3.303000000000000000e+03 2.395653533935546875e+01 7.614847660064697266e+00 -2.316853590309619904e-02 8.886335372924804688e+00 2.658950090408325195e+00 3.215062618255615234e+00
3.304000000000000000e+03 2.901947402954101562e+01 3.159064769744873047e+00 -5.426648139953613281e+00 6.019593477249145508e-01 -1.447406649589538574e+00 -1.153614759445190430e+00
3.305000000000000000e+03 3.484210205078125000e+01 7.440382003784179688e+00 6.520032286643981934e-01 6.643534660339355469e+00 2.188661336898803711e+00 3.193105697631835938e+00
3.306000000000000000e+03 3.547484207153320312e+01 8.013914108276367188e+00 9.000657796859741211e-01 9.461955070495605469e+00 3.108606338500976562e+00 4.009882450103759766e+00
3.307000000000000000e+03 2.526842880249023438e+01 1.245585799217224121e+00 1.795580610632896423e-02 6.473176479339599609e-01 1.995820254087448120e-01 -5.306304454803466797e+00
3.308000000000000000e+03 2.463288688659667969e+01 8.128549575805664062e+00 -4.143252670764923096e-01 7.724439620971679688e+00 2.193034410476684570e+00 3.142874479293823242e+00
3.309000000000000000e+03 2.961729431152343750e+01 3.648055315017700195e+00 -4.592445850372314453e+00 7.881273031234741211e-01 -1.141295552253723145e+00 -8.099812269210815430e-01
3.310000000000000000e+03 2.754292869567871094e+01 1.071088600158691406e+01 -3.379073143005371094e+00 1.423502802848815918e+00 -5.866711139678955078e-01 -1.138098597526550293e+00
3.311000000000000000e+03 3.044396972656250000e+01 1.226141738891601562e+01 -4.859530925750732422e+00 -3.000115394592285156e+00 -2.357893943786621094e+00 -3.789101839065551758e+00
3.312000000000000000e+03 2.812031364440917969e+01 1.125420093536376953e+01 -3.402739048004150391e+00 3.507656157016754150e-01 -9.155920147895812988e-01 -1.821182847023010254e+00
3.313000000000000000e+03 3.417470550537109375e+01 6.908252239227294922e+00 5.657555460929870605e-01 4.757636547088623047e+00 1.597017645835876465e+00 2.307866573333740234e+00
3.314000000000000000e+03 2.932140731811523438e+01 1.230681800842285156e+01 -3.219013929367065430e+00 -1.419436335563659668e+00 -1.391535043716430664e+00 -2.382081270217895508e+00
3.315000000000000000e+03 2.509489440917968750e+01 -6.172781467437744141e+00 2.451048374176025391e+00 1.958053398132324219e+01 6.609474658966064453e+00 -3.725124597549438477e+00
3.316000000000000000e+03 2.743351364135742188e+01 9.636426925659179688e+00 -2.265967845916748047e+00 -1.610007882118225098e-01 -7.280905842781066895e-01 -1.135615825653076172e+00
3.317000000000000000e+03 3.192905044555664062e+01 4.265662670135498047e+00 -2.980995774269104004e-01 2.339853286743164062e+00 6.125261187553405762e-01 2.025548219680786133e+00
3.318000000000000000e+03 2.994213104248046875e+01 1.279760074615478516e+01 -3.240078687667846680e+00 -1.898073196411132812e+00 -1.541445612907409668e+00 -2.449275493621826172e+00
3.319000000000000000e+03 2.628899383544921875e+01 8.537521362304687500e+00 2.212337702512741089e-01 2.750000238418579102e+00 8.913701772689819336e-01 1.559520602226257324e+00
3.320000000000000000e+03 2.585822868347167969e+01 9.133715629577636719e+00 -1.830448389053344727e+00 5.086223602294921875e+00 9.767326116561889648e-01 1.454010844230651855e+00
3.321000000000000000e+03 3.088338279724121094e+01 4.503092288970947266e+00 -1.861888527870178223e+00 8.942213654518127441e-01 -2.903001606464385986e-01 1.841005384922027588e-01
3.322000000000000000e+03 3.179055595397949219e+01 6.077282428741455078e+00 -6.315932273864746094e-01 2.371938526630401611e-01 -1.183198094367980957e-01 -2.163003832101821899e-01
3.323000000000000000e+03 2.546459770202636719e+01 9.724674224853515625e+00 -3.227001428604125977e+00 6.556146621704101562e+00 9.987436532974243164e-01 1.482980966567993164e+00
3.324000000000000000e+03 4.982182383537292480e-01 4.042211914062500000e+01 4.507633391767740250e-03 9.232032895088195801e-01 2.783132791519165039e-01 5.797685589641332626e-03
3.325000000000000000e+03 5.201047062873840332e-01 3.961230468750000000e+01 1.143000670708715916e-03 9.363270401954650879e-01 2.812410295009613037e-01 1.111409533768892288e-02
3.326000000000000000e+03 5.681415796279907227e-01 3.878505325317382812e+01 -2.884521090891212225e-04 9.528859257698059082e-01 2.857792377471923828e-01 1.173865329474210739e-02
3.327000000000000000e+03 5.518561005592346191e-01 3.797494506835937500e+01 8.551615756005048752e-04 9.690905809402465820e-01 2.909837365150451660e-01 1.210149936378002167e-02
3.328000000000000000e+03 4.762434959411621094e-01 3.719283676147460938e+01 1.165234483778476715e-03 9.885777235031127930e-01 2.969228923320770264e-01 1.339624822139739990e-02
3.329000000000000000e+03 4.355294406414031982e-01 3.640864562988281250e+01 -1.863466168288141489e-04 1.014253973960876465e+00 3.042202889919281006e-01 1.477482542395591736e-02
3.330000000000000000e+03 1.355666160583496094e+00 3.474528503417968750e+01 7.056378759443759918e-03 1.079708933830261230e+00 3.260295987129211426e-01 5.099823325872421265e-02
3.331000000000000000e+03 4.480812251567840576e-01 3.321711730957031250e+01 8.976063109003007412e-04 1.143816828727722168e+00 3.434143364429473877e-01 2.296988293528556824e-02
3.332000000000000000e+03 4.505908191204071045e-01 3.241228103637695312e+01 1.405236427672207355e-03 1.186031937599182129e+00 3.562311530113220215e-01 2.471334114670753479e-02
3.333000000000000000e+03 4.489781558513641357e-01 3.160817718505859375e+01 -1.437734754290431738e-04 1.231168866157531738e+00 3.693075180053710938e-01 2.623716741800308228e-02
3.334000000000000000e+03 4.417148232460021973e-01 3.080467987060546875e+01 1.887705991975963116e-03 1.279054045677185059e+00 3.842824995517730713e-01 2.735397592186927795e-02
3.335000000000000000e+03 4.300594925880432129e-01 3.000239372253417969e+01 -1.159260747954249382e-03 1.330309152603149414e+00 3.987449705600738525e-01 2.857248298823833466e-02
3.336000000000000000e+03 4.183095395565032959e-01 2.920310783386230469e+01 1.786495908163487911e-03 1.384371280670166016e+00 4.158473312854766846e-01 2.862175554037094116e-02
3.337000000000000000e+03 4.110078215599060059e-01 2.840494155883789062e+01 -1.658328808844089508e-03 1.440570116043090820e+00 4.316735267639160156e-01 2.929526008665561676e-02
3.338000000000000000e+03 4.128791093826293945e-01 2.760379219055175781e+01 3.342148847877979279e-03 1.498968720436096191e+00 4.506932497024536133e-01 3.033714368939399719e-02
3.339000000000000000e+03 4.267361462116241455e-01 2.679538154602050781e+01 -1.930888858623802662e-03 1.559233903884887695e+00 4.671908915042877197e-01 3.232283145189285278e-02
3.340000000000000000e+03 4.453417658805847168e-01 2.598232841491699219e+01 1.655282336287200451e-03 1.618031024932861328e+00 4.859058856964111328e-01 3.147991746664047241e-02
3.341000000000000000e+03 4.376365244388580322e-01 2.517403030395507812e+01 -4.255482926964759827e-03 1.672694444656372070e+00 5.005316734313964844e-01 3.002547472715377808e-02
3.342000000000000000e+03 4.038297533988952637e-01 2.436961746215820312e+01 2.849001903086900711e-03 1.728144645690917969e+00 5.192980766296386719e-01 2.763775549829006195e-02
3.343000000000000000e+03 3.805639445781707764e-01 2.356743049621582031e+01 -7.728857919573783875e-03 1.782698750495910645e+00 5.324909687042236328e-01 2.412839233875274658e-02
3.344000000000000000e+03 3.796381056308746338e-01 2.276895904541015625e+01 4.058044403791427612e-03 1.829592227935791016e+00 5.500950813293457031e-01 1.857263408601284027e-02
3.345000000000000000e+03 1.486183285713195801e+00 -3.654653167724609375e+01 -3.244856838136911392e-03 -4.182241261005401611e-01 -1.264406889677047729e-01 2.009750530123710632e-02
3.346000000000000000e+03 4.207610785961151123e-01 2.116447830200195312e+01 3.740234533324837685e-03 1.893081188201904297e+00 5.690464377403259277e-01 1.020057126879692078e-02
3.347000000000000000e+03 1.273497700691223145e+00 3.629809951782226562e+01 3.976968117058277130e-03 1.034927129745483398e+00 3.116712272167205811e-01 4.089260101318359375e-02
3.348000000000000000e+03 1.239401578903198242e+00 -1.791758346557617188e+01 7.165707182139158249e-03 -5.814018249511718750e-01 -1.722708344459533691e-01 -2.964105643332004547e-02
3.349000000000000000e+03 4.060288071632385254e-01 -2.037011337280273438e+01 2.364028943702578545e-03 -7.330170869827270508e-01 -2.191959172487258911e-01 -3.704375820234417915e-03
3.350000000000000000e+03 3.742527663707733154e-01 1.636237716674804688e+01 4.243235103785991669e-03 1.691968083381652832e+00 5.088633894920349121e-01 -5.318211391568183899e-02
3.351000000000000000e+03 3.919388055801391602e-01 1.396598911285400391e+01 -1.947234757244586945e-02 1.208087325096130371e+00 3.565844893455505371e-01 -1.039694920182228088e-01
3.352000000000000000e+03 3.959865570068359375e-01 -5.935920715332031250e+00 -1.005597296170890331e-03 -1.150887385010719299e-01 -3.482830151915550232e-02 -1.663215830922126770e-02
3.353000000000000000e+03 3.789781033992767334e-01 -7.544525146484375000e+00 -4.543143586488440633e-05 -1.910350024700164795e-01 -5.732413381338119507e-02 -1.897562295198440552e-02
3.354000000000000000e+03 1.132432222366333008e+00 -7.580273151397705078e+00 -3.127139294520020485e-03 -1.775423288345336914e-01 -5.420083925127983093e-02 -5.522625893354415894e-02
3.355000000000000000e+03 3.747467398643493652e-01 -8.346228599548339844e+00 -9.251238661818206310e-04 -2.332598865032196045e-01 -7.025550305843353271e-02 -2.010881528258323669e-02
3.356000000000000000e+03 3.790071010589599609e-01 -1.154340362548828125e+01 -1.292222179472446442e-03 -4.131576716899871826e-01 -1.243349686264991760e-01 -2.071849629282951355e-02
3.357000000000000000e+03 3.829610347747802734e-01 -1.234294414520263672e+01 1.929460559040307999e-03 -4.572836756706237793e-01 -1.366062611341476440e-01 -1.997377537190914154e-02
3.358000000000000000e+03 3.942413330078125000e-01 -1.394424724578857422e+01 2.362326718866825104e-03 -5.394361615180969238e-01 -1.611221432685852051e-01 -1.818194426596164703e-02
3.359000000000000000e+03 4.098592400550842285e-01 -1.635171699523925781e+01 -1.018939306959509850e-03 -6.404010653495788574e-01 -1.924259960651397705e-01 -1.401553209871053696e-02
3.360000000000000000e+03 1.232921719551086426e+00 -1.630935287475585938e+01 6.630944088101387024e-03 -5.415648818016052246e-01 -1.604801863431930542e-01 -4.103096574544906616e-02
3.361000000000000000e+03 4.050801396369934082e-01 -2.197753143310546875e+01 2.195507986471056938e-03 -7.425604462623596191e-01 -2.221094816923141479e-01 9.385962039232254028e-05
3.362000000000000000e+03 1.271449327468872070e+00 -2.432846069335937500e+01 5.301131866872310638e-03 -6.114659309387207031e-01 -1.818494349718093872e-01 1.125934254378080368e-02
3.363000000000000000e+03 4.503288865089416504e-01 -2.679135704040527344e+01 1.556387636810541153e-03 -7.009308934211730957e-01 -2.098123431205749512e-01 7.033518981188535690e-03
3.364000000000000000e+03 4.851875007152557373e-01 -2.841174316406250000e+01 1.142997993156313896e-03 -6.742126345634460449e-01 -2.019208967685699463e-01 8.984004147350788116e-03
3.365000000000000000e+03 5.138381719589233398e-01 -3.002294158935546875e+01 -1.150130876339972019e-03 -6.460361480712890625e-01 -1.941558867692947388e-01 8.309764787554740906e-03
3.366000000000000000e+03 1.569176077842712402e+00 -2.998338699340820312e+01 -2.581159351393580437e-04 -5.023940205574035645e-01 -1.507956385612487793e-01 2.565749362111091614e-02
3.367000000000000000e+03 5.167396068572998047e-01 -3.082670783996582031e+01 2.093007555231451988e-03 -6.330311894416809082e-01 -1.892814636230468750e-01 9.219400584697723389e-03
3.368000000000000000e+03 5.138263106346130371e-01 -3.244498825073242188e+01 2.755084307864308357e-03 -6.043467521667480469e-01 -1.804774850606918335e-01 1.006711833178997040e-02
3.369000000000000000e+03 5.339519381523132324e-01 -3.408921051025390625e+01 4.746502730995416641e-03 -5.756904482841491699e-01 -1.712831705808639526e-01 9.568638168275356293e-03
3.370000000000000000e+03 2.252868652343750000e+00 -3.622994232177734375e+01 -8.384461514651775360e-03 -3.372346162796020508e-01 -1.036857292056083679e-01 2.141147106885910034e-02
3.371000000000000000e+03 4.865878522396087646e-01 -3.570056152343750000e+01 4.077641293406486511e-03 -5.479568243026733398e-01 -1.631637513637542725e-01 7.571164052933454514e-03
3.372000000000000000e+03 5.106853842735290527e-01 -3.886838531494140625e+01 -1.462070969864726067e-03 -5.126124024391174316e-01 -1.542223393917083740e-01 2.044405118795111775e-04
3.373000000000000000e+03 1.564683914184570312e+00 -3.883079147338867188e+01 -7.557962089776992798e-03 -3.974495828151702881e-01 -1.215022578835487366e-01 1.196669042110443115e-02
3.374000000000000000e+03 4.977386891841888428e-01 -4.048244094848632812e+01 -1.428717002272605896e-02 -5.169440507888793945e-01 -1.593693792819976807e-01 -8.233195170760154724e-03
3.375000000000000000e+03 1.493060231208801270e+00 -4.130570602416992188e+01 -4.245510790497064590e-03 -3.672025203704833984e-01 -1.114344075322151184e-01 -9.139283560216426849e-03
3.376000000000000000e+03 1.191068530082702637e+00 2.193821334838867188e+01 -7.118445821106433868e-03 1.728065133094787598e+00 5.162839889526367188e-01 4.186016321182250977e-02
3.377000000000000000e+03 3.958963453769683838e-01 1.956156158447265625e+01 3.637263318523764610e-03 1.910083055496215820e+00 5.741161108016967773e-01 -4.582569468766450882e-03
3.378000000000000000e+03 3.753248155117034912e-01 1.876084899902343750e+01 -1.373409945517778397e-02 1.893056869506835938e+00 5.637968182563781738e-01 -1.350910868495702744e-02
3.379000000000000000e+03 3.661391735076904297e-01 1.796156120300292969e+01 4.873365163803100586e-03 1.853715538978576660e+00 5.575766563415527344e-01 -2.488816156983375549e-02
3.380000000000000000e+03 3.839581012725830078e-01 1.236408042907714844e+01 -1.648370362818241119e-02 7.109508514404296875e-01 2.083401381969451904e-01 -1.359556913375854492e-01
3.381000000000000000e+03 1.189557671546936035e+00 1.397709178924560547e+01 -3.004499338567256927e-02 1.139797091484069824e+00 3.329256176948547363e-01 -2.989704310894012451e-01
3.382000000000000000e+03 3.776077032089233398e-01 1.075869655609130859e+01 -1.186732482165098190e-02 8.931227773427963257e-02 2.323348447680473328e-02 -1.548482924699783325e-01
3.383000000000000000e+03 1.153376817703247070e+00 1.238321304321289062e+01 -2.256767824292182922e-02 7.404904961585998535e-01 2.153768539428710938e-01 -3.821701705455780029e-01
3.384000000000000000e+03 3.843666911125183105e-01 9.156383514404296875e+00 2.744330093264579773e-03 -5.552668571472167969e-01 -1.657567620277404785e-01 -1.417209357023239136e-01
3.385000000000000000e+03 1.131242632865905762e+00 1.078784465789794922e+01 1.137666520662605762e-03 2.469932287931442261e-01 7.443926483392715454e-02 -4.325743913650512695e-01
3.386000000000000000e+03 3.835090696811676025e-01 6.763804912567138672e+00 2.141375094652175903e-02 -1.203158378601074219e+00 -3.545233905315399170e-01 -5.275385081768035889e-02
3.387000000000000000e+03 1.178051948547363281e+00 8.414011001586914062e+00 5.020084604620933533e-02 -4.802433550357818604e-01 -1.290127485990524292e-01 -3.546358942985534668e-01
3.388000000000000000e+03 4.256115257740020752e-01 5.148513317108154297e+00 2.432062104344367981e-02 -1.169581055641174316e+00 -3.435781300067901611e-01 6.361506134271621704e-02
3.389000000000000000e+03 1.140422344207763672e+00 6.842989921569824219e+00 9.764845669269561768e-02 -8.079857826232910156e-01 -2.131011933088302612e-01 -1.572409421205520630e-01
3.390000000000000000e+03 4.247914850711822510e-01 3.526073694229125977e+00 1.437526661902666092e-02 -7.842674255371093750e-01 -2.309676557779312134e-01 1.383313685655593872e-01
3.391000000000000000e+03 1.290052533149719238e+00 5.235632896423339844e+00 1.378858238458633423e-01 -8.365130424499511719e-01 -2.095881700515747070e-01 1.335784494876861572e-01
3.392000000000000000e+03 1.270912051200866699e+00 3.539440393447875977e+00 5.409660935401916504e-02 -6.258682608604431152e-01 -1.715314984321594238e-01 3.588651120662689209e-01
3.393000000000000000e+03 1.510203480720520020e+00 -3.730208587646484375e+01 -1.081365626305341721e-03 -4.063337743282318115e-01 -1.222245469689369202e-01 1.600661501288414001e-02
3.394000000000000000e+03 4.145276248455047607e-01 -2.358523750305175781e+01 3.271522466093301773e-03 -7.387701272964477539e-01 -2.206495851278305054e-01 3.589610103517770767e-03
3.395000000000000000e+03 1.235040307044982910e+00 -1.872229957580566406e+01 3.708590054884552956e-03 -5.970143675804138184e-01 -1.779917329549789429e-01 -2.330858260393142700e-02
3.396000000000000000e+03 3.735241293907165527e-01 -9.945657730102539062e+00 -1.209642272442579269e-03 -3.225970268249511719e-01 -9.714200347661972046e-02 -2.086114697158336639e-02
3.397000000000000000e+03 1.260761022567749023e+00 -2.732140302658081055e+00 -7.712549529969692230e-03 -2.637631073594093323e-02 -1.022665854543447495e-02 -2.201447822153568268e-02
3.398000000000000000e+03 1.102603197097778320e+00 1.713926887512207031e+01 -2.015340328216552734e-02 1.635504364967346191e+00 4.846053123474121094e-01 -1.070058643817901611e-01
3.399000000000000000e+03 1.886572647094726562e+01 3.213680267333984375e+00 9.305836677551269531e+00 -1.149788141250610352e+00 2.446814537048339844e+00 -7.370945215225219727e-01
3.400000000000000000e+03 2.017805671691894531e+01 -8.347901344299316406e+00 -8.584496378898620605e-01 -9.748430550098419189e-02 -2.867801785469055176e-01 4.356717169284820557e-01
3.401000000000000000e+03 2.489024353027343750e+01 -4.330648899078369141e+00 2.193244457244873047e+00 1.070478820800781250e+01 3.869409799575805664e+00 -3.686933755874633789e+00
3.402000000000000000e+03 2.265156555175781250e+01 5.793877840042114258e-01 -3.009215891361236572e-01 9.520630836486816406e+00 2.765912771224975586e+00 -3.798273563385009766e+00
3.403000000000000000e+03 2.446169090270996094e+01 -3.719071388244628906e+00 2.853204488754272461e+00 8.867528915405273438e+00 3.516219854354858398e+00 -3.999699115753173828e+00
3.404000000000000000e+03 2.355086708068847656e+01 -2.027725696563720703e+00 2.392945051193237305e+00 6.573873519897460938e+00 2.690045595169067383e+00 -4.271272659301757812e+00
3.405000000000000000e+03 2.298825073242187500e+01 -1.599156260490417480e+00 1.771244287490844727e+00 6.475479125976562500e+00 2.474016904830932617e+00 -4.154075622558593750e+00
3.406000000000000000e+03 1.615533447265625000e+01 -3.913647890090942383e+00 -3.632391989231109619e-01 -1.076704412698745728e-01 -1.412728875875473022e-01 2.038577646017074585e-01
3.407000000000000000e+03 2.257105827331542969e+01 -9.839991331100463867e-01 6.001757979393005371e-01 6.596679687500000000e+00 2.159056663513183594e+00 -3.549263477325439453e+00
3.408000000000000000e+03 1.720332145690917969e+01 -5.000343322753906250e+00 -4.998445510864257812e-01 -1.608112305402755737e-01 -1.981967240571975708e-01 2.805283069610595703e-01
3.409000000000000000e+03 1.940099716186523438e+01 -8.394248962402343750e+00 -5.804923176765441895e-01 -6.182922422885894775e-02 -1.926964670419692993e-01 1.995987445116043091e-01
3.410000000000000000e+03 2.422733688354492188e+01 -3.087018728256225586e+00 2.949023008346557617e+00 7.351443767547607422e+00 3.090140104293823242e+00 -4.104135513305664062e+00
3.411000000000000000e+03 1.915355873107910156e+01 -7.532594203948974609e+00 -8.937299251556396484e-01 -9.643892198801040649e-02 -2.970506548881530762e-01 3.499912917613983154e-01
3.412000000000000000e+03 1.879499816894531250e+01 -5.628948211669921875e+00 -5.634264349937438965e-01 -3.985876441001892090e-01 -2.886042296886444092e-01 5.223730802536010742e-01
3.413000000000000000e+03 1.808214378356933594e+01 -7.266278743743896484e+00 -7.164243459701538086e-01 4.707370698451995850e-02 -2.008051872253417969e-01 2.170140594244003296e-01
3.414000000000000000e+03 1.773117256164550781e+01 -5.565851211547851562e+00 -5.118688344955444336e-01 -1.774062067270278931e-01 -2.067825198173522949e-01 3.599006831645965576e-01
3.415000000000000000e+03 4.629038810729980469e+00 -2.796372413635253906e+00 -6.449019908905029297e-02 -1.297452393919229507e-02 -2.323941700160503387e-02 -7.133529335260391235e-02
3.416000000000000000e+03 2.945756435394287109e+00 -2.773515462875366211e+00 -3.252266347408294678e-02 -2.511591836810112000e-02 -1.729157380759716034e-02 -5.093812197446823120e-02
3.417000000000000000e+03 9.558584213256835938e+00 -1.893694400787353516e+00 -1.774858981370925903e-01 2.329901047050952911e-02 -4.625606536865234375e-02 -2.118828147649765015e-02
3.418000000000000000e+03 6.879000854492187500e+01 3.790803670883178711e+00 3.575902700424194336e+00 1.240381240844726562e+01 4.793914318084716797e+00 -1.337851285934448242e+00
3.419000000000000000e+03 6.932472229003906250e+01 3.028207302093505859e+00 3.591418504714965820e+00 1.466866683959960938e+01 5.478025436401367188e+00 -3.511314868927001953e+00
3.420000000000000000e+03 1.525648880004882812e+01 4.633695125579833984e+00 3.886669874191284180e+00 -2.608234167098999023e+00 3.835307657718658447e-01 -3.164363384246826172e+00
3.421000000000000000e+03 3.607734680175781250e+01 8.598769187927246094e+00 1.067500710487365723e+00 1.274411106109619141e+01 4.143483638763427734e+00 4.664220333099365234e+00
3.422000000000000000e+03 7.098905181884765625e+01 -1.672301864624023438e+01 -9.316045641899108887e-01 6.181868076324462891e+00 1.575079083442687988e+00 4.336777687072753906e+00
3.423000000000000000e+03 7.072489929199218750e+01 -1.592523574829101562e+01 9.916540980339050293e-01 3.119707345962524414e+00 1.233408451080322266e+00 2.936882734298706055e+00
3.424000000000000000e+03 3.371753692626953125e+01 7.553367614746093750e+00 1.002815365791320801e+00 2.091392040252685547e+00 9.282621741294860840e-01 1.634241104125976562e+00
3.425000000000000000e+03 7.226604461669921875e+01 4.200667142868041992e-02 -1.976489543914794922e+00 1.464866995811462402e+00 -1.534867435693740845e-01 -3.918115377426147461e+00
3.426000000000000000e+03 2.043935203552246094e+01 4.916649162769317627e-01 -4.892275035381317139e-01 8.795146942138671875e-01 1.170861646533012390e-01 -3.564656078815460205e-01
3.427000000000000000e+03 2.253464698791503906e+01 2.098142147064208984e+00 2.692431926727294922e+00 1.229111099243164062e+01 4.495062828063964844e+00 -6.893557906150817871e-01
3.428000000000000000e+03 5.042332077026367188e+01 1.543592643737792969e+01 -1.381353437900543213e-01 1.182733726501464844e+01 3.506760835647583008e+00 -1.762908816337585449e+00
3.429000000000000000e+03 1.069803047180175781e+01 3.967245578765869141e+00 7.139383316040039062e+00 6.442106723785400391e+00 4.074447154998779297e+00 -1.465570569038391113e+00
3.430000000000000000e+03 5.279209136962890625e+01 -6.178786277770996094e+00 -1.171763062477111816e+00 2.845926523208618164e+00 5.022490620613098145e-01 -5.325515270233154297e-01
3.431000000000000000e+03 5.036985015869140625e+01 8.338353157043457031e+00 -3.647705614566802979e-01 1.086384773254394531e+01 3.149723291397094727e+00 1.139677882194519043e+00
3.432000000000000000e+03 5.994942092895507812e+01 2.750158786773681641e+00 -3.816586017608642578e+00 -8.623807430267333984e-01 -1.403689980506896973e+00 -1.947119116783142090e+00
3.433000000000000000e+03 4.543534851074218750e+01 -8.498117446899414062e+00 3.341119289398193359e-01 8.220689773559570312e+00 2.566440582275390625e+00 -1.804410457611083984e+00
3.434000000000000000e+03 3.657026672363281250e+01 1.498116016387939453e+01 -2.866988897323608398e+00 8.721404075622558594e+00 1.756324529647827148e+00 -1.672496557235717773e+00
3.435000000000000000e+03 6.311515331268310547e+00 -2.772842884063720703e+00 -1.014305129647254944e-01 3.277178388088941574e-03 -2.944600023329257965e-02 -7.705914974212646484e-02
3.436000000000000000e+03 6.758744049072265625e+01 -1.546524810791015625e+01 -2.055031061172485352e+00 3.667721748352050781e-01 -5.064777135848999023e-01 6.371411681175231934e-01
3.437000000000000000e+03 6.798958587646484375e+01 -1.607747840881347656e+01 -1.478681564331054688e+00 6.580154299736022949e-01 -2.461998462677001953e-01 8.518627285957336426e-02
3.438000000000000000e+03 2.257787704467773438e+01 4.970668315887451172e+00 3.733130931854248047e+00 1.497655773162841797e+01 5.612906455993652344e+00 1.591455817222595215e+00
3.439000000000000000e+03 7.639962768554687500e+01 3.102198791503906250e+01 -9.591192938387393951e-03 6.633654117584228516e+00 1.987218856811523438e+00 1.955157518386840820e-02
3.440000000000000000e+03 3.773296117782592773e+00 -3.604896163940429688e+01 -1.472953241318464279e-03 -1.509024053812026978e-01 -4.571260884404182434e-02 3.441177681088447571e-02
3.441000000000000000e+03 7.674614715576171875e+01 3.564773178100585938e+01 -4.611346404999494553e-03 6.680370330810546875e+00 2.002727746963500977e+00 9.687672369182109833e-03
3.442000000000000000e+03 3.958176612854003906e+00 3.455772781372070312e+01 3.855913877487182617e-02 1.077085256576538086e+00 3.346933126449584961e-01 1.255387663841247559e-01
3.443000000000000000e+03 2.732537984848022461e+00 3.695759201049804688e+01 1.711049303412437439e-02 1.034857988357543945e+00 3.155905306339263916e-01 6.681314110755920410e-02
3.444000000000000000e+03 5.433938980102539062e+01 -7.004462718963623047e+00 -4.073694348335266113e-01 4.507243156433105469e+00 1.229962110519409180e+00 -1.107012748718261719e+00
3.445000000000000000e+03 5.334683227539062500e+01 -5.696280956268310547e+00 -1.813838839530944824e+00 3.867395639419555664e+00 6.160670518875122070e-01 -8.858985900878906250e-01
3.446000000000000000e+03 6.673239231109619141e+00 2.997315645217895508e+00 9.763903021812438965e-01 -4.275089800357818604e-01 1.646644026041030884e-01 1.275043368339538574e+00
3.447000000000000000e+03 2.364887809753417969e+01 1.169645309448242188e+00 1.774678677320480347e-01 1.018095111846923828e+01 3.107525587081909180e+00 -7.583602905273437500e+00
3.448000000000000000e+03 1.427998352050781250e+01 -4.168107032775878906e+00 -3.451131880283355713e-01 8.101843297481536865e-02 -7.922843098640441895e-02 8.668182045221328735e-02
3.449000000000000000e+03 1.519738006591796875e+01 -2.962234497070312500e+00 -2.646393775939941406e-01 -4.480294883251190186e-02 -9.283269941806793213e-02 1.441894173622131348e-01
3.450000000000000000e+03 4.195639419555664062e+01 -1.250698208808898926e+00 -2.546743631362915039e+00 1.718600630760192871e+00 -2.484428733587265015e-01 -1.103354692459106445e+00
3.451000000000000000e+03 4.122585678100585938e+01 -1.197969079017639160e+00 -1.944073319435119629e+00 2.365629822015762329e-01 -5.122531056404113770e-01 -1.670128345489501953e+00
3.452000000000000000e+03 1.229080486297607422e+01 2.927043914794921875e+00 3.945786952972412109e+00 1.175717473030090332e+00 1.536451339721679688e+00 -3.376371860504150391e+00
3.453000000000000000e+03 1.383283615112304688e+01 3.375573873519897461e+00 5.884882926940917969e+00 -3.330010652542114258e+00 7.664617300033569336e-01 -2.238432168960571289e+00
3.454000000000000000e+03 4.755796051025390625e+01 -1.576793956756591797e+01 3.338828682899475098e-01 2.236584424972534180e+00 7.711402177810668945e-01 -1.072521209716796875e+00
3.455000000000000000e+03 6.211791229248046875e+01 -7.393018245697021484e+00 7.479692697525024414e-01 1.035076618194580078e+01 3.329620838165283203e+00 8.609883189201354980e-01
3.456000000000000000e+03 2.224160957336425781e+01 8.628499984741210938e+00 -3.140306234359741211e+00 5.560120105743408203e+00 7.259441614151000977e-01 6.484335660934448242e-01
3.457000000000000000e+03 4.041865921020507812e+01 -9.842967033386230469e+00 1.305131465196609497e-01 8.410565376281738281e+00 2.562323570251464844e+00 -1.260620713233947754e+00
3.458000000000000000e+03 6.233384704589843750e+01 3.889496326446533203e+00 -9.857259988784790039e-01 2.463496923446655273e+00 4.433312714099884033e-01 8.281280398368835449e-01
3.459000000000000000e+03 4.652379608154296875e+01 -1.357937145233154297e+01 3.204873800277709961e-01 3.058209657669067383e+00 1.013609051704406738e+00 -7.759437561035156250e-01
3.460000000000000000e+03 2.124264526367187500e+01 4.100242137908935547e+00 6.966987609863281250e+00 6.734622478485107422e+00 4.110483169555664062e+00 -6.877729296684265137e-01
3.461000000000000000e+03 3.996185302734375000e+01 8.199800491333007812e+00 -3.561897277832031250e-01 5.445736408233642578e+00 1.526864051818847656e+00 8.344861865043640137e-01
3.462000000000000000e+03 7.699818420410156250e+01 7.191043853759765625e+00 2.360800266265869141e+00 1.217995548248291016e+01 4.362226963043212891e+00 -1.183099985122680664e+00
3.463000000000000000e+03 7.822301483154296875e+01 5.879076480865478516e+00 6.487281322479248047e-01 1.037317657470703125e+01 3.306571245193481445e+00 -1.700953364372253418e+00
3.464000000000000000e+03 1.719733047485351562e+01 1.535956668853759766e+01 -2.158940076828002930e+00 -4.919061660766601562e-01 -7.952538728713989258e-01 -8.863043189048767090e-01
3.465000000000000000e+03 4.989256668090820312e+01 -1.849162483215332031e+01 -1.510923206806182861e-01 1.481381535530090332e+00 3.990867435932159424e-01 -8.477070927619934082e-01
3.466000000000000000e+03 5.102399444580078125e+01 -1.720984268188476562e+01 -6.882447004318237305e-01 1.020119860768318176e-01 -1.758698076009750366e-01 2.932241261005401611e-01
3.467000000000000000e+03 2.887106132507324219e+01 -1.065409556031227112e-01 5.506707668304443359e+00 6.191414833068847656e+00 3.509436607360839844e+00 1.040118098258972168e+00
3.468000000000000000e+03 6.661443328857421875e+01 1.291190814971923828e+01 2.546855926513671875e+00 1.262218570709228516e+01 4.550712585449218750e+00 7.547653317451477051e-01
3.469000000000000000e+03 6.589133453369140625e+01 1.462088584899902344e+01 -7.898668050765991211e-01 1.028916645050048828e+01 2.849789857864379883e+00 -1.266404271125793457e+00
3.470000000000000000e+03 5.753718948364257812e+01 8.463795483112335205e-02 -3.046839952468872070e+00 -6.134986877441406250e-01 -1.098101615905761719e+00 -2.649429321289062500e+00
3.471000000000000000e+03 5.816251754760742188e+01 -1.929366737604141235e-01 -2.976332664489746094e+00 1.494616121053695679e-01 -8.480613231658935547e-01 -1.928286910057067871e+00
3.472000000000000000e+03 7.177272033691406250e+01 -7.548517704010009766e+00 2.258426696062088013e-01 7.113301753997802734e+00 2.201743364334106445e+00 -1.184023022651672363e+00
3.473000000000000000e+03 8.196167945861816406e+00 7.490635871887207031e+00 8.731997013092041016e-01 2.564712047576904297e+00 1.031373500823974609e+00 -2.369150161743164062e+00
3.474000000000000000e+03 4.898394393920898438e+01 1.669845008850097656e+01 1.029042124748229980e+00 4.577773571014404297e+00 1.682044744491577148e+00 -2.628286361694335938e+00
3.475000000000000000e+03 6.849974060058593750e+01 6.176596164703369141e+00 4.181956872344017029e-02 1.212128257751464844e+01 3.648930549621582031e+00 -1.369163513183593750e+00
3.476000000000000000e+03 3.825252532958984375e+01 1.434971904754638672e+01 -3.559364676475524902e-01 1.037272739410400391e+01 3.005037307739257812e+00 2.476706504821777344e+00
3.477000000000000000e+03 7.208511352539062500e+00 3.954199314117431641e+00 2.909054040908813477e+00 -2.190980315208435059e-01 8.069868087768554688e-01 3.048281967639923096e-01
3.478000000000000000e+03 1.113703823089599609e+01 2.375621557235717773e+00 6.349709630012512207e-01 2.638598442077636719e+00 9.820708036422729492e-01 -1.513745069503784180e+00
3.479000000000000000e+03 6.502046203613281250e+01 -1.357801723480224609e+01 -6.927968859672546387e-01 2.936264276504516602e+00 6.730402112007141113e-01 -4.129241108894348145e-01
3.480000000000000000e+03 6.600685119628906250e+01 -1.471832466125488281e+01 -8.298504948616027832e-01 1.820998907089233398e+00 2.973445355892181396e-01 -1.863159984350204468e-01
3.481000000000000000e+03 3.318495559692382812e+01 -1.350708580017089844e+01 3.722706735134124756e-01 2.653568267822265625e+00 9.077516794204711914e-01 -1.407875537872314453e+00
3.482000000000000000e+03 3.375990676879882812e+01 -1.243950080871582031e+01 5.908915996551513672e-01 1.956859469413757324e+00 7.643253207206726074e-01 -1.214784264564514160e+00
3.483000000000000000e+03 3.924116516113281250e+01 -2.691060543060302734e+00 -1.314913988113403320e+00 4.536579608917236328e+00 9.664997458457946777e-01 -4.212100982666015625e+00
3.484000000000000000e+03 4.063979721069335938e+01 -1.813071632385253906e+01 1.177945733070373535e-01 7.369314670562744141e+00 2.246132612228393555e+00 1.755591034889221191e+00
3.485000000000000000e+03 4.098899459838867188e+01 -1.733711433410644531e+01 -3.710978627204895020e-01 1.017197322845458984e+01 2.940262556076049805e+00 7.255089879035949707e-01
3.486000000000000000e+03 7.001347351074218750e+01 -1.473860144615173340e-01 -2.922951459884643555e+00 6.597955226898193359e+00 1.102501153945922852e+00 -2.785586357116699219e+00
3.487000000000000000e+03 7.071477508544921875e+01 1.522986888885498047e-01 -2.941953659057617188e+00 6.117909908294677734e+00 9.527869224548339844e-01 -3.478538513183593750e+00
3.488000000000000000e+03 3.343851089477539062e+01 2.872042357921600342e-01 4.194262504577636719e+00 -1.771134853363037109e+00 7.269383072853088379e-01 4.665426731109619141e+00
3.489000000000000000e+03 3.292316818237304688e+01 7.933634519577026367e-01 4.369219779968261719e+00 -2.412863820791244507e-01 1.238380074501037598e+00 5.626246929168701172e+00
3.490000000000000000e+03 4.239236068725585938e+01 -1.468086910247802734e+01 1.745237350463867188e+00 1.057993030548095703e+01 3.697550296783447266e+00 1.026269607245922089e-02
3.491000000000000000e+03 3.884680938720703125e+01 -5.830953598022460938e+00 2.853158414363861084e-01 3.414255857467651367e+00 1.109871506690979004e+00 -1.456886291503906250e+00
3.492000000000000000e+03 3.796873092651367188e+01 -4.264729022979736328e+00 -1.275512099266052246e+00 3.566164493560791016e+00 6.871957182884216309e-01 -1.669874548912048340e+00
3.493000000000000000e+03 2.190297698974609375e+01 1.726432037353515625e+01 -2.437816619873046875e+00 -4.881030023097991943e-01 -8.777758479118347168e-01 -8.982453346252441406e-01
3.494000000000000000e+03 2.065339469909667969e+01 1.768557167053222656e+01 -1.924526333808898926e+00 -3.831152319908142090e-01 -6.922924518585205078e-01 -6.951397061347961426e-01
3.495000000000000000e+03 4.685417175292968750e+01 3.552737474441528320e+00 8.025458455085754395e-01 1.899370074272155762e+00 8.105747699737548828e-01 1.428972840309143066e+00
3.496000000000000000e+03 2.354121589660644531e+01 -1.025185203552246094e+01 2.898949861526489258e+00 2.872439861297607422e+00 1.731416940689086914e+00 4.192331790924072266e+00
3.497000000000000000e+03 4.268077850341796875e+01 -7.873730063438415527e-01 -3.452998399734497070e+00 3.140355587005615234e+00 -9.379287064075469971e-02 -3.123414218425750732e-01
3.498000000000000000e+03 7.112553405761718750e+01 9.698491096496582031e+00 -1.086154580116271973e+00 2.106379508972167969e+00 3.060674369335174561e-01 8.030961155891418457e-01
3.499000000000000000e+03 5.697302627563476562e+01 -1.890930557250976562e+01 1.022879958152770996e+00 9.389733314514160156e+00 3.123784065246582031e+00 -4.609607756137847900e-01
3.500000000000000000e+03 3.658215332031250000e+01 -1.622475051879882812e+01 -9.504889696836471558e-02 1.611052870750427246e+00 4.548012018203735352e-01 -7.632949948310852051e-01
3.501000000000000000e+03 6.075029754638671875e+01 -3.236052989959716797e+00 1.055226325988769531e+00 6.632941246032714844e+00 2.306450128555297852e+00 5.648998916149139404e-02
3.502000000000000000e+03 6.541470336914062500e+01 -1.569440126419067383e+00 -1.529117226600646973e+00 -6.529252231121063232e-02 -4.783229231834411621e-01 4.878392696380615234e+00
3.503000000000000000e+03 3.492834472656250000e+01 -1.483044338226318359e+01 1.244329288601875305e-01 1.976094961166381836e+00 6.301583647727966309e-01 -1.033589601516723633e+00
3.504000000000000000e+03 3.321783447265625000e+01 1.606187057495117188e+01 -1.098855614662170410e+00 -7.480673193931579590e-01 -5.540769100189208984e-01 -1.349542260169982910e+00
3.505000000000000000e+03 3.708462905883789062e+01 4.252852916717529297e+00 8.156654834747314453e-01 1.324015712738037109e+01 4.216746807098388672e+00 1.261550903320312500e+00
3.506000000000000000e+03 5.065494918823242188e+01 -3.902687311172485352e+00 -5.625607013702392578e+00 1.056637167930603027e+00 -1.370690941810607910e+00 1.093708515167236328e+00
3.507000000000000000e+03 5.618183517456054688e+01 1.078867530822753906e+01 -1.409085541963577271e-01 3.720133066177368164e+00 1.073767304420471191e+00 7.275343537330627441e-01
3.508000000000000000e+03 6.557983398437500000e+01 6.988789081573486328e+00 -3.308099210262298584e-01 9.527318000793457031e+00 2.758952379226684570e+00 5.569573640823364258e-01
3.509000000000000000e+03 6.075258636474609375e+01 1.362211227416992188e+01 -1.633542895317077637e+00 -7.993099093437194824e-02 -5.140421390533447266e-01 -5.006844401359558105e-01
3.510000000000000000e+03 1.130433464050292969e+01 3.729429960250854492e+00 6.591333866119384766e+00 6.019438743591308594e+00 3.783231735229492188e+00 -4.334198474884033203e+00
3.511000000000000000e+03 5.639837265014648438e+01 -1.382355785369873047e+01 6.920388936996459961e-01 1.192647457122802734e+01 3.785554170608520508e+00 -8.224133849143981934e-01
3.512000000000000000e+03 6.968362426757812500e+01 -4.254646301269531250e+00 -2.312402009963989258e+00 2.933938503265380859e+00 1.864609718322753906e-01 -6.201470494270324707e-01
3.513000000000000000e+03 2.043426513671875000e+01 2.386562108993530273e+00 5.265264987945556641e+00 2.685438156127929688e+00 2.385210990905761719e+00 -1.133818149566650391e+00
3.514000000000000000e+03 7.012826538085937500e+01 -4.823247909545898438e+00 -1.522411227226257324e+00 3.208484172821044922e+00 5.058218240737915039e-01 -8.208551406860351562e-01
3.515000000000000000e+03 6.960132598876953125e+01 -5.286058425903320312e+00 -1.039188623428344727e+00 2.064815759658813477e+00 3.076881468296051025e-01 -5.061137676239013672e-01
3.516000000000000000e+03 1.890439796447753906e+01 7.054310321807861328e+00 -2.363196134567260742e+00 -7.776388525962829590e-01 -9.422504901885986328e-01 -1.856064319610595703e+00
3.517000000000000000e+03 4.739241409301757812e+01 4.153726100921630859e+00 1.055258989334106445e+00 2.045586585998535156e+00 9.302536249160766602e-01 1.493902087211608887e+00
3.518000000000000000e+03 5.217695236206054688e+01 1.202272510528564453e+01 2.490499496459960938e+00 1.280260372161865234e+01 4.587930679321289062e+00 8.122539520263671875e-01
3.519000000000000000e+03 3.324744796752929688e+01 5.290768146514892578e+00 5.377997159957885742e-01 3.340201616287231445e+00 1.163400411605834961e+00 1.805088639259338379e+00
3.520000000000000000e+03 6.874971771240234375e+01 -3.179298877716064453e+00 -4.014879703521728516e+00 2.919597148895263672e+00 -3.285847306251525879e-01 -1.832403987646102905e-01
3.521000000000000000e+03 6.411635589599609375e+01 -1.127954196929931641e+01 -1.726026237010955811e-01 5.145005702972412109e+00 1.491720914840698242e+00 -7.025952339172363281e-01
3.522000000000000000e+03 1.391885375976562500e+01 4.558500289916992188e+00 5.639463901519775391e+00 -3.993634939193725586e+00 4.937486350536346436e-01 -2.628936290740966797e+00
3.523000000000000000e+03 1.560692787170410156e+01 1.345952510833740234e+01 -2.039027690887451172e+00 -7.509735822677612305e-01 -8.370003700256347656e-01 -1.010159254074096680e+00
3.524000000000000000e+03 2.109449195861816406e+01 9.730425834655761719e+00 -4.852806568145751953e+00 6.380599737167358398e-01 -1.264423966407775879e+00 -1.730411529541015625e+00
3.525000000000000000e+03 5.632134628295898438e+01 -8.680954933166503906e+00 1.128356009721755981e-01 6.806743144989013672e+00 2.075873613357543945e+00 -4.305500388145446777e-01
3.526000000000000000e+03 3.831589889526367188e+01 -6.221721172332763672e+00 6.150380373001098633e-01 2.828436136245727539e+00 1.033042192459106445e+00 -1.275895833969116211e+00
3.527000000000000000e+03 7.800761413574218750e+01 2.630208587646484375e+01 -3.921600989997386932e-03 6.727614879608154297e+00 2.017107963562011719e+00 2.827257104218006134e-02
3.528000000000000000e+03 7.810408020019531250e+01 1.578671169281005859e+01 8.744717389345169067e-02 7.041256904602050781e+00 2.138611078262329102e+00 -3.591526448726654053e-01
3.529000000000000000e+03 7.811225891113281250e+01 1.425129127502441406e+01 4.132618010044097900e-02 7.295478820800781250e+00 2.201041460037231445e+00 -4.514002799987792969e-01
3.530000000000000000e+03 7.826508331298828125e+01 5.186558723449707031e+00 6.264792680740356445e-01 1.048059368133544922e+01 3.332121849060058594e+00 -1.932622909545898438e+00
3.531000000000000000e+03 7.762995910644531250e+01 4.530591964721679688e+00 3.849814534187316895e-01 1.196921348571777344e+01 3.706258535385131836e+00 -2.215571165084838867e+00
3.532000000000000000e+03 7.813268280029296875e+01 8.346064567565917969e+00 7.530437111854553223e-01 9.391183853149414062e+00 3.043268442153930664e+00 3.760458528995513916e-01
3.533000000000000000e+03 7.816165161132812500e+01 -1.735067749023437500e+01 4.036645404994487762e-03 7.183580875396728516e+00 2.156285285949707031e+00 -4.002554714679718018e-01
3.534000000000000000e+03 7.816697692871093750e+01 -1.812788581848144531e+01 -1.041328832507133484e-01 7.260251522064208984e+00 2.146835565567016602e+00 -3.551070392131805420e-01
3.535000000000000000e+03 7.805301666259765625e+01 -1.577691745758056641e+01 1.843565255403518677e-01 7.181357383728027344e+00 2.209714174270629883e+00 -3.299020230770111084e-01
3.536000000000000000e+03 7.813671112060546875e+01 -1.657870864868164062e+01 2.302666381001472473e-02 7.162129878997802734e+00 2.155546903610229492e+00 -3.706417083740234375e-01
3.537000000000000000e+03 7.811767578125000000e+01 -5.454239368438720703e+00 1.532133202999830246e-02 1.004404163360595703e+01 3.017808914184570312e+00 1.395324945449829102e+00
3.538000000000000000e+03 7.818588256835937500e+01 -6.198702335357666016e+00 -4.351259768009185791e-02 9.704786300659179688e+00 2.898381948471069336e+00 1.367008805274963379e+00
3.539000000000000000e+03 7.803680419921875000e+01 3.097788810729980469e+00 -5.127370953559875488e-01 1.154563045501708984e+01 3.309867858886718750e+00 -2.362830638885498047e+00
3.540000000000000000e+03 7.774974060058593750e+01 2.518448114395141602e+00 -8.130242824554443359e-01 1.152437496185302734e+01 3.213405132293701172e+00 -2.038241386413574219e+00
3.541000000000000000e+03 7.693639373779296875e+01 -1.082222908735275269e-01 -1.669097304344177246e+00 9.499844551086425781e+00 2.349224328994750977e+00 5.680266022682189941e-01
3.542000000000000000e+03 7.818222808837890625e+01 -2.259411573410034180e+00 -2.030929028987884521e-01 1.135260009765625000e+01 3.344851970672607422e+00 1.042470932006835938e+00
3.543000000000000000e+03 7.781570434570312500e+01 -3.096868515014648438e+00 -2.034638673067092896e-01 1.036369514465332031e+01 3.048069477081298828e+00 1.350807428359985352e+00
3.544000000000000000e+03 7.820476531982421875e+01 -3.527042865753173828e+00 -5.313377827405929565e-02 1.087737560272216797e+01 3.247272491455078125e+00 1.236652255058288574e+00
3.545000000000000000e+03 7.800291442871093750e+01 -4.693458557128906250e+00 -8.013942837715148926e-02 1.019035911560058594e+01 3.033066034317016602e+00 1.377707481384277344e+00
3.546000000000000000e+03 7.817816925048828125e+01 -6.943902492523193359e+00 6.986081600189208984e-02 9.350401878356933594e+00 2.826078891754150391e+00 1.393206119537353516e+00
3.547000000000000000e+03 7.812774658203125000e+01 -7.707509040832519531e+00 4.930681362748146057e-02 8.996053695678710938e+00 2.713608264923095703e+00 1.346309781074523926e+00
3.548000000000000000e+03 7.734560394287109375e+01 -8.530345916748046875e+00 1.974630206823348999e-01 8.656503677368164062e+00 2.656189918518066406e+00 1.549611806869506836e+00
3.549000000000000000e+03 7.810923004150390625e+01 -1.410068035125732422e+01 2.640155553817749023e-01 7.127062797546386719e+00 2.217323541641235352e+00 2.254668436944484711e-02
3.550000000000000000e+03 7.803369903564453125e+01 -1.493167781829833984e+01 2.516475617885589600e-01 7.160228252410888672e+00 2.223562717437744141e+00 -1.612927764654159546e-01
3.551000000000000000e+03 7.786824035644531250e+01 -2.614032554626464844e+01 -6.760105956345796585e-03 6.912263393402099609e+00 2.071650981903076172e+00 1.635045558214187622e-01
3.552000000000000000e+03 7.720557403564453125e+01 -3.348147201538085938e+01 2.697783894836902618e-02 6.506850242614746094e+00 1.960148453712463379e+00 8.051609247922897339e-02
3.553000000000000000e+03 7.785497283935546875e+01 -3.607589340209960938e+01 1.050275471061468124e-02 6.517921447753906250e+00 1.958527207374572754e+00 3.497040271759033203e-02
3.554000000000000000e+03 7.771012115478515625e+01 7.003339290618896484e+00 1.431894898414611816e+00 1.103484439849853516e+01 3.740021944046020508e+00 -1.224925518035888672e+00
3.555000000000000000e+03 7.827693176269531250e+01 4.492331504821777344e+00 4.032068252563476562e-01 1.089156341552734375e+01 3.388431072235107422e+00 -2.372551202774047852e+00
3.556000000000000000e+03 2.839256286621093750e+01 2.589078426361083984e+00 -5.032025814056396484e+00 3.957080543041229248e-01 -1.390895366668701172e+00 -1.291381120681762695e+00
3.557000000000000000e+03 3.726366806030273438e+01 4.604636728763580322e-01 3.284709215164184570e+00 1.210481357574462891e+01 4.616857051849365234e+00 2.198443859815597534e-01
3.558000000000000000e+03 3.709716033935546875e+01 -9.384391307830810547e-01 -1.573283076286315918e+00 9.198912620544433594e+00 2.287688970565795898e+00 -5.988355278968811035e-01
3.559000000000000000e+03 3.284336853027343750e+01 5.920339107513427734e+00 1.873655766248703003e-01 2.113029241561889648e+00 6.901184320449829102e-01 1.134687662124633789e+00
3.560000000000000000e+03 2.643437767028808594e+01 9.644613265991210938e+00 -2.577615737915039062e+00 3.808761358261108398e+00 3.693436980247497559e-01 5.101126432418823242e-01
3.561000000000000000e+03 1.986349940299987793e+00 2.199438476562500000e+01 -3.091062605381011963e-02 1.604948520660400391e+00 4.722113609313964844e-01 6.170804798603057861e-02
3.562000000000000000e+03 1.930131554603576660e+00 2.408818435668945312e+01 -9.730461053550243378e-03 1.548550367355346680e+00 4.616459608078002930e-01 1.021915897727012634e-01
3.563000000000000000e+03 1.888724207878112793e+00 1.636215019226074219e+01 -7.449695467948913574e-02 1.446922302246093750e+00 4.117276072502136230e-01 -2.310345023870468140e-01
3.564000000000000000e+03 1.963305473327636719e+00 -6.036704063415527344e+00 -9.762934409081935883e-03 -1.064138561487197876e-01 -3.485303744673728943e-02 -7.348821312189102173e-02
3.565000000000000000e+03 2.026794433593750000e+00 -5.226681232452392578e+00 -1.312823686748743057e-02 -8.257947862148284912e-02 -2.871231548488140106e-02 -6.799682974815368652e-02
3.566000000000000000e+03 2.050389766693115234e+00 5.492998123168945312e+00 3.196816146373748779e-01 -6.295970082283020020e-01 -9.297461807727813721e-02 7.767742872238159180e-02
3.567000000000000000e+03 1.877856254577636719e+00 6.191151142120361328e+00 2.470806390047073364e-01 -6.531531810760498047e-01 -1.218217685818672180e-01 -1.004876941442489624e-01
3.568000000000000000e+03 2.227942705154418945e+00 -2.582602310180664062e+01 3.956721164286136627e-03 -4.675579965114593506e-01 -1.390803754329681396e-01 2.824855223298072815e-02
3.569000000000000000e+03 1.921375393867492676e+00 1.238891315460205078e+01 -9.352280944585800171e-02 7.982484698295593262e-01 2.114176899194717407e-01 -5.767998695373535156e-01
3.570000000000000000e+03 1.976310014724731445e+00 1.318625736236572266e+01 -8.865445852279663086e-02 9.775412678718566895e-01 2.666660249233245850e-01 -5.243174433708190918e-01
3.571000000000000000e+03 2.024518489837646484e+00 1.398484230041503906e+01 -1.162777692079544067e-01 1.119268417358398438e+00 3.008972108364105225e-01 -4.538552463054656982e-01
3.572000000000000000e+03 2.101996183395385742e+00 -2.752925157546997070e+00 -1.851425692439079285e-02 -2.898649871349334717e-02 -1.425022631883621216e-02 -3.675156831741333008e-02
3.573000000000000000e+03 2.130125761032104492e+00 -2.424681091308593750e+01 6.662133615463972092e-03 -4.890581369400024414e-01 -1.447187960147857666e-01 1.542648673057556152e-02
3.574000000000000000e+03 2.482267379760742188e+01 9.305222511291503906e+00 -2.951443672180175781e+00 7.351209163665771484e+00 1.319929599761962891e+00 1.953996539115905762e+00
3.575000000000000000e+03 6.600141143798828125e+01 7.490519046783447266e+00 -2.438342422246932983e-01 1.093493843078613281e+01 3.207331180572509766e+00 2.063350379467010498e-01
3.576000000000000000e+03 4.430522918701171875e+01 1.487180042266845703e+01 4.628529548645019531e-01 1.664005398750305176e+00 6.380575299263000488e-01 1.383430361747741699e+00
3.577000000000000000e+03 2.376267433166503906e+01 -3.526952564716339111e-01 2.303127348423004150e-01 7.079410552978515625e+00 2.192916870117187500e+00 -5.294438362121582031e+00
3.578000000000000000e+03 4.398207092285156250e+01 -7.784076690673828125e+00 7.204685360193252563e-02 1.059692382812500000e+01 3.200690984725952148e+00 4.779455065727233887e-01
3.579000000000000000e+03 1.721568107604980469e+01 -6.070126533508300781e+00 -5.889345407485961914e-01 -1.829593069851398468e-02 -1.821691393852233887e-01 2.261538356542587280e-01
3.580000000000000000e+03 1.855528450012207031e+01 5.199872970581054688e+00 3.759704589843750000e+00 -6.298105120658874512e-01 9.389682412147521973e-01 3.900413215160369873e-01
3.581000000000000000e+03 1.220333290100097656e+01 1.237691402435302734e+01 -1.337327480316162109e+00 1.971548348665237427e-01 -3.420517742633819580e-01 -4.960834085941314697e-01
3.582000000000000000e+03 1.881365966796875000e+01 4.675457954406738281e+00 6.246413230895996094e+00 -8.939581513404846191e-01 1.605736494064331055e+00 4.744180440902709961e-01
3.583000000000000000e+03 1.807749938964843750e+01 4.270308971405029297e+00 6.776528358459472656e+00 -3.228378295898437500e-01 1.936107158660888672e+00 7.951272726058959961e-01
3.584000000000000000e+03 3.776847076416015625e+01 6.183378219604492188e+00 -1.109332323074340820e+00 1.178824996948242188e+01 3.203675508499145508e+00 1.742128252983093262e+00
3.585000000000000000e+03 3.648577880859375000e+01 -2.309911251068115234e+00 -3.294601440429687500e+00 4.981270313262939453e+00 5.060006976127624512e-01 -5.898070335388183594e-02
3.586000000000000000e+03 1.268069648742675781e+01 1.185886383056640625e+01 -1.298013806343078613e+00 -1.280940137803554535e-02 -3.932469487190246582e-01 -6.474176049232482910e-01
3.587000000000000000e+03 1.315425872802734375e+01 1.134499168395996094e+01 -1.268353581428527832e+00 -4.880526065826416016e-01 -5.269218683242797852e-01 -7.560081481933593750e-01
3.588000000000000000e+03 2.217152023315429688e+01 -2.711895406246185303e-01 1.796295940876007080e-01 6.820532798767089844e+00 2.100048780441284180e+00 -3.002360820770263672e+00
3.589000000000000000e+03 2.197505187988281250e+01 5.459425449371337891e-01 -5.524085164070129395e-01 7.560382366180419922e+00 2.102392196655273438e+00 -2.139851808547973633e+00
3.590000000000000000e+03 2.490444564819335938e+01 -3.296854734420776367e+00 2.711065530776977539e+00 8.349034309387207031e+00 3.318029880523681641e+00 -2.910274744033813477e+00
3.591000000000000000e+03 5.216458511352539062e+01 1.628095245361328125e+01 -1.138076186180114746e-01 9.347043037414550781e+00 2.769970655441284180e+00 1.100380897521972656e+00
3.592000000000000000e+03 5.105640792846679688e+01 1.484666728973388672e+01 1.581333637237548828e+00 1.240404701232910156e+01 4.195614337921142578e+00 4.116748273372650146e-01
3.593000000000000000e+03 1.212160015106201172e+01 1.135183525085449219e+01 -1.192609667778015137e+00 7.248646765947341919e-02 -3.360369503498077393e-01 -5.242441296577453613e-01
3.594000000000000000e+03 1.023000526428222656e+01 1.002427577972412109e+01 -1.058942556381225586e+00 1.683240532875061035e+00 1.872894167900085449e-01 -5.080961585044860840e-01
3.595000000000000000e+03 4.445013046264648438e+01 -9.294532775878906250e+00 -1.857713460922241211e-01 8.749608993530273438e+00 2.569151401519775391e+00 -1.624331921339035034e-01
3.596000000000000000e+03 4.411250686645507812e+01 -9.876642227172851562e+00 -3.431956470012664795e-01 8.508216857910156250e+00 2.449506521224975586e+00 2.465130984783172607e-01
3.597000000000000000e+03 3.008034896850585938e+01 1.379243564605712891e+01 -1.807310342788696289e+00 -1.184978365898132324e+00 -8.976866006851196289e-01 -1.154283642768859863e+00
3.598000000000000000e+03 1.090332317352294922e+01 1.042726421356201172e+01 -1.048500180244445801e+00 8.496387004852294922e-01 -5.965845659375190735e-02 -4.092651903629302979e-01
3.599000000000000000e+03 1.137011528015136719e+01 9.758858680725097656e+00 -8.509973883628845215e-01 5.942448973655700684e-01 -7.702575623989105225e-02 -4.213490188121795654e-01
3.600000000000000000e+03 2.651458549499511719e+01 1.070887947082519531e+01 -3.426516771316528320e+00 4.891958236694335938e+00 4.396324455738067627e-01 1.101531609892845154e-01
3.601000000000000000e+03 1.564394569396972656e+01 -5.683403491973876953e+00 -4.080346524715423584e-01 9.592200815677642822e-02 -9.363379329442977905e-02 1.078502088785171509e-01
3.602000000000000000e+03 1.906775856018066406e+01 1.564855289459228516e+01 -2.662449598312377930e+00 -5.421653985977172852e-01 -9.613844752311706543e-01 -1.129085183143615723e+00
3.603000000000000000e+03 1.795160102844238281e+01 1.695554924011230469e+01 -1.895738005638122559e+00 -2.879927456378936768e-01 -6.551192402839660645e-01 -5.823987722396850586e-01
3.604000000000000000e+03 5.276164627075195312e+01 4.803839206695556641e+00 1.925969839096069336e+00 1.308876609802246094e+01 4.504420757293701172e+00 -1.254568099975585938e+00
3.605000000000000000e+03 5.302456665039062500e+01 5.649549007415771484e+00 5.962897539138793945e-01 1.315821361541748047e+01 4.126351356506347656e+00 -7.922797799110412598e-01
3.606000000000000000e+03 2.007132339477539062e+01 3.051415681838989258e+00 7.496173381805419922e+00 1.358670830726623535e+00 2.656453132629394531e+00 -7.719737887382507324e-01
3.607000000000000000e+03 1.936381340026855469e+01 2.654808044433593750e+00 6.118928909301757812e+00 -5.760990977287292480e-01 1.662848949432373047e+00 -1.290807843208312988e+00
3.608000000000000000e+03 3.051803779602050781e+01 3.562794923782348633e+00 -2.758858442306518555e+00 2.156710386276245117e+00 -1.806444674730300903e-01 1.190207958221435547e+00
3.609000000000000000e+03 2.852872085571289062e+01 -1.584077835083007812e+00 6.356680393218994141e+00 7.526592254638671875e+00 4.164981842041015625e+00 3.734255075454711914e+00
3.610000000000000000e+03 2.903102684020996094e+01 -2.111298799514770508e+00 4.859954833984375000e+00 1.036641979217529297e+01 4.567912578582763672e+00 4.972500324249267578e+00
3.611000000000000000e+03 4.306953430175781250e+01 1.195674228668212891e+01 8.841479420661926270e-01 4.625529050827026367e-01 4.040102660655975342e-01 7.612199187278747559e-01
3.612000000000000000e+03 5.725640869140625000e+01 -1.435936069488525391e+01 8.712140321731567383e-01 1.121472930908203125e+01 3.625782966613769531e+00 3.152623027563095093e-02
3.613000000000000000e+03 5.106436157226562500e+01 8.937191963195800781e+00 -4.341988265514373779e-01 1.264270114898681641e+01 3.662550687789916992e+00 5.056703686714172363e-01
3.614000000000000000e+03 5.143320846557617188e+01 1.044626617431640625e+01 1.263850569725036621e+00 1.430712127685546875e+01 4.671291828155517578e+00 4.428162276744842529e-01
3.615000000000000000e+03 3.994070053100585938e+01 -6.449229717254638672e+00 8.295882940292358398e-01 4.837201118469238281e+00 1.700036764144897461e+00 -1.079947710037231445e+00
3.616000000000000000e+03 3.929737472534179688e+01 -6.279378890991210938e+00 7.484971880912780762e-01 4.063446044921875000e+00 1.443582892417907715e+00 -1.164548754692077637e+00
3.617000000000000000e+03 6.712425994873046875e+01 1.189547157287597656e+01 2.923429250717163086e+00 1.226416301727294922e+01 4.556277751922607422e+00 1.058126926422119141e+00
3.618000000000000000e+03 3.659442901611328125e+01 8.031927108764648438e+00 -6.663703322410583496e-01 1.320185184478759766e+01 3.760644435882568359e+00 2.740238904953002930e+00
3.619000000000000000e+03 4.039036941528320312e+01 9.912500381469726562e+00 1.370034337043762207e+00 4.527088165283203125e+00 1.769136667251586914e+00 1.103187799453735352e+00
3.620000000000000000e+03 4.028995132446289062e+01 1.097922611236572266e+01 2.599925518035888672e+00 5.122064590454101562e+00 2.316596984863281250e+00 1.969758629798889160e+00
3.621000000000000000e+03 5.514551925659179688e+01 9.517406463623046875e+00 -4.797734022140502930e-01 6.468701362609863281e+00 1.796678304672241211e+00 5.915830135345458984e-01
3.622000000000000000e+03 2.361482429504394531e+01 8.364390373229980469e+00 -2.124747753143310547e+00 7.893414974212646484e+00 1.730600237846374512e+00 2.044830799102783203e+00
3.623000000000000000e+03 4.314337539672851562e+01 1.677198112010955811e-01 -4.227767944335937500e+00 2.777022123336791992e+00 -4.352237284183502197e-01 2.719337344169616699e-01
3.624000000000000000e+03 7.209740447998046875e+01 -7.251664996147155762e-01 -2.197091102600097656e+00 3.139443874359130859e+00 2.827057838439941406e-01 -3.221237421035766602e+00
3.625000000000000000e+03 6.694422149658203125e+01 1.120317840576171875e+01 3.422241687774658203e+00 1.310078525543212891e+01 4.956908226013183594e+00 9.071990102529525757e-02
3.626000000000000000e+03 4.568130493164062500e+01 2.326973676681518555e+00 -5.835430622100830078e-01 2.014551877975463867e+00 4.293026030063629150e-01 1.356019496917724609e+00
3.627000000000000000e+03 4.389819717407226562e+01 -8.426155090332031250e+00 -1.284031420946121216e-01 9.777631759643554688e+00 2.894768714904785156e+00 2.979634702205657959e-01
3.628000000000000000e+03 5.422521591186523438e+01 8.083372116088867188e+00 -9.080157876014709473e-01 9.826408386230468750e+00 2.675517559051513672e+00 2.274606525897979736e-01
3.629000000000000000e+03 6.044844436645507812e+01 5.787957906723022461e-01 -3.812288045883178711e+00 3.267882108688354492e+00 -1.633217930793762207e-01 5.165383815765380859e-01
3.630000000000000000e+03 6.942483520507812500e+01 -1.724367523193359375e+01 4.481719136238098145e-01 9.184120893478393555e-01 4.099752008914947510e-01 1.750169277191162109e+00
3.631000000000000000e+03 7.048516082763671875e+01 -1.788609504699707031e+01 -1.624130085110664368e-02 4.238194942474365234e+00 1.266586184501647949e+00 3.009891748428344727e+00
3.632000000000000000e+03 2.116683959960937500e+01 6.345908641815185547e-01 -1.767875552177429199e-01 5.174913883209228516e+00 1.499437808990478516e+00 -1.620332121849060059e+00
3.633000000000000000e+03 4.342625427246093750e+01 -4.063678264617919922e+00 2.927220582962036133e+00 8.670110702514648438e+00 3.479199171066284180e+00 3.214523941278457642e-02
3.634000000000000000e+03 4.290484237670898438e+01 -5.228972434997558594e+00 2.904590845108032227e+00 8.623672485351562500e+00 3.458479166030883789e+00 8.754007816314697266e-01
3.635000000000000000e+03 4.395796203613281250e+01 1.016537666320800781e+00 -3.210982084274291992e+00 2.403245925903320312e+00 -2.423208206892013550e-01 6.939674019813537598e-01
3.636000000000000000e+03 4.354860305786132812e+01 -7.003283023834228516e+00 7.445771098136901855e-01 1.064315891265869141e+01 3.416320800781250000e+00 7.966334819793701172e-01
3.637000000000000000e+03 6.882288360595703125e+01 1.703979849815368652e+00 2.113219052553176880e-01 9.054846763610839844e+00 2.779850482940673828e+00 -9.407313466072082520e-01
3.638000000000000000e+03 6.923360443115234375e+01 1.074204325675964355e+00 -1.504882574081420898e+00 8.248520851135253906e+00 2.023091316223144531e+00 -1.079517960548400879e+00
3.639000000000000000e+03 3.009780311584472656e+01 -6.925751209259033203e+00 9.288301467895507812e-01 5.149391174316406250e+00 1.823466420173645020e+00 -7.128221988677978516e-01
3.640000000000000000e+03 5.739794158935546875e+01 1.245065402984619141e+01 2.062579616904258728e-02 2.066204071044921875e+00 6.260489225387573242e-01 9.535478353500366211e-01
3.641000000000000000e+03 3.547730636596679688e+01 1.582895374298095703e+01 -1.924699544906616211e+00 4.386834144592285156e+00 7.386404275894165039e-01 -2.871304035186767578e+00
3.642000000000000000e+03 4.520932006835937500e+01 -1.164797782897949219e+01 -2.319138031452894211e-03 6.082739830017089844e+00 1.824126243591308594e+00 -2.577907741069793701e-01
3.643000000000000000e+03 4.365279769897460938e+01 -2.888168811798095703e+00 9.226725697517395020e-01 7.645025253295898438e+00 2.570309400558471680e+00 1.375976204872131348e-01
3.644000000000000000e+03 7.314724731445312500e+01 -8.735331535339355469e+00 6.786557435989379883e-01 9.212775230407714844e+00 2.967429399490356445e+00 4.595763385295867920e-01
3.645000000000000000e+03 7.234952545166015625e+01 -7.950647354125976562e+00 2.327821403741836548e-01 8.494776725769042969e+00 2.618267536163330078e+00 -6.054365634918212891e-01
3.646000000000000000e+03 5.706461334228515625e+01 -1.310186004638671875e+01 6.926497220993041992e-01 1.046012496948242188e+01 3.345832586288452148e+00 -1.711534410715103149e-01
3.647000000000000000e+03 6.646211242675781250e+01 -1.528901481628417969e+01 -1.289343476295471191e+00 1.595381140708923340e+00 9.181129187345504761e-02 -1.479388624429702759e-01
3.648000000000000000e+03 6.687384033203125000e+01 -1.587278366088867188e+01 -8.923259973526000977e-01 1.496056556701660156e+00 1.811191737651824951e-01 -3.722414374351501465e-01
3.649000000000000000e+03 2.274768066406250000e+01 1.137069940567016602e+00 -1.463216096162796021e-01 1.074606609344482422e+01 3.179923295974731445e+00 -2.908268928527832031e+00
3.650000000000000000e+03 2.138538932800292969e+01 3.092706918716430664e+00 7.485545635223388672e+00 7.384445190429687500e+00 4.460997104644775391e+00 -8.942318558692932129e-01
3.651000000000000000e+03 1.093619728088378906e+01 3.209943532943725586e+00 3.904011487960815430e+00 3.914225816726684570e+00 2.345471143722534180e+00 -1.667820692062377930e+00
3.652000000000000000e+03 9.967086791992187500e+00 4.105681896209716797e+00 7.958262443542480469e+00 4.292393684387207031e+00 3.675196886062622070e+00 -6.480896472930908203e-01
3.653000000000000000e+03 6.139337539672851562e+01 -6.681451320648193359e+00 1.142509341239929199e+00 9.573350906372070312e+00 3.214758157730102539e+00 1.420977711677551270e+00
3.654000000000000000e+03 7.751235198974609375e+01 5.818348884582519531e+00 1.400186300277709961e+00 1.149958038330078125e+01 3.869930028915405273e+00 -2.009004354476928711e+00
3.655000000000000000e+03 2.138837432861328125e+01 5.436685085296630859e+00 3.722918272018432617e+00 6.805293560028076172e+00 3.158463478088378906e+00 1.625888794660568237e-01
3.656000000000000000e+03 2.144715499877929688e+01 6.025235652923583984e+00 2.532230138778686523e+00 6.098200798034667969e+00 2.589129209518432617e+00 -2.989233098924160004e-02
3.657000000000000000e+03 5.530898571014404297e+00 -3.654532670974731445e+00 -7.884994149208068848e-02 -8.040419779717922211e-03 -2.606710791587829590e-02 -9.567123651504516602e-02
3.658000000000000000e+03 3.664288330078125000e+01 3.631263494491577148e+00 2.287061214447021484e+00 1.184180259704589844e+01 4.238658905029296875e+00 4.649405479431152344e-01
3.659000000000000000e+03 2.589433288574218750e+01 -4.570609569549560547e+00 2.092859029769897461e+00 1.188711261749267578e+01 4.193991661071777344e+00 -5.351511836051940918e-01
3.660000000000000000e+03 4.548805236816406250e+01 1.619416046142578125e+01 6.376188397407531738e-01 1.662493944168090820e+00 6.900338530540466309e-01 9.617343544960021973e-01
3.661000000000000000e+03 4.623733139038085938e+01 1.606907844543457031e+01 7.708607912063598633e-01 1.295699954032897949e+00 6.199682354927062988e-01 5.756883621215820312e-01
3.662000000000000000e+03 2.797685813903808594e+01 -3.096026420593261719e+00 3.032619714736938477e+00 8.931448936462402344e+00 3.589220523834228516e+00 3.028636217117309570e+00
3.663000000000000000e+03 2.885363388061523438e+01 -3.873773336410522461e+00 1.398984670639038086e+00 1.003655433654785156e+01 3.430661678314208984e+00 2.872889041900634766e+00
3.664000000000000000e+03 2.205123138427734375e+01 1.845771408081054688e+01 -1.446521878242492676e+00 1.512766480445861816e-01 -3.885735869407653809e-01 -1.324395298957824707e+00
3.665000000000000000e+03 7.693982696533203125e+01 1.181446433067321777e+00 -2.249434709548950195e+00 1.027314281463623047e+01 2.407112598419189453e+00 -5.750255584716796875e-01
3.666000000000000000e+03 5.712688446044921875e+01 -1.066997814178466797e+01 3.471946716308593750e-01 8.422389030456542969e+00 2.630875110626220703e+00 7.446570694446563721e-02
3.667000000000000000e+03 5.606484603881835938e+01 -9.682734489440917969e+00 2.536452114582061768e-01 7.467810630798339844e+00 2.316436767578125000e+00 -6.301425099372863770e-01
3.668000000000000000e+03 6.351405334472656250e+01 -1.167679595947265625e+01 -5.842693448066711426e-01 6.014319896697998047e+00 1.629015088081359863e+00 -2.529000937938690186e-01
3.669000000000000000e+03 3.487699890136718750e+01 1.596903991699218750e+01 -1.360031843185424805e+00 2.361974716186523438e+00 3.005828559398651123e-01 -3.214151382446289062e+00
3.670000000000000000e+03 4.850942993164062500e+01 6.471457481384277344e+00 6.642187237739562988e-01 3.726072549819946289e+00 1.317087411880493164e+00 1.371335625648498535e+00
3.671000000000000000e+03 5.019041824340820312e+01 6.950207710266113281e+00 -1.335933506488800049e-01 8.807789802551269531e+00 2.602258920669555664e+00 6.915575861930847168e-01
3.672000000000000000e+03 2.477182960510253906e+01 1.153839588165283203e+01 -2.924657821655273438e+00 8.237860679626464844e+00 1.593960881233215332e+00 1.629603028297424316e+00
3.673000000000000000e+03 4.302931213378906250e+01 1.298514652252197266e+01 1.038771152496337891e+00 1.330459594726562500e+00 7.107691764831542969e-01 1.452763319015502930e+00
3.674000000000000000e+03 6.703337860107421875e+01 9.643363952636718750e+00 1.863055467605590820e+00 1.312366104125976562e+01 4.496015071868896484e+00 -5.064235925674438477e-01
3.675000000000000000e+03 2.676295852661132812e+01 -8.679954528808593750e+00 4.393156528472900391e+00 1.275101947784423828e+01 5.143252849578857422e+00 7.169473171234130859e-02
3.676000000000000000e+03 9.199166297912597656e+00 6.543900012969970703e+00 1.269177794456481934e+00 5.344015598297119141e+00 1.983958005905151367e+00 -3.155959606170654297e+00
3.677000000000000000e+03 3.830091476440429688e+01 1.063881492614746094e+01 3.982156276702880859e+00 1.310749626159667969e+01 5.126895904541015625e+00 1.949615240097045898e+00
3.678000000000000000e+03 3.413734054565429688e+01 -1.319108867645263672e+01 3.868468403816223145e-01 1.906612157821655273e+00 6.880376935005187988e-01 -1.165935397148132324e+00
3.679000000000000000e+03 4.138475418090820312e+01 1.123619365692138672e+01 1.776568651199340820e+00 2.297810792922973633e+00 1.222313880920410156e+00 1.626127481460571289e+00
3.680000000000000000e+03 6.808816528320312500e+01 5.521561145782470703e+00 1.043743610382080078e+00 1.162156677246093750e+01 3.799593210220336914e+00 -1.852678775787353516e+00
3.681000000000000000e+03 6.793116760253906250e+01 4.253201961517333984e+00 2.347575902938842773e+00 1.028898143768310547e+01 3.790967226028442383e+00 -9.375168085098266602e-01
3.682000000000000000e+03 6.350828933715820312e+01 1.578942394256591797e+01 3.862445950508117676e-01 2.672280311584472656e+00 9.175574779510498047e-01 -2.415393114089965820e+00
3.683000000000000000e+03 6.280794525146484375e+01 1.511081600189208984e+01 2.726624310016632080e-01 1.045503377914428711e+00 3.954497575759887695e-01 -1.737274408340454102e+00
3.684000000000000000e+03 4.623812866210937500e+01 -1.526474952697753906e+00 -1.870549321174621582e+00 3.956440687179565430e+00 6.257674098014831543e-01 5.051417827606201172e+00
3.685000000000000000e+03 3.462063598632812500e+01 6.258222579956054688e+00 2.106308639049530029e-01 6.497220993041992188e+00 2.012355566024780273e+00 2.309122562408447266e+00
3.686000000000000000e+03 8.857050895690917969e+00 -3.531004905700683594e+00 -1.552834212779998779e-01 4.421129077672958374e-02 -3.332164138555526733e-02 -7.260284572839736938e-02
3.687000000000000000e+03 9.642178535461425781e+00 -3.483552455902099609e+00 -1.778252720832824707e-01 5.679720640182495117e-02 -3.630841895937919617e-02 -5.015638098120689392e-02
3.688000000000000000e+03 6.252441024780273438e+01 -1.012620162963867188e+01 -2.141590788960456848e-02 8.123398780822753906e+00 2.430594921112060547e+00 4.369251728057861328e-01
3.689000000000000000e+03 7.453407287597656250e+01 -1.384404659271240234e+01 1.572496652603149414e+00 9.676535606384277344e+00 3.374709606170654297e+00 6.495485901832580566e-01
3.690000000000000000e+03 1.914784812927246094e+01 4.173112869262695312e+00 7.229296684265136719e+00 -1.165336072444915771e-01 2.133828878402709961e+00 5.359191074967384338e-02
3.691000000000000000e+03 5.311093902587890625e+01 2.195870876312255859e+00 3.345417261123657227e+00 1.291040325164794922e+01 4.876746177673339844e+00 -1.861636340618133545e-01
3.692000000000000000e+03 5.741083908081054688e+01 -1.171258449554443359e+01 4.495953619480133057e-01 9.258225440979003906e+00 2.912346124649047852e+00 1.834502667188644409e-01
3.693000000000000000e+03 6.224137115478515625e+01 1.579747200012207031e+01 6.741614937782287598e-01 1.325582027435302734e+00 5.999230742454528809e-01 -1.073105692863464355e+00
3.694000000000000000e+03 6.095159149169921875e+01 1.472088432312011719e+01 -8.594311773777008057e-02 3.104443550109863281e-01 6.735037267208099365e-02 3.401127085089683533e-02
3.695000000000000000e+03 7.704874420166015625e+01 2.765572786331176758e+00 -1.208251118659973145e+00 1.106990718841552734e+01 2.958496809005737305e+00 -2.223147153854370117e+00
3.696000000000000000e+03 5.094167327880859375e+01 7.050036907196044922e+00 -3.340966701507568359e-01 1.027066516876220703e+01 2.980970621109008789e+00 -1.006011813879013062e-01
3.697000000000000000e+03 5.750121307373046875e+01 -1.738204956054687500e+01 2.012857675552368164e+00 1.059202194213867188e+01 3.781463861465454102e+00 6.205253601074218750e-01
3.698000000000000000e+03 5.710482406616210938e+01 -1.697443389892578125e+01 1.812887072563171387e+00 1.138490867614746094e+01 3.959338665008544922e+00 1.778669208288192749e-01
3.699000000000000000e+03 4.888819885253906250e+01 -2.458899259567260742e+00 -3.057484626770019531e+00 -7.162241935729980469e-01 -1.132112622261047363e+00 2.047222614288330078e+00
3.700000000000000000e+03 2.602963066101074219e+01 1.322307014465332031e+01 5.532641410827636719e-01 8.521018028259277344e+00 2.722284793853759766e+00 1.774771362543106079e-01
3.701000000000000000e+03 3.854400253295898438e+01 1.147567367553710938e+01 4.218756675720214844e+00 1.148418521881103516e+01 4.710882663726806641e+00 2.527978420257568359e+00
3.702000000000000000e+03 3.760467147827148438e+01 1.257775688171386719e+01 4.009556293487548828e+00 1.581757259368896484e+01 5.948138713836669922e+00 2.257633209228515625e+00
3.703000000000000000e+03 7.667143249511718750e+01 8.119713783264160156e+00 1.889288306236267090e+00 1.184347152709960938e+01 4.119828224182128906e+00 -7.341871261596679688e-01
3.704000000000000000e+03 2.662268257141113281e+01 -6.409312248229980469e+00 2.856193304061889648e+00 1.350476741790771484e+01 4.908288002014160156e+00 7.901182770729064941e-01
3.705000000000000000e+03 2.880968856811523438e+01 1.287012195587158203e+01 -1.852774381637573242e+00 3.780261799693107605e-02 -5.444915294647216797e-01 -1.283786058425903320e+00
3.706000000000000000e+03 2.820746994018554688e+01 1.233200073242187500e+01 -2.193020343780517578e+00 1.311029434204101562e+00 -2.645972669124603271e-01 -1.254099726676940918e+00
3.707000000000000000e+03 3.278975296020507812e+01 1.537545013427734375e+01 -1.803178191184997559e+00 -1.314552664756774902e+00 -9.353193044662475586e-01 -1.265918016433715820e+00
3.708000000000000000e+03 3.210321426391601562e+01 1.593961334228515625e+01 -8.418350815773010254e-01 -8.978078365325927734e-01 -5.218928456306457520e-01 -4.955613911151885986e-01
3.709000000000000000e+03 2.220793914794921875e+01 -9.450322151184082031e+00 -1.073804423213005066e-01 -3.342315256595611572e-01 -1.324835866689682007e-01 5.149371027946472168e-01
3.710000000000000000e+03 3.247309112548828125e+01 1.303515672683715820e+00 4.660369396209716797e+00 1.251374363899230957e+00 1.773523092269897461e+00 6.321243286132812500e+00
3.711000000000000000e+03 2.637697792053222656e+01 -1.041616344451904297e+01 1.193019747734069824e+00 1.112662506103515625e+01 3.695893526077270508e+00 3.545291125774383545e-01
3.712000000000000000e+03 4.956758117675781250e+01 6.485596179962158203e+00 2.724945545196533203e-01 6.781455516815185547e+00 2.116184949874877930e+00 1.187768936157226562e+00
3.713000000000000000e+03 5.181858444213867188e+01 1.148572921752929688e+01 2.420898914337158203e+00 1.364378929138183594e+01 4.819406509399414062e+00 1.304593980312347412e-01
3.714000000000000000e+03 5.098641586303710938e+01 1.115114402770996094e+01 2.302538156509399414e+00 1.694234085083007812e+01 5.773463726043701172e+00 1.746431112289428711e+00
3.715000000000000000e+03 6.624454498291015625e+01 9.943220138549804688e+00 2.637254238128662109e+00 1.549558162689208984e+01 5.439850807189941406e+00 2.703142352402210236e-02
3.716000000000000000e+03 7.174130249023437500e+01 9.969318389892578125e+00 -4.971846044063568115e-01 6.153500080108642578e-01 3.544961288571357727e-02 2.104875147342681885e-01
3.717000000000000000e+03 7.368909454345703125e+01 -6.417402625083923340e-01 -1.782407045364379883e+00 1.669341087341308594e+00 -3.391979634761810303e-02 -6.860083341598510742e-01
3.718000000000000000e+03 5.242877197265625000e+01 1.376470279693603516e+01 2.638114452362060547e+00 1.143794345855712891e+01 4.222817420959472656e+00 1.059803962707519531e+00
3.719000000000000000e+03 6.831475830078125000e+01 7.099387645721435547e+00 -8.720189929008483887e-01 1.130400657653808594e+01 3.129596233367919922e+00 -1.494078516960144043e+00
3.720000000000000000e+03 7.471109771728515625e+01 1.091326332092285156e+01 -3.675801157951354980e-01 6.230322837829589844e+00 1.758822798728942871e+00 -2.924021005630493164e+00
3.721000000000000000e+03 2.403318786621093750e+01 1.108252811431884766e+01 -3.341021537780761719e+00 7.486254692077636719e+00 1.243569850921630859e+00 1.911880373954772949e+00
3.722000000000000000e+03 6.341836547851562500e+01 -1.198280453681945801e+00 -3.754820585250854492e+00 8.435604095458984375e+00 1.404235124588012695e+00 4.357172966003417969e+00
3.723000000000000000e+03 5.188907623291015625e+01 -2.091191673278808594e+01 9.661421775817871094e-01 1.497720599174499512e+00 7.391588687896728516e-01 2.240142039954662323e-02
3.724000000000000000e+03 6.613622283935546875e+01 1.578535747528076172e+01 -8.563685417175292969e-01 8.427910804748535156e+00 2.271462917327880859e+00 -1.137818813323974609e+00
3.725000000000000000e+03 7.337701416015625000e+01 -1.586103248596191406e+01 9.575498104095458984e-01 1.040204715728759766e+01 3.407879114151000977e+00 3.915877044200897217e-01
3.726000000000000000e+03 7.509652709960937500e+01 1.028326675295829773e-01 -2.523887395858764648e+00 4.712405681610107422e+00 6.565554738044738770e-01 7.023786306381225586e-01
3.727000000000000000e+03 7.595286560058593750e+01 1.231467723846435547e+00 -3.394290447235107422e+00 7.972269058227539062e+00 1.373393654823303223e+00 9.239539504051208496e-02
3.728000000000000000e+03 6.671016693115234375e+01 -1.217977166175842285e+00 -3.669824123382568359e+00 1.250464797019958496e+00 -7.258077859878540039e-01 1.317582249641418457e+00
3.729000000000000000e+03 3.772497940063476562e+01 1.020540523529052734e+01 3.726635694503784180e+00 1.450469684600830078e+01 5.469399929046630859e+00 2.275630474090576172e+00
3.730000000000000000e+03 3.095138359069824219e+01 -7.511460304260253906e+00 7.485242486000061035e-01 2.978694915771484375e+00 1.118165731430053711e+00 -1.085677146911621094e+00
3.731000000000000000e+03 3.764685821533203125e+01 5.451723575592041016e+00 -4.667447805404663086e-01 1.223171997070312500e+01 3.529492616653442383e+00 1.968912720680236816e+00
3.732000000000000000e+03 5.373970031738281250e+01 1.431852340698242188e+00 1.867796063423156738e+00 1.276733589172363281e+01 4.390539646148681641e+00 -7.445525527000427246e-01
3.733000000000000000e+03 4.251396560668945312e+01 -1.572646713256835938e+01 2.259521007537841797e+00 9.502007484436035156e+00 3.528458595275878906e+00 -5.398688912391662598e-01
3.734000000000000000e+03 7.804818725585937500e+01 2.774555778503417969e+01 -3.563773818314075470e-03 6.738211631774902344e+00 2.020394325256347656e+00 2.308041788637638092e-02
3.735000000000000000e+03 7.803239440917968750e+01 1.806443023681640625e+01 8.228589594364166260e-02 6.794024467468261719e+00 2.062893152236938477e+00 -1.573445796966552734e-01
3.736000000000000000e+03 2.001448631286621094e+00 2.755078697204589844e+01 1.923231524415314198e-03 1.384521842002868652e+00 4.159335196018218994e-01 1.238424554467201233e-01
3.737000000000000000e+03 3.071770906448364258e+00 3.406982803344726562e+01 2.310922555625438690e-02 1.095905661582946777e+00 3.357044756412506104e-01 1.114511117339134216e-01
3.738000000000000000e+03 1.824761271476745605e+00 1.788498687744140625e+01 -5.549471825361251831e-02 1.577434420585632324e+00 4.565818905830383301e-01 -1.167713701725006104e-01
3.739000000000000000e+03 2.073571681976318359e+00 -1.788375091552734375e+01 1.152274757623672485e-02 -4.797046184539794922e-01 -1.404545605182647705e-01 -4.567455127835273743e-02
3.740000000000000000e+03 2.197512054443359375e+01 2.633938312530517578e+00 5.920424938201904297e+00 9.769373893737792969e+00 4.706939697265625000e+00 -1.484899282455444336e+00
3.741000000000000000e+03 7.429963684082031250e+01 -1.047069263458251953e+01 1.085221171379089355e+00 9.968759536743164062e+00 3.316194295883178711e+00 9.981298446655273438e-01
3.742000000000000000e+03 7.312055969238281250e+01 -9.699544906616210938e+00 1.139624953269958496e+00 1.045979785919189453e+01 3.479826927185058594e+00 1.360442787408828735e-01
3.743000000000000000e+03 3.831975936889648438e+01 1.350518894195556641e+01 1.408184528350830078e+00 1.150623607635498047e+01 3.874326229095458984e+00 3.117896556854248047e+00
3.744000000000000000e+03 7.741095733642578125e+01 -1.890029907226562500e+01 -2.272575199604034424e-01 7.475248336791992188e+00 2.174397230148315430e+00 -2.764298915863037109e-01
3.745000000000000000e+03 2.948368072509765625e+01 -5.533351421356201172e+00 4.493169188499450684e-01 7.722387313842773438e+00 2.451511383056640625e+00 5.564618110656738281e-01
3.746000000000000000e+03 2.806716680526733398e+00 -2.261984252929687500e+01 1.843269541859626770e-02 -4.084477126598358154e-01 -1.170045062899589539e-01 7.566752843558788300e-03
3.747000000000000000e+03 7.282736206054687500e+01 -7.395050048828125000e+00 -8.528333902359008789e-02 7.955899715423583984e+00 2.361184835433959961e+00 1.272666901350021362e-01
3.748000000000000000e+03 2.591288328170776367e+00 -3.406138229370117188e+01 -1.657508779317140579e-03 -3.192873597145080566e-01 -9.628345817327499390e-02 2.712966874241828918e-02
3.749000000000000000e+03 4.766765594482421875e+01 -1.194503307342529297e+00 -1.290183305740356445e+00 1.446983695030212402e+00 4.704013094305992126e-02 4.436551094055175781e+00
3.750000000000000000e+03 2.707695960998535156e+01 -7.004590034484863281e+00 3.128303527832031250e+00 1.227856349945068359e+01 4.622060298919677734e+00 5.368300676345825195e-01
3.751000000000000000e+03 7.438381195068359375e+01 -1.245006561279296875e+01 1.343615055084228516e+00 1.024154758453369141e+01 3.475548982620239258e+00 8.659336566925048828e-01
3.752000000000000000e+03 7.358299255371093750e+01 -1.188093948364257812e+01 9.639473557472229004e-01 1.164377212524414062e+01 3.782315731048583984e+00 7.091882824897766113e-01
3.753000000000000000e+03 5.446905517578125000e+01 -2.149703025817871094e+01 5.929944515228271484e-01 3.930817127227783203e+00 1.357143521308898926e+00 1.898616194725036621e+00
3.754000000000000000e+03 3.552509546279907227e+00 -3.253303909301757812e+01 -7.678907830268144608e-03 -1.952555626630783081e-01 -6.088034063577651978e-02 3.858564049005508423e-02
3.755000000000000000e+03 6.861548614501953125e+01 -1.755885314941406250e+01 2.221612483263015747e-01 6.676430106163024902e-01 2.669412791728973389e-01 6.205406785011291504e-01
3.756000000000000000e+03 3.988792037963867188e+01 9.271390914916992188e+00 7.810020446777343750e-01 5.990322113037109375e+00 2.031397342681884766e+00 9.828160405158996582e-01
3.757000000000000000e+03 4.440817260742187500e+01 -2.977477788925170898e+00 4.304616749286651611e-01 1.137811851501464844e+01 3.542574167251586914e+00 1.640555381774902344e+00
3.758000000000000000e+03 2.450367355346679688e+01 1.809310722351074219e+01 -1.660097360610961914e+00 4.301293373107910156e+00 7.923588752746582031e-01 -2.700695991516113281e+00
3.759000000000000000e+03 3.150090599060058594e+01 -1.004648303985595703e+01 1.224944472312927246e+00 2.973519563674926758e+00 1.259539246559143066e+00 -1.781673908233642578e+00
3.760000000000000000e+03 3.190484428405761719e+01 -1.069144439697265625e+01 1.133905768394470215e+00 2.720379590988159180e+00 1.156285643577575684e+00 -1.717322587966918945e+00
3.761000000000000000e+03 2.763753318786621094e+01 2.071045398712158203e+00 -4.075237751007080078e+00 -5.110104680061340332e-01 -1.375874400138854980e+00 -1.522798776626586914e+00
3.762000000000000000e+03 1.512202644348144531e+01 1.404141330718994141e+01 -1.816450953483581543e+00 -4.334197044372558594e-01 -6.749612092971801758e-01 -7.851975560188293457e-01
3.763000000000000000e+03 2.010716629028320312e+01 -9.140279769897460938e+00 -2.960476875305175781e-01 -9.718566387891769409e-02 -1.179700046777725220e-01 2.078513428568840027e-02
3.764000000000000000e+03 1.617506790161132812e+01 4.206851482391357422e+00 6.174757003784179688e+00 5.693390965461730957e-01 2.023228883743286133e+00 -2.467641830444335938e+00
3.765000000000000000e+03 2.349981307983398438e+00 3.552504348754882812e+01 1.562300138175487518e-02 1.060833096504211426e+00 3.229368329048156738e-01 7.600888609886169434e-02
3.766000000000000000e+03 7.663616180419921875e+01 2.999426269531250000e+01 -7.503962144255638123e-03 6.657043933868408203e+00 1.994862079620361328e+00 2.010095119476318359e-02
3.767000000000000000e+03 7.666744995117187500e+01 -3.430217361450195312e+01 2.194897457957267761e-02 6.447928428649902344e+00 1.940963268280029297e+00 7.354418188333511353e-02
3.768000000000000000e+03 3.361525297164916992e+00 3.579075622558593750e+01 2.613020129501819611e-02 1.057889103889465332e+00 3.252057731151580811e-01 9.212205559015274048e-02
3.769000000000000000e+03 7.466778564453125000e+01 2.985555458068847656e+01 -1.160190347582101822e-02 6.528686046600341797e+00 1.955125331878662109e+00 1.667433604598045349e-02
3.770000000000000000e+03 7.656935119628906250e+01 -3.277306747436523438e+01 3.513073548674583435e-02 6.470697402954101562e+00 1.951748490333557129e+00 1.110702008008956909e-01
3.771000000000000000e+03 7.604217529296875000e+01 -3.187734985351562500e+01 5.267338454723358154e-02 6.446620941162109375e+00 1.949788331985473633e+00 1.380788832902908325e-01
3.772000000000000000e+03 3.455895423889160156e+00 -3.406517028808593750e+01 2.086295746266841888e-03 -1.888159960508346558e-01 -5.601890757679939270e-02 4.313290119171142578e-02
3.773000000000000000e+03 4.075171947479248047e+00 3.269543457031250000e+01 3.676340728998184204e-02 1.109517812728881836e+00 3.438843786716461182e-01 1.572254598140716553e-01
3.774000000000000000e+03 7.646295166015625000e+01 3.349881744384765625e+01 -4.042605403810739517e-03 6.650901794433593750e+00 1.994057655334472656e+00 1.265787053853273392e-02
3.775000000000000000e+03 7.627396392822265625e+01 3.220046997070312500e+01 -7.355990819633007050e-03 6.632317066192626953e+00 1.987488269805908203e+00 1.849532872438430786e-02
3.776000000000000000e+03 7.771508026123046875e+01 -3.674737548828125000e+01 7.893915288150310516e-03 6.505449295043945312e+00 1.954002976417541504e+00 3.640727326273918152e-02
3.777000000000000000e+03 7.728635406494140625e+01 -1.482657909393310547e+01 3.805741071701049805e-01 7.609241008758544922e+00 2.396944522857666016e+00 -1.164015531539916992e-01
3.778000000000000000e+03 1.168663692474365234e+01 1.191019344329833984e+01 -1.263753652572631836e+00 5.304704904556274414e-01 -2.199849486351013184e-01 -4.771664738655090332e-01
3.779000000000000000e+03 2.766564941406250000e+01 1.395645713806152344e+01 8.970501422882080078e-01 3.320075035095214844e+00 1.265137553215026855e+00 2.731742560863494873e-01
3.780000000000000000e+03 2.711511802673339844e+01 1.443477916717529297e+01 2.142147541046142578e+00 5.639558792114257812e+00 2.334511995315551758e+00 8.313249349594116211e-01
3.781000000000000000e+03 7.662615966796875000e+01 -4.849182605743408203e+00 -1.740265786647796631e-01 8.728161811828613281e+00 2.566240549087524414e+00 1.632589578628540039e+00
3.782000000000000000e+03 1.270434665679931641e+01 1.286921691894531250e+01 -1.427787899971008301e+00 1.442525833845138550e-01 -3.850605785846710205e-01 -5.441952347755432129e-01
3.783000000000000000e+03 7.812210083007812500e+01 1.502186965942382812e+01 4.426566138863563538e-02 7.165161132812500000e+00 2.162827968597412109e+00 -3.824818134307861328e-01
3.784000000000000000e+03 7.809866333007812500e+01 1.654467391967773438e+01 8.150335401296615601e-02 6.938412666320800781e+00 2.105974912643432617e+00 -2.838280200958251953e-01
3.785000000000000000e+03 4.315578079223632812e+01 -1.162849903106689453e+01 3.471984863281250000e-01 9.169223785400390625e+00 2.854926586151123047e+00 4.218789339065551758e-01
3.786000000000000000e+03 4.271393585205078125e+01 -1.115003108978271484e+01 1.665217429399490356e-01 9.727708816528320312e+00 2.968269348144531250e+00 4.733472168445587158e-01
3.787000000000000000e+03 4.258291625976562500e+01 -1.310168504714965820e+00 -2.253313302993774414e+00 3.712240219116210938e+00 4.376780390739440918e-01 -3.614943623542785645e-01
3.788000000000000000e+03 4.255621337890625000e+01 -4.375952720642089844e+00 2.492347240447998047e+00 6.881826877593994141e+00 2.812252283096313477e+00 -4.185096919536590576e-01
3.789000000000000000e+03 2.905467748641967773e+00 -1.623162269592285156e+01 2.445218712091445923e-02 -3.619594573974609375e-01 -1.012521833181381226e-01 -8.102702349424362183e-02
3.790000000000000000e+03 2.045968532562255859e+00 -1.546299648284912109e+01 1.300451438874006271e-02 -4.309625923633575439e-01 -1.253874301910400391e-01 -7.120065391063690186e-02
3.791000000000000000e+03 7.706262207031250000e+01 -2.530591773986816406e+01 -2.611736394464969635e-02 6.863953590393066406e+00 2.051350831985473633e+00 2.224816530942916870e-01
3.792000000000000000e+03 2.018203735351562500e+00 1.477892398834228516e+01 -9.273119270801544189e-02 1.241683006286621094e+00 3.446855545043945312e-01 -3.880645334720611572e-01
3.793000000000000000e+03 7.081079101562500000e+01 1.040028285980224609e+01 4.275829493999481201e-01 3.350233316421508789e+00 1.133344888687133789e+00 9.515054225921630859e-01
3.794000000000000000e+03 6.933073425292968750e+01 -2.717737674713134766e+00 -3.509056329727172852e+00 3.899613142013549805e+00 1.171670630574226379e-01 -1.360028505325317383e+00
3.795000000000000000e+03 5.676564407348632812e+01 -3.212001621723175049e-01 -2.399068117141723633e+00 1.752381682395935059e+00 -1.940059363842010498e-01 -4.500218391418457031e+00
3.796000000000000000e+03 5.483480834960937500e+01 -6.471000194549560547e+00 -7.929435968399047852e-01 5.001208782196044922e+00 1.262479543685913086e+00 -1.121109247207641602e+00
3.797000000000000000e+03 5.043208312988281250e+01 6.326365470886230469e+00 1.522836387157440186e-01 8.533872604370117188e+00 2.605846881866455078e+00 2.225098162889480591e-01
3.798000000000000000e+03 7.750883483886718750e+01 6.442581653594970703e+00 1.349259972572326660e+00 1.208954715728759766e+01 4.031641960144042969e+00 -1.481068372726440430e+00
3.799000000000000000e+03 7.799823760986328125e+01 7.641090869903564453e+00 1.220709681510925293e+00 9.566658020019531250e+00 3.236210346221923828e+00 -2.622459530830383301e-01
3.800000000000000000e+03 5.052523803710937500e+01 -2.289673089981079102e+00 -3.522884368896484375e+00 2.298290729522705078e+00 -3.673780560493469238e-01 3.064609467983245850e-01
3.801000000000000000e+03 5.022085571289062500e+01 -3.345762729644775391e+00 -5.116600036621093750e+00 7.422702908515930176e-01 -1.312298893928527832e+00 5.075264573097229004e-01
3.802000000000000000e+03 4.140226745605468750e+01 -1.025547027587890625e+01 -1.849184185266494751e-01 9.887051582336425781e+00 2.910640001296997070e+00 -1.798880249261856079e-01
3.803000000000000000e+03 4.233645248413085938e+01 -1.058296203613281250e+01 -1.217809244990348816e-01 9.730751991271972656e+00 2.882691383361816406e+00 4.439191222190856934e-01
3.804000000000000000e+03 2.631403350830078125e+01 -4.093000411987304688e+00 2.250123500823974609e+00 1.058480930328369141e+01 3.850479841232299805e+00 2.963882088661193848e-01
3.805000000000000000e+03 2.598671531677246094e+01 -3.550340414047241211e+00 2.549494504928588867e+00 9.404899597167968750e+00 3.586318016052246094e+00 -6.198633313179016113e-01
3.806000000000000000e+03 5.115576171875000000e+01 -4.466169357299804688e+00 -4.320595741271972656e+00 1.222956895828247070e+00 -9.292915463447570801e-01 1.013019680976867676e+00
3.807000000000000000e+03 5.489988708496093750e+01 -7.602220058441162109e+00 -9.448221325874328613e-02 5.236585617065429688e+00 1.542630910873413086e+00 -1.062142491340637207e+00
3.808000000000000000e+03 5.939167404174804688e+01 3.881782591342926025e-01 -3.975631713867187500e+00 1.483499884605407715e+00 -7.476395368576049805e-01 -5.818406939506530762e-01
3.809000000000000000e+03 5.977940368652343750e+01 -1.356111019849777222e-01 -3.030188083648681641e+00 2.765191555023193359e+00 -7.949894666671752930e-02 8.523016422986984253e-02
3.810000000000000000e+03 2.020099449157714844e+01 4.085608959197998047e+00 7.157184123992919922e+00 2.032981157302856445e+00 2.757049560546875000e+00 -4.174092710018157959e-01
3.811000000000000000e+03 1.961099624633789062e+00 -1.307611083984375000e+01 4.844615701586008072e-03 -3.635447025299072266e-01 -1.076100245118141174e-01 -8.854589611291885376e-02
3.812000000000000000e+03 7.751179504394531250e+01 9.435381889343261719e+00 -2.254955321550369263e-01 9.623703002929687500e+00 2.819462299346923828e+00 2.566401660442352295e-01
3.813000000000000000e+03 7.653189849853515625e+01 9.077673912048339844e+00 1.958435326814651489e-01 1.100078392028808594e+01 3.358988285064697266e+00 -8.434919714927673340e-01
3.814000000000000000e+03 4.953139495849609375e+01 -2.136462211608886719e+00 -3.157666444778442383e+00 2.123563587665557861e-01 -8.835930824279785156e-01 1.449676036834716797e+00
3.815000000000000000e+03 2.727551460266113281e+00 -6.131119251251220703e+00 -1.987558975815773010e-02 -9.476474672555923462e-02 -3.439209982752799988e-02 -9.777723997831344604e-02
3.816000000000000000e+03 2.518592453002929688e+01 -2.599629878997802734e+00 2.773395538330078125e+00 7.598480224609375000e+00 3.111562728881835938e+00 -2.551159620285034180e+00
3.817000000000000000e+03 7.606431579589843750e+01 -9.333680868148803711e-01 -1.430797815322875977e+00 7.455351829528808594e+00 1.807366132736206055e+00 1.015530347824096680e+00
3.818000000000000000e+03 3.393069028854370117e+00 5.297262191772460938e+00 7.403865456581115723e-01 -4.743621349334716797e-01 7.980731874704360962e-02 3.376124054193496704e-02
3.819000000000000000e+03 5.087970352172851562e+01 -2.896221399307250977e+00 -4.072203636169433594e+00 2.366766929626464844e+00 -5.116310119628906250e-01 1.388254016637802124e-01
3.820000000000000000e+03 6.580297851562500000e+01 -1.569696617126464844e+01 -5.911793112754821777e-01 2.520385503768920898e+00 5.787618160247802734e-01 -6.672734618186950684e-01
3.821000000000000000e+03 6.723729705810546875e+01 -1.647415924072265625e+01 -6.818122863769531250e-01 1.186633110046386719e+00 1.514462381601333618e-01 -2.713951170444488525e-01
3.822000000000000000e+03 2.964156150817871094e+01 8.174336552619934082e-01 2.662641286849975586e+00 6.797598361968994141e+00 2.838072061538696289e+00 2.898250818252563477e+00
3.823000000000000000e+03 2.640458869934082031e+01 2.572149224579334259e-02 2.948565721511840820e+00 1.611476421356201172e+00 1.368012666702270508e+00 -2.644367694854736328e+00
3.824000000000000000e+03 2.705827331542968750e+01 9.598845839500427246e-01 1.089759945869445801e+00 1.357677429914474487e-01 3.676583170890808105e-01 -1.672254085540771484e+00
3.825000000000000000e+03 4.352645874023437500e+01 1.357556629180908203e+01 7.102785706520080566e-01 1.380775451660156250e+00 6.273161768913269043e-01 1.347583889961242676e+00
3.826000000000000000e+03 7.742047882080078125e+01 -1.739524650573730469e+01 -9.222542494535446167e-02 7.541972160339355469e+00 2.234924077987670898e+00 -4.169912636280059814e-01
3.827000000000000000e+03 2.511291313171386719e+01 -2.957281172275543213e-01 2.043327331542968750e+00 3.890816926956176758e+00 1.780243277549743652e+00 -4.788579463958740234e+00
3.828000000000000000e+03 6.808522033691406250e+01 1.228489780426025391e+01 2.544976472854614258e+00 9.371872901916503906e+00 3.575054883956909180e+00 1.510153889656066895e+00
3.829000000000000000e+03 6.738410186767578125e+01 1.257650852203369141e+01 2.757032155990600586e+00 1.110033321380615234e+01 4.157209873199462891e+00 1.201842904090881348e+00
3.830000000000000000e+03 3.594256591796875000e+01 6.263348102569580078e+00 -5.898935198783874512e-01 1.022859668731689453e+01 2.891611099243164062e+00 2.124682188034057617e+00
3.831000000000000000e+03 7.746076202392578125e+01 -6.943887710571289062e+00 -3.164611989632248878e-04 9.097344398498535156e+00 2.729108572006225586e+00 1.627016901969909668e+00
3.832000000000000000e+03 4.386816787719726562e+01 -1.198757457733154297e+01 3.546699583530426025e-01 8.044547080993652344e+00 2.519764900207519531e+00 1.683871597051620483e-01
3.833000000000000000e+03 2.577904510498046875e+01 1.838927650451660156e+01 -2.096300840377807617e+00 5.865386962890625000e+00 1.130725860595703125e+00 2.767398655414581299e-01
3.834000000000000000e+03 2.177744293212890625e+01 -1.015529632568359375e+01 1.649870991706848145e+00 -1.499994099140167236e-01 4.499614834785461426e-01 8.515370488166809082e-01
3.835000000000000000e+03 7.176376342773437500e+01 -6.388728141784667969e+00 -5.545833706855773926e-01 5.998581886291503906e+00 1.633199572563171387e+00 -7.740771770477294922e-01
3.836000000000000000e+03 7.102930450439453125e+01 -4.938678264617919922e+00 -1.341581463813781738e+00 4.415863513946533203e+00 9.222846031188964844e-01 -1.049359917640686035e+00
3.837000000000000000e+03 5.563837051391601562e+01 1.020215129852294922e+01 -1.454264968633651733e-01 4.953966140747070312e+00 1.442561984062194824e+00 7.114821672439575195e-01
3.838000000000000000e+03 5.401101303100585938e+01 9.191394805908203125e+00 -5.781292319297790527e-01 9.446266174316406250e+00 2.660441160202026367e+00 -2.674823813140392303e-02
3.839000000000000000e+03 3.714096450805664062e+01 -1.691811752319335938e+01 7.832047939300537109e-01 1.331846356391906738e+00 6.345153450965881348e-01 -6.607998013496398926e-01
3.840000000000000000e+03 7.730277252197265625e+01 -3.442462205886840820e+00 -2.025357931852340698e-01 9.614157676696777344e+00 2.823486566543579102e+00 1.474348306655883789e+00
3.841000000000000000e+03 7.770289611816406250e+01 -4.019597053527832031e+00 -1.105507090687751770e-01 1.009671688079833984e+01 2.995849847793579102e+00 1.460605263710021973e+00
3.842000000000000000e+03 2.235122919082641602e+00 4.290695190429687500e+00 2.758843898773193359e-01 -5.968041419982910156e-01 -9.627592563629150391e-02 3.647754788398742676e-01
3.843000000000000000e+03 6.006970596313476562e+01 1.316688346862792969e+01 -1.473808288574218750e+00 -1.405156552791595459e-01 -4.842971861362457275e-01 -4.005706012248992920e-01
3.844000000000000000e+03 3.839018249511718750e+01 1.273846626281738281e+01 3.048193216323852539e+00 1.129164314270019531e+01 4.301950931549072266e+00 3.450021266937255859e+00
3.845000000000000000e+03 3.845545196533203125e+01 1.205595779418945312e+01 4.205067634582519531e+00 1.157334232330322266e+01 4.733522891998291016e+00 2.734353542327880859e+00
3.846000000000000000e+03 6.144160461425781250e+01 -8.308671951293945312e+00 5.995479822158813477e-01 9.097749710083007812e+00 2.909189462661743164e+00 1.125985503196716309e+00
3.847000000000000000e+03 1.588657379150390625e+01 -6.788397789001464844e+00 -4.088168442249298096e-01 1.455365419387817383e-01 -7.898408919572830200e-02 6.204958260059356689e-02
3.848000000000000000e+03 1.669890975952148438e+01 -5.550866603851318359e+00 -4.573854207992553711e-01 -2.624933980405330658e-02 -1.450904309749603271e-01 2.256817817687988281e-01
3.849000000000000000e+03 6.642214202880859375e+01 9.355714797973632812e+00 8.580281734466552734e-01 1.514556407928466797e+01 4.801077842712402344e+00 -9.294835850596427917e-03
3.850000000000000000e+03 5.311280441284179688e+01 7.808161735534667969e+00 -1.080024957656860352e+00 1.168685913085937500e+01 3.182050228118896484e+00 -5.722139477729797363e-01
3.851000000000000000e+03 1.822550773620605469e+01 6.782727241516113281e+00 -2.803048372268676758e+00 -1.744445681571960449e+00 -1.364248156547546387e+00 -2.201951980590820312e+00
3.852000000000000000e+03 2.069439888000488281e+01 6.707232952117919922e+00 4.758714139461517334e-01 3.091471910476684570e+00 1.070202946662902832e+00 -4.804838895797729492e-01
3.853000000000000000e+03 6.508092498779296875e+01 5.556630134582519531e+00 2.088279277086257935e-01 7.072592258453369141e+00 2.184426069259643555e+00 9.214929938316345215e-01
3.854000000000000000e+03 6.552998352050781250e+01 5.987744808197021484e+00 -1.518090255558490753e-02 8.148749351501464844e+00 2.440070390701293945e+00 4.580513536930084229e-01
3.855000000000000000e+03 3.582022094726562500e+01 1.711024856567382812e+01 -1.492662668228149414e+00 4.348668098449707031e+00 8.568015694618225098e-01 -2.139139413833618164e+00
3.856000000000000000e+03 6.605779266357421875e+01 -1.468580603599548340e+00 -3.215137958526611328e+00 -1.329204440116882324e-01 -1.004417538642883301e+00 2.066529750823974609e+00
3.857000000000000000e+03 6.593408966064453125e+01 -8.095883131027221680e-01 -2.033306360244750977e+00 1.950428128242492676e+00 -2.486348338425159454e-02 3.864796876907348633e+00
3.858000000000000000e+03 3.778335571289062500e+01 -2.593661546707153320e+00 -3.233776092529296875e+00 5.983630657196044922e+00 8.249564170837402344e-01 -2.859790086746215820e+00
3.859000000000000000e+03 3.622342681884765625e+01 -1.248365640640258789e+00 -1.761835694313049316e+00 5.678737640380859375e+00 1.175070643424987793e+00 5.596324205398559570e-01
3.860000000000000000e+03 6.477580261230468750e+01 -1.549988508224487305e+00 -4.001500129699707031e+00 3.819921016693115234e+00 -5.447376891970634460e-02 7.229445934295654297e+00
3.861000000000000000e+03 6.833938598632812500e+01 9.989632606506347656e+00 9.362179040908813477e-01 9.945611953735351562e+00 3.264549016952514648e+00 6.925348192453384399e-02
3.862000000000000000e+03 6.761607360839843750e+01 1.095528030395507812e+01 2.153325796127319336e+00 1.132354354858398438e+01 4.043060779571533203e+00 5.871797204017639160e-01
3.863000000000000000e+03 6.104602813720703125e+01 1.586573314666748047e+01 7.740118503570556641e-01 1.162007808685302734e+00 5.808058977127075195e-01 -1.087100617587566376e-02
3.864000000000000000e+03 5.737625885009765625e+01 -1.632040214538574219e+01 1.662138700485229492e+00 1.147478294372558594e+01 3.941076517105102539e+00 6.786860823631286621e-01
3.865000000000000000e+03 1.493503379821777344e+01 1.297712802886962891e+01 -1.840800166130065918e+00 -6.367560625076293945e-01 -7.432668805122375488e-01 -1.021271467208862305e+00
3.866000000000000000e+03 4.191904067993164062e+01 1.185173225402832031e+01 1.674831390380859375e+00 1.691157460212707520e+00 1.009796619415283203e+00 1.670726776123046875e+00
3.867000000000000000e+03 3.816009902954101562e+01 1.625426673889160156e+01 -2.070788383483886719e+00 8.044730186462402344e+00 1.792182683944702148e+00 6.065344810485839844e-01
3.868000000000000000e+03 4.849409103393554688e+01 3.139876127243041992e+00 1.368032693862915039e+00 3.279099702835083008e+00 1.394139647483825684e+00 1.871190309524536133e+00
3.869000000000000000e+03 7.551451873779296875e+01 9.820173263549804688e+00 -1.020202159881591797e+00 9.718360900878906250e+00 2.609447479248046875e+00 -2.790924787521362305e+00
3.870000000000000000e+03 7.505477142333984375e+01 9.328684806823730469e+00 -4.093310534954071045e-01 8.351566314697265625e+00 2.382670640945434570e+00 -3.568909645080566406e+00
3.871000000000000000e+03 4.620575332641601562e+01 -1.284229946136474609e+01 1.088484302163124084e-01 3.605356931686401367e+00 1.114261627197265625e+00 -7.045595049858093262e-01
3.872000000000000000e+03 4.570142364501953125e+01 -1.309984588623046875e+01 3.081494867801666260e-01 4.508498191833496094e+00 1.444994330406188965e+00 -6.505902409553527832e-01
3.873000000000000000e+03 6.601047515869140625e+01 6.427152633666992188e+00 -1.669894903898239136e-01 9.500025749206542969e+00 2.799911022186279297e+00 9.701306116767227650e-04
3.874000000000000000e+03 2.796760940551757812e+01 1.252333045005798340e+00 -2.275672256946563721e-01 1.337984919548034668e+00 3.331253230571746826e-01 -4.555414021015167236e-01
3.875000000000000000e+03 5.260233688354492188e+01 1.259597492218017578e+01 2.282205104827880859e+00 1.166852092742919922e+01 4.185217857360839844e+00 7.323033213615417480e-01
3.876000000000000000e+03 4.457440567016601562e+01 1.548570096492767334e-01 -3.128077268600463867e+00 4.089091300964355469e+00 2.883042693138122559e-01 2.152730464935302734e+00
3.877000000000000000e+03 2.966729164123535156e+01 1.429490566253662109e+01 -8.203920722007751465e-01 -2.875291407108306885e-01 -3.323763608932495117e-01 -2.550157606601715088e-01
3.878000000000000000e+03 2.944256973266601562e+01 1.335362911224365234e+01 -1.801295280456542969e+00 -5.890762805938720703e-01 -7.171114683151245117e-01 -1.294946789741516113e+00
3.879000000000000000e+03 1.772577285766601562e+01 -8.298476219177246094e+00 -4.484212100505828857e-01 1.754314154386520386e-01 -8.189693838357925415e-02 6.385147571563720703e-02
3.880000000000000000e+03 1.840377807617187500e+01 -7.955395221710205078e+00 -5.215752720832824707e-01 8.514704555273056030e-02 -1.309284716844558716e-01 1.250106990337371826e-01
3.881000000000000000e+03 4.095298385620117188e+01 -2.671713590621948242e+00 5.887224674224853516e-01 2.883950710296630859e+00 1.041801929473876953e+00 -2.750611782073974609e+00
3.882000000000000000e+03 7.333375549316406250e+01 -7.807197570800781250e+00 2.117506712675094604e-01 8.556358337402343750e+00 2.630432605743408203e+00 6.433689594268798828e-01
3.883000000000000000e+03 7.790664672851562500e+01 2.556029701232910156e+01 -2.868452342227101326e-03 6.719968318939208984e+00 2.015130043029785156e+00 2.988572604954242706e-02
3.884000000000000000e+03 6.422226715087890625e+01 5.399376869201660156e+00 3.231464922428131104e-01 5.117560386657714844e+00 1.632212162017822266e+00 1.373108983039855957e+00
3.885000000000000000e+03 2.839515876770019531e+01 -6.056689023971557617e-01 7.351530075073242188e+00 4.992906093597412109e+00 3.703330755233764648e+00 2.237718820571899414e+00
3.886000000000000000e+03 8.490542411804199219e+00 4.894270420074462891e+00 5.354873657226562500e+00 1.343465924263000488e+00 2.009501934051513672e+00 -1.629398941993713379e+00
3.887000000000000000e+03 4.250248718261718750e+01 -8.176615715026855469e+00 8.157875388860702515e-02 9.062662124633789062e+00 2.743272304534912109e+00 7.042775750160217285e-01
3.888000000000000000e+03 4.375408935546875000e+01 -9.064895629882812500e+00 -3.106438815593719482e-01 9.435183525085449219e+00 2.737361907958984375e+00 3.973020017147064209e-01
3.889000000000000000e+03 3.820276260375976562e+01 1.527296638488769531e+01 -1.539220929145812988e+00 9.424790382385253906e+00 2.365670919418334961e+00 1.633694767951965332e+00
3.890000000000000000e+03 3.742396926879882812e+01 1.420114898681640625e+01 -1.065966367721557617e+00 1.299849128723144531e+01 3.579757452011108398e+00 9.426345825195312500e-01
3.891000000000000000e+03 2.164269065856933594e+01 8.671553611755371094e+00 -3.582437276840209961e+00 4.169523239135742188e+00 1.761258244514465332e-01 -2.056547254323959351e-01
3.892000000000000000e+03 4.272789382934570312e+01 -1.323500728607177734e+01 1.217958569526672363e+00 9.916672706604003906e+00 3.340389251708984375e+00 -3.003269433975219727e-02
3.893000000000000000e+03 4.226837539672851562e+01 -1.375762367248535156e+01 1.570861697196960449e+00 1.084028434753417969e+01 3.723343849182128906e+00 3.086382746696472168e-01
3.894000000000000000e+03 5.543899917602539062e+01 -6.914544582366943359e+00 -4.067011177539825439e-01 5.447353363037109375e+00 1.512195587158203125e+00 -9.532937407493591309e-01
3.895000000000000000e+03 6.163126754760742188e+01 -4.508339881896972656e+00 2.016217470169067383e+00 8.977051734924316406e+00 3.297980785369873047e+00 1.185517430305480957e+00
3.896000000000000000e+03 1.668847084045410156e+01 1.593539905548095703e+01 -1.889767169952392578e+00 -3.180481791496276855e-01 -6.623446345329284668e-01 -6.636636853218078613e-01
3.897000000000000000e+03 1.602729225158691406e+01 1.549459648132324219e+01 -1.838416814804077148e+00 -3.663104176521301270e-01 -6.614181995391845703e-01 -6.381499171257019043e-01
3.898000000000000000e+03 4.816158294677734375e+01 -1.611251449584960938e+01 1.882747560739517212e-01 1.786198854446411133e+00 5.923420786857604980e-01 -8.785232305526733398e-01
3.899000000000000000e+03 2.803958702087402344e+01 -6.981928825378417969e+00 2.395946025848388672e+00 9.683989524841308594e+00 3.623980522155761719e+00 3.964511454105377197e-01
3.900000000000000000e+03 2.165914154052734375e+01 4.648838043212890625e+00 5.527086257934570312e+00 8.432466506958007812e+00 4.187866210937500000e+00 2.147906720638275146e-01
3.901000000000000000e+03 7.694452667236328125e+01 -2.698848915100097656e+01 1.404511369764804840e-02 6.729531288146972656e+00 2.023072957992553711e+00 2.158014923334121704e-01
3.902000000000000000e+03 7.776962280273437500e+01 -2.867489433288574219e+01 2.282398939132690430e-02 6.746409893035888672e+00 2.030770301818847656e+00 1.429324746131896973e-01
3.903000000000000000e+03 3.884903335571289062e+01 8.018956184387207031e+00 -6.491804122924804688e-01 9.557746887207031250e+00 2.672569990158081055e+00 1.120854139328002930e+00
3.904000000000000000e+03 7.301878452301025391e+00 3.107653141021728516e+00 1.733518123626708984e+00 -1.812473833560943604e-01 4.656812250614166260e-01 1.210787653923034668e+00
3.905000000000000000e+03 6.706437683105468750e+01 1.357898712158203125e+01 1.066501855850219727e+00 1.107389068603515625e+01 3.642117738723754883e+00 1.068705677986145020e+00
3.906000000000000000e+03 7.809336853027343750e+01 1.730150413513183594e+01 9.828155487775802612e-02 6.856983184814453125e+00 2.086579322814941406e+00 -2.318039387464523315e-01
3.907000000000000000e+03 1.115828323364257812e+01 -3.381842613220214844e+00 -2.153045237064361572e-01 7.659575343132019043e-02 -4.161263257265090942e-02 -8.417437784373760223e-03
3.908000000000000000e+03 3.968411636352539062e+01 1.130131626129150391e+01 3.165585756301879883e+00 6.750658035278320312e+00 2.974873065948486328e+00 2.475903272628784180e+00
3.909000000000000000e+03 3.775777816772460938e+01 -1.734806656837463379e+00 -3.002664089202880859e+00 8.112459182739257812e+00 1.532938480377197266e+00 -2.736867904663085938e+00
3.910000000000000000e+03 2.173519611358642578e+00 2.480043029785156250e+01 -1.351770944893360138e-02 1.488006711006164551e+00 4.423466920852661133e-01 1.205741241574287415e-01
3.911000000000000000e+03 4.912739944458007812e+01 -1.695752525329589844e+01 -1.495022475719451904e-01 1.300006985664367676e+00 3.451514244079589844e-01 -6.526942849159240723e-01
3.912000000000000000e+03 5.040901565551757812e+01 -1.759471511840820312e+01 -6.157907843589782715e-01 7.809680700302124023e-01 4.955320060253143311e-02 -2.038125991821289062e-01
3.913000000000000000e+03 4.740666961669921875e+01 3.025998353958129883e+00 8.781172037124633789e-01 2.289625644683837891e+00 9.503228664398193359e-01 1.892220258712768555e+00
3.914000000000000000e+03 2.028496503829956055e+00 2.828765678405761719e+01 2.485670614987611771e-03 1.347681045532226562e+00 4.050500094890594482e-01 1.255922615528106689e-01
3.915000000000000000e+03 3.912158203125000000e+01 -4.967463493347167969e+00 1.552044898271560669e-01 3.907529115676879883e+00 1.218820095062255859e+00 -1.874211192131042480e+00
3.916000000000000000e+03 7.807186889648437500e+01 2.702638816833496094e+01 -3.186572110280394554e-03 6.733968734741210938e+00 2.019234657287597656e+00 2.650623768568038940e-02
3.917000000000000000e+03 5.655432891845703125e+01 1.217920017242431641e+01 3.217058181762695312e-01 3.244032621383666992e+00 1.069721460342407227e+00 1.140687942504882812e+00
3.918000000000000000e+03 7.742294311523437500e+01 -1.334125900268554688e+01 4.837687909603118896e-01 7.636442661285400391e+00 2.436063289642333984e+00 3.052794337272644043e-01
3.919000000000000000e+03 4.504161071777343750e+01 -1.453400969505310059e+00 -2.527787685394287109e+00 6.331459999084472656e+00 1.141101717948913574e+00 4.109202861785888672e+00
3.920000000000000000e+03 4.433050918579101562e+01 -1.641094088554382324e+00 -2.635138511657714844e+00 7.176293849945068359e+00 1.362346529960632324e+00 2.496999502182006836e+00
3.921000000000000000e+03 2.954556703567504883e+00 -3.630463600158691406e+00 -2.966999635100364685e-02 -4.006491601467132568e-02 -2.092047408223152161e-02 -6.522682309150695801e-02
3.922000000000000000e+03 3.823309659957885742e+00 -4.598259449005126953e+00 -4.004887118935585022e-02 -4.480384290218353271e-02 -2.545581385493278503e-02 -9.545839577913284302e-02
3.923000000000000000e+03 7.799895477294921875e+01 1.346075057983398438e+01 -9.237066656351089478e-02 7.484366416931152344e+00 2.217598676681518555e+00 -4.733730256557464600e-01
3.924000000000000000e+03 4.451407241821289062e+01 -1.026584625244140625e+01 -2.507742047309875488e-01 8.013772964477539062e+00 2.328899621963500977e+00 8.993365615606307983e-02
3.925000000000000000e+03 1.787113952636718750e+01 1.582744312286376953e+01 -2.227859973907470703e+00 -4.098835587501525879e-01 -7.913230061531066895e-01 -8.780241608619689941e-01
3.926000000000000000e+03 1.860838532447814941e+00 1.861957740783691406e+01 -6.135583668947219849e-02 1.601374626159667969e+00 4.620056152343750000e-01 -7.423978298902511597e-02
3.927000000000000000e+03 2.570920467376708984e+00 1.715165710449218750e+01 -1.200186088681221008e-01 1.440101146697998047e+00 3.960247635841369629e-01 -2.179035991430282593e-01
3.928000000000000000e+03 5.790192031860351562e+01 -1.261934280395507812e+01 5.253655314445495605e-01 9.547245025634765625e+00 3.021783113479614258e+00 4.073962569236755371e-01
3.929000000000000000e+03 3.426613998413085938e+01 5.178228855133056641e+00 8.376027345657348633e-01 5.594935417175292969e+00 1.929761409759521484e+00 2.028631448745727539e+00
3.930000000000000000e+03 3.365683364868164062e+01 4.684133529663085938e+00 1.014092564582824707e+00 4.266207695007324219e+00 1.584089994430541992e+00 2.167492628097534180e+00
3.931000000000000000e+03 2.284999465942382812e+01 -3.498243913054466248e-02 -7.014996409416198730e-01 8.486049652099609375e+00 2.335364818572998047e+00 -3.733539104461669922e+00
3.932000000000000000e+03 7.713291931152343750e+01 -2.367284011840820312e+01 -8.839263767004013062e-02 7.015194416046142578e+00 2.078040599822998047e+00 1.925401091575622559e-01
3.933000000000000000e+03 7.792706298828125000e+01 -2.449580574035644531e+01 -3.707825392484664917e-02 7.042052268981933594e+00 2.101492166519165039e+00 1.468436270952224731e-01
3.934000000000000000e+03 2.073253870010375977e+00 -1.707546043395996094e+01 1.473889499902725220e-02 -4.655467867851257324e-01 -1.352423727512359619e-01 -5.483094230294227600e-02
3.935000000000000000e+03 7.126688385009765625e+01 -1.760540962219238281e+01 -6.465557217597961426e-01 6.110293865203857422e+00 1.639121413230895996e+00 2.905859708786010742e+00
3.936000000000000000e+03 6.144032287597656250e+01 -7.474483013153076172e+00 7.999945878982543945e-01 9.377263069152832031e+00 3.053177356719970703e+00 1.140478014945983887e+00
3.937000000000000000e+03 2.471347427368164062e+01 -1.517033934593200684e+00 2.393431186676025391e+00 5.941591739654541016e+00 2.500506877899169922e+00 -3.871513128280639648e+00
3.938000000000000000e+03 3.405535221099853516e+00 -2.799313735961914062e+01 2.268947195261716843e-03 -2.759509682655334473e-01 -8.210460841655731201e-02 5.424585938453674316e-02
3.939000000000000000e+03 3.117329359054565430e+00 -2.725684547424316406e+01 3.814134281128644943e-03 -3.295817077159881592e-01 -9.773027151823043823e-02 4.317639023065567017e-02
3.940000000000000000e+03 5.080414199829101562e+01 9.668494224548339844e+00 3.066070973873138428e-01 1.416408538818359375e+01 4.341207504272460938e+00 1.168033361434936523e+00
3.941000000000000000e+03 1.777145957946777344e+01 6.300290584564208984e+00 -1.721691727638244629e+00 -1.439227581024169922e+00 -9.482758045196533203e-01 -1.901713252067565918e+00
3.942000000000000000e+03 1.895549964904785156e+01 6.467883110046386719e+00 4.431115090847015381e-02 -5.210317373275756836e-01 -1.430161744356155396e-01 -1.013521432876586914e+00
3.943000000000000000e+03 5.321916580200195312e+01 -4.444898605346679688e+00 -3.048834085464477539e+00 4.562064170837402344e+00 4.539689719676971436e-01 -1.282018184661865234e+00
3.944000000000000000e+03 1.920988464355468750e+01 1.682042884826660156e+01 -2.270402908325195312e+00 -3.673687875270843506e-01 -7.913315296173095703e-01 -7.456966042518615723e-01
3.945000000000000000e+03 2.295893669128417969e+01 8.074259757995605469e+00 -1.964132428169250488e+00 7.721328258514404297e+00 1.727158784866333008e+00 1.665885210037231445e+00
3.946000000000000000e+03 2.209326744079589844e+01 1.381325125694274902e+00 1.070926904678344727e+00 9.258463859558105469e+00 3.098817110061645508e+00 -2.311313390731811523e+00
3.947000000000000000e+03 5.620176792144775391e+00 -4.516602993011474609e+00 -7.607182860374450684e-02 -1.068033184856176376e-02 -2.602564916014671326e-02 -1.117007508873939514e-01
3.948000000000000000e+03 3.651873779296875000e+01 -1.501171779632568359e+01 -2.922753393650054932e-01 1.112059950828552246e+00 2.459353804588317871e-01 -5.521913766860961914e-01
3.949000000000000000e+03 7.690775299072265625e+01 2.501975822448730469e+01 4.715501854661852121e-04 6.676827907562255859e+00 2.003189802169799805e+00 3.216744959354400635e-02
3.950000000000000000e+03 7.681453704833984375e+01 2.416479492187500000e+01 3.709313459694385529e-03 6.674855232238769531e+00 2.003569364547729492e+00 3.438000753521919250e-02
3.951000000000000000e+03 5.892071151733398438e+01 1.332730293273925781e+01 -4.990641772747039795e-01 7.893373966217041016e-01 8.708196878433227539e-02 5.164903402328491211e-01
3.952000000000000000e+03 5.818187713623046875e+01 1.288768672943115234e+01 -2.314193844795227051e-01 1.242370009422302246e+00 3.032851815223693848e-01 6.931814551353454590e-01
3.953000000000000000e+03 3.019510841369628906e+01 -7.759826660156250000e+00 1.310361504554748535e+00 4.804380416870117188e+00 1.834422588348388672e+00 -1.226073741912841797e+00
3.954000000000000000e+03 4.502244567871093750e+01 1.830632567405700684e+00 -1.436298251152038574e+00 1.986249804496765137e+00 1.649854630231857300e-01 1.141761779785156250e+00
3.955000000000000000e+03 4.534283065795898438e+01 1.140104532241821289e+00 -1.992940902709960938e+00 3.077780246734619141e+00 3.254518210887908936e-01 2.195590019226074219e+00
3.956000000000000000e+03 4.710650634765625000e+01 -1.024225592613220215e+00 -9.010463356971740723e-01 2.159538507461547852e+00 3.775476217269897461e-01 4.519507884979248047e+00
3.957000000000000000e+03 4.757523345947265625e+01 -1.873199582099914551e+00 -5.711430907249450684e-01 1.415164023637771606e-01 -1.288879960775375366e-01 4.356689929962158203e+00
3.958000000000000000e+03 6.738710784912109375e+01 9.227705955505371094e+00 5.434064865112304688e-01 1.219113731384277344e+01 3.820363283157348633e+00 -9.405982494354248047e-01
3.959000000000000000e+03 2.615049839019775391e+00 1.160930538177490234e+01 -1.165755540132522583e-01 7.253966331481933594e-01 1.826463192701339722e-01 -7.786097526550292969e-01
3.960000000000000000e+03 4.615590667724609375e+01 1.639017343521118164e+00 -7.317337393760681152e-01 2.413725376129150391e+00 5.045974254608154297e-01 2.365522146224975586e+00
3.961000000000000000e+03 2.648350000381469727e+00 7.516106605529785156e+00 3.341689109802246094e-01 -2.042335122823715210e-01 3.898062184453010559e-02 -5.776542425155639648e-01
3.962000000000000000e+03 2.848568153381347656e+01 -2.444244146347045898e+00 4.112442016601562500e+00 8.965445518493652344e+00 3.923366069793701172e+00 3.774492979049682617e+00
3.963000000000000000e+03 2.723796606063842773e+00 -1.225907230377197266e+01 6.856426596641540527e-03 -2.794372439384460449e-01 -8.177424222230911255e-02 -1.188929378986358643e-01
3.964000000000000000e+03 2.680777311325073242e+00 -1.148622322082519531e+01 6.444829981774091721e-03 -2.592868506908416748e-01 -7.585260272026062012e-02 -1.194990277290344238e-01
3.965000000000000000e+03 5.785110855102539062e+01 -1.479815578460693359e+01 1.058486700057983398e+00 1.044802951812744141e+01 3.451954841613769531e+00 2.130278199911117554e-01
3.966000000000000000e+03 5.836830520629882812e+01 -1.577917194366455078e+01 1.448092818260192871e+00 9.687873840332031250e+00 3.340790033340454102e+00 3.213064372539520264e-01
3.967000000000000000e+03 2.598296403884887695e+00 -7.688047409057617188e+00 -1.240507699549198151e-02 -1.413930207490921021e-01 -4.613943025469779968e-02 -1.089620366692543030e-01
3.968000000000000000e+03 2.645148754119873047e+00 -6.921615123748779297e+00 -1.286118011921644211e-02 -1.193031817674636841e-01 -3.964930772781372070e-02 -1.022793948650360107e-01
3.969000000000000000e+03 7.444224548339843750e+01 -1.314692115783691406e+01 1.416270375251770020e+00 1.019828510284423828e+01 3.484366655349731445e+00 8.927835822105407715e-01
3.970000000000000000e+03 1.535131549835205078e+01 1.507392501831054688e+01 -1.747302651405334473e+00 -2.827055156230926514e-01 -6.090024709701538086e-01 -6.190057396888732910e-01
3.971000000000000000e+03 1.394169616699218750e+01 1.425787925720214844e+01 -1.584823966026306152e+00 -6.430823355913162231e-02 -4.947396516799926758e-01 -5.243737101554870605e-01
3.972000000000000000e+03 6.171933364868164062e+01 2.109672069549560547e+00 -3.270520925521850586e+00 3.359224319458007812e+00 2.661102451384067535e-02 1.123409986495971680e+00
3.973000000000000000e+03 7.731027984619140625e+01 -1.968070983886718750e+01 -1.924733221530914307e-01 7.421216011047363281e+00 2.168622732162475586e+00 -1.662265062332153320e-01
3.974000000000000000e+03 7.679587554931640625e+01 -2.966760253906250000e+01 4.280747845768928528e-02 6.588152885437011719e+00 1.989288091659545898e+00 1.657725423574447632e-01
3.975000000000000000e+03 6.874742889404296875e+01 7.567324161529541016e+00 -1.278686642646789551e+00 1.039111614227294922e+01 2.733728885650634766e+00 -1.298940658569335938e+00
3.976000000000000000e+03 2.441247558593750000e+01 -1.192845249176025391e+01 2.337896525859832764e-01 6.104329586029052734e+00 1.901435732841491699e+00 2.833467006683349609e+00
3.977000000000000000e+03 8.050864219665527344e+00 -3.569200992584228516e+00 -1.375050395727157593e-01 3.143576532602310181e-02 -3.182078152894973755e-02 -7.954734563827514648e-02
3.978000000000000000e+03 5.982294464111328125e+01 1.483803558349609375e+01 2.054085284471511841e-01 9.610068798065185547e-01 3.499246239662170410e-01 7.059215903282165527e-01
3.979000000000000000e+03 5.918303298950195312e+01 1.438165473937988281e+01 -2.509463019669055939e-02 1.193370342254638672e+00 3.504827022552490234e-01 9.247556924819946289e-01
3.980000000000000000e+03 7.706105804443359375e+01 1.966460990905761719e+01 1.131870970129966736e-01 6.676594257354736328e+00 2.036934375762939453e+00 -7.569443434476852417e-02
3.981000000000000000e+03 7.710021972656250000e+01 1.878524208068847656e+01 1.376228183507919312e-01 6.692999362945556641e+00 2.049186706542968750e+00 -1.339750587940216064e-01
3.982000000000000000e+03 3.616928863525390625e+01 1.565129089355468750e+01 -2.295509338378906250e+00 6.322640419006347656e+00 1.208139300346374512e+00 -2.546375751495361328e+00
3.983000000000000000e+03 2.543509244918823242e+00 2.276817512512207031e+01 -3.627819940447807312e-02 1.510601162910461426e+00 4.422968924045562744e-01 1.027956753969192505e-01
3.984000000000000000e+03 3.032791852951049805e+00 2.354548263549804688e+01 -3.554461896419525146e-02 1.431928634643554688e+00 4.189152121543884277e-01 1.328383684158325195e-01
3.985000000000000000e+03 3.338174057006835938e+01 -1.430373096466064453e+01 1.953027993440628052e-01 2.664472341537475586e+00 8.579325079917907715e-01 -1.411467671394348145e+00
3.986000000000000000e+03 7.551364898681640625e+01 6.596382260322570801e-01 -3.042160272598266602e+00 6.051590919494628906e+00 9.028292894363403320e-01 9.426057338714599609e-01
3.987000000000000000e+03 7.509602355957031250e+01 1.032576084136962891e+01 -5.592644810676574707e-01 7.317451953887939453e+00 2.027456283569335938e+00 -3.163320064544677734e+00
3.988000000000000000e+03 6.793829345703125000e+01 -2.090336799621582031e+00 -4.253013610839843750e+00 2.731979608535766602e+00 -4.563101828098297119e-01 -1.294941753149032593e-01
3.989000000000000000e+03 6.710912322998046875e+01 2.691515684127807617e+00 1.352931737899780273e+00 7.548783302307128906e+00 2.670514583587646484e+00 1.059656858444213867e+00
3.990000000000000000e+03 7.702461242675781250e+01 2.086698532104492188e+00 -1.956177592277526855e+00 1.078500938415527344e+01 2.648649692535400391e+00 -1.509610533714294434e+00
3.991000000000000000e+03 7.712673950195312500e+01 5.788606405258178711e-01 -1.799133658409118652e+00 1.010748672485351562e+01 2.492505788803100586e+00 -1.839421391487121582e-01
3.992000000000000000e+03 7.693678283691406250e+01 -1.378137469291687012e+00 -8.870067000389099121e-01 9.198457717895507812e+00 2.493435144424438477e+00 1.092869877815246582e+00
3.993000000000000000e+03 7.726160430908203125e+01 -1.935149312019348145e+00 -5.994961261749267578e-01 9.567383766174316406e+00 2.690366268157958984e+00 1.225086927413940430e+00
3.994000000000000000e+03 6.537752532958984375e+01 1.523556137084960938e+01 -8.366927504539489746e-01 8.455052375793457031e+00 2.285507678985595703e+00 -2.499536991119384766e+00
3.995000000000000000e+03 6.385806274414062500e+01 4.784893512725830078e+00 1.924053728580474854e-01 4.331471443176269531e+00 1.357163071632385254e+00 1.435827732086181641e+00
3.996000000000000000e+03 6.326199340820312500e+01 5.177306175231933594e+00 3.636828660964965820e-01 3.214658975601196289e+00 1.073502540588378906e+00 1.287209153175354004e+00
3.997000000000000000e+03 3.535890817642211914e+00 -2.257105636596679688e+01 2.133005671203136444e-02 -3.230031430721282959e-01 -9.050192683935165405e-02 1.077990885823965073e-02
3.998000000000000000e+03 4.334264373779296875e+01 -7.636103153228759766e+00 3.782726824283599854e-01 9.769657135009765625e+00 3.044378757476806641e+00 7.477745413780212402e-01
3.999000000000000000e+03 3.881248092651367188e+01 9.122187614440917969e+00 8.154453039169311523e-01 9.886994361877441406e+00 3.210731983184814453e+00 1.084969401359558105e+00
4.000000000000000000e+03 3.745965957641601562e+00 -3.178183174133300781e+01 -5.135853774845600128e-03 -1.619348824024200439e-01 -5.012121796607971191e-02 5.138269439339637756e-02
4.001000000000000000e+03 2.923140287399291992e+00 2.890179634094238281e+01 1.041894219815731049e-02 1.264152884483337402e+00 3.823715448379516602e-01 1.610333323478698730e-01
4.002000000000000000e+03 3.105700731277465820e+00 3.046592330932617188e+01 1.660705544054508209e-02 1.200302600860595703e+00 3.650729060173034668e-01 1.578907072544097900e-01
4.003000000000000000e+03 4.482172775268554688e+01 -1.394121551513671875e+01 9.996646046638488770e-01 6.007009506225585938e+00 2.102002143859863281e+00 -7.090073227882385254e-01
4.004000000000000000e+03 7.159610748291015625e+01 -1.855374526977539062e+01 -4.561308324337005615e-01 6.292704582214355469e+00 1.750972151756286621e+00 2.321897983551025391e+00
4.005000000000000000e+03 7.233929443359375000e+01 -1.813304519653320312e+01 -8.707363009452819824e-01 7.686583042144775391e+00 2.044754028320312500e+00 1.913739323616027832e+00
4.006000000000000000e+03 5.856439971923828125e+01 -1.804397773742675781e+01 1.825135111808776855e+00 8.851210594177246094e+00 3.202903747558593750e+00 -4.084502756595611572e-01
4.007000000000000000e+03 7.737536621093750000e+01 -1.185856151580810547e+01 5.017430782318115234e-01 7.892763614654541016e+00 2.518352031707763672e+00 7.788999676704406738e-01
4.008000000000000000e+03 7.740834808349609375e+01 -1.260837364196777344e+01 5.272601842880249023e-01 7.764353275299072266e+00 2.487483978271484375e+00 5.441434979438781738e-01
4.009000000000000000e+03 7.688930511474609375e+01 2.910895156860351562e+01 -7.611614186316728592e-03 6.672150611877441406e+00 1.999361634254455566e+00 2.305809035897254944e-02
4.010000000000000000e+03 7.714221191406250000e+01 2.834420967102050781e+01 -6.432694382965564728e-03 6.692349910736083984e+00 2.005775213241577148e+00 2.593220025300979614e-02
4.011000000000000000e+03 7.719048309326171875e+01 1.184963417053222656e+01 -4.611217677593231201e-01 8.123468399047851562e+00 2.298703908920288086e+00 -7.221964001655578613e-01
4.012000000000000000e+03 5.241664505004882812e+01 3.151427030563354492e+00 3.462628602981567383e+00 1.124166011810302734e+01 4.411286830902099609e+00 -3.562305569648742676e-01
4.013000000000000000e+03 5.309376144409179688e+01 1.481280803680419922e+00 2.074737071990966797e+00 1.212743473052978516e+01 4.260651588439941406e+00 -5.312668681144714355e-01
4.014000000000000000e+03 2.242108345031738281e+01 -1.059261035919189453e+01 1.822874069213867188e+00 9.944596886634826660e-01 8.452001214027404785e-01 2.342677116394042969e+00
4.015000000000000000e+03 2.687504768371582031e+00 1.915030670166015625e+01 -9.535208344459533691e-02 1.500994801521301270e+00 4.216927886009216309e-01 -6.661748141050338745e-02
4.016000000000000000e+03 2.550732135772705078e+00 2.065433311462402344e+01 -5.538067966699600220e-02 1.547152638435363770e+00 4.475315809249877930e-01 1.649057120084762573e-02
4.017000000000000000e+03 7.717984771728515625e+01 -2.208556365966796875e+01 -1.710770130157470703e-01 7.184130191802978516e+00 2.103915929794311523e+00 1.006643921136856079e-01
4.018000000000000000e+03 7.715998840332031250e+01 -2.287589645385742188e+01 -1.000505536794662476e-01 7.104860305786132812e+00 2.101442813873291016e+00 1.599052548408508301e-01
4.019000000000000000e+03 6.539143371582031250e+01 5.074036121368408203e+00 3.358198702335357666e-01 7.017504215240478516e+00 2.205997228622436523e+00 6.598544120788574219e-01
4.020000000000000000e+03 1.995632743835449219e+01 5.452095508575439453e+00 4.013856410980224609e+00 1.361279606819152832e+00 1.612540841102600098e+00 -7.534374296665191650e-02
4.021000000000000000e+03 4.129277038574218750e+01 -6.992302417755126953e+00 8.766936063766479492e-01 7.084871292114257812e+00 2.388469457626342773e+00 6.406310945749282837e-03
4.022000000000000000e+03 4.044566345214843750e+01 -7.969733715057373047e+00 4.272778034210205078e-01 6.636286735534667969e+00 2.119069337844848633e+00 -5.949355363845825195e-01
4.023000000000000000e+03 4.998182678222656250e+01 -1.924024581909179688e+01 2.329955436289310455e-02 1.654197335243225098e+00 5.032490491867065430e-01 -8.858992457389831543e-01
4.024000000000000000e+03 5.001528549194335938e+01 -2.010840225219726562e+01 3.064898252487182617e-01 1.996564507484436035e+00 6.909162998199462891e-01 -9.702806472778320312e-01
4.025000000000000000e+03 2.888305664062500000e+00 -1.948331260681152344e+01 2.625164948403835297e-02 -4.015703797340393066e-01 -1.125956177711486816e-01 -3.377566114068031311e-02
4.026000000000000000e+03 2.907141208648681641e+00 -1.867295074462890625e+01 2.297506295144557953e-02 -3.927516341209411621e-01 -1.109329685568809509e-01 -4.545561969280242920e-02
4.027000000000000000e+03 7.428475189208984375e+01 -9.872892379760742188e+00 9.715430140495300293e-01 9.649798393249511719e+00 3.186402320861816406e+00 1.021792769432067871e+00
4.028000000000000000e+03 3.889564895629882812e+01 -4.041988849639892578e+00 -8.786150217056274414e-01 4.082353115081787109e+00 9.611214995384216309e-01 -2.449430704116821289e+00
4.029000000000000000e+03 4.024301052093505859e+00 -2.983487701416015625e+01 3.349474165588617325e-03 -1.576825231313705444e-01 -4.629991203546524048e-02 6.368926912546157837e-02
4.030000000000000000e+03 3.815797090530395508e+00 -2.884743309020996094e+01 -5.133058293722569942e-04 -2.025635987520217896e-01 -6.092307344079017639e-02 5.810666456818580627e-02
4.031000000000000000e+03 5.393705368041992188e+01 2.639684379100799561e-01 -1.997585177421569824e+00 1.035948371887207031e+01 2.508569717407226562e+00 -2.340060472488403320e+00
4.032000000000000000e+03 5.429685974121093750e+01 -3.248223662376403809e-01 -3.365695953369140625e+00 9.716498374938964844e+00 1.905240654945373535e+00 -3.618060827255249023e+00
4.033000000000000000e+03 7.676720428466796875e+01 2.325803375244140625e+01 1.678180508315563202e-02 6.670850753784179688e+00 2.006289720535278320e+00 2.634294889867305756e-02
4.034000000000000000e+03 7.682080078125000000e+01 2.139290237426757812e+01 5.685642361640930176e-02 6.669366359710693359e+00 2.017866849899291992e+00 -5.128568504005670547e-03
4.035000000000000000e+03 3.268274068832397461e+00 3.226131820678710938e+01 2.281433157622814178e-02 1.142046093940734863e+00 3.494580984115600586e-01 1.442349851131439209e-01
4.036000000000000000e+03 3.226539611816406250e+00 3.312674331665039062e+01 2.882694639265537262e-02 1.110692143440246582e+00 3.418557345867156982e-01 1.265656650066375732e-01
4.037000000000000000e+03 6.571952056884765625e+01 1.651660346984863281e+01 -5.724635124206542969e-01 7.361603736877441406e+00 2.036742210388183594e+00 -1.677649259567260742e+00
4.038000000000000000e+03 4.833898544311523438e+01 -8.352278470993041992e-01 -8.298347592353820801e-01 1.635019183158874512e+00 2.415553480386734009e-01 3.668984889984130859e+00
4.039000000000000000e+03 2.647145271301269531e+00 1.013326740264892578e+01 -1.906780642457306385e-03 4.097786545753479004e-01 1.223615631461143494e-01 -8.405407667160034180e-01
4.040000000000000000e+03 2.606049060821533203e+00 1.086749458312988281e+01 -3.435200825333595276e-02 5.665729641914367676e-01 1.596662849187850952e-01 -8.238171339035034180e-01
4.041000000000000000e+03 2.857373046875000000e+01 -4.944293975830078125e+00 1.016062140464782715e+00 9.652269363403320312e+00 3.200499534606933594e+00 1.905735850334167480e+00
4.042000000000000000e+03 7.361557006835937500e+01 -1.259747505187988281e+01 1.322208762168884277e+00 1.158016014099121094e+01 3.870710611343383789e+00 1.217440724372863770e+00
4.043000000000000000e+03 7.431536865234375000e+01 -1.110025119781494141e+01 1.080304384231567383e+00 1.018457794189453125e+01 3.379464626312255859e+00 9.502735733985900879e-01
4.044000000000000000e+03 2.888693332672119141e+00 8.655917167663574219e+00 2.190108746290206909e-01 9.749686717987060547e-02 9.495232254266738892e-02 -8.095002770423889160e-01
4.045000000000000000e+03 2.641025781631469727e+00 -1.072148799896240234e+01 -3.189428389305248857e-05 -2.361258566379547119e-01 -7.084732502698898315e-02 -1.214686259627342224e-01
4.046000000000000000e+03 5.273219680786132812e+01 9.179025650024414062e+00 -3.083360493183135986e-01 1.176381874084472656e+01 3.436644792556762695e+00 -6.778358221054077148e-01
4.047000000000000000e+03 2.583614349365234375e+00 -9.203374862670898438e+00 -6.112146191298961639e-03 -1.893338561058044434e-01 -5.863380059599876404e-02 -1.176222115755081177e-01
4.048000000000000000e+03 2.579196453094482422e+00 -8.445513725280761719e+00 -6.816851440817117691e-03 -1.660144180059432983e-01 -5.184938386082649231e-02 -1.120862662792205811e-01
4.049000000000000000e+03 9.632813453674316406e+00 2.473648548126220703e+00 7.461453080177307129e-01 1.751244068145751953e+00 7.492167949676513672e-01 6.104980707168579102e-01
4.050000000000000000e+03 2.703245162963867188e+01 -6.000046253204345703e+00 2.545439004898071289e+00 1.178548622131347656e+01 4.299277305603027344e+00 8.830420970916748047e-01
4.051000000000000000e+03 7.403930664062500000e+01 -9.433511734008789062e+00 8.699817061424255371e-01 9.615198135375976562e+00 3.145553827285766602e+00 1.008835315704345703e+00
4.052000000000000000e+03 3.292080879211425781e+00 3.135604095458984375e+01 2.177401445806026459e-02 1.164862155914306641e+00 3.559908568859100342e-01 1.508594602346420288e-01
4.053000000000000000e+03 3.553483581542968750e+01 5.610430240631103516e+00 -3.737267851829528809e-02 8.996566772460937500e+00 2.687758207321166992e+00 1.866837143898010254e+00
4.054000000000000000e+03 4.109558486938476562e+01 -9.518589973449707031e+00 -7.763397693634033203e-02 8.925651550292968750e+00 2.654405355453491211e+00 -3.710063695907592773e-01
4.055000000000000000e+03 7.723380279541015625e+01 -2.048796463012695312e+01 -2.382570505142211914e-01 7.365609645843505859e+00 2.138205766677856445e+00 -7.512190937995910645e-02
4.056000000000000000e+03 7.719837951660156250e+01 -2.129324913024902344e+01 -1.771879196166992188e-01 7.287303447723388672e+00 2.133034706115722656e+00 3.661784529685974121e-02
4.057000000000000000e+03 2.868430376052856445e+00 2.121204185485839844e+01 -7.641550898551940918e-02 1.486788392066955566e+00 4.231118559837341309e-01 5.035122856497764587e-02
4.058000000000000000e+03 6.696929168701171875e+01 5.497971534729003906e+00 6.745766997337341309e-01 9.712919235229492188e+00 3.116248846054077148e+00 -1.032368421554565430e+00
4.059000000000000000e+03 7.702310943603515625e+01 -3.142657279968261719e+01 3.635448962450027466e-02 6.547141551971435547e+00 1.975048899650573730e+00 1.223966032266616821e-01
4.060000000000000000e+03 7.735700988769531250e+01 -3.215184020996093750e+01 2.803055197000503540e-02 6.562175750732421875e+00 1.977061867713928223e+00 9.778828173875808716e-02
4.061000000000000000e+03 7.726458740234375000e+01 -1.025425052642822266e+01 4.188430011272430420e-01 8.275836944580078125e+00 2.608404159545898438e+00 1.255388379096984863e+00
4.062000000000000000e+03 7.732968902587890625e+01 -1.108009433746337891e+01 5.052180886268615723e-01 8.091050148010253906e+00 2.578880548477172852e+00 1.034707665443420410e+00
4.063000000000000000e+03 6.755093383789062500e+01 -1.712789154052734375e+01 -2.949270308017730713e-01 1.386682391166687012e+00 3.275265991687774658e-01 -1.804591268301010132e-01
4.064000000000000000e+03 6.802797698974609375e+01 -1.870849800109863281e+01 8.024830818176269531e-01 2.032702684402465820e+00 8.505557179450988770e-01 2.339624762535095215e-01
4.065000000000000000e+03 5.313233566284179688e+01 1.321807479858398438e+01 2.108505964279174805e+00 9.660656929016113281e+00 3.530748844146728516e+00 1.273641705513000488e+00
4.066000000000000000e+03 7.708119964599609375e+01 1.036502742767333984e+01 -6.453964710235595703e-01 9.195332527160644531e+00 2.564980745315551758e+00 -4.915458559989929199e-01
4.067000000000000000e+03 8.169248580932617188e+00 9.024395942687988281e+00 -4.013666808605194092e-01 2.186353921890258789e+00 5.354961752891540527e-01 -1.604428291320800781e+00
4.068000000000000000e+03 7.695656585693359375e+01 2.051467514038085938e+01 7.672274112701416016e-02 6.678814888000488281e+00 2.026661157608032227e+00 -2.788480371236801147e-02
4.069000000000000000e+03 3.430772018432617188e+01 -1.481731128692626953e+01 8.436490595340728760e-02 2.217736482620239258e+00 6.906304359436035156e-01 -1.196652054786682129e+00
4.070000000000000000e+03 2.834445238113403320e+00 -2.108328247070312500e+01 2.178167924284934998e-02 -4.131395518779754639e-01 -1.174073666334152222e-01 -1.016579847782850266e-02
4.071000000000000000e+03 2.863528728485107422e+00 -2.028935813903808594e+01 2.128079347312450409e-02 -4.081367254257202148e-01 -1.160567775368690491e-01 -2.087786979973316193e-02
4.072000000000000000e+03 4.304547882080078125e+01 -2.234413385391235352e+00 -6.861729621887207031e-01 5.319820880889892578e+00 1.390094399452209473e+00 -2.870592474937438965e-01
4.073000000000000000e+03 2.722147941589355469e+01 -8.115820884704589844e+00 3.673388957977294922e+00 1.103860092163085938e+01 4.413597106933593750e+00 1.840418390929698944e-02
4.074000000000000000e+03 4.812356567382812500e+01 1.820573043823242188e+01 8.440716266632080078e-01 3.752703905105590820e+00 1.379032611846923828e+00 -1.193671226501464844e+00
4.075000000000000000e+03 2.456759262084960938e+01 9.975440979003906250e+00 -3.903499603271484375e+00 7.707383632659912109e+00 1.141165256500244141e+00 1.629671573638916016e+00
4.076000000000000000e+03 1.766761207580566406e+01 5.600328922271728516e+00 1.062823176383972168e+00 -7.546014189720153809e-01 9.246654063463211060e-02 -5.452004671096801758e-01
4.077000000000000000e+03 1.414183330535888672e+01 -5.184329032897949219e+00 -3.732181489467620850e-01 1.413657814264297485e-01 -6.955570727586746216e-02 3.786497935652732849e-02
4.078000000000000000e+03 1.520395469665527344e+01 -4.042549133300781250e+00 -3.610359132289886475e-01 1.517130807042121887e-02 -1.037593856453895569e-01 1.350992172956466675e-01
4.079000000000000000e+03 3.166470909118652344e+01 1.533142757415771484e+01 -1.337884426116943359e+00 -1.229124665260314941e+00 -7.701027393341064453e-01 -6.114097237586975098e-01
4.080000000000000000e+03 2.072770309448242188e+01 3.532014131546020508e+00 7.079286098480224609e+00 3.623026132583618164e+00 3.210693597793579102e+00 -4.673807919025421143e-01
4.081000000000000000e+03 4.998704528808593750e+01 6.013375759124755859e+00 4.515648484230041504e-01 7.555398464202880859e+00 2.402088880538940430e+00 6.059221625328063965e-01
4.082000000000000000e+03 6.290232086181640625e+01 -1.213490009307861328e+01 -5.388982892036437988e-01 6.538467884063720703e+00 1.799870848655700684e+00 9.104828536510467529e-02
4.083000000000000000e+03 4.855802154541015625e+01 5.280078411102294922e+00 1.089635133743286133e+00 3.851349115371704102e+00 1.482295274734497070e+00 1.305114984512329102e+00
4.084000000000000000e+03 4.245534896850585938e+01 -1.709336471557617188e+01 4.178101718425750732e-01 8.644247055053710938e+00 2.718617200851440430e+00 -1.065775275230407715e+00
4.085000000000000000e+03 4.325594329833984375e+01 -1.608766365051269531e+01 1.734020829200744629e+00 7.589527606964111328e+00 2.797064542770385742e+00 -1.152238488197326660e+00
4.086000000000000000e+03 2.685350036621093750e+01 1.677451515197753906e+01 -3.975501656532287598e-01 6.759432315826416016e+00 1.908564686775207520e+00 2.607792854309082031e+00
4.087000000000000000e+03 2.634265708923339844e+01 1.620474433898925781e+01 1.738726019859313965e+00 7.484371662139892578e+00 2.766929149627685547e+00 2.807651519775390625e+00
4.088000000000000000e+03 2.367465400695800781e+01 9.396901130676269531e+00 -3.696895837783813477e+00 7.270879745483398438e+00 1.072195172309875488e+00 1.700718879699707031e+00
4.089000000000000000e+03 2.328622055053710938e+01 8.934284210205078125e+00 -3.214301824569702148e+00 7.292986869812011719e+00 1.223605513572692871e+00 1.524268865585327148e+00
4.090000000000000000e+03 3.704874420166015625e+01 5.255187511444091797e+00 -4.622932970523834229e-01 1.222579002380371094e+01 3.529048919677734375e+00 1.476384401321411133e+00
4.091000000000000000e+03 3.463544845581054688e+01 1.268840551376342773e+00 4.791869640350341797e+00 2.308991193771362305e+00 2.130258321762084961e+00 2.744003295898437500e+00
4.092000000000000000e+03 7.184902191162109375e+01 -2.136277198791503906e+00 -2.066380262374877930e+00 4.274569034576416016e+00 6.624565720558166504e-01 -2.227296590805053711e+00
4.093000000000000000e+03 7.274234771728515625e+01 -9.528973102569580078e-01 -1.575752615928649902e+00 2.448135137557983398e+00 2.617147564888000488e-01 -2.604624509811401367e+00
4.094000000000000000e+03 3.212677383422851562e+01 1.858492851257324219e+00 2.868950605392456055e+00 1.942644476890563965e+00 1.443478465080261230e+00 6.363795280456542969e+00
4.095000000000000000e+03 3.652934265136718750e+01 6.901875019073486328e+00 -1.199497103691101074e+00 1.179978275299072266e+01 3.180085659027099609e+00 2.158278465270996094e+00
4.096000000000000000e+03 7.755266571044921875e+01 5.155468940734863281e+00 7.617605328559875488e-01 1.202218055725097656e+01 3.835182428359985352e+00 -2.547330379486083984e+00
4.097000000000000000e+03 1.436625194549560547e+01 -3.297347307205200195e+00 -2.886404097080230713e-01 3.369104117155075073e-02 -7.648481428623199463e-02 1.096921190619468689e-01
4.098000000000000000e+03 3.698955535888671875e+01 -3.963029980659484863e-01 2.607273757457733154e-01 9.300990104675292969e+00 2.868515253067016602e+00 -5.921643376350402832e-01
4.099000000000000000e+03 3.517163085937500000e+01 -1.280170202255249023e+00 -1.810734748840332031e+00 1.883962631225585938e+00 2.196833677589893341e-02 1.563459277153015137e+00
4.100000000000000000e+03 3.856769943237304688e+01 -4.623504638671875000e+00 -4.136936068534851074e-01 3.596975326538085938e+00 9.549845457077026367e-01 -1.804857015609741211e+00
4.101000000000000000e+03 3.014350318908691406e+01 1.470724582672119141e+01 -7.545739412307739258e-01 -6.884790658950805664e-01 -4.329158961772918701e-01 2.293036691844463348e-02
4.102000000000000000e+03 9.142158508300781250e+00 8.494010925292968750e+00 -3.889066874980926514e-01 2.762132644653320312e+00 7.119677662849426270e-01 -1.430907249450683594e+00
4.103000000000000000e+03 3.041451835632324219e+01 -9.898493766784667969e+00 1.346198558807373047e+00 4.370200634002685547e+00 1.714919805526733398e+00 -2.043756246566772461e+00
4.104000000000000000e+03 3.490521621704101562e+01 5.607851982116699219e+00 3.143500983715057373e-01 7.495919227600097656e+00 2.343080759048461914e+00 2.076248168945312500e+00
4.105000000000000000e+03 5.086906051635742188e+01 1.742564201354980469e+01 -6.132456064224243164e-01 7.972713947296142578e+00 2.207840681076049805e+00 -5.932369828224182129e-01
4.106000000000000000e+03 5.096339416503906250e+01 1.613913726806640625e+01 -3.098180890083312988e-01 9.876699447631835938e+00 2.870064258575439453e+00 -5.285437107086181641e-01
4.107000000000000000e+03 6.817320251464843750e+01 7.874051332473754883e-01 -1.428780913352966309e+00 7.110346317291259766e+00 1.704469561576843262e+00 -6.785313040018081665e-02
4.108000000000000000e+03 1.280695056915283203e+01 3.525272369384765625e+00 5.841579914093017578e+00 -1.061904549598693848e+00 1.433902621269226074e+00 -3.576481580734252930e+00
4.109000000000000000e+03 6.680735015869140625e+01 -1.745441818237304688e+01 8.555782586336135864e-02 2.093274831771850586e+00 6.536498069763183594e-01 -6.575165987014770508e-01
4.110000000000000000e+03 2.325699806213378906e+01 -1.219937515258789062e+01 8.270548582077026367e-01 3.667866468429565430e+00 1.348476409912109375e+00 2.603612661361694336e+00
4.111000000000000000e+03 6.656977844238281250e+01 1.515853404998779297e+01 -5.253981947898864746e-01 9.310050964355468750e+00 2.635395765304565430e+00 -4.649599790573120117e-01
4.112000000000000000e+03 2.766165542602539062e+01 -7.555329799652099609e+00 3.218173503875732422e+00 1.065214920043945312e+01 4.161097049713134766e+00 2.364629805088043213e-01
4.113000000000000000e+03 2.655404281616210938e+01 -7.492092132568359375e+00 3.594852209091186523e+00 1.470116806030273438e+01 5.488805770874023438e+00 9.586534500122070312e-01
4.114000000000000000e+03 3.658880996704101562e+01 5.781752586364746094e+00 -7.493707537651062012e-01 1.151304721832275391e+01 3.229102849960327148e+00 1.571591973304748535e+00
4.115000000000000000e+03 6.073474121093750000e+01 -6.775640964508056641e+00 1.208375811576843262e+00 8.444584846496582031e+00 2.895888090133666992e+00 1.275313496589660645e+00
4.116000000000000000e+03 7.021495056152343750e+01 -7.984071373939514160e-01 -3.341162919998168945e+00 5.801788806915283203e+00 7.381877303123474121e-01 -2.974483966827392578e+00
4.117000000000000000e+03 7.329872131347656250e+01 -6.873929023742675781e+00 -3.103689253330230713e-01 7.713568687438964844e+00 2.220959901809692383e+00 4.956196844577789307e-01
4.118000000000000000e+03 7.235334014892578125e+01 -5.917194843292236328e+00 -7.704719901084899902e-01 6.311576366424560547e+00 1.662331342697143555e+00 -3.641501069068908691e-01
4.119000000000000000e+03 2.277882385253906250e+01 1.005877780914306641e+01 -3.979055404663085938e+00 5.227617740631103516e+00 3.745687007904052734e-01 7.896630764007568359e-01
4.120000000000000000e+03 2.306007003784179688e+01 9.460406303405761719e+00 -3.927498817443847656e+00 6.275804519653320312e+00 7.044917345046997070e-01 1.146325945854187012e+00
4.121000000000000000e+03 6.910896301269531250e+01 8.931836485862731934e-02 -2.665727138519287109e+00 6.854752540588378906e+00 1.256707668304443359e+00 -1.353427529335021973e+00
4.122000000000000000e+03 2.974107551574707031e+01 2.138956785202026367e+00 -1.481282472610473633e+00 5.071471214294433594e+00 1.077056765556335449e+00 2.423471450805664062e+00
4.123000000000000000e+03 2.600650405883789062e+01 1.020137691497802734e+01 -3.375720024108886719e+00 5.748989582061767578e+00 7.119808197021484375e-01 6.995363831520080566e-01
4.124000000000000000e+03 6.128057479858398438e+01 -5.140655517578125000e+00 1.784059047698974609e+00 8.836060523986816406e+00 3.186035871505737305e+00 1.317928910255432129e+00
4.125000000000000000e+03 6.132342147827148438e+01 -5.912692070007324219e+00 1.602021455764770508e+00 9.017580986022949219e+00 3.185880661010742188e+00 1.426049828529357910e+00
4.126000000000000000e+03 7.504121398925781250e+01 1.189743232727050781e+01 -8.880333602428436279e-02 6.455899715423583984e+00 1.910128831863403320e+00 -2.141829490661621094e+00
4.127000000000000000e+03 7.362104797363281250e+01 1.127825736999511719e+01 7.269350290298461914e-01 3.340672731399536133e+00 1.220282316207885742e+00 -2.295719385147094727e+00
4.128000000000000000e+03 2.762492752075195312e+01 1.178185176849365234e+01 -2.591313838958740234e+00 2.425274848937988281e+00 -4.981175437569618225e-02 -9.212413430213928223e-01
4.129000000000000000e+03 2.711756896972656250e+01 1.229585552215576172e+01 -1.821976661682128906e+00 4.385296344757080078e+00 7.689958810806274414e-01 -5.705309510231018066e-01
4.130000000000000000e+03 1.747951507568359375e+01 -7.644289493560791016e+00 -4.702911078929901123e-01 1.339448988437652588e-01 -1.009038612246513367e-01 6.819554418325424194e-02
4.131000000000000000e+03 2.640134048461914062e+01 1.732931709289550781e+01 -1.065658569335937500e+00 7.193815708160400391e+00 1.838447213172912598e+00 1.116431474685668945e+00
4.132000000000000000e+03 2.148442649841308594e+01 7.365931510925292969e+00 -9.702338576316833496e-01 5.118058681488037109e+00 1.244347453117370605e+00 7.338513433933258057e-02
4.133000000000000000e+03 5.282331848144531250e+01 2.242012023925781250e-01 -1.532672524452209473e+00 9.670403480529785156e+00 2.441319227218627930e+00 -6.663454771041870117e-01
4.134000000000000000e+03 6.138454437255859375e+01 -9.224383354187011719e+00 2.816120386123657227e-01 8.664533615112304688e+00 2.683843612670898438e+00 1.084377050399780273e+00
4.135000000000000000e+03 4.854832077026367188e+01 -1.554724311828613281e+01 4.536701738834381104e-02 1.120961785316467285e+00 3.498986363410949707e-01 -5.489777326583862305e-01
4.136000000000000000e+03 9.138682365417480469e+00 4.111746788024902344e+00 6.182998180389404297e+00 2.337871789932250977e+00 2.556261062622070312e+00 -3.619026243686676025e-01
4.137000000000000000e+03 4.326500701904296875e+01 -6.119958400726318359e+00 1.905294895172119141e+00 1.040603160858154297e+01 3.693397998809814453e+00 1.028777360916137695e+00
4.138000000000000000e+03 5.433641815185546875e+01 -5.958639621734619141e+00 -1.270099282264709473e+00 4.635181903839111328e+00 1.009524822235107422e+00 -1.160419225692749023e+00
4.139000000000000000e+03 2.598383712768554688e+01 1.124324417114257812e+01 -3.323354959487915039e+00 6.825340747833251953e+00 1.050595760345458984e+00 4.774234890937805176e-01
4.140000000000000000e+03 7.809401702880859375e+01 2.003483057022094727e+00 -8.970526456832885742e-01 1.184128761291503906e+01 3.283270359039306641e+00 -1.705148696899414062e+00
4.141000000000000000e+03 5.504585742950439453e+00 3.095103073120117188e+01 4.660668969154357910e-02 1.088198542594909668e+00 3.404415547847747803e-01 2.022295296192169189e-01
4.142000000000000000e+03 3.543744277954101562e+01 2.690998792648315430e+00 4.043984413146972656e+00 7.146321773529052734e+00 3.357091903686523438e+00 1.051900982856750488e+00
4.143000000000000000e+03 7.462694549560546875e+01 -3.108464050292968750e+01 9.726709127426147461e-02 6.285582542419433594e+00 1.914854884147644043e+00 1.774868071079254150e-01
4.144000000000000000e+03 5.285051345825195312e+01 1.574382209777832031e+01 5.230754017829895020e-01 8.916040420532226562e+00 2.831734657287597656e+00 1.760208964347839355e+00
4.145000000000000000e+03 6.823943328857421875e+01 2.675040483474731445e+00 2.026447296142578125e+00 1.004963779449462891e+01 3.622825622558593750e+00 -9.589803218841552734e-02
4.146000000000000000e+03 2.067747592926025391e+00 -2.346415710449218750e+01 9.137122891843318939e-03 -5.037987232208251953e-01 -1.483984887599945068e-01 1.221285481005907059e-02
4.147000000000000000e+03 7.717367172241210938e+00 7.014030456542968750e+00 1.818273305892944336e+00 1.857839345932006836e+00 1.102833747863769531e+00 -2.340653181076049805e+00
4.148000000000000000e+03 8.760894775390625000e+00 6.134287357330322266e+00 4.090400218963623047e+00 2.345055818557739258e+00 1.930636763572692871e+00 -3.071226835250854492e+00
4.149000000000000000e+03 2.211149978637695312e+01 9.621379852294921875e+00 -4.202941894531250000e+00 3.766147613525390625e+00 -1.310382336378097534e-01 1.196117140352725983e-02
4.150000000000000000e+03 3.119970512390136719e+01 3.840014219284057617e+00 -1.568183064460754395e+00 2.436202049255371094e+00 2.604056596755981445e-01 1.878922700881958008e+00
4.151000000000000000e+03 3.239903259277343750e+01 3.677017211914062500e+00 5.534555315971374512e-01 2.868073225021362305e+00 1.026458621025085449e+00 3.087305784225463867e+00
4.152000000000000000e+03 5.333203125000000000e+01 9.364063262939453125e+00 -3.214669227600097656e-01 1.066684341430664062e+01 3.103612899780273438e+00 -3.530173897743225098e-01
4.153000000000000000e+03 7.645812988281250000e+01 1.776732921600341797e+00 -2.599683046340942383e+00 9.686884880065917969e+00 2.126160621643066406e+00 -1.023446202278137207e+00
4.154000000000000000e+03 6.927584075927734375e+01 8.745234489440917969e+00 -1.276347756385803223e+00 8.501684188842773438e+00 2.167601108551025391e+00 -2.872757613658905029e-01
4.155000000000000000e+03 2.077670574188232422e+00 -4.410982131958007812e+00 -1.476106978952884674e-02 -6.201616674661636353e-02 -2.303317002952098846e-02 -5.867790058255195618e-02
4.156000000000000000e+03 5.068666839599609375e+01 -1.826219177246093750e+01 -6.078445911407470703e-01 9.996306300163269043e-01 1.175358146429061890e-01 -4.306893944740295410e-01
4.157000000000000000e+03 5.897428894042968750e+01 -2.070308430120348930e-03 -3.446243047714233398e+00 1.214554548263549805e+00 -6.695065498352050781e-01 -7.592457532882690430e-01
4.158000000000000000e+03 3.772898483276367188e+01 9.118661880493164062e+00 9.668238759040832520e-01 1.346541786193847656e+01 4.329672336578369141e+00 1.714869856834411621e+00
4.159000000000000000e+03 5.493645858764648438e+01 1.061343669891357422e+01 8.997799456119537354e-02 6.632024765014648438e+00 2.016600847244262695e+00 6.704440712928771973e-01
4.160000000000000000e+03 4.129920578002929688e+01 1.238252735137939453e+01 2.009432554244995117e+00 3.390519618988037109e+00 1.619985580444335938e+00 2.496803998947143555e+00
4.161000000000000000e+03 1.187319755554199219e+01 -2.620909214019775391e+00 -2.156700938940048218e-01 5.693523213267326355e-02 -4.762045666575431824e-02 3.270739689469337463e-02
4.162000000000000000e+03 4.295912170410156250e+01 1.395987319946289062e+01 8.996734023094177246e-01 2.095712661743164062e+00 8.986158370971679688e-01 1.903875708580017090e+00
4.163000000000000000e+03 3.663703536987304688e+01 9.990428388118743896e-02 1.658420443534851074e+00 9.197833061218261719e+00 3.256875991821289062e+00 1.046122536063194275e-01
4.164000000000000000e+03 3.609984588623046875e+01 -3.116185367107391357e-01 8.071699738502502441e-01 6.222489833831787109e+00 2.108897924423217773e+00 8.662963509559631348e-01
4.165000000000000000e+03 3.455035400390625000e+01 2.512600719928741455e-01 2.996849298477172852e+00 7.984114885330200195e-01 1.138578295707702637e+00 2.617599010467529297e+00
4.166000000000000000e+03 2.863975524902343750e+01 -3.094321727752685547e+00 3.003339767456054688e+00 9.497287750244140625e+00 3.750188350677490234e+00 3.655080080032348633e+00
4.167000000000000000e+03 2.819642639160156250e+01 -4.205467700958251953e+00 1.880390286445617676e+00 9.821027755737304688e+00 3.510425329208374023e+00 2.592176914215087891e+00
4.168000000000000000e+03 2.659062767028808594e+01 1.278444099426269531e+01 -8.146331310272216797e-01 6.376440525054931641e+00 1.668542146682739258e+00 -3.220539167523384094e-02
4.169000000000000000e+03 2.828155899047851562e+01 1.347146415710449219e+01 -4.011615812778472900e-01 1.883350014686584473e+00 4.446565210819244385e-01 -4.356369078159332275e-01
4.170000000000000000e+03 3.120617151260375977e+00 -2.654553031921386719e+01 9.472119621932506561e-03 -3.377333581447601318e-01 -9.847836941480636597e-02 4.094216227531433105e-02
4.171000000000000000e+03 5.624912643432617188e+01 1.298370265960693359e+01 6.966758966445922852e-01 4.030532836914062500e+00 1.418162703514099121e+00 1.611511945724487305e+00
4.172000000000000000e+03 3.600339508056640625e+01 -1.675549316406250000e+01 3.876955807209014893e-01 1.821511387825012207e+00 6.627621054649353027e-01 -1.043216228485107422e+00
4.173000000000000000e+03 3.403932571411132812e+01 1.750493049621582031e+01 -3.846229016780853271e-01 1.414353370666503906e+00 3.089191615581512451e-01 -1.619816184043884277e+00
4.174000000000000000e+03 5.695945358276367188e+01 -2.075044441223144531e+01 -5.534503459930419922e-01 7.782290458679199219e+00 2.168652057647705078e+00 2.286259680986404419e-01
4.175000000000000000e+03 7.552715301513671875e+01 2.793760299682617188e+01 -1.221069414168596268e-02 6.598771095275878906e+00 1.975968241691589355e+00 2.592761442065238953e-02
4.176000000000000000e+03 3.466264343261718750e+01 4.626243114471435547e+00 1.205205321311950684e+00 6.636728286743164062e+00 2.352580070495605469e+00 1.864232063293457031e+00
4.177000000000000000e+03 5.796755981445312500e+01 -7.804384827613830566e-01 -1.558726906776428223e+00 9.734564423561096191e-01 -1.755811572074890137e-01 -2.457133531570434570e+00
4.178000000000000000e+03 3.937577819824218750e+01 -1.904012560844421387e+00 -1.978826999664306641e+00 4.251744747161865234e+00 6.818753480911254883e-01 -5.870294570922851562e+00
4.179000000000000000e+03 3.680619049072265625e+01 1.030753016471862793e+00 5.591104507446289062e+00 1.086613082885742188e+01 4.937170505523681641e+00 -3.333441615104675293e-01
4.180000000000000000e+03 3.679988098144531250e+01 1.973638534545898438e+00 5.112592697143554688e+00 1.242233848571777344e+01 5.260479450225830078e+00 8.053719252347946167e-02
4.181000000000000000e+03 5.277035140991210938e+01 1.057063674926757812e+01 9.323382377624511719e-01 1.126937389373779297e+01 3.660513639450073242e+00 -2.836179137229919434e-01
4.182000000000000000e+03 5.233491897583007812e+01 1.106809234619140625e+01 1.693961143493652344e+00 1.230350780487060547e+01 4.199240684509277344e+00 2.446747422218322754e-01
4.183000000000000000e+03 6.810033416748046875e+01 1.380360126495361328e+01 1.223710179328918457e+00 9.113041877746582031e+00 3.101025819778442383e+00 1.572112083435058594e+00
4.184000000000000000e+03 6.752933502197265625e+01 1.415928554534912109e+01 5.239806771278381348e-01 9.682394981384277344e+00 3.061912775039672852e+00 1.108375430107116699e+00
4.185000000000000000e+03 4.010693359375000000e+01 -5.623906612396240234e+00 8.840224742889404297e-01 4.664629936218261719e+00 1.664595723152160645e+00 -1.280017375946044922e+00
4.186000000000000000e+03 3.954045486450195312e+01 -4.413427829742431641e+00 1.027257367968559265e-01 4.123031616210937500e+00 1.267727136611938477e+00 -2.248867511749267578e+00
4.187000000000000000e+03 4.267659759521484375e+01 -1.216655635833740234e+01 7.170165777206420898e-01 9.875397682189941406e+00 3.177724361419677734e+00 2.743147313594818115e-01
4.188000000000000000e+03 3.854528427124023438e+01 -2.545746326446533203e+00 -2.099980831146240234e+00 5.558898925781250000e+00 1.037675499916076660e+00 -4.070617675781250000e+00
4.189000000000000000e+03 7.812538909912109375e+01 6.560759067535400391e+00 1.166813135147094727e+00 9.719061851501464844e+00 3.265762329101562500e+00 -1.320452094078063965e+00
4.190000000000000000e+03 2.596728324890136719e+01 -2.812801599502563477e+00 3.138800144195556641e+00 7.914339542388916016e+00 3.315942049026489258e+00 -7.484290599822998047e-01
4.191000000000000000e+03 1.969002723693847656e+01 -1.001591873168945312e+01 3.611475229263305664e-01 7.211060076951980591e-02 1.299774348735809326e-01 5.560934916138648987e-02
4.192000000000000000e+03 2.026622772216796875e+01 -9.741293907165527344e+00 6.324682384729385376e-02 1.148819625377655029e-01 5.343863740563392639e-02 2.845632135868072510e-01
4.193000000000000000e+03 3.208978652954101562e+01 -1.303116607666015625e+01 5.007523298263549805e-01 3.246004343032836914e+00 1.124027013778686523e+00 -1.650505185127258301e+00
4.194000000000000000e+03 4.141204833984375000e+01 -1.878155899047851562e+01 -5.239745378494262695e-01 7.676749706268310547e+00 2.145832538604736328e+00 2.853693664073944092e-01
4.195000000000000000e+03 7.617771148681640625e+01 1.973980516195297241e-01 -2.368578672409057617e+00 7.938189983367919922e+00 1.670883417129516602e+00 6.062301397323608398e-01
4.196000000000000000e+03 6.566625213623046875e+01 -3.055972158908843994e-01 -1.798785090446472168e+00 3.269347429275512695e+00 4.411686956882476807e-01 3.468042612075805664e+00
4.197000000000000000e+03 1.897790336608886719e+01 5.973197460174560547e+00 1.739769816398620605e+00 -2.104166746139526367e-01 4.588059484958648682e-01 -2.940180301666259766e-01
4.198000000000000000e+03 5.111861419677734375e+01 7.777502536773681641e+00 -8.002963066101074219e-01 1.115800476074218750e+01 3.107312440872192383e+00 -8.668009191751480103e-02
4.199000000000000000e+03 5.217358016967773438e+01 8.805626869201660156e+00 -7.042655944824218750e-01 1.227122974395751953e+01 3.470089197158813477e+00 -5.805541872978210449e-01
4.200000000000000000e+03 6.072943115234375000e+01 -8.263793945312500000e+00 5.930221676826477051e-01 8.551344871520996094e+00 2.743310213088989258e+00 1.262817382812500000e+00
4.201000000000000000e+03 5.777136611938476562e+01 1.357754802703857422e+01 2.389605939388275146e-01 2.170784950256347656e+00 7.229236364364624023e-01 1.328957557678222656e+00
4.202000000000000000e+03 4.209194946289062500e+01 -1.829740524291992188e+01 -3.226660788059234619e-01 7.672874927520751953e+00 2.205062627792358398e+00 -6.544663310050964355e-01
4.203000000000000000e+03 3.067722320556640625e+01 -1.177322769165039062e+01 7.088999748229980469e-01 4.370800018310546875e+00 1.523909926414489746e+00 -1.993323326110839844e+00
4.204000000000000000e+03 6.889502716064453125e+01 -2.233638048171997070e+00 -4.022126674652099609e+00 3.954626560211181641e+00 -2.025008946657180786e-02 -1.011508464813232422e+00
4.205000000000000000e+03 4.728977584838867188e+01 1.736036300659179688e+01 1.078605413436889648e+00 2.419743537902832031e+00 1.049504756927490234e+00 -4.774663746356964111e-01
4.206000000000000000e+03 2.249905204772949219e+01 9.131678581237792969e+00 -3.792541980743408203e+00 5.561958312988281250e+00 5.308248996734619141e-01 7.183994650840759277e-01
4.207000000000000000e+03 2.768354225158691406e+01 -3.597302198410034180e+00 2.603783130645751953e+00 9.325199127197265625e+00 3.578694581985473633e+00 2.348745822906494141e+00
4.208000000000000000e+03 2.661330223083496094e+01 -3.618099927902221680e+00 2.786311149597167969e+00 9.173328399658203125e+00 3.587891817092895508e+00 7.845866680145263672e-01
4.209000000000000000e+03 4.745198822021484375e+01 1.936428189277648926e+00 4.029944837093353271e-01 2.493429422378540039e+00 8.689271211624145508e-01 2.538336992263793945e+00
4.210000000000000000e+03 2.435180473327636719e+01 1.948697471618652344e+01 -1.506160974502563477e+00 3.180019378662109375e+00 5.021575093269348145e-01 -1.837290644645690918e+00
4.211000000000000000e+03 2.609936141967773438e+01 1.223720264434814453e+01 -1.845900535583496094e+00 7.290863513946533203e+00 1.633488893508911133e+00 -3.572637680917978287e-03
4.212000000000000000e+03 4.206644058227539062e+01 -1.941109418869018555e+00 -5.760275721549987793e-01 2.971294164657592773e+00 7.185799479484558105e-01 -1.021307468414306641e+00
4.213000000000000000e+03 4.068181610107421875e+01 -2.045168161392211914e+00 -8.264873027801513672e-01 2.391134500503540039e+00 4.693941771984100342e-01 -3.942691802978515625e+00
4.214000000000000000e+03 4.222290039062500000e+01 -4.919327259063720703e+00 2.651574134826660156e+00 6.481641769409179688e+00 2.739964723587036133e+00 -1.239617168903350830e-01
4.215000000000000000e+03 4.282720565795898438e+01 -3.873120069503784180e+00 2.770639896392822266e+00 6.750447750091552734e+00 2.856326341629028320e+00 -1.642324626445770264e-01
4.216000000000000000e+03 7.032073211669921875e+01 -3.774993419647216797e+00 -2.388566970825195312e+00 3.928849697113037109e+00 4.620847702026367188e-01 -1.286553502082824707e+00
4.217000000000000000e+03 2.226257896423339844e+01 7.986619949340820312e+00 -1.960967659950256348e+00 6.473740577697753906e+00 1.353831887245178223e+00 8.652084469795227051e-01
4.218000000000000000e+03 4.313512420654296875e+01 -1.800430536270141602e+00 -1.467150330543518066e+00 5.285494804382324219e+00 1.145503401756286621e+00 3.940425440669059753e-02
4.219000000000000000e+03 5.475547790527343750e+01 -5.574199676513671875e+00 -1.482886672019958496e+00 5.075570583343505859e+00 1.077805161476135254e+00 -1.394765019416809082e+00
4.220000000000000000e+03 1.172345256805419922e+01 1.291145706176757812e+01 -1.347876667976379395e+00 5.758413672447204590e-01 -2.316105812788009644e-01 -4.191893637180328369e-01
4.221000000000000000e+03 6.907602691650390625e+01 9.995031356811523438e+00 3.103201389312744141e-01 7.843272209167480469e+00 2.446077585220336914e+00 6.648837327957153320e-01
4.222000000000000000e+03 7.023857879638671875e+01 1.018564224243164062e+01 8.392892032861709595e-02 4.796638488769531250e+00 1.464170217514038086e+00 1.135671138763427734e+00
4.223000000000000000e+03 4.334590530395507812e+01 -1.031878852844238281e+01 -3.122415244579315186e-01 9.021578788757324219e+00 2.612801313400268555e+00 5.634223222732543945e-01
4.224000000000000000e+03 5.654863739013671875e+01 -1.022523307800292969e+01 3.406102359294891357e-01 8.086949348449707031e+00 2.528267860412597656e+00 -2.450836896896362305e-01
4.225000000000000000e+03 7.212628936767578125e+01 -5.255120277404785156e+00 -1.048843622207641602e+00 5.701324939727783203e+00 1.395744442939758301e+00 -5.486620664596557617e-01
4.226000000000000000e+03 1.324427604675292969e+01 1.401725959777832031e+01 -1.499828815460205078e+00 1.633250527083873749e-02 -4.450488686561584473e-01 -4.562841355800628662e-01
4.227000000000000000e+03 2.147316360473632812e+01 6.688666820526123047e+00 5.086757540702819824e-01 6.037033557891845703e+00 1.963712811470031738e+00 1.680731177330017090e-01
4.228000000000000000e+03 1.839680194854736328e+00 1.713202095031738281e+01 -8.209769427776336670e-02 1.521359086036682129e+00 4.317784309387207031e-01 -1.715688109397888184e-01
4.229000000000000000e+03 1.262654781341552734e+01 -1.933887720108032227e+00 -1.974604427814483643e-01 3.629077970981597900e-02 -4.835089668631553650e-02 5.948047339916229248e-02
4.230000000000000000e+03 1.261659622192382812e+01 -3.307470560073852539e+00 -2.519501745700836182e-01 8.056794106960296631e-02 -5.141466856002807617e-02 4.943978413939476013e-02
4.231000000000000000e+03 1.995923805236816406e+01 6.596897125244140625e+00 4.656913578510284424e-01 1.732069730758666992e+00 6.593283414840698242e-01 -7.163848280906677246e-01
4.232000000000000000e+03 2.617541790008544922e+00 5.833063602447509766e+00 4.913871586322784424e-01 -5.485591292381286621e-01 -1.715158298611640930e-02 -2.288138493895530701e-02
4.233000000000000000e+03 3.541889190673828125e+00 1.301866817474365234e+01 -2.430750429630279541e-01 1.081869602203369141e+00 2.516383528709411621e-01 -7.885476946830749512e-01
4.234000000000000000e+03 2.623521423339843750e+01 7.623175978660583496e-01 1.148096680641174316e+00 3.017770648002624512e-01 4.349620938301086426e-01 -3.341483354568481445e+00
4.235000000000000000e+03 8.951351165771484375e+00 -4.370381355285644531e+00 -1.563466936349868774e-01 5.975611507892608643e-02 -2.897717244923114777e-02 -8.576244115829467773e-02
4.236000000000000000e+03 2.432275962829589844e+01 1.388078555464744568e-03 9.715150594711303711e-01 5.516648769378662109e+00 1.946449160575866699e+00 -6.018918991088867188e+00
4.237000000000000000e+03 2.573440933227539062e+01 -2.004650533199310303e-01 2.756229639053344727e+00 2.652223587036132812e+00 1.622535943984985352e+00 -3.570464372634887695e+00
4.238000000000000000e+03 2.739346504211425781e+01 -8.020318150520324707e-01 5.617456436157226562e+00 3.723502397537231445e+00 2.802287578582763672e+00 4.608024954795837402e-01
4.239000000000000000e+03 7.688498687744140625e+01 1.426361751556396484e+01 9.373374283313751221e-02 7.002496719360351562e+00 2.128869056701660156e+00 -7.626797556877136230e-01
4.240000000000000000e+03 7.901969909667968750e+00 3.561380386352539062e+00 3.166426658630371094e+00 2.962082922458648682e-01 1.038790464401245117e+00 7.836583852767944336e-01
4.241000000000000000e+03 5.262485504150390625e+01 8.325922966003417969e+00 -9.339069724082946777e-01 1.178708553314208984e+01 3.255953550338745117e+00 -7.371219992637634277e-01
4.242000000000000000e+03 7.685203552246093750e+01 -1.815145111083984375e+01 -2.510825395584106445e-01 7.703873634338378906e+00 2.235837459564208984e+00 -3.363871872425079346e-01
4.243000000000000000e+03 7.727907562255859375e+01 -9.386597633361816406e+00 3.620842695236206055e-01 8.492987632751464844e+00 2.656521558761596680e+00 1.456578969955444336e+00
4.244000000000000000e+03 8.143455505371093750e+00 -4.417284965515136719e+00 -1.343044042587280273e-01 4.419046640396118164e-02 -2.703418023884296417e-02 -1.043661087751388550e-01
4.245000000000000000e+03 3.619723510742187500e+01 6.205409169197082520e-01 3.480494499206542969e+00 7.914872169494628906e+00 3.418609857559204102e+00 1.154245018959045410e+00
4.246000000000000000e+03 3.828233337402343750e+01 7.375755310058593750e+00 -1.134529352188110352e+00 1.109642124176025391e+01 2.988567590713500977e+00 1.206823110580444336e+00
4.247000000000000000e+03 2.825756549835205078e+00 2.669246912002563477e+00 -2.230707742273807526e-02 -3.790256679058074951e-01 -1.203998252749443054e-01 6.783237457275390625e-01
4.248000000000000000e+03 3.455787897109985352e+00 -6.270408630371093750e+00 -2.342903427779674530e-02 -8.433472365140914917e-02 -3.232912719249725342e-02 -1.151851937174797058e-01
4.249000000000000000e+03 2.786658287048339844e+01 -6.081319808959960938e+00 2.103159904479980469e+00 1.036139678955078125e+01 3.739367008209228516e+00 1.103755831718444824e+00
4.250000000000000000e+03 2.712684440612792969e+01 -4.958133220672607422e+00 2.097397565841674805e+00 1.149476432800292969e+01 4.077648639678955078e+00 1.516076326370239258e+00
4.251000000000000000e+03 3.705045700073242188e+01 -2.950257778167724609e+00 -3.593384265899658203e+00 5.034889221191406250e+00 4.324515461921691895e-01 -1.085032343864440918e+00
4.252000000000000000e+03 4.369379425048828125e+01 -1.777689576148986816e+00 -2.003073930740356445e+00 6.589316368103027344e+00 1.375872731208801270e+00 8.746021389961242676e-01
4.253000000000000000e+03 4.371302413940429688e+01 -2.326754331588745117e+00 -6.889048814773559570e-01 7.664151191711425781e+00 2.092573881149291992e+00 6.071249842643737793e-01
4.254000000000000000e+03 6.295907211303710938e+01 2.409865140914916992e+00 -2.182616710662841797e+00 4.252447128295898438e+00 6.209491491317749023e-01 2.146240472793579102e+00
4.255000000000000000e+03 3.881106567382812500e+01 1.103755950927734375e+01 3.742103576660156250e+00 1.010088729858398438e+01 4.152897357940673828e+00 2.078017234802246094e+00
4.256000000000000000e+03 3.997948074340820312e+01 1.203940963745117188e+01 2.834492444992065430e+00 6.185664176940917969e+00 2.706047058105468750e+00 2.816838026046752930e+00
4.257000000000000000e+03 1.516153335571289062e+01 -5.137783050537109375e+00 -4.175262153148651123e-01 9.410666674375534058e-02 -9.702586382627487183e-02 9.408612549304962158e-02
4.258000000000000000e+03 1.619168853759765625e+01 -6.153358936309814453e+00 -5.098498463630676270e-01 1.057737991213798523e-01 -1.212228164076805115e-01 1.078311353921890259e-01
4.259000000000000000e+03 4.290051651000976562e+01 -3.018298447132110596e-01 -3.713836669921875000e+00 2.539886236190795898e+00 -3.521851897239685059e-01 -4.509902000427246094e-02
4.260000000000000000e+03 4.406672668457031250e+01 -9.735806584358215332e-01 -3.030534505844116211e+00 5.473296642303466797e+00 7.328286170959472656e-01 2.012064695358276367e+00
4.261000000000000000e+03 4.576645660400390625e+01 1.778723716735839844e+01 8.735443949699401855e-01 2.505045413970947266e+00 1.013576984405517578e+00 5.409802794456481934e-01
4.262000000000000000e+03 4.485111236572265625e+01 1.719055747985839844e+01 7.232368588447570801e-01 2.422286272048950195e+00 9.436569213867187500e-01 1.120510101318359375e+00
4.263000000000000000e+03 6.750576782226562500e+01 4.903748035430908203e+00 1.690484881401062012e+00 9.968590736389160156e+00 3.497722625732421875e+00 -1.224634289741516113e+00
4.264000000000000000e+03 6.660771942138671875e+01 3.274774551391601562e+00 1.120152831077575684e+00 7.183460235595703125e+00 2.491084098815917969e+00 9.807761907577514648e-01
4.265000000000000000e+03 6.077977752685546875e+01 -7.516106605529785156e+00 8.759728074073791504e-01 8.687903404235839844e+00 2.869163036346435547e+00 1.323639035224914551e+00
4.266000000000000000e+03 6.734586334228515625e+01 -9.123839735984802246e-01 -3.153774261474609375e+00 3.428470373153686523e+00 8.240880817174911499e-02 2.098712325096130371e-01
4.267000000000000000e+03 5.899784851074218750e+01 -1.906269645690917969e+01 7.468098998069763184e-01 8.270022392272949219e+00 2.705049753189086914e+00 -8.306156396865844727e-01
4.268000000000000000e+03 5.749520492553710938e+01 -1.832608795166015625e+01 2.520872116088867188e+00 1.010813331604003906e+01 3.788701534271240234e+00 -7.168498123064637184e-04
4.269000000000000000e+03 3.295382690429687500e+01 1.725621223449707031e+01 -9.324698150157928467e-02 1.706917136907577515e-01 2.323341928422451019e-02 -8.755107522010803223e-01
4.270000000000000000e+03 7.468036651611328125e+01 -1.454215049743652344e+01 1.279140591621398926e+00 9.435668945312500000e+00 3.214442968368530273e+00 2.655252516269683838e-01
4.271000000000000000e+03 2.750478935241699219e+01 -6.522663116455078125e+00 2.540718078613281250e+00 1.120394515991210938e+01 4.123399257659912109e+00 1.062456369400024414e+00
4.272000000000000000e+03 6.908641052246093750e+01 -1.929481124877929688e+01 8.258352875709533691e-01 2.921024560928344727e+00 1.124058008193969727e+00 1.206770300865173340e+00
4.273000000000000000e+03 2.538104534149169922e+00 4.976601600646972656e+00 3.989460170269012451e-01 -6.046933531761169434e-01 -6.172419339418411255e-02 2.096154391765594482e-01
4.274000000000000000e+03 2.798430824279785156e+01 -2.499580144882202148e+00 4.194200038909912109e+00 7.997621536254882812e+00 3.657546520233154297e+00 3.088018894195556641e+00
4.275000000000000000e+03 1.968736767768859863e+00 7.667033672332763672e+00 1.947899013757705688e-01 -3.618883192539215088e-01 -5.012952908873558044e-02 -4.580609500408172607e-01
4.276000000000000000e+03 3.187226772308349609e+00 8.014699935913085938e+00 3.904768526554107666e-01 1.584054343402385712e-02 1.218952164053916931e-01 -7.735134959220886230e-01
4.277000000000000000e+03 2.589225053787231445e+00 1.852665901184082031e+01 -9.642209112644195557e-02 1.509323239326477051e+00 4.238703250885009766e-01 -1.025949716567993164e-01
4.278000000000000000e+03 3.318000555038452148e+00 1.844100189208984375e+01 -1.825443804264068604e-01 1.409308195114135742e+00 3.680291175842285156e-01 -1.340611875057220459e-01
4.279000000000000000e+03 7.650685119628906250e+01 7.803204059600830078e-01 -2.449342489242553711e+00 9.052614212036132812e+00 1.980981469154357910e+00 1.648441106081008911e-01
4.280000000000000000e+03 3.517995452880859375e+01 5.081767082214355469e+00 7.363732457160949707e-01 7.890312194824218750e+00 2.588005542755126953e+00 1.608280181884765625e+00
4.281000000000000000e+03 3.656816482543945312e+01 4.719018936157226562e+00 4.348533749580383301e-01 1.135989379882812500e+01 3.538424253463745117e+00 1.062901377677917480e+00
4.282000000000000000e+03 7.747373199462890625e+01 -9.912354350090026855e-01 -8.493587374687194824e-01 1.043789577484130859e+01 2.876561164855957031e+00 8.142077326774597168e-01
4.283000000000000000e+03 7.677395629882812500e+01 1.325606346130371094e+01 -7.492610812187194824e-02 7.262609958648681641e+00 2.156305074691772461e+00 -8.619999885559082031e-01
4.284000000000000000e+03 4.868142318725585938e+01 -1.651127433776855469e+01 -1.584465429186820984e-02 1.462800860404968262e+00 4.340868592262268066e-01 -7.520588040351867676e-01
4.285000000000000000e+03 7.687966918945312500e+01 9.700475692749023438e+00 -9.024107456207275391e-01 1.035168266296386719e+01 2.834781408309936523e+00 -4.684476256370544434e-01
4.286000000000000000e+03 3.379626750946044922e+00 2.399540519714355469e+01 -3.477330505847930908e-02 1.380390882492065430e+00 4.036852717399597168e-01 1.469660997390747070e-01
4.287000000000000000e+03 2.562356233596801758e+00 2.387780189514160156e+01 -1.872958429157733917e-02 1.474552989006042480e+00 4.367470443248748779e-01 1.203865185379981995e-01
4.288000000000000000e+03 4.291797637939453125e+01 1.541714286804199219e+01 6.034352779388427734e-01 2.934808492660522461e+00 1.061473131179809570e+00 2.119646787643432617e+00
4.289000000000000000e+03 4.377641677856445312e+01 1.586772537231445312e+01 5.501017570495605469e-01 2.454009771347045898e+00 9.012334942817687988e-01 1.735294580459594727e+00
4.290000000000000000e+03 3.879228973388671875e+01 1.014578151702880859e+01 2.751914978027343750e+00 1.009090805053710938e+01 3.852847099304199219e+00 1.376604318618774414e+00
4.291000000000000000e+03 3.982624816894531250e+01 1.031063556671142578e+01 2.329263448715209961e+00 6.272833347320556641e+00 2.580629110336303711e+00 1.529861450195312500e+00
4.292000000000000000e+03 3.785509109497070312e+01 -1.751874923706054688e+01 1.300384521484375000e+00 1.758342266082763672e+00 9.176180362701416016e-01 4.474606812000274658e-01
4.293000000000000000e+03 7.726364135742187500e+01 1.799961662292480469e+01 1.607887744903564453e-01 6.710617542266845703e+00 2.061421871185302734e+00 -1.970628052949905396e-01
4.294000000000000000e+03 2.928534984588623047e+00 -4.486730575561523438e+00 -2.703112922608852386e-02 -5.594744533300399780e-02 -2.489357255399227142e-02 -7.881171256303787231e-02
4.295000000000000000e+03 4.246555328369140625e+01 1.429401397705078125e+01 9.195167422294616699e-01 2.775932073593139648e+00 1.108634591102600098e+00 2.288837194442749023e+00
4.296000000000000000e+03 3.132901191711425781e+00 2.262324142456054688e+01 -5.989859253168106079e-02 1.429753899574279785e+00 4.109565913677215576e-01 1.016574576497077942e-01
4.297000000000000000e+03 7.145616912841796875e+01 -6.085884571075439453e-01 -2.297573089599609375e+00 3.962758779525756836e+00 4.995557069778442383e-01 -3.663636445999145508e+00
4.298000000000000000e+03 7.336818695068359375e+01 -1.306631565093994141e+00 -9.934933781623840332e-01 2.811450481414794922e+00 5.453871488571166992e-01 -1.265106439590454102e+00
4.299000000000000000e+03 4.151816558837890625e+01 1.344050025939941406e+01 1.467178702354431152e+00 3.517153024673461914e+00 1.495299458503723145e+00 2.734652280807495117e+00
4.300000000000000000e+03 4.084203338623046875e+01 1.306725502014160156e+01 1.922108054161071777e+00 4.543212890625000000e+00 1.939596295356750488e+00 2.939723014831542969e+00
4.301000000000000000e+03 2.800993347167968750e+01 -5.216909408569335938e+00 1.688196182250976562e+00 1.012182140350341797e+01 3.543005466461181641e+00 1.736390233039855957e+00
4.302000000000000000e+03 2.829267311096191406e+01 -5.833293437957763672e+00 1.531377553939819336e+00 9.694217681884765625e+00 3.367678403854370117e+00 1.285495638847351074e+00
4.303000000000000000e+03 7.681301116943359375e+01 -2.875542259216308594e+01 3.508376702666282654e-02 6.619924545288085938e+00 1.996502518653869629e+00 1.864641010761260986e-01
4.304000000000000000e+03 3.127255249023437500e+01 -8.277824401855468750e+00 9.847738146781921387e-01 2.589870691299438477e+00 1.072393417358398438e+00 -1.322486758232116699e+00
4.305000000000000000e+03 1.469620227813720703e+01 -4.634944915771484375e+00 -3.407542407512664795e-01 8.310384303331375122e-02 -7.729511708021163940e-02 9.567549079656600952e-02
4.306000000000000000e+03 1.461103153228759766e+01 -5.699784755706787109e+00 -3.505837321281433105e-01 1.444264650344848633e-01 -6.184718012809753418e-02 4.007382690906524658e-02
4.307000000000000000e+03 7.732532501220703125e+01 -1.599911308288574219e+01 1.911844462156295776e-01 7.557443618774414062e+00 2.324588298797607422e+00 -3.352355957031250000e-01
4.308000000000000000e+03 6.872656250000000000e+01 6.137910485267639160e-01 -1.740901589393615723e+00 7.142134189605712891e+00 1.620369672775268555e+00 -9.748081564903259277e-01
4.309000000000000000e+03 9.874864578247070312e+00 1.086077117919921875e+01 -1.136526703834533691e+00 1.495318174362182617e+00 1.076374277472496033e-01 -6.827076673507690430e-01
4.310000000000000000e+03 7.398188018798828125e+01 -1.731881737709045410e+00 -9.272851943969726562e-01 3.737797498703002930e+00 8.431537151336669922e-01 -2.155451625585556030e-01
4.311000000000000000e+03 2.437214279174804688e+01 1.054534530639648438e+01 -3.940381765365600586e+00 7.624360084533691406e+00 1.105193495750427246e+00 1.600425124168395996e+00
4.312000000000000000e+03 6.471775054931640625e+00 -4.469493865966796875e+00 -9.434664994478225708e-02 8.638027124106884003e-03 -2.571258693933486938e-02 -1.151846423745155334e-01
4.313000000000000000e+03 2.606595277786254883e+00 -9.961448669433593750e+00 -4.073979507666081190e-04 -2.139797210693359375e-01 -6.431613117456436157e-02 -1.183475330471992493e-01
4.314000000000000000e+03 6.703986358642578125e+01 -1.815343475341796875e+01 4.058634638786315918e-01 2.186673641204833984e+00 7.777611017227172852e-01 -4.351757168769836426e-01
4.315000000000000000e+03 7.734767150878906250e+01 -5.642818927764892578e+00 -6.131630390882492065e-02 9.325667381286621094e+00 2.779305219650268555e+00 1.645792007446289062e+00
4.316000000000000000e+03 3.399671792984008789e+00 1.910922622680664062e+01 -1.483159661293029785e-01 1.419886827468872070e+00 3.814712464809417725e-01 -8.367306739091873169e-02
4.317000000000000000e+03 4.117524337768554688e+01 -7.787404537200927734e+00 3.338767290115356445e-01 7.394689559936523438e+00 2.318569898605346680e+00 -4.713004082441329956e-02
4.318000000000000000e+03 4.228600692749023438e+01 -6.501263618469238281e+00 1.437783360481262207e+00 8.302672386169433594e+00 2.922136783599853516e+00 6.683061718940734863e-01
4.319000000000000000e+03 3.763914489746093750e+01 6.882491588592529297e+00 -1.332993865013122559e+00 1.181269168853759766e+01 3.143909454345703125e+00 1.715624570846557617e+00
4.320000000000000000e+03 5.991174316406250000e+01 1.591184806823730469e+01 8.217604756355285645e-01 1.559939861297607422e+00 7.145100831985473633e-01 7.741400599479675293e-01
4.321000000000000000e+03 6.849979877471923828e+00 3.469974040985107422e+00 2.288218736648559570e+00 -3.738744854927062988e-01 5.743032693862915039e-01 9.085175991058349609e-01
4.322000000000000000e+03 6.531941890716552734e+00 4.229599475860595703e+00 2.486270904541015625e+00 -3.415110111236572266e-01 6.434279680252075195e-01 2.118476182222366333e-01
4.323000000000000000e+03 5.847716140747070312e+01 -1.344712924957275391e+01 6.470462083816528320e-01 9.357038497924804688e+00 3.001225471496582031e+00 5.044031739234924316e-01
4.324000000000000000e+03 7.278306579589843750e+01 -6.458118915557861328e+00 -5.256044864654541016e-01 7.052283287048339844e+00 1.958003640174865723e+00 3.386870771646499634e-02
4.325000000000000000e+03 3.456071472167968750e+01 -1.534525394439697266e+01 2.724740467965602875e-02 2.281332015991210938e+00 6.925738453865051270e-01 -1.108714222908020020e+00
4.326000000000000000e+03 3.541864776611328125e+01 -1.710670852661132812e+01 5.201511979103088379e-01 2.192078351974487305e+00 8.136688470840454102e-01 -9.119085669517517090e-01
4.327000000000000000e+03 7.415658569335937500e+01 1.240152549743652344e+01 7.663534879684448242e-01 4.915697097778320312e+00 1.704615235328674316e+00 -1.878010869026184082e+00
4.328000000000000000e+03 7.335366058349609375e+01 1.221801376342773438e+01 1.319924116134643555e+00 3.815864801406860352e+00 1.540736675262451172e+00 -1.533092737197875977e+00
4.329000000000000000e+03 7.685115814208984375e+01 -3.057707023620605469e+01 3.614377975463867188e-02 6.561180591583251953e+00 1.979197263717651367e+00 1.467346549034118652e-01
4.330000000000000000e+03 2.085485076904296875e+01 5.398533344268798828e+00 4.275402545928955078e+00 3.925271034240722656e+00 2.460201978683471680e+00 -3.425043523311614990e-01
4.331000000000000000e+03 2.116354560852050781e+01 4.976383686065673828e+00 5.332969188690185547e+00 5.979394435882568359e+00 3.393708944320678711e+00 -4.216705262660980225e-01
4.332000000000000000e+03 5.226811981201171875e+01 2.331867694854736328e+00 3.168272972106933594e+00 9.965364456176757812e+00 3.940091371536254883e+00 3.150328993797302246e-02
4.333000000000000000e+03 5.335110092163085938e+01 -1.627794057130813599e-01 -2.360290527343750000e+00 9.844902038574218750e+00 2.245383501052856445e+00 -1.940971374511718750e+00
4.334000000000000000e+03 5.504521369934082031e+00 3.900149345397949219e+00 1.520256042480468750e+00 -5.230373144149780273e-01 2.991656363010406494e-01 5.789487361907958984e-01
4.335000000000000000e+03 5.880122375488281250e+01 -1.735956382751464844e+01 1.466907978057861328e+00 8.513768196105957031e+00 2.994202852249145508e+00 -3.479255437850952148e-01
4.336000000000000000e+03 4.358534622192382812e+01 1.518811988830566406e+01 6.188794374465942383e-01 2.285005807876586914e+00 8.711655735969543457e-01 1.791637659072875977e+00
4.337000000000000000e+03 4.324104309082031250e+01 -1.687762641906738281e+01 9.220973849296569824e-01 7.420125007629394531e+00 2.502666711807250977e+00 -1.511822819709777832e+00
4.338000000000000000e+03 3.512854385375976562e+01 1.769020080566406250e+01 -9.716734886169433594e-01 3.091160774230957031e+00 6.358461380004882812e-01 -1.788959622383117676e+00
4.339000000000000000e+03 4.427647781372070312e+01 -1.416191196441650391e+01 1.205601572990417480e+00 6.862696170806884766e+00 2.420489311218261719e+00 -5.983491539955139160e-01
4.340000000000000000e+03 2.951610565185546875e+01 1.549464702606201172e+01 3.292776346206665039e-01 6.369439363479614258e-01 2.898664772510528564e-01 1.045912742614746094e+00
4.341000000000000000e+03 1.567446708679199219e+01 -7.388605594635009766e+00 -4.124211072921752930e-01 2.362207919359207153e-01 -5.286009609699249268e-02 -2.360548079013824463e-02
4.342000000000000000e+03 2.726153373718261719e+01 1.726227188110351562e+01 -2.003346383571624756e-01 5.035930633544921875e+00 1.450678825378417969e+00 1.969265460968017578e+00
4.343000000000000000e+03 5.395299530029296875e+01 -5.339070320129394531e+00 -2.019477844238281250e+00 4.615706443786621094e+00 7.788686752319335938e-01 -1.259778499603271484e+00
4.344000000000000000e+03 3.397690200805664062e+01 -1.585643291473388672e+01 1.383273005485534668e-01 2.610159873962402344e+00 8.245461583137512207e-01 -1.307578921318054199e+00
4.345000000000000000e+03 2.874240112304687500e+01 1.544559860229492188e+01 1.080665707588195801e+00 1.648930907249450684e+00 8.188790082931518555e-01 1.309155464172363281e+00
4.346000000000000000e+03 2.812458419799804688e+01 1.623703002929687500e+01 1.344108581542968750e+00 3.456894874572753906e+00 1.440301060676574707e+00 2.363970994949340820e+00
4.347000000000000000e+03 4.651611709594726562e+01 1.755830764770507812e+01 1.004559874534606934e+00 2.275055885314941406e+00 9.838847517967224121e-01 1.207782477140426636e-01
4.348000000000000000e+03 4.855319595336914062e+01 -1.267085909843444824e+00 -7.219032645225524902e-01 5.662525892257690430e-01 -4.669521003961563110e-02 2.873393058776855469e+00
4.349000000000000000e+03 1.716065597534179688e+01 -7.063450813293457031e+00 -5.918169021606445312e-01 1.202065572142601013e-01 -1.414830982685089111e-01 1.329424381256103516e-01
4.350000000000000000e+03 4.472966003417968750e+01 -6.593697667121887207e-01 -2.883579730987548828e+00 4.972589492797851562e+00 6.267029643058776855e-01 2.858214139938354492e+00
4.351000000000000000e+03 6.981582641601562500e+01 9.410157203674316406e+00 -9.983469247817993164e-01 5.928128242492675781e+00 1.478934407234191895e+00 7.708836793899536133e-01
4.352000000000000000e+03 3.117823791503906250e+01 1.477674961090087891e+01 -1.649226188659667969e+00 -1.449887275695800781e+00 -9.297340512275695801e-01 -5.801932215690612793e-01
4.353000000000000000e+03 1.787989044189453125e+01 -9.026253700256347656e+00 -2.073303759098052979e-01 2.169519811868667603e-01 2.886485541239380836e-03 -2.682051435112953186e-02
4.354000000000000000e+03 6.691180419921875000e+01 1.622130203247070312e+01 -5.168465375900268555e-01 8.204951286315917969e+00 2.306431293487548828e+00 -4.905283749103546143e-01
4.355000000000000000e+03 6.702781677246093750e+01 1.461690711975097656e+01 -1.446331441402435303e-01 9.944922447204589844e+00 2.940086841583251953e+00 3.593666255474090576e-01
4.356000000000000000e+03 5.358197784423828125e+01 1.521680068969726562e+01 1.057636380195617676e+00 8.294376373291015625e+00 2.805603742599487305e+00 2.187265872955322266e+00
4.357000000000000000e+03 3.894490242004394531e+00 3.024117088317871094e+01 2.356258034706115723e-02 1.175045847892761230e+00 3.595825433731079102e-01 1.756280511617660522e-01
4.358000000000000000e+03 8.025858879089355469e+00 8.403359413146972656e+00 1.497603356838226318e-01 2.303663969039916992e+00 7.360273003578186035e-01 -1.899694681167602539e+00
4.359000000000000000e+03 5.733123779296875000e+01 -5.839456319808959961e-01 -1.575074195861816406e+00 1.111339092254638672e+00 -1.391205340623855591e-01 -3.845497131347656250e+00
4.360000000000000000e+03 1.048022365570068359e+01 -4.198977470397949219e+00 -2.032754570245742798e-01 8.938165009021759033e-02 -3.416814282536506653e-02 -4.900382086634635925e-02
4.361000000000000000e+03 1.336739063262939453e+01 -3.980001211166381836e+00 -3.039155602455139160e-01 1.016176566481590271e-01 -6.068937107920646667e-02 5.475607886910438538e-02
4.362000000000000000e+03 5.026791000366210938e+01 1.809353828430175781e+01 -3.869610130786895752e-01 6.995421886444091797e+00 1.982538223266601562e+00 -1.006790518760681152e+00
4.363000000000000000e+03 3.191106224060058594e+01 2.445997476577758789e+00 1.495544195175170898e+00 3.351361989974975586e+00 1.454071879386901855e+00 5.578150749206542969e+00
4.364000000000000000e+03 5.079867935180664062e+01 3.416887521743774414e+00 2.462654352188110352e+00 7.113101482391357422e+00 2.872726678848266602e+00 5.436401963233947754e-01
4.365000000000000000e+03 6.705181121826171875e+01 8.119761466979980469e+00 -6.668464541435241699e-01 1.211984825134277344e+01 3.435900688171386719e+00 -1.083989262580871582e+00
4.366000000000000000e+03 7.418117523193359375e+01 -1.557238674163818359e+01 9.188244342803955078e-01 9.474626541137695312e+00 3.118035078048706055e+00 3.270358964800834656e-02
4.367000000000000000e+03 3.799460220336914062e+01 -3.293072938919067383e+00 -2.318303585052490234e+00 4.683207035064697266e+00 7.094711065292358398e-01 -2.283516883850097656e+00
4.368000000000000000e+03 3.852806472778320312e+01 -3.222325086593627930e+00 -2.082762479782104492e+00 4.937412261962890625e+00 8.563949465751647949e-01 -3.005692958831787109e+00
4.369000000000000000e+03 4.813529586791992188e+01 1.716766929626464844e+01 1.029557347297668457e+00 2.826955080032348633e+00 1.156953692436218262e+00 -1.386194348335266113e+00
4.370000000000000000e+03 6.121835708618164062e+01 -1.139795017242431641e+01 -2.182051241397857666e-01 8.018641471862792969e+00 2.340130805969238281e+00 9.153449535369873047e-01
4.371000000000000000e+03 2.518619918823242188e+01 -1.242834281921386719e+01 -2.019907385110855103e-01 7.325063705444335938e+00 2.136921882629394531e+00 1.871995687484741211e+00
4.372000000000000000e+03 5.817086029052734375e+01 -1.651111221313476562e+01 1.479539990425109863e+00 9.578384399414062500e+00 3.317377328872680664e+00 3.116467036306858063e-02
4.373000000000000000e+03 5.861915588378906250e+01 -1.507505321502685547e+01 8.917475342750549316e-01 9.485130310058593750e+00 3.113063335418701172e+00 2.832589149475097656e-01
4.374000000000000000e+03 8.058197975158691406e+00 9.689256668090820312e+00 -5.512061119079589844e-01 2.073781490325927734e+00 4.567726254463195801e-01 -1.442497014999389648e+00
4.375000000000000000e+03 6.636869049072265625e+01 -1.903378105163574219e+01 6.911414861679077148e-01 2.976215839385986328e+00 1.100207209587097168e+00 -6.920092105865478516e-01
4.376000000000000000e+03 3.523751449584960938e+01 1.717280507087707520e+00 4.949530124664306641e+00 5.205951690673828125e+00 3.046644449234008789e+00 1.537286877632141113e+00
4.377000000000000000e+03 3.608024597167968750e+01 3.106453418731689453e+00 3.497115850448608398e+00 9.544593811035156250e+00 3.912513017654418945e+00 6.266189813613891602e-01
4.378000000000000000e+03 3.659634399414062500e+01 -1.846407699584960938e+01 8.014629483222961426e-01 2.344532966613769531e+00 9.437987804412841797e-01 -2.298134416341781616e-01
4.379000000000000000e+03 5.659408950805664062e+01 -2.155315780639648438e+01 -6.288768053054809570e-01 7.669299125671386719e+00 2.112126588821411133e+00 1.007032275199890137e+00
4.380000000000000000e+03 6.228474807739257812e+01 -1.264562320709228516e+01 -5.237708687782287598e-01 6.911602497100830078e+00 1.916349530220031738e+00 2.423416972160339355e-01
4.381000000000000000e+03 5.204571533203125000e+01 1.755960083007812500e+01 -5.618875622749328613e-01 8.091145515441894531e+00 2.258777379989624023e+00 6.224687695503234863e-01
4.382000000000000000e+03 2.768224334716796875e+01 1.286407947540283203e+01 -9.805337190628051758e-01 2.990473031997680664e+00 6.029818058013916016e-01 -5.163323879241943359e-01
4.383000000000000000e+03 4.997486877441406250e+01 -2.111536598205566406e+01 5.227258205413818359e-01 2.262979507446289062e+00 8.357115983963012695e-01 -8.883131146430969238e-01
4.384000000000000000e+03 5.917868423461914062e+01 -1.267159938812255859e+01 2.897434234619140625e-01 8.814394950866699219e+00 2.731241703033447266e+00 7.806912660598754883e-01
4.385000000000000000e+03 5.811483001708984375e+01 -1.199424076080322266e+01 3.271968960762023926e-01 9.126816749572753906e+00 2.836204051971435547e+00 5.906407833099365234e-01
4.386000000000000000e+03 1.553527355194091797e+01 1.607674407958984375e+01 -1.629884839057922363e+00 -1.543446183204650879e-01 -5.352688431739807129e-01 -4.542503058910369873e-01
4.387000000000000000e+03 2.952401351928710938e+01 1.484993553161621094e+01 -6.326811760663986206e-02 2.489091362804174423e-03 -1.823370717465877533e-02 3.191260397434234619e-01
4.388000000000000000e+03 2.873375320434570312e+01 1.469041442871093750e+01 6.358793377876281738e-01 1.514932751655578613e+00 6.452436447143554688e-01 7.649229764938354492e-01
4.389000000000000000e+03 6.327019882202148438e+01 -1.393886089324951172e+01 -6.252098679542541504e-01 5.502184867858886719e+00 1.463092565536499023e+00 -3.762914836406707764e-01
4.390000000000000000e+03 7.309063720703125000e+01 -1.783302497863769531e+01 -9.441730976104736328e-01 8.415504455566406250e+00 2.241399526596069336e+00 1.221684813499450684e+00
4.391000000000000000e+03 7.284478759765625000e+01 -1.699727249145507812e+01 -8.232912421226501465e-01 9.442996978759765625e+00 2.585911750793457031e+00 1.260799050331115723e+00
4.392000000000000000e+03 4.800221633911132812e+01 2.533192396163940430e+00 9.793126583099365234e-01 2.951546669006347656e+00 1.179257750511169434e+00 2.065789222717285156e+00
4.393000000000000000e+03 4.886856079101562500e+01 3.696285724639892578e+00 1.556508779525756836e+00 4.167682647705078125e+00 1.717257380485534668e+00 1.416011452674865723e+00
4.394000000000000000e+03 5.361075973510742188e+01 -2.114713859558105469e+01 7.374116182327270508e-01 2.634855985641479492e+00 1.011680245399475098e+00 1.405566334724426270e+00
4.395000000000000000e+03 5.419498062133789062e+01 -2.248003768920898438e+01 4.853835403919219971e-01 4.030931472778320312e+00 1.354894399642944336e+00 1.325257301330566406e+00
4.396000000000000000e+03 5.374868774414062500e+01 1.154177379608154297e+01 1.243346452713012695e+00 9.100153923034667969e+00 3.103050231933593750e+00 5.763539671897888184e-01
4.397000000000000000e+03 3.272367858886718750e+01 2.244918107986450195e+00 3.192507743835449219e+00 2.426261663436889648e+00 1.685630798339843750e+00 4.996549606323242188e+00
4.398000000000000000e+03 3.127424430847167969e+01 2.308797121047973633e+00 1.670121699571609497e-01 4.781995296478271484e+00 1.484702229499816895e+00 5.341541290283203125e+00
4.399000000000000000e+03 7.444996643066406250e+01 -7.564311027526855469e+00 1.119378283619880676e-01 8.432760238647460938e+00 2.563409566879272461e+00 1.315956950187683105e+00
4.400000000000000000e+03 6.594880676269531250e+01 5.477900028228759766e+00 3.636824488639831543e-01 8.367961883544921875e+00 2.619493246078491211e+00 -7.878478616476058960e-03
4.401000000000000000e+03 2.833502197265625000e+01 4.773804247379302979e-01 3.602230787277221680e+00 3.433831930160522461e+00 2.110818862915039062e+00 7.944175004959106445e-01
4.402000000000000000e+03 2.866803932189941406e+01 -7.357616424560546875e+00 2.289541721343994141e+00 8.322119712829589844e+00 3.183498382568359375e+00 -2.087041139602661133e-01
4.403000000000000000e+03 6.643479919433593750e+01 7.868079185485839844e+00 -4.163672626018524170e-01 1.203917503356933594e+01 3.486842393875122070e+00 -2.316966354846954346e-01
4.404000000000000000e+03 3.106872558593750000e+00 -2.492236900329589844e+01 1.381225045770406723e-02 -3.482605218887329102e-01 -1.003344804048538208e-01 2.891005948185920715e-02
4.405000000000000000e+03 4.250386428833007812e+01 -8.929039001464843750e+00 -1.543191373348236084e-01 9.387022018432617188e+00 2.769810676574707031e+00 7.075433135032653809e-01
4.406000000000000000e+03 6.644017028808593750e+01 5.966224193572998047e+00 7.126151025295257568e-02 9.474486351013183594e+00 2.863724470138549805e+00 -6.506114006042480469e-01
4.407000000000000000e+03 1.396709918975830078e+01 -3.705412149429321289e+00 -2.893109023571014404e-01 7.290194183588027954e-02 -6.492269039154052734e-02 8.807874470949172974e-02
4.408000000000000000e+03 1.329531288146972656e+01 -3.244989156723022461e+00 -2.508123815059661865e-01 6.696932017803192139e-02 -5.515291541814804077e-02 6.900724023580551147e-02
4.409000000000000000e+03 6.736084747314453125e+01 1.171897649765014648e+00 -5.508706569671630859e-01 6.213533401489257812e+00 1.698798894882202148e+00 1.207545995712280273e+00
4.410000000000000000e+03 6.806077575683593750e+01 1.467889547348022461e+00 -4.510292410850524902e-01 7.623485088348388672e+00 2.151736736297607422e+00 5.258041024208068848e-01
4.411000000000000000e+03 2.878040313720703125e+00 -2.336538887023925781e+01 1.514924876391887665e-02 -3.958256542682647705e-01 -1.142029240727424622e-01 1.579656079411506653e-02
4.412000000000000000e+03 3.659248352050781250e+00 -2.319489479064941406e+01 2.860927395522594452e-02 -2.957775890827178955e-01 -8.015049248933792114e-02 2.197218313813209534e-02
4.413000000000000000e+03 2.506933021545410156e+01 1.892336654663085938e+01 -2.318306446075439453e+00 5.232334136962890625e+00 8.742082715034484863e-01 -1.276489377021789551e+00
4.414000000000000000e+03 2.220774841308593750e+01 1.964854240417480469e+01 -9.683631658554077148e-01 6.775717735290527344e-01 -8.723741769790649414e-02 -1.366120219230651855e+00
4.415000000000000000e+03 2.154129028320312500e+01 1.927856636047363281e+01 -9.035840034484863281e-01 2.135683447122573853e-01 -2.070046961307525635e-01 -1.032810091972351074e+00
4.416000000000000000e+03 6.455178070068359375e+01 1.812204742431640625e+01 1.693184822797775269e-01 5.245856285095214844e+00 1.624552369117736816e+00 -1.453743577003479004e+00
4.417000000000000000e+03 6.287368774414062500e+01 1.644223022460937500e+01 8.264264464378356934e-01 2.516739368438720703e+00 1.002949714660644531e+00 -1.514328598976135254e+00
4.418000000000000000e+03 1.978141212463378906e+01 4.594193458557128906e+00 6.247601032257080078e+00 4.881950616836547852e-01 2.020738840103149414e+00 1.709285825490951538e-01
4.419000000000000000e+03 1.917148971557617188e+01 5.509749412536621094e+00 3.423994779586791992e+00 -9.232419729232788086e-02 9.995011687278747559e-01 -2.289572358131408691e-01
4.420000000000000000e+03 6.197564315795898438e+01 -2.111760854721069336e+00 -1.014654636383056641e+00 8.230674743652343750e+00 2.164805889129638672e+00 1.157167792320251465e+00
4.421000000000000000e+03 4.551893234252929688e+01 -1.482327270507812500e+01 8.377498984336853027e-01 4.740685939788818359e+00 1.673530817031860352e+00 -1.100497484207153320e+00
4.422000000000000000e+03 4.580657577514648438e+01 -1.421840572357177734e+01 7.397869825363159180e-01 4.352986335754394531e+00 1.527832031250000000e+00 -9.911943078041076660e-01
4.423000000000000000e+03 7.593946838378906250e+01 -1.282044029235839844e+01 1.008056282997131348e+00 8.732931137084960938e+00 2.922296285629272461e+00 6.771993637084960938e-01
4.424000000000000000e+03 7.514320373535156250e+01 -1.228991603851318359e+01 1.211132287979125977e+00 9.461709976196289062e+00 3.201852560043334961e+00 9.476056694984436035e-01
4.425000000000000000e+03 3.824800491333007812e+01 1.790440940856933594e+01 -1.657633185386657715e+00 6.023465156555175781e+00 1.309749603271484375e+00 1.145264729857444763e-01
4.426000000000000000e+03 3.658248138427734375e+01 1.652753257751464844e+01 -2.201259851455688477e+00 6.358037471771240234e+00 1.247033357620239258e+00 -1.702039122581481934e+00
4.427000000000000000e+03 6.986207580566406250e+01 -1.630599498748779297e+00 -3.376583576202392578e+00 4.999576568603515625e+00 4.868979156017303467e-01 -2.307494163513183594e+00
4.428000000000000000e+03 7.138154602050781250e+01 -1.345017552375793457e+00 -2.663423299789428711e+00 4.337857246398925781e+00 5.023301839828491211e-01 -3.076158761978149414e+00
4.429000000000000000e+03 5.528855514526367188e+01 -5.316046476364135742e-01 -2.865096330642700195e+00 6.440515041351318359e+00 1.072625517845153809e+00 -5.596955776214599609e+00
4.430000000000000000e+03 2.624516487121582031e+01 -1.157891845703125000e+01 -1.105807274580001831e-01 9.292201042175292969e+00 2.754486083984375000e+00 6.078339219093322754e-01
4.431000000000000000e+03 2.748229408264160156e+01 -1.052599143981933594e+01 1.415682673454284668e+00 8.877852439880371094e+00 3.088060617446899414e+00 -1.233958244323730469e+00
4.432000000000000000e+03 2.084026527404785156e+01 1.892745971679687500e+01 -1.236437797546386719e+00 -2.827373519539833069e-02 -3.794134855270385742e-01 -8.426766395568847656e-01
4.433000000000000000e+03 2.832850456237792969e+01 -8.061576843261718750e+00 2.726610422134399414e+00 8.417771339416503906e+00 3.343314647674560547e+00 -6.584478616714477539e-01
4.434000000000000000e+03 4.843681716918945312e+01 4.173867702484130859e+00 1.380428314208984375e+00 3.318590641021728516e+00 1.409705638885498047e+00 1.525341033935546875e+00
4.435000000000000000e+03 6.456327056884765625e+01 -1.655288887023925781e+01 -7.865988463163375854e-02 3.907950401306152344e+00 1.148787140846252441e+00 -1.007957100868225098e+00
4.436000000000000000e+03 2.900022888183593750e+01 8.025338649749755859e-01 1.795558691024780273e+00 4.692514419555664062e+00 1.946421861648559570e+00 1.051765084266662598e+00
4.437000000000000000e+03 6.153768539428710938e+01 9.497448205947875977e-01 -3.880451202392578125e+00 4.497668743133544922e+00 1.851652264595031738e-01 1.473691105842590332e+00
4.438000000000000000e+03 6.500536346435546875e+01 3.996711969375610352e+00 1.309450268745422363e-01 5.859425544738769531e+00 1.797111153602600098e+00 1.416806578636169434e+00
4.439000000000000000e+03 6.569272613525390625e+01 4.474301815032958984e+00 5.476572513580322266e-01 7.076016426086425781e+00 2.287102222442626953e+00 7.666780948638916016e-01
4.440000000000000000e+03 6.914923095703125000e+01 9.346193313598632812e+00 -3.557104170322418213e-01 8.494702339172363281e+00 2.441697597503662109e+00 6.324014812707901001e-02
4.441000000000000000e+03 6.475087738037109375e+01 -1.559111881256103516e+01 -3.869073987007141113e-01 3.642234563827514648e+00 9.765981435775756836e-01 -8.156070113182067871e-01
4.442000000000000000e+03 3.603805923461914062e+01 -1.564289283752441406e+01 7.485278695821762085e-02 1.563322305679321289e+00 4.914525151252746582e-01 -8.185107707977294922e-01
4.443000000000000000e+03 7.739994812011718750e+01 -1.407204723358154297e+01 4.812678396701812744e-01 7.579458713531494141e+00 2.418217897415161133e+00 7.754896581172943115e-02
4.444000000000000000e+03 7.689904022216796875e+01 -1.548167705535888672e+01 4.613153338432312012e-01 7.809741973876953125e+00 2.481317043304443359e+00 -2.807284593582153320e-01
4.445000000000000000e+03 5.352655792236328125e+01 -3.779743909835815430e+00 -3.301060914993286133e+00 5.308676242828369141e+00 6.022846102714538574e-01 -1.962256789207458496e+00
4.446000000000000000e+03 5.209724426269531250e+01 -3.649361371994018555e+00 -4.039719104766845703e+00 3.861931324005126953e+00 -5.333632975816726685e-02 -8.958632349967956543e-01
4.447000000000000000e+03 4.663586807250976562e+01 9.696195721626281738e-01 -8.356729149818420410e-01 2.805578947067260742e+00 5.909717679023742676e-01 3.057779788970947266e+00
4.448000000000000000e+03 4.181578063964843750e+01 -9.195598602294921875e+00 -2.639931142330169678e-01 9.111770629882812500e+00 2.654333114624023438e+00 3.293958604335784912e-01
4.449000000000000000e+03 4.142837142944335938e+01 -8.475492477416992188e+00 9.345459192991256714e-02 8.324714660644531250e+00 2.525450706481933594e+00 1.409327536821365356e-01
4.450000000000000000e+03 3.747306346893310547e+00 3.358664274215698242e+00 4.103975892066955566e-01 -4.896582663059234619e-01 -2.377820573747158051e-02 7.170567512512207031e-01
4.451000000000000000e+03 7.596440124511718750e+01 1.023374271392822266e+01 -8.385687470436096191e-01 8.996835708618164062e+00 2.447479963302612305e+00 -1.729479432106018066e+00
4.452000000000000000e+03 6.242192840576171875e+01 -1.511167764663696289e+00 -2.502583265304565430e+00 8.507658004760742188e+00 1.801522374153137207e+00 1.506835579872131348e+00
4.453000000000000000e+03 3.912703704833984375e+01 1.361896610260009766e+01 1.463877558708190918e+00 8.534866333007812500e+00 2.999623298645019531e+00 3.562205791473388672e+00
4.454000000000000000e+03 1.051768016815185547e+01 1.112562084197998047e+01 -1.185683250427246094e+00 1.242342352867126465e+00 1.699770428240299225e-02 -4.715953171253204346e-01
4.455000000000000000e+03 6.831201934814453125e+01 -2.641296863555908203e+00 -4.313287734985351562e+00 3.103182077407836914e+00 -3.630316555500030518e-01 -4.462680220603942871e-01
4.456000000000000000e+03 6.824520874023437500e+01 -1.957345771789550781e+01 9.876779317855834961e-01 2.890768289566040039e+00 1.163533926010131836e+00 5.114897489547729492e-01
4.457000000000000000e+03 5.179860305786132812e+01 -3.158908843994140625e+00 -4.055471897125244141e+00 3.895278692245483398e+00 -4.805792495608329773e-02 -7.373983860015869141e-01
4.458000000000000000e+03 3.898599243164062500e+01 -1.939013290405273438e+01 5.354954004287719727e-01 3.979690313339233398e+00 1.354555726051330566e+00 1.041053533554077148e+00
4.459000000000000000e+03 3.941538619995117188e+01 -1.847574424743652344e+01 1.061006665229797363e+00 4.346598148345947266e+00 1.622281551361083984e+00 1.631491065025329590e+00
4.460000000000000000e+03 7.639068603515625000e+01 2.803933525085449219e+01 -5.755313206464052200e-03 6.647675991058349609e+00 1.992576241493225098e+00 2.409652434289455414e-02
4.461000000000000000e+03 7.603421020507812500e+01 1.170689201354980469e+01 -5.872963666915893555e-01 7.879495143890380859e+00 2.187659740447998047e+00 -1.529198288917541504e+00
4.462000000000000000e+03 7.250284576416015625e+01 1.224502277374267578e+01 1.809383273124694824e+00 3.305579662322998047e+00 1.534488916397094727e+00 -6.417638659477233887e-01
4.463000000000000000e+03 2.745984077453613281e+01 -5.546625614166259766e+00 2.100759506225585938e+00 1.097608184814453125e+01 3.923052549362182617e+00 1.512286067008972168e+00
4.464000000000000000e+03 5.013430786132812500e+01 -1.702343583106994629e+00 -2.219563007354736328e+00 2.047900915145874023e+00 -5.149864405393600464e-02 8.251999616622924805e-01
4.465000000000000000e+03 3.919413757324218750e+01 1.283102130889892578e+01 2.667624711990356445e+00 8.725805282592773438e+00 3.418028831481933594e+00 3.352149724960327148e+00
4.466000000000000000e+03 5.535235977172851562e+01 -8.296358108520507812e+00 6.825602799654006958e-02 5.883315563201904297e+00 1.785471439361572266e+00 -1.027729034423828125e+00
4.467000000000000000e+03 7.162192535400390625e+01 1.162230014801025391e+01 1.857545018196105957e+00 3.194149017333984375e+00 1.515508174896240234e+00 3.853198587894439697e-01
4.468000000000000000e+03 7.048075866699218750e+01 1.100248146057128906e+01 1.350512146949768066e+00 4.308644294738769531e+00 1.697746992111206055e+00 1.231019139289855957e+00
4.469000000000000000e+03 1.417817974090576172e+01 -1.884590387344360352e+00 -1.755442917346954346e-01 1.307504530996084213e-02 -4.874077439308166504e-02 9.529686719179153442e-02
4.470000000000000000e+03 2.935184001922607422e+00 5.462916851043701172e+00 5.801490545272827148e-01 -5.096036791801452637e-01 2.116361819207668304e-02 2.739594783633947372e-03
4.471000000000000000e+03 4.356317901611328125e+01 -5.300963521003723145e-01 -3.463755607604980469e+00 4.279787063598632812e+00 2.448094636201858521e-01 1.220568180084228516e+00
4.472000000000000000e+03 5.223757553100585938e+01 -2.196738243103027344e+00 -3.505021095275878906e+00 5.297537326812744141e+00 5.377548933029174805e-01 -1.303542375564575195e+00
4.473000000000000000e+03 4.135948562622070312e+01 -1.932222247123718262e+00 3.165673613548278809e-01 1.748947620391845703e+00 6.196544766426086426e-01 -2.857604026794433594e+00
4.474000000000000000e+03 7.783238983154296875e+01 -2.697431182861328125e+01 1.502286083996295929e-02 6.852624416351318359e+00 2.060294151306152344e+00 1.631038188934326172e-01
4.475000000000000000e+03 3.403624725341796875e+01 7.821081280708312988e-01 4.254287242889404297e+00 6.502894759178161621e-01 1.471373081207275391e+00 3.279712915420532227e+00
4.476000000000000000e+03 3.414958572387695312e+01 1.836267828941345215e+00 4.470258235931396484e+00 2.517592430114746094e+00 2.096355199813842773e+00 3.128674983978271484e+00
4.477000000000000000e+03 6.865444183349609375e+01 3.246814489364624023e+00 3.022325277328491211e+00 1.185376644134521484e+01 4.462827205657958984e+00 -7.019830346107482910e-01
4.478000000000000000e+03 3.296554565429687500e+00 2.586661338806152344e+01 -1.457799691706895828e-02 1.337353348731994629e+00 3.968325853347778320e-01 1.701734215021133423e-01
4.479000000000000000e+03 3.470761299133300781e+00 2.741765785217285156e+01 -1.680524088442325592e-03 1.275480389595031738e+00 3.821399509906768799e-01 1.846371442079544067e-01
4.480000000000000000e+03 2.082168006896972656e+01 -1.166525840759277344e+01 1.281675457954406738e+00 7.796365022659301758e-01 6.183935999870300293e-01 9.931516647338867188e-01
4.481000000000000000e+03 6.223437881469726562e+01 1.425877809524536133e+00 -3.457898616790771484e+00 4.727862834930419922e+00 3.809892535209655762e-01 2.165618419647216797e+00
4.482000000000000000e+03 4.440369796752929688e+01 1.452810764312744141e+00 -2.392940759658813477e+00 2.215724945068359375e+00 -5.316473543643951416e-02 8.267856240272521973e-01
4.483000000000000000e+03 7.756305694580078125e+01 2.034713983535766602e+00 -1.277105569839477539e+00 1.150270652770996094e+01 3.067680120468139648e+00 -1.852550268173217773e+00
4.484000000000000000e+03 2.462617111206054688e+01 -5.463372468948364258e-01 1.560122489929199219e+00 5.226153373718261719e+00 2.035882711410522461e+00 -4.873871803283691406e+00
4.485000000000000000e+03 2.401460838317871094e+01 5.957400202751159668e-01 2.410683967173099518e-02 6.598087787628173828e+00 1.986658334732055664e+00 -6.617523193359375000e+00
4.486000000000000000e+03 3.827816772460937500e+01 8.554639816284179688e+00 -2.183863073587417603e-01 1.159440898895263672e+01 3.412806749343872070e+00 9.718948602676391602e-01
4.487000000000000000e+03 1.856118774414062500e+01 1.757701110839843750e+01 -1.722894549369812012e+00 -2.737641930580139160e-01 -5.989975929260253906e-01 -4.933924973011016846e-01
4.488000000000000000e+03 4.726701354980468750e+01 -1.645704078674316406e+01 3.675378262996673584e-01 2.847568750381469727e+00 9.645320177078247070e-01 -1.301741361618041992e+00
4.489000000000000000e+03 4.422657775878906250e+01 -1.569007492065429688e+01 1.379958271980285645e+00 6.289234638214111328e+00 2.300757884979248047e+00 -1.323458790779113770e+00
4.490000000000000000e+03 4.293909835815429688e+01 -1.507518005371093750e+01 1.719798803329467773e+00 8.623902320861816406e+00 3.103110313415527344e+00 -4.909949004650115967e-01
4.491000000000000000e+03 3.141656303405761719e+01 1.642724990844726562e+01 -1.009676530957221985e-01 -3.758838474750518799e-01 -1.430554538965225220e-01 1.105353608727455139e-01
4.492000000000000000e+03 6.222190093994140625e+01 1.710577011108398438e+01 9.849221706390380859e-01 2.396289110183715820e+00 1.014363408088684082e+00 -8.900536894798278809e-01
4.493000000000000000e+03 6.047097015380859375e+01 1.645288658142089844e+01 9.879055619239807129e-01 1.730623006820678711e+00 8.155585527420043945e-01 3.743032813072204590e-01
4.494000000000000000e+03 4.903889846801757812e+01 -1.853290367126464844e+01 1.309734955430030823e-02 2.007225513458251953e+00 6.060968041419982910e-01 -1.096790790557861328e+00
4.495000000000000000e+03 4.979277420043945312e+01 -1.786312294006347656e+01 -3.224043548107147217e-01 1.334921360015869141e+00 3.037551045417785645e-01 -6.701845526695251465e-01
4.496000000000000000e+03 3.599536657333374023e+00 -2.187091445922851562e+01 2.831939980387687683e-02 -3.168845176696777344e-01 -8.656953275203704834e-02 1.921323477290570736e-03
4.497000000000000000e+03 7.588247680664062500e+01 2.437354660034179688e+01 4.067203961312770844e-03 6.632132530212402344e+00 1.990859866142272949e+00 2.992863208055496216e-02
4.498000000000000000e+03 7.674889373779296875e+01 2.232832145690917969e+01 3.479456901550292969e-02 6.673202514648437500e+00 2.012399196624755859e+00 1.928723417222499847e-02
4.499000000000000000e+03 3.000058174133300781e+00 2.965475845336914062e+01 1.287030428647994995e-02 1.236205339431762695e+00 3.747226893901824951e-01 1.576330512762069702e-01
4.500000000000000000e+03 7.331176757812500000e+01 -3.115869331359863281e+01 1.438655257225036621e-01 6.144865036010742188e+00 1.886619210243225098e+00 1.886717379093170166e-01
4.501000000000000000e+03 7.397528076171875000e+01 2.691557502746582031e+01 -1.647398620843887329e-02 6.507668495178222656e+00 1.947358369827270508e+00 7.990544661879539490e-03
4.502000000000000000e+03 4.540668869018554688e+01 -4.672835171222686768e-01 -2.575473070144653320e+00 4.731232166290283203e+00 6.467278003692626953e-01 3.795906782150268555e+00
4.503000000000000000e+03 4.310166168212890625e+01 -1.362499475479125977e+00 -2.351372003555297852e+00 4.885799407958984375e+00 7.603281736373901367e-01 2.401311695575714111e-01
4.504000000000000000e+03 5.545306777954101562e+01 -5.333284854888916016e+00 -1.227535128593444824e+00 5.340813159942626953e+00 1.233983397483825684e+00 -1.578089714050292969e+00
4.505000000000000000e+03 5.450630569458007812e+01 -5.137750625610351562e+00 -1.841024875640869141e+00 5.054068565368652344e+00 9.639131426811218262e-01 -1.658743739128112793e+00
4.506000000000000000e+03 5.071390151977539062e+01 -1.185670256614685059e+00 -2.046541690826416016e+00 3.731551408767700195e+00 5.055028796195983887e-01 5.328614711761474609e-01
4.507000000000000000e+03 5.155684661865234375e+01 -2.523083925247192383e+00 -3.883270502090454102e+00 4.260355949401855469e+00 1.131256520748138428e-01 -7.187886238098144531e-01
4.508000000000000000e+03 2.506097984313964844e+01 -8.784013986587524414e-01 2.529398202896118164e+00 4.578330039978027344e+00 2.132318496704101562e+00 -4.007257938385009766e+00
4.509000000000000000e+03 5.512891006469726562e+01 1.186426925659179688e+01 7.804957032203674316e-01 5.927538871765136719e+00 2.012410402297973633e+00 1.163824915885925293e+00
4.510000000000000000e+03 5.428900909423828125e+01 1.102871131896972656e+01 7.273699045181274414e-01 7.925311565399169922e+00 2.595804452896118164e+00 6.557090282440185547e-01
4.511000000000000000e+03 5.778986740112304688e+01 -1.301428079605102539e+00 -1.143122553825378418e+00 1.893648505210876465e+00 2.251577824354171753e-01 -2.925824403762817383e+00
4.512000000000000000e+03 5.725865554809570312e+01 -1.202073097229003906e+00 -1.489521980285644531e+00 2.203819751739501953e+00 2.142893075942993164e-01 -3.770156621932983398e+00
4.513000000000000000e+03 6.451321411132812500e+01 4.465831279754638672e+00 6.029329448938369751e-02 5.460428714752197266e+00 1.656216621398925781e+00 1.322472691535949707e+00
4.514000000000000000e+03 7.679137420654296875e+01 -7.862907052040100098e-01 -1.154646635055541992e+00 9.089971542358398438e+00 2.380597352981567383e+00 8.827067017555236816e-01
4.515000000000000000e+03 3.149851989746093750e+01 -1.161397457122802734e+01 9.085614085197448730e-01 3.338333606719970703e+00 1.274068474769592285e+00 -1.838924765586853027e+00
4.516000000000000000e+03 5.299022674560546875e+01 -7.474082112312316895e-01 -2.843832731246948242e+00 8.315627098083496094e+00 1.641538500785827637e+00 -1.442573666572570801e+00
4.517000000000000000e+03 5.366418838500976562e+01 -7.014350295066833496e-01 -2.983310461044311523e+00 8.638346672058105469e+00 1.696510910987854004e+00 -2.805906295776367188e+00
4.518000000000000000e+03 1.333405208587646484e+01 -2.559509515762329102e+00 -2.272966802120208740e-01 4.871496185660362244e-02 -5.357451364398002625e-02 8.107969909906387329e-02
4.519000000000000000e+03 5.171097183227539062e+01 6.846352100372314453e+00 -5.020278096199035645e-01 1.139418792724609375e+01 3.267648220062255859e+00 -7.618756890296936035e-01
4.520000000000000000e+03 5.249858856201171875e+01 6.705188751220703125e+00 -4.528437256813049316e-01 1.203488445281982422e+01 3.474612236022949219e+00 -8.914464712142944336e-01
4.521000000000000000e+03 7.329734802246093750e+01 -1.858381843566894531e+01 -7.543360590934753418e-01 7.953248023986816406e+00 2.159673690795898438e+00 1.173609375953674316e+00
4.522000000000000000e+03 4.933463287353515625e+01 4.013993740081787109e+00 1.700314283370971680e+00 4.781837463378906250e+00 1.944645524024963379e+00 1.192732453346252441e+00
4.523000000000000000e+03 5.028699493408203125e+01 5.576006889343261719e+00 8.207622766494750977e-01 7.792379856109619141e+00 2.583942651748657227e+00 1.495159715414047241e-01
4.524000000000000000e+03 1.021960830688476562e+01 1.179080390930175781e+01 -1.247488737106323242e+00 1.174487709999084473e+00 -2.190030924975872040e-02 -5.618478059768676758e-01
4.525000000000000000e+03 9.579683303833007812e+00 1.165769100189208984e+01 -1.177777647972106934e+00 1.435399532318115234e+00 7.728657871484756470e-02 -6.388060450553894043e-01
4.526000000000000000e+03 4.785953140258789062e+01 -1.665081214904785156e+01 2.196636348962783813e-01 2.245072841644287109e+00 7.394209504127502441e-01 -1.160622119903564453e+00
4.527000000000000000e+03 4.711517333984375000e+01 -1.717417716979980469e+01 2.930029928684234619e-01 3.124607563018798828e+00 1.025283217430114746e+00 -1.437883973121643066e+00
4.528000000000000000e+03 2.325345230102539062e+01 1.934672164916992188e+01 -1.136638641357421875e+00 1.422937512397766113e+00 8.588966727256774902e-02 -1.809930205345153809e+00
4.529000000000000000e+03 4.188574218750000000e+01 -5.521202564239501953e+00 2.105689287185668945e+00 6.767177104949951172e+00 2.661859989166259766e+00 -2.546377852559089661e-02
4.530000000000000000e+03 4.059326553344726562e+01 -6.676347732543945312e+00 8.803851604461669922e-01 5.937315464019775391e+00 2.045310258865356445e+00 -5.601685047149658203e-01
4.531000000000000000e+03 7.444997406005859375e+01 -8.942931175231933594e+00 7.507281899452209473e-01 9.105812072753906250e+00 2.956962108612060547e+00 1.246980190277099609e+00
4.532000000000000000e+03 7.419284820556640625e+01 -8.160178184509277344e+00 4.334841072559356689e-01 8.744653701782226562e+00 2.753441333770751953e+00 1.162138581275939941e+00
4.533000000000000000e+03 4.928507328033447266e+00 3.044507408142089844e+01 3.511852398514747620e-02 1.119867682456970215e+00 3.464958667755126953e-01 1.995562165975570679e-01
4.534000000000000000e+03 4.501696586608886719e+00 2.976955032348632812e+01 2.773883193731307983e-02 1.154624342918395996e+00 3.547089397907257080e-01 1.987355202436447144e-01
4.535000000000000000e+03 2.569832611083984375e+01 -1.000064849853515625e+00 3.223895788192749023e+00 4.272401809692382812e+00 2.248889446258544922e+00 -2.908072233200073242e+00
4.536000000000000000e+03 2.803669166564941406e+01 -9.928756713867187500e+00 1.597696542739868164e+00 8.588185310363769531e+00 3.055764436721801758e+00 -1.870367050170898438e+00
4.537000000000000000e+03 5.234983444213867188e+00 -2.219248199462890625e+01 5.142875760793685913e-02 -1.066073477268218994e-01 -1.655357703566551208e-02 1.620441675186157227e-02
4.538000000000000000e+03 3.966605186462402344e+00 8.314064025878906250e+00 4.309858083724975586e-01 3.170785009860992432e-01 2.244192957878112793e-01 -1.050051569938659668e+00
4.539000000000000000e+03 3.694027423858642578e+00 8.941072463989257812e+00 2.865197658538818359e-01 4.169989228248596191e-01 2.110556066036224365e-01 -1.066614985466003418e+00
4.540000000000000000e+03 3.369245529174804688e+00 1.025002479553222656e+01 1.382373366504907608e-02 6.096870899200439453e-01 1.870532482862472534e-01 -1.005993008613586426e+00
4.541000000000000000e+03 2.969453096389770508e+00 1.968454933166503906e+01 -1.089192256331443787e-01 1.472888588905334473e+00 4.091908037662506104e-01 -3.736932575702667236e-02
4.542000000000000000e+03 4.390096187591552734e+00 -2.198078155517578125e+01 3.696434572339057922e-02 -2.159519791603088379e-01 -5.369628965854644775e-02 6.502053234726190567e-03
4.543000000000000000e+03 3.729526042938232422e+00 -1.948987197875976562e+01 3.650391101837158203e-02 -3.020493090152740479e-01 -7.966361939907073975e-02 -3.600440919399261475e-02
4.544000000000000000e+03 7.658317565917968750e+01 -1.123444366455078125e+01 7.022725343704223633e-01 8.424831390380859375e+00 2.738131046295166016e+00 1.083433389663696289e+00
4.545000000000000000e+03 7.667787170410156250e+01 -1.269715023040771484e+01 7.573455572128295898e-01 8.185691833496093750e+00 2.682911157608032227e+00 6.146072745323181152e-01
4.546000000000000000e+03 7.626881408691406250e+01 -1.631264209747314453e+00 -8.436034321784973145e-01 7.931259155273437500e+00 2.126296758651733398e+00 1.248112082481384277e+00
4.547000000000000000e+03 3.403586626052856445e+00 -1.069371700286865234e+01 3.507414599880576134e-03 -1.934565901756286621e-01 -5.698475241661071777e-02 -1.420912444591522217e-01
4.548000000000000000e+03 3.610582351684570312e+00 2.095459747314453125e+01 -1.143063008785247803e-01 1.402480602264404297e+00 3.864522874355316162e-01 3.740460425615310669e-02
4.549000000000000000e+03 3.140430688858032227e+00 2.177917098999023438e+01 -6.834217905998229980e-02 1.462045073509216309e+00 4.181108474731445312e-01 6.533903628587722778e-02
4.550000000000000000e+03 7.574520111083984375e+01 -1.075054931640625000e+01 8.794804215431213379e-01 8.935650825500488281e+00 2.944539308547973633e+00 1.252268671989440918e+00
4.551000000000000000e+03 7.445303344726562500e+01 2.343904685974121094e+01 2.177350036799907684e-02 6.574564933776855469e+00 1.978901505470275879e+00 2.154420502483844757e-02
4.552000000000000000e+03 7.481188201904296875e+01 2.240536689758300781e+01 4.600366204977035522e-02 6.607995510101318359e+00 1.996199846267700195e+00 2.962018363177776337e-02
4.553000000000000000e+03 6.938426971435546875e+01 -1.851019144058227539e+00 -3.802255153656005859e+00 4.845173358917236328e+00 3.128755092620849609e-01 -1.765828609466552734e+00
4.554000000000000000e+03 6.910198974609375000e+01 -1.348526358604431152e+00 -3.606418371200561523e+00 5.004047870635986328e+00 4.192888140678405762e-01 -1.622686266899108887e+00
4.555000000000000000e+03 2.719073677062988281e+01 -4.024315357208251953e+00 2.280026674270629883e+00 1.011418056488037109e+01 3.718262195587158203e+00 1.735047817230224609e+00
4.556000000000000000e+03 7.495890045166015625e+01 2.128807830810546875e+01 1.068078652024269104e-01 6.592198848724365234e+00 2.009701967239379883e+00 7.520350161939859390e-03
4.557000000000000000e+03 7.632177734375000000e+01 1.968005371093750000e+01 1.456892341375350952e-01 6.637481689453125000e+00 2.034951448440551758e+00 -6.932566314935684204e-02
4.558000000000000000e+03 6.648985290527343750e+01 -5.500161051750183105e-01 -1.945028066635131836e+00 2.383076190948486328e+00 1.314144283533096313e-01 2.004820346832275391e+00
4.559000000000000000e+03 3.994738006591796875e+01 -2.909695625305175781e+00 -5.456779599189758301e-01 3.678388357162475586e+00 9.398131370544433594e-01 -3.917821884155273438e+00
4.560000000000000000e+03 5.248151779174804688e+01 9.676630973815917969e+00 1.988524496555328369e-01 1.199823093414306641e+01 3.659124851226806641e+00 -6.358171701431274414e-01
4.561000000000000000e+03 7.569848632812500000e+01 2.681078720092773438e+01 -1.259810291230678558e-02 6.602060794830322266e+00 1.976838827133178711e+00 2.815447188913822174e-02
4.562000000000000000e+03 6.364790725708007812e+01 9.123070836067199707e-01 -2.746993780136108398e+00 5.363712310791015625e+00 7.850156426429748535e-01 3.653806209564208984e+00
4.563000000000000000e+03 3.001120758056640625e+01 3.164964199066162109e+00 -3.527054548263549805e+00 2.572426319122314453e+00 -2.863884866237640381e-01 1.135121345520019531e+00
4.564000000000000000e+03 3.051670074462890625e+01 2.227516174316406250e+00 -1.256019115447998047e+00 4.637502193450927734e+00 1.014444828033447266e+00 3.774519920349121094e+00
4.565000000000000000e+03 5.226565170288085938e+01 5.886651515960693359e+00 3.628869652748107910e-01 1.185748100280761719e+01 3.666110277175903320e+00 -1.069069862365722656e+00
4.566000000000000000e+03 4.353668975830078125e+01 -9.673825263977050781e+00 -3.111131191253662109e-01 9.086367607116699219e+00 2.632576465606689453e+00 5.165494084358215332e-01
4.567000000000000000e+03 4.398131942749023438e+01 -1.042583465576171875e+01 -2.581988573074340820e-01 8.322020530700683594e+00 2.419146537780761719e+00 3.592228293418884277e-01
4.568000000000000000e+03 4.841680049896240234e+00 -2.704096603393554688e+01 1.191320549696683884e-02 -8.994342386722564697e-02 -2.340906485915184021e-02 5.336641520261764526e-02
4.569000000000000000e+03 4.311825942993164062e+01 -8.899895668029785156e+00 -1.702055931091308594e-01 9.354204177856445312e+00 2.755199432373046875e+00 6.888948082923889160e-01
4.570000000000000000e+03 4.356031036376953125e+01 -1.283883452415466309e+00 -2.755093574523925781e+00 5.565022945404052734e+00 8.429788351058959961e-01 1.076009273529052734e+00
4.571000000000000000e+03 4.651911544799804688e+01 -7.938069701194763184e-01 -1.472783088684082031e+00 2.959830522537231445e+00 4.461142122745513916e-01 4.740962028503417969e+00
4.572000000000000000e+03 4.733055496215820312e+01 -3.594470024108886719e-01 -8.297169804573059082e-01 2.296317815780639648e+00 4.399802684783935547e-01 4.234626293182373047e+00
4.573000000000000000e+03 5.844610595703125000e+01 -1.138211822509765625e+01 3.182704150676727295e-01 8.750256538391113281e+00 2.720558166503906250e+00 7.598991990089416504e-01
4.574000000000000000e+03 5.761258316040039062e+01 -1.001677417755126953e+01 2.808743715286254883e-01 8.076780319213867188e+00 2.507296562194824219e+00 4.710660278797149658e-01
4.575000000000000000e+03 7.085135650634765625e+01 -1.293310999870300293e+00 -2.652563571929931641e+00 4.656234264373779297e+00 6.011011600494384766e-01 -3.084357738494873047e+00
4.576000000000000000e+03 2.277816390991210938e+01 8.672033309936523438e+00 -2.966971158981323242e+00 6.800533294677734375e+00 1.150068640708923340e+00 1.211555123329162598e+00
4.577000000000000000e+03 3.355184555053710938e+00 5.774841308593750000e+00 7.712107300758361816e-01 -4.460800886154174805e-01 9.753920882940292358e-02 -1.451862752437591553e-01
4.578000000000000000e+03 3.046869516372680664e+00 6.193828582763671875e+00 6.765379309654235840e-01 -3.930180966854095459e-01 8.505594730377197266e-02 -2.841601371765136719e-01
4.579000000000000000e+03 7.603833007812500000e+01 -3.970445394515991211e+00 -2.709659934043884277e-01 8.047171592712402344e+00 2.332861661911010742e+00 1.468711495399475098e+00
4.580000000000000000e+03 7.704228973388671875e+01 -4.360025405883789062e+00 -1.518591940402984619e-01 9.177627563476562500e+00 2.707730293273925781e+00 1.560049176216125488e+00
4.581000000000000000e+03 7.067179107666015625e+01 -4.408021926879882812e+00 -1.787795662879943848e+00 4.030503749847412109e+00 6.728124618530273438e-01 -1.053465723991394043e+00
4.582000000000000000e+03 7.103921508789062500e+01 -2.748893976211547852e+00 -2.568423748016357422e+00 4.496148586273193359e+00 5.783175230026245117e-01 -1.979227781295776367e+00
4.583000000000000000e+03 3.512688827514648438e+01 7.188118696212768555e-01 3.880252361297607422e+00 3.641480684280395508e+00 2.256520032882690430e+00 1.905454158782958984e+00
4.584000000000000000e+03 7.692792510986328125e+01 -6.617628097534179688e+00 3.474128991365432739e-02 8.952503204345703125e+00 2.696173191070556641e+00 1.754637718200683594e+00
4.585000000000000000e+03 7.658651733398437500e+01 -7.778067588806152344e+00 1.784051954746246338e-01 8.762681961059570312e+00 2.682326078414916992e+00 1.748001217842102051e+00
4.586000000000000000e+03 2.061497497558593750e+01 7.447106838226318359e+00 -1.579871773719787598e+00 2.662046194076538086e+00 3.246523141860961914e-01 -8.392931818962097168e-01
4.587000000000000000e+03 6.346611022949218750e+01 2.968838453292846680e+00 -1.403043508529663086e+00 4.403448104858398438e+00 9.001213908195495605e-01 1.997310876846313477e+00
4.588000000000000000e+03 4.331203460693359375e+01 -1.101023101806640625e+01 8.860259316861629486e-03 8.937189102172851562e+00 2.683814764022827148e+00 5.300596356391906738e-01
4.589000000000000000e+03 7.675803375244140625e+01 -1.755995559692382812e+01 -6.214614212512969971e-02 7.813197612762451172e+00 2.325315475463867188e+00 -3.692346215248107910e-01
4.590000000000000000e+03 9.867320060729980469e+00 -5.125924587249755859e+00 -1.786457747220993042e-01 9.444402158260345459e-02 -2.526052668690681458e-02 -9.201093018054962158e-02
4.591000000000000000e+03 3.796197414398193359e+00 1.376614856719970703e+01 -3.256870210170745850e-01 1.169532299041748047e+00 2.531535923480987549e-01 -6.981579065322875977e-01
4.592000000000000000e+03 3.533913135528564453e+00 1.578384399414062500e+01 -2.539615035057067871e-01 1.297366261482238770e+00 3.130214512348175049e-01 -4.209939539432525635e-01
4.593000000000000000e+03 6.787612152099609375e+01 7.612445831298828125e+00 -1.003182411193847656e+00 1.143542194366455078e+01 3.129672050476074219e+00 -1.624035716056823730e+00
4.594000000000000000e+03 7.598900604248046875e+01 -1.348957920074462891e+01 9.981843829154968262e-01 8.556066513061523438e+00 2.866275310516357422e+00 4.424495697021484375e-01
4.595000000000000000e+03 7.504551696777343750e+01 -1.524467706680297852e+00 -1.111802458763122559e+00 5.432166576385498047e+00 1.296109199523925781e+00 8.185350894927978516e-01
4.596000000000000000e+03 7.009449768066406250e+01 -2.000415802001953125e+01 4.652109742164611816e-01 4.315079689025878906e+00 1.434087157249450684e+00 1.556982517242431641e+00
4.597000000000000000e+03 3.461310148239135742e+00 6.677536487579345703e+00 7.166637182235717773e-01 -2.266223728656768799e-01 1.470123976469039917e-01 -5.234524011611938477e-01
4.598000000000000000e+03 3.519423246383666992e+00 7.515384197235107422e+00 5.612064599990844727e-01 -3.545143455266952515e-02 1.577265113592147827e-01 -7.748058438301086426e-01
4.599000000000000000e+03 7.659580993652343750e+01 -9.308097839355468750e+00 4.323589801788330078e-01 8.585805892944335938e+00 2.705449581146240234e+00 1.574901938438415527e+00
4.600000000000000000e+03 6.275835800170898438e+01 -1.330899524688720703e+01 -5.005087852478027344e-01 6.227355957031250000e+00 1.718054056167602539e+00 -7.649455964565277100e-02
4.601000000000000000e+03 2.949294662475585938e+01 2.699320316314697266e+00 -3.932619094848632812e+00 2.751215457916259766e+00 -3.544210493564605713e-01 8.018382787704467773e-01
4.602000000000000000e+03 3.318830490112304688e+00 1.160158824920654297e+01 -1.379817575216293335e-01 8.494073152542114258e-01 2.134276628494262695e-01 -9.128966331481933594e-01
4.603000000000000000e+03 3.391696214675903320e+00 1.229948997497558594e+01 -2.237174808979034424e-01 9.633460044860839844e-01 2.218885570764541626e-01 -8.463666439056396484e-01
4.604000000000000000e+03 5.224331665039062500e+01 5.473480820655822754e-01 -2.167083919048309326e-01 8.349009513854980469e+00 2.439690351486206055e+00 3.770946562290191650e-01
4.605000000000000000e+03 3.670428752899169922e+00 -5.476764202117919922e+00 -3.704966604709625244e-02 -6.104928255081176758e-02 -2.942968346178531647e-02 -1.091630384325981140e-01
4.606000000000000000e+03 7.662145996093750000e+01 -5.980442047119140625e+00 -6.076426804065704346e-02 8.812186241149902344e+00 2.625426530838012695e+00 1.737454175949096680e+00
4.607000000000000000e+03 7.672201538085937500e+01 -1.881614112854003906e+01 -2.422053217887878418e-01 7.653439998626708984e+00 2.223370552062988281e+00 -2.346037030220031738e-01
4.608000000000000000e+03 7.680960845947265625e+01 -1.647684288024902344e+01 2.229470908641815186e-01 7.889184951782226562e+00 2.433639526367187500e+00 -4.082196354866027832e-01
4.609000000000000000e+03 3.296234846115112305e+00 1.721409797668457031e+01 -1.948544085025787354e-01 1.383520483970642090e+00 3.565998077392578125e-01 -2.421397268772125244e-01
4.610000000000000000e+03 3.224506378173828125e+00 1.785701179504394531e+01 -1.621025800704956055e-01 1.408307075500488281e+00 3.738613724708557129e-01 -1.894616484642028809e-01
4.611000000000000000e+03 3.689060926437377930e+00 -1.457973384857177734e+01 2.696880139410495758e-02 -2.600412070751190186e-01 -6.992172449827194214e-02 -1.190484836697578430e-01
4.612000000000000000e+03 3.639213562011718750e+00 -1.377926540374755859e+01 2.612012252211570740e-02 -2.501554191112518311e-01 -6.721059232950210571e-02 -1.274562925100326538e-01
4.613000000000000000e+03 7.491374206542968750e+01 -1.524372768402099609e+01 9.956691265106201172e-01 9.110714912414550781e+00 3.031915187835693359e+00 4.560464620590209961e-02
4.614000000000000000e+03 7.631539916992187500e+01 1.396262454986572266e+01 1.200499236583709717e-01 6.871792316436767578e+00 2.097552776336669922e+00 -9.273242354393005371e-01
4.615000000000000000e+03 4.072454452514648438e+00 -7.137437343597412109e+00 -2.784105762839317322e-02 -8.342776447534561157e-02 -3.338064625859260559e-02 -1.372590512037277222e-01
4.616000000000000000e+03 3.362234354019165039e+00 -7.028339385986328125e+00 -2.289649099111557007e-02 -1.013562828302383423e-01 -3.727583214640617371e-02 -1.220058798789978027e-01
4.617000000000000000e+03 5.121939086914062500e+01 5.447931289672851562e+00 1.057649135589599609e+00 9.355091094970703125e+00 3.123821973800659180e+00 -4.602166116237640381e-01
4.618000000000000000e+03 5.080592727661132812e+01 4.225842475891113281e+00 2.119964838027954102e+00 7.579437732696533203e+00 2.909820795059204102e+00 8.419110625982284546e-02
4.619000000000000000e+03 7.645632743835449219e+00 7.887001514434814453e+00 6.846042275428771973e-01 2.035168170928955078e+00 8.159317374229431152e-01 -2.066154718399047852e+00
4.620000000000000000e+03 3.447642517089843750e+01 2.986565351486206055e+00 3.500590324401855469e+00 4.585183620452880859e+00 2.425732135772705078e+00 2.399753093719482422e+00
4.621000000000000000e+03 3.410778427124023438e+01 4.080582618713378906e+00 1.959671139717102051e+00 4.966279983520507812e+00 2.077785491943359375e+00 2.234508275985717773e+00
4.622000000000000000e+03 2.848625898361206055e+00 -1.461786460876464844e+01 2.005184814333915710e-02 -3.342805206775665283e-01 -9.426860511302947998e-02 -1.005172356963157654e-01
4.623000000000000000e+03 3.831770658493041992e+00 2.434946060180664062e+01 -4.574186354875564575e-02 1.327391266822814941e+00 3.844948112964630127e-01 1.659454703330993652e-01
4.624000000000000000e+03 3.526227235794067383e+00 -1.221717071533203125e+01 1.502209063619375229e-02 -2.244378328323364258e-01 -6.282472610473632812e-02 -1.394486129283905029e-01
4.625000000000000000e+03 3.463051986694335938e+01 3.633558750152587891e+00 2.511515855789184570e+00 5.732516765594482422e+00 2.473209857940673828e+00 1.958942651748657227e+00
4.626000000000000000e+03 6.408074951171875000e+01 7.159093022346496582e-01 -2.628424882888793945e+00 5.328483104705810547e+00 8.100174069404602051e-01 3.973499774932861328e+00
4.627000000000000000e+03 6.769773864746093750e+01 3.198889732360839844e+00 2.122865676879882812e+00 8.800685882568359375e+00 3.277065515518188477e+00 2.185124754905700684e-01
4.628000000000000000e+03 6.673780059814453125e+01 1.029847264289855957e+00 -7.256109118461608887e-01 5.299317359924316406e+00 1.372111916542053223e+00 2.158318996429443359e+00
4.629000000000000000e+03 6.837843322753906250e+01 7.917631626129150391e+00 -9.606338739395141602e-01 1.098969459533691406e+01 3.008718252182006836e+00 -1.226558804512023926e+00
4.630000000000000000e+03 1.956794357299804688e+01 1.944450950622558594e+01 -1.046165227890014648e+00 -3.042369522154331207e-02 -3.229766786098480225e-01 -5.614460110664367676e-01
4.631000000000000000e+03 2.701201438903808594e+01 1.878068923950195312e+01 -1.461352109909057617e+00 4.811599731445312500e+00 1.005074262619018555e+00 1.136300325393676758e+00
4.632000000000000000e+03 3.774875640869140625e+00 -1.785336303710937500e+01 3.639925271272659302e-02 -2.908647656440734863e-01 -7.633965462446212769e-02 -6.550191342830657959e-02
4.633000000000000000e+03 4.115548324584960938e+01 1.471575164794921875e+01 7.866109609603881836e-01 4.767015457153320312e+00 1.666087865829467773e+00 2.989145278930664062e+00
4.634000000000000000e+03 6.108743667602539062e+01 -1.012736034393310547e+01 6.629928201436996460e-02 8.365608215332031250e+00 2.529572248458862305e+00 1.124065399169921875e+00
4.635000000000000000e+03 5.235334777832031250e+01 -3.198815584182739258e+00 -3.997159481048583984e+00 4.749170303344726562e+00 2.256032675504684448e-01 -1.179932832717895508e+00
4.636000000000000000e+03 4.158227920532226562e+01 -6.213407993316650391e+00 1.522852182388305664e+00 6.761133670806884766e+00 2.485195636749267578e+00 7.636014372110366821e-02
4.637000000000000000e+03 6.964988708496093750e+01 -1.046892046928405762e+00 -3.515668153762817383e+00 5.699833393096923828e+00 6.552495956420898438e-01 -2.307440757751464844e+00
4.638000000000000000e+03 7.123720550537109375e+01 -2.034122467041015625e+00 -2.361031055450439453e+00 4.315124511718750000e+00 5.862281322479248047e-01 -2.568304777145385742e+00
4.639000000000000000e+03 1.711557197570800781e+01 -8.546581268310546875e+00 -3.059751391410827637e-01 2.293419390916824341e-01 -2.298995852470397949e-02 -5.332662165164947510e-02
4.640000000000000000e+03 1.689915847778320312e+01 -7.957821846008300781e+00 -4.199560582637786865e-01 1.923360377550125122e-01 -6.828600913286209106e-02 3.475162386894226074e-02
4.641000000000000000e+03 6.141719436645507812e+01 -2.696110248565673828e+00 -6.277845054864883423e-02 7.797418117523193359e+00 2.320391893386840820e+00 4.231920838356018066e-01
4.642000000000000000e+03 5.316771697998046875e+01 9.998684883117675781e+00 1.711569428443908691e-01 1.067659187316894531e+01 3.254324674606323242e+00 -2.113834172487258911e-01
4.643000000000000000e+03 5.327970123291015625e+01 1.102473926544189453e+01 1.227190375328063965e+00 1.011107063293457031e+01 3.401478528976440430e+00 2.771183252334594727e-01
4.644000000000000000e+03 1.389614772796630859e+01 -3.181194543838500977e+00 -2.771173119544982910e-01 5.799045786261558533e-02 -6.573805212974548340e-02 9.366560727357864380e-02
4.645000000000000000e+03 7.592211914062500000e+01 -2.785576438903808594e+01 5.044725164771080017e-02 6.537590503692626953e+00 1.976411342620849609e+00 2.484759986400604248e-01
4.646000000000000000e+03 2.908172988891601562e+01 -8.555381774902343750e+00 2.226085424423217773e+00 6.833524703979492188e+00 2.717883110046386719e+00 -1.337169885635375977e+00
4.647000000000000000e+03 2.939655494689941406e+01 -7.698230266571044922e+00 1.775179266929626465e+00 6.396624088287353516e+00 2.451541185379028320e+00 -8.758109211921691895e-01
4.648000000000000000e+03 6.885920715332031250e+01 8.067605972290039062e+00 -1.452964305877685547e+00 9.905467033386230469e+00 2.535750627517700195e+00 -8.206622600555419922e-01
4.649000000000000000e+03 6.818024444580078125e+01 8.411075592041015625e+00 -8.761626482009887695e-01 1.075240612030029297e+01 2.962873220443725586e+00 -1.067991495132446289e+00
4.650000000000000000e+03 6.443544769287109375e+01 -1.751378822326660156e+01 1.707264780998229980e-01 4.205395698547363281e+00 1.312836647033691406e+00 -1.170418977737426758e+00
4.651000000000000000e+03 6.608923339843750000e+01 -1.777049064636230469e+01 1.653172671794891357e-01 2.812298059463500977e+00 8.932846188545227051e-01 -7.843452095985412598e-01
4.652000000000000000e+03 3.178794097900390625e+01 -1.231699275970458984e+01 6.374133825302124023e-01 3.342599868774414062e+00 1.194003939628601074e+00 -1.760703563690185547e+00
4.653000000000000000e+03 2.147935104370117188e+01 -1.211287784576416016e+01 1.353744149208068848e+00 1.472336649894714355e+00 8.478242754936218262e-01 1.721917510032653809e+00
4.654000000000000000e+03 4.227101898193359375e+01 1.550835037231445312e+01 5.706815123558044434e-01 3.618147611618041992e+00 1.256648778915405273e+00 2.443654060363769531e+00
4.655000000000000000e+03 4.811682891845703125e+01 -1.932957649230957031e+01 1.626185774803161621e-01 2.820124387741088867e+00 8.948228955268859863e-01 -1.400766015052795410e+00
4.656000000000000000e+03 5.931217575073242188e+01 -4.628677666187286377e-01 -2.576200723648071289e+00 2.166631460189819336e+00 -1.228707805275917053e-01 -6.416789889335632324e-01
4.657000000000000000e+03 5.968841171264648438e+01 -1.006604433059692383e+00 -1.912124276161193848e+00 3.367224216461181641e+00 4.365299940109252930e-01 -2.397866696119308472e-01
4.658000000000000000e+03 2.744091033935546875e+01 -2.363464832305908203e+00 3.923609495162963867e+00 7.534143447875976562e+00 3.437325954437255859e+00 2.070284605026245117e+00
4.659000000000000000e+03 2.672221183776855469e+01 -2.952837228775024414e+00 3.140286922454833984e+00 8.325581550598144531e+00 3.439760684967041016e+00 8.600171208381652832e-01
4.660000000000000000e+03 4.706564426422119141e+00 4.032763004302978516e+00 1.113174796104431152e+00 -5.612209439277648926e-01 1.655861437320709229e-01 5.089700222015380859e-01
4.661000000000000000e+03 3.978188276290893555e+00 4.715162754058837891e+00 9.300752878189086914e-01 -5.113280415534973145e-01 1.256241798400878906e-01 2.418937236070632935e-01
4.662000000000000000e+03 5.194452667236328125e+01 1.887646293640136719e+01 -5.787819623947143555e-01 7.071571826934814453e+00 1.947836995124816895e+00 4.276431798934936523e-01
4.663000000000000000e+03 5.087754821777343750e+01 1.861171531677246094e+01 -5.437795519828796387e-01 6.967680454254150391e+00 1.927170157432556152e+00 -3.548669219017028809e-01
4.664000000000000000e+03 7.605377960205078125e+01 -1.412047672271728516e+01 8.996337056159973145e-01 8.470058441162109375e+00 2.810907602310180664e+00 1.689151972532272339e-01
4.665000000000000000e+03 1.800515747070312500e+01 -9.835094451904296875e+00 5.208295211195945740e-02 2.617214918136596680e-01 9.414133429527282715e-02 2.302999235689640045e-02
4.666000000000000000e+03 1.878769302368164062e+01 -9.524478912353515625e+00 -4.123727977275848389e-02 1.423686444759368896e-01 3.033940866589546204e-02 -3.977865446358919144e-03
4.667000000000000000e+03 3.981681823730468750e+01 1.457136631011962891e+01 4.808131754398345947e-01 6.974131584167480469e+00 2.236483335494995117e+00 3.186433076858520508e+00
4.668000000000000000e+03 6.397602462768554688e+01 1.773435974121093750e+01 4.199469983577728271e-01 4.586019039154052734e+00 1.501789808273315430e+00 -1.746726989746093750e+00
4.669000000000000000e+03 1.676282882690429688e+01 1.695504379272460938e+01 -1.666753888130187988e+00 -1.895904093980789185e-01 -5.569033026695251465e-01 -4.502963423728942871e-01
4.670000000000000000e+03 1.619618225097656250e+01 1.745169830322265625e+01 -1.426979780197143555e+00 -1.183772385120391846e-01 -4.636071026325225830e-01 -2.996015846729278564e-01
4.671000000000000000e+03 4.542690658569335938e+01 3.275360465049743652e-01 -2.174256324768066406e+00 3.615345716476440430e+00 4.323268234729766846e-01 2.962917327880859375e+00
4.672000000000000000e+03 7.366530609130859375e+01 -8.273210525512695312e+00 4.293889701366424561e-01 8.873446464538574219e+00 2.790850639343261719e+00 8.532332777976989746e-01
4.673000000000000000e+03 5.124470901489257812e+01 1.925765228271484375e+01 -4.968099594116210938e-01 6.744164466857910156e+00 1.874206304550170898e+00 -1.098630949854850769e-01
4.674000000000000000e+03 4.897532653808593750e+01 1.849880790710449219e+01 3.458191752433776855e-01 4.953251838684082031e+00 1.589721322059631348e+00 -1.299316883087158203e+00
4.675000000000000000e+03 2.798122406005859375e+01 -1.160985827445983887e+00 5.735066890716552734e+00 5.531037330627441406e+00 3.379831075668334961e+00 2.340427875518798828e+00
4.676000000000000000e+03 1.833329200744628906e+01 1.998541069030761719e+01 -8.481056690216064453e-01 6.560830026865005493e-02 -2.347492128610610962e-01 -3.404530286788940430e-01
4.677000000000000000e+03 4.851706314086914062e+01 1.966514015197753906e+01 3.139505684375762939e-01 4.528555870056152344e+00 1.452751994132995605e+00 -6.692347526550292969e-01
4.678000000000000000e+03 4.691571807861328125e+01 2.010699462890625000e+01 4.905747473239898682e-01 3.850050926208496094e+00 1.302187681198120117e+00 -1.822796016931533813e-01
4.679000000000000000e+03 4.407170104980468750e+01 1.737415313720703125e+01 5.471575856208801270e-01 2.844698905944824219e+00 1.017556905746459961e+00 1.430360436439514160e+00
4.680000000000000000e+03 4.421727752685546875e+01 1.813684654235839844e+01 5.382083058357238770e-01 3.107583761215209961e+00 1.093737602233886719e+00 1.176924943923950195e+00
4.681000000000000000e+03 7.589411163330078125e+01 -1.212751770019531250e+01 9.959491491317749023e-01 8.775797843933105469e+00 2.931524276733398438e+00 8.818932771682739258e-01
4.682000000000000000e+03 7.503308105468750000e+01 -1.095653629302978516e+01 1.069241762161254883e+00 9.471884727478027344e+00 3.162338018417358398e+00 1.176943659782409668e+00
4.683000000000000000e+03 5.701141357421875000e+01 1.325783157348632812e+01 4.959931969642639160e-01 3.013321876525878906e+00 1.052794456481933594e+00 1.499268651008605957e+00
4.684000000000000000e+03 5.549859619140625000e+01 1.274889373779296875e+01 9.305731654167175293e-01 5.307709217071533203e+00 1.871484756469726562e+00 1.535199761390686035e+00
4.685000000000000000e+03 5.861486053466796875e+01 -1.980144119262695312e+01 5.653429031372070312e-01 7.843894958496093750e+00 2.522771358489990234e+00 -7.345344424247741699e-01
4.686000000000000000e+03 3.228114700317382812e+01 1.773672103881835938e+01 2.006379663944244385e-01 5.227693915367126465e-01 2.170222103595733643e-01 -2.420417070388793945e-01
4.687000000000000000e+03 2.678231620788574219e+01 -4.910745620727539062e-01 4.148936748504638672e+00 3.133200407028198242e+00 2.184641122817993164e+00 -1.306540369987487793e+00
4.688000000000000000e+03 7.555494689941406250e+01 1.232031059265136719e+01 -6.901631504297256470e-02 6.831475257873535156e+00 2.028737783432006836e+00 -1.713233947753906250e+00
4.689000000000000000e+03 5.198682785034179688e+01 -1.462994217872619629e+00 -2.925043344497680664e+00 5.898886680603027344e+00 8.921530246734619141e-01 -7.219654321670532227e-01
4.690000000000000000e+03 1.059916687011718750e+01 -4.958293914794921875e+00 -1.972473561763763428e-01 1.122134253382682800e-01 -2.551017887890338898e-02 -7.927776128053665161e-02
4.691000000000000000e+03 1.079667377471923828e+01 -5.665132522583007812e+00 -2.058213651180267334e-01 1.305555552244186401e-01 -2.257974073290824890e-02 -9.244502335786819458e-02
4.692000000000000000e+03 7.648361968994140625e+01 -1.046744441986083984e+01 6.557249426841735840e-01 8.582707405090332031e+00 2.771529674530029297e+00 1.340100884437561035e+00
4.693000000000000000e+03 7.559406280517578125e+01 -1.013303089141845703e+01 7.970365881919860840e-01 8.978504180908203125e+00 2.932662248611450195e+00 1.411921977996826172e+00
4.694000000000000000e+03 4.389119720458984375e+01 -1.472139739990234375e+01 1.357540726661682129e+00 7.207511901855468750e+00 2.569515943527221680e+00 -7.074299454689025879e-01
4.695000000000000000e+03 4.385949325561523438e+01 -1.344035530090332031e+01 1.036634802818298340e+00 7.758210182189941406e+00 2.638453483581542969e+00 -2.738133370876312256e-01
4.696000000000000000e+03 6.971528625488281250e+01 1.229889488220214844e+01 2.102599620819091797e+00 6.231354713439941406e+00 2.500186443328857422e+00 1.422551274299621582e+00
4.697000000000000000e+03 7.041802215576171875e+01 1.194481754302978516e+01 1.991158604621887207e+00 4.946251869201660156e+00 2.081223249435424805e+00 1.266043424606323242e+00
4.698000000000000000e+03 3.759774398803710938e+01 -1.932037353515625000e+01 8.114386796951293945e-01 3.037713766098022461e+00 1.154745817184448242e+00 4.692800641059875488e-01
4.699000000000000000e+03 6.162636184692382812e+01 -4.188612103462219238e-01 -3.327872991561889648e+00 6.239168643951416016e+00 8.733886480331420898e-01 1.554296135902404785e+00
4.700000000000000000e+03 6.174393844604492188e+01 2.969290614128112793e-01 -3.471472978591918945e+00 5.359602451324462891e+00 5.664387941360473633e-01 1.933999419212341309e+00
4.701000000000000000e+03 2.664317131042480469e+01 -1.232195377349853516e+01 -4.169127047061920166e-01 7.974864006042480469e+00 2.267385244369506836e+00 -2.875748872756958008e-01
4.702000000000000000e+03 2.856603050231933594e+01 -9.282389640808105469e+00 2.356136560440063477e+00 7.313504219055175781e+00 2.900892257690429688e+00 -1.800089716911315918e+00
4.703000000000000000e+03 5.385270309448242188e+01 -4.657868862152099609e+00 -2.633047580718994141e+00 4.862951278686523438e+00 6.689711213111877441e-01 -1.524773716926574707e+00
4.704000000000000000e+03 5.378893280029296875e+01 -3.115247249603271484e+00 -3.350021600723266602e+00 5.909670829772949219e+00 7.678947448730468750e-01 -2.562430143356323242e+00
4.705000000000000000e+03 3.422410964965820312e+01 -1.695638275146484375e+01 3.007163405418395996e-01 2.622780561447143555e+00 8.770490288734436035e-01 -1.188743948936462402e+00
4.706000000000000000e+03 2.815127944946289062e+01 -2.023616075515747070e+00 4.966361045837402344e+00 7.721868038177490234e+00 3.806468725204467773e+00 3.542918443679809570e+00
4.707000000000000000e+03 1.408640861511230469e+01 -6.204829216003417969e+00 -3.682596385478973389e-01 1.944413483142852783e-01 -5.214548483490943909e-02 -1.687192358076572418e-02
4.708000000000000000e+03 3.623799514770507812e+01 1.798730087280273438e+01 -1.465126514434814453e+00 4.690750598907470703e+00 9.676872491836547852e-01 -1.421992897987365723e+00
4.709000000000000000e+03 3.158813667297363281e+01 -1.397645473480224609e+01 2.258538156747817993e-01 3.718225479125976562e+00 1.183223843574523926e+00 -1.622126698493957520e+00
4.710000000000000000e+03 3.177573204040527344e+01 -1.472086524963378906e+01 6.960693281143903732e-04 3.652242422103881836e+00 1.095881581306457520e+00 -1.560654640197753906e+00
4.711000000000000000e+03 6.057663726806640625e+01 -9.025656700134277344e+00 3.894685208797454834e-01 8.459116935729980469e+00 2.654575824737548828e+00 1.324995756149291992e+00
4.712000000000000000e+03 3.983268737792968750e+01 1.637086486816406250e+01 -8.547815084457397461e-01 6.491948127746582031e+00 1.691150069236755371e+00 2.073148727416992188e+00
4.713000000000000000e+03 5.268025207519531250e+01 1.700666618347167969e+01 -2.042187303304672241e-01 8.204420089721679688e+00 2.400060415267944336e+00 1.236577510833740234e+00
4.714000000000000000e+03 4.183687210083007812e+01 -7.957076549530029297e+00 2.441107928752899170e-01 8.502237319946289062e+00 2.623904466629028320e+00 4.830876290798187256e-01
4.715000000000000000e+03 4.454115295410156250e+01 -1.511063480377197266e+01 1.203727483749389648e+00 6.110746383666992188e+00 2.194342136383056641e+00 -1.019999504089355469e+00
4.716000000000000000e+03 2.174151992797851562e+01 2.043235588073730469e+01 -7.437608242034912109e-01 7.390323281288146973e-01 -1.418549567461013794e-03 -1.046078324317932129e+00
4.717000000000000000e+03 1.355298709869384766e+01 1.496914005279541016e+01 -1.482957005500793457e+00 7.070238143205642700e-02 -4.236764013767242432e-01 -3.605758845806121826e-01
4.718000000000000000e+03 3.350688171386718750e+01 -1.663392066955566406e+01 7.769665867090225220e-02 2.914513587951660156e+00 8.976630568504333496e-01 -1.259719729423522949e+00
4.719000000000000000e+03 2.639846229553222656e+01 -1.194769978523254395e+00 4.319672107696533203e+00 4.186029434204101562e+00 2.551710367202758789e+00 -1.107326626777648926e+00
4.720000000000000000e+03 2.663941383361816406e+00 2.539650344848632812e+01 -1.026165951043367386e-02 1.422363042831420898e+00 4.236304461956024170e-01 1.431876122951507568e-01
4.721000000000000000e+03 6.936842346191406250e+01 1.054959392547607422e+01 9.092133641242980957e-01 6.902516841888427734e+00 2.343518972396850586e+00 1.133240938186645508e+00
4.722000000000000000e+03 6.732054901123046875e+01 1.039756298065185547e+01 2.330523490905761719e+00 1.194913101196289062e+01 4.283896446228027344e+00 -2.607922852039337158e-01
4.723000000000000000e+03 4.139914321899414062e+01 -2.980882644653320312e+00 7.627295255661010742e-01 3.583953857421875000e+00 1.304005026817321777e+00 -2.637404918670654297e+00
4.724000000000000000e+03 4.266432189941406250e+01 -1.917086601257324219e+01 -3.008971512317657471e-01 6.738741874694824219e+00 1.931353330612182617e+00 -6.769279837608337402e-01
4.725000000000000000e+03 4.565433883666992188e+01 -1.109378099441528320e+00 -2.073717832565307617e+00 4.780530929565429688e+00 8.120439052581787109e-01 4.614668369293212891e+00
4.726000000000000000e+03 6.399745178222656250e+01 -1.703332901000976562e+01 1.028180047869682312e-01 4.404375553131103516e+00 1.352158069610595703e+00 -1.139279484748840332e+00
4.727000000000000000e+03 1.664335441589355469e+01 1.791116714477539062e+01 -1.369586467742919922e+00 -7.727707177400588989e-02 -4.340590834617614746e-01 -2.848546206951141357e-01
4.728000000000000000e+03 5.309241867065429688e+01 8.790716171264648438e+00 -8.783702254295349121e-01 1.127650642395019531e+01 3.119440793991088867e+00 -5.947135686874389648e-01
4.729000000000000000e+03 4.978055572509765625e+01 4.848341941833496094e+00 1.493095278739929199e+00 5.943270683288574219e+00 2.230909824371337891e+00 7.824991345405578613e-01
4.730000000000000000e+03 5.261488342285156250e+01 -2.202539253234863281e+01 8.642929196357727051e-01 2.559967756271362305e+00 1.027278184890747070e+00 5.908510088920593262e-01
4.731000000000000000e+03 6.843963623046875000e+01 1.435371208190917969e+01 8.245663046836853027e-01 8.433840751647949219e+00 2.777522087097167969e+00 1.452426791191101074e+00
4.732000000000000000e+03 6.613366699218750000e+01 3.867844104766845703e+00 9.327651262283325195e-01 7.072299480438232422e+00 2.401519298553466797e+00 8.163152933120727539e-01
4.733000000000000000e+03 1.899772262573242188e+01 -1.030273914337158203e+01 3.427547514438629150e-01 2.439237385988235474e-01 1.760035455226898193e-01 1.803548783063888550e-01
4.734000000000000000e+03 7.617286682128906250e+00 6.107439041137695312e+00 3.216898679733276367e+00 1.267698168754577637e+00 1.345379114151000977e+00 -2.219206333160400391e+00
4.735000000000000000e+03 6.859418869018554688e+00 4.794849872589111328e+00 2.887700080871582031e+00 -1.546645313501358032e-01 8.199106454849243164e-01 -4.074290096759796143e-01
4.736000000000000000e+03 5.830013275146484375e+01 -1.598156690597534180e+00 -8.184378147125244141e-01 2.459265947341918945e+00 4.922484159469604492e-01 -2.116720676422119141e+00
4.737000000000000000e+03 4.457462692260742188e+01 -1.319597339630126953e+01 6.718797087669372559e-01 6.601104259490966797e+00 2.181895256042480469e+00 -3.725173473358154297e-01
4.738000000000000000e+03 3.380508422851562500e+01 2.904517889022827148e+00 3.461967945098876953e+00 3.445860862731933594e+00 2.072348594665527344e+00 3.000636100769042969e+00
4.739000000000000000e+03 2.073420333862304688e+01 4.550138473510742188e+00 6.143772602081298828e+00 3.790147066116333008e+00 2.980175971984863281e+00 -2.493389248847961426e-01
4.740000000000000000e+03 6.823619842529296875e+01 -1.161594033241271973e+00 -3.504440069198608398e+00 4.340445041656494141e+00 2.508014440536499023e-01 -7.792388200759887695e-01
4.741000000000000000e+03 3.186056327819824219e+01 -1.552683830261230469e+01 2.797019854187965393e-02 3.623924016952514648e+00 1.095568299293518066e+00 -1.448009967803955078e+00
4.742000000000000000e+03 4.399311447143554688e+01 -1.842569541931152344e+01 1.417303085327148438e-01 6.149438381195068359e+00 1.887350559234619141e+00 -1.523375988006591797e+00
4.743000000000000000e+03 5.884350204467773438e+01 -1.077078723907470703e+01 2.066431343555450439e-01 8.522669792175292969e+00 2.618793725967407227e+00 9.917411208152770996e-01
4.744000000000000000e+03 5.874420547485351562e+01 1.497925758361816406e+01 4.962754845619201660e-01 1.790392518043518066e+00 6.860004067420959473e-01 1.279316782951354980e+00
4.745000000000000000e+03 7.541486740112304688e+00 4.496477127075195312e+00 3.637047767639160156e+00 2.201953232288360596e-01 1.157172918319702148e+00 -3.598099052906036377e-01
4.746000000000000000e+03 6.154784774780273438e+01 1.772796440124511719e+01 1.135457515716552734e+00 2.641879081726074219e+00 1.133201003074645996e+00 -3.097689449787139893e-01
4.747000000000000000e+03 6.085850524902343750e+01 1.822157096862792969e+01 1.115787625312805176e+00 2.812304496765136719e+00 1.178427577018737793e+00 1.027044877409934998e-01
4.748000000000000000e+03 2.745337295532226562e+01 1.817154312133789062e+01 -7.233187556266784668e-01 4.682073116302490234e+00 1.187626361846923828e+00 1.606934309005737305e+00
4.749000000000000000e+03 3.898144912719726562e+01 1.640700721740722656e+01 -1.532317996025085449e+00 7.355589866638183594e+00 1.746981501579284668e+00 1.486639142036437988e+00
4.750000000000000000e+03 5.199925994873046875e+01 1.552048683166503906e+00 1.862325310707092285e+00 8.465097427368164062e+00 3.098226785659790039e+00 7.614578008651733398e-01
4.751000000000000000e+03 5.147613143920898438e+01 2.533213853836059570e+00 2.712599039077758789e+00 7.841773033142089844e+00 3.166311502456665039e+00 6.877932548522949219e-01
4.752000000000000000e+03 1.268086147308349609e+01 1.378118896484375000e+01 -1.420763254165649414e+00 2.908358573913574219e-01 -3.389782309532165527e-01 -4.173214435577392578e-01
4.753000000000000000e+03 6.871992492675781250e+01 1.351795864105224609e+01 1.711459159851074219e+00 8.084934234619140625e+00 2.938917875289916992e+00 1.839180350303649902e+00
4.754000000000000000e+03 1.421813488006591797e+01 1.531239891052246094e+01 -1.526880741119384766e+00 -4.563339170999825001e-04 -4.582011401653289795e-01 -3.950945436954498291e-01
4.755000000000000000e+03 3.195673561096191406e+01 3.068821191787719727e+00 5.104576945304870605e-01 3.475111961364746094e+00 1.195670843124389648e+00 4.274511337280273438e+00
4.756000000000000000e+03 7.186207580566406250e+01 -3.949747800827026367e+00 -1.599323272705078125e+00 4.955439090728759766e+00 1.006834745407104492e+00 -1.055339455604553223e+00
4.757000000000000000e+03 5.950708770751953125e+01 -4.857826232910156250e+00 1.171825885772705078e+00 6.271561622619628906e+00 2.233016252517700195e+00 1.624306291341781616e-01
4.758000000000000000e+03 5.439166259765625000e+01 1.319458293914794922e+01 1.486115813255310059e+00 7.111562252044677734e+00 2.579303503036499023e+00 1.706712961196899414e+00
4.759000000000000000e+03 5.155261993408203125e+01 6.145411968231201172e+00 2.888818085193634033e-01 1.061564826965332031e+01 3.271358966827392578e+00 -7.603990435600280762e-01
4.760000000000000000e+03 4.537350463867187500e+01 -1.380717086791992188e+01 7.348156571388244629e-01 5.166674137115478516e+00 1.770447015762329102e+00 -7.615424394607543945e-01
4.761000000000000000e+03 4.288975906372070312e+01 -2.766244411468505859e+00 6.972378492355346680e-01 5.957332134246826172e+00 1.996371030807495117e+00 -4.219907820224761963e-01
4.762000000000000000e+03 5.423416900634765625e+01 1.205345153808593750e+01 1.310409069061279297e+00 7.648133277893066406e+00 2.687562704086303711e+00 1.095147848129272461e+00
4.763000000000000000e+03 2.980485916137695312e+01 -9.194629669189453125e+00 1.749122619628906250e+00 5.222792625427246094e+00 2.091574430465698242e+00 -1.898126006126403809e+00
4.764000000000000000e+03 5.182719421386718750e+01 7.466290473937988281e+00 -7.184427976608276367e-01 1.173703861236572266e+01 3.305578947067260742e+00 -7.579956650733947754e-01
4.765000000000000000e+03 7.575505065917968750e+01 -2.979974937438964844e+01 6.677605211734771729e-02 6.448433876037597656e+00 1.954562902450561523e+00 1.961203962564468384e-01
4.766000000000000000e+03 2.922750473022460938e+01 -9.913318634033203125e+00 1.540109157562255859e+00 6.492390155792236328e+00 2.409749746322631836e+00 -2.044039249420166016e+00
4.767000000000000000e+03 4.754037094116210938e+01 7.467414140701293945e-01 -3.850491642951965332e-01 2.649125337600708008e+00 6.792228221893310547e-01 3.334963560104370117e+00
4.768000000000000000e+03 6.440415191650390625e+01 -1.402804756164550781e+01 -8.109862804412841797e-01 3.993961572647094727e+00 9.548926353454589844e-01 -5.473166704177856445e-01
4.769000000000000000e+03 5.701838684082031250e+01 -7.068165779113769531e+00 7.949801534414291382e-02 6.314430236816406250e+00 1.918178439140319824e+00 -2.844164073467254639e-01
4.770000000000000000e+03 5.574924850463867188e+01 -6.174029827117919922e+00 -6.997541189193725586e-01 5.503242015838623047e+00 1.441046357154846191e+00 -1.120308876037597656e+00
4.771000000000000000e+03 6.415245056152343750e+01 3.132322072982788086e+00 -8.389376997947692871e-01 4.852002620697021484e+00 1.203919410705566406e+00 1.991565108299255371e+00
4.772000000000000000e+03 5.769548034667968750e+01 1.596153736114501953e+01 8.352683782577514648e-01 3.209710359573364258e+00 1.213493585586547852e+00 1.885243415832519531e+00
4.773000000000000000e+03 5.933067703247070312e+01 1.542597675323486328e+01 5.804009437561035156e-01 1.617756009101867676e+00 6.594470739364624023e-01 1.049194455146789551e+00
4.774000000000000000e+03 4.754208755493164062e+01 2.198594361543655396e-01 -1.745507717132568359e-01 2.360973834991455078e+00 6.559268832206726074e-01 3.645730495452880859e+00
4.775000000000000000e+03 6.854846191406250000e+01 -2.721280157566070557e-01 -2.781506299972534180e+00 5.859085559844970703e+00 9.232737421989440918e-01 -9.836263060569763184e-01
4.776000000000000000e+03 5.568323516845703125e+01 -1.194594860076904297e+00 -2.426522970199584961e+00 5.007153987884521484e+00 7.741892337799072266e-01 -5.187802791595458984e+00
4.777000000000000000e+03 5.807900619506835938e+01 -9.412326812744140625e+00 2.867832481861114502e-01 7.835995674133300781e+00 2.436833620071411133e+00 6.853982806205749512e-01
4.778000000000000000e+03 5.705536651611328125e+01 -7.867002010345458984e+00 1.094940230250358582e-01 6.745941162109375000e+00 2.056630611419677734e+00 -5.639006569981575012e-02
4.779000000000000000e+03 3.323297882080078125e+01 2.658805608749389648e+00 3.064657926559448242e+00 2.280758142471313477e+00 1.603624820709228516e+00 4.175292968750000000e+00
4.780000000000000000e+03 6.596994781494140625e+01 2.755666971206665039e+00 4.148601889610290527e-01 6.174253463745117188e+00 1.976734042167663574e+00 1.862096071243286133e+00
4.781000000000000000e+03 6.660559844970703125e+01 6.593152523040771484e+00 -1.982191205024719238e-01 1.042007064819335938e+01 3.066555500030517578e+00 -8.055642247200012207e-01
4.782000000000000000e+03 7.301429748535156250e+01 -1.931356549263000488e+00 -1.249315142631530762e+00 3.674423456192016602e+00 7.275324463844299316e-01 -1.521195411682128906e+00
4.783000000000000000e+03 7.355876159667968750e+01 -2.405156612396240234e+00 -8.119757771492004395e-01 4.381887435913085938e+00 1.070973515510559082e+00 -6.829399466514587402e-01
4.784000000000000000e+03 4.203102874755859375e+01 -7.217498779296875000e+00 7.599292397499084473e-01 8.242017745971679688e+00 2.700583934783935547e+00 5.967612862586975098e-01
4.785000000000000000e+03 3.129587173461914062e+01 3.090110063552856445e+00 -7.638234496116638184e-01 3.186486482620239258e+00 7.267989516258239746e-01 3.318967580795288086e+00
4.786000000000000000e+03 7.436193847656250000e+01 2.501149940490722656e+01 -4.975442308932542801e-03 6.551916122436523438e+00 1.964082241058349609e+00 1.838511414825916290e-02
4.787000000000000000e+03 5.611650466918945312e+01 -1.836709737777709961e+00 -1.780446887016296387e+00 4.295933246612548828e+00 7.546459436416625977e-01 -4.429467678070068359e+00
4.788000000000000000e+03 6.752375030517578125e+01 5.862650275230407715e-01 -1.344038724899291992e+00 5.776513576507568359e+00 1.329742431640625000e+00 9.972528219223022461e-01
4.789000000000000000e+03 6.795805358886718750e+01 -5.980666279792785645e-01 -3.097873210906982422e+00 4.595059871673583984e+00 4.491560459136962891e-01 -1.141235083341598511e-01
4.790000000000000000e+03 5.248651885986328125e+01 7.420512199401855469e+00 -8.859505057334899902e-01 1.198057460784912109e+01 3.328387260437011719e+00 -8.334187269210815430e-01
4.791000000000000000e+03 5.012158584594726562e+01 -6.873877048492431641e-01 -8.287883400917053223e-01 3.192178249359130859e+00 7.090169787406921387e-01 1.460193634033203125e+00
4.792000000000000000e+03 4.923276519775390625e+01 -1.559751510620117188e+00 -1.407353878021240234e+00 6.955418586730957031e-01 -2.135436087846755981e-01 2.136175632476806641e+00
4.793000000000000000e+03 5.070872497558593750e+01 2.676087379455566406e+00 2.411353588104248047e+00 6.429292201995849609e+00 2.652193784713745117e+00 9.269677996635437012e-01
4.794000000000000000e+03 4.919319534301757812e+01 2.858299732208251953e+00 1.687602043151855469e+00 4.204760551452636719e+00 1.767708778381347656e+00 1.654057025909423828e+00
4.795000000000000000e+03 3.244212388992309570e+00 4.758642673492431641e+00 6.291410923004150391e-01 -5.196771621704101562e-01 3.283917531371116638e-02 2.596876621246337891e-01
4.796000000000000000e+03 8.245664596557617188e+00 -5.286102771759033203e+00 -1.290651708841323853e-01 5.519140511751174927e-02 -2.216213010251522064e-02 -1.199423894286155701e-01
4.797000000000000000e+03 1.082188320159912109e+01 1.295892047882080078e+01 -1.285490393638610840e+00 9.404494762420654297e-01 -1.035122498869895935e-01 -4.268986880779266357e-01
4.798000000000000000e+03 4.345502376556396484e+00 -5.845954418182373047e+00 -3.910901397466659546e-02 -5.083760246634483337e-02 -2.698398381471633911e-02 -1.236632689833641052e-01
4.799000000000000000e+03 3.057655143737792969e+01 1.722255516052246094e+01 3.504357039928436279e-01 5.605055093765258789e-01 2.732823789119720459e-01 9.305235743522644043e-01
4.800000000000000000e+03 3.017262649536132812e+01 1.566662597656250000e+01 8.162245154380798340e-02 -2.200567275285720825e-01 -4.153028503060340881e-02 6.272897720336914062e-01
4.801000000000000000e+03 6.428662872314453125e+01 -1.506582069396972656e+01 -6.457824707031250000e-01 4.175130844116210938e+00 1.058804512023925781e+00 -7.232538461685180664e-01
4.802000000000000000e+03 7.405088043212890625e+01 1.322544288635253906e+01 1.054888486862182617e+00 5.060482501983642578e+00 1.834611296653747559e+00 -1.331097126007080078e+00
4.803000000000000000e+03 6.069315338134765625e+01 -1.206572723388671875e+01 -7.783149927854537964e-02 8.025881767272949219e+00 2.384415149688720703e+00 8.493920564651489258e-01
4.804000000000000000e+03 6.089302444458007812e+01 -1.320196151733398438e+01 1.963022351264953613e-02 7.765944004058837891e+00 2.335672378540039062e+00 5.324504375457763672e-01
4.805000000000000000e+03 1.206283664703369141e+01 -5.376141071319580078e+00 -2.690689265727996826e-01 1.552649736404418945e-01 -3.414118662476539612e-02 -4.829978197813034058e-02
4.806000000000000000e+03 2.278998565673828125e+01 -1.292807388305664062e+01 9.905219078063964844e-01 3.230081796646118164e+00 1.266181111335754395e+00 2.219470977783203125e+00
4.807000000000000000e+03 6.662410736083984375e+01 1.692026901245117188e+01 -5.602049231529235840e-01 7.506531715393066406e+00 2.083898067474365234e+00 -7.266619205474853516e-01
4.808000000000000000e+03 3.445890426635742188e+01 1.822907066345214844e+01 -4.396483898162841797e-01 2.330359697341918945e+00 5.672133564949035645e-01 -1.479753732681274414e+00
4.809000000000000000e+03 3.469610977172851562e+01 1.702069854736328125e+01 -8.254355192184448242e-01 2.426255941390991211e+00 4.802461564540863037e-01 -2.233960628509521484e+00
4.810000000000000000e+03 5.836760520935058594e+00 -2.884178352355957031e+01 8.404002524912357330e-03 5.048432573676109314e-02 1.766649819910526276e-02 9.203977882862091064e-02
4.811000000000000000e+03 5.593079376220703125e+01 -2.355078125000000000e+01 -9.718740731477737427e-02 5.615592956542968750e+00 1.655521750450134277e+00 9.407753348350524902e-01
4.812000000000000000e+03 5.602094650268554688e+00 3.005574989318847656e+01 3.986611962318420410e-02 1.093950510025024414e+00 3.401449918746948242e-01 2.131069749593734741e-01
4.813000000000000000e+03 6.192096710205078125e+00 2.868715667724609375e+01 2.949699200689792633e-02 1.068258404731750488e+00 3.293266296386718750e-01 2.303415685892105103e-01
4.814000000000000000e+03 7.319406890869140625e+01 -3.128535032272338867e+00 -1.063461422920227051e+00 4.872300148010253906e+00 1.142651557922363281e+00 -7.491678595542907715e-01
4.815000000000000000e+03 7.389084625244140625e+01 -3.510627746582031250e+00 -7.129804491996765137e-01 5.695325851440429688e+00 1.494703650474548340e+00 4.346950352191925049e-02
4.816000000000000000e+03 6.071392822265625000e+01 -9.838101863861083984e-01 -2.289811372756958008e+00 5.094074249267578125e+00 8.412788510322570801e-01 6.537026166915893555e-01
4.817000000000000000e+03 5.413090515136718750e+01 -4.069787979125976562e+00 -2.792460680007934570e+00 5.299990653991699219e+00 7.522590160369873047e-01 -2.094438076019287109e+00
4.818000000000000000e+03 7.289957427978515625e+01 -3.854325532913208008e+00 -1.150711894035339355e+00 5.398455142974853516e+00 1.274322867393493652e+00 -6.324561238288879395e-01
4.819000000000000000e+03 7.228046417236328125e+01 -3.555922985076904297e+00 -1.458948016166687012e+00 4.912961006164550781e+00 1.036203980445861816e+00 -1.140863299369812012e+00
4.820000000000000000e+03 7.560587882995605469e+00 9.067038536071777344e+00 -1.030305698513984680e-01 2.018774747848510742e+00 5.747232437133789062e-01 -1.754075288772583008e+00
4.821000000000000000e+03 7.094333171844482422e+00 8.929148674011230469e+00 7.739850133657455444e-02 1.675618767738342285e+00 5.259051918983459473e-01 -1.713831901550292969e+00
4.822000000000000000e+03 7.272566986083984375e+01 -5.070511817932128906e+00 -9.666037559509277344e-01 6.175965785980224609e+00 1.562808632850646973e+00 -2.478644549846649170e-01
4.823000000000000000e+03 7.268384552001953125e+01 -4.502017974853515625e+00 -1.173174977302551270e+00 5.657369613647460938e+00 1.345258355140686035e+00 -5.144146084785461426e-01
4.824000000000000000e+03 6.937907695770263672e+00 5.767570972442626953e+00 2.855273962020874023e+00 1.887850910425186157e-01 9.132177233695983887e-01 -1.217167377471923828e+00
4.825000000000000000e+03 5.978820037841796875e+01 -5.519956588745117188e+00 1.286049008369445801e+00 6.884486675262451172e+00 2.451160669326782227e+00 5.434497594833374023e-01
4.826000000000000000e+03 5.995178222656250000e+01 -6.222408294677734375e+00 1.279617071151733398e+00 7.425620079040527344e+00 2.611571073532104492e+00 9.722616076469421387e-01
4.827000000000000000e+03 5.058874893188476562e+01 4.989301204681396484e+00 1.495275735855102539e+00 8.059115409851074219e+00 2.866317272186279297e+00 -8.719528466463088989e-02
4.828000000000000000e+03 6.483920288085937500e+01 1.795029163360595703e+00 -1.119580507278442383e+00 5.084756374359130859e+00 1.189552783966064453e+00 3.125658988952636719e+00
4.829000000000000000e+03 5.243049621582031250e+01 -3.891380429267883301e-01 -2.048828125000000000e+00 7.612069606781005859e+00 1.668972492218017578e+00 -8.749969601631164551e-01
4.830000000000000000e+03 5.166432189941406250e+01 8.486126661300659180e-01 6.228883862495422363e-01 7.456146717071533203e+00 2.423710584640502930e+00 9.495826363563537598e-01
4.831000000000000000e+03 5.862557601928710938e+01 -9.805697441101074219e+00 2.733399569988250732e-01 8.158535003662109375e+00 2.529562473297119141e+00 9.680468440055847168e-01
4.832000000000000000e+03 5.820658874511718750e+01 -1.040497493743896484e+01 2.767010927200317383e-01 8.342032432556152344e+00 2.585620164871215820e+00 7.433042526245117188e-01
4.833000000000000000e+03 9.535755157470703125e+00 1.235118007659912109e+01 -1.169838786125183105e+00 1.378103971481323242e+00 6.247956305742263794e-02 -6.117395758628845215e-01
4.834000000000000000e+03 1.220240783691406250e+01 1.336348533630371094e+01 -1.382691740989685059e+00 3.264861404895782471e-01 -3.168616592884063721e-01 -4.113638103008270264e-01
4.835000000000000000e+03 1.127848911285400391e+01 1.453077697753906250e+01 -1.281906247138977051e+00 6.612108945846557617e-01 -1.862086206674575806e-01 -2.927668392658233643e-01
4.836000000000000000e+03 3.544138669967651367e+00 2.314293670654296875e+01 -6.241341307759284973e-02 1.374910235404968262e+00 3.937490582466125488e-01 1.287153065204620361e-01
4.837000000000000000e+03 3.649461269378662109e+00 2.220202445983886719e+01 -8.905832469463348389e-02 1.376005172729492188e+00 3.860840499401092529e-01 1.021231338381767273e-01
4.838000000000000000e+03 1.440057277679443359e+01 -6.739381313323974609e+00 -3.122420012950897217e-01 2.099753022193908691e-01 -3.068000823259353638e-02 -4.563096538186073303e-02
4.839000000000000000e+03 8.220343589782714844e+00 1.125140953063964844e+01 -9.684431552886962891e-01 1.727133750915527344e+00 2.276071906089782715e-01 -9.794796109199523926e-01
4.840000000000000000e+03 8.519790649414062500e+00 1.051749324798583984e+01 -8.915817141532897949e-01 1.899106979370117188e+00 3.022575676441192627e-01 -1.098482131958007812e+00
4.841000000000000000e+03 3.776221513748168945e+00 -1.703057479858398438e+01 3.969904035329818726e-02 -2.858229279518127441e-01 -7.383716851472854614e-02 -7.996946573257446289e-02
4.842000000000000000e+03 7.538622283935546875e+01 -1.989237976074218750e+01 -4.848130047321319580e-01 7.646566390991210938e+00 2.148525953292846680e+00 2.732891440391540527e-01
4.843000000000000000e+03 7.652747344970703125e+01 -1.959417724609375000e+01 -3.682389557361602783e-01 7.590588092803955078e+00 2.166704654693603516e+00 -8.107842504978179932e-02
4.844000000000000000e+03 4.816561126708984375e+01 8.446019291877746582e-01 4.177749156951904297e-01 2.610269546508789062e+00 9.084133505821228027e-01 3.027050495147705078e+00
4.845000000000000000e+03 7.623047637939453125e+01 -9.842442512512207031e+00 6.284988522529602051e-01 8.706481933593750000e+00 2.800494194030761719e+00 1.450982570648193359e+00
4.846000000000000000e+03 4.668742656707763672e+00 -8.598011016845703125e+00 -2.488544024527072906e-02 -8.329909294843673706e-02 -3.245536237955093384e-02 -1.663010567426681519e-01
4.847000000000000000e+03 3.291838169097900391e+00 -8.483735084533691406e+00 -1.357889268547296524e-02 -1.387970298528671265e-01 -4.571277648210525513e-02 -1.346473395824432373e-01
4.848000000000000000e+03 4.070231437683105469e+00 1.219826984405517578e+01 -2.730943262577056885e-01 1.070322275161743164e+00 2.391683906316757202e-01 -9.450921416282653809e-01
4.849000000000000000e+03 6.512875366210937500e+01 -6.109151244163513184e-02 -2.230827569961547852e+00 4.236512660980224609e+00 6.017054319381713867e-01 4.591702461242675781e+00
4.850000000000000000e+03 7.541082000732421875e+01 -9.550433158874511719e+00 7.175050973892211914e-01 8.947284698486328125e+00 2.899436712265014648e+00 1.502533197402954102e+00
4.851000000000000000e+03 7.598624420166015625e+01 -9.290257453918457031e+00 5.719801187515258789e-01 8.839583396911621094e+00 2.823469161987304688e+00 1.605572462081909180e+00
4.852000000000000000e+03 4.814933013916015625e+01 -1.852657699584960938e+01 1.760593950748443604e-01 2.664171695709228516e+00 8.520693182945251465e-01 -1.416462659835815430e+00
4.853000000000000000e+03 4.729156494140625000e+00 7.525934696197509766e+00 8.743091821670532227e-01 2.708671391010284424e-01 3.435528874397277832e-01 -1.127833962440490723e+00
4.854000000000000000e+03 3.878698110580444336e+00 7.170389175415039062e+00 7.992504835128784180e-01 -1.978442631661891937e-02 2.338398098945617676e-01 -7.950490117073059082e-01
4.855000000000000000e+03 5.707080841064453125e+01 -2.029036283493041992e+00 -1.025826811790466309e+00 3.380002498626708984e+00 7.062526941299438477e-01 -3.477627992630004883e+00
4.856000000000000000e+03 7.551733398437500000e+01 -2.357918930053710938e+01 -1.201720312237739563e-01 6.814715862274169922e+00 2.008363246917724609e+00 3.660987317562103271e-01
4.857000000000000000e+03 7.629138183593750000e+01 -2.444823265075683594e+01 -6.508476287126541138e-02 6.831526756286621094e+00 2.029932737350463867e+00 2.865769267082214355e-01
4.858000000000000000e+03 6.449343872070312500e+01 2.733792737126350403e-02 -2.675942897796630859e+00 5.003356456756591797e+00 6.982240080833435059e-01 4.411548614501953125e+00
4.859000000000000000e+03 5.751821517944335938e+00 8.616879463195800781e+00 4.504101872444152832e-01 1.022020578384399414e+00 4.417292177677154541e-01 -1.563618779182434082e+00
4.860000000000000000e+03 4.729380607604980469e+00 1.052953624725341797e+01 -1.201728954911231995e-01 1.025949001312255859e+00 2.717328369617462158e-01 -1.230082988739013672e+00
4.861000000000000000e+03 4.057708740234375000e+00 1.038885021209716797e+01 -7.966478914022445679e-02 8.110434412956237793e-01 2.194135934114456177e-01 -1.125639796257019043e+00
4.862000000000000000e+03 5.153343200683593750e+01 -2.411223983764648438e+01 7.755840420722961426e-01 3.329077243804931641e+00 1.231398344039916992e+00 7.849865406751632690e-02
4.863000000000000000e+03 3.583773803710937500e+01 2.127975940704345703e+00 4.850432872772216797e+00 7.367267608642578125e+00 3.665310144424438477e+00 8.210194706916809082e-01
4.864000000000000000e+03 4.616906642913818359e+00 -1.869726943969726562e+01 5.281793698668479919e-02 -2.036089897155761719e-01 -4.523731768131256104e-02 -5.095878615975379944e-02
4.865000000000000000e+03 3.757634878158569336e+00 -1.867276382446289062e+01 4.071440920233726501e-02 -2.979414463043212891e-01 -7.716810703277587891e-02 -5.147778987884521484e-02
4.866000000000000000e+03 5.323181629180908203e+00 -1.371339702606201172e+01 4.990353435277938843e-02 -1.229625642299652100e-01 -2.191770821809768677e-02 -1.521426737308502197e-01
4.867000000000000000e+03 7.556124114990234375e+01 -2.209419822692871094e+01 -2.738139331340789795e-01 7.064056396484375000e+00 2.037072658538818359e+00 3.533702790737152100e-01
4.868000000000000000e+03 7.636202239990234375e+01 -2.285150527954101562e+01 -1.693833172321319580e-01 7.020393848419189453e+00 2.055303096771240234e+00 2.526175677776336670e-01
4.869000000000000000e+03 6.772596740722656250e+01 1.320930480957031250e+01 1.978095293045043945e+00 9.890899658203125000e+00 3.560698509216308594e+00 1.670706510543823242e+00
4.870000000000000000e+03 2.993417358398437500e+01 1.768500137329101562e+01 2.674420177936553955e-01 1.660034775733947754e+00 5.782430171966552734e-01 1.399323105812072754e+00
4.871000000000000000e+03 2.835226249694824219e+01 1.775271415710449219e+01 -9.347530454397201538e-02 3.576316356658935547e+00 1.044852375984191895e+00 1.888139724731445312e+00
4.872000000000000000e+03 4.707829284667968750e+01 4.650992751121520996e-01 -5.513097643852233887e-01 2.527107000350952148e+00 5.927392244338989258e-01 3.732860088348388672e+00
4.873000000000000000e+03 6.699429321289062500e+01 1.635900735855102539e+00 -2.462599426507949829e-01 6.296478271484375000e+00 1.815065503120422363e+00 1.745892047882080078e+00
4.874000000000000000e+03 5.715559387207031250e+01 -2.293157577514648438e+01 -4.491169750690460205e-01 6.718411445617675781e+00 1.880788326263427734e+00 5.167279243469238281e-01
4.875000000000000000e+03 5.784232711791992188e+01 -2.125041389465332031e+01 -2.978891134262084961e-01 7.853405952453613281e+00 2.266654968261718750e+00 1.988364756107330322e-01
4.876000000000000000e+03 5.281169509887695312e+01 -1.396480560302734375e+00 -3.094033241271972656e+00 7.206485271453857422e+00 1.233735561370849609e+00 -1.757538080215454102e+00
4.877000000000000000e+03 7.068673706054687500e+01 -1.865060329437255859e+00 -3.099117994308471680e+00 4.747674465179443359e+00 4.945669472217559814e-01 -2.553041934967041016e+00
4.878000000000000000e+03 7.036232757568359375e+01 -1.437287926673889160e+00 -3.201693534851074219e+00 4.966665267944335938e+00 5.294915437698364258e-01 -2.888293266296386719e+00
4.879000000000000000e+03 5.812742996215820312e+01 1.457056522369384766e+01 4.193724393844604492e-01 2.224873542785644531e+00 7.932738065719604492e-01 1.522661447525024414e+00
4.880000000000000000e+03 7.625494384765625000e+01 1.885685729980468750e+01 1.994463950395584106e-01 6.622405052185058594e+00 2.046555519104003906e+00 -1.340251713991165161e-01
4.881000000000000000e+03 4.314475631713867188e+01 1.678908920288085938e+01 3.959872126579284668e-01 3.248068571090698242e+00 1.093216657638549805e+00 1.881213545799255371e+00
4.882000000000000000e+03 4.395688056945800781e+00 2.477413749694824219e+01 -4.107538238167762756e-02 1.259651184082031250e+00 3.655727207660675049e-01 1.836911439895629883e-01
4.883000000000000000e+03 3.931825399398803711e+00 2.374047851562500000e+01 -5.830135568976402283e-02 1.328261733055114746e+00 3.809880912303924561e-01 1.508805304765701294e-01
4.884000000000000000e+03 6.766788482666015625e+01 8.260703086853027344e+00 -3.175649046897888184e-01 1.173287677764892578e+01 3.424593448638916016e+00 -1.321544289588928223e+00
4.885000000000000000e+03 4.592018604278564453e+00 -1.536912727355957031e+01 4.500215873122215271e-02 -1.936803907155990601e-01 -4.460347071290016174e-02 -1.181655302643775940e-01
4.886000000000000000e+03 7.419935607910156250e+01 -5.849551200866699219e+00 -3.716980516910552979e-01 7.445121765136718750e+00 2.122027158737182617e+00 9.040557742118835449e-01
4.887000000000000000e+03 7.424199676513671875e+01 -6.502987861633300781e+00 -3.235917389392852783e-01 7.840958595275878906e+00 2.255209922790527344e+00 1.105717539787292480e+00
4.888000000000000000e+03 7.664268493652343750e+01 -8.556244850158691406e+00 3.225811123847961426e-01 8.728944778442382812e+00 2.715457677841186523e+00 1.696693658828735352e+00
4.889000000000000000e+03 5.003775787353515625e+01 3.442045927047729492e+00 2.075113773345947266e+00 5.647174358367919922e+00 2.316686391830444336e+00 9.665114879608154297e-01
4.890000000000000000e+03 4.101386547088623047e+00 -6.444417476654052734e+00 -3.560314700007438660e-02 -6.838625669479370117e-02 -3.119682148098945618e-02 -1.281527578830718994e-01
4.891000000000000000e+03 3.349304962158203125e+01 3.591062784194946289e+00 2.105774641036987305e+00 3.697801351547241211e+00 1.741072893142700195e+00 2.910377979278564453e+00
4.892000000000000000e+03 7.663777160644531250e+01 -1.197843360900878906e+01 7.560088038444519043e-01 8.342890739440917969e+00 2.729669809341430664e+00 8.738305568695068359e-01
4.893000000000000000e+03 1.048532676696777344e+01 1.257721424102783203e+01 -1.287535905838012695e+00 1.011735558509826660e+00 -8.274009078741073608e-02 -4.809182286262512207e-01
4.894000000000000000e+03 9.480106353759765625e+00 1.328251743316650391e+01 -1.168911933898925781e+00 1.243079900741577148e+00 2.225038595497608185e-02 -5.034487843513488770e-01
4.895000000000000000e+03 2.763590812683105469e+00 1.563764572143554688e+01 -1.701952368021011353e-01 1.317952752113342285e+00 3.443272709846496582e-01 -3.794369399547576904e-01
4.896000000000000000e+03 1.956983327865600586e+00 1.557398414611816406e+01 -1.093965917825698853e-01 1.354854583740234375e+00 3.736374080181121826e-01 -3.066501319408416748e-01
4.897000000000000000e+03 7.544198608398437500e+01 -2.520945167541503906e+01 -1.639246754348278046e-02 6.626692771911621094e+00 1.983090043067932129e+00 3.542491197586059570e-01
4.898000000000000000e+03 7.615306091308593750e+01 -2.610715484619140625e+01 6.410846486687660217e-03 6.670207023620605469e+00 2.002985239028930664e+00 2.812660038471221924e-01
4.899000000000000000e+03 7.557305145263671875e+01 -1.493006038665771484e+01 8.548821210861206055e-01 8.637585639953613281e+00 2.847740411758422852e+00 -2.177086658775806427e-02
4.900000000000000000e+03 7.614782714843750000e+01 -1.467918872833251953e+01 7.938190698623657227e-01 8.350535392761230469e+00 2.743306398391723633e+00 3.146192058920860291e-02
4.901000000000000000e+03 7.476142120361328125e+01 -2.877370452880859375e+01 9.654002636671066284e-02 6.341341972351074219e+00 1.931364536285400391e+00 2.552354633808135986e-01
4.902000000000000000e+03 7.672162628173828125e+01 -1.404703426361083984e+01 6.538842320442199707e-01 8.015130043029785156e+00 2.600704193115234375e+00 1.673544496297836304e-01
4.903000000000000000e+03 7.670864105224609375e+01 -1.338846015930175781e+01 7.408356666564941406e-01 8.109730720520019531e+00 2.655169963836669922e+00 3.690004944801330566e-01
4.904000000000000000e+03 6.771117401123046875e+01 -1.373853906989097595e-02 -2.286944389343261719e+00 5.296185016632080078e+00 9.027721881866455078e-01 1.474069356918334961e-01
4.905000000000000000e+03 7.664222717285156250e+01 -2.258127450942993164e+00 -6.037880778312683105e-01 8.568216323852539062e+00 2.389328479766845703e+00 1.252950429916381836e+00
4.906000000000000000e+03 7.517435455322265625e+01 -2.570410966873168945e+00 -6.513481736183166504e-01 6.219833850860595703e+00 1.670545816421508789e+00 9.206575155258178711e-01
4.907000000000000000e+03 7.264849185943603516e+00 5.298214435577392578e+00 3.236248970031738281e+00 4.010834991931915283e-01 1.091199755668640137e+00 -1.122469663619995117e+00
4.908000000000000000e+03 7.580421447753906250e+01 -1.757809829711914062e+01 -2.117715626955032349e-01 8.190814971923828125e+00 2.393712997436523438e+00 -2.263480871915817261e-01
4.909000000000000000e+03 7.583795928955078125e+01 -1.142672443389892578e+01 9.440147280693054199e-01 8.912195205688476562e+00 2.956862926483154297e+00 1.121549367904663086e+00
4.910000000000000000e+03 7.328024291992187500e+01 1.314904212951660156e+01 1.480154156684875488e+00 4.509881973266601562e+00 1.797010779380798340e+00 -8.325545787811279297e-01
4.911000000000000000e+03 7.492622375488281250e+01 1.255443000793457031e+01 2.919571697711944580e-01 6.121388435363769531e+00 1.924003720283508301e+00 -1.837415695190429688e+00
4.912000000000000000e+03 2.537477493286132812e+01 -1.388336467742919922e+01 -4.795268476009368896e-01 6.093397617340087891e+00 1.684161186218261719e+00 1.159565448760986328e+00
4.913000000000000000e+03 5.048434257507324219e+00 1.304961585998535156e+01 -4.888234436511993408e-01 1.254349231719970703e+00 2.296577244997024536e-01 -8.728276491165161133e-01
4.914000000000000000e+03 5.935176849365234375e+01 -1.529494953155517578e+01 1.067473053932189941e+00 8.586891174316406250e+00 2.896309375762939453e+00 2.186831086874008179e-01
4.915000000000000000e+03 6.015893554687500000e+01 -7.546300888061523438e+00 8.860035538673400879e-01 8.041954994201660156e+00 2.678387403488159180e+00 1.239376902580261230e+00
4.916000000000000000e+03 5.982678222656250000e+01 -8.795651435852050781e+00 4.519626498222351074e-01 8.129716873168945312e+00 2.574503898620605469e+00 1.231811165809631348e+00
4.917000000000000000e+03 7.666270446777343750e+01 1.498219680786132812e+01 2.077316790819168091e-01 6.797171115875244141e+00 2.101470708847045898e+00 -6.630661487579345703e-01
4.918000000000000000e+03 7.646120452880859375e+01 1.584727382659912109e+01 3.080842792987823486e-01 6.639750003814697266e+00 2.084350347518920898e+00 -5.376207232475280762e-01
4.919000000000000000e+03 6.031255340576171875e+01 -4.414503097534179688e+00 1.479364156723022461e+00 6.801989555358886719e+00 2.484406232833862305e+00 3.795688748359680176e-01
4.920000000000000000e+03 4.691672801971435547e+00 5.469819545745849609e+00 1.385848402976989746e+00 -3.002754151821136475e-01 3.256718814373016357e-01 -3.038770854473114014e-01
4.921000000000000000e+03 1.565102863311767578e+01 1.704492378234863281e+01 -1.459680318832397461e+00 -5.136641114950180054e-02 -4.533140063285827637e-01 -3.049662113189697266e-01
4.922000000000000000e+03 6.318742752075195312e+01 -1.507557678222656250e+01 -3.878921568393707275e-01 5.342661380767822266e+00 1.486430764198303223e+00 -6.468487977981567383e-01
4.923000000000000000e+03 6.516719055175781250e+01 -1.611273384094238281e+01 -4.877288639545440674e-01 3.243120431900024414e+00 8.266174793243408203e-01 -8.535355925559997559e-01
4.924000000000000000e+03 7.161593627929687500e+01 1.241189289093017578e+01 1.910341024398803711e+00 3.917616605758666992e+00 1.748387336730957031e+00 4.116569757461547852e-01
4.925000000000000000e+03 7.076251983642578125e+01 1.262354660034179688e+01 2.075432300567626953e+00 4.817491531372070312e+00 2.067877054214477539e+00 1.013127088546752930e+00
4.926000000000000000e+03 7.730435943603515625e+01 1.661280441284179688e+01 1.707544177770614624e-01 6.811738491058349609e+00 2.094747781753540039e+00 -3.732826709747314453e-01
4.927000000000000000e+03 4.636339950561523438e+01 1.935636711120605469e+01 7.141442894935607910e-01 3.414808988571166992e+00 1.238685965538024902e+00 -1.106789056211709976e-02
4.928000000000000000e+03 3.783192157745361328e+00 1.503581142425537109e+01 -3.034716844558715820e-01 1.254565238952636719e+00 2.853280901908874512e-01 -5.302432179450988770e-01
4.929000000000000000e+03 5.930105209350585938e+01 -2.444100379943847656e+00 -1.850861907005310059e-01 4.260721206665039062e+00 1.222690463066101074e+00 -9.471434950828552246e-01
4.930000000000000000e+03 6.532956695556640625e+01 1.833672714233398438e+01 -2.083868719637393951e-02 5.840856552124023438e+00 1.746005296707153320e+00 -1.277205228805541992e+00
4.931000000000000000e+03 5.043362045288085938e+01 2.026622772216796875e+01 -3.214886784553527832e-01 5.906374454498291016e+00 1.675465703010559082e+00 -3.265170156955718994e-01
4.932000000000000000e+03 4.945772552490234375e+01 1.994392967224121094e+01 -4.886882007122039795e-02 5.385418415069580078e+00 1.600964903831481934e+00 -6.490902900695800781e-01
4.933000000000000000e+03 4.333145523071289062e+01 -1.271128368377685547e+01 8.415806293487548828e-01 8.688673973083496094e+00 2.859076499938964844e+00 6.517902016639709473e-02
4.934000000000000000e+03 2.881712675094604492e+00 -1.542122554779052734e+01 1.895930431783199310e-02 -3.481080830097198486e-01 -9.874463826417922974e-02 -9.205064177513122559e-02
4.935000000000000000e+03 5.326238632202148438e+00 -2.644181442260742188e+01 1.969808712601661682e-02 -3.330476954579353333e-02 -4.082004539668560028e-03 7.330930978059768677e-02
4.936000000000000000e+03 5.134270668029785156e+00 -2.512739372253417969e+01 2.821760624647140503e-02 -8.727658540010452271e-02 -1.771769300103187561e-02 5.417895689606666565e-02
4.937000000000000000e+03 7.670557403564453125e+01 -3.781732320785522461e+00 -1.988888680934906006e-01 8.856097221374511719e+00 2.597162485122680664e+00 1.510501146316528320e+00
4.938000000000000000e+03 5.965510940551757812e+01 -1.218036937713623047e+01 1.842231154441833496e-01 8.507743835449218750e+00 2.607590198516845703e+00 8.934732079505920410e-01
4.939000000000000000e+03 5.908159255981445312e+01 -1.174208450317382812e+01 1.903654932975769043e-01 8.733397483825683594e+00 2.677129030227661133e+00 9.124320745468139648e-01
4.940000000000000000e+03 2.906048965454101562e+01 1.882470703125000000e+01 -2.652677297592163086e-01 2.843242883682250977e+00 7.733924984931945801e-01 1.360074400901794434e+00
4.941000000000000000e+03 5.564560317993164062e+01 -4.785642147064208984e+00 -1.267564177513122559e+00 5.233895778656005859e+00 1.189899444580078125e+00 -2.037006855010986328e+00
4.942000000000000000e+03 7.667980194091796875e+01 -1.464162826538085938e+01 6.603631973266601562e-01 8.014204025268554688e+00 2.602370262145996094e+00 -5.627565085887908936e-02
4.943000000000000000e+03 4.521494293212890625e+01 -1.547600555419921875e+01 9.453016519546508789e-01 5.040261745452880859e+00 1.795669078826904297e+00 -1.345520615577697754e+00
4.944000000000000000e+03 4.483609390258789062e+01 -1.454382705688476562e+01 1.000580668449401855e+00 5.793974876403808594e+00 2.038366794586181641e+00 -9.332774281501770020e-01
4.945000000000000000e+03 2.914070510864257812e+01 1.785867500305175781e+01 1.393365394324064255e-02 2.440043449401855469e+00 7.361931800842285156e-01 1.753020763397216797e+00
4.946000000000000000e+03 5.258316802978515625e+01 1.830688285827636719e+01 -4.423245191574096680e-01 7.330325603485107422e+00 2.066400289535522461e+00 8.265045881271362305e-01
4.947000000000000000e+03 2.039448976516723633e+00 2.681268501281738281e+01 -8.566080941818654537e-04 1.417886137962341309e+00 4.251088500022888184e-01 1.258428543806076050e-01
4.948000000000000000e+03 4.658591461181640625e+01 -1.619907569885253906e+01 5.102831125259399414e-01 3.408946037292480469e+00 1.175768733024597168e+00 -1.405874609947204590e+00
4.949000000000000000e+03 4.690607452392578125e+01 -1.544510173797607422e+01 5.035893917083740234e-01 2.965937137603759766e+00 1.040857911109924316e+00 -1.168493270874023438e+00
4.950000000000000000e+03 5.484922409057617188e+01 1.558995819091796875e+01 8.760914802551269531e-01 6.362777233123779297e+00 2.171660661697387695e+00 2.352117538452148438e+00
4.951000000000000000e+03 5.381064987182617188e+01 1.724425315856933594e+01 4.660809040069580078e-02 7.121396064758300781e+00 2.150401353836059570e+00 1.836081981658935547e+00
4.952000000000000000e+03 2.041487693786621094e+01 -1.242646408081054688e+01 1.080850958824157715e+00 1.057018637657165527e+00 6.413608789443969727e-01 1.166050314903259277e+00
4.953000000000000000e+03 2.014301109313964844e+01 -1.143807029724121094e+01 8.721950650215148926e-01 5.681162476539611816e-01 4.320933818817138672e-01 7.070557475090026855e-01
4.954000000000000000e+03 3.863449478149414062e+01 1.895953178405761719e+01 -1.288786411285400391e+00 5.340096950531005859e+00 1.215393185615539551e+00 2.102495133876800537e-01
4.955000000000000000e+03 3.103793525695800781e+01 -1.626717376708984375e+01 -1.291627585887908936e-01 3.975472688674926758e+00 1.153892993927001953e+00 -1.322105169296264648e+00
4.956000000000000000e+03 3.176707649230957031e+01 -1.641872406005859375e+01 -1.232364773750305176e-01 3.674181222915649414e+00 1.065283417701721191e+00 -1.364328265190124512e+00
4.957000000000000000e+03 7.490498352050781250e+01 2.028201484680175781e+01 1.746552586555480957e-01 6.565333843231201172e+00 2.021996736526489258e+00 -8.611362427473068237e-04
4.958000000000000000e+03 7.474441528320312500e+01 1.942863273620605469e+01 2.597638666629791260e-01 6.516483306884765625e+00 2.032874107360839844e+00 -4.154324904084205627e-02
4.959000000000000000e+03 4.850156021118164062e+01 1.955809473991394043e+00 1.069052577018737793e+00 3.063480854034423828e+00 1.239760041236877441e+00 2.398981094360351562e+00
4.960000000000000000e+03 5.912896347045898438e+01 -8.691979408264160156e+00 4.138575196266174316e-01 7.871222496032714844e+00 2.485523939132690430e+00 1.084766030311584473e+00
4.961000000000000000e+03 5.506969833374023438e+01 -1.634830713272094727e+00 -2.828854322433471680e+00 6.232106685638427734e+00 1.020975708961486816e+00 -4.582039833068847656e+00
4.962000000000000000e+03 1.786611938476562500e+01 1.892685317993164062e+01 -1.155580520629882812e+00 -7.355753332376480103e-02 -3.687414228916168213e-01 -3.079690039157867432e-01
4.963000000000000000e+03 1.693225669860839844e+01 1.843783950805664062e+01 -1.198146343231201172e+00 -4.641107469797134399e-02 -3.733672499656677246e-01 -2.378028482198715210e-01
4.964000000000000000e+03 5.576166152954101562e+01 1.203839588165283203e+01 6.945872902870178223e-01 4.930614471435546875e+00 1.687560558319091797e+00 1.263159036636352539e+00
4.965000000000000000e+03 3.111601257324218750e+01 -1.554080677032470703e+01 -1.480459570884704590e-01 3.992355585098266602e+00 1.153292894363403320e+00 -1.447126626968383789e+00
4.966000000000000000e+03 5.525232315063476562e+01 1.430223751068115234e+01 1.193252086639404297e+00 5.780745506286621094e+00 2.092199325561523438e+00 2.192817211151123047e+00
4.967000000000000000e+03 5.516698074340820312e+01 1.351007556915283203e+01 1.278290152549743652e+00 5.927561759948730469e+00 2.161755561828613281e+00 1.923877358436584473e+00
4.968000000000000000e+03 4.465901184082031250e+01 -1.806487083435058594e+01 2.473800331354141235e-01 5.712133884429931641e+00 1.787854194641113281e+00 -1.727458238601684570e+00
4.969000000000000000e+03 4.448944854736328125e+01 -1.653829002380371094e+01 9.271174073219299316e-01 5.833757400512695312e+00 2.028262615203857422e+00 -1.595505714416503906e+00
4.970000000000000000e+03 6.917300415039062500e+01 1.570643520355224609e+01 4.997958838939666748e-01 7.378978252410888672e+00 2.363632202148437500e+00 8.609369397163391113e-01
4.971000000000000000e+03 1.307942771911621094e+01 -5.248062610626220703e+00 -3.178949356079101562e-01 1.553597897291183472e-01 -4.876054823398590088e-02 -6.657226942479610443e-03
4.972000000000000000e+03 1.359673595428466797e+01 -5.763232707977294922e+00 -3.050163090229034424e-01 1.654558777809143066e-01 -4.186813160777091980e-02 -9.879662655293941498e-03
4.973000000000000000e+03 3.569795131683349609e+00 2.803017807006835938e+01 6.831084378063678741e-03 1.244147419929504395e+00 3.752935528755187988e-01 1.881984919309616089e-01
4.974000000000000000e+03 4.713207244873046875e+00 2.830272674560546875e+01 1.405478734523057938e-02 1.165686726570129395e+00 3.539224565029144287e-01 2.140887230634689331e-01
4.975000000000000000e+03 3.979744720458984375e+01 -1.977690124511718750e+01 2.716757059097290039e-01 5.027129173278808594e+00 1.589641451835632324e+00 9.736437797546386719e-01
4.976000000000000000e+03 4.149153900146484375e+01 -2.003783988952636719e+01 -5.558585524559020996e-01 6.443927764892578125e+00 1.766420722007751465e+00 -1.230786088854074478e-02
4.977000000000000000e+03 4.697424411773681641e+00 -2.375711441040039062e+01 2.614984288811683655e-02 -1.724555790424346924e-01 -4.389172047376632690e-02 3.056753613054752350e-02
4.978000000000000000e+03 4.807575225830078125e+00 -2.449715614318847656e+01 2.520004473626613617e-02 -1.529967039823532104e-01 -3.833899646997451782e-02 4.289026558399200439e-02
4.979000000000000000e+03 5.940699768066406250e+01 -7.125775337219238281e+00 8.703919649124145508e-01 7.353014945983886719e+00 2.467022180557250977e+00 9.413948655128479004e-01
4.980000000000000000e+03 6.737354278564453125e+01 -1.990209579467773438e+01 9.421197772026062012e-01 3.026634454727172852e+00 1.190626263618469238e+00 -1.019427850842475891e-01
4.981000000000000000e+03 6.907278442382812500e+01 1.417273235321044922e+01 1.291151285171508789e+00 7.604949951171875000e+00 2.668830394744873047e+00 1.530243158340454102e+00
4.982000000000000000e+03 6.924700927734375000e+01 1.491190814971923828e+01 8.093996644020080566e-01 7.441898822784423828e+00 2.475389480590820312e+00 1.296332597732543945e+00
4.983000000000000000e+03 5.056640625000000000e+01 1.984161734580993652e+00 1.931658625602722168e+00 5.729548454284667969e+00 2.298362016677856445e+00 1.371472477912902832e+00
4.984000000000000000e+03 6.267022609710693359e+00 7.353796005249023438e+00 1.234644293785095215e+00 8.751232028007507324e-01 6.329302191734313965e-01 -1.728301644325256348e+00
4.985000000000000000e+03 6.205390930175781250e+01 -1.384739685058593750e+01 -3.401856720447540283e-01 6.765005111694335938e+00 1.927445888519287109e+00 9.845077060163021088e-03
4.986000000000000000e+03 5.388581466674804688e+01 -2.343423461914062500e+01 5.131349563598632812e-01 4.019659042358398438e+00 1.359838247299194336e+00 9.366884231567382812e-01
4.987000000000000000e+03 5.462656402587890625e+01 -2.385615348815917969e+01 2.970418632030487061e-01 4.624190807342529297e+00 1.476369857788085938e+00 9.658456444740295410e-01
4.988000000000000000e+03 5.643632507324218750e+01 -5.558279037475585938e+00 -5.142546892166137695e-01 5.467978954315185547e+00 1.486117243766784668e+00 -1.277373552322387695e+00
4.989000000000000000e+03 2.783209037780761719e+01 1.936255645751953125e+01 -9.941426515579223633e-01 3.936199903488159180e+00 8.826171755790710449e-01 1.005760788917541504e+00
4.990000000000000000e+03 2.754161834716796875e+01 2.020548248291015625e+01 -1.165854811668395996e+00 3.686026334762573242e+00 7.560514807701110840e-01 5.927484035491943359e-01
4.991000000000000000e+03 5.078644180297851562e+01 4.551745653152465820e-01 3.071442842483520508e-01 5.284162044525146484e+00 1.677391886711120605e+00 1.323345780372619629e+00
4.992000000000000000e+03 5.921288967132568359e+00 -6.158185005187988281e+00 -6.607918441295623779e-02 -1.268868986517190933e-02 -2.363036200404167175e-02 -1.455336213111877441e-01
4.993000000000000000e+03 7.511521911621093750e+01 2.407098960876464844e+01 9.111807681620121002e-03 6.618305206298828125e+00 1.988225102424621582e+00 2.664945274591445923e-02
4.994000000000000000e+03 9.245704650878906250e+00 -6.186202526092529297e+00 -1.432586759328842163e-01 9.510693699121475220e-02 -1.444552000612020493e-02 -1.319168657064437866e-01
4.995000000000000000e+03 7.474629402160644531e+00 -6.147761821746826172e+00 -9.666755050420761108e-02 3.553092107176780701e-02 -1.834098994731903076e-02 -1.453145593404769897e-01
4.996000000000000000e+03 4.332459640502929688e+01 -1.879726600646972656e+01 -2.529485821723937988e-01 6.634949207305908203e+00 1.914600133895874023e+00 -1.228348970413208008e+00
4.997000000000000000e+03 4.118037796020507812e+01 -3.428491592407226562e+00 9.753657579421997070e-01 4.064129829406738281e+00 1.511848688125610352e+00 -2.106690883636474609e+00
4.998000000000000000e+03 6.304742813110351562e+01 -1.946174353361129761e-01 -3.625916957855224609e+00 6.902145385742187500e+00 9.828685522079467773e-01 3.794798612594604492e+00
4.999000000000000000e+03 6.275112152099609375e+01 8.109857439994812012e-01 -3.427382469177246094e+00 5.593133926391601562e+00 6.497254967689514160e-01 2.975816488265991211e+00
5.000000000000000000e+03 6.037581634521484375e+01 1.757949256896972656e+01 1.156798243522644043e+00 2.500489950180053711e+00 1.097186446189880371e+00 4.321268498897552490e-01
5.001000000000000000e+03 4.204409408569335938e+01 -1.956658744812011719e+01 -4.367114305496215820e-01 6.499997615814208984e+00 1.818985939025878906e+00 -4.435814917087554932e-01
5.002000000000000000e+03 1.395807361602783203e+01 1.696717262268066406e+01 -1.264242649078369141e+00 1.565049439668655396e-01 -3.323213160037994385e-01 -1.639374345541000366e-01
5.003000000000000000e+03 1.334273052215576172e+01 1.663566017150878906e+01 -1.250601887702941895e+00 2.939016222953796387e-01 -2.870100736618041992e-01 -1.604939103126525879e-01
5.004000000000000000e+03 6.831312561035156250e+01 1.078182506561279297e+01 1.694975733757019043e+00 9.239062309265136719e+00 3.280211448669433594e+00 7.838217616081237793e-01
5.005000000000000000e+03 5.871791839599609375e+01 -2.173434638977050781e+01 -2.932739555835723877e-01 7.121246337890625000e+00 2.048391819000244141e+00 -5.737344026565551758e-01
5.006000000000000000e+03 7.473581695556640625e+01 -1.781611824035644531e+01 -5.041955709457397461e-01 8.513430595397949219e+00 2.402770519256591797e+00 1.198470741510391235e-01
5.007000000000000000e+03 7.486022186279296875e+01 -9.748710632324218750e+00 9.188277125358581543e-01 9.299815177917480469e+00 3.065592765808105469e+00 1.303887009620666504e+00
5.008000000000000000e+03 1.128763484954833984e+01 -4.835407257080078125e+00 -2.342320382595062256e-01 1.225522831082344055e-01 -3.350392729043960571e-02 -4.341199249029159546e-02
5.009000000000000000e+03 4.570119094848632812e+01 1.991278266906738281e+01 5.418987870216369629e-01 3.521805286407470703e+00 1.219111204147338867e+00 2.700745165348052979e-01
5.010000000000000000e+03 2.354414749145507812e+01 -1.324813485145568848e+00 1.285208106040954590e+00 6.693421840667724609e+00 2.393589019775390625e+00 -4.271354675292968750e+00
5.011000000000000000e+03 7.564301300048828125e+01 1.360411167144775391e+01 2.703733444213867188e-01 6.527153968811035156e+00 2.039258241653442383e+00 -1.235174059867858887e+00
5.012000000000000000e+03 7.486228942871093750e+01 1.334787082672119141e+01 5.302085876464843750e-01 5.910040855407714844e+00 1.932074904441833496e+00 -1.397510290145874023e+00
5.013000000000000000e+03 4.596700286865234375e+01 -5.251107811927795410e-01 -1.942140102386474609e+00 3.745743274688720703e+00 5.410810112953186035e-01 4.292965412139892578e+00
5.014000000000000000e+03 3.997301483154296875e+01 1.732415771484375000e+01 -1.040547847747802734e+00 5.980295658111572266e+00 1.481924295425415039e+00 1.642992019653320312e+00
5.015000000000000000e+03 3.478270339965820312e+01 2.306933879852294922e+00 4.482055187225341797e+00 4.232205390930175781e+00 2.614278316497802734e+00 2.154566049575805664e+00
5.016000000000000000e+03 2.212444877624511719e+01 -1.253431797027587891e+01 1.043905735015869141e+00 2.291979789733886719e+00 1.000765681266784668e+00 1.907332658767700195e+00
5.017000000000000000e+03 2.301712417602539062e+01 -1.398280143737792969e+01 5.026174187660217285e-01 3.682741641998291016e+00 1.255607724189758301e+00 1.854482889175415039e+00
5.018000000000000000e+03 2.394533348083496094e+01 -1.268303871154785156e+01 5.538539290428161621e-01 5.019290447235107422e+00 1.671943306922912598e+00 2.458359956741333008e+00
5.019000000000000000e+03 6.578620147705078125e+01 -1.869320487976074219e+01 5.252380967140197754e-01 3.398618459701538086e+00 1.177156925201416016e+00 -8.420056700706481934e-01
5.020000000000000000e+03 6.535492706298828125e+01 -1.814888763427734375e+01 3.392371535301208496e-01 3.435433149337768555e+00 1.132401108741760254e+00 -1.093569397926330566e+00
5.021000000000000000e+03 4.064007568359375000e+01 1.631132507324218750e+01 -3.918065428733825684e-01 5.657091140747070312e+00 1.579585433006286621e+00 2.404687404632568359e+00
5.022000000000000000e+03 4.224721145629882812e+01 1.501611709594726562e+01 7.414888739585876465e-01 3.331307888031005859e+00 1.221838951110839844e+00 2.463639020919799805e+00
5.023000000000000000e+03 7.568471527099609375e+01 -7.462114810943603516e+00 1.487056612968444824e-01 8.547559738159179688e+00 2.608879566192626953e+00 1.694240927696228027e+00
5.024000000000000000e+03 5.398174667358398438e+01 -1.359083771705627441e+00 -3.478686332702636719e+00 7.969307899475097656e+00 1.347186446189880371e+00 -3.261554241180419922e+00
5.025000000000000000e+03 5.498333358764648438e+01 -2.790446043014526367e+00 -2.612457513809204102e+00 5.759157180786132812e+00 9.440099596977233887e-01 -3.555187940597534180e+00
5.026000000000000000e+03 1.628805541992187500e+01 1.866889381408691406e+01 -1.110405683517456055e+00 -2.235516346991062164e-02 -3.398282527923583984e-01 -2.050807476043701172e-01
5.027000000000000000e+03 1.568489360809326172e+01 1.793919372558593750e+01 -1.251626610755920410e+00 3.040044754743576050e-02 -3.663678467273712158e-01 -1.927265077829360962e-01
5.028000000000000000e+03 4.903427886962890625e+01 1.560597062110900879e+00 1.162317872047424316e+00 3.500881195068359375e+00 1.398959755897521973e+00 2.388680696487426758e+00
5.029000000000000000e+03 2.965343666076660156e+01 -1.435665321350097656e+01 -2.754531800746917725e-01 5.057484149932861328e+00 1.434609174728393555e+00 -1.448969244956970215e+00
5.030000000000000000e+03 2.075194740295410156e+01 6.009527206420898438e+00 2.450747489929199219e+00 3.967267990112304688e+00 1.925404667854309082e+00 -1.827774196863174438e-01
5.031000000000000000e+03 2.014163780212402344e+01 5.967758178710937500e+00 2.664997577667236328e+00 2.074496030807495117e+00 1.421848058700561523e+00 -6.059182882308959961e-01
5.032000000000000000e+03 5.743337631225585938e+01 1.426571273803710938e+01 5.864761471748352051e-01 2.828521728515625000e+00 1.024499416351318359e+00 1.688823938369750977e+00
5.033000000000000000e+03 5.500693321228027344e+00 4.932092189788818359e+00 1.817608952522277832e+00 -3.725102543830871582e-01 4.335296154022216797e-01 -9.648980200290679932e-02
5.034000000000000000e+03 6.013478469848632812e+01 -5.905416607856750488e-01 -2.538300514221191406e+00 3.770089864730834961e+00 3.695368170738220215e-01 9.233007580041885376e-02
5.035000000000000000e+03 5.137860107421875000e+01 1.673310697078704834e-01 -4.990374147891998291e-01 6.363446712493896484e+00 1.759322762489318848e+00 7.951157689094543457e-01
5.036000000000000000e+03 2.650005149841308594e+01 2.147569274902343750e+01 -1.230821967124938965e+00 3.307187318801879883e+00 6.229096055030822754e-01 -1.330661475658416748e-01
5.037000000000000000e+03 2.477902603149414062e+01 2.030913925170898438e+01 -1.666242837905883789e+00 3.540356874465942383e+00 5.622342228889465332e-01 -1.190947651863098145e+00
5.038000000000000000e+03 7.352196502685546875e+01 -1.921433830261230469e+01 -7.421370148658752441e-01 7.581266880035400391e+00 2.051738977432250977e+00 9.616706371307373047e-01
5.039000000000000000e+03 6.039160919189453125e+01 -1.770756149291992188e+01 1.032364726066589355e+00 7.030044078826904297e+00 2.418722629547119141e+00 -8.957770466804504395e-01
5.040000000000000000e+03 5.895763397216796875e+01 -1.667291450500488281e+01 1.496844768524169922e+00 8.815480232238769531e+00 3.093697547912597656e+00 -7.663436233997344971e-02
5.041000000000000000e+03 3.564112091064453125e+01 1.924658966064453125e+01 -8.540269136428833008e-01 3.650509834289550781e+00 8.389449119567871094e-01 -1.124802589416503906e+00
5.042000000000000000e+03 5.924684524536132812e+01 -1.014631748199462891e+01 2.368081659078598022e-01 8.324483871459960938e+00 2.568387746810913086e+00 1.119548678398132324e+00
5.043000000000000000e+03 6.058897399902343750e+01 -1.090133094787597656e+01 -1.587532460689544678e-03 8.236998558044433594e+00 2.470623254776000977e+00 1.119834065437316895e+00
5.044000000000000000e+03 6.046372604370117188e+01 -1.627856254577636719e+01 7.545768022537231445e-01 7.333899974822998047e+00 2.426542997360229492e+00 -4.335517585277557373e-01
5.045000000000000000e+03 4.061892318725585938e+01 1.386175155639648438e+01 1.384993791580200195e+00 5.378589153289794922e+00 2.029074907302856445e+00 3.292154550552368164e+00
5.046000000000000000e+03 7.102988433837890625e+01 -3.481955528259277344e+00 -2.198925018310546875e+00 4.401738166809082031e+00 6.608439087867736816e-01 -1.507087826728820801e+00
5.047000000000000000e+03 4.085902023315429688e+01 -5.894115447998046875e+00 1.271264553070068359e+00 5.732800006866455078e+00 2.101219415664672852e+00 -7.231383919715881348e-01
5.048000000000000000e+03 2.682320976257324219e+01 -2.200688838958740234e+00 4.208839893341064453e+00 6.495946884155273438e+00 3.211436033248901367e+00 7.386733293533325195e-01
5.049000000000000000e+03 6.277223968505859375e+01 -8.673368096351623535e-01 -3.799351692199707031e+00 8.394405364990234375e+00 1.378516197204589844e+00 2.944061040878295898e+00
5.050000000000000000e+03 6.332831954956054688e+01 4.153600931167602539e-01 -3.409668445587158203e+00 6.073788166046142578e+00 7.992359399795532227e-01 3.900416612625122070e+00
5.051000000000000000e+03 1.896071052551269531e+01 -1.203245353698730469e+01 8.168794512748718262e-01 5.518285632133483887e-01 4.106124043464660645e-01 4.319988787174224854e-01
5.052000000000000000e+03 6.874514770507812500e+01 1.199594783782958984e+01 2.288328409194946289e+00 8.156863212585449219e+00 3.133557319641113281e+00 1.419786214828491211e+00
5.053000000000000000e+03 7.000690460205078125e+01 1.292552375793457031e+01 2.012625455856323242e+00 6.024681568145751953e+00 2.411192178726196289e+00 1.498859405517578125e+00
5.054000000000000000e+03 7.119935989379882812e+00 8.228843688964843750e+00 5.239844918251037598e-01 1.645758867263793945e+00 6.509230136871337891e-01 -1.929491043090820312e+00
5.055000000000000000e+03 5.606130123138427734e+00 2.773260307312011719e+01 2.251533558592200279e-03 1.115085244178771973e+00 3.352010250091552734e-01 2.261815071105957031e-01
5.056000000000000000e+03 7.394429016113281250e+01 -2.759142684936523438e+01 1.270826607942581177e-01 6.234072685241699219e+00 1.908346533775329590e+00 3.285278975963592529e-01
5.057000000000000000e+03 3.507603836059570312e+01 3.230676412582397461e+00 3.503163576126098633e+00 6.413740158081054688e+00 2.975071191787719727e+00 1.365610480308532715e+00
5.058000000000000000e+03 7.494843292236328125e+01 -4.982889652252197266e+00 -3.533066511154174805e-01 7.386610031127929688e+00 2.109991073608398438e+00 1.184897899627685547e+00
5.059000000000000000e+03 7.625550842285156250e+01 -5.424330234527587891e+00 -1.471167951822280884e-01 8.516200065612792969e+00 2.510725021362304688e+00 1.646801114082336426e+00
5.060000000000000000e+03 2.286610031127929688e+01 2.005269622802734375e+01 -9.174736738204956055e-01 1.341795325279235840e+00 1.272964924573898315e-01 -1.337055325508117676e+00
5.061000000000000000e+03 7.632519531250000000e+01 -1.600123214721679688e+01 2.873701453208923340e-01 8.098265647888183594e+00 2.515690565109252930e+00 -3.075170516967773438e-01
5.062000000000000000e+03 6.731990051269531250e+01 1.802333831787109375e+01 -3.385058939456939697e-01 7.050549983978271484e+00 2.013613224029541016e+00 -4.322709739208221436e-01
5.063000000000000000e+03 1.713669204711914062e+01 -9.199078559875488281e+00 -1.332714557647705078e-01 2.588871121406555176e-01 3.768469765782356262e-02 -2.428286522626876831e-02
5.064000000000000000e+03 1.630503082275390625e+01 -8.215616226196289062e+00 -2.942045629024505615e-01 2.493114620447158813e-01 -1.346792466938495636e-02 -7.691739499568939209e-02
5.065000000000000000e+03 7.513843536376953125e+01 -2.686957359313964844e+01 5.882514640688896179e-02 6.459228992462158203e+00 1.955416202545166016e+00 3.183540999889373779e-01
5.066000000000000000e+03 3.478458404541015625e+01 -1.787880325317382812e+01 4.995133578777313232e-01 2.586535215377807617e+00 9.258145689964294434e-01 -9.626746177673339844e-01
5.067000000000000000e+03 6.083921813964843750e+01 -2.084904432296752930e+00 -7.187386155128479004e-01 6.048023700714111328e+00 1.598785519599914551e+00 2.631556689739227295e-01
5.068000000000000000e+03 7.170747375488281250e+01 -3.412630796432495117e+00 -1.883613228797912598e+00 4.686757087707519531e+00 8.409431576728820801e-01 -1.497445225715637207e+00
5.069000000000000000e+03 2.414089584350585938e+01 -1.005128979682922363e+00 1.648790597915649414e+00 6.051250934600830078e+00 2.310012578964233398e+00 -4.803745269775390625e+00
5.070000000000000000e+03 1.216604232788085938e+00 -5.167368888854980469e+00 -5.135354120284318924e-03 -8.616165816783905029e-02 -2.738910354673862457e-02 -4.295679181814193726e-02
5.071000000000000000e+03 7.631900024414062500e+01 -1.702707672119140625e+01 -7.281455397605895996e-02 8.038863182067871094e+00 2.389814615249633789e+00 -4.039390683174133301e-01
5.072000000000000000e+03 4.202228927612304688e+01 -4.035219669342041016e+00 2.300036191940307617e+00 5.187818527221679688e+00 2.246356487274169922e+00 -1.009649276733398438e+00
5.073000000000000000e+03 3.854004383087158203e+00 1.804768371582031250e+01 -2.207953482866287231e-01 1.359362602233886719e+00 3.415701687335968018e-01 -1.770688891410827637e-01
5.074000000000000000e+03 5.286982727050781250e+01 -1.979159712791442871e+00 -3.475239515304565430e+00 6.404016017913818359e+00 8.786330223083496094e-01 -1.818954586982727051e+00
5.075000000000000000e+03 4.963894844055175781e+00 -1.055855083465576172e+01 2.831531222909688950e-03 -1.044203415513038635e-01 -3.047664277255535126e-02 -1.745093464851379395e-01
5.076000000000000000e+03 3.345041751861572266e+00 -9.949799537658691406e+00 -4.451997112482786179e-03 -1.752444803714752197e-01 -5.390894412994384766e-02 -1.426190584897994995e-01
5.077000000000000000e+03 4.396848297119140625e+01 -1.679655838012695312e+01 8.669335842132568359e-01 6.594032287597656250e+00 2.238289833068847656e+00 -1.538717150688171387e+00
5.078000000000000000e+03 4.487199783325195312e+01 -1.605920219421386719e+01 8.949012756347656250e-01 5.552103519439697266e+00 1.934101462364196777e+00 -1.482749462127685547e+00
5.079000000000000000e+03 7.659207916259765625e+01 1.218537807464599609e+01 -4.073291420936584473e-01 7.730708122253417969e+00 2.197013616561889648e+00 -1.083634257316589355e+00
5.080000000000000000e+03 7.608948516845703125e+01 1.283850479125976562e+01 -1.458036452531814575e-01 7.152054309844970703e+00 2.101875305175781250e+00 -1.301575303077697754e+00
5.081000000000000000e+03 6.163053512573242188e+01 -1.314211368560791016e+01 -1.715930253267288208e-01 7.265568256378173828e+00 2.128192663192749023e+00 3.510864973068237305e-01
5.082000000000000000e+03 2.985594749450683594e+01 -1.206373882293701172e+01 6.270001530647277832e-01 5.159889221191406250e+00 1.736066937446594238e+00 -1.964034795761108398e+00
5.083000000000000000e+03 7.637899017333984375e+01 -2.129335784912109375e+01 -2.917286753654479980e-01 7.265666484832763672e+00 2.092181444168090820e+00 1.424419581890106201e-01
5.084000000000000000e+03 7.598636627197265625e+01 1.475192165374755859e+01 3.459288477897644043e-01 6.546906948089599609e+00 2.067850828170776367e+00 -8.399814367294311523e-01
5.085000000000000000e+03 4.339049816131591797e+00 -1.216968727111816406e+01 1.718092709779739380e-02 -1.677894294261932373e-01 -4.518255218863487244e-02 -1.591180115938186646e-01
5.086000000000000000e+03 3.212705230712890625e+01 1.876380920410156250e+01 1.983206868171691895e-01 1.252338647842407227e+00 4.351978003978729248e-01 -2.935586869716644287e-02
5.087000000000000000e+03 2.839524078369140625e+01 -1.309658432006835938e+01 -1.754280775785446167e-01 6.369294166564941406e+00 1.858159780502319336e+00 -1.229714632034301758e+00
5.088000000000000000e+03 5.928233337402343750e+01 1.735249137878417969e+01 1.114483594894409180e+00 2.684401512145996094e+00 1.139665603637695312e+00 1.071040511131286621e+00
5.089000000000000000e+03 7.092797851562500000e+01 -1.992406082153320312e+01 1.193174868822097778e-01 5.184534072875976562e+00 1.591155409812927246e+00 1.751477360725402832e+00
5.090000000000000000e+03 5.417065429687500000e+01 1.799198150634765625e+01 -3.839395940303802490e-02 6.672852516174316406e+00 1.990337610244750977e+00 1.704396605491638184e+00
5.091000000000000000e+03 2.032731819152832031e+01 1.987626457214355469e+01 -7.719992399215698242e-01 5.908777192234992981e-02 -2.138734459877014160e-01 -7.289818525314331055e-01
5.092000000000000000e+03 3.111388587951660156e+01 1.770890617370605469e+01 3.262341320514678955e-01 6.967206597328186035e-01 3.068864345550537109e-01 6.420382857322692871e-01
5.093000000000000000e+03 3.337321090698242188e+01 1.796765518188476562e+01 -4.799464251846075058e-03 1.134755611419677734e+00 3.389868438243865967e-01 -1.052467942237854004e+00
5.094000000000000000e+03 6.131538867950439453e+00 -2.782365036010742188e+01 1.625774428248405457e-02 8.248236030340194702e-02 2.962203137576580048e-02 9.103890508413314819e-02
5.095000000000000000e+03 7.374810028076171875e+01 2.412522315979003906e+01 5.809306167066097260e-03 6.547883033752441406e+00 1.966107726097106934e+00 5.604318808764219284e-03
5.096000000000000000e+03 6.219518661499023438e+01 -5.347175002098083496e-01 -3.288953781127929688e+00 6.978250980377197266e+00 1.106789231300354004e+00 2.140393972396850586e+00
5.097000000000000000e+03 9.018590927124023438e+00 1.274609947204589844e+01 -1.138865828514099121e+00 1.338348388671875000e+00 5.984478816390037537e-02 -6.314692497253417969e-01
5.098000000000000000e+03 7.248998260498046875e+01 1.403035640716552734e+01 1.606681704521179199e+00 4.964964866638183594e+00 1.971493959426879883e+00 -3.893809020519256592e-02
5.099000000000000000e+03 4.052531433105468750e+01 1.465863227844238281e+01 5.843623280525207520e-01 5.811946392059326172e+00 1.918892621994018555e+00 3.100100517272949219e+00
5.100000000000000000e+03 3.235519790649414062e+01 1.933238220214843750e+01 1.173584982752799988e-01 1.518818855285644531e+00 4.908532202243804932e-01 -9.535896033048629761e-02
5.101000000000000000e+03 3.114252662658691406e+01 1.888010787963867188e+01 1.630148738622665405e-01 1.487459301948547363e+00 4.951422512531280518e-01 6.056602597236633301e-01
5.102000000000000000e+03 4.715155029296875000e+01 -1.923506736755371094e+01 1.738588511943817139e-01 3.533510208129882812e+00 1.112210750579833984e+00 -1.630644679069519043e+00
5.103000000000000000e+03 4.124532699584960938e+01 1.404783439636230469e+01 1.200832486152648926e+00 4.337439060211181641e+00 1.661481380462646484e+00 2.935358285903930664e+00
5.104000000000000000e+03 5.982714462280273438e+01 -1.387585449218750000e+01 4.621484875679016113e-01 8.401188850402832031e+00 2.659001350402832031e+00 5.551974177360534668e-01
5.105000000000000000e+03 2.212970352172851562e+01 -1.448915958404541016e+01 5.774083733558654785e-01 2.923613548278808594e+00 1.050306558609008789e+00 1.594627857208251953e+00
5.106000000000000000e+03 7.432152557373046875e+01 -4.580711841583251953e+00 -5.279507637023925781e-01 6.793286323547363281e+00 1.879600644111633301e+00 6.839429736137390137e-01
5.107000000000000000e+03 2.390919303894042969e+01 2.086583137512207031e+01 -1.091671109199523926e+00 2.248428106307983398e+00 3.470270633697509766e-01 -1.356332421302795410e+00
5.108000000000000000e+03 2.299385261535644531e+01 2.154340171813964844e+01 -8.432216644287109375e-01 1.644862294197082520e+00 2.404921948909759521e-01 -1.163997411727905273e+00
5.109000000000000000e+03 3.420089721679687500e+01 1.957761955261230469e+01 -2.710635662078857422e-01 2.499540328979492188e+00 6.685429811477661133e-01 -9.117066860198974609e-01
5.110000000000000000e+03 3.325566482543945312e+01 1.993919372558593750e+01 -6.499471515417098999e-02 2.067792654037475586e+00 6.008393764495849609e-01 -4.295056164264678955e-01
5.111000000000000000e+03 5.504324722290039062e+01 -4.538991928100585938e+00 -1.930192708969116211e+00 5.352432727813720703e+00 1.026671886444091797e+00 -2.120227575302124023e+00
5.112000000000000000e+03 6.180810451507568359e+00 5.010031700134277344e+00 2.429171085357666016e+00 -2.330752462148666382e-01 6.588287353515625000e-01 -4.570960402488708496e-01
5.113000000000000000e+03 5.798277282714843750e+01 -2.324530792236328125e+01 -3.449455201625823975e-01 6.458617210388183594e+00 1.834101557731628418e+00 1.170646324753761292e-01
5.114000000000000000e+03 5.833140945434570312e+01 -2.247733688354492188e+01 -3.790348172187805176e-01 7.064909458160400391e+00 2.005762338638305664e+00 -3.009361214935779572e-03
5.115000000000000000e+03 4.999103546142578125e+01 4.132263660430908203e+00 1.740778923034667969e+00 6.064684391021728516e+00 2.341638803482055664e+00 7.746662497520446777e-01
5.116000000000000000e+03 2.159215164184570312e+01 2.169674491882324219e+01 -5.579926967620849609e-01 8.978983163833618164e-01 1.019716933369636536e-01 -8.740580081939697266e-01
5.117000000000000000e+03 4.937609481811523438e+01 3.468403577804565430e+00 1.710043072700500488e+00 4.679817676544189453e+00 1.916958212852478027e+00 1.358941912651062012e+00
5.118000000000000000e+03 2.772847366333007812e+01 -1.371387577056884766e+01 -5.223079919815063477e-01 6.348695278167724609e+00 1.747916221618652344e+00 -8.644946813583374023e-01
5.119000000000000000e+03 6.516859436035156250e+01 1.336276888847351074e+00 -1.313338398933410645e+00 5.097789287567138672e+00 1.135335206985473633e+00 3.328919410705566406e+00
5.120000000000000000e+03 6.526599884033203125e+01 6.764918565750122070e-01 -1.479446530342102051e+00 4.501450061798095703e+00 9.066010713577270508e-01 3.653867959976196289e+00
5.121000000000000000e+03 5.555509185791015625e+01 -2.286818265914916992e+00 -2.216101408004760742e+00 5.242399692535400391e+00 9.078895449638366699e-01 -4.150070190429687500e+00
5.122000000000000000e+03 7.249259185791015625e+01 -2.203418254852294922e+00 -1.444773793220520020e+00 4.094882011413574219e+00 7.950325608253479004e-01 -1.857684850692749023e+00
5.123000000000000000e+03 4.883838653564453125e+01 2.918630838394165039e-02 1.599392741918563843e-01 2.407799720764160156e+00 7.703216671943664551e-01 3.050859928131103516e+00
5.124000000000000000e+03 4.878708648681640625e+01 -6.048973798751831055e-01 -4.187104403972625732e-01 1.665012955665588379e+00 3.738907575607299805e-01 2.865174293518066406e+00
5.125000000000000000e+03 7.494131469726562500e+01 -7.818135261535644531e+00 3.043556511402130127e-01 8.714221000671386719e+00 2.705573081970214844e+00 1.524357557296752930e+00
5.126000000000000000e+03 5.177008628845214844e+00 8.129775047302246094e+00 6.398922801017761230e-01 6.491498947143554688e-01 3.867126405239105225e-01 -1.387154459953308105e+00
5.127000000000000000e+03 6.940367126464843750e+01 -4.715687632560729980e-01 -3.198068380355834961e+00 6.337675094604492188e+00 9.418820738792419434e-01 -2.082824945449829102e+00
5.128000000000000000e+03 1.290344142913818359e+01 1.466235828399658203e+01 -1.431540369987487793e+00 2.654449939727783203e-01 -3.498286008834838867e-01 -3.453772366046905518e-01
5.129000000000000000e+03 4.414173603057861328e+00 9.229173660278320312e+00 1.852307319641113281e-01 6.784341335296630859e-01 2.590994536876678467e-01 -1.224864482879638672e+00
5.130000000000000000e+03 5.885071182250976562e+01 -3.596657991409301758e+00 5.412316322326660156e-01 4.827638626098632812e+00 1.610661029815673828e+00 -1.023936748504638672e+00
5.131000000000000000e+03 3.996101617813110352e+00 1.097918415069580078e+01 -1.254788041114807129e-01 8.900001645088195801e-01 2.293564081192016602e-01 -1.077605843544006348e+00
5.132000000000000000e+03 7.482867431640625000e+01 -3.171774387359619141e+00 -5.034281015396118164e-01 6.269858360290527344e+00 1.729928970336914062e+00 7.349452376365661621e-01
5.133000000000000000e+03 7.561707305908203125e+01 -2.050703048706054688e+01 -4.467093646526336670e-01 7.434386253356933594e+00 2.096302986145019531e+00 2.235573083162307739e-01
5.134000000000000000e+03 4.388806343078613281e+00 6.910063743591308594e+00 9.376590251922607422e-01 -7.160515524446964264e-03 2.791495323181152344e-01 -8.345624804496765137e-01
5.135000000000000000e+03 3.901626586914062500e+00 5.884218692779541016e+00 9.928020834922790527e-01 -3.263438940048217773e-01 1.999374628067016602e-01 -3.315263390541076660e-01
5.136000000000000000e+03 1.702083587646484375e+01 1.903044700622558594e+01 -1.069865942001342773e+00 -7.664842903614044189e-02 -3.439542949199676514e-01 -2.372174263000488281e-01
5.137000000000000000e+03 7.518511199951171875e+01 -1.888198280334472656e+01 -5.612403750419616699e-01 8.029854774475097656e+00 2.240584373474121094e+00 1.620306968688964844e-01
5.138000000000000000e+03 7.633744049072265625e+01 -1.797621917724609375e+01 -2.346193939447402954e-01 7.911980628967285156e+00 2.303208351135253906e+00 -2.893552184104919434e-01
5.139000000000000000e+03 4.222173213958740234e+00 1.281720066070556641e+01 -3.465563654899597168e-01 1.129774451255798340e+00 2.349654287099838257e-01 -8.689106106758117676e-01
5.140000000000000000e+03 4.956990718841552734e+00 1.394132900238037109e+01 -4.973354637622833252e-01 1.264823794364929199e+00 2.302465140819549561e-01 -7.315787672996520996e-01
5.141000000000000000e+03 2.930694770812988281e+01 -1.127469635009765625e+01 7.066777348518371582e-01 6.085243701934814453e+00 2.037576436996459961e+00 -2.120851755142211914e+00
5.142000000000000000e+03 5.378401565551757812e+01 1.892691612243652344e+01 -2.386580854654312134e-01 6.533859729766845703e+00 1.888560414314270020e+00 1.293203115463256836e+00
5.143000000000000000e+03 7.423678588867187500e+01 -2.667595100402832031e+01 1.171636953949928284e-01 6.322871208190917969e+00 1.932010531425476074e+00 3.725040853023529053e-01
5.144000000000000000e+03 5.131143569946289062e+00 1.690814971923828125e+01 -4.251478612422943115e-01 1.289739608764648438e+00 2.593775093555450439e-01 -3.119357228279113770e-01
5.145000000000000000e+03 4.233964920043945312e+00 1.597897338867187500e+01 -3.382362425327301025e-01 1.293375134468078613e+00 2.865416705608367920e-01 -4.372532665729522705e-01
5.146000000000000000e+03 4.984754180908203125e+01 2.112362146377563477e+00 1.778164744377136230e+00 4.722161769866943359e+00 1.950097918510437012e+00 1.681026220321655273e+00
5.147000000000000000e+03 5.855318450927734375e+01 -8.918301582336425781e+00 3.762977421283721924e-01 7.742858409881591797e+00 2.435746908187866211e+00 8.791960477828979492e-01
5.148000000000000000e+03 5.223491191864013672e+00 2.690395927429199219e+01 -5.948157049715518951e-03 1.155542135238647461e+00 3.448781967163085938e-01 2.208534926176071167e-01
5.149000000000000000e+03 5.246843338012695312e+00 -6.278342247009277344e+00 -5.046439170837402344e-02 -3.513776138424873352e-02 -2.568064630031585693e-02 -1.444885879755020142e-01
5.150000000000000000e+03 4.039048767089843750e+01 -2.087987899780273438e+01 -1.319491863250732422e-01 5.249788284301757812e+00 1.535351753234863281e+00 4.571549594402313232e-01
5.151000000000000000e+03 5.636416625976562500e+01 -6.295135021209716797e+00 -3.228799104690551758e-01 5.670560359954833984e+00 1.604304075241088867e+00 -8.669149875640869141e-01
5.152000000000000000e+03 4.050437927246093750e+01 -3.950521945953369141e+00 7.811541557312011719e-01 4.165970802307128906e+00 1.484137415885925293e+00 -2.352592229843139648e+00
5.153000000000000000e+03 2.347530555725097656e+01 -1.446451950073242188e+01 1.039204895496368408e-01 4.117415428161621094e+00 1.266400814056396484e+00 1.666849970817565918e+00
5.154000000000000000e+03 1.252756309509277344e+01 -4.839118957519531250e+00 -2.710224688053131104e-01 1.385093927383422852e-01 -3.975392505526542664e-02 -7.123698480427265167e-03
5.155000000000000000e+03 1.192834949493408203e+01 -4.752069473266601562e+00 -2.415887266397476196e-01 1.215519681572914124e-01 -3.601102903485298157e-02 -3.012914396822452545e-02
5.156000000000000000e+03 5.239636421203613281e+00 -1.291097736358642578e+01 3.460170701146125793e-02 -1.186425983905792236e-01 -2.521226741373538971e-02 -1.655191481113433838e-01
5.157000000000000000e+03 6.381502151489257812e+01 1.702708125114440918e+00 -1.983972430229187012e+00 4.931072711944580078e+00 8.841300606727600098e-01 3.092042922973632812e+00
5.158000000000000000e+03 1.528237342834472656e+01 1.847433662414550781e+01 -1.062354683876037598e+00 5.439577624201774597e-02 -3.023876547813415527e-01 -1.205944791436195374e-01
5.159000000000000000e+03 1.457515144348144531e+01 1.728849411010742188e+01 -1.273188233375549316e+00 1.269106864929199219e-01 -3.438832759857177734e-01 -1.703121066093444824e-01
5.160000000000000000e+03 6.838964080810546875e+01 1.290248203277587891e+01 2.201293706893920898e+00 8.751601219177246094e+00 3.285868644714355469e+00 1.665310144424438477e+00
5.161000000000000000e+03 7.626778411865234375e+01 -7.051893234252929688e+00 4.706106707453727722e-02 8.681441307067871094e+00 2.618550777435302734e+00 1.788204312324523926e+00
5.162000000000000000e+03 5.840565490722656250e+01 -2.443528413772583008e+00 -2.446219623088836670e-01 3.605286359786987305e+00 1.008199334144592285e+00 -1.915697574615478516e+00
5.163000000000000000e+03 5.978108215332031250e+01 -2.006809234619140625e+00 -6.579239964485168457e-01 4.411836147308349609e+00 1.126173734664916992e+00 -4.461330771446228027e-01
5.164000000000000000e+03 7.469379425048828125e+01 -2.511071968078613281e+01 3.026115335524082184e-02 6.499291419982910156e+00 1.958865761756896973e+00 4.326367974281311035e-01
5.165000000000000000e+03 6.417982482910156250e+01 1.895095825195312500e+01 3.738583028316497803e-01 4.949368000030517578e+00 1.596967816352844238e+00 -1.183607578277587891e+00
5.166000000000000000e+03 6.280131149291992188e+01 1.779804801940917969e+01 8.906895518302917480e-01 3.366211652755737305e+00 1.277070283889770508e+00 -1.115664005279541016e+00
5.167000000000000000e+03 5.112263107299804688e+01 -5.411784648895263672e-01 -1.324021935462951660e+00 5.119701385498046875e+00 1.138703942298889160e+00 5.676763057708740234e-01
5.168000000000000000e+03 5.622084808349609375e+01 -3.887675285339355469e+00 -1.091733813285827637e+00 4.979848861694335938e+00 1.166434526443481445e+00 -2.491862058639526367e+00
5.169000000000000000e+03 5.668110656738281250e+01 -3.479366302490234375e+00 -8.696101903915405273e-01 4.637101173400878906e+00 1.130247354507446289e+00 -2.645715951919555664e+00
5.170000000000000000e+03 4.553916931152343750e+01 2.097786521911621094e+01 3.337732255458831787e-01 3.811175346374511719e+00 1.243484616279602051e+00 2.556302547454833984e-01
5.171000000000000000e+03 6.672333717346191406e+00 -6.130177974700927734e+00 -8.271132409572601318e-02 1.368231046944856644e-02 -2.070870436728000641e-02 -1.504307687282562256e-01
5.172000000000000000e+03 6.579476928710937500e+01 1.641947627067565918e+00 -6.176238656044006348e-01 5.398473262786865234e+00 1.434254884719848633e+00 2.783206224441528320e+00
5.173000000000000000e+03 1.475682258605957031e+01 -8.538800239562988281e+00 -2.143875807523727417e-01 2.720474600791931152e-01 1.729795895516872406e-02 -1.061228364706039429e-01
5.174000000000000000e+03 7.513996124267578125e+01 -1.708321380615234375e+01 -2.076684236526489258e-01 8.591937065124511719e+00 2.515280723571777344e+00 -1.934033632278442383e-01
5.175000000000000000e+03 7.545159912109375000e+01 -1.821619987487792969e+01 -3.967774808406829834e-01 8.149483680725097656e+00 2.325811862945556641e+00 -6.220998242497444153e-02
5.176000000000000000e+03 2.571567726135253906e+01 2.205212974548339844e+01 -1.187842011451721191e+00 3.040304422378540039e+00 5.557387471199035645e-01 -5.408655405044555664e-01
5.177000000000000000e+03 6.321870803833007812e+01 -1.804399490356445312e+01 3.575536310672760010e-01 5.123175621032714844e+00 1.644218802452087402e+00 -1.233407497406005859e+00
5.178000000000000000e+03 6.403439331054687500e+01 -1.820360755920410156e+01 3.695318400859832764e-01 4.299746990203857422e+00 1.400783658027648926e+00 -1.201585412025451660e+00
5.179000000000000000e+03 2.617771911621093750e+01 -1.430845165252685547e+01 -7.707996368408203125e-01 6.242105484008789062e+00 1.641391754150390625e+00 3.407245576381683350e-01
5.180000000000000000e+03 3.034691810607910156e+01 -1.494633865356445312e+01 -2.037014663219451904e-01 4.477681159973144531e+00 1.282193899154663086e+00 -1.494013547897338867e+00
5.181000000000000000e+03 5.529249954223632812e+01 1.653184700012207031e+01 5.742809176445007324e-01 5.704117774963378906e+00 1.883519649505615234e+00 2.279152870178222656e+00
5.182000000000000000e+03 2.437787437438964844e+01 2.173142051696777344e+01 -1.150967836380004883e+00 2.595969915390014648e+00 4.335006177425384521e-01 -1.000481367111206055e+00
5.183000000000000000e+03 6.297796726226806641e+00 9.026270866394042969e+00 1.629857420921325684e-01 1.333816885948181152e+00 4.490408003330230713e-01 -1.613860011100769043e+00
5.184000000000000000e+03 1.209074306488037109e+01 1.595080471038818359e+01 -1.227093338966369629e+00 5.363185405731201172e-01 -2.072324603796005249e-01 -1.709608137607574463e-01
5.185000000000000000e+03 1.314109420776367188e+01 1.563396739959716797e+01 -1.360553264617919922e+00 2.774475812911987305e-01 -3.249317109584808350e-01 -2.542780637741088867e-01
5.186000000000000000e+03 6.596051025390625000e+01 -1.975804710388183594e+01 7.834913730621337891e-01 3.522668600082397461e+00 1.291847944259643555e+00 -6.916351318359375000e-01
5.187000000000000000e+03 1.854182052612304688e+01 2.118829154968261719e+01 -5.798723101615905762e-01 2.497600317001342773e-01 -9.903369098901748657e-02 -3.952260613441467285e-01
5.188000000000000000e+03 1.494610977172851562e+01 -9.635902404785156250e+00 -5.596544221043586731e-02 2.966091930866241455e-01 7.219312340021133423e-02 -1.095324084162712097e-01
5.189000000000000000e+03 1.534199237823486328e+01 -9.063428878784179688e+00 -1.024454981088638306e-01 2.862563133239746094e-01 5.514324456453323364e-02 -1.248992010951042175e-01
5.190000000000000000e+03 6.143095016479492188e+01 -1.449466800689697266e+01 1.398151963949203491e-01 7.079176425933837891e+00 2.165697574615478516e+00 2.375027351081371307e-02
5.191000000000000000e+03 7.513395690917968750e+01 -5.862522125244140625e+00 -2.830987572669982910e-01 7.862536907196044922e+00 2.273831367492675781e+00 1.431402087211608887e+00
5.192000000000000000e+03 4.541652679443359375e+00 1.840670013427734375e+01 -2.768968939781188965e-01 1.315755605697631836e+00 3.116576075553894043e-01 -1.580363959074020386e-01
5.193000000000000000e+03 3.104806518554687500e+01 -1.484293937683105469e+01 -3.359074238687753677e-03 4.065929412841796875e+00 1.218771100044250488e+00 -1.512762188911437988e+00
5.194000000000000000e+03 5.310688400268554688e+01 -2.501756191253662109e+00 -3.606168508529663086e+00 6.116061210632324219e+00 7.529678344726562500e-01 -1.973180651664733887e+00
5.195000000000000000e+03 4.041438579559326172e+00 -7.841072559356689453e+00 -2.485746145248413086e-02 -9.637232124805450439e-02 -3.636893630027770996e-02 -1.450151205062866211e-01
5.196000000000000000e+03 5.039244842529296875e+01 1.327466130256652832e+00 1.360948562622070312e+00 5.149626255035400391e+00 1.953172326087951660e+00 1.643489241600036621e+00
5.197000000000000000e+03 7.307936096191406250e+01 -1.947987365722656250e+01 -6.317794322967529297e-01 7.191617488861083984e+00 1.967951416969299316e+00 1.243391513824462891e+00
5.198000000000000000e+03 4.032300567626953125e+01 -4.772347927093505859e+00 9.676310420036315918e-01 4.512727737426757812e+00 1.644107580184936523e+00 -1.867241501808166504e+00
5.199000000000000000e+03 6.782140350341796875e+01 1.164373588562011719e+01 2.739325046539306641e+00 1.005705738067626953e+01 3.838914632797241211e+00 1.017475605010986328e+00
5.200000000000000000e+03 4.955649852752685547e+00 2.230495071411132812e+01 -1.343533545732498169e-01 1.252505660057067871e+00 3.354457020759582520e-01 1.207642704248428345e-01
5.201000000000000000e+03 6.186699390411376953e+00 6.137538909912109375e+00 2.191771268844604492e+00 1.137182787060737610e-01 6.916468739509582520e-01 -1.137992858886718750e+00
5.202000000000000000e+03 4.367587566375732422e+00 2.079120063781738281e+01 -1.664514541625976562e-01 1.326188325881958008e+00 3.479210734367370605e-01 3.472428396344184875e-02
5.203000000000000000e+03 4.262283802032470703e+00 -1.139891529083251953e+01 1.194468699395656586e-02 -1.596571058034896851e-01 -4.431372508406639099e-02 -1.600109040737152100e-01
5.204000000000000000e+03 6.313402938842773438e+01 -1.619986343383789062e+01 -8.035185933113098145e-02 5.216852188110351562e+00 1.540950059890747070e+00 -9.106283783912658691e-01
5.205000000000000000e+03 6.416108703613281250e+01 -1.607017135620117188e+01 -3.120409846305847168e-01 4.311462879180908203e+00 1.199826598167419434e+00 -9.244788885116577148e-01
5.206000000000000000e+03 5.724324798583984375e+01 1.490007781982421875e+01 6.968349218368530273e-01 3.222256422042846680e+00 1.175727367401123047e+00 1.924706220626831055e+00
5.207000000000000000e+03 5.779204559326171875e+01 1.510909080505371094e+01 7.050054669380187988e-01 2.719611883163452148e+00 1.027385234832763672e+00 1.742218017578125000e+00
5.208000000000000000e+03 6.031831359863281250e+01 -1.482080841064453125e+01 6.457884311676025391e-01 7.818701267242431641e+00 2.539346933364868164e+00 1.886048465967178345e-01
5.209000000000000000e+03 4.911345481872558594e+00 -2.302582168579101562e+01 4.548370465636253357e-02 -1.409571319818496704e-01 -2.864202857017517090e-02 2.794005721807479858e-02
5.210000000000000000e+03 7.591159057617187500e+01 -3.395593166351318359e+00 -4.133577346801757812e-01 7.871440887451171875e+00 2.237424850463867188e+00 1.343299031257629395e+00
5.211000000000000000e+03 2.874885177612304688e+01 1.978949165344238281e+01 -6.293789744377136230e-01 3.043542623519897461e+00 7.242491245269775391e-01 1.031363725662231445e+00
5.212000000000000000e+03 3.994717836380004883e+00 5.324489593505859375e+00 1.004556775093078613e+00 -4.718151092529296875e-01 1.598225086927413940e-01 -3.453245759010314941e-02
5.213000000000000000e+03 6.326025390625000000e+01 1.299090027809143066e+00 -3.007992267608642578e+00 5.241830825805664062e+00 6.701515913009643555e-01 3.227404832839965820e+00
5.214000000000000000e+03 5.589352798461914062e+01 1.377497386932373047e+01 9.383955597877502441e-01 4.614506721496582031e+00 1.665870666503906250e+00 1.924806356430053711e+00
5.215000000000000000e+03 7.527685546875000000e+01 1.837093925476074219e+01 3.220855891704559326e-01 6.500496864318847656e+00 2.046774625778198242e+00 -1.334550231695175171e-01
5.216000000000000000e+03 7.411293792724609375e+01 -5.246659755706787109e+00 -6.007874011993408203e-01 6.961959362030029297e+00 1.908351659774780273e+00 7.133130431175231934e-01
5.217000000000000000e+03 7.321668243408203125e+01 -4.775444030761718750e+00 -8.740707635879516602e-01 6.259312629699707031e+00 1.615572571754455566e+00 1.495039090514183044e-02
5.218000000000000000e+03 6.946490478515625000e+01 -2.104627037048339844e+01 6.755386590957641602e-01 4.255009651184082031e+00 1.479164600372314453e+00 9.676674008369445801e-01
5.219000000000000000e+03 6.153118133544921875e+01 -1.571401977539062500e+01 4.602868556976318359e-01 6.680633544921875000e+00 2.142276048660278320e+00 -4.016451239585876465e-01
5.220000000000000000e+03 1.413920783996582031e+01 1.794655227661132812e+01 -1.099167823791503906e+00 1.907937079668045044e-01 -2.725122272968292236e-01 -8.846699446439743042e-02
5.221000000000000000e+03 6.389825057983398438e+01 1.628295034170150757e-01 -2.788284063339233398e+00 5.532068252563476562e+00 8.231352567672729492e-01 4.515478134155273438e+00
5.222000000000000000e+03 5.307138824462890625e+01 1.970670890808105469e+01 -4.044333100318908691e-01 6.576345920562744141e+00 1.851573824882507324e+00 8.865645527839660645e-01
5.223000000000000000e+03 6.833683013916015625e+01 1.661120414733886719e+01 -9.711863100528717041e-02 7.714260101318359375e+00 2.285142421722412109e+00 3.199347555637359619e-01
5.224000000000000000e+03 5.962603759765625000e+01 -1.322454166412353516e+01 3.202292025089263916e-01 8.534743309020996094e+00 2.656491756439208984e+00 6.191636919975280762e-01
5.225000000000000000e+03 3.247768783569335938e+01 -1.743884468078613281e+01 -1.446860283613204956e-02 3.362445354461669922e+00 1.004392981529235840e+00 -1.226129174232482910e+00
5.226000000000000000e+03 5.563468170166015625e+01 -3.355234146118164062e+00 -1.836188793182373047e+00 5.139307975769042969e+00 9.909358024597167969e-01 -3.121322393417358398e+00
5.227000000000000000e+03 3.815290451049804688e+00 2.534667778015136719e+01 -1.930987648665904999e-02 1.311801195144653320e+00 3.877474069595336914e-01 1.751085072755813599e-01
5.228000000000000000e+03 7.514158630371093750e+01 1.645137786865234375e+01 5.388744473457336426e-01 6.298458576202392578e+00 2.051199913024902344e+00 -3.649192452430725098e-01
5.229000000000000000e+03 7.647301483154296875e+01 1.675681495666503906e+01 2.987421154975891113e-01 6.597116947174072266e+00 2.068757772445678711e+00 -3.658554553985595703e-01
5.230000000000000000e+03 7.459882354736328125e+01 -3.861548900604248047e+00 -5.549609065055847168e-01 6.419316768646240234e+00 1.759306669235229492e+00 7.392390370368957520e-01
5.231000000000000000e+03 4.224812316894531250e+01 1.615108108520507812e+01 3.159175515174865723e-01 3.845785856246948242e+00 1.248510956764221191e+00 2.297701120376586914e+00
5.232000000000000000e+03 1.780276107788085938e+01 -1.318937683105468750e+01 6.900548338890075684e-01 7.039983272552490234e-01 4.182159602642059326e-01 3.970184028148651123e-01
5.233000000000000000e+03 1.856696128845214844e+01 -1.139535522460937500e+01 5.804576277732849121e-01 4.275903403759002686e-01 3.024143874645233154e-01 3.047069013118743896e-01
5.234000000000000000e+03 4.388907623291015625e+01 -1.962227630615234375e+01 -2.087926417589187622e-01 5.825845718383789062e+00 1.685115814208984375e+00 -1.246603608131408691e+00
5.235000000000000000e+03 6.408495330810546875e+01 1.228423595428466797e+00 -2.256202459335327148e+00 5.115785598754882812e+00 8.578749895095825195e-01 3.650561332702636719e+00
5.236000000000000000e+03 4.541135311126708984e+00 -1.455174827575683594e+01 4.409064352512359619e-02 -1.911634802818298340e-01 -4.412185028195381165e-02 -1.307659447193145752e-01
5.237000000000000000e+03 5.800224685668945312e+01 -2.893578529357910156e+00 -1.617743521928787231e-01 3.885869026184082031e+00 1.117228388786315918e+00 -2.151946544647216797e+00
5.238000000000000000e+03 5.730677032470703125e+01 -3.932002544403076172e+00 -3.061619699001312256e-01 4.773052692413330078e+00 1.340067148208618164e+00 -1.964452624320983887e+00
5.239000000000000000e+03 5.960076141357421875e+01 -7.752420902252197266e+00 6.777423620223999023e-01 7.782772541046142578e+00 2.538154363632202148e+00 1.091322660446166992e+00
5.240000000000000000e+03 5.104651641845703125e+01 1.112002730369567871e+00 1.069640994071960449e+00 6.256371021270751953e+00 2.197803497314453125e+00 1.329008102416992188e+00
5.241000000000000000e+03 7.363745880126953125e+01 2.321851539611816406e+01 1.587080582976341248e-02 6.556280136108398438e+00 1.971645355224609375e+00 1.269173249602317810e-02
5.242000000000000000e+03 5.185037231445312500e+01 -7.154715657234191895e-01 -2.000698804855346680e+00 6.269093036651611328e+00 1.280518174171447754e+00 -2.181613445281982422e-01
5.243000000000000000e+03 7.424842834472656250e+00 9.571967124938964844e+00 -3.688238561153411865e-01 1.872359037399291992e+00 4.510605633258819580e-01 -1.548855543136596680e+00
5.244000000000000000e+03 5.984582901000976562e+01 -1.938086509704589844e+01 7.312804460525512695e-01 7.121225833892822266e+00 2.355751991271972656e+00 -1.128515958786010742e+00
5.245000000000000000e+03 4.904353332519531250e+01 -2.018519973754882812e+01 2.681452631950378418e-01 2.462618827819824219e+00 8.192292451858520508e-01 -1.202346563339233398e+00
5.246000000000000000e+03 4.507192993164062500e+01 1.955386924743652344e+01 5.199163556098937988e-01 3.400027275085449219e+00 1.175983071327209473e+00 5.597647428512573242e-01
5.247000000000000000e+03 1.068720626831054688e+01 1.408607959747314453e+01 -1.247415304183959961e+00 9.126524925231933594e-01 -1.004288271069526672e-01 -3.357738554477691650e-01
5.248000000000000000e+03 1.031419086456298828e+01 1.307573509216308594e+01 -1.232624292373657227e+00 1.033644676208496094e+00 -5.969389528036117554e-02 -4.236172735691070557e-01
5.249000000000000000e+03 7.002889251708984375e+01 1.654916763305664062e+01 4.992083013057708740e-01 6.873536586761474609e+00 2.211823463439941406e+00 6.347748637199401855e-01
5.250000000000000000e+03 4.629168319702148438e+01 -1.697546958923339844e+01 4.369033873081207275e-01 3.958150386810302734e+00 1.318516135215759277e+00 -1.621258258819580078e+00
5.251000000000000000e+03 4.496770477294921875e+01 -1.706900024414062500e+01 6.199653744697570801e-01 5.368348121643066406e+00 1.796494126319885254e+00 -1.688611388206481934e+00
5.252000000000000000e+03 3.342476606369018555e+00 2.680328369140625000e+01 -3.107938682660460472e-03 1.299769997596740723e+00 3.889985978603363037e-01 1.805625855922698975e-01
5.253000000000000000e+03 3.949311065673828125e+01 -2.189082527160644531e+01 5.367517843842506409e-02 4.564999103546142578e+00 1.385602235794067383e+00 3.404905796051025391e-01
5.254000000000000000e+03 4.552058792114257812e+01 -1.653763008117675781e+01 6.775449514389038086e-01 4.677259445190429688e+00 1.606441259384155273e+00 -1.591307282447814941e+00
5.255000000000000000e+03 3.100549697875976562e+01 -1.255317783355712891e+01 5.791567564010620117e-01 4.057697296142578125e+00 1.391056180000305176e+00 -1.870647430419921875e+00
5.256000000000000000e+03 3.061442947387695312e+01 -1.351724720001220703e+01 2.198855280876159668e-01 4.420990467071533203e+00 1.392262816429138184e+00 -1.702996253967285156e+00
5.257000000000000000e+03 6.695816040039062500e+01 -2.122184371948242188e+01 9.416445493698120117e-01 3.750411748886108398e+00 1.407616853713989258e+00 -2.063515186309814453e-01
5.258000000000000000e+03 7.095506286621093750e+01 1.417285346984863281e+01 1.679310083389282227e+00 5.607807159423828125e+00 2.186135053634643555e+00 8.888753056526184082e-01
5.259000000000000000e+03 7.463317108154296875e+01 -2.986811256408691406e+01 1.114122495055198669e-01 6.309496879577636719e+00 1.926272749900817871e+00 2.226223051548004150e-01
5.260000000000000000e+03 3.564698791503906250e+01 -1.870313262939453125e+01 7.287108898162841797e-01 2.557298421859741211e+00 9.858027696609497070e-01 -5.863966941833496094e-01
5.261000000000000000e+03 5.460088729858398438e+01 -2.480072975158691406e+01 2.912327349185943604e-01 4.649712562561035156e+00 1.482283592224121094e+00 6.933665275573730469e-01
5.262000000000000000e+03 5.938304424285888672e+00 -2.702514076232910156e+01 1.906890422105789185e-02 5.571175739169120789e-02 2.243419922888278961e-02 8.483741432428359985e-02
5.263000000000000000e+03 7.135269641876220703e+00 2.795884323120117188e+01 1.317382324486970901e-02 1.022977709770202637e+00 3.108454644680023193e-01 2.339714020490646362e-01
5.264000000000000000e+03 7.666009426116943359e+00 2.702578353881835938e+01 -8.642177097499370575e-03 9.870327711105346680e-01 2.935171723365783691e-01 2.330247610807418823e-01
5.265000000000000000e+03 7.149153137207031250e+01 -2.783511924743652344e+01 2.777938544750213623e-01 5.853019237518310547e+00 1.839244008064270020e+00 3.006682395935058594e-01
5.266000000000000000e+03 5.895467758178710938e+01 -8.060225486755371094e+00 5.626034736633300781e-01 7.518506050109863281e+00 2.424332857131958008e+00 9.406976103782653809e-01
5.267000000000000000e+03 5.317084312438964844e+00 7.168097496032714844e+00 1.167204976081848145e+00 3.892018198966979980e-01 4.669220149517059326e-01 -1.290794491767883301e+00
5.268000000000000000e+03 5.873297214508056641e+00 6.851017475128173828e+00 1.567850947380065918e+00 4.266500473022460938e-01 5.983502864837646484e-01 -1.394788503646850586e+00
5.269000000000000000e+03 5.062174320220947266e+00 9.568287849426269531e+00 1.303216069936752319e-01 9.417521357536315918e-01 3.216221034526824951e-01 -1.370985746383666992e+00
5.270000000000000000e+03 5.735188007354736328e+00 7.718262672424316406e+00 9.790233373641967773e-01 7.301391959190368652e-01 5.127487778663635254e-01 -1.526038765907287598e+00
5.271000000000000000e+03 5.891366958618164062e+01 -5.283433914184570312e+00 9.019689559936523438e-01 6.024571418762207031e+00 2.077962160110473633e+00 -1.108401045203208923e-01
5.272000000000000000e+03 5.910980606079101562e+01 -5.836976051330566406e+00 9.826450943946838379e-01 6.508438110351562500e+00 2.247324943542480469e+00 3.291699588298797607e-01
5.273000000000000000e+03 5.870895767211914062e+01 -7.398282051086425781e+00 5.907090306282043457e-01 7.137386322021484375e+00 2.318428516387939453e+00 6.538578271865844727e-01
5.274000000000000000e+03 5.855366516113281250e+01 -6.726960182189941406e+00 6.409860849380493164e-01 6.700067520141601562e+00 2.202316045761108398e+00 3.704809546470642090e-01
5.275000000000000000e+03 6.435614013671875000e+01 2.187595844268798828e+00 -1.333521008491516113e+00 4.998006820678710938e+00 1.099345803260803223e+00 2.851150512695312500e+00
5.276000000000000000e+03 6.462525939941406250e+01 1.274657845497131348e+00 -1.749856472015380859e+00 4.948135375976562500e+00 9.594837427139282227e-01 3.471481323242187500e+00
5.277000000000000000e+03 5.261656570434570312e+01 -2.737221479415893555e+00 -3.734401226043701172e+00 5.354694366455078125e+00 4.860880076885223389e-01 -1.591783285140991211e+00
5.278000000000000000e+03 1.310863399505615234e+01 -6.431104660034179688e+00 -2.966803312301635742e-01 2.027169764041900635e-01 -2.818900160491466522e-02 -6.962058693170547485e-02
5.279000000000000000e+03 4.972045898437500000e+01 1.460100889205932617e+00 1.228084087371826172e+00 4.068647384643554688e+00 1.589019417762756348e+00 2.049202203750610352e+00
5.280000000000000000e+03 4.962922286987304688e+01 8.025910854339599609e-01 7.848866581916809082e-01 3.594883918762207031e+00 1.313931226730346680e+00 2.259775876998901367e+00
5.281000000000000000e+03 6.628421783447265625e+01 -2.162738037109375000e+01 8.850752711296081543e-01 4.054080963134765625e+00 1.481746912002563477e+00 -4.711010158061981201e-01
5.282000000000000000e+03 6.800556182861328125e+01 -2.169899749755859375e+01 8.814376592636108398e-01 4.018364906311035156e+00 1.469940781593322754e+00 2.526950836181640625e-01
5.283000000000000000e+03 4.503075027465820312e+01 -1.974606704711914062e+01 -2.677433937788009644e-02 5.064598560333251953e+00 1.511347293853759766e+00 -1.558630824089050293e+00
5.284000000000000000e+03 7.022222137451171875e+01 1.355376338958740234e+01 1.898662328720092773e+00 5.927497863769531250e+00 2.347847938537597656e+00 1.347839593887329102e+00
5.285000000000000000e+03 7.294927978515625000e+01 -5.599209785461425781e+00 -8.215854167938232422e-01 6.557482719421386719e+00 1.720769286155700684e+00 2.804168127477169037e-02
5.286000000000000000e+03 3.940545272827148438e+01 -5.586018085479736328e+00 5.784697532653808594e-01 4.160855293273925781e+00 1.421797513961791992e+00 -1.543361067771911621e+00
5.287000000000000000e+03 7.091919708251953125e+01 1.494102287292480469e+01 1.268360853195190430e+00 6.024945259094238281e+00 2.187991857528686523e+00 8.444082736968994141e-01
5.288000000000000000e+03 7.088726806640625000e+01 1.572486114501953125e+01 1.002577304840087891e+00 6.307585716247558594e+00 2.193048954010009766e+00 7.199982404708862305e-01
5.289000000000000000e+03 6.915871429443359375e+01 1.829802131652832031e+01 -3.901733085513114929e-02 6.922216415405273438e+00 2.064959764480590820e+00 1.323704421520233154e-01
5.290000000000000000e+03 6.831948089599609375e+01 1.738277816772460938e+01 -1.716750711202621460e-01 7.303184509277343750e+00 2.139452695846557617e+00 1.583951860666275024e-01
5.291000000000000000e+03 4.498959064483642578e+00 2.691005516052246094e+01 -6.734220311045646667e-03 1.204556703567504883e+00 3.593467473983764648e-01 2.084668427705764771e-01
5.292000000000000000e+03 3.984245300292968750e+01 2.029473686218261719e+01 -8.373528122901916504e-01 4.675806522369384766e+00 1.151536107063293457e+00 4.826413989067077637e-01
5.293000000000000000e+03 7.385575866699218750e+01 1.475684356689453125e+01 1.053053140640258789e+00 5.590334892272949219e+00 1.993016362190246582e+00 -5.155803561210632324e-01
5.294000000000000000e+03 4.159356307983398438e+01 -2.263847541809082031e+01 -3.375288546085357666e-01 5.087916374206542969e+00 1.425116181373596191e+00 -2.230371832847595215e-01
5.295000000000000000e+03 4.195173263549804688e+01 -2.065815353393554688e+01 -4.404529631137847900e-01 5.879413604736328125e+00 1.631688117980957031e+00 -2.840909957885742188e-01
5.296000000000000000e+03 1.739903259277343750e+01 -1.109061813354492188e+01 3.437066078186035156e-01 3.774191141128540039e-01 2.163377255201339722e-01 9.104593843221664429e-02
5.297000000000000000e+03 5.752809524536132812e+01 -2.502854585647583008e+00 -5.823839306831359863e-01 3.677025556564331055e+00 9.283925294876098633e-01 -2.749102354049682617e+00
5.298000000000000000e+03 5.932472610473632812e+01 -3.813600778579711914e+00 8.543745875358581543e-01 5.419501304626464844e+00 1.882162690162658691e+00 -5.245183706283569336e-01
5.299000000000000000e+03 6.063771438598632812e+01 -1.402705478668212891e+01 1.536376327276229858e-01 7.779800415039062500e+00 2.380031347274780273e+00 3.042522370815277100e-01
5.300000000000000000e+03 1.250151729583740234e+01 -5.944723129272460938e+00 -2.474231272935867310e-01 1.702948510646820068e-01 -2.313848212361335754e-02 -6.604102253913879395e-02
5.301000000000000000e+03 5.467737197875976562e+01 1.154597187042236328e+01 7.849770784378051758e-01 7.098240852355957031e+00 2.364965438842773438e+00 9.751907587051391602e-01
5.302000000000000000e+03 7.564201354980468750e+01 -2.955801010131835938e+00 -4.787074923515319824e-01 7.180016994476318359e+00 2.010392904281616211e+00 1.191984176635742188e+00
5.303000000000000000e+03 5.555887699127197266e+00 6.254893302917480469e+00 1.708982229232788086e+00 6.311717629432678223e-02 5.316298604011535645e-01 -9.782905578613281250e-01
5.304000000000000000e+03 5.441379547119140625e+00 5.588140487670898438e+00 1.780510187149047852e+00 -2.888564169406890869e-01 4.474961161613464355e-01 -5.060396194458007812e-01
5.305000000000000000e+03 6.211845397949218750e+00 5.592401504516601562e+00 2.312478303909301758e+00 6.278674304485321045e-02 7.125794887542724609e-01 -8.179693818092346191e-01
5.306000000000000000e+03 5.710565567016601562e+01 -4.647821426391601562e+00 -3.054827451705932617e-01 5.144701004028320312e+00 1.451765537261962891e+00 -1.617379307746887207e+00
5.307000000000000000e+03 4.717809200286865234e+00 8.647674560546875000e+00 4.525707066059112549e-01 6.267849206924438477e-01 3.238067030906677246e-01 -1.296192765235900879e+00
5.308000000000000000e+03 5.898815917968750000e+01 -9.255614280700683594e+00 3.392829596996307373e-01 8.038666725158691406e+00 2.513385057449340820e+00 1.055295586585998535e+00
5.309000000000000000e+03 4.731728076934814453e+00 1.208623123168945312e+01 -3.523748517036437988e-01 1.131484031677246094e+00 2.337327450513839722e-01 -1.012106418609619141e+00
5.310000000000000000e+03 5.796567535400390625e+01 -4.152533531188964844e+00 1.964864581823348999e-01 4.947187900543212891e+00 1.543102264404296875e+00 -1.383224368095397949e+00
5.311000000000000000e+03 5.710265350341796875e+01 -2.964460611343383789e+00 -6.750515103340148926e-01 4.147151947021484375e+00 1.041630148887634277e+00 -2.795069217681884766e+00
5.312000000000000000e+03 2.995218086242675781e+01 1.919343376159667969e+01 -9.994374215602874756e-02 2.197490692138671875e+00 6.292641162872314453e-01 1.119060397148132324e+00
5.313000000000000000e+03 7.457090759277343750e+01 -1.857164192199707031e+01 -6.474334001541137695e-01 8.220118522644042969e+00 2.271805524826049805e+00 3.783219456672668457e-01
5.314000000000000000e+03 3.572129440307617188e+01 -1.978625297546386719e+01 5.969520807266235352e-01 2.873489856719970703e+00 1.041132569313049316e+00 -3.477729558944702148e-01
5.315000000000000000e+03 7.579268646240234375e+01 -5.038567066192626953e+00 -2.781996130943298340e-01 8.111016273498535156e+00 2.349844932556152344e+00 1.502682328224182129e+00
5.316000000000000000e+03 6.668610572814941406e+00 8.599136352539062500e+00 3.458226025104522705e-01 1.463792920112609863e+00 5.428846478462219238e-01 -1.760516166687011719e+00
5.317000000000000000e+03 6.841282844543457031e+00 9.356901168823242188e+00 -4.850874096155166626e-02 1.625996112823486328e+00 4.732462167739868164e-01 -1.664147734642028809e+00
5.318000000000000000e+03 6.276543807983398438e+01 1.927710533142089844e+01 8.258593678474426270e-01 3.991713523864746094e+00 1.445271849632263184e+00 -7.240421175956726074e-01
5.319000000000000000e+03 8.499649047851562500e+00 1.227155113220214844e+01 -1.057741999626159668e+00 1.535140037536621094e+00 1.432194113731384277e-01 -7.650012373924255371e-01
5.320000000000000000e+03 4.669847011566162109e+00 1.671662712097167969e+01 -3.604370653629302979e-01 1.296498298645019531e+00 2.808184027671813965e-01 -3.441566824913024902e-01
5.321000000000000000e+03 6.061428833007812500e+01 -1.574014377593994141e+01 8.053922057151794434e-01 7.372275352478027344e+00 2.453300237655639648e+00 -1.626933962106704712e-01
5.322000000000000000e+03 7.446671295166015625e+01 -1.998360061645507812e+01 -5.270392894744873047e-01 7.459706783294677734e+00 2.079800367355346680e+00 6.412125229835510254e-01
5.323000000000000000e+03 5.307603359222412109e+00 1.868214035034179688e+01 -3.357331752777099609e-01 1.264738202095031738e+00 2.787014842033386230e-01 -1.202067285776138306e-01
5.324000000000000000e+03 7.313303375244140625e+01 2.209243583679199219e+01 5.613629519939422607e-02 6.554298400878906250e+00 1.983130455017089844e+00 1.844169385731220245e-02
5.325000000000000000e+03 7.316632080078125000e+01 2.054223823547363281e+01 1.606450378894805908e-01 6.541373252868652344e+00 2.010605573654174805e+00 6.409691274166107178e-02
5.326000000000000000e+03 7.506180572509765625e+01 -6.550874710083007812e+00 -8.839402347803115845e-02 8.169185638427734375e+00 2.424237728118896484e+00 1.459230780601501465e+00
5.327000000000000000e+03 1.006238460540771484e+01 1.368718242645263672e+01 -1.224172115325927734e+00 1.027762532234191895e+00 -5.892290174961090088e-02 -4.281433522701263428e-01
5.328000000000000000e+03 5.256374835968017578e+00 -8.915288925170898438e+00 -1.843299344182014465e-02 -6.236933171749114990e-02 -2.424069680273532867e-02 -1.775243580341339111e-01
5.329000000000000000e+03 2.964981460571289062e+01 -1.500907230377197266e+01 -2.652029693126678467e-01 4.873020172119140625e+00 1.382345199584960938e+00 -1.308872461318969727e+00
5.330000000000000000e+03 2.979068565368652344e+01 -1.683247756958007812e+01 -4.359616637229919434e-01 4.433812141418457031e+00 1.199355125427246094e+00 -1.049762368202209473e+00
5.331000000000000000e+03 6.002736282348632812e+01 -1.550117969512939453e+01 6.668336987495422363e-01 7.919378280639648438e+00 2.575863599777221680e+00 -7.924602180719375610e-02
5.332000000000000000e+03 6.122992324829101562e+01 2.002192687988281250e+01 9.504175782203674316e-01 3.750011920928955078e+00 1.410128831863403320e+00 5.611585918813943863e-03
5.333000000000000000e+03 4.513668441772460938e+01 -1.871538162231445312e+01 1.701659411191940308e-01 5.071062088012695312e+00 1.572368502616882324e+00 -1.737059950828552246e+00
5.334000000000000000e+03 5.154340744018554688e+00 -1.212062263488769531e+01 2.677424997091293335e-02 -1.161841973662376404e-01 -2.682298608124256134e-02 -1.699844896793365479e-01
5.335000000000000000e+03 5.610315704345703125e+01 -2.888898611068725586e+00 -1.567871928215026855e+00 4.749267578125000000e+00 9.544187188148498535e-01 -3.466218709945678711e+00
5.336000000000000000e+03 2.910564994812011719e+01 -1.256176948547363281e+01 6.539106369018554688e-02 6.051283836364746094e+00 1.835002541542053223e+00 -1.814317226409912109e+00
5.337000000000000000e+03 3.357943344116210938e+01 -1.966129302978515625e+01 2.378780841827392578e-01 3.194669246673583984e+00 1.029764175415039062e+00 -7.674910426139831543e-01
5.338000000000000000e+03 7.479936218261718750e+01 -2.362092971801757812e+01 -1.031655594706535339e-01 6.713568210601806641e+00 1.983120918273925781e+00 4.787073731422424316e-01
5.339000000000000000e+03 6.482078552246093750e+01 -2.107249259948730469e+01 7.076078057289123535e-01 4.460482120513916016e+00 1.550426959991455078e+00 -9.354680776596069336e-01
5.340000000000000000e+03 1.456748580932617188e+01 -1.022119712829589844e+01 5.087970942258834839e-02 3.118700981140136719e-01 1.088249459862709045e-01 -1.301324963569641113e-01
5.341000000000000000e+03 2.047832298278808594e+01 -1.443443584442138672e+01 7.002197504043579102e-01 1.843783736228942871e+00 7.632010579109191895e-01 1.197791576385498047e+00
5.342000000000000000e+03 3.057069778442382812e+01 -1.673898124694824219e+01 -2.232065349817276001e-01 4.124694347381591797e+00 1.170446395874023438e+00 -1.173183560371398926e+00
5.343000000000000000e+03 2.283121299743652344e+01 -1.462821388244628906e+01 2.519399821758270264e-01 3.504410266876220703e+00 1.126905083656311035e+00 1.608761072158813477e+00
5.344000000000000000e+03 6.904665374755859375e+01 1.260804080963134766e+01 2.158940315246582031e+00 7.437735080718994141e+00 2.879002571105957031e+00 1.748838543891906738e+00
5.345000000000000000e+03 1.378459548950195312e+01 1.865017890930175781e+01 -9.524769186973571777e-01 3.125069439411163330e-01 -1.919909864664077759e-01 -1.414746697992086411e-02
5.346000000000000000e+03 1.290261745452880859e+01 1.731337356567382812e+01 -1.112268567085266113e+00 3.589577376842498779e-01 -2.259932458400726318e-01 -8.401118218898773193e-02
5.347000000000000000e+03 5.762752532958984375e+00 1.092258167266845703e+01 -3.761273920536041260e-01 1.345174312591552734e+00 2.907140552997589111e-01 -1.264957904815673828e+00
5.348000000000000000e+03 7.183067321777343750e+00 1.013112068176269531e+01 -4.452759623527526855e-01 1.751477360725402832e+00 3.918604254722595215e-01 -1.455453634262084961e+00
5.349000000000000000e+03 2.468922996520996094e+01 -1.466821193695068359e+01 -3.902062475681304932e-01 5.203680992126464844e+00 1.444042444229125977e+00 1.216540336608886719e+00
5.350000000000000000e+03 5.674774551391601562e+01 1.570919799804687500e+01 8.328061699867248535e-01 4.122796058654785156e+00 1.486680746078491211e+00 2.167297124862670898e+00
5.351000000000000000e+03 1.576439952850341797e+01 1.868839645385742188e+01 -1.088320970535278320e+00 9.704867005348205566e-02 -2.973816692829132080e-01 -1.285307705402374268e-01
5.352000000000000000e+03 5.532242298126220703e+00 -1.790889549255371094e+01 7.352737337350845337e-02 -1.129612252116203308e-01 -1.183015573769807816e-02 -6.570034474134445190e-02
5.353000000000000000e+03 4.049837875366210938e+01 -2.189042663574218750e+01 -2.148113101720809937e-01 4.982057094573974609e+00 1.430173635482788086e+00 1.817414164543151855e-01
5.354000000000000000e+03 7.442255401611328125e+01 -1.915835189819335938e+01 -6.719455122947692871e-01 7.833373069763183594e+00 2.148428201675415039e+00 5.951625108718872070e-01
5.355000000000000000e+03 6.474138641357421875e+01 -1.992163085937500000e+01 6.596707105636596680e-01 4.238964557647705078e+00 1.469590544700622559e+00 -1.052734136581420898e+00
5.356000000000000000e+03 6.378566741943359375e+00 6.589302062988281250e+00 1.868354320526123047e+00 5.706547498703002930e-01 7.317027449607849121e-01 -1.587794542312622070e+00
5.357000000000000000e+03 5.451637744903564453e+00 2.309447479248046875e+01 -1.253401637077331543e-01 1.193468332290649414e+00 3.204384446144104004e-01 1.570265889167785645e-01
5.358000000000000000e+03 1.694485473632812500e+01 1.962887001037597656e+01 -9.339617490768432617e-01 4.674339666962623596e-02 -2.661654949188232422e-01 -1.829225122928619385e-01
5.359000000000000000e+03 6.046891021728515625e+01 -1.693320465087890625e+01 9.676586389541625977e-01 7.340312004089355469e+00 2.492391347885131836e+00 -5.714215636253356934e-01
5.360000000000000000e+03 5.585842895507812500e+01 -4.275244235992431641e+00 -1.375074744224548340e+00 5.210517406463623047e+00 1.150632739067077637e+00 -2.301352739334106445e+00
5.361000000000000000e+03 4.020813751220703125e+01 1.827272796630859375e+01 -9.779660105705261230e-01 5.440060138702392578e+00 1.338628172874450684e+00 1.220054626464843750e+00
5.362000000000000000e+03 5.877474975585937500e+01 1.766512489318847656e+01 1.001827120780944824e+00 3.148832559585571289e+00 1.245197892189025879e+00 1.305938124656677246e+00
5.363000000000000000e+03 5.844585418701171875e+01 1.660421371459960938e+01 9.016495943069458008e-01 2.873363733291625977e+00 1.132503986358642578e+00 1.523079514503479004e+00
5.364000000000000000e+03 5.971691513061523438e+01 -2.998308658599853516e+00 4.715425670146942139e-01 5.049380779266357422e+00 1.656276941299438477e+00 -5.876829028129577637e-01
5.365000000000000000e+03 4.805016040802001953e+00 1.003540229797363281e+01 -3.713276982307434082e-02 9.593124985694885254e-01 2.766539156436920166e-01 -1.289337754249572754e+00
5.366000000000000000e+03 5.643117427825927734e+00 9.959573745727539062e+00 -1.149149686098098755e-01 1.230997920036315918e+00 3.348248898983001709e-01 -1.396371960639953613e+00
5.367000000000000000e+03 1.250257587432861328e+01 1.529787540435791016e+01 -1.335735321044921875e+00 3.563809692859649658e-01 -2.938062846660614014e-01 -2.452361881732940674e-01
5.368000000000000000e+03 6.621916961669921875e+01 1.860545921325683594e+01 -2.200065851211547852e-01 6.360573768615722656e+00 1.842170119285583496e+00 -9.697301387786865234e-01
5.369000000000000000e+03 5.845495605468750000e+01 -3.248524665832519531e+00 1.886192113161087036e-01 4.399366855621337891e+00 1.376395702362060547e+00 -1.549800753593444824e+00
5.370000000000000000e+03 4.127425003051757812e+01 1.543393802642822266e+01 3.232318460941314697e-01 4.803987026214599609e+00 1.538165688514709473e+00 2.747662067413330078e+00
5.371000000000000000e+03 4.054767608642578125e+01 1.547362899780273438e+01 5.044082924723625183e-02 5.767164230346679688e+00 1.745281577110290527e+00 2.768747091293334961e+00
5.372000000000000000e+03 2.016169738769531250e+01 2.146896743774414062e+01 -5.604425072669982910e-01 5.266077518463134766e-01 -1.015043444931507111e-02 -6.651993989944458008e-01
5.373000000000000000e+03 1.309054279327392578e+01 -8.335771560668945312e+00 -1.440696418285369873e-01 2.386447340250015259e-01 2.837252616882324219e-02 -1.449607461690902710e-01
5.374000000000000000e+03 1.345844364166259766e+01 -7.560120582580566406e+00 -2.552512884140014648e-01 2.370510399341583252e-01 -5.460075568407773972e-03 -1.115175783634185791e-01
5.375000000000000000e+03 1.797633171081542969e+01 2.185857772827148438e+01 -4.088229238986968994e-01 2.836557626724243164e-01 -3.755015134811401367e-02 -2.897690534591674805e-01
5.376000000000000000e+03 3.778113555908203125e+01 1.952923011779785156e+01 -1.194973111152648926e+00 4.854814529418945312e+00 1.097952365875244141e+00 -2.541004717350006104e-01
5.377000000000000000e+03 5.439390182495117188e+01 1.876686668395996094e+01 -2.890104427933692932e-02 6.123906135559082031e+00 1.828501582145690918e+00 1.594046950340270996e+00
5.378000000000000000e+03 1.014847660064697266e+01 -7.421585559844970703e+00 -1.232340261340141296e-01 1.369536072015762329e-01 4.115874879062175751e-03 -1.595820337533950806e-01
5.379000000000000000e+03 6.345105743408203125e+01 -1.881624603271484375e+01 5.462593436241149902e-01 4.973187923431396484e+00 1.655834197998046875e+00 -1.234625339508056641e+00
5.380000000000000000e+03 7.322079467773437500e+01 -6.078265666961669922e+00 -5.678348541259765625e-01 7.046631813049316406e+00 1.943639039993286133e+00 3.034913837909698486e-01
5.381000000000000000e+03 7.366422271728515625e+01 -5.892531871795654297e+00 -5.859746932983398438e-01 7.285400867462158203e+00 2.009827852249145508e+00 6.500768065452575684e-01
5.382000000000000000e+03 1.598223495483398438e+01 -1.123999118804931641e+01 2.206659466028213501e-01 3.697199523448944092e-01 1.771157681941986084e-01 -4.328358918428421021e-02
5.383000000000000000e+03 9.207732200622558594e+00 1.067712688446044922e+01 -1.083749532699584961e+00 1.758679032325744629e+00 2.024788260459899902e-01 -8.272081017494201660e-01
5.384000000000000000e+03 6.873156738281250000e+01 -2.131990432739257812e+01 8.609064817428588867e-01 4.082722663879394531e+00 1.483088731765747070e+00 6.341955065727233887e-01
5.385000000000000000e+03 5.557701873779296875e+01 1.754407691955566406e+01 4.849862456321716309e-01 5.460116863250732422e+00 1.783530950546264648e+00 2.027973413467407227e+00
5.386000000000000000e+03 5.752119064331054688e+00 -1.045268821716308594e+01 3.426821203902363777e-04 -5.776753649115562439e-02 -1.722745597362518311e-02 -1.897917240858078003e-01
5.387000000000000000e+03 4.675473690032958984e+00 -9.171587944030761719e+00 -1.275842636823654175e-02 -9.614260494709014893e-02 -3.267031162977218628e-02 -1.666202992200851440e-01
5.388000000000000000e+03 6.154732894897460938e+01 -2.000596427917480469e+01 5.374754071235656738e-01 6.005355834960937500e+00 1.962849378585815430e+00 -1.252369284629821777e+00
5.389000000000000000e+03 2.954511451721191406e+01 -1.326428604125976562e+01 6.072490289807319641e-02 5.332924842834472656e+00 1.618094921112060547e+00 -1.626388072967529297e+00
5.390000000000000000e+03 3.025106430053710938e+01 -1.435025882720947266e+01 -5.751849338412284851e-02 4.572531700134277344e+00 1.354503989219665527e+00 -1.526290774345397949e+00
5.391000000000000000e+03 1.168285274505615234e+01 1.662211990356445312e+01 -1.117700338363647461e+00 5.793516039848327637e-01 -1.615046262741088867e-01 -1.134588047862052917e-01
5.392000000000000000e+03 1.147012805938720703e+01 1.558200550079345703e+01 -1.214839816093444824e+00 6.151558160781860352e-01 -1.799052208662033081e-01 -2.012242674827575684e-01
5.393000000000000000e+03 4.328489685058593750e+01 1.755622482299804688e+01 3.363316059112548828e-01 3.413695573806762695e+00 1.125008225440979004e+00 1.638925790786743164e+00
5.394000000000000000e+03 4.250818634033203125e+01 1.773198699951171875e+01 4.770276695489883423e-02 3.946358680725097656e+00 1.198218464851379395e+00 1.753959894180297852e+00
5.395000000000000000e+03 5.750666141510009766e+00 2.075804710388183594e+01 -2.469282448291778564e-01 1.191402673721313477e+00 2.833423316478729248e-01 5.017182976007461548e-02
5.396000000000000000e+03 7.493751525878906250e+01 -2.245781707763671875e+01 -2.341485172510147095e-01 6.903804302215576172e+00 2.000896692276000977e+00 4.763376712799072266e-01
5.397000000000000000e+03 5.565443038940429688e+01 1.856996154785156250e+01 2.925739586353302002e-01 5.349845409393310547e+00 1.692725777626037598e+00 1.748108983039855957e+00
5.398000000000000000e+03 1.433290100097656250e+01 -9.181202888488769531e+00 -8.654029667377471924e-02 2.752807736396789551e-01 5.662214383482933044e-02 -1.484656631946563721e-01
5.399000000000000000e+03 7.026507568359375000e+01 -2.172792243957519531e+01 4.634100794792175293e-01 4.938254833221435547e+00 1.620499372482299805e+00 1.001857876777648926e+00
5.400000000000000000e+03 7.090784454345703125e+01 -2.176632499694824219e+01 2.981775104999542236e-01 5.277255535125732422e+00 1.672629833221435547e+00 1.075366377830505371e+00
5.401000000000000000e+03 5.445701122283935547e+00 -7.036179065704345703e+00 -5.020728334784507751e-02 -3.561889752745628357e-02 -2.574785426259040833e-02 -1.590183377265930176e-01
5.402000000000000000e+03 1.063750648498535156e+01 -6.719536304473876953e+00 -1.871457546949386597e-01 1.513127982616424561e-01 -1.074988953769207001e-02 -1.331772953271865845e-01
5.403000000000000000e+03 5.774390029907226562e+01 -6.203054428100585938e+00 2.821336984634399414e-01 6.119266510009765625e+00 1.920420050621032715e+00 -3.022626638412475586e-01
5.404000000000000000e+03 7.176142883300781250e+01 -2.800822734832763672e+00 -1.884162783622741699e+00 4.423949241638183594e+00 7.619358897209167480e-01 -1.873159766197204590e+00
5.405000000000000000e+03 6.193802833557128906e+00 -1.972774887084960938e+01 9.363125264644622803e-02 -2.709084004163742065e-02 1.996212452650070190e-02 -1.847956143319606781e-02
5.406000000000000000e+03 1.556373882293701172e+01 1.927586174011230469e+01 -9.186928868293762207e-01 8.603799343109130859e-02 -2.497964650392532349e-01 -9.635987132787704468e-02
5.407000000000000000e+03 8.899372100830078125e+00 1.150305843353271484e+01 -1.074718713760375977e+00 1.596376895904541016e+00 1.564974635839462280e-01 -8.186911940574645996e-01
5.408000000000000000e+03 7.167153167724609375e+01 -2.102219200134277344e+01 2.070331713184714317e-03 5.721469879150390625e+00 1.717062115669250488e+00 1.332884073257446289e+00
5.409000000000000000e+03 5.703989028930664062e+01 -6.278090000152587891e+00 -7.683781534433364868e-02 5.963136672973632812e+00 1.765889644622802734e+00 -6.217174530029296875e-01
5.410000000000000000e+03 6.966394805908203125e+01 1.384675884246826172e+01 1.598209023475646973e+00 6.795527935028076172e+00 2.518121004104614258e+00 1.577567577362060547e+00
5.411000000000000000e+03 6.979173660278320312e+00 2.652248382568359375e+01 -2.106686308979988098e-02 1.035730719566345215e+00 3.043991625308990479e-01 2.319044768810272217e-01
5.412000000000000000e+03 7.249866485595703125e+01 -2.592080497741699219e+01 2.278426438570022583e-01 5.986147880554199219e+00 1.864197254180908203e+00 4.581514894962310791e-01
5.413000000000000000e+03 6.462205505371093750e+01 6.694349050521850586e-01 -2.166036605834960938e+00 4.926314830780029297e+00 8.280834555625915527e-01 4.263255596160888672e+00
5.414000000000000000e+03 8.330073356628417969e+00 -6.176511287689208984e+00 -1.178937703371047974e-01 6.576891988515853882e-02 -1.563745550811290741e-02 -1.493588685989379883e-01
5.415000000000000000e+03 7.487959289550781250e+01 -1.947593307495117188e+01 -6.000273227691650391e-01 7.801054954528808594e+00 2.160308122634887695e+00 3.557364046573638916e-01
5.416000000000000000e+03 6.601117706298828125e+01 1.948716545104980469e+01 -4.192788526415824890e-02 6.063524723052978516e+00 1.806479096412658691e+00 -8.479668498039245605e-01
5.417000000000000000e+03 7.461700439453125000e+01 1.870987701416015625e+01 3.359714150428771973e-01 6.458213329315185547e+00 2.038255453109741211e+00 -5.153053626418113708e-02
5.418000000000000000e+03 3.235655212402343750e+01 -1.842871093750000000e+01 9.135842323303222656e-02 3.410873174667358398e+00 1.050669431686401367e+00 -1.036031246185302734e+00
5.419000000000000000e+03 7.170128631591796875e+01 1.326439666748046875e+01 1.966045379638671875e+00 4.530656814575195312e+00 1.949010610580444336e+00 3.750036358833312988e-01
5.420000000000000000e+03 6.261761093139648438e+01 -1.695216560363769531e+01 3.799703419208526611e-01 5.667160987854003906e+00 1.814139366149902344e+00 -9.531103968620300293e-01
5.421000000000000000e+03 4.344202804565429688e+01 1.832477378845214844e+01 2.839321792125701904e-01 3.493914842605590820e+00 1.133354067802429199e+00 1.382387161254882812e+00
5.422000000000000000e+03 2.213114166259765625e+01 2.227462768554687500e+01 -5.426247119903564453e-01 1.167822837829589844e+00 1.875594407320022583e-01 -9.551807641983032227e-01
5.423000000000000000e+03 5.228478622436523438e+01 1.977614593505859375e+01 -4.510855376720428467e-01 6.579343318939208984e+00 1.838477373123168945e+00 5.092676281929016113e-01
5.424000000000000000e+03 4.996206283569335938e+01 -2.369137573242187500e+01 6.912855505943298340e-01 3.124475240707397461e+00 1.144728183746337891e+00 -4.714045822620391846e-01
5.425000000000000000e+03 4.779684448242187500e+01 -2.219043159484863281e+01 3.289844989776611328e-01 3.491625547409057617e+00 1.146183013916015625e+00 -1.185862898826599121e+00
5.426000000000000000e+03 5.365626144409179688e+01 -2.517356300354003906e+01 4.104902744293212891e-01 4.220959663391113281e+00 1.389434933662414551e+00 5.150544643402099609e-01
5.427000000000000000e+03 4.855286026000976562e+01 2.162832450866699219e+01 5.810089781880378723e-02 4.822726249694824219e+00 1.464248180389404297e+00 -2.481507211923599243e-01
5.428000000000000000e+03 5.806341171264648438e+01 -2.516895675659179688e+01 -2.078818231821060181e-01 5.915255546569824219e+00 1.712212085723876953e+00 1.941723078489303589e-01
5.429000000000000000e+03 5.792591857910156250e+01 -2.411112594604492188e+01 -3.187906444072723389e-01 6.233683109283447266e+00 1.774467706680297852e+00 1.209378987550735474e-01
5.430000000000000000e+03 6.769336700439453125e+00 -2.647350311279296875e+01 3.431986272335052490e-02 1.539716869592666626e-01 5.648746713995933533e-02 9.695472568273544312e-02
5.431000000000000000e+03 6.908821105957031250e+01 -2.664930152893066406e+01 4.415436387062072754e-01 5.369777202606201172e+00 1.743396282196044922e+00 1.633817404508590698e-01
5.432000000000000000e+03 5.512760162353515625e+00 -2.442730331420898438e+01 3.510795906186103821e-02 -3.811047226190567017e-02 -9.007544722408056259e-04 5.008821561932563782e-02
5.433000000000000000e+03 7.043145751953125000e+01 2.283583831787109375e+01 -1.153900567442178726e-02 6.420210838317871094e+00 1.922601580619812012e+00 -8.652746677398681641e-02
5.434000000000000000e+03 5.970386505126953125e+00 9.486086845397949219e+00 5.148483812808990479e-02 1.270068407058715820e+00 3.964659571647644043e-01 -1.534822702407836914e+00
5.435000000000000000e+03 5.898897933959960938e+01 -4.388056755065917969e+00 9.107884764671325684e-01 5.461914539337158203e+00 1.911810874938964844e+00 -5.060898065567016602e-01
5.436000000000000000e+03 5.850588226318359375e+01 -4.012237071990966797e+00 4.252665042877197266e-01 5.012274742126464844e+00 1.631262421607971191e+00 -1.039394855499267578e+00
5.437000000000000000e+03 6.228253555297851562e+01 -1.794698143005371094e+01 5.420338511466979980e-01 5.647979736328125000e+00 1.857004046440124512e+00 -1.163842558860778809e+00
5.438000000000000000e+03 7.313365173339843750e+01 -2.036053466796875000e+01 -4.651381075382232666e-01 6.884938716888427734e+00 1.925940155982971191e+00 1.057118177413940430e+00
5.439000000000000000e+03 7.374530029296875000e+01 -2.080137252807617188e+01 -3.636414408683776855e-01 6.999408721923828125e+00 1.990730166435241699e+00 8.591592311859130859e-01
5.440000000000000000e+03 5.605952453613281250e+01 1.612319946289062500e+01 7.747311592102050781e-01 4.930831909179687500e+00 1.711668968200683594e+00 2.247515916824340820e+00
5.441000000000000000e+03 5.926118087768554688e+01 -6.474542617797851562e+00 9.305058121681213379e-01 6.977877616882324219e+00 2.372514963150024414e+00 6.215627193450927734e-01
5.442000000000000000e+03 6.086225891113281250e+01 -2.186336708068847656e+01 1.865887790918350220e-01 6.276248931884765625e+00 1.938851237297058105e+00 -9.218203425407409668e-01
5.443000000000000000e+03 5.716194534301757812e+01 1.633554077148437500e+01 8.544315695762634277e-01 3.919236660003662109e+00 1.432100534439086914e+00 2.026755809783935547e+00
5.444000000000000000e+03 4.269383239746093750e+01 1.854082298278808594e+01 2.529502660036087036e-02 3.957457065582275391e+00 1.194825649261474609e+00 1.433403611183166504e+00
5.445000000000000000e+03 4.174413299560546875e+01 1.790231704711914062e+01 -2.538576424121856689e-01 4.513875961303710938e+00 1.278005480766296387e+00 1.722686767578125000e+00
5.446000000000000000e+03 6.579267883300781250e+01 2.029166030883789062e+01 5.116869881749153137e-02 5.807570934295654297e+00 1.757621884346008301e+00 -7.708802819252014160e-01
5.447000000000000000e+03 4.361925888061523438e+01 1.905296897888183594e+01 2.652946412563323975e-01 3.619308471679687500e+00 1.165380954742431641e+00 1.104134321212768555e+00
5.448000000000000000e+03 3.046902465820312500e+01 2.143315887451171875e+01 -3.160634338855743408e-01 2.558932304382324219e+00 6.728606820106506348e-01 4.042070209980010986e-01
5.449000000000000000e+03 2.993378639221191406e+01 -1.854687690734863281e+01 -3.707614541053771973e-01 4.073987960815429688e+00 1.110967874526977539e+00 -8.755938410758972168e-01
5.450000000000000000e+03 6.281266403198242188e+01 -1.950324821472167969e+01 5.605852603912353516e-01 5.250115871429443359e+00 1.743210315704345703e+00 -1.299067854881286621e+00
5.451000000000000000e+03 5.774550247192382812e+01 -5.474111557006835938e+00 2.255709320306777954e-01 5.737776279449462891e+00 1.789004206657409668e+00 -7.128884196281433105e-01
5.452000000000000000e+03 6.098670196533203125e+01 -3.111113607883453369e-01 -3.007203340530395508e+00 4.826056003570556641e+00 5.456557273864746094e-01 9.787114262580871582e-01
5.453000000000000000e+03 6.914598083496093750e+01 1.925625419616699219e+01 -7.928601652383804321e-02 6.793865203857421875e+00 2.014373779296875000e+00 -3.204861283302307129e-02
5.454000000000000000e+03 5.344714641571044922e+00 2.126030540466308594e+01 -2.037244439125061035e-01 1.222153544425964355e+00 3.055287599563598633e-01 7.578307390213012695e-02
5.455000000000000000e+03 6.567298412322998047e+00 2.016524505615234375e+01 -3.408776819705963135e-01 1.132760405540466309e+00 2.375648319721221924e-01 2.325848489999771118e-02
5.456000000000000000e+03 1.191399669647216797e+01 -6.669328689575195312e+00 -2.313702106475830078e-01 1.834653317928314209e-01 -1.437146216630935669e-02 -1.084518730640411377e-01
5.457000000000000000e+03 1.265603923797607422e+01 -7.187228679656982422e+00 -2.048729509115219116e-01 2.036553621292114258e-01 -3.652777231764048338e-04 -1.108771264553070068e-01
5.458000000000000000e+03 1.717775344848632812e+01 2.045867919921875000e+01 -7.197557687759399414e-01 1.247389689087867737e-01 -1.785050332546234131e-01 -2.007950991392135620e-01
5.459000000000000000e+03 7.488687992095947266e+00 1.261321640014648438e+01 -9.056820273399353027e-01 1.499919414520263672e+00 1.782712191343307495e-01 -8.565617799758911133e-01
5.460000000000000000e+03 7.263283538818359375e+01 -2.506033515930175781e+01 1.605380922555923462e-01 6.007316112518310547e+00 1.850356340408325195e+00 5.412468314170837402e-01
5.461000000000000000e+03 6.557411670684814453e+00 2.585630226135253906e+01 -4.664683341979980469e-02 1.069558262825012207e+00 3.068734407424926758e-01 2.306031435728073120e-01
5.462000000000000000e+03 9.023400306701660156e+00 1.387887668609619141e+01 -1.100100278854370117e+00 1.202168941497802734e+00 3.062059916555881500e-02 -4.932744503021240234e-01
5.463000000000000000e+03 4.669530105590820312e+01 -1.819301986694335938e+01 2.481057941913604736e-01 3.735589981079101562e+00 1.195108771324157715e+00 -1.688527464866638184e+00
5.464000000000000000e+03 4.569247055053710938e+01 -1.829251480102539062e+01 2.261960059404373169e-01 4.693121433258056641e+00 1.475795149803161621e+00 -1.732106328010559082e+00
5.465000000000000000e+03 6.197006607055664062e+01 -1.903268432617187500e+01 5.676115155220031738e-01 5.980285167694091797e+00 1.964368939399719238e+00 -1.257456779479980469e+00
5.466000000000000000e+03 1.281206321716308594e+01 -9.039863586425781250e+00 -1.147714033722877502e-01 2.479438930749893188e-01 3.995174914598464966e-02 -1.659450381994247437e-01
5.467000000000000000e+03 5.780200576782226562e+01 -6.937561511993408203e+00 3.019531071186065674e-01 6.517228603363037109e+00 2.045754432678222656e+00 8.453693240880966187e-03
5.468000000000000000e+03 2.830973625183105469e+01 -1.422487068176269531e+01 -5.443202853202819824e-01 5.951219558715820312e+00 1.622069716453552246e+00 -9.498842358589172363e-01
5.469000000000000000e+03 2.899803352355957031e+01 -1.432611370086669922e+01 -2.749291062355041504e-01 5.359362125396728516e+00 1.525329828262329102e+00 -1.260589718818664551e+00
5.470000000000000000e+03 7.397832489013671875e+01 1.539822101593017578e+01 9.278417229652404785e-01 5.827612400054931641e+00 2.026636123657226562e+00 -3.494342267513275146e-01
5.471000000000000000e+03 7.320488739013671875e+01 1.480664062500000000e+01 1.235380291938781738e+00 5.447698116302490234e+00 2.004923582077026367e+00 -2.422760725021362305e-01
5.472000000000000000e+03 4.213412475585937500e+01 -2.130697441101074219e+01 -4.394316971302032471e-01 5.649093151092529297e+00 1.562898397445678711e+00 -3.527836501598358154e-01
5.473000000000000000e+03 4.362700271606445312e+01 -2.106710624694824219e+01 -3.382660150527954102e-01 5.476481437683105469e+00 1.541464567184448242e+00 -9.722176790237426758e-01
5.474000000000000000e+03 2.424732017517089844e+01 -1.611390686035156250e+01 -3.187866210937500000e-01 4.341543197631835938e+00 1.206826925277709961e+00 1.027199029922485352e+00
5.475000000000000000e+03 6.307283782958984375e+01 -2.084625434875488281e+01 5.691339373588562012e-01 5.180605888366699219e+00 1.724921941757202148e+00 -1.191761732101440430e+00
5.476000000000000000e+03 7.250106048583984375e+01 -2.123568153381347656e+01 -1.572460085153579712e-01 6.342299938201904297e+00 1.855516195297241211e+00 1.158015966415405273e+00
5.477000000000000000e+03 6.573945617675781250e+01 -2.218069267272949219e+01 7.641138434410095215e-01 4.427035331726074219e+00 1.557344794273376465e+00 -5.807721614837646484e-01
5.478000000000000000e+03 6.917190551757812500e+01 1.741329765319824219e+01 5.440928786993026733e-02 7.142748355865478516e+00 2.159147262573242188e+00 2.938643097877502441e-01
5.479000000000000000e+03 4.859191894531250000e+00 2.632498168945312500e+01 -2.358908951282501221e-02 1.193983197212219238e+00 3.511182367801666260e-01 2.158918529748916626e-01
5.480000000000000000e+03 7.495355224609375000e+01 1.768410873413085938e+01 4.478109478950500488e-01 6.375190258026123047e+00 2.046900272369384766e+00 -1.660016924142837524e-01
5.481000000000000000e+03 7.451384735107421875e+01 1.711136436462402344e+01 5.529344677925109863e-01 6.284255504608154297e+00 2.051156997680664062e+00 -1.849102824926376343e-01
5.482000000000000000e+03 5.535856246948242188e+00 -1.704681015014648438e+01 7.705111056566238403e-02 -1.167784631252288818e-01 -1.191820576786994934e-02 -8.679731935262680054e-02
5.483000000000000000e+03 1.333507061004638672e+01 -9.412700653076171875e+00 -5.164520442485809326e-02 2.702944874763488770e-01 6.559478491544723511e-02 -1.672726422548294067e-01
5.484000000000000000e+03 1.892888069152832031e+01 -1.312786769866943359e+01 8.417943120002746582e-01 8.799608349800109863e-01 5.165265202522277832e-01 6.307166218757629395e-01
5.485000000000000000e+03 1.302951812744140625e+01 1.839468765258789062e+01 -9.495315551757812500e-01 3.815201520919799805e-01 -1.704034209251403809e-01 -1.165355835109949112e-02
5.486000000000000000e+03 7.172489929199218750e+01 1.409770679473876953e+01 1.623513460159301758e+00 5.219998836517333984e+00 2.053053617477416992e+00 4.471131861209869385e-01
5.487000000000000000e+03 6.407847404479980469e+00 -1.620388793945312500e+01 9.461827576160430908e-02 -4.380638152360916138e-02 1.524356845766305923e-02 -1.027287915349006653e-01
5.488000000000000000e+03 5.464548587799072266e+00 -1.535743808746337891e+01 6.720202416181564331e-02 -1.224824711680412292e-01 -1.658413372933864594e-02 -1.227359995245933533e-01
5.489000000000000000e+03 6.852525711059570312e+00 1.235403442382812500e+01 -7.682589888572692871e-01 1.497911214828491211e+00 2.188956588506698608e-01 -9.754045605659484863e-01
5.490000000000000000e+03 7.189032077789306641e+00 1.167113113403320312e+01 -8.008515238761901855e-01 1.597659707069396973e+00 2.390424460172653198e-01 -1.059800624847412109e+00
5.491000000000000000e+03 5.490776062011718750e+00 2.509150123596191406e+01 -5.476786941289901733e-02 1.162399768829345703e+00 3.322895765304565430e-01 2.080793231725692749e-01
5.492000000000000000e+03 5.773241519927978516e+00 2.191380691528320312e+01 -1.889964640140533447e-01 1.182942509651184082e+00 2.981838285923004150e-01 1.132359430193901062e-01
5.493000000000000000e+03 6.482420921325683594e+00 -8.587772369384765625e+00 -3.519800677895545959e-02 -7.368086837232112885e-03 -1.276982855051755905e-02 -1.834998130798339844e-01
5.494000000000000000e+03 5.626070976257324219e+00 -8.270473480224609375e+00 -3.760139644145965576e-02 -4.102713614702224731e-02 -2.358856052160263062e-02 -1.759346574544906616e-01
5.495000000000000000e+03 5.786343383789062500e+01 -4.767124176025390625e+00 3.367857336997985840e-01 5.281067371368408203e+00 1.685355901718139648e+00 -1.038798689842224121e+00
5.496000000000000000e+03 4.479860782623291016e+00 -2.117632865905761719e+01 4.614191502332687378e-02 -2.071379125118255615e-01 -4.829879850149154663e-02 -6.016561295837163925e-03
5.497000000000000000e+03 7.438825607299804688e+00 -7.860476016998291016e+00 -6.306909024715423584e-02 3.505665436387062073e-02 -8.403729647397994995e-03 -1.778673231601715088e-01
5.498000000000000000e+03 6.711526393890380859e+00 -6.948443889617919922e+00 -6.826072931289672852e-02 9.309657849371433258e-03 -1.768532209098339081e-02 -1.607408672571182251e-01
5.499000000000000000e+03 7.432884979248046875e+01 1.819082641601562500e+01 4.247327744960784912e-01 6.399497985839843750e+00 2.047269105911254883e+00 -4.360935091972351074e-02
5.500000000000000000e+03 5.852083206176757812e+01 -4.922892093658447266e+00 6.477402448654174805e-01 5.669748783111572266e+00 1.895246744155883789e+00 -5.335791110992431641e-01
5.501000000000000000e+03 6.362570571899414062e+01 1.983434867858886719e+01 5.678443312644958496e-01 4.587632179260253906e+00 1.546642899513244629e+00 -8.210578560829162598e-01
5.502000000000000000e+03 7.462433624267578125e+01 -5.543709278106689453e+00 -3.907396197319030762e-01 7.534430980682373047e+00 2.143107414245605469e+00 1.098292112350463867e+00
5.503000000000000000e+03 7.506080627441406250e+01 -7.250967979431152344e+00 -4.027410224080085754e-02 8.424394607543945312e+00 2.515236139297485352e+00 1.544249176979064941e+00
5.504000000000000000e+03 5.777482604980468750e+01 1.656860542297363281e+01 9.513440132141113281e-01 3.395421504974365234e+00 1.304029583930969238e+00 1.804589986801147461e+00
5.505000000000000000e+03 7.478612518310546875e+01 -2.435861587524414062e+01 -4.581048712134361267e-02 6.596866130828857422e+00 1.965316772460937500e+00 4.463074207305908203e-01
5.506000000000000000e+03 4.047217559814453125e+01 1.919742584228515625e+01 -8.243315815925598145e-01 4.926503181457519531e+00 1.230651497840881348e+00 9.563275575637817383e-01
5.507000000000000000e+03 4.121645355224609375e+01 1.897888565063476562e+01 -5.558018684387207031e-01 4.718201637268066406e+00 1.248719930648803711e+00 1.221287369728088379e+00
5.508000000000000000e+03 1.941973876953125000e+01 -1.255961704254150391e+01 9.225316047668457031e-01 8.450616598129272461e-01 5.302779674530029297e-01 8.132278323173522949e-01
5.509000000000000000e+03 6.459592342376708984e+00 1.136877822875976562e+01 -5.717455744743347168e-01 1.489103794097900391e+00 2.752074599266052246e-01 -1.192376971244812012e+00
5.510000000000000000e+03 1.906092262268066406e+01 2.255813980102539062e+01 -3.885556161403656006e-01 4.616732895374298096e-01 2.193530462682247162e-02 -4.541768729686737061e-01
5.511000000000000000e+03 1.233549880981445312e+01 -8.025011062622070312e+00 -1.797322481870651245e-01 2.205017060041427612e-01 1.223083771765232086e-02 -1.530219912528991699e-01
5.512000000000000000e+03 4.537265777587890625e+01 -2.124164962768554688e+01 -8.496437221765518188e-02 4.646205902099609375e+00 1.368372440338134766e+00 -1.395807743072509766e+00
5.513000000000000000e+03 4.530883789062500000e+01 -2.038305664062500000e+01 -1.240963265299797058e-01 4.800007820129394531e+00 1.402773380279541016e+00 -1.488107919692993164e+00
5.514000000000000000e+03 1.444446849822998047e+01 1.881801795959472656e+01 -9.582147002220153809e-01 1.936275362968444824e-01 -2.293761372566223145e-01 -4.809916391968727112e-02
5.515000000000000000e+03 6.036233901977539062e+01 1.920219421386718750e+01 1.062413454055786133e+00 3.339496850967407227e+00 1.320573091506958008e+00 4.065933525562286377e-01
5.516000000000000000e+03 5.930590438842773438e+01 1.788311004638671875e+01 1.066517353057861328e+00 2.919681310653686523e+00 1.195859551429748535e+00 9.886891245841979980e-01
5.517000000000000000e+03 7.450679779052734375e+01 -2.586914825439453125e+01 4.950489476323127747e-02 6.398196220397949219e+00 1.934310317039489746e+00 3.985744416713714600e-01
5.518000000000000000e+03 6.128035354614257812e+01 -1.685213088989257812e+01 7.058717608451843262e-01 6.530806064605712891e+00 2.171003341674804688e+00 -7.675061225891113281e-01
5.519000000000000000e+03 7.447009277343750000e+01 1.594152736663818359e+01 7.299216985702514648e-01 6.071523189544677734e+00 2.040433406829833984e+00 -3.584615886211395264e-01
5.520000000000000000e+03 5.958769321441650391e+00 -1.207602596282958984e+01 3.012124262750148773e-02 -6.337999552488327026e-02 -9.977624751627445221e-03 -1.833447068929672241e-01
5.521000000000000000e+03 5.456494808197021484e+00 1.637385940551757812e+01 -4.877175092697143555e-01 1.271307587623596191e+00 2.350770086050033569e-01 -3.805061578750610352e-01
5.522000000000000000e+03 3.778736877441406250e+01 -2.026578712463378906e+01 6.722079515457153320e-01 3.429395914077758789e+00 1.230481147766113281e+00 3.441378772258758545e-01
5.523000000000000000e+03 1.440916728973388672e+01 1.942591094970703125e+01 -8.409830331802368164e-01 2.578529715538024902e-01 -1.749390214681625366e-01 9.765953756868839264e-03
5.524000000000000000e+03 7.393794250488281250e+01 -2.019957542419433594e+01 -5.705783367156982422e-01 7.256575584411621094e+00 2.005799293518066406e+00 7.645053863525390625e-01
5.525000000000000000e+03 5.225994586944580078e+00 1.136752319335937500e+01 -3.618158698081970215e-01 1.209945559501647949e+00 2.544388771057128906e-01 -1.166959166526794434e+00
5.526000000000000000e+03 5.344257831573486328e+00 1.259513854980468750e+01 -5.304456353187561035e-01 1.296574831008911133e+00 2.298387438058853149e-01 -9.601958394050598145e-01
5.527000000000000000e+03 4.937604427337646484e+00 6.551020145416259766e+00 1.352291822433471680e+00 -2.716404572129249573e-02 3.975383341312408447e-01 -8.609538078308105469e-01
5.528000000000000000e+03 6.168710708618164062e+00 -2.227659416198730469e+01 6.157034263014793396e-02 5.089509766548871994e-03 1.999795436859130859e-02 3.643536567687988281e-02
5.529000000000000000e+03 5.513265132904052734e+00 1.342870044708251953e+01 -5.685448050498962402e-01 1.320447683334350586e+00 2.255708724260330200e-01 -8.303602933883666992e-01
5.530000000000000000e+03 7.223939514160156250e+01 2.078586769104003906e+01 9.938015043735504150e-02 6.543542385101318359e+00 1.992876768112182617e+00 4.627946764230728149e-02
5.531000000000000000e+03 5.814282608032226562e+01 1.870192146301269531e+01 8.565091490745544434e-01 3.861725091934204102e+00 1.415470242500305176e+00 1.353095173835754395e+00
5.532000000000000000e+03 5.775199508666992188e+01 1.732894134521484375e+01 8.385404944419860840e-01 3.667282581329345703e+00 1.351746916770935059e+00 1.710134983062744141e+00
5.533000000000000000e+03 5.998339462280273438e+01 -2.143570899963378906e+01 -1.347143948078155518e-02 6.823420047760009766e+00 2.042984485626220703e+00 -9.850577712059020996e-01
5.534000000000000000e+03 6.635614871978759766e+00 -1.122118377685546875e+01 1.734571903944015503e-02 -1.702842488884925842e-02 9.518850129097700119e-05 -1.965169310569763184e-01
5.535000000000000000e+03 5.529920578002929688e+00 1.448941230773925781e+01 -5.525209307670593262e-01 1.307196140289306641e+00 2.264025807380676270e-01 -6.503245830535888672e-01
5.536000000000000000e+03 1.716976547241210938e+01 -1.253442668914794922e+01 5.472660660743713379e-01 5.331570506095886230e-01 3.241269290447235107e-01 2.411548644304275513e-01
5.537000000000000000e+03 4.676481723785400391e+00 1.104773521423339844e+01 -2.522023916244506836e-01 1.076411724090576172e+00 2.472627907991409302e-01 -1.168646335601806641e+00
5.538000000000000000e+03 1.085832214355468750e+01 1.518697357177734375e+01 -1.196975111961364746e+00 8.210536837577819824e-01 -1.127764061093330383e-01 -2.347069829702377319e-01
5.539000000000000000e+03 1.513860511779785156e+01 -1.116190242767333984e+01 1.906713545322418213e-01 3.396370112895965576e-01 1.590925008058547974e-01 -7.948293536901473999e-02
5.540000000000000000e+03 1.525456619262695312e+01 -1.029041671752929688e+01 4.317299276590347290e-02 3.176324069499969482e-01 1.082416176795959473e-01 -1.085786521434783936e-01
5.541000000000000000e+03 2.067535018920898438e+01 -1.527256679534912109e+01 6.011410355567932129e-01 2.108277559280395508e+00 8.128255605697631836e-01 1.173567771911621094e+00
5.542000000000000000e+03 6.725978088378906250e+01 -2.214421463012695312e+01 8.785511255264282227e-01 4.206614494323730469e+00 1.525549650192260742e+00 -5.585733801126480103e-02
5.543000000000000000e+03 6.260794067382812500e+01 -1.570013046264648438e+01 7.477183640003204346e-02 5.756813049316406250e+00 1.749475479125976562e+00 -6.608108878135681152e-01
5.544000000000000000e+03 3.152691650390625000e+01 1.994821929931640625e+01 3.993656113743782043e-02 1.845946431159973145e+00 5.657649040222167969e-01 3.212316930294036865e-01
5.545000000000000000e+03 3.047544288635253906e+01 2.046615409851074219e+01 -2.093886435031890869e-01 2.288739442825317383e+00 6.238052845001220703e-01 6.664688587188720703e-01
5.546000000000000000e+03 6.586822509765625000e+01 -2.099748992919921875e+01 8.338780403137207031e-01 3.995177268981933594e+00 1.448716521263122559e+00 -6.076793670654296875e-01
5.547000000000000000e+03 6.525222015380859375e+01 -2.161506271362304688e+01 7.708216309547424316e-01 4.396075725555419922e+00 1.550069212913513184e+00 -7.829291820526123047e-01
5.548000000000000000e+03 6.898802947998046875e+01 -2.210925865173339844e+01 7.199069261550903320e-01 4.439766407012939453e+00 1.547901988029479980e+00 5.930978059768676758e-01
5.549000000000000000e+03 4.827182769775390625e+01 2.076129913330078125e+01 1.693410128355026245e-01 4.623184204101562500e+00 1.437757492065429688e+00 -3.780556619167327881e-01
5.550000000000000000e+03 7.294732666015625000e+01 -2.726440429687500000e+01 2.019441127777099609e-01 6.079346656799316406e+00 1.884387254714965820e+00 3.568602204322814941e-01
5.551000000000000000e+03 4.886417388916015625e+01 -2.233120346069335938e+01 4.923431575298309326e-01 3.045687198638916016e+00 1.061409115791320801e+00 -1.009172916412353516e+00
5.552000000000000000e+03 3.830913162231445312e+01 2.065291023254394531e+01 -9.630036354064941406e-01 4.578474998474121094e+00 1.084641456604003906e+00 -3.656058385968208313e-02
5.553000000000000000e+03 4.628177261352539062e+01 -2.277095031738281250e+01 8.316013216972351074e-02 4.123414516448974609e+00 1.261972427368164062e+00 -1.171105384826660156e+00
5.554000000000000000e+03 5.354115676879882812e+01 2.128279113769531250e+01 -2.523711621761322021e-01 5.895390033721923828e+00 1.692905664443969727e+00 7.758619189262390137e-01
5.555000000000000000e+03 5.004014205932617188e+01 2.136826133728027344e+01 -2.129811495542526245e-01 5.508888244628906250e+00 1.588772177696228027e+00 -2.098029404878616333e-01
5.556000000000000000e+03 6.053184509277343750e+01 -2.285968589782714844e+01 -2.892161719501018524e-02 6.258866786956787109e+00 1.868983626365661621e+00 -8.211218118667602539e-01
5.557000000000000000e+03 5.939638900756835938e+01 -2.435335159301757812e+01 -1.784151792526245117e-01 6.112769126892089844e+00 1.780306220054626465e+00 -2.785608172416687012e-01
5.558000000000000000e+03 5.866067123413085938e+01 -2.373748397827148438e+01 -3.186128139495849609e-01 6.463678836822509766e+00 1.843519806861877441e+00 -6.016931310296058655e-02
5.559000000000000000e+03 5.142573547363281250e+01 2.021044921875000000e+01 -4.897452592849731445e-01 6.363412857055664062e+00 1.762100219726562500e+00 1.356708854436874390e-01
5.560000000000000000e+03 7.039871978759765625e+01 -2.775673866271972656e+01 3.402234613895416260e-01 5.660814762115478516e+00 1.800311446189880371e+00 2.516855895519256592e-01
5.561000000000000000e+03 6.905158233642578125e+01 -2.805243492126464844e+01 3.829286694526672363e-01 5.500000000000000000e+00 1.764878630638122559e+00 1.307756900787353516e-01
5.562000000000000000e+03 6.929537963867187500e+01 2.195373725891113281e+01 -3.655356168746948242e-02 6.398872375488281250e+00 1.908695578575134277e+00 -1.537963598966598511e-01
5.563000000000000000e+03 2.679378509521484375e+01 2.399047088623046875e+01 -7.870661020278930664e-01 2.687962055206298828e+00 5.702688097953796387e-01 -3.081542551517486572e-01
5.564000000000000000e+03 9.202477455139160156e+00 2.639804840087890625e+01 -3.410701453685760498e-02 8.915765285491943359e-01 2.572408318519592285e-01 2.214785218238830566e-01
5.565000000000000000e+03 4.078960418701171875e+01 -2.306403350830078125e+01 -2.608104944229125977e-01 4.865926265716552734e+00 1.381534695625305176e+00 -6.395512819290161133e-02
5.566000000000000000e+03 5.177473449707031250e+01 2.294536590576171875e+01 -2.814469337463378906e-01 5.541651248931884766e+00 1.578061342239379883e+00 2.750907540321350098e-01
5.567000000000000000e+03 4.819026184082031250e+01 2.328578186035156250e+01 -4.729191213846206665e-02 4.746390819549560547e+00 1.409729599952697754e+00 -4.614674299955368042e-02
5.568000000000000000e+03 9.465063095092773438e+00 1.607020378112792969e+01 -9.881905317306518555e-01 9.954053163528442383e-01 2.164443256333470345e-03 -2.327390909194946289e-01
5.569000000000000000e+03 7.087713623046875000e+01 1.651566123962402344e+01 6.697907447814941406e-01 6.494417190551757812e+00 2.149262428283691406e+00 5.945630669593811035e-01
5.570000000000000000e+03 6.884439849853515625e+01 -2.326595306396484375e+01 6.682910919189453125e-01 4.755697250366210938e+00 1.627196431159973145e+00 3.986651301383972168e-01
5.571000000000000000e+03 6.977975463867187500e+01 -2.250203704833984375e+01 5.557319521903991699e-01 4.839572906494140625e+00 1.618591427803039551e+00 6.936053037643432617e-01
5.572000000000000000e+03 6.630530548095703125e+01 -2.324863052368164062e+01 7.674798965454101562e-01 4.553100585937500000e+00 1.596174120903015137e+00 -3.146463632583618164e-01
5.573000000000000000e+03 2.174578285217285156e+01 -1.624455642700195312e+01 2.970559895038604736e-01 2.786157608032226562e+00 9.249641299247741699e-01 1.202201724052429199e+00
5.574000000000000000e+03 7.337342071533203125e+01 -2.500169181823730469e+01 1.081816107034683228e-01 6.207321166992187500e+00 1.894650816917419434e+00 5.277799963951110840e-01
5.575000000000000000e+03 7.216904449462890625e+01 1.975956726074218750e+01 1.976453959941864014e-01 6.541883945465087891e+00 2.021858692169189453e+00 1.130156740546226501e-01
5.576000000000000000e+03 2.787852478027343750e+01 2.159906959533691406e+01 -9.777289628982543945e-01 3.183861732482910156e+00 6.618398427963256836e-01 2.587144076824188232e-01
5.577000000000000000e+03 4.221355438232421875e+01 1.962396049499511719e+01 -2.057718187570571899e-01 4.218167781829833984e+00 1.203718900680541992e+00 1.084125638008117676e+00
5.578000000000000000e+03 6.021769332885742188e+01 1.855546951293945312e+01 1.115929722785949707e+00 3.124476909637451172e+00 1.272122025489807129e+00 4.820875823497772217e-01
5.579000000000000000e+03 7.326122283935546875e+01 2.135002899169921875e+01 9.305903315544128418e-02 6.555807113647460938e+00 1.994659781455993652e+00 3.263562172651290894e-02
5.580000000000000000e+03 7.338728332519531250e+01 -2.153543663024902344e+01 -2.930573523044586182e-01 6.661462783813476562e+00 1.910521626472473145e+00 8.713971376419067383e-01
5.581000000000000000e+03 6.931385803222656250e+01 2.015198135375976562e+01 -6.900308281183242798e-02 6.621967315673828125e+00 1.965889334678649902e+00 -1.065933927893638611e-01
5.582000000000000000e+03 6.780098724365234375e+01 2.024999809265136719e+01 -1.272165477275848389e-01 6.516997814178466797e+00 1.916934370994567871e+00 -3.709262311458587646e-01
5.583000000000000000e+03 7.169453430175781250e+01 1.568807983398437500e+01 1.057361483573913574e+00 5.983283996582031250e+00 2.112193584442138672e+00 4.716467559337615967e-01
5.584000000000000000e+03 7.171293640136718750e+01 1.490331840515136719e+01 1.389459729194641113e+00 5.635646343231201172e+00 2.107531785964965820e+00 4.748392999172210693e-01
5.585000000000000000e+03 1.353635025024414062e+01 2.014702606201171875e+01 -6.836473941802978516e-01 4.157094657421112061e-01 -8.038138598203659058e-02 7.077188044786453247e-02
5.586000000000000000e+03 1.262552452087402344e+01 2.000850105285644531e+01 -6.802983283996582031e-01 4.799637198448181152e-01 -6.010037288069725037e-02 6.222594529390335083e-02
5.587000000000000000e+03 5.441089630126953125e+00 -2.358152008056640625e+01 4.124039039015769958e-02 -5.851621553301811218e-02 -5.182747263461351395e-03 4.144546017050743103e-02
5.588000000000000000e+03 1.724454307556152344e+01 -1.391344547271728516e+01 6.326432824134826660e-01 7.568502426147460938e-01 4.168480634689331055e-01 4.211457967758178711e-01
5.589000000000000000e+03 1.065301227569580078e+01 1.696205902099609375e+01 -9.981372356414794922e-01 7.645862698554992676e-01 -7.006528973579406738e-02 -1.070881485939025879e-01
5.590000000000000000e+03 1.106350326538085938e+01 1.625824737548828125e+01 -1.106077194213867188e+00 7.427926659584045410e-01 -1.089853569865226746e-01 -1.397698670625686646e-01
5.591000000000000000e+03 3.123562049865722656e+01 2.081597518920898438e+01 -1.083050668239593506e-01 2.206074476242065430e+00 6.293308138847351074e-01 2.536211311817169189e-01
5.592000000000000000e+03 2.736610794067382812e+01 -1.606565284729003906e+01 -6.329323649406433105e-01 5.269406795501708984e+00 1.390942335128784180e+00 -2.976223826408386230e-01
5.593000000000000000e+03 2.893022155761718750e+01 -1.504333686828613281e+01 -4.810073375701904297e-01 5.218779087066650391e+00 1.421331524848937988e+00 -1.158777117729187012e+00
5.594000000000000000e+03 6.376828384399414062e+01 -2.142506599426269531e+01 5.539117455482482910e-01 5.011351108551025391e+00 1.669578909873962402e+00 -1.036709070205688477e+00
5.595000000000000000e+03 5.270179271697998047e+00 1.039654159545898438e+01 -1.476435512304306030e-01 1.122006177902221680e+00 2.923088073730468750e-01 -1.310747623443603516e+00
5.596000000000000000e+03 1.089151191711425781e+01 -7.795232772827148438e+00 -1.427302211523056030e-01 1.716977059841156006e-01 8.690244518220424652e-03 -1.627563536167144775e-01
5.597000000000000000e+03 2.559408760070800781e+01 -1.649558258056640625e+01 -5.833548903465270996e-01 4.849645137786865234e+00 1.279887080192565918e+00 4.660690724849700928e-01
5.598000000000000000e+03 2.646821212768554688e+01 -1.622083473205566406e+01 -6.941518783569335938e-01 5.123893260955810547e+00 1.328922390937805176e+00 5.054506286978721619e-02
5.599000000000000000e+03 2.348833847045898438e+01 -1.679554557800292969e+01 -1.347849667072296143e-01 3.767639875411987305e+00 1.089856505393981934e+00 1.026251912117004395e+00
5.600000000000000000e+03 6.640445709228515625e+00 -7.752907276153564453e+00 -5.863556638360023499e-02 4.140299744904041290e-03 -1.634857989847660065e-02 -1.795443594455718994e-01
5.601000000000000000e+03 1.722736930847167969e+01 -1.525684833526611328e+01 5.903000831604003906e-01 9.761205911636352539e-01 4.699262082576751709e-01 5.206007957458496094e-01
5.602000000000000000e+03 1.665677452087402344e+01 2.111114883422851562e+01 -5.462063550949096680e-01 1.793133914470672607e-01 -1.100678890943527222e-01 -1.489747762680053711e-01
5.603000000000000000e+03 5.990115642547607422e+00 1.672810554504394531e+01 -5.305895209312438965e-01 1.263991355895996094e+00 2.200205326080322266e-01 -3.256594240665435791e-01
5.604000000000000000e+03 1.537222671508789062e+01 2.142805671691894531e+01 -5.081260204315185547e-01 2.717993259429931641e-01 -7.089801132678985596e-02 -3.019814006984233856e-02
5.605000000000000000e+03 1.442874431610107422e+01 2.113078117370605469e+01 -5.596275925636291504e-01 3.583582937717437744e-01 -6.038079038262367249e-02 4.085117578506469727e-02
5.606000000000000000e+03 1.272997951507568359e+01 -1.047740554809570312e+01 2.270686067640781403e-02 2.698079347610473633e-01 8.775444328784942627e-02 -1.639209091663360596e-01
5.607000000000000000e+03 1.275571918487548828e+01 -9.710783958435058594e+00 -1.463913638144731522e-02 2.462347745895385742e-01 6.947869062423706055e-02 -1.654462665319442749e-01
5.608000000000000000e+03 6.187920093536376953e+00 1.502909183502197266e+01 -6.527481675148010254e-01 1.294103145599365234e+00 1.924064904451370239e-01 -5.496093034744262695e-01
5.609000000000000000e+03 6.543862342834472656e+00 1.310597610473632812e+01 -7.461245656013488770e-01 1.402784705162048340e+00 1.969980448484420776e-01 -8.487111330032348633e-01
5.610000000000000000e+03 6.215934753417968750e+01 2.033178901672363281e+01 8.412083387374877930e-01 4.061146736145019531e+00 1.470706462860107422e+00 -3.314539492130279541e-01
5.611000000000000000e+03 5.846941375732421875e+01 1.817853164672851562e+01 9.598877429962158203e-01 3.466354131698608398e+00 1.327872514724731445e+00 1.355283498764038086e+00
5.612000000000000000e+03 5.573956966400146484e+00 1.809470748901367188e+01 -3.851000368595123291e-01 1.248385667800903320e+00 2.589856684207916260e-01 -1.839018762111663818e-01
5.613000000000000000e+03 7.383929443359375000e+01 -2.265448570251464844e+01 -1.620610356330871582e-01 6.577201366424560547e+00 1.924542069435119629e+00 6.843795180320739746e-01
5.614000000000000000e+03 7.395333099365234375e+01 1.662738037109375000e+01 7.111798524856567383e-01 6.117545604705810547e+00 2.048617601394653320e+00 -1.458713710308074951e-01
5.615000000000000000e+03 7.327055358886718750e+01 1.560340595245361328e+01 9.927220940589904785e-01 5.805766582489013672e+00 2.039546728134155273e+00 -1.177529767155647278e-01
5.616000000000000000e+03 6.444977760314941406e+00 -9.492238998413085938e+00 -2.107126265764236450e-02 -1.511569786816835403e-02 -1.085608825087547302e-02 -1.945080012083053589e-01
5.617000000000000000e+03 6.118021774291992188e+01 -2.092543792724609375e+01 2.783263921737670898e-01 6.337444305419921875e+00 1.984731197357177734e+00 -1.216581225395202637e+00
5.618000000000000000e+03 6.869328498840332031e+00 -1.284403705596923828e+01 5.672912672162055969e-02 -1.039073150604963303e-02 1.390151865780353546e-02 -1.790145635604858398e-01
5.619000000000000000e+03 6.164820671081542969e+00 -1.368642330169677734e+01 5.867210775613784790e-02 -6.038122996687889099e-02 -5.127366166561841965e-04 -1.608860492706298828e-01
5.620000000000000000e+03 1.171083545684814453e+01 1.908414268493652344e+01 -7.761390209197998047e-01 5.892488956451416016e-01 -5.606704205274581909e-02 3.926187008619308472e-02
5.621000000000000000e+03 7.179611206054687500e+01 1.801079559326171875e+01 4.368558526039123535e-01 6.477218627929687500e+00 2.074222326278686523e+00 2.578215897083282471e-01
5.622000000000000000e+03 6.947905063629150391e+00 2.227569007873535156e+01 -2.173717319965362549e-01 1.072025299072265625e+00 2.563960552215576172e-01 1.447130441665649414e-01
5.623000000000000000e+03 7.448681640625000000e+01 -2.303812789916992188e+01 -1.291341334581375122e-01 6.703358650207519531e+00 1.972267389297485352e+00 5.446807742118835449e-01
5.624000000000000000e+03 7.338632202148437500e+01 -2.419460105895996094e+01 4.498509690165519714e-02 6.240069866180419922e+00 1.885516524314880371e+00 5.948062539100646973e-01
5.625000000000000000e+03 6.759870052337646484e+00 2.343703079223632812e+01 -1.474624127149581909e-01 1.075148224830627441e+00 2.783057689666748047e-01 1.837483495473861694e-01
5.626000000000000000e+03 2.904166412353515625e+01 -1.948025512695312500e+01 -4.168627560138702393e-01 4.024331569671630859e+00 1.082240581512451172e+00 -5.604356527328491211e-01
5.627000000000000000e+03 4.520000839233398438e+01 2.047322654724121094e+01 3.414905071258544922e-01 3.768389463424682617e+00 1.232964038848876953e+00 4.055801331996917725e-01
5.628000000000000000e+03 4.708269119262695312e+01 -2.100784111022949219e+01 1.666358113288879395e-01 3.727457284927368164e+00 1.168227910995483398e+00 -1.457094788551330566e+00
5.629000000000000000e+03 4.706015014648437500e+01 -2.010265922546386719e+01 1.461308896541595459e-01 3.657421112060546875e+00 1.141065597534179688e+00 -1.540385127067565918e+00
5.630000000000000000e+03 6.387449741363525391e+00 -1.891319274902343750e+01 9.282378852367401123e-02 -1.785440742969512939e-02 2.249081432819366455e-02 -3.175080567598342896e-02
5.631000000000000000e+03 2.980686187744140625e+01 -1.624272537231445312e+01 -3.271399438381195068e-01 4.542716503143310547e+00 1.264672994613647461e+00 -1.181210756301879883e+00
5.632000000000000000e+03 3.043575286865234375e+01 -1.617296981811523438e+01 -3.002556562423706055e-01 4.323392391204833984e+00 1.206941127777099609e+00 -1.303528189659118652e+00
5.633000000000000000e+03 7.081026458740234375e+01 -2.259913063049316406e+01 3.887141942977905273e-01 5.332781314849853516e+00 1.716448664665222168e+00 8.904443383216857910e-01
5.634000000000000000e+03 9.108820915222167969e+00 -8.076670646667480469e+00 -8.072941005229949951e-02 1.034101620316505432e-01 6.804226431995630264e-03 -1.795842349529266357e-01
5.635000000000000000e+03 7.540093231201171875e+01 -5.397507667541503906e+00 -2.150860726833343506e-01 7.934010505676269531e+00 2.315677165985107422e+00 1.417485713958740234e+00
5.636000000000000000e+03 7.030366516113281250e+01 2.095023345947265625e+01 -1.022466458380222321e-02 6.527368545532226562e+00 1.955143094062805176e+00 -4.511239007115364075e-02
5.637000000000000000e+03 3.689844131469726562e+01 -2.035444641113281250e+01 6.177774071693420410e-01 3.174063682556152344e+00 1.137552380561828613e+00 1.285282224416732788e-01
5.638000000000000000e+03 6.947984313964843750e+01 -2.341940689086914062e+01 5.538618564605712891e-01 4.968965530395507812e+00 1.656848192214965820e+00 4.989073872566223145e-01
5.639000000000000000e+03 5.055289459228515625e+01 1.927967071533203125e+01 -4.363884329795837402e-01 6.519930839538574219e+00 1.825062751770019531e+00 -4.461858570575714111e-01
5.640000000000000000e+03 6.233453750610351562e+01 -2.038166236877441406e+01 4.691731631755828857e-01 5.759574413299560547e+00 1.868624210357666016e+00 -1.279401898384094238e+00
5.641000000000000000e+03 1.129680633544921875e+01 1.732233619689941406e+01 -9.961019158363342285e-01 6.780507564544677734e-01 -9.541534632444381714e-02 -5.409376323223114014e-02
5.642000000000000000e+03 6.432200622558593750e+01 2.040823554992675781e+01 3.774406015872955322e-01 5.125748634338378906e+00 1.650956749916076660e+00 -7.837572097778320312e-01
5.643000000000000000e+03 1.819182586669921875e+01 2.252206611633300781e+01 -3.532039821147918701e-01 3.586088716983795166e-01 1.621464500203728676e-03 -3.419140577316284180e-01
5.644000000000000000e+03 1.723377227783203125e+01 2.316460227966308594e+01 -2.891249060630798340e-01 3.866675198078155518e-01 2.926279045641422272e-02 -2.051986753940582275e-01
5.645000000000000000e+03 3.825490188598632812e+01 -2.344167900085449219e+01 5.745791271328926086e-02 4.142751693725585938e+00 1.260062813758850098e+00 8.766326308250427246e-02
5.646000000000000000e+03 3.675239562988281250e+01 -2.216811752319335938e+01 3.292350471019744873e-01 3.660044193267822266e+00 1.196783781051635742e+00 6.560070067644119263e-02
5.647000000000000000e+03 5.512121582031250000e+01 2.103169822692871094e+01 4.271679744124412537e-02 5.498087406158447266e+00 1.662241220474243164e+00 1.110405802726745605e+00
5.648000000000000000e+03 5.782427978515625000e+01 2.053983688354492188e+01 5.972845554351806641e-01 4.458895683288574219e+00 1.516854047775268555e+00 1.114425182342529297e+00
5.649000000000000000e+03 5.547304534912109375e+01 2.323233413696289062e+01 5.346969142556190491e-02 5.243453025817871094e+00 1.589076757431030273e+00 7.615131139755249023e-01
5.650000000000000000e+03 4.094906997680664062e+01 2.111030006408691406e+01 -5.089011192321777344e-01 4.382511138916015625e+00 1.162083029747009277e+00 5.917319059371948242e-01
5.651000000000000000e+03 4.279904556274414062e+01 -2.233735084533691406e+01 -3.612667024135589600e-01 5.241832256317138672e+00 1.464169621467590332e+00 -6.326517462730407715e-01
5.652000000000000000e+03 9.627225875854492188e+00 -2.466160774230957031e+01 7.766209542751312256e-02 5.009416341781616211e-01 1.735811233520507812e-01 1.321831941604614258e-01
5.653000000000000000e+03 2.212362480163574219e+01 2.467678260803222656e+01 -3.969143629074096680e-01 1.390325546264648438e+00 2.980233430862426758e-01 -6.811369061470031738e-01
5.654000000000000000e+03 3.713959884643554688e+01 2.134274291992187500e+01 -7.597515583038330078e-01 4.015398979187011719e+00 9.766942262649536133e-01 -3.404927849769592285e-01
5.655000000000000000e+03 4.437084579467773438e+01 2.321593856811523438e+01 -2.901630103588104248e-02 4.160576343536376953e+00 1.239467978477478027e+00 2.457522302865982056e-01
5.656000000000000000e+03 6.591373443603515625e+01 2.549154090881347656e+01 1.571975350379943848e-01 5.677169322967529297e+00 1.750310063362121582e+00 -1.801548153162002563e-01
5.657000000000000000e+03 8.208039283752441406e+00 -2.286186218261718750e+01 9.503126889467239380e-02 2.458874583244323730e-01 1.022756174206733704e-01 7.867747545242309570e-02
5.658000000000000000e+03 4.477003097534179688e+01 -2.318515396118164062e+01 -1.286211311817169189e-01 4.590020656585693359e+00 1.338419914245605469e+00 -1.002660870552062988e+00
5.659000000000000000e+03 4.752112960815429688e+01 -2.570637512207031250e+01 2.755130231380462646e-01 3.912635803222656250e+00 1.256444573402404785e+00 -6.905436515808105469e-01
5.660000000000000000e+03 3.671624755859375000e+01 2.361751174926757812e+01 -4.937319457530975342e-01 3.626596212387084961e+00 9.398592710494995117e-01 -2.334128916263580322e-01
5.661000000000000000e+03 1.861342430114746094e+01 2.466031074523925781e+01 -1.709505170583724976e-01 7.297294735908508301e-01 1.676336824893951416e-01 -3.274444043636322021e-01
5.662000000000000000e+03 1.157872200012207031e+01 -7.920748710632324219e+00 -1.484264731407165527e-01 1.938952505588531494e-01 1.364063750952482224e-02 -1.476995050907135010e-01
5.663000000000000000e+03 9.866352081298828125e+00 1.544167423248291016e+01 -1.079095602035522461e+00 9.958497881889343262e-01 -2.497372962534427643e-02 -2.547108232975006104e-01
5.664000000000000000e+03 9.269574165344238281e+00 1.505022239685058594e+01 -1.061537027359008789e+00 1.097513794898986816e+00 1.079300977289676666e-02 -3.624373972415924072e-01
5.665000000000000000e+03 7.263059997558593750e+01 -2.411559486389160156e+01 1.524781584739685059e-01 6.040430545806884766e+00 1.857872605323791504e+00 6.471792459487915039e-01
5.666000000000000000e+03 7.053211975097656250e+01 -2.345462226867675781e+01 4.028589129447937012e-01 5.304472923278808594e+00 1.712199568748474121e+00 6.637620925903320312e-01
5.667000000000000000e+03 6.269989776611328125e+01 2.186276817321777344e+01 6.294205784797668457e-01 4.626297473907470703e+00 1.576715469360351562e+00 -2.501356005668640137e-01
5.668000000000000000e+03 1.069278717041015625e+01 1.889146232604980469e+01 -7.398420572280883789e-01 7.597016096115112305e-01 5.957860499620437622e-03 4.576338082551956177e-02
5.669000000000000000e+03 7.170359802246093750e+01 1.722422599792480469e+01 5.929154753684997559e-01 6.375091075897216797e+00 2.090401887893676758e+00 3.483629226684570312e-01
5.670000000000000000e+03 7.245700073242187500e+01 1.639498519897460938e+01 8.648437261581420898e-01 6.053170204162597656e+00 2.075404167175292969e+00 2.141009420156478882e-01
5.671000000000000000e+03 7.565444946289062500e+00 2.395730972290039062e+01 -1.432049125432968140e-01 9.954581856727600098e-01 2.556759715080261230e-01 2.055842876434326172e-01
5.672000000000000000e+03 8.494705200195312500e+00 2.417500305175781250e+01 -1.447272598743438721e-01 9.267699122428894043e-01 2.346127927303314209e-01 2.124589085578918457e-01
5.673000000000000000e+03 1.781049537658691406e+01 -1.573212623596191406e+01 5.598958730697631836e-01 1.172373056411743164e+00 5.196806788444519043e-01 5.823598504066467285e-01
5.674000000000000000e+03 1.892648124694824219e+01 -1.559255599975585938e+01 5.727697610855102539e-01 1.468066692352294922e+00 6.122509837150573730e-01 7.891889214515686035e-01
5.675000000000000000e+03 5.420245170593261719e+00 1.198608207702636719e+01 -4.621585309505462646e-01 1.320647954940795898e+00 2.575468420982360840e-01 -1.096817612648010254e+00
5.676000000000000000e+03 6.860337734222412109e+00 1.552536869049072266e+01 -7.217612266540527344e-01 1.285272955894470215e+00 1.690535247325897217e-01 -4.477912485599517822e-01
5.677000000000000000e+03 9.921841621398925781e+00 -8.271245956420898438e+00 -9.891617298126220703e-02 1.389937400817871094e-01 1.202327106148004532e-02 -1.835682690143585205e-01
5.678000000000000000e+03 6.502837181091308594e+00 1.718613624572753906e+01 -5.726115107536315918e-01 1.209813475608825684e+00 1.911605745553970337e-01 -2.612837255001068115e-01
5.679000000000000000e+03 1.172774028778076172e+01 1.992055702209472656e+01 -6.528447270393371582e-01 6.133264899253845215e-01 -1.185547374188899994e-02 9.800229221582412720e-02
5.680000000000000000e+03 7.144321441650390625e+01 -2.277538108825683594e+01 2.313373982906341553e-01 5.592936515808105469e+00 1.747282147407531738e+00 8.577718138694763184e-01
5.681000000000000000e+03 7.310349273681640625e+01 -2.234384536743164062e+01 -7.909968495368957520e-02 6.386160850524902344e+00 1.892118453979492188e+00 8.388845920562744141e-01
5.682000000000000000e+03 7.287848949432373047e+00 2.078489875793457031e+01 -3.551144599914550781e-01 1.062786817550659180e+00 2.123017311096191406e-01 7.865963876247406006e-02
5.683000000000000000e+03 6.744380474090576172e+00 -1.203861141204833984e+01 4.211289063096046448e-02 -1.817453280091285706e-02 7.181507069617509842e-03 -1.844591647386550903e-01
5.684000000000000000e+03 7.003372192382812500e+01 -2.301401710510253906e+01 5.463054180145263672e-01 5.081840038299560547e+00 1.688443660736083984e+00 6.808871030807495117e-01
5.685000000000000000e+03 7.002779960632324219e+00 -1.365310955047607422e+01 8.061902225017547607e-02 -5.767309572547674179e-03 2.245551347732543945e-02 -1.588101387023925781e-01
5.686000000000000000e+03 1.658876228332519531e+01 -1.335725402832031250e+01 5.505000352859497070e-01 5.921419858932495117e-01 3.427926003932952881e-01 2.209668159484863281e-01
5.687000000000000000e+03 5.668664932250976562e+01 1.964420890808105469e+01 4.474729001522064209e-01 4.811161994934082031e+00 1.577590465545654297e+00 1.477918505668640137e+00
5.688000000000000000e+03 5.640088272094726562e+01 1.858385848999023438e+01 5.198923945426940918e-01 4.926969051361083984e+00 1.634058356285095215e+00 1.764882087707519531e+00
5.689000000000000000e+03 1.734107589721679688e+01 2.146244812011718750e+01 -5.312258005142211914e-01 2.458224445581436157e-01 -8.562099933624267578e-02 -2.177394479513168335e-01
5.690000000000000000e+03 7.273918628692626953e+00 1.387889003753662109e+01 -8.780980706214904785e-01 1.359124779701232910e+00 1.443080157041549683e-01 -6.806101202964782715e-01
5.691000000000000000e+03 8.553030014038085938e+00 1.334055709838867188e+01 -1.050132036209106445e+00 1.404583215713500977e+00 1.063353791832923889e-01 -6.155144572257995605e-01
5.692000000000000000e+03 1.356612968444824219e+01 -1.271176433563232422e+01 2.483525872230529785e-01 3.658042848110198975e-01 1.842470616102218628e-01 -5.251117050647735596e-02
5.693000000000000000e+03 1.556700134277343750e+01 -1.398802661895751953e+01 5.012935996055603027e-01 5.779105424880981445e-01 3.237612545490264893e-01 1.850251555442810059e-01
5.694000000000000000e+03 7.179910182952880859e+00 1.328185081481933594e+01 -8.382915854454040527e-01 1.423928737640380859e+00 1.756911277770996094e-01 -7.700406908988952637e-01
5.695000000000000000e+03 8.191501617431640625e+00 -8.806696891784667969e+00 -4.605525359511375427e-02 6.664506345987319946e-02 6.176943425089120865e-03 -1.912605762481689453e-01
5.696000000000000000e+03 8.271437644958496094e+00 -7.953186035156250000e+00 -7.960902154445648193e-02 7.084671407938003540e-02 -2.628692425787448883e-03 -1.865349411964416504e-01
5.697000000000000000e+03 4.248812866210937500e+01 2.141931152343750000e+01 -1.995903700590133667e-01 4.144426345825195312e+00 1.183450818061828613e+00 6.100333333015441895e-01
5.698000000000000000e+03 6.785244464874267578e+00 1.888058090209960938e+01 -4.605645835399627686e-01 1.151513218879699707e+00 2.072845846414566040e-01 -7.452967762947082520e-02
5.699000000000000000e+03 6.644204616546630859e+00 1.952657508850097656e+01 -4.044580161571502686e-01 1.142876625061035156e+00 2.215255945920944214e-01 -2.626646123826503754e-02
5.700000000000000000e+03 2.822672080993652344e+01 -1.591866111755371094e+01 -6.389161944389343262e-01 5.186643600463867188e+00 1.364318251609802246e+00 -7.417550683021545410e-01
5.701000000000000000e+03 1.024058341979980469e+01 1.768828201293945312e+01 -8.738729357719421387e-01 8.470278978347778320e-01 -8.053516037762165070e-03 -4.561590030789375305e-02
5.702000000000000000e+03 9.590206146240234375e+00 1.719591140747070312e+01 -8.802521228790283203e-01 9.162878990173339844e-01 1.081073936074972153e-02 -1.185037121176719666e-01
5.703000000000000000e+03 6.739298820495605469e+00 1.436947536468505859e+01 -7.468370199203491211e-01 1.346334218978881836e+00 1.798491477966308594e-01 -6.321703195571899414e-01
5.704000000000000000e+03 1.584796428680419922e+01 -1.213566017150878906e+01 4.072037935256958008e-01 4.298765957355499268e-01 2.511241137981414795e-01 5.679677799344062805e-02
5.705000000000000000e+03 1.130147933959960938e+01 -9.437785148620605469e+00 -3.851954266428947449e-02 1.970286220312118530e-01 4.755272343754768372e-02 -1.819631904363632202e-01
5.706000000000000000e+03 2.478680038452148438e+01 -1.694727325439453125e+01 -4.291071891784667969e-01 4.360655307769775391e+00 1.179464459419250488e+00 6.544755101203918457e-01
5.707000000000000000e+03 5.697602462768554688e+01 2.065714454650878906e+01 4.635010957717895508e-01 4.783809185028076172e+00 1.574193000793457031e+00 1.171364903450012207e+00
5.708000000000000000e+03 5.575876235961914062e+01 2.012906455993652344e+01 1.985280662775039673e-01 5.337160110473632812e+00 1.660706400871276855e+00 1.374440789222717285e+00
5.709000000000000000e+03 6.829319000244140625e+01 -2.399681472778320312e+01 6.726585626602172852e-01 4.860018253326416016e+00 1.659803032875061035e+00 2.093868404626846313e-01
5.710000000000000000e+03 7.113056182861328125e+01 -2.602754974365234375e+01 3.371353745460510254e-01 5.692169666290283203e+00 1.808791518211364746e+00 3.991320729255676270e-01
5.711000000000000000e+03 8.578018188476562500e+00 2.572264862060546875e+01 -6.201066821813583374e-02 9.229014515876770020e-01 2.582672238349914551e-01 2.287312597036361694e-01
5.712000000000000000e+03 7.015653228759765625e+01 1.913662147521972656e+01 6.738388538360595703e-02 6.693272113800048828e+00 2.028196811676025391e+00 1.247485131025314331e-01
5.713000000000000000e+03 7.008568572998046875e+01 1.825641250610351562e+01 1.404243707656860352e-01 6.805302619934082031e+00 2.083718061447143555e+00 2.413648217916488647e-01
5.714000000000000000e+03 2.922705268859863281e+01 -1.647789955139160156e+01 -4.696419835090637207e-01 4.659459590911865234e+00 1.256945252418518066e+00 -9.967463016510009766e-01
5.715000000000000000e+03 2.789496803283691406e+01 -1.804364967346191406e+01 -5.344278812408447266e-01 4.491309642791748047e+00 1.187064528465270996e+00 -3.619067072868347168e-01
5.716000000000000000e+03 6.697395324707031250e+01 -2.663108444213867188e+01 4.775726497173309326e-01 5.211858272552490234e+00 1.706829190254211426e+00 -9.075447171926498413e-02
5.717000000000000000e+03 1.869917488098144531e+01 2.364487648010253906e+01 -2.380998283624649048e-01 5.540125966072082520e-01 9.477383643388748169e-02 -3.889127373695373535e-01
5.718000000000000000e+03 3.312484359741210938e+01 -2.072204399108886719e+01 2.163775712251663208e-01 3.288026094436645508e+00 1.051321148872375488e+00 -6.584254503250122070e-01
5.719000000000000000e+03 3.523512649536132812e+01 -2.310720634460449219e+01 2.170716226100921631e-01 3.555767774581909180e+00 1.131851792335510254e+00 -1.823237240314483643e-01
5.720000000000000000e+03 5.895550537109375000e+01 2.040409469604492188e+01 8.167596459388732910e-01 4.073648452758789062e+00 1.467122435569763184e+00 8.459888696670532227e-01
5.721000000000000000e+03 6.287157440185546875e+01 -2.498402404785156250e+01 2.610235214233398438e-01 5.489836215972900391e+00 1.725257873535156250e+00 -5.934401750564575195e-01
5.722000000000000000e+03 1.088252639770507812e+01 -2.370505905151367188e+01 1.083398461341857910e-01 6.306774020195007324e-01 2.217051684856414795e-01 1.634584516286849976e-01
5.723000000000000000e+03 3.218340682983398438e+01 2.104056358337402344e+01 -7.453178614377975464e-02 2.206896066665649414e+00 6.397092342376708984e-01 2.107819356024265289e-02
5.724000000000000000e+03 4.364827728271484375e+01 2.162731170654296875e+01 -1.448890566825866699e-02 4.012435913085937500e+00 1.199384093284606934e+00 4.986739754676818848e-01
5.725000000000000000e+03 6.384275436401367188e+01 2.476418495178222656e+01 3.028128743171691895e-01 5.285616874694824219e+00 1.676528930664062500e+00 -1.345617324113845825e-01
5.726000000000000000e+03 1.321161651611328125e+01 2.648707771301269531e+01 -1.186629198491573334e-02 6.994413733482360840e-01 2.062725126743316650e-01 1.087482050061225891e-01
5.727000000000000000e+03 6.573162078857421875e+01 2.110984802246093750e+01 1.422522217035293579e-01 5.702345848083496094e+00 1.753379464149475098e+00 -6.082011461257934570e-01
5.728000000000000000e+03 3.048371505737304688e+01 2.445795631408691406e+01 -4.197525978088378906e-01 2.722110509872436523e+00 6.907073855400085449e-01 -3.171672672033309937e-02
5.729000000000000000e+03 1.023165893554687500e+01 2.484333801269531250e+01 -1.256655454635620117e-01 8.048923611640930176e-01 2.037680447101593018e-01 2.061706483364105225e-01
5.730000000000000000e+03 1.058111286163330078e+01 2.396260452270507812e+01 -1.855415850877761841e-01 7.512299418449401855e-01 1.697065085172653198e-01 1.929795295000076294e-01
5.731000000000000000e+03 8.991359710693359375e+00 -2.255647850036621094e+01 1.129048466682434082e-01 3.564514815807342529e-01 1.408068984746932983e-01 9.976109862327575684e-02
5.732000000000000000e+03 3.977888870239257812e+01 2.308261680603027344e+01 -5.115459561347961426e-01 4.133180618286132812e+00 1.086490392684936523e+00 1.353119909763336182e-01
5.733000000000000000e+03 4.190922546386718750e+01 2.408528900146484375e+01 -2.898919880390167236e-01 4.127176284790039062e+00 1.151185274124145508e+00 1.968252956867218018e-01
5.734000000000000000e+03 8.717085838317871094e+00 2.334284973144531250e+01 -2.045335322618484497e-01 9.061338901519775391e-01 2.104801088571548462e-01 1.909941583871841431e-01
5.735000000000000000e+03 7.213531494140625000e+01 -2.297453689575195312e+01 1.421628445386886597e-01 5.927310943603515625e+00 1.820842146873474121e+00 8.191297650337219238e-01
5.736000000000000000e+03 7.121189880371093750e+01 -2.368412399291992188e+01 3.357656896114349365e-01 5.551265716552734375e+00 1.766109466552734375e+00 6.929665803909301758e-01
5.737000000000000000e+03 1.118120288848876953e+01 -1.016849803924560547e+01 -9.452365338802337646e-03 2.067081779241561890e-01 5.917674675583839417e-02 -1.891727447509765625e-01
5.738000000000000000e+03 1.105681800842285156e+01 -1.087574481964111328e+01 5.155065283179283142e-02 2.041939795017242432e-01 7.672338932752609253e-02 -1.801959127187728882e-01
5.739000000000000000e+03 1.223297214508056641e+01 -1.200543498992919922e+01 1.293113827705383301e-01 2.800892293453216553e-01 1.228201910853385925e-01 -1.382556557655334473e-01
5.740000000000000000e+03 1.290062141418457031e+01 -1.230720996856689453e+01 2.010155022144317627e-01 3.141679763793945312e-01 1.545550376176834106e-01 -1.153870224952697754e-01
5.741000000000000000e+03 2.594485664367675781e+01 -1.730772972106933594e+01 -5.753445029258728027e-01 4.584978580474853516e+00 1.202890157699584961e+00 2.059419751167297363e-01
5.742000000000000000e+03 1.617151641845703125e+01 2.183747673034667969e+01 -4.637191593647003174e-01 2.969704568386077881e-01 -5.002461373805999756e-02 -1.002363339066505432e-01
5.743000000000000000e+03 1.489039897918701172e+01 -1.395168685913085938e+01 4.053884148597717285e-01 5.459775924682617188e-01 2.854098081588745117e-01 1.182021573185920715e-01
5.744000000000000000e+03 1.566304397583007812e+01 -1.468863010406494141e+01 4.705842733383178711e-01 6.913155913352966309e-01 3.485699594020843506e-01 2.309572249650955200e-01
5.745000000000000000e+03 2.882467651367187500e+01 -1.772810554504394531e+01 -5.142558217048645020e-01 4.442688941955566406e+00 1.178529977798461914e+00 -7.409039139747619629e-01
5.746000000000000000e+03 4.462202835083007812e+01 2.076835060119628906e+01 2.073568701744079590e-01 3.813583850860595703e+00 1.206282138824462891e+00 4.958587884902954102e-01
5.747000000000000000e+03 9.000721931457519531e+00 -8.928509712219238281e+00 -5.876657366752624512e-02 1.046024933457374573e-01 1.375077664852142334e-02 -1.983036696910858154e-01
5.748000000000000000e+03 7.377614021301269531e+00 2.488830757141113281e+01 -9.273957461118698120e-02 1.008063554763793945e+00 2.745971977710723877e-01 2.222786992788314819e-01
5.749000000000000000e+03 8.008639335632324219e+00 2.624766921997070312e+01 -4.184382781386375427e-02 9.631408452987670898e-01 2.763890922069549561e-01 2.353177070617675781e-01
5.750000000000000000e+03 7.284954833984375000e+01 -2.319518661499023438e+01 1.799779757857322693e-02 6.157617568969726562e+00 1.852684617042541504e+00 7.580229640007019043e-01
5.751000000000000000e+03 7.109574890136718750e+01 1.901746749877929688e+01 1.905289143323898315e-01 6.622564315795898438e+00 2.043927907943725586e+00 1.797313541173934937e-01
5.752000000000000000e+03 1.171800613403320312e+01 2.064121818542480469e+01 -5.581598281860351562e-01 5.989649891853332520e-01 1.224154885858297348e-02 1.108376532793045044e-01
5.753000000000000000e+03 8.156717300415039062e+00 -1.809336662292480469e+01 1.464251279830932617e-01 1.391952633857727051e-01 8.568611741065979004e-02 -2.879143320024013519e-02
5.754000000000000000e+03 8.284271240234375000e+00 -1.718794441223144531e+01 1.456655859947204590e-01 1.348481327295303345e-01 8.415411412715911865e-02 -5.152625590562820435e-02
5.755000000000000000e+03 2.104809951782226562e+01 -1.589946556091308594e+01 3.538505733013153076e-01 2.443164587020874023e+00 8.391045331954956055e-01 1.145164608955383301e+00
5.756000000000000000e+03 1.669336128234863281e+01 -1.465081977844238281e+01 5.577818751335144043e-01 7.895566225051879883e-01 4.042015373706817627e-01 3.546445667743682861e-01
5.757000000000000000e+03 7.459339141845703125e+00 2.134873580932617188e+01 -3.186793327331542969e-01 1.030634999275207520e+00 2.135866880416870117e-01 1.121849864721298218e-01
5.758000000000000000e+03 7.319742679595947266e+00 2.017850875854492188e+01 -3.883990645408630371e-01 1.077383637428283691e+00 2.066953629255294800e-01 2.535810880362987518e-02
5.759000000000000000e+03 7.737588882446289062e+00 2.197279739379882812e+01 -2.805362939834594727e-01 9.929931759834289551e-01 2.137370556592941284e-01 1.443517506122589111e-01
5.760000000000000000e+03 7.981849193572998047e+00 1.658576774597167969e+01 -7.854380607604980469e-01 1.166754603385925293e+00 1.143949404358863831e-01 -2.587873637676239014e-01
5.761000000000000000e+03 8.301207542419433594e+00 -1.622860145568847656e+01 1.506394445896148682e-01 1.138342469930648804e-01 7.934210449457168579e-02 -8.030634373426437378e-02
5.762000000000000000e+03 7.248312473297119141e+00 -1.533428478240966797e+01 1.113470271229743958e-01 1.910398341715335846e-02 3.913530334830284119e-02 -1.194509118795394897e-01
5.763000000000000000e+03 8.013450622558593750e+00 -1.442284488677978516e+01 1.174393445253372192e-01 6.739297509193420410e-02 5.544969812035560608e-02 -1.356391757726669312e-01
5.764000000000000000e+03 7.385897159576416016e+00 1.491343784332275391e+01 -8.348436951637268066e-01 1.273801922798156738e+00 1.316874772310256958e-01 -5.042856335639953613e-01
5.765000000000000000e+03 8.127552986145019531e+00 -1.043527793884277344e+01 6.475332658737897873e-03 6.101307645440101624e-02 2.024652250111103058e-02 -1.983151137828826904e-01
5.766000000000000000e+03 7.336819171905517578e+00 -1.038668823242187500e+01 -2.556260675191879272e-03 2.389689907431602478e-02 6.402191706001758575e-03 -2.021135687828063965e-01
5.767000000000000000e+03 6.262627792358398438e+01 -2.317413902282714844e+01 3.387932181358337402e-01 5.507543563842773438e+00 1.753901004791259766e+00 -8.927372097969055176e-01
5.768000000000000000e+03 1.055310249328613281e+01 -9.258265495300292969e+00 -6.116837263107299805e-02 1.716638505458831787e-01 3.314864262938499451e-02 -1.941490769386291504e-01
5.769000000000000000e+03 7.784124851226806641e+00 1.432239913940429688e+01 -8.954502344131469727e-01 1.310182571411132812e+00 1.244197040796279907e-01 -5.430555343627929688e-01
5.770000000000000000e+03 8.421482086181640625e+00 1.435274887084960938e+01 -9.870527982711791992e-01 1.285177707672119141e+00 8.943746238946914673e-02 -4.998541474342346191e-01
5.771000000000000000e+03 7.323428630828857422e+00 1.959527397155761719e+01 -4.342504441738128662e-01 1.084898710250854492e+00 1.951944977045059204e-01 8.642182685434818268e-03
5.772000000000000000e+03 6.844938755035400391e+00 1.820814895629882812e+01 -5.157154202461242676e-01 1.165062904357910156e+00 1.948042362928390503e-01 -1.391253322362899780e-01
5.773000000000000000e+03 7.090306091308593750e+01 1.732430648803710938e+01 4.774602353572845459e-01 6.597569465637207031e+00 2.122509002685546875e+00 4.228910505771636963e-01
5.774000000000000000e+03 3.234453201293945312e+01 2.008130645751953125e+01 5.419221892952919006e-02 1.890309691429138184e+00 5.833505392074584961e-01 -1.181785687804222107e-01
5.775000000000000000e+03 3.464674377441406250e+01 -1.991507911682128906e+01 4.956157207489013672e-01 3.014200210571289062e+00 1.052944779396057129e+00 -5.879580378532409668e-01
5.776000000000000000e+03 3.242754364013671875e+01 2.307888412475585938e+01 -2.830731272697448730e-01 2.691541671752929688e+00 7.225405573844909668e-01 -7.512523233890533447e-02
5.777000000000000000e+03 3.344738769531250000e+01 -2.344956398010253906e+01 1.112078651785850525e-01 3.492957115173339844e+00 1.081249475479125977e+00 -3.155513703823089600e-01
5.778000000000000000e+03 6.007804870605468750e+01 2.191550827026367188e+01 7.061329483985900879e-01 4.399629592895507812e+00 1.531728863716125488e+00 3.887318372726440430e-01
5.779000000000000000e+03 5.810779571533203125e+01 2.311502838134765625e+01 3.879602551460266113e-01 4.779421806335449219e+00 1.550214648246765137e+00 7.075119614601135254e-01
5.780000000000000000e+03 6.079505538940429688e+01 2.103484725952148438e+01 8.322751522064208984e-01 4.127159118652343750e+00 1.487830281257629395e+00 1.921685487031936646e-01
5.781000000000000000e+03 3.335689163208007812e+01 2.287155723571777344e+01 -2.581038177013397217e-01 2.794014930725097656e+00 7.607733011245727539e-01 -1.905481517314910889e-01
5.782000000000000000e+03 6.373040771484375000e+01 2.298224258422851562e+01 4.169345796108245850e-01 5.071537971496582031e+00 1.646541714668273926e+00 -3.153863549232482910e-01
5.783000000000000000e+03 6.696756744384765625e+01 -2.374436950683593750e+01 7.471484541893005371e-01 4.656345367431640625e+00 1.621048212051391602e+00 -1.297273784875869751e-01
5.784000000000000000e+03 6.688830566406250000e+01 1.984641265869140625e+01 -1.269670724868774414e-01 6.309667587280273438e+00 1.854810237884521484e+00 -6.022960543632507324e-01
5.785000000000000000e+03 1.276641178131103516e+01 2.377841377258300781e+01 -2.223838567733764648e-01 6.177948117256164551e-01 1.186232939362525940e-01 1.345751136541366577e-01
5.786000000000000000e+03 1.196362590789794922e+01 -2.248146247863769531e+01 1.527823805809020996e-01 7.503781318664550781e-01 2.709481716156005859e-01 1.955777555704116821e-01
5.787000000000000000e+03 8.555554389953613281e+00 -2.072429847717285156e+01 1.272581815719604492e-01 2.528220713138580322e-01 1.140240803360939026e-01 5.069181323051452637e-02
5.788000000000000000e+03 6.455088806152343750e+01 2.165411376953125000e+01 3.062049448490142822e-01 5.314078807830810547e+00 1.686085224151611328e+00 -5.450356602668762207e-01
5.789000000000000000e+03 8.000787734985351562e+00 1.762385559082031250e+01 -6.933602094650268555e-01 1.108462214469909668e+00 1.245305910706520081e-01 -1.478375643491744995e-01
5.790000000000000000e+03 6.969738960266113281e+00 1.660225296020507812e+01 -6.677432656288146973e-01 1.231096506118774414e+00 1.690059602260589600e-01 -3.062724173069000244e-01
5.791000000000000000e+03 1.499759674072265625e+01 -1.516152572631835938e+01 4.541751742362976074e-01 6.626673936843872070e-01 3.350527584552764893e-01 2.251222580671310425e-01
5.792000000000000000e+03 1.830715942382812500e+01 -1.619356727600097656e+01 5.506253838539123535e-01 1.393465161323547363e+00 5.832271575927734375e-01 7.066443562507629395e-01
5.793000000000000000e+03 1.388688468933105469e+01 2.303723335266113281e+01 -3.021986484527587891e-01 5.068296790122985840e-01 6.138930842280387878e-02 8.038461953401565552e-02
5.794000000000000000e+03 1.234366512298583984e+01 2.165195274353027344e+01 -4.513016045093536377e-01 5.562007427215576172e-01 3.146973997354507446e-02 1.208774521946907043e-01
5.795000000000000000e+03 8.151898384094238281e+00 -1.121380901336669922e+01 2.484701015055179596e-02 6.464198976755142212e-02 2.684669941663742065e-02 -2.007844001054763794e-01
5.796000000000000000e+03 8.139381408691406250e+00 -9.631290435791015625e+00 -2.613216452300548553e-02 6.578101962804794312e-02 1.189465541392564774e-02 -2.043929994106292725e-01
5.797000000000000000e+03 1.650901603698730469e+01 2.299747276306152344e+01 -3.231600522994995117e-01 4.050316214561462402e-01 2.456147409975528717e-02 -1.330760270357131958e-01
5.798000000000000000e+03 2.644287109375000000e+01 -1.790757560729980469e+01 -6.146549582481384277e-01 4.522586345672607422e+00 1.172379374504089355e+00 2.395161241292953491e-02
5.799000000000000000e+03 6.125833511352539062e+00 -2.128429794311523438e+01 7.573135197162628174e-02 -2.281383983790874481e-02 1.587525382637977600e-02 1.426837407052516937e-02
5.800000000000000000e+03 5.324898719787597656e+00 -2.040075302124023438e+01 6.712108105421066284e-02 -1.136243566870689392e-01 -1.395098026841878891e-02 -1.068894099444150925e-02
5.801000000000000000e+03 2.046504402160644531e+01 -1.637626075744628906e+01 4.295046925544738770e-01 2.241774320602416992e+00 8.013836741447448730e-01 1.025459170341491699e+00
5.802000000000000000e+03 1.245187759399414062e+01 -1.296802139282226562e+01 2.142048925161361694e-01 3.199461400508880615e-01 1.602453142404556274e-01 -8.182109892368316650e-02
5.803000000000000000e+03 1.424925899505615234e+01 -1.406024169921875000e+01 3.797542750835418701e-01 4.830457270145416260e-01 2.588399946689605713e-01 6.734939664602279663e-02
5.804000000000000000e+03 8.606410980224609375e+00 1.502974414825439453e+01 -9.942331314086914062e-01 1.176479816436767578e+00 5.467399954795837402e-02 -3.904149234294891357e-01
5.805000000000000000e+03 1.177480316162109375e+01 -1.106556224822998047e+01 5.628394335508346558e-02 2.397842705249786377e-01 8.882046490907669067e-02 -1.714041680097579956e-01
5.806000000000000000e+03 9.074410438537597656e+00 -1.254196166992187500e+01 8.986038714647293091e-02 1.189111918210983276e-01 6.263147294521331787e-02 -1.700180917978286743e-01
5.807000000000000000e+03 9.698061943054199219e+00 -9.862659454345703125e+00 -2.491126582026481628e-02 1.386387050151824951e-01 3.411823138594627380e-02 -2.021516263484954834e-01
5.808000000000000000e+03 1.192765140533447266e+01 -1.265443992614746094e+01 1.809103041887283325e-01 2.696870267391204834e-01 1.351791918277740479e-01 -1.256466954946517944e-01
5.809000000000000000e+03 7.872798442840576172e+00 1.857390022277832031e+01 -5.685351490974426270e-01 1.090779900550842285e+00 1.566734313964843750e-01 -7.630838453769683838e-02
5.810000000000000000e+03 7.036952018737792969e+00 1.760341262817382812e+01 -5.861447453498840332e-01 1.182073235511779785e+00 1.787785440683364868e-01 -1.953431367874145508e-01
5.811000000000000000e+03 1.600701522827148438e+01 -1.696355247497558594e+01 4.177456796169281006e-01 1.001495480537414551e+00 4.257723391056060791e-01 3.978199362754821777e-01
5.812000000000000000e+03 8.660829544067382812e+00 2.257508087158203125e+01 -2.578006386756896973e-01 9.121147394180297852e-01 1.962942332029342651e-01 1.758767664432525635e-01
5.813000000000000000e+03 7.893834114074707031e+00 2.324324035644531250e+01 -1.877782940864562988e-01 9.814791083335876465e-01 2.381102442741394043e-01 1.873530596494674683e-01
5.814000000000000000e+03 9.234358787536621094e+00 2.219334411621093750e+01 -3.153719007968902588e-01 8.759241104125976562e-01 1.681656539440155029e-01 1.643878966569900513e-01
5.815000000000000000e+03 1.105603885650634766e+01 2.026688957214355469e+01 -6.044924855232238770e-01 7.025295495986938477e-01 2.941111475229263306e-02 1.010754555463790894e-01
5.816000000000000000e+03 9.876487731933593750e+00 2.061230087280273438e+01 -4.988701939582824707e-01 8.298895955085754395e-01 9.930581599473953247e-02 1.140908747911453247e-01
5.817000000000000000e+03 8.410774230957031250e+00 -1.270987510681152344e+01 8.333741128444671631e-02 8.630704879760742188e-02 5.089334025979042053e-02 -1.824479699134826660e-01
5.818000000000000000e+03 8.541958808898925781e+00 2.188795280456542969e+01 -3.241443336009979248e-01 9.297257661819458008e-01 1.816744357347488403e-01 1.430672407150268555e-01
5.819000000000000000e+03 6.927515411376953125e+01 -2.276835632324218750e+01 7.024011611938476562e-01 4.710076808929443359e+00 1.623743414878845215e+00 6.058030128479003906e-01
5.820000000000000000e+03 1.210051727294921875e+01 2.252802848815917969e+01 -3.472516536712646484e-01 6.187166571617126465e-01 8.143948763608932495e-02 1.487639546394348145e-01
5.821000000000000000e+03 1.148169326782226562e+01 2.138031768798828125e+01 -4.741144478321075439e-01 6.555257439613342285e-01 5.442339181900024414e-02 1.368493288755416870e-01
5.822000000000000000e+03 9.074603080749511719e+00 1.783887290954589844e+01 -7.585819363594055176e-01 9.900170564651489258e-01 6.943054497241973877e-02 -8.154179900884628296e-02
5.823000000000000000e+03 1.371834373474121094e+01 2.403826141357421875e+01 -1.869117319583892822e-01 5.533378124237060547e-01 1.099278256297111511e-01 7.411768287420272827e-02
5.824000000000000000e+03 8.466523170471191406e+00 1.608001708984375000e+01 -8.922358751296997070e-01 1.108271956443786621e+00 6.481081992387771606e-02 -2.766358852386474609e-01
5.825000000000000000e+03 6.009397888183593750e+01 2.057049560546875000e+01 8.740029931068420410e-01 3.983503818511962891e+00 1.457252025604248047e+00 4.543063044548034668e-01
5.826000000000000000e+03 1.577344799041748047e+01 2.268873596191406250e+01 -3.223694562911987305e-01 3.577922284603118896e-01 1.062683667987585068e-02 -6.858561933040618896e-02
5.827000000000000000e+03 3.111122512817382812e+01 -1.930684089660644531e+01 -1.315670311450958252e-01 3.675447702407836914e+00 1.063164234161376953e+00 -9.040649533271789551e-01
5.828000000000000000e+03 5.787018585205078125e+01 1.809862709045410156e+01 8.599617481231689453e-01 3.854084968566894531e+00 1.414214015007019043e+00 1.518932580947875977e+00
5.829000000000000000e+03 1.618265533447265625e+01 2.400221252441406250e+01 -1.826774328947067261e-01 4.738319516181945801e-01 8.734635263681411743e-02 -1.020650342106819153e-01
5.830000000000000000e+03 2.987366676330566406e+01 -2.093603134155273438e+01 -2.627911269664764404e-01 3.744855165481567383e+00 1.044619202613830566e+00 -5.410757064819335938e-01
5.831000000000000000e+03 3.238671493530273438e+01 -2.300959396362304688e+01 6.573993712663650513e-02 3.463208675384521484e+00 1.058684587478637695e+00 -4.265165627002716064e-01
5.832000000000000000e+03 5.899851226806640625e+01 2.339930152893066406e+01 4.774618744850158691e-01 4.730387687683105469e+00 1.562354922294616699e+00 5.017199516296386719e-01
5.833000000000000000e+03 1.303271865844726562e+01 -2.235754966735839844e+01 1.539383977651596069e-01 9.195768833160400391e-01 3.220545947551727295e-01 2.489522695541381836e-01
5.834000000000000000e+03 1.458896732330322266e+01 -2.366815948486328125e+01 9.570014476776123047e-02 1.212485194206237793e+00 3.924556076526641846e-01 3.016552925109863281e-01
5.835000000000000000e+03 6.442816162109375000e+01 -2.290047836303710938e+01 5.926542878150939941e-01 4.925637245178222656e+00 1.655487537384033203e+00 -8.109849691390991211e-01
5.836000000000000000e+03 1.091803932189941406e+01 -1.153495121002197266e+01 7.390139997005462646e-02 2.123344093561172485e-01 8.587074279785156250e-02 -1.727901697158813477e-01
5.837000000000000000e+03 1.695674896240234375e+01 -1.774889755249023438e+01 3.837678730487823486e-01 1.295711994171142578e+00 5.038439631462097168e-01 5.311133861541748047e-01
5.838000000000000000e+03 2.003415298461914062e+01 -1.813235855102539062e+01 2.019825875759124756e-01 2.239606142044067383e+00 7.324766516685485840e-01 8.236149549484252930e-01
5.839000000000000000e+03 1.792573547363281250e+01 -1.742941856384277344e+01 4.305076897144317627e-01 1.445053696632385254e+00 5.626683831214904785e-01 6.324927806854248047e-01
5.840000000000000000e+03 8.519884109497070312e+00 1.717010307312011719e+01 -7.829251289367675781e-01 1.044857859611511230e+00 7.857979834079742432e-02 -1.691634505987167358e-01
5.841000000000000000e+03 9.646677017211914062e+00 -1.063378715515136719e+01 2.235333248972892761e-02 1.367067098617553711e-01 4.771801084280014038e-02 -1.953988671302795410e-01
5.842000000000000000e+03 8.902476310729980469e+00 -1.052157402038574219e+01 5.560447927564382553e-03 1.035447046160697937e-01 3.273154422640800476e-02 -2.047427445650100708e-01
5.843000000000000000e+03 8.727501869201660156e+00 2.113037300109863281e+01 -3.876521885395050049e-01 9.320067167282104492e-01 1.633063554763793945e-01 1.245112046599388123e-01
5.844000000000000000e+03 8.269404411315917969e+00 -1.984064483642578125e+01 1.426526308059692383e-01 1.957415789365768433e-01 1.015182584524154663e-01 2.374705299735069275e-02
5.845000000000000000e+03 8.997725486755371094e+00 2.026326370239257812e+01 -4.921968281269073486e-01 9.017634987831115723e-01 1.228699982166290283e-01 7.270596176385879517e-02
5.846000000000000000e+03 9.560510635375976562e+00 2.143352890014648438e+01 -3.959815204143524170e-01 8.308504819869995117e-01 1.304606944322586060e-01 1.353888362646102905e-01
5.847000000000000000e+03 1.537707805633544922e+01 2.361910629272460938e+01 -2.451227158308029175e-01 4.958957433700561523e-01 7.523190975189208984e-02 -3.413394466042518616e-02
5.848000000000000000e+03 1.035481452941894531e+01 -1.074112987518310547e+01 1.914915628731250763e-02 1.751020252704620361e-01 5.827535316348075867e-02 -1.951274126768112183e-01
5.849000000000000000e+03 7.465415954589843750e+00 1.805164718627929688e+01 -5.900377035140991211e-01 1.102906107902526855e+00 1.538604944944381714e-01 -1.188329011201858521e-01
5.850000000000000000e+03 1.414382266998291016e+01 2.208394432067871094e+01 -4.047572016716003418e-01 4.070790708065032959e-01 6.965642096474766731e-04 4.917887970805168152e-02
5.851000000000000000e+03 8.230303764343261719e+00 -1.196894931793212891e+01 5.655420944094657898e-02 6.776734441518783569e-02 3.729646652936935425e-02 -1.862205564975738525e-01
5.852000000000000000e+03 1.541847133636474609e+01 -1.577951335906982422e+01 4.511818289756774902e-01 7.932218909263610840e-01 3.733211159706115723e-01 2.826023995876312256e-01
5.853000000000000000e+03 8.676858901977539062e+00 -1.347941493988037109e+01 1.164453253149986267e-01 1.037987172603607178e-01 6.607320904731750488e-02 -1.517766714096069336e-01
5.854000000000000000e+03 1.090074348449707031e+01 2.306918144226074219e+01 -2.723131179809570312e-01 7.301374077796936035e-01 1.373472809791564941e-01 1.801177710294723511e-01
5.855000000000000000e+03 9.610049247741699219e+00 -1.686864471435546875e+01 1.924281716346740723e-01 2.379531413316726685e-01 1.291143894195556641e-01 -2.630828693509101868e-02
5.856000000000000000e+03 1.593514537811279297e+01 -1.779731941223144531e+01 3.936107158660888672e-01 1.068898200988769531e+00 4.387526810169219971e-01 4.029582440853118896e-01
5.857000000000000000e+03 9.723410606384277344e+00 -1.860785675048828125e+01 1.871539950370788574e-01 3.191747665405273438e-01 1.518986225128173828e-01 2.644572965800762177e-02
5.858000000000000000e+03 1.085557842254638672e+01 -2.022905540466308594e+01 1.840633600950241089e-01 5.045419335365295410e-01 2.065815925598144531e-01 1.190141588449478149e-01
5.859000000000000000e+03 1.294999027252197266e+01 -1.334335994720458984e+01 2.700631916522979736e-01 3.596604466438293457e-01 1.889171004295349121e-01 -6.042782962322235107e-02
5.860000000000000000e+03 2.785776901245117188e+01 -2.033672523498535156e+01 -4.445344805717468262e-01 3.923832893371582031e+00 1.043789505958557129e+00 -3.422731757164001465e-01
5.861000000000000000e+03 3.008982849121093750e+01 -1.963702774047851562e+01 -1.869692802429199219e-01 3.805358171463012695e+00 1.085516691207885742e+00 -7.044276595115661621e-01
5.862000000000000000e+03 2.816366577148437500e+01 -2.118053817749023438e+01 -3.572531640529632568e-01 3.793083429336547852e+00 1.030749082565307617e+00 -2.966887652873992920e-01
5.863000000000000000e+03 1.698624038696289062e+01 -2.262745857238769531e+01 1.005285307765007019e-01 1.619157314300537109e+00 5.159057378768920898e-01 4.232239425182342529e-01
5.864000000000000000e+03 1.362016677856445312e+01 -2.092970085144042969e+01 2.059016674757003784e-01 9.117165207862854004e-01 3.352854549884796143e-01 2.674390375614166260e-01
5.865000000000000000e+03 1.017333698272705078e+01 -1.592775249481201172e+01 2.188690602779388428e-01 2.626866698265075684e-01 1.444667279720306396e-01 -4.397080838680267334e-02
5.866000000000000000e+03 2.626197433471679688e+01 -1.919100952148437500e+01 -5.169843435287475586e-01 4.133207321166992188e+00 1.084866881370544434e+00 5.051237344741821289e-02
5.867000000000000000e+03 1.005799198150634766e+01 -1.506372451782226562e+01 1.856320202350616455e-01 2.372108697891235352e-01 1.268528699874877930e-01 -8.308907598257064819e-02
5.868000000000000000e+03 9.885303497314453125e+00 -1.412384796142578125e+01 1.690859645605087280e-01 1.916705369949340820e-01 1.082269549369812012e-01 -1.165649816393852234e-01
5.869000000000000000e+03 6.766053771972656250e+01 -2.309542083740234375e+01 7.836404442787170410e-01 4.483636856079101562e+00 1.580183148384094238e+00 5.970656871795654297e-02
5.870000000000000000e+03 6.747866058349609375e+01 -2.472593307495117188e+01 6.359070539474487305e-01 4.897054195404052734e+00 1.659888386726379395e+00 -1.421322766691446304e-02
5.871000000000000000e+03 9.446488380432128906e+00 -1.925482177734375000e+01 1.730495393276214600e-01 2.995000481605529785e-01 1.417648792266845703e-01 4.119662195444107056e-02
5.872000000000000000e+03 8.840710639953613281e+00 -1.899152565002441406e+01 1.604076325893402100e-01 2.293676137924194336e-01 1.169325783848762512e-01 1.284975651651620865e-02
5.873000000000000000e+03 9.647472381591796875e+00 2.355832481384277344e+01 -2.087697535753250122e-01 8.368661999702453613e-01 1.884289234876632690e-01 1.995171457529067993e-01
5.874000000000000000e+03 1.016227054595947266e+01 -1.268833160400390625e+01 1.163782551884651184e-01 1.879848837852478027e-01 9.130894392728805542e-02 -1.541683524847030640e-01
5.875000000000000000e+03 8.890598297119140625e+00 -1.194596290588378906e+01 5.768469348549842834e-02 1.050820350646972656e-01 4.883001744747161865e-02 -1.925182044506072998e-01
5.876000000000000000e+03 1.928787803649902344e+01 -1.753054237365722656e+01 3.832511007785797119e-01 1.861155033111572266e+00 6.733218431472778320e-01 8.139908909797668457e-01
5.877000000000000000e+03 1.988029479980468750e+01 -1.684600639343261719e+01 3.778465688228607178e-01 2.006131172180175781e+00 7.151932716369628906e-01 9.005705118179321289e-01
5.878000000000000000e+03 9.506438255310058594e+00 -1.213482666015625000e+01 8.881357312202453613e-02 1.387256979942321777e-01 6.826177984476089478e-02 -1.826728731393814087e-01
5.879000000000000000e+03 1.035893821716308594e+01 2.182661628723144531e+01 -3.923773169517517090e-01 7.716343402862548828e-01 1.137771159410476685e-01 1.599669903516769409e-01
5.880000000000000000e+03 1.259930515289306641e+01 -1.992511177062988281e+01 2.308999598026275635e-01 7.108651399612426758e-01 2.825295329093933105e-01 1.991866230964660645e-01
5.881000000000000000e+03 1.031193447113037109e+01 -1.147727966308593750e+01 7.049981504678726196e-02 1.783419102430343628e-01 7.465251535177230835e-02 -1.801401823759078979e-01
5.882000000000000000e+03 2.615082931518554688e+01 -2.049387931823730469e+01 -4.679394960403442383e-01 3.860330104827880859e+00 1.017717123031616211e+00 3.953902050852775574e-02
5.883000000000000000e+03 1.519877910614013672e+01 -2.156404876708984375e+01 1.852160990238189697e-01 1.199565052986145020e+00 4.154343307018280029e-01 3.527072668075561523e-01
5.884000000000000000e+03 1.358960914611816406e+01 -1.440830612182617188e+01 3.438431620597839355e-01 4.574334621429443359e-01 2.403829842805862427e-01 3.168025985360145569e-02
5.885000000000000000e+03 1.286159515380859375e+01 -1.470084857940673828e+01 3.198365867137908936e-01 4.138211905956268311e-01 2.200973331928253174e-01 1.888933964073657990e-02
5.886000000000000000e+03 9.522666931152343750e+00 -1.323519706726074219e+01 1.270294934511184692e-01 1.602210849523544312e-01 8.617517352104187012e-02 -1.586082875728607178e-01
5.887000000000000000e+03 1.090428829193115234e+01 -1.404555130004882812e+01 1.879471093416213989e-01 2.652988433837890625e-01 1.359737813472747803e-01 -9.893365949392318726e-02
5.888000000000000000e+03 1.466590881347656250e+01 -1.990343284606933594e+01 2.555700540542602539e-01 1.035820841789245605e+00 3.874172568321228027e-01 3.284932374954223633e-01
5.889000000000000000e+03 1.188835144042968750e+01 -1.403052330017089844e+01 2.487638145685195923e-01 3.188780546188354492e-01 1.702925562858581543e-01 -6.139834970235824585e-02
5.890000000000000000e+03 8.818867683410644531e+00 -2.164302825927734375e+01 1.231506615877151489e-01 3.028784394264221191e-01 1.278087347745895386e-01 7.341467589139938354e-02
5.891000000000000000e+03 1.168627548217773438e+01 -1.692378997802734375e+01 2.619034349918365479e-01 4.411442577838897705e-01 2.109143137931823730e-01 5.912533029913902283e-02
5.892000000000000000e+03 6.719005107879638672e+00 -2.026236343383789062e+01 9.759090840816497803e-02 3.169731050729751587e-02 3.878646716475486755e-02 3.879374125972390175e-03
5.893000000000000000e+03 1.789442443847656250e+01 -1.902102088928222656e+01 2.970333695411682129e-01 1.621882200241088867e+00 5.756746530532836914e-01 6.034767627716064453e-01
5.894000000000000000e+03 1.691995429992675781e+01 -2.087019348144531250e+01 1.841415315866470337e-01 1.502444028854370117e+00 5.059756636619567871e-01 4.509015083312988281e-01
5.895000000000000000e+03 1.780731964111328125e+01 -2.076808166503906250e+01 1.631494015455245972e-01 1.705723047256469727e+00 5.606617331504821777e-01 5.124839544296264648e-01
5.896000000000000000e+03 1.202676963806152344e+01 -1.493042182922363281e+01 2.639296948909759521e-01 3.774174749851226807e-01 1.924041360616683960e-01 -2.012249082326889038e-02
5.897000000000000000e+03 1.108060741424560547e+01 -1.594835090637207031e+01 2.410845011472702026e-01 3.481707572937011719e-01 1.767765730619430542e-01 -8.243060670793056488e-03
5.898000000000000000e+03 1.092216682434082031e+01 -1.752775573730468750e+01 2.284552156925201416e-01 3.998774290084838867e-01 1.884997934103012085e-01 4.728060215711593628e-02
5.899000000000000000e+03 1.021026515960693359e+01 -1.729791069030761719e+01 2.130384445190429688e-01 3.195464015007019043e-01 1.597754508256912231e-01 8.723826147615909576e-03
5.900000000000000000e+03 1.430821323394775391e+01 -1.572986984252929688e+01 3.897879719734191895e-01 6.462183594703674316e-01 3.108019232749938965e-01 1.660765558481216431e-01
5.901000000000000000e+03 1.390061759948730469e+01 -1.507097434997558594e+01 3.885921239852905273e-01 5.320513248443603516e-01 2.761930525302886963e-01 1.173779889941215515e-01
5.902000000000000000e+03 2.209523010253906250e+01 -1.981138229370117188e+01 -1.216973066329956055e-01 2.920526981353759766e+00 8.396488428115844727e-01 6.299315690994262695e-01
5.903000000000000000e+03 2.343176841735839844e+01 -2.106907463073730469e+01 -2.864172160625457764e-01 3.197466611862182617e+00 8.733147978782653809e-01 4.025415778160095215e-01
5.904000000000000000e+03 1.168758106231689453e+01 -1.771302413940429688e+01 2.681384980678558350e-01 4.779726862907409668e-01 2.238333523273468018e-01 8.539369702339172363e-02
5.905000000000000000e+03 1.230092716217041016e+01 -1.689790916442871094e+01 3.083610236644744873e-01 5.027051568031311035e-01 2.433198541402816772e-01 9.622120857238769531e-02
5.906000000000000000e+03 1.362191009521484375e+01 -1.622739601135253906e+01 3.624414503574371338e-01 5.857511162757873535e-01 2.844577729701995850e-01 1.517264097929000854e-01
5.907000000000000000e+03 1.046352577209472656e+01 -1.902242469787597656e+01 2.091013938188552856e-01 4.169265925884246826e-01 1.878083944320678711e-01 7.871033996343612671e-02
5.908000000000000000e+03 2.296956443786621094e+01 -2.393350791931152344e+01 -2.596971392631530762e-01 2.879834890365600586e+00 7.860413193702697754e-01 2.684279382228851318e-01
5.909000000000000000e+03 2.099761962890625000e+01 -2.075395965576171875e+01 -5.265378579497337341e-02 2.587260007858276367e+00 7.603818774223327637e-01 6.014106273651123047e-01
5.910000000000000000e+03 2.381170845031738281e+01 -1.868193054199218750e+01 -3.122534751892089844e-01 3.649561166763305664e+00 1.001192331314086914e+00 6.423825025558471680e-01
5.911000000000000000e+03 1.999589729309082031e+01 -2.071685600280761719e+01 3.759736567735671997e-02 2.271939277648925781e+00 6.928610205650329590e-01 6.030436158180236816e-01
5.912000000000000000e+03 1.337161922454833984e+01 -1.755844879150390625e+01 3.340765833854675293e-01 6.657466292381286621e-01 2.999469637870788574e-01 1.866871863603591919e-01
5.913000000000000000e+03 1.249523162841796875e+01 -1.774465370178222656e+01 2.841112911701202393e-01 5.771354436874389648e-01 2.583740353584289551e-01 1.340714395046234131e-01
5.914000000000000000e+03 1.123446846008300781e+01 -1.944029808044433594e+01 2.212670594453811646e-01 5.159911513328552246e-01 2.211774587631225586e-01 1.114590689539909363e-01
5.915000000000000000e+03 1.159184265136718750e+01 -1.862799263000488281e+01 2.387875467538833618e-01 5.188199281692504883e-01 2.272822409868240356e-01 1.178660467267036438e-01
5.916000000000000000e+03 2.226757240295410156e+01 -1.813173103332519531e+01 -7.002198696136474609e-02 3.091745615005493164e+00 9.065170884132385254e-01 8.658300042152404785e-01
5.917000000000000000e+03 1.931779670715332031e+01 -1.901869392395019531e+01 2.138153463602066040e-01 2.020328760147094727e+00 6.702432632446289062e-01 6.991549134254455566e-01
5.918000000000000000e+03 1.533560085296630859e+01 -1.684286308288574219e+01 4.142936170101165771e-01 8.738546967506408691e-01 3.864445090293884277e-01 3.118048310279846191e-01
5.919000000000000000e+03 2.303705596923828125e+01 -1.750248908996582031e+01 -1.451837122440338135e-01 3.434718608856201172e+00 9.868605136871337891e-01 9.307355880737304688e-01
5.920000000000000000e+03 2.144991493225097656e+01 -1.727886581420898438e+01 1.415859162807464600e-01 2.714269876480102539e+00 8.567567467689514160e-01 9.557676315307617188e-01
5.921000000000000000e+03 1.773166847229003906e+01 -1.986514854431152344e+01 2.131352424621582031e-01 1.646272897720336914e+00 5.578224062919616699e-01 5.290700197219848633e-01
5.922000000000000000e+03 6.833409118652343750e+01 3.856994628906250000e+01 -1.859925501048564911e-02 6.025714397430419922e+00 1.802134513854980469e+00 8.644847199320793152e-03
5.923000000000000000e+03 3.285745620727539062e+01 -2.177169471979141235e-01 4.766563892364501953e+00 -3.240928411483764648e+00 4.576905369758605957e-01 3.605764389038085938e+00
5.924000000000000000e+03 2.570193862915039062e+01 1.551160717010498047e+01 3.821045160293579102e+00 1.437212657928466797e+01 5.457951545715332031e+00 1.310039043426513672e+00
5.925000000000000000e+03 3.664984130859375000e+01 9.177149772644042969e+00 1.354816079139709473e+00 1.615066146850585938e+01 5.251643180847167969e+00 3.742069005966186523e+00
5.926000000000000000e+03 5.470079898834228516e+00 -2.787813186645507812e+00 -8.286954462528228760e-02 -6.022573914378881454e-03 -2.666763588786125183e-02 -7.384183257818222046e-02
5.927000000000000000e+03 3.965241432189941406e+00 -4.129398345947265625e+01 -7.658242247998714447e-03 -1.111180707812309265e-01 -3.563289344310760498e-02 -5.966159980744123459e-03
5.928000000000000000e+03 3.385050773620605469e+00 -4.013123703002929688e+01 -1.163725624792277813e-03 -1.197158321738243103e-01 -3.626386821269989014e-02 5.988813005387783051e-03
5.929000000000000000e+03 2.670936346054077148e+00 -4.125198364257812500e+01 -2.729131653904914856e-02 -2.444276809692382812e-01 -8.151569962501525879e-02 2.532648481428623199e-02
5.930000000000000000e+03 2.527562141418457031e+00 -4.044196701049804688e+01 2.599070081487298012e-03 -2.725644409656524658e-01 -8.098961412906646729e-02 1.648169569671154022e-02
5.931000000000000000e+03 4.319327545166015625e+01 -4.650005817413330078e+00 3.656240701675415039e+00 8.326433181762695312e+00 3.594802141189575195e+00 6.860421895980834961e-01
5.932000000000000000e+03 8.656926155090332031e+00 8.017444610595703125e+00 5.274060368537902832e-02 2.859448671340942383e+00 8.736567497253417969e-01 -1.875295639038085938e+00
5.933000000000000000e+03 4.387547302246093750e+01 -6.411715030670166016e+00 1.439959645271301270e+00 1.134285163879394531e+01 3.834843158721923828e+00 7.373350262641906738e-01
5.934000000000000000e+03 2.123917961120605469e+01 2.394220113754272461e+00 4.986596584320068359e+00 5.980420589447021484e+00 3.290105104446411133e+00 -4.332652390003204346e-01
5.935000000000000000e+03 5.877454757690429688e+01 -4.873354732990264893e-01 -2.353846549987792969e+00 1.471697330474853516e+00 -2.646447718143463135e-01 -1.116678357124328613e+00
5.936000000000000000e+03 4.017601013183593750e+01 -1.892450714111328125e+01 1.076718270778656006e-01 5.470164775848388672e+00 1.673350930213928223e+00 1.439785599708557129e+00
5.937000000000000000e+03 4.172198104858398438e+01 -1.743308830261230469e+01 6.866619586944580078e-01 8.545348167419433594e+00 2.769603013992309570e+00 1.684243977069854736e-01
5.938000000000000000e+03 2.586411476135253906e+01 -1.093931293487548828e+01 3.753111958503723145e-01 9.924429893493652344e+00 3.089922189712524414e+00 3.985657393932342529e-01
5.939000000000000000e+03 7.821236419677734375e+01 3.892118453979492188e+01 1.735896687023341656e-03 6.777770996093750000e+00 2.033852100372314453e+00 1.189808920025825500e-02
5.940000000000000000e+03 4.352845764160156250e+01 5.734246373176574707e-01 -4.001563549041748047e+00 2.735991477966308594e+00 -3.796716034412384033e-01 3.911768794059753418e-01
5.941000000000000000e+03 6.969430541992187500e+01 7.757084846496582031e+00 -1.732704401016235352e+00 7.976935863494873047e+00 1.873269438743591309e+00 -4.323449730873107910e-01
5.942000000000000000e+03 7.513584136962890625e+01 -3.819472503662109375e+01 2.789574488997459412e-02 6.317188739776611328e+00 1.903525352478027344e+00 3.603315725922584534e-02
5.943000000000000000e+03 2.669231891632080078e+00 -3.544850158691406250e+01 -9.147777222096920013e-03 -2.883889675140380859e-01 -8.926101773977279663e-02 3.248619288206100464e-02
5.944000000000000000e+03 7.312374114990234375e+00 -4.443300247192382812e+00 -1.138902455568313599e-01 2.533111348748207092e-02 -2.656774036586284637e-02 -1.076712980866432190e-01
5.945000000000000000e+03 7.224086284637451172e+00 -3.597806453704833984e+00 -1.176292896270751953e-01 1.918579451739788055e-02 -2.953304909169673920e-02 -9.256574511528015137e-02
5.946000000000000000e+03 4.396222686767578125e+01 -1.624059486389160156e+01 1.081957817077636719e+00 6.690224647521972656e+00 2.331654787063598633e+00 -1.504619121551513672e+00
5.947000000000000000e+03 2.786494636535644531e+01 1.466112709045410156e+01 1.648500561714172363e+00 2.935473680496215820e+00 1.375192284584045410e+00 9.337290525436401367e-01
5.948000000000000000e+03 1.042439651489257812e+01 2.975975275039672852e+00 2.379351615905761719e+00 3.505415916442871094e+00 1.765430212020874023e+00 -7.471868991851806641e-01
5.949000000000000000e+03 9.746220588684082031e+00 3.051936626434326172e+00 2.594541549682617188e+00 2.402094125747680664e+00 1.498990654945373535e+00 2.661513388156890869e-01
5.950000000000000000e+03 2.764290237426757812e+01 -1.741923809051513672e+00 5.432628631591796875e+00 6.069591522216796875e+00 3.450665950775146484e+00 2.046578645706176758e+00
5.951000000000000000e+03 2.122871780395507812e+01 1.534798264503479004e+00 1.635392189025878906e+00 6.270373821258544922e+00 2.371729850769042969e+00 -1.183465361595153809e+00
5.952000000000000000e+03 5.213041687011718750e+01 7.923955917358398438e+00 -1.096170544624328613e+00 1.190789222717285156e+01 3.243516445159912109e+00 -6.515783667564392090e-01
5.953000000000000000e+03 3.354958343505859375e+01 1.292479991912841797e+00 4.874115467071533203e+00 4.147174060344696045e-01 1.586649894714355469e+00 4.518870830535888672e+00
5.954000000000000000e+03 4.213309860229492188e+01 -2.618236541748046875e+00 6.024484038352966309e-01 3.955538988113403320e+00 1.367396235466003418e+00 -1.713954210281372070e+00
5.955000000000000000e+03 7.801091766357421875e+01 8.979741096496582031e+00 -2.740042284131050110e-02 9.485248565673828125e+00 2.837354421615600586e+00 4.310862123966217041e-01
5.956000000000000000e+03 4.895751953125000000e+01 -1.076415061950683594e+00 -1.142497897148132324e+00 1.266103506088256836e+00 3.708168119192123413e-02 2.847281694412231445e+00
5.957000000000000000e+03 5.095249938964843750e+01 -2.099592971801757812e+01 6.430943608283996582e-01 1.900561928749084473e+00 7.630969285964965820e-01 -5.371922850608825684e-01
5.958000000000000000e+03 5.881771850585937500e+01 -1.979455709457397461e+00 -5.802271366119384766e-01 3.223373413085937500e+00 7.929438948631286621e-01 -1.465089678764343262e+00
5.959000000000000000e+03 5.982172775268554688e+01 8.307284116744995117e-01 -4.327722549438476562e+00 1.893526911735534668e+00 -7.302586436271667480e-01 -1.779821217060089111e-01
5.960000000000000000e+03 6.996388244628906250e+01 1.079730892181396484e+01 1.181084036827087402e+00 5.599771022796630859e+00 2.034256458282470703e+00 1.225584626197814941e+00
5.961000000000000000e+03 6.966354370117187500e+01 1.001593017578125000e+01 -1.344669312238693237e-01 6.328981399536132812e+00 1.858354330062866211e+00 1.101068735122680664e+00
5.962000000000000000e+03 6.793637847900390625e+01 6.538627624511718750e+00 -1.846816390752792358e-01 1.138727092742919922e+01 3.360776901245117188e+00 -1.935228347778320312e+00
5.963000000000000000e+03 6.618721771240234375e+01 -1.626128005981445312e+01 -6.231445074081420898e-01 2.200098991394042969e+00 4.730863273143768311e-01 -6.014235615730285645e-01
5.964000000000000000e+03 2.770537948608398438e+01 1.702505874633789062e+01 1.367218643426895142e-01 4.625729084014892578e+00 1.428735375404357910e+00 2.254052400588989258e+00
5.965000000000000000e+03 2.552738428115844727e+00 -3.245170211791992188e+01 -1.628312631510198116e-03 -3.271938562393188477e-01 -9.864665567874908447e-02 3.963722288608551025e-02
5.966000000000000000e+03 3.551886081695556641e+00 -3.332183074951171875e+01 -9.553684853017330170e-03 -1.963909864425659180e-01 -6.178339943289756775e-02 4.346701130270957947e-02
5.967000000000000000e+03 3.977751493453979492e+00 -3.089100646972656250e+01 -1.292878296226263046e-03 -1.413626372814178467e-01 -4.279665648937225342e-02 6.000795960426330566e-02
5.968000000000000000e+03 8.729729652404785156e+00 7.028276443481445312e+00 1.519847631454467773e+00 3.298584461212158203e+00 1.445529580116271973e+00 -2.562278509140014648e+00
5.969000000000000000e+03 5.609281539916992188e+00 3.661061477661132812e+01 6.756728887557983398e-02 1.038219809532165527e+00 3.317361176013946533e-01 1.089728549122810364e-01
5.970000000000000000e+03 7.608143615722656250e+01 -3.658421325683593750e+01 2.106009796261787415e-02 6.387892723083496094e+00 1.922685861587524414e+00 5.823189392685890198e-02
5.971000000000000000e+03 1.835053253173828125e+01 6.316485404968261719e+00 -4.351330399513244629e-01 -7.817307710647583008e-01 -3.650591373443603516e-01 -9.505681991577148438e-01
5.972000000000000000e+03 3.550511550903320312e+01 -2.857337379455566406e+01 -1.030412763357162476e-01 3.795318603515625000e+00 1.107683181762695312e+00 -1.271489709615707397e-01
5.973000000000000000e+03 5.309079360961914062e+01 8.505774140357971191e-01 -2.964240014553070068e-01 1.061352920532226562e+01 3.095131397247314453e+00 -7.163695693016052246e-01
5.974000000000000000e+03 7.814392089843750000e+01 3.791513061523437500e+01 -4.339905921369791031e-03 6.771396160125732422e+00 2.030116796493530273e+00 3.973456565290689468e-03
5.975000000000000000e+03 5.152267074584960938e+01 1.097152996063232422e+01 1.989168524742126465e+00 1.498509407043457031e+01 5.092278957366943359e+00 3.902896642684936523e-01
5.976000000000000000e+03 5.191545104980468750e+01 1.065888118743896484e+01 1.471169590950012207e+00 1.305925750732421875e+01 4.359127998352050781e+00 -3.846349120140075684e-01
5.977000000000000000e+03 5.105303287506103516e+00 -3.520883560180664062e+01 -1.871969550848007202e-02 4.006700962781906128e-02 6.404194049537181854e-03 5.958740785717964172e-02
5.978000000000000000e+03 2.654669761657714844e+01 1.384143066406250000e+01 1.888351202011108398e+00 7.086779594421386719e+00 2.692539215087890625e+00 6.708846688270568848e-01
5.979000000000000000e+03 2.153598403930664062e+01 8.028754234313964844e+00 -2.173325061798095703e+00 4.855586528778076172e+00 8.046784400939941406e-01 1.870391517877578735e-02
5.980000000000000000e+03 5.626134872436523438e+01 -2.249281883239746094e+01 -3.647228777408599854e-01 6.232899188995361328e+00 1.760452985763549805e+00 1.219968438148498535e+00
5.981000000000000000e+03 4.954056930541992188e+01 -1.738500785827636719e+01 -3.038042187690734863e-01 1.224599003791809082e+00 2.762384414672851562e-01 -5.715627670288085938e-01
5.982000000000000000e+03 7.397593688964843750e+01 -8.655890464782714844e+00 5.196613073348999023e-01 9.142634391784667969e+00 2.898688554763793945e+00 1.058141946792602539e+00
5.983000000000000000e+03 7.634171295166015625e+01 9.909990310668945312e+00 -6.851565241813659668e-01 9.929896354675292969e+00 2.773421764373779297e+00 -1.413533568382263184e+00
5.984000000000000000e+03 2.830618095397949219e+01 1.698159408569335938e+01 2.251248210668563843e-01 3.338749170303344727e+00 1.069162249565124512e+00 2.306703805923461914e+00
5.985000000000000000e+03 2.771742439270019531e+01 1.758959197998046875e+01 -4.649536311626434326e-01 4.331770896911621094e+00 1.160045146942138672e+00 2.159153223037719727e+00
5.986000000000000000e+03 6.786567687988281250e+01 8.862955093383789062e+00 -1.616479307413101196e-01 1.132581901550292969e+01 3.349251508712768555e+00 -7.609974145889282227e-01
5.987000000000000000e+03 1.673972892761230469e+01 -6.565434932708740234e+00 -4.833852648735046387e-01 8.353700488805770874e-02 -1.199544742703437805e-01 1.501036584377288818e-01
5.988000000000000000e+03 4.147718811035156250e+01 -2.526325225830078125e+00 -4.287831950932741165e-03 3.205369949340820312e+00 9.603246450424194336e-01 -2.222634077072143555e+00
5.989000000000000000e+03 3.835120391845703125e+01 -3.742389678955078125e+00 -1.443448424339294434e+00 4.194599151611328125e+00 8.253452777862548828e-01 -2.410823583602905273e+00
5.990000000000000000e+03 1.112936115264892578e+01 1.148412799835205078e+01 -1.205909490585327148e+00 6.963475942611694336e-01 -1.528685688972473145e-01 -4.502461850643157959e-01
5.991000000000000000e+03 6.760555267333984375e+01 9.859751701354980469e+00 1.083365321159362793e+00 1.158493709564208984e+01 3.800490617752075195e+00 -9.682617336511611938e-02
5.992000000000000000e+03 3.608156204223632812e+01 5.195780277252197266e+00 1.037160307168960571e-01 1.033170413970947266e+01 3.130626201629638672e+00 1.519148230552673340e+00
5.993000000000000000e+03 3.512313842773437500e+01 4.149126052856445312e+00 1.878089904785156250e+00 7.254090309143066406e+00 2.739654064178466797e+00 1.467371463775634766e+00
5.994000000000000000e+03 2.807517528533935547e+00 -2.185900688171386719e+01 1.496344804763793945e-02 -4.158009588718414307e-01 -1.202512532472610474e-01 1.767368230503052473e-04
5.995000000000000000e+03 1.860782265663146973e+00 6.903356075286865234e+00 2.542861104011535645e-01 -5.648297071456909180e-01 -9.316308051347732544e-02 -2.806663811206817627e-01
5.996000000000000000e+03 7.755973052978515625e+01 3.984365463256835938e+00 3.196715712547302246e-01 1.148745059967041016e+01 3.542136669158935547e+00 -2.445523023605346680e+00
5.997000000000000000e+03 7.820692443847656250e+01 3.799411773681640625e+00 4.822788760066032410e-02 1.126863098144531250e+01 3.395057678222656250e+00 -2.387104511260986328e+00
5.998000000000000000e+03 7.393292236328125000e+01 -1.846387290954589844e+01 -8.486592769622802734e-01 8.147050857543945312e+00 2.189517498016357422e+00 7.281696796417236328e-01
5.999000000000000000e+03 7.862214088439941406e+00 5.569282531738281250e+00 3.929962158203125000e+00 7.821467518806457520e-01 1.413632631301879883e+00 -1.826624631881713867e+00
6.000000000000000000e+03 7.646316528320312500e+01 1.042179584503173828e+01 -1.104134678840637207e+00 9.537429809570312500e+00 2.529988765716552734e+00 -1.157082557678222656e+00
6.001000000000000000e+03 7.635083770751953125e+01 1.104026031494140625e+01 -6.722563505172729492e-01 8.428500175476074219e+00 2.326873302459716797e+00 -1.319543838500976562e+00
6.002000000000000000e+03 1.367425346374511719e+01 -4.648387432098388672e+00 -3.034610152244567871e-01 1.189929470419883728e-01 -5.534042418003082275e-02 4.110578820109367371e-02
6.003000000000000000e+03 4.496065616607666016e+00 -3.241424560546875000e+01 -1.242578029632568359e-02 -5.602855607867240906e-02 -2.053630165755748749e-02 6.093795225024223328e-02
6.004000000000000000e+03 3.656196975708007812e+01 -7.381814718246459961e-01 -1.072032928466796875e+00 7.476082801818847656e+00 1.921214938163757324e+00 -1.958024501800537109e-01
6.005000000000000000e+03 3.561992263793945312e+01 1.868160814046859741e-01 2.372708559036254883e+00 4.559233665466308594e+00 2.079582691192626953e+00 1.420392274856567383e+00
6.006000000000000000e+03 6.764494323730468750e+01 1.510009002685546875e+01 2.390413172543048859e-02 8.850552558898925781e+00 2.662336826324462891e+00 6.474576592445373535e-01
6.007000000000000000e+03 2.348524475097656250e+01 2.236738395690917969e+01 -7.767010927200317383e-01 1.871188759803771973e+00 3.283463120460510254e-01 -1.022176742553710938e+00
6.008000000000000000e+03 2.554220581054687500e+01 1.071263217926025391e+01 -3.713549375534057617e+00 7.288659572601318359e+00 1.072533130645751953e+00 1.008832931518554688e+00
6.009000000000000000e+03 5.824925422668457031e+00 3.528268432617187500e+01 7.129303365945816040e-02 1.044424653053283691e+00 3.347153067588806152e-01 1.374442726373672485e-01
6.010000000000000000e+03 4.734349822998046875e+01 1.812357139587402344e+01 9.900336265563964844e-01 2.861649274826049805e+00 1.155504941940307617e+00 -5.134594440460205078e-01
6.011000000000000000e+03 5.250510025024414062e+01 -2.308584976196289062e+01 8.948487043380737305e-01 3.134252786636352539e+00 1.208730459213256836e+00 5.424093008041381836e-01
6.012000000000000000e+03 4.521005630493164062e+01 -1.320737266540527344e+01 5.024731755256652832e-01 5.564409732818603516e+00 1.820064902305603027e+00 -6.103541254997253418e-01
6.013000000000000000e+03 5.750781631469726562e+01 -1.691045999526977539e+00 -8.954475522041320801e-01 2.788136720657348633e+00 5.678067803382873535e-01 -3.171156167984008789e+00
6.014000000000000000e+03 5.884638595581054688e+01 -2.843913316726684570e+00 1.447531729936599731e-01 4.174561977386474609e+00 1.295794486999511719e+00 -1.378060221672058105e+00
6.015000000000000000e+03 6.229785919189453125e+01 -2.889581298828125000e+01 1.169882640242576599e-01 5.469711780548095703e+00 1.676010012626647949e+00 -2.268476933240890503e-01
6.016000000000000000e+03 3.910312652587890625e+01 1.150758934020996094e+01 3.777306556701660156e+00 8.901780128479003906e+00 3.803725957870483398e+00 2.384422063827514648e+00
6.017000000000000000e+03 5.195137786865234375e+01 -6.431437283754348755e-02 -1.114453911781311035e+00 7.348917484283447266e+00 1.870339155197143555e+00 3.089638948440551758e-01
6.018000000000000000e+03 4.927403259277343750e+01 -7.534397244453430176e-01 -5.363189578056335449e-01 1.950791358947753906e+00 4.243417382240295410e-01 2.451044797897338867e+00
6.019000000000000000e+03 2.951384925842285156e+01 1.617967796325683594e+01 6.569282412528991699e-01 1.102558612823486328e+00 5.278460979461669922e-01 1.373351335525512695e+00
6.020000000000000000e+03 3.009580993652343750e+01 1.617929458618164062e+01 3.647274672985076904e-01 4.177477955818176270e-01 2.347425669431686401e-01 1.131796479225158691e+00
6.021000000000000000e+03 1.966272354125976562e+01 5.820826530456542969e+00 2.490482330322265625e+00 9.576987028121948242e-01 1.034454345703125000e+00 -5.057916045188903809e-02
6.022000000000000000e+03 4.289491653442382812e+01 -3.362263917922973633e+00 1.898395299911499023e+00 6.104146480560302734e+00 2.400762557983398438e+00 -8.068899512290954590e-01
6.023000000000000000e+03 7.434349822998046875e+01 -1.176344490051269531e+01 1.277577280998229980e+00 1.029808807373046875e+01 3.472699642181396484e+00 1.010022640228271484e+00
6.024000000000000000e+03 7.778219604492187500e+01 -3.539443969726562500e+01 8.235670626163482666e-03 6.516590595245361328e+00 1.957447886466979980e+00 4.432554543018341064e-02
6.025000000000000000e+03 7.220039367675781250e+00 6.592933654785156250e+00 2.177505970001220703e+00 1.112344145774841309e+00 9.869550466537475586e-01 -2.023921966552734375e+00
6.026000000000000000e+03 2.063895606994628906e+01 -9.296931266784667969e+00 -3.739391639828681946e-02 -9.973412007093429565e-02 -4.113841056823730469e-02 2.764309644699096680e-01
6.027000000000000000e+03 7.802194976806640625e+01 1.284649252891540527e+00 -1.221354961395263672e+00 1.180647277832031250e+01 3.175535440444946289e+00 -1.021206259727478027e+00
6.028000000000000000e+03 4.150435638427734375e+01 -2.111561393737792969e+01 -4.389019310474395752e-01 5.642220497131347656e+00 1.560995578765869141e+00 -1.039448007941246033e-01
6.029000000000000000e+03 6.636978149414062500e+01 4.944741249084472656e+00 9.212197065353393555e-01 8.301853179931640625e+00 2.766921758651733398e+00 -1.842123419046401978e-01
6.030000000000000000e+03 4.193964767456054688e+01 -3.199059963226318359e+00 1.412987709045410156e+00 4.594708919525146484e+00 1.802308917045593262e+00 -1.315733432769775391e+00
6.031000000000000000e+03 5.692709732055664062e+01 -2.400385284423828125e+01 -2.588972151279449463e-01 5.934467315673828125e+00 1.702671051025390625e+00 6.118612885475158691e-01
6.032000000000000000e+03 7.789202880859375000e+01 5.060113668441772461e-01 -1.192306399345397949e+00 1.151545238494873047e+01 3.096943855285644531e+00 -2.366202324628829956e-01
6.033000000000000000e+03 7.711227416992187500e+01 1.110820960998535156e+01 -7.627533078193664551e-01 8.741669654846191406e+00 2.393675088882446289e+00 -6.315375566482543945e-01
6.034000000000000000e+03 3.689611053466796875e+01 -2.117038536071777344e+01 5.129158496856689453e-01 3.436742305755615234e+00 1.184897422790527344e+00 7.135862857103347778e-02
6.035000000000000000e+03 3.773734283447265625e+01 -2.123196601867675781e+01 4.129496216773986816e-01 3.755731105804443359e+00 1.250604271888732910e+00 3.506983816623687744e-01
6.036000000000000000e+03 1.668644332885742188e+01 -7.416614055633544922e+00 -4.226571321487426758e-01 1.767693459987640381e-01 -7.376633584499359131e-02 3.392419591546058655e-02
6.037000000000000000e+03 2.888910102844238281e+01 -6.573409080505371094e+00 1.411779880523681641e+00 8.083395957946777344e+00 2.848552942276000977e+00 3.005461692810058594e-01
6.038000000000000000e+03 2.830457878112792969e+01 -6.411404132843017578e+00 1.887220978736877441e+00 9.640840530395507812e+00 3.458418369293212891e+00 7.847538590431213379e-01
6.039000000000000000e+03 5.374951171875000000e+01 -2.393487453460693359e+00 -3.539095878601074219e+00 6.665687084197998047e+00 9.379773736000061035e-01 -2.829350233078002930e+00
6.040000000000000000e+03 4.952788162231445312e+01 -2.281033396720886230e-01 -2.482329010963439941e-01 2.622317075729370117e+00 7.122252583503723145e-01 2.231874465942382812e+00
6.041000000000000000e+03 2.674034118652343750e+00 2.221238327026367188e+01 -5.203339457511901855e-02 1.498472094535827637e+00 4.339316189289093018e-01 8.357447385787963867e-02
6.042000000000000000e+03 2.508861064910888672e+00 2.334139823913574219e+01 -2.787084318697452545e-02 1.498395800590515137e+00 4.411574900150299072e-01 1.086472645401954651e-01
6.043000000000000000e+03 2.526423072814941406e+01 2.766090774536132812e+01 -3.587576448917388916e-01 2.060143232345581055e+00 5.104156732559204102e-01 -4.100243747234344482e-01
6.044000000000000000e+03 3.494438409805297852e+00 9.586266517639160156e+00 8.682513236999511719e-02 4.977290332317352295e-01 1.753662526607513428e-01 -1.029893755912780762e+00
6.045000000000000000e+03 2.740037441253662109e+00 9.397681236267089844e+00 1.209877431392669678e-01 2.541297972202301025e-01 1.125352606177330017e-01 -8.484944701194763184e-01
6.046000000000000000e+03 7.832209014892578125e+01 -2.910929918289184570e+00 -1.595966666936874390e-01 1.135471630096435547e+01 3.358536005020141602e+00 1.087231516838073730e+00
6.047000000000000000e+03 7.755545043945312500e+01 -2.528790473937988281e+00 -3.386163711547851562e-01 1.005225181579589844e+01 2.914090633392333984e+00 1.312000870704650879e+00
6.048000000000000000e+03 7.472724914550781250e+01 -8.371566772460937500e+00 3.623924553394317627e-01 8.774606704711914062e+00 2.741099834442138672e+00 1.462257862091064453e+00
6.049000000000000000e+03 5.096543502807617188e+01 -2.334462738037109375e+01 7.771180272102355957e-01 3.040050745010375977e+00 1.145150661468505859e+00 -1.572529673576354980e-01
6.050000000000000000e+03 6.491571807861328125e+01 -1.701850318908691406e+01 -7.593771815299987793e-02 3.567301034927368164e+00 1.047408938407897949e+00 -1.047702908515930176e+00
6.051000000000000000e+03 2.163887405395507812e+01 -1.339107704162597656e+01 9.877900481224060059e-01 2.221877574920654297e+00 9.629002213478088379e-01 1.703878641128540039e+00
6.052000000000000000e+03 4.532262420654296875e+01 -1.770872116088867188e+01 4.213480353355407715e-01 4.938755989074707031e+00 1.608031272888183594e+00 -1.798868417739868164e+00
6.053000000000000000e+03 5.380274295806884766e+00 -2.757049942016601562e+01 1.249918341636657715e-02 -2.190999500453472137e-02 -2.823243616148829460e-03 7.550586014986038208e-02
6.054000000000000000e+03 4.492954254150390625e+00 -2.638234519958496094e+01 2.539534121751785278e-02 -1.526556611061096191e-01 -3.817809373140335083e-02 5.188960582017898560e-02
6.055000000000000000e+03 2.254943466186523438e+01 2.307022476196289062e+01 -6.093569397926330566e-01 1.496101140975952148e+00 2.660232782363891602e-01 -8.906321525573730469e-01
6.056000000000000000e+03 5.380087280273437500e+01 1.044607353210449219e+01 3.374159336090087891e-01 9.299518585205078125e+00 2.891080141067504883e+00 1.121518313884735107e-01
6.057000000000000000e+03 7.175979614257812500e+01 -2.011740493774414062e+01 -1.313680261373519897e-01 6.017436504364013672e+00 1.765820503234863281e+00 1.614186644554138184e+00
6.058000000000000000e+03 2.643075370788574219e+01 -2.744364356994628906e+01 -2.776158154010772705e-01 3.114964485168457031e+00 8.512046337127685547e-01 2.278986945748329163e-02
6.059000000000000000e+03 6.978186798095703125e+01 -2.202792644500732422e+00 -3.662850618362426758e+00 4.589009761810302734e+00 2.778477966785430908e-01 -1.910446763038635254e+00
6.060000000000000000e+03 4.161014556884765625e+01 -3.666809558868408203e+00 1.448106288909912109e+00 4.851320266723632812e+00 1.889827966690063477e+00 -1.778481364250183105e+00
6.061000000000000000e+03 5.586848449707031250e+01 1.134031295776367188e+01 2.643222808837890625e-01 4.631626129150390625e+00 1.468784451484680176e+00 9.879646301269531250e-01
6.062000000000000000e+03 7.254670715332031250e+01 -2.045084571838378906e+01 -3.618881106376647949e-01 6.555703163146972656e+00 1.858144521713256836e+00 1.267882466316223145e+00
6.063000000000000000e+03 7.269258117675781250e+01 -1.986582374572753906e+01 -4.043298661708831787e-01 6.822576999664306641e+00 1.925474166870117188e+00 1.372396111488342285e+00
6.064000000000000000e+03 2.496932411193847656e+01 1.083531665802001953e+01 -3.899451017379760742e+00 7.886159896850585938e+00 1.196012616157531738e+00 1.368448019027709961e+00
6.065000000000000000e+03 3.077635383605957031e+01 1.664540863037109375e+01 1.734177470207214355e-01 4.789644479751586914e-02 6.639426201581954956e-02 6.713734269142150879e-01
6.066000000000000000e+03 3.023074340820312500e+01 1.673896408081054688e+01 3.668685555458068848e-01 7.479137182235717773e-01 3.344346880912780762e-01 1.115301370620727539e+00
6.067000000000000000e+03 3.348968982696533203e+00 2.026431083679199219e+01 -1.216878294944763184e-01 1.432780146598815918e+00 3.933276832103729248e-01 -5.815871991217136383e-03
6.068000000000000000e+03 7.716754913330078125e+01 1.256219005584716797e+01 -2.941024303436279297e-01 7.679334163665771484e+00 2.215569496154785156e+00 -7.453774809837341309e-01
6.069000000000000000e+03 2.885819816589355469e+01 -5.741253376007080078e+00 1.100453376770019531e+00 8.767497062683105469e+00 2.960385322570800781e+00 9.482879638671875000e-01
6.070000000000000000e+03 4.403744125366210938e+01 -1.113362693786621094e+01 -1.307165473699569702e-01 8.061369895935058594e+00 2.379195928573608398e+00 2.790100276470184326e-01
6.071000000000000000e+03 2.097059631347656250e+01 -1.294617462158203125e+01 9.808660149574279785e-01 1.593305826187133789e+00 7.722515463829040527e-01 1.311122894287109375e+00
6.072000000000000000e+03 4.864376068115234375e+01 -1.745991706848144531e+01 9.708376601338386536e-03 1.903086066246032715e+00 5.738383531570434570e-01 -1.029115676879882812e+00
6.073000000000000000e+03 4.473627567291259766e+00 6.056011199951171875e+00 1.210671663284301758e+00 -2.515359520912170410e-01 2.877407371997833252e-01 -5.069248080253601074e-01
6.074000000000000000e+03 5.440658187866210938e+01 -2.913900184631347656e+01 1.864580363035202026e-01 4.724193096160888672e+00 1.473195314407348633e+00 1.714579313993453979e-01
6.075000000000000000e+03 5.489689636230468750e+01 -2.786190223693847656e+01 1.588837355375289917e-01 4.850058555603027344e+00 1.502682566642761230e+00 2.782071530818939209e-01
6.076000000000000000e+03 3.554871749877929688e+01 -1.618413352966308594e+01 2.641068212687969208e-02 2.053857803344726562e+00 6.240805983543395996e-01 -9.687454700469970703e-01
6.077000000000000000e+03 3.584372282028198242e+00 -1.299312210083007812e+01 1.718160882592201233e-02 -2.369390726089477539e-01 -6.592723727226257324e-02 -1.360728442668914795e-01
6.078000000000000000e+03 2.766976594924926758e+00 -1.303806400299072266e+01 1.381519343703985214e-02 -3.000066578388214111e-01 -8.585743606090545654e-02 -1.136449500918388367e-01
6.079000000000000000e+03 7.532514953613281250e+01 -4.006430149078369141e+00 -3.918527662754058838e-01 7.273883819580078125e+00 2.064609289169311523e+00 1.171485662460327148e+00
6.080000000000000000e+03 2.789609336853027344e+01 -1.244188404083251953e+01 -1.916378289461135864e-01 7.154099941253662109e+00 2.088738679885864258e+00 -1.324427604675292969e+00
6.081000000000000000e+03 2.764717674255371094e+01 -4.597795009613037109e+00 1.921902537345886230e+00 1.023521327972412109e+01 3.647134542465209961e+00 2.026208400726318359e+00
6.082000000000000000e+03 6.387068939208984375e+01 2.566133499145507812e+00 -1.392397046089172363e+00 4.811050891876220703e+00 1.025596141815185547e+00 2.503512144088745117e+00
6.083000000000000000e+03 5.313239288330078125e+01 -2.999362230300903320e+00 -3.782590866088867188e+00 5.775577545166015625e+00 5.978959798812866211e-01 -1.953032732009887695e+00
6.084000000000000000e+03 2.100038146972656250e+01 2.788988494873046875e+01 -1.195748820900917053e-01 1.299866080284118652e+00 3.540873527526855469e-01 -3.974098265171051025e-01
6.085000000000000000e+03 2.127424430847167969e+01 2.919032859802246094e+01 -5.434620380401611328e-02 1.370334863662719727e+00 3.947966098785400391e-01 -3.390383720397949219e-01
6.086000000000000000e+03 2.222141265869140625e+01 2.746586227416992188e+01 -1.948726773262023926e-01 1.467529058456420898e+00 3.817969262599945068e-01 -4.715629220008850098e-01
6.087000000000000000e+03 7.035157012939453125e+01 -2.521226406097412109e+00 -2.873060226440429688e+00 4.382777690887451172e+00 4.529152810573577881e-01 -2.082098722457885742e+00
6.088000000000000000e+03 2.610396575927734375e+01 2.571688461303710938e+01 -5.775497555732727051e-01 2.357537031173706055e+00 5.339961647987365723e-01 -4.121509492397308350e-01
6.089000000000000000e+03 7.501502990722656250e+01 -9.178436279296875000e+00 6.383155584335327148e-01 9.050635337829589844e+00 2.906685352325439453e+00 1.446280837059020996e+00
6.090000000000000000e+03 5.931345748901367188e+01 2.660413551330566406e+01 2.342393100261688232e-01 5.051228046417236328e+00 1.585640192031860352e+00 3.148081302642822266e-01
6.091000000000000000e+03 4.680832672119140625e+01 -2.183277511596679688e+01 1.267824023962020874e-01 3.910477399826049805e+00 1.211177945137023926e+00 -1.316741704940795898e+00
6.092000000000000000e+03 5.501164245605468750e+01 -2.577259063720703125e+01 1.883633881807327271e-01 4.760389328002929688e+00 1.484625816345214844e+00 5.660909414291381836e-01
6.093000000000000000e+03 5.497259902954101562e+01 -5.128577709197998047e+00 -1.533721923828125000e+00 5.185544013977050781e+00 1.095546603202819824e+00 -1.718721866607666016e+00
6.094000000000000000e+03 5.762746047973632812e+01 -3.375024318695068359e+00 -2.420241534709930420e-01 4.364238262176513672e+00 1.236664295196533203e+00 -2.135029792785644531e+00
6.095000000000000000e+03 7.493765258789062500e+01 -2.041487312316894531e+01 -4.616860747337341309e-01 7.412774085998535156e+00 2.085326433181762695e+00 4.699392020702362061e-01
6.096000000000000000e+03 3.312132358551025391e+00 1.091969299316406250e+01 -1.094404831528663635e-01 7.287924289703369141e-01 1.858055740594863892e-01 -9.577322602272033691e-01
6.097000000000000000e+03 3.383266448974609375e+00 1.651059532165527344e+01 -2.256136536598205566e-01 1.349163889884948730e+00 3.370650708675384521e-01 -3.284632563591003418e-01
6.098000000000000000e+03 4.071809291839599609e+00 1.662983322143554688e+01 -3.077203929424285889e-01 1.316219091415405273e+00 3.025496006011962891e-01 -3.434943854808807373e-01
6.099000000000000000e+03 3.132429885864257812e+01 -1.326743221282958984e+01 2.692454159259796143e-01 3.890932321548461914e+00 1.248053312301635742e+00 -1.760428428649902344e+00
6.100000000000000000e+03 3.696303844451904297e+00 -2.030535888671875000e+01 3.770571574568748474e-02 -3.069191873073577881e-01 -8.076404035091400146e-02 -2.301492355763912201e-02
6.101000000000000000e+03 5.084086608886718750e+01 2.398948097229003906e+01 -2.410441935062408447e-01 5.250118732452392578e+00 1.502722263336181641e+00 1.558867543935775757e-01
6.102000000000000000e+03 7.441320037841796875e+01 1.488572502136230469e+01 8.322843313217163086e-01 5.843568325042724609e+00 2.002755880355834961e+00 -6.353221535682678223e-01
6.103000000000000000e+03 3.484560012817382812e+01 -1.716568374633789062e+01 2.949069738388061523e-01 2.452973604202270508e+00 8.243641853332519531e-01 -1.011590480804443359e+00
6.104000000000000000e+03 7.643381500244140625e+01 -3.163476705551147461e+00 -3.813988268375396729e-01 8.377898216247558594e+00 2.398949861526489258e+00 1.378597497940063477e+00
6.105000000000000000e+03 5.514389419555664062e+01 -2.673968696594238281e+01 1.581900566816329956e-01 4.888801574707031250e+00 1.514097571372985840e+00 4.223617017269134521e-01
6.106000000000000000e+03 6.718885421752929688e+00 6.251161098480224609e+00 2.462657690048217773e+00 5.563444495201110840e-01 9.057006835937500000e-01 -1.585615515708923340e+00
6.107000000000000000e+03 7.744831085205078125e+01 1.434989356994628906e+01 3.870433196425437927e-02 7.160890102386474609e+00 2.159878253936767578e+00 -5.516561269760131836e-01
6.108000000000000000e+03 3.818979501724243164e+00 2.163409805297851562e+01 -1.106730699539184570e-01 1.368447065353393555e+00 3.773322105407714844e-01 7.575664669275283813e-02
6.109000000000000000e+03 7.125357055664062500e+01 -4.128167629241943359e+00 -1.782893180847167969e+00 4.627008914947509766e+00 8.532347083091735840e-01 -1.178864836692810059e+00
6.110000000000000000e+03 7.147983551025390625e+01 -4.690332889556884766e+00 -1.473997950553894043e+00 4.905842781066894531e+00 1.029553413391113281e+00 -8.881782889366149902e-01
6.111000000000000000e+03 6.483813476562500000e+01 2.787308454513549805e+00 -4.329152405261993408e-01 5.346549987792968750e+00 1.474090337753295898e+00 2.318925142288208008e+00
6.112000000000000000e+03 4.183195114135742188e+00 -2.272892379760742188e+01 3.374752774834632874e-02 -2.333120852708816528e-01 -5.986936390399932861e-02 1.543889008462429047e-02
6.113000000000000000e+03 3.315584659576416016e+00 -7.759059906005859375e+00 -1.574889197945594788e-02 -1.205622479319572449e-01 -4.089334234595298767e-02 -1.274695694446563721e-01
6.114000000000000000e+03 5.939023590087890625e+01 2.779384231567382812e+01 1.723271459341049194e-01 5.164409160614013672e+00 1.601020812988281250e+00 2.554767727851867676e-01
6.115000000000000000e+03 3.465690135955810547e+00 -1.144970130920410156e+01 5.869720131158828735e-03 -2.081862688064575195e-01 -6.069496273994445801e-02 -1.439392119646072388e-01
6.116000000000000000e+03 2.809459304809570312e+01 2.728743743896484375e+01 -4.162748456001281738e-01 2.486808538436889648e+00 6.211600899696350098e-01 -2.446212470531463623e-01
6.117000000000000000e+03 4.330408477783203125e+01 2.383157730102539062e+01 -1.731639057397842407e-01 4.149152755737304688e+00 1.192796707153320312e+00 2.527807056903839111e-01
6.118000000000000000e+03 6.853348541259765625e+01 1.489627456665039062e+01 6.023489236831665039e-01 8.099576950073242188e+00 2.610577821731567383e+00 1.163643598556518555e+00
6.119000000000000000e+03 7.378061676025390625e+01 -1.971658515930175781e+01 -5.511458516120910645e-01 7.413168907165527344e+00 2.058606863021850586e+00 9.200141429901123047e-01
6.120000000000000000e+03 6.097735214233398438e+01 -1.518048858642578125e+01 3.283300697803497314e-01 7.296633243560791016e+00 2.287489175796508789e+00 -1.631426364183425903e-01
6.121000000000000000e+03 5.380846786499023438e+01 -2.721494102478027344e+01 3.062598705291748047e-01 4.491233348846435547e+00 1.439247965812683105e+00 3.263292908668518066e-01
6.122000000000000000e+03 7.346117401123046875e+01 -1.996460914611816406e+01 -4.642751216888427734e-01 7.152620792388916016e+00 2.006503820419311523e+00 9.741730093955993652e-01
6.123000000000000000e+03 7.462137603759765625e+01 -2.114530944824218750e+01 -4.059832394123077393e-01 7.119550704956054688e+00 2.014070272445678711e+00 5.569763183593750000e-01
6.124000000000000000e+03 4.477539825439453125e+01 2.151018905639648438e+01 1.699496060609817505e-01 3.950861215591430664e+00 1.236243247985839844e+00 3.509901165962219238e-01
6.125000000000000000e+03 4.383676528930664062e+01 1.967585754394531250e+01 2.694424688816070557e-01 3.628701448440551758e+00 1.169443130493164062e+00 9.031736254692077637e-01
6.126000000000000000e+03 4.387112808227539062e+01 2.068105316162109375e+01 1.421267986297607422e-01 3.858968734741210938e+00 1.200328707695007324e+00 6.521647572517395020e-01
6.127000000000000000e+03 1.573573589324951172e+01 -8.526874542236328125e+00 -2.720165550708770752e-01 2.571516931056976318e-01 -4.459458868950605392e-03 -5.884002894163131714e-02
6.128000000000000000e+03 1.601082992553710938e+01 -9.236905097961425781e+00 -1.189592555165290833e-01 2.839466035366058350e-01 4.949620366096496582e-02 -1.142806410789489746e-01
6.129000000000000000e+03 3.698404693603515625e+01 2.530901336669921875e+01 -4.213839173316955566e-01 3.584949016571044922e+00 9.490694999694824219e-01 -1.720943301916122437e-01
6.130000000000000000e+03 5.848671722412109375e+01 -2.631458663940429688e+01 -1.428223401308059692e-01 5.667899131774902344e+00 1.657522916793823242e+00 3.589143976569175720e-02
6.131000000000000000e+03 3.025941658020019531e+01 -1.284364414215087891e+01 2.188740670680999756e-01 4.778176307678222656e+00 1.499115109443664551e+00 -1.879643559455871582e+00
6.132000000000000000e+03 2.180501556396484375e+01 2.633074760437011719e+01 -2.575543522834777832e-01 1.420756936073303223e+00 3.489607870578765869e-01 -5.267113447189331055e-01
6.133000000000000000e+03 6.645653533935546875e+01 2.075084877014160156e+01 1.142868399620056152e-02 6.031645298004150391e+00 1.812922239303588867e+00 -5.910485386848449707e-01
6.134000000000000000e+03 5.163671875000000000e+01 -2.744608306884765625e+01 4.251621067523956299e-01 4.121892452239990234e+00 1.364116430282592773e+00 2.657429687678813934e-02
6.135000000000000000e+03 4.439915084838867188e+01 1.949008560180664062e+01 4.397612512111663818e-01 3.460736274719238281e+00 1.170149326324462891e+00 8.060726523399353027e-01
6.136000000000000000e+03 1.272103404998779297e+01 1.629714393615722656e+01 -1.244600892066955566e+00 3.587894439697265625e-01 -2.657434344291687012e-01 -1.630802601575851440e-01
6.137000000000000000e+03 5.051815032958984375e+00 2.002665138244628906e+01 -2.397082746028900146e-01 1.264598369598388672e+00 3.074670433998107910e-01 -1.157307345420122147e-02
6.138000000000000000e+03 2.148273658752441406e+01 2.376489830017089844e+01 -3.676801621913909912e-01 1.061629652976989746e+00 2.081848531961441040e-01 -7.481470108032226562e-01
6.139000000000000000e+03 4.874067306518554688e+00 1.614980697631835938e+01 -4.375388324260711670e-01 1.301690816879272461e+00 2.592456042766571045e-01 -4.130816161632537842e-01
6.140000000000000000e+03 4.669951915740966797e+00 1.727515411376953125e+01 -3.501723110675811768e-01 1.293280124664306641e+00 2.829323410987854004e-01 -2.703785002231597900e-01
6.141000000000000000e+03 6.378264617919921875e+01 2.200393867492675781e+01 4.355348646640777588e-01 5.026246547698974609e+00 1.638534426689147949e+00 -4.080876410007476807e-01
6.142000000000000000e+03 6.387724685668945312e+01 2.114969062805175781e+01 4.846658706665039062e-01 4.885694503784179688e+00 1.611108064651489258e+00 -5.925943851470947266e-01
6.143000000000000000e+03 4.165863037109375000e+01 1.471235179901123047e+01 8.068382740020751953e-01 4.065890312194824219e+00 1.461818575859069824e+00 2.745847940444946289e+00
6.144000000000000000e+03 2.265489959716796875e+01 -1.640659523010253906e+01 -4.640225786715745926e-03 3.355754613876342773e+00 1.005334258079528809e+00 1.136995434761047363e+00
6.145000000000000000e+03 2.453980636596679688e+01 -1.825320625305175781e+01 -3.895649015903472900e-01 3.942217826843261719e+00 1.065795898437500000e+00 5.236660242080688477e-01
6.146000000000000000e+03 1.952866744995117188e+01 -1.161242961883544922e+01 8.351979255676269531e-01 5.183731913566589355e-01 4.060713350772857666e-01 5.827724933624267578e-01
6.147000000000000000e+03 3.079332160949707031e+01 -1.839647102355957031e+01 -2.018487751483917236e-01 3.884715318679809570e+00 1.104859948158264160e+00 -9.473426342010498047e-01
6.148000000000000000e+03 3.755273437500000000e+01 2.440628433227539062e+01 -4.849123656749725342e-01 3.757984638214111328e+00 9.819216728210449219e-01 -1.291137784719467163e-01
6.149000000000000000e+03 4.201180648803710938e+01 2.261079216003417969e+01 -3.059713542461395264e-01 4.160969734191894531e+00 1.156499505043029785e+00 3.883280158042907715e-01
6.150000000000000000e+03 4.132356643676757812e+01 -2.185125350952148438e+01 -3.802513480186462402e-01 5.403552532196044922e+00 1.506990313529968262e+00 -1.495603565126657486e-02
6.151000000000000000e+03 5.632062911987304688e+01 1.755999946594238281e+01 5.817837715148925781e-01 4.869348049163818359e+00 1.635339617729187012e+00 2.029549837112426758e+00
6.152000000000000000e+03 3.118979454040527344e+01 2.545820617675781250e+01 -3.536892235279083252e-01 2.779666423797607422e+00 7.277931571006774902e-01 -1.044956594705581665e-01
6.153000000000000000e+03 4.854538440704345703e+00 2.535653495788574219e+01 -3.838830068707466125e-02 1.217854976654052734e+00 3.538399934768676758e-01 2.007028758525848389e-01
6.154000000000000000e+03 7.543679046630859375e+01 -4.609633445739746094e+00 -3.275579810142517090e-01 7.554626941680908203e+00 2.168120622634887695e+00 1.311069011688232422e+00
6.155000000000000000e+03 1.551011562347412109e+01 -2.485475540161132812e+01 4.522820189595222473e-02 1.391843557357788086e+00 4.311215281486511230e-01 3.072982132434844971e-01
6.156000000000000000e+03 6.216859817504882812e+00 1.037304401397705078e+01 -3.045091629028320312e-01 1.441311717033386230e+00 3.410407602787017822e-01 -1.411997675895690918e+00
6.157000000000000000e+03 5.275936889648437500e+01 2.054839897155761719e+01 -4.139621257781982422e-01 6.221915721893310547e+00 1.742385983467102051e+00 7.004292607307434082e-01
6.158000000000000000e+03 6.101778793334960938e+01 -1.615784454345703125e+01 5.018720030784606934e-01 7.044294834136962891e+00 2.263849973678588867e+00 -4.715429246425628662e-01
6.159000000000000000e+03 4.205495834350585938e+01 1.457120037078857422e+01 9.012659192085266113e-01 3.332626104354858398e+00 1.270167589187622070e+00 2.493763685226440430e+00
6.160000000000000000e+03 5.342080688476562500e+01 2.416762924194335938e+01 -1.639202237129211426e-01 5.388740539550781250e+00 1.567446112632751465e+00 4.951801598072052002e-01
6.161000000000000000e+03 3.509375762939453125e+01 -1.664331817626953125e+01 3.046006560325622559e-01 2.226141214370727539e+00 7.592225670814514160e-01 -1.187819361686706543e+00
6.162000000000000000e+03 7.677365112304687500e+01 2.739829063415527344e+01 -2.560422522947192192e-03 6.673446178436279297e+00 2.001265764236450195e+00 2.569795958697795868e-02
6.163000000000000000e+03 3.994292974472045898e+00 -8.525547981262207031e+00 -1.623281463980674744e-02 -1.106546074151992798e-01 -3.806622698903083801e-02 -1.489448845386505127e-01
6.164000000000000000e+03 4.865790557861328125e+01 -2.528570556640625000e+01 4.310954213142395020e-01 3.680160760879516602e+00 1.233376860618591309e+00 -6.036881208419799805e-01
6.165000000000000000e+03 2.768554687500000000e+01 2.621733856201171875e+01 -5.190660953521728516e-01 2.520325183868408203e+00 6.003776788711547852e-01 -2.635203897953033447e-01
6.166000000000000000e+03 2.902196693420410156e+01 2.689773941040039062e+01 -4.199653565883636475e-01 2.594470500946044922e+00 6.523514986038208008e-01 -2.068995386362075806e-01
6.167000000000000000e+03 7.595409393310546875e+01 -7.968779087066650391e+00 2.493874728679656982e-01 8.706445693969726562e+00 2.686749935150146484e+00 1.775637269020080566e+00
6.168000000000000000e+03 7.570993804931640625e+01 -5.802393913269042969e+00 -1.955364644527435303e-01 8.326763153076171875e+00 2.439368009567260742e+00 1.577501535415649414e+00
6.169000000000000000e+03 5.064886569976806641e+00 -1.133368682861328125e+01 1.211890205740928650e-02 -1.086606159806251526e-01 -2.896251343190670013e-02 -1.772135496139526367e-01
6.170000000000000000e+03 6.124574661254882812e+01 -1.254934215545654297e+01 -2.805005609989166260e-01 7.760183334350585938e+00 2.243904829025268555e+00 6.504894495010375977e-01
6.171000000000000000e+03 5.953382110595703125e+01 1.929089164733886719e+01 1.004615426063537598e+00 3.597342252731323242e+00 1.380587339401245117e+00 7.840600609779357910e-01
6.172000000000000000e+03 4.457426834106445312e+01 -2.421254348754882812e+01 -1.426294147968292236e-01 4.493353843688964844e+00 1.305217385292053223e+00 -8.443666696548461914e-01
6.173000000000000000e+03 1.467877483367919922e+01 2.411912918090820312e+01 -1.795471310615539551e-01 5.392091274261474609e-01 1.078986003994941711e-01 4.195406660437583923e-02
6.174000000000000000e+03 4.182368850708007812e+01 1.523635864257812500e+01 5.987697839736938477e-01 4.010129451751708984e+00 1.382669806480407715e+00 2.602004289627075195e+00
6.175000000000000000e+03 4.084710121154785156e+00 -9.913481712341308594e+00 -3.269647713750600815e-03 -1.389534026384353638e-01 -4.266691580414772034e-02 -1.578740626573562622e-01
6.176000000000000000e+03 6.250990676879882812e+01 -2.226131248474121094e+01 3.399072587490081787e-01 5.636515140533447266e+00 1.792926669120788574e+00 -9.475018978118896484e-01
6.177000000000000000e+03 6.324047470092773438e+01 -2.385138702392578125e+01 3.550018668174743652e-01 5.371406555175781250e+00 1.717922568321228027e+00 -7.892111539840698242e-01
6.178000000000000000e+03 7.136380767822265625e+01 -2.452645492553710938e+01 3.285818696022033691e-01 5.649499893188476562e+00 1.793424487113952637e+00 5.642248988151550293e-01
6.179000000000000000e+03 2.292745018005371094e+01 -1.815658569335937500e+01 -1.103529930114746094e-01 3.308635234832763672e+00 9.594846963882446289e-01 8.208031058311462402e-01
6.180000000000000000e+03 1.229262924194335938e+01 1.432688140869140625e+01 -1.379472851753234863e+00 3.592928349971771240e-01 -3.060539960861206055e-01 -3.301759064197540283e-01
6.181000000000000000e+03 1.003740501403808594e+01 1.236140632629394531e+01 -1.197503685951232910e+00 1.178461551666259766e+00 -5.712661426514387131e-03 -5.049338936805725098e-01
6.182000000000000000e+03 5.546131610870361328e+00 1.725829887390136719e+01 -4.705883860588073730e-01 1.259216904640197754e+00 2.365885674953460693e-01 -2.805576622486114502e-01
6.183000000000000000e+03 5.084372997283935547e+00 1.553016662597656250e+01 -4.696587920188903809e-01 1.289593338966369629e+00 2.459803819656372070e-01 -5.055068135261535645e-01
6.184000000000000000e+03 4.177564239501953125e+01 2.084070396423339844e+01 -3.613106906414031982e-01 4.312107086181640625e+00 1.185238957405090332e+00 7.112644314765930176e-01
6.185000000000000000e+03 5.825942993164062500e+00 2.009273719787597656e+01 -3.043347895145416260e-01 1.196878433227539062e+00 2.677631080150604248e-01 -4.383833147585391998e-03
6.186000000000000000e+03 5.084175586700439453e+00 2.067495918273925781e+01 -2.015925049781799316e-01 1.264131546020507812e+00 3.187617063522338867e-01 3.081561438739299774e-02
6.187000000000000000e+03 5.252816009521484375e+01 2.371859359741210938e+01 -2.441748380661010742e-01 5.431632041931152344e+00 1.556237220764160156e+00 4.030923247337341309e-01
6.188000000000000000e+03 2.233045005798339844e+01 -1.731760406494140625e+01 2.629820629954338074e-02 3.172683954238891602e+00 9.596946239471435547e-01 9.896741509437561035e-01
6.189000000000000000e+03 6.864378356933593750e+01 2.070981216430664062e+01 -9.209598600864410400e-02 6.487129688262939453e+00 1.918510079383850098e+00 -2.185966968536376953e-01
6.190000000000000000e+03 5.360261440277099609e+00 2.579785919189453125e+01 -3.900983929634094238e-02 1.159829735755920410e+00 3.362459540367126465e-01 2.178893536329269409e-01
6.191000000000000000e+03 1.067564868927001953e+01 -2.608450508117675781e+01 5.754639580845832825e-02 6.546383500099182129e-01 2.136554270982742310e-01 1.629006713628768921e-01
6.192000000000000000e+03 1.632440185546875000e+01 1.972839355468750000e+01 -8.781469464302062988e-01 4.215908423066139221e-02 -2.507963478565216064e-01 -1.495670080184936523e-01
6.193000000000000000e+03 5.963325881958007812e+01 1.999908447265625000e+01 9.255993962287902832e-01 3.766571044921875000e+00 1.407651066780090332e+00 7.175417542457580566e-01
6.194000000000000000e+03 7.418867492675781250e+01 -2.360238075256347656e+01 -7.180740684270858765e-02 6.518207073211669922e+00 1.933920025825500488e+00 5.722920894622802734e-01
6.195000000000000000e+03 4.006279945373535156e+00 -9.211629867553710938e+00 -1.205358654260635376e-02 -1.250327527523040771e-01 -4.112590104341506958e-02 -1.572626531124114990e-01
6.196000000000000000e+03 3.392218017578125000e+01 2.417432975769042969e+01 -3.295357525348663330e-01 3.022995710372924805e+00 8.080379962921142578e-01 -1.864177137613296509e-01
6.197000000000000000e+03 6.322029495239257812e+01 -2.204948997497558594e+01 5.317292809486389160e-01 5.180605888366699219e+00 1.713700652122497559e+00 -1.038336873054504395e+00
6.198000000000000000e+03 8.643916130065917969e+00 -2.442129516601562500e+01 7.397614419460296631e-02 3.411293923854827881e-01 1.245316565036773682e-01 1.138715520501136780e-01
6.199000000000000000e+03 2.106643486022949219e+01 -1.975057220458984375e+01 -2.535567805171012878e-02 2.646581888198852539e+00 7.863678336143493652e-01 6.863718628883361816e-01
6.200000000000000000e+03 2.906980895996093750e+01 -1.862471008300781250e+01 -3.735642135143280029e-01 4.172970771789550781e+00 1.139821887016296387e+00 -6.593565940856933594e-01
6.201000000000000000e+03 2.674877548217773438e+01 -1.986061286926269531e+01 -4.833771884441375732e-01 4.008633136749267578e+00 1.057576894760131836e+00 -9.162711352109909058e-02
6.202000000000000000e+03 5.917070388793945312e+01 2.235987663269042969e+01 5.722562074661254883e-01 4.532025814056396484e+00 1.531284689903259277e+00 5.682968497276306152e-01
6.203000000000000000e+03 5.885544586181640625e+01 2.153243827819824219e+01 6.949123144149780273e-01 4.384021759033203125e+00 1.523680210113525391e+00 7.369461059570312500e-01
6.204000000000000000e+03 5.843604660034179688e+01 2.089911460876464844e+01 6.984100341796875000e-01 4.295231342315673828e+00 1.498092412948608398e+00 9.341404438018798828e-01
6.205000000000000000e+03 7.311212158203125000e+01 1.759874725341796875e+01 5.724856257438659668e-01 6.289184570312500000e+00 2.058501005172729492e+00 9.132822602987289429e-02
6.206000000000000000e+03 7.393647003173828125e+01 1.771772193908691406e+01 5.347816348075866699e-01 6.294635295867919922e+00 2.048825025558471680e+00 -2.853355184197425842e-02
6.207000000000000000e+03 1.242984867095947266e+01 1.798301506042480469e+01 -9.723368287086486816e-01 5.097802877426147461e-01 -1.387669593095779419e-01 -2.616611868143081665e-02
6.208000000000000000e+03 7.399494171142578125e+01 1.881178855895996094e+01 3.522526025772094727e-01 6.433975696563720703e+00 2.035868644714355469e+00 6.058279424905776978e-03
6.209000000000000000e+03 7.404132843017578125e+01 2.042467689514160156e+01 1.751115620136260986e-01 6.542545318603515625e+00 2.015297174453735352e+00 2.213277295231819153e-02
6.210000000000000000e+03 3.221801757812500000e+01 2.471336364746093750e+01 -3.363622725009918213e-01 2.825666189193725586e+00 7.467911839485168457e-01 -1.214019283652305603e-01
6.211000000000000000e+03 7.189868164062500000e+01 2.510349464416503906e+01 -1.287212967872619629e-02 6.421172618865966797e+00 1.922490119934082031e+00 -4.032552242279052734e-02
6.212000000000000000e+03 7.649604034423828125e+01 2.678315544128417969e+01 -1.431199070066213608e-02 6.656018733978271484e+00 1.992512106895446777e+00 3.443931788206100464e-02
6.213000000000000000e+03 1.392073631286621094e+01 -2.190020370483398438e+01 1.759762018918991089e-01 1.012501597404479980e+00 3.565433621406555176e-01 2.898638844490051270e-01
6.214000000000000000e+03 7.288304138183593750e+01 2.469181442260742188e+01 -5.603997968137264252e-03 6.489992618560791016e+00 1.945316672325134277e+00 1.573335612192749977e-04
6.215000000000000000e+03 9.065255165100097656e+00 2.518356132507324219e+01 -1.000546440482139587e-01 8.868214488029479980e-01 2.360300421714782715e-01 2.205836772918701172e-01
6.216000000000000000e+03 8.944258689880371094e+00 1.560733795166015625e+01 -9.521176218986511230e-01 1.110908865928649902e+00 4.763736948370933533e-02 -3.035424351692199707e-01
6.217000000000000000e+03 5.831839752197265625e+01 2.238345909118652344e+01 4.851965606212615967e-01 4.709203243255615234e+00 1.558320045471191406e+00 7.421971559524536133e-01
6.218000000000000000e+03 5.790424728393554688e+01 2.120498466491699219e+01 5.719493031501770020e-01 4.593168735504150391e+00 1.549535512924194336e+00 9.921919703483581543e-01
6.219000000000000000e+03 5.767761230468750000e+01 2.212520027160644531e+01 4.178667068481445312e-01 4.781426429748535156e+00 1.559787988662719727e+00 8.879031538963317871e-01
6.220000000000000000e+03 6.926590442657470703e+00 -2.115996932983398438e+01 8.908055722713470459e-02 7.471983879804611206e-02 4.914011806249618530e-02 2.718476764857769012e-02
6.221000000000000000e+03 5.722298431396484375e+01 2.151844596862792969e+01 4.101003110408782959e-01 4.780935764312744141e+00 1.557310819625854492e+00 9.958429336547851562e-01
6.222000000000000000e+03 2.696861457824707031e+01 -2.062091064453125000e+01 -4.273991584777832031e-01 3.872819662094116211e+00 1.033626079559326172e+00 -8.786250650882720947e-02
6.223000000000000000e+03 7.250978088378906250e+01 1.780521202087402344e+01 4.999533593654632568e-01 6.370555877685546875e+00 2.061152696609497070e+00 1.829929947853088379e-01
6.224000000000000000e+03 7.468323230743408203e+00 1.906400108337402344e+01 -5.190911889076232910e-01 1.079859852790832520e+00 1.682306081056594849e-01 -5.114017054438591003e-02
6.225000000000000000e+03 1.446495437622070312e+01 -2.102864074707031250e+01 2.080740332603454590e-01 1.068976998329162598e+00 3.831153213977813721e-01 3.098776638507843018e-01
6.226000000000000000e+03 8.894030570983886719e+00 -1.127492427825927734e+01 4.113679751753807068e-02 9.978536516427993774e-02 4.227665066719055176e-02 -1.926141977310180664e-01
6.227000000000000000e+03 7.200507354736328125e+01 1.883391952514648438e+01 2.985960245132446289e-01 6.511664390563964844e+00 2.043078184127807617e+00 1.742505580186843872e-01
6.228000000000000000e+03 7.252724456787109375e+01 2.164755058288574219e+01 6.467515975236892700e-02 6.532333374023437500e+00 1.979102492332458496e+00 3.051718510687351227e-02
6.229000000000000000e+03 5.821097564697265625e+01 2.177708435058593750e+01 5.202270150184631348e-01 4.599355697631835938e+00 1.535874843597412109e+00 8.413662314414978027e-01
6.230000000000000000e+03 1.061108303070068359e+01 -1.207739734649658203e+01 1.140985563397407532e-01 1.981787681579589844e-01 9.368319809436798096e-02 -1.737885922193527222e-01
6.231000000000000000e+03 9.968496322631835938e+00 -1.792548561096191406e+01 1.995513737201690674e-01 3.256933093070983887e-01 1.575734019279479980e-01 2.408025972545146942e-02
6.232000000000000000e+03 8.458095550537109375e+00 1.824820518493652344e+01 -6.674828529357910156e-01 1.005201697349548340e+00 1.013156473636627197e-01 -6.750228255987167358e-02
6.233000000000000000e+03 1.029465389251708984e+01 1.976176834106445312e+01 -6.170310974121093750e-01 7.579892277717590332e-01 4.228745028376579285e-02 7.246631383895874023e-02
6.234000000000000000e+03 1.185720252990722656e+01 -1.626054382324218750e+01 2.813523113727569580e-01 4.228549003601074219e-01 2.112621665000915527e-01 2.735713310539722443e-02
6.235000000000000000e+03 1.027342033386230469e+01 -1.667307662963867188e+01 2.126182615756988525e-01 3.030523657798767090e-01 1.547011882066726685e-01 -1.300022192299365997e-02
6.236000000000000000e+03 1.532617664337158203e+01 -1.230204224586486816e+00 -1.286862324923276901e-02 -7.409185171127319336e-02 -2.608814276754856110e-02 5.533627793192863464e-02
6.237000000000000000e+03 1.546412372589111328e+01 -1.145073413848876953e+00 8.597861044108867645e-03 -3.265868127346038818e-02 -7.218246348202228546e-03 -1.320885610766708851e-03
6.238000000000000000e+03 1.425182247161865234e+01 -3.902684152126312256e-01 -5.453482270240783691e-02 -3.562722820788621902e-03 -1.742926426231861115e-02 1.912556774914264679e-02
6.239000000000000000e+03 1.512440299987792969e+01 -8.298792243003845215e-01 -2.134695835411548615e-02 -7.131048012524843216e-03 -8.543401956558227539e-03 2.275944128632545471e-02
6.240000000000000000e+03 1.499323558807373047e+01 -3.236857652664184570e-01 -7.505899760872125626e-03 -4.389414098113775253e-03 -3.568594111129641533e-03 5.795852281153202057e-03
6.241000000000000000e+03 1.343327617645263672e+01 -4.957430660724639893e-01 -1.160833388566970825e-01 -1.050384831614792347e-03 -3.514011949300765991e-02 2.663435041904449463e-02
6.242000000000000000e+03 1.345798492431640625e+01 -1.237600922584533691e+00 -1.512678116559982300e-01 1.332480181008577347e-02 -4.138290137052536011e-02 6.623207777738571167e-02
6.243000000000000000e+03 1.458326053619384766e+01 -9.111518859863281250e-01 -5.978610739111900330e-02 -1.570290885865688324e-02 -2.264670468866825104e-02 4.855273291468620300e-02
6.244000000000000000e+03 1.425705051422119141e+01 -1.277629494667053223e+00 -1.213161945343017578e-01 -1.145721599459648132e-02 -3.983202204108238220e-02 8.048107475042343140e-02
6.245000000000000000e+03 1.492532062530517578e+01 -1.292750954627990723e+00 -7.742117345333099365e-02 -3.944616392254829407e-02 -3.506020084023475647e-02 8.057881891727447510e-02
