# el_label, x, y, sXX, sYY, sZZ, sXY
1.000000000000000000e+00 2.181952476501464844e+01 3.696549654006958008e+00 -1.902241230010986328e+00 4.164155200123786926e-02 -5.581799149513244629e-01 5.302351117134094238e-01
2.000000000000000000e+00 2.270840263366699219e+01 3.601070642471313477e+00 -7.860177755355834961e-01 -1.014391258358955383e-01 -2.662370800971984863e-01 6.052883267402648926e-01
3.000000000000000000e+00 2.264334869384765625e+01 2.863679885864257812e+00 -6.139462590217590332e-01 -2.265863865613937378e-02 -1.909814625978469849e-01 7.729156613349914551e-01
4.000000000000000000e+00 2.338276290893554688e+01 2.962652921676635742e+00 -5.725464224815368652e-01 -9.016646742820739746e-01 -4.422633349895477295e-01 6.861501932144165039e-01
5.000000000000000000e+00 2.175264739990234375e+01 2.959368467330932617e+00 -2.816321551799774170e-01 -3.856159048154950142e-03 -8.564649522304534912e-02 8.050743341445922852e-01
6.000000000000000000e+00 8.195764541625976562e+00 4.726172447204589844e+00 -1.088321590423583984e+01 1.797043383121490479e-01 -3.211053609848022461e+00 -1.381662011146545410e+00
7.000000000000000000e+00 8.394376754760742188e+00 4.739196300506591797e+00 -5.584972858428955078e+00 -5.502526164054870605e-01 -1.840567588806152344e+00 -2.746214866638183594e-01
8.000000000000000000e+00 8.592988014221191406e+00 4.752220153808593750e+00 -4.060562133789062500e+00 5.601512789726257324e-01 -1.050123214721679688e+00 -3.320103585720062256e-01
9.000000000000000000e+00 8.791600227355957031e+00 4.765244007110595703e+00 -3.133205652236938477e+00 -5.981116294860839844e-01 -1.119395136833190918e+00 -1.898759454488754272e-01
1.000000000000000000e+01 8.186238288879394531e+00 4.783883571624755859e+00 -5.288566112518310547e+00 -1.415615439414978027e+00 -2.011254310607910156e+00 -1.909321546554565430e+00
1.100000000000000000e+01 8.378499031066894531e+00 4.835381507873535156e+00 -3.866316318511962891e+00 -2.701606042683124542e-02 -1.167999625205993652e+00 -1.248947381973266602e+00
1.200000000000000000e+01 8.570759773254394531e+00 4.886879444122314453e+00 -2.570957899093627930e+00 -4.988087415695190430e-01 -9.209300279617309570e-01 -5.774413347244262695e-01
1.300000000000000000e+01 8.763020515441894531e+00 4.938377380371093750e+00 -1.983390927314758301e+00 2.199178636074066162e-01 -5.290418863296508789e-01 -6.728984117507934570e-01
1.400000000000000000e+01 8.165642738342285156e+00 4.838629722595214844e+00 -1.812269926071166992e+00 -4.310515820980072021e-01 -6.729964613914489746e-01 -1.000302910804748535e+00
1.500000000000000000e+01 8.344173431396484375e+00 4.926625251770019531e+00 -1.470450282096862793e+00 -9.009267687797546387e-01 -7.114130854606628418e-01 -7.399243712425231934e-01
1.600000000000000000e+01 8.522703170776367188e+00 5.014620304107666016e+00 -1.168256044387817383e+00 -6.031235307455062866e-02 -3.685705065727233887e-01 -7.147151231765747070e-01
1.700000000000000000e+01 8.701232910156250000e+00 5.102615833282470703e+00 -7.157299518585205078e-01 -3.656404614448547363e-01 -3.244111239910125732e-01 -4.268248975276947021e-01
1.800000000000000000e+01 8.134768486022949219e+00 4.888309955596923828e+00 3.336992263793945312e-01 2.457177937030792236e-01 1.738251000642776489e-01 3.609500825405120850e-01
1.900000000000000000e+01 8.292715072631835938e+00 5.009425163269042969e+00 1.136785931885242462e-02 -1.719239540398120880e-02 -1.747361035086214542e-03 1.608945727348327637e-01
2.000000000000000000e+01 8.450662612915039062e+00 5.130539894104003906e+00 2.439955025911331177e-01 -9.158810228109359741e-02 4.572221636772155762e-02 -4.057826101779937744e-02
2.100000000000000000e+01 8.608609199523925781e+00 5.251655101776123047e+00 1.135112531483173370e-02 1.092176586389541626e-01 3.617063537240028381e-02 -6.707327067852020264e-02
2.200000000000000000e+01 8.094799995422363281e+00 4.931016445159912109e+00 1.161070942878723145e+00 1.986747980117797852e+00 9.443457126617431641e-01 1.786731123924255371e+00
2.300000000000000000e+01 8.226101875305175781e+00 5.080603122711181641e+00 1.042618155479431152e+00 1.184736490249633789e+00 6.682063937187194824e-01 1.040953397750854492e+00
2.400000000000000000e+01 8.357402801513671875e+00 5.230188846588134766e+00 6.410304307937622070e-01 8.264932632446289062e-01 4.402571320533752441e-01 7.623274326324462891e-01
2.500000000000000000e+01 8.488704681396484375e+00 5.379775047302246094e+00 1.012115597724914551e+00 6.842735409736633301e-01 5.089167356491088867e-01 5.597343444824218750e-01
2.600000000000000000e+01 8.047271728515625000e+00 4.965110778808593750e+00 1.601448297500610352e+00 4.527556419372558594e+00 1.838701367378234863e+00 2.668414115905761719e+00
2.700000000000000000e+01 8.146888732910156250e+00 5.137426853179931641e+00 8.437953591346740723e-01 2.884357929229736328e+00 1.118445992469787598e+00 1.736414313316345215e+00
2.800000000000000000e+01 8.246504783630371094e+00 5.309742450714111328e+00 1.254468321800231934e+00 2.167803049087524414e+00 1.026681423187255859e+00 1.301324725151062012e+00
2.900000000000000000e+01 8.346120834350585938e+00 5.482058525085449219e+00 6.485036015510559082e-01 1.745090842247009277e+00 7.180783152580261230e-01 1.006023645401000977e+00
3.000000000000000000e+01 7.994009017944335938e+00 4.989284038543701172e+00 6.317973136901855469e-01 7.295999526977539062e+00 2.378339052200317383e+00 2.814046621322631836e+00
3.100000000000000000e+01 8.058116912841796875e+00 5.177715778350830078e+00 1.114866733551025391e+00 4.953564643859863281e+00 1.820529341697692871e+00 1.869773149490356445e+00
3.200000000000000000e+01 8.122223854064941406e+00 5.366147041320800781e+00 6.229305267333984375e-01 3.738665580749511719e+00 1.308478832244873047e+00 1.434067487716674805e+00
3.300000000000000000e+01 8.186331748962402344e+00 5.554578304290771484e+00 9.601619243621826172e-01 3.173739194869995117e+00 1.240170359611511230e+00 1.284405231475830078e+00
3.400000000000000000e+01 7.937054634094238281e+00 5.002608776092529297e+00 4.483688175678253174e-01 1.020076084136962891e+01 3.194738864898681641e+00 2.060117721557617188e+00
3.500000000000000000e+01 7.963192939758300781e+00 5.199923038482666016e+00 4.178822636604309082e-01 6.841963768005371094e+00 2.177953720092773438e+00 1.340128898620605469e+00
3.600000000000000000e+01 7.989330768585205078e+00 5.397237300872802734e+00 7.477712631225585938e-01 5.483001708984375000e+00 1.869231939315795898e+00 1.204057812690734863e+00
3.700000000000000000e+01 8.015468597412109375e+00 5.594552040100097656e+00 3.745560944080352783e-01 4.453324317932128906e+00 1.448364138603210449e+00 8.916340470314025879e-01
3.800000000000000000e+01 7.878595352172851562e+00 5.004572868347167969e+00 -7.660417258739471436e-02 1.229471969604492188e+01 3.665434837341308594e+00 3.085511624813079834e-01
3.900000000000000000e+01 7.865760803222656250e+00 5.203196525573730469e+00 6.214058399200439453e-01 8.652422904968261719e+00 2.782148599624633789e+00 4.493666589260101318e-01
4.000000000000000000e+01 7.852925777435302734e+00 5.401820659637451172e+00 3.570549488067626953e-01 6.781927108764648438e+00 2.141694545745849609e+00 3.003372848033905029e-01
4.100000000000000000e+01 7.840091228485107422e+00 5.600444316864013672e+00 4.563450813293457031e-01 5.855963706970214844e+00 1.893692731857299805e+00 3.268826007843017578e-01
4.200000000000000000e+01 7.820875167846679688e+00 4.995101451873779297e+00 6.839675307273864746e-01 1.374126434326171875e+01 4.327569484710693359e+00 -1.704339623451232910e+00
4.300000000000000000e+01 7.769560337066650391e+00 5.187410831451416016e+00 7.364595532417297363e-01 9.666394233703613281e+00 3.120856285095214844e+00 -1.018195867538452148e+00
4.400000000000000000e+01 7.718245506286621094e+00 5.379720211029052734e+00 7.436383962631225586e-01 7.928437709808349609e+00 2.601622819900512695e+00 -7.339178323745727539e-01
4.500000000000000000e+01 7.666930675506591797e+00 5.572029590606689453e+00 5.001260042190551758e-01 6.607611656188964844e+00 2.132321357727050781e+00 -7.050090432167053223e-01
4.600000000000000000e+01 7.766109466552734375e+00 4.974557876586914062e+00 1.957613587379455566e+00 1.388251113891601562e+01 4.752037525177001953e+00 -3.906724452972412109e+00
4.700000000000000000e+01 7.678284168243408203e+00 5.153171539306640625e+00 1.699627399444580078e+00 1.031188774108886719e+01 3.603454589843750000e+00 -2.433484792709350586e+00
4.800000000000000000e+01 7.590458869934082031e+00 5.331785202026367188e+00 1.306579947471618652e+00 8.257632255554199219e+00 2.869263648986816406e+00 -2.044292449951171875e+00
4.900000000000000000e+01 7.502633571624755859e+00 5.510398864746093750e+00 1.172495126724243164e+00 7.111153602600097656e+00 2.485094547271728516e+00 -1.746792316436767578e+00
5.000000000000000000e+01 7.716400623321533203e+00 4.943730354309082031e+00 4.131221771240234375e+00 1.342126941680908203e+01 5.265747547149658203e+00 -5.534948348999023438e+00
5.100000000000000000e+01 7.595435619354248047e+00 5.101792812347412109e+00 3.005219697952270508e+00 1.005829143524169922e+01 3.919053316116333008e+00 -3.831819534301757812e+00
5.200000000000000000e+01 7.474470615386962891e+00 5.259854793548583984e+00 2.503034830093383789e+00 8.266120910644531250e+00 3.230746746063232422e+00 -3.148312807083129883e+00
5.300000000000000000e+01 7.353506088256835938e+00 5.417917251586914062e+00 2.098727941513061523e+00 6.893708705902099609e+00 2.697731018066406250e+00 -2.784956932067871094e+00
5.400000000000000000e+01 7.673655509948730469e+00 4.903802871704101562e+00 6.592897415161132812e+00 1.219116687774658203e+01 5.635219573974609375e+00 -6.540197849273681641e+00
5.500000000000000000e+01 7.524194717407226562e+00 5.035246849060058594e+00 4.803512573242187500e+00 9.511798858642578125e+00 4.294593334197998047e+00 -4.787693500518798828e+00
5.600000000000000000e+01 7.374732971191406250e+00 5.166690349578857422e+00 3.988296985626220703e+00 7.607487678527832031e+00 3.478735446929931641e+00 -4.012377262115478516e+00
5.700000000000000000e+01 7.225271701812744141e+00 5.298134326934814453e+00 3.453724622726440430e+00 6.412314414978027344e+00 2.959811687469482422e+00 -3.505233049392700195e+00
5.800000000000000000e+01 7.639515876770019531e+00 4.856307506561279297e+00 9.091440200805664062e+00 1.099713897705078125e+01 6.026573657989501953e+00 -6.751950740814208984e+00
5.900000000000000000e+01 7.467295169830322266e+00 4.956087589263916016e+00 6.767775058746337891e+00 8.486906051635742188e+00 4.576404571533203125e+00 -5.253695964813232422e+00
6.000000000000000000e+01 7.295073986053466797e+00 5.055868148803710938e+00 5.707164764404296875e+00 6.810087203979492188e+00 3.755175590515136719e+00 -4.419907569885253906e+00
6.100000000000000000e+01 7.122853279113769531e+00 5.155648231506347656e+00 4.986637115478515625e+00 5.552391529083251953e+00 3.161708593368530273e+00 -3.854655265808105469e+00
6.200000000000000000e+01 7.615292072296142578e+00 4.803067207336425781e+00 1.126625061035156250e+01 9.867644309997558594e+00 6.340168476104736328e+00 -6.328145503997802734e+00
6.300000000000000000e+01 7.426921844482421875e+00 4.867353916168212891e+00 8.719069480895996094e+00 7.504890441894531250e+00 4.867187976837158203e+00 -5.179722785949707031e+00
6.400000000000000000e+01 7.238551616668701172e+00 4.931640625000000000e+00 7.403538227081298828e+00 5.833959102630615234e+00 3.971249103546142578e+00 -4.315643787384033203e+00
6.500000000000000000e+01 7.050180912017822266e+00 4.995927810668945312e+00 6.505327224731445312e+00 4.722659587860107422e+00 3.368396043777465820e+00 -3.763110160827636719e+00
6.600000000000000000e+01 7.601913452148437500e+00 4.746125698089599609e+00 1.295956134796142578e+01 9.182432174682617188e+00 6.642598152160644531e+00 -5.531800746917724609e+00
6.700000000000000000e+01 7.404623985290527344e+00 4.772451400756835938e+00 1.041261196136474609e+01 6.618712425231933594e+00 5.109397411346435547e+00 -4.597334384918212891e+00
6.800000000000000000e+01 7.207334518432617188e+00 4.798777103424072266e+00 8.918878555297851562e+00 5.029070854187011719e+00 4.184384822845458984e+00 -3.782898426055908203e+00
6.900000000000000000e+01 7.010045051574707031e+00 4.825102806091308594e+00 7.798576831817626953e+00 3.961270332336425781e+00 3.527954101562500000e+00 -3.177720069885253906e+00
7.000000000000000000e+01 7.599893569946289062e+00 4.687668323516845703e+00 1.416009902954101562e+01 8.915932655334472656e+00 6.922809600830078125e+00 -4.546885490417480469e+00
7.100000000000000000e+01 7.401257514953613281e+00 4.675022602081298828e+00 1.168461513519287109e+01 6.063251972198486328e+00 5.324359893798828125e+00 -3.692395210266113281e+00
7.200000000000000000e+01 7.202621459960937500e+00 4.662376880645751953e+00 1.003633975982666016e+01 4.522745609283447266e+00 4.367725372314453125e+00 -2.907874345779418945e+00
7.300000000000000000e+01 7.003985881805419922e+00 4.649731159210205078e+00 8.861405372619628906e+00 3.415900230407714844e+00 3.683191537857055664e+00 -2.313224554061889648e+00
7.400000000000000000e+01 7.609310150146484375e+00 4.629939079284667969e+00 1.488582420349121094e+01 8.910673141479492188e+00 7.138948917388916016e+00 -3.613088130950927734e+00
7.500000000000000000e+01 7.416951656341552734e+00 4.578807830810546875e+00 1.247854042053222656e+01 6.037504673004150391e+00 5.554813861846923828e+00 -2.606544256210327148e+00
7.600000000000000000e+01 7.224593639373779297e+00 4.527675628662109375e+00 1.066927051544189453e+01 4.328686714172363281e+00 4.499387264251708984e+00 -1.888022780418395996e+00
7.700000000000000000e+01 7.032235145568847656e+00 4.476543903350830078e+00 9.395963668823242188e+00 3.323104619979858398e+00 3.815720558166503906e+00 -1.376160264015197754e+00
7.800000000000000000e+01 7.629801750183105469e+00 4.575153827667236328e+00 1.533147430419921875e+01 9.402405738830566406e+00 7.420163631439208984e+00 -2.796036958694458008e+00
7.900000000000000000e+01 7.451104640960693359e+00 4.487498760223388672e+00 1.269919109344482422e+01 6.255481719970703125e+00 5.686401844024658203e+00 -1.555156826972961426e+00
8.000000000000000000e+01 7.272407054901123047e+00 4.399843692779541016e+00 1.086729431152343750e+01 4.759537696838378906e+00 4.688049793243408203e+00 -9.438003301620483398e-01
8.100000000000000000e+01 7.093709468841552734e+00 4.312188148498535156e+00 9.361487388610839844e+00 3.473679780960083008e+00 3.850550174713134766e+00 -4.092785120010375977e-01
8.200000000000000000e+01 7.660581588745117188e+00 4.525415420532226562e+00 1.536302566528320312e+01 9.874862670898437500e+00 7.571366786956787109e+00 -2.090431213378906250e+00
8.300000000000000000e+01 7.502404212951660156e+00 4.404601097106933594e+00 1.257903194427490234e+01 7.102753162384033203e+00 5.904535293579101562e+00 -8.169546127319335938e-01
8.400000000000000000e+01 7.344226837158203125e+00 4.283787250518798828e+00 1.054763126373291016e+01 5.310139656066894531e+00 4.757331371307373047e+00 -1.625839024782180786e-01
8.500000000000000000e+01 7.186049461364746094e+00 4.162972450256347656e+00 9.172315597534179688e+00 4.199450016021728516e+00 4.011529922485351562e+00 2.816894352436065674e-01
8.600000000000000000e+01 7.700468540191650391e+00 4.482633113861083984e+00 1.528357696533203125e+01 1.078910350799560547e+01 7.821804046630859375e+00 -1.696976542472839355e+00
8.700000000000000000e+01 7.568881988525390625e+00 4.333296775817871094e+00 1.201219272613525391e+01 7.966312408447265625e+00 5.993551731109619141e+00 -3.992255330085754395e-01
8.800000000000000000e+01 7.437296390533447266e+00 4.183960437774658203e+00 1.010628986358642578e+01 6.288899898529052734e+00 4.918557167053222656e+00 1.471541076898574829e-01
8.900000000000000000e+01 7.305710315704345703e+00 4.034624576568603516e+00 8.639887809753417969e+00 4.918989658355712891e+00 4.067663192749023438e+00 6.153930425643920898e-01
9.000000000000000000e+01 7.747931480407714844e+00 4.448448181152343750e+00 1.480352210998535156e+01 1.170251083374023438e+01 7.951809883117675781e+00 -1.579387068748474121e+00
9.100000000000000000e+01 7.647987365722656250e+00 4.276322364807128906e+00 1.149331188201904297e+01 9.026070594787597656e+00 6.155814647674560547e+00 -5.636572837829589844e-01
9.200000000000000000e+01 7.548042774200439453e+00 4.104196071624755859e+00 9.480220794677734375e+00 7.115627288818359375e+00 4.978754520416259766e+00 6.493241339921951294e-02
9.300000000000000000e+01 7.448098659515380859e+00 3.932070255279541016e+00 8.091214179992675781e+00 5.867261409759521484e+00 4.187542915344238281e+00 4.276083707809448242e-01
9.400000000000000000e+01 7.801148414611816406e+00 4.424173355102539062e+00 1.434923076629638672e+01 1.273091506958007812e+01 8.124043464660644531e+00 -1.993703246116638184e+00
9.500000000000000000e+01 7.736682415008544922e+00 4.235864639282226562e+00 1.098290920257568359e+01 9.794242858886718750e+00 6.233145713806152344e+00 -1.180737972259521484e+00
9.600000000000000000e+01 7.672216415405273438e+00 4.047555446624755859e+00 9.097744941711425781e+00 7.841864585876464844e+00 5.081882953643798828e+00 -5.523588061332702637e-01
9.700000000000000000e+01 7.607750415802001953e+00 3.859246253967285156e+00 7.598618030548095703e+00 6.493025779724121094e+00 4.227493286132812500e+00 -6.471890211105346680e-02
9.800000000000000000e+01 7.858077049255371094e+00 4.410740852355957031e+00 1.394550228118896484e+01 1.349323844909667969e+01 8.231622695922851562e+00 -2.968175411224365234e+00
9.900000000000000000e+01 7.831563472747802734e+00 4.213476181030273438e+00 1.088409709930419922e+01 1.016319656372070312e+01 6.314188003540039062e+00 -2.235061407089233398e+00
1.000000000000000000e+02 7.805049896240234375e+00 4.016211986541748047e+00 9.006177902221679688e+00 8.146234512329101562e+00 5.145723819732666016e+00 -1.471178650856018066e+00
1.010000000000000000e+02 7.778536319732666016e+00 3.818947553634643555e+00 7.484814643859863281e+00 6.773096084594726562e+00 4.277373313903808594e+00 -9.415858983993530273e-01
1.020000000000000000e+02 7.916532516479492188e+00 4.408665180206298828e+00 1.395732784271240234e+01 1.367160320281982422e+01 8.288679122924804688e+00 -4.444288253784179688e+00
1.030000000000000000e+02 7.928988933563232422e+00 4.210017204284667969e+00 1.130980873107910156e+01 9.939042091369628906e+00 6.374655246734619141e+00 -3.496908664703369141e+00
1.040000000000000000e+02 7.941445827484130859e+00 4.011369228363037109e+00 9.386050224304199219e+00 7.902597427368164062e+00 5.186594009399414062e+00 -2.568177700042724609e+00
1.050000000000000000e+02 7.953902244567871094e+00 3.812721252441406250e+00 7.864272594451904297e+00 6.634734630584716797e+00 4.349702358245849609e+00 -1.892100334167480469e+00
1.060000000000000000e+02 7.974270343780517578e+00 4.418026447296142578e+00 1.477650356292724609e+01 1.299721145629882812e+01 8.332114219665527344e+00 -6.163179397583007812e+00
1.070000000000000000e+02 8.025218963623046875e+00 4.225619792938232422e+00 1.219977760314941406e+01 9.011828422546386719e+00 6.363481521606445312e+00 -4.697734832763671875e+00
1.080000000000000000e+02 8.076168060302734375e+00 4.033212661743164062e+00 1.037121009826660156e+01 7.136915206909179688e+00 5.252437591552734375e+00 -3.585704088211059570e+00
1.090000000000000000e+02 8.127116203308105469e+00 3.840806007385253906e+00 8.728420257568359375e+00 5.920470237731933594e+00 4.394667148590087891e+00 -2.771704435348510742e+00
1.100000000000000000e+02 8.029075622558593750e+00 4.438466072082519531e+00 1.629718017578125000e+01 1.122943973541259766e+01 8.257986068725585938e+00 -7.720114231109619141e+00
1.110000000000000000e+02 8.116559982299804688e+00 4.259685039520263672e+00 1.370442485809326172e+01 7.492490291595458984e+00 6.359074592590332031e+00 -5.495171070098876953e+00
1.120000000000000000e+02 8.204045295715332031e+00 4.080904483795166016e+00 1.161570358276367188e+01 5.885103702545166016e+00 5.250242233276367188e+00 -4.306255340576171875e+00
1.130000000000000000e+02 8.291530609130859375e+00 3.902124166488647461e+00 1.016820621490478516e+01 4.881795406341552734e+00 4.515000343322753906e+00 -3.431711912155151367e+00
1.140000000000000000e+02 8.078843116760253906e+00 4.469198226928710938e+00 1.851968765258789062e+01 8.606726646423339844e+00 8.137924194335937500e+00 -8.508958816528320312e+00
1.150000000000000000e+02 8.199506759643554688e+00 4.310906410217285156e+00 1.541244029998779297e+01 5.513053894042968750e+00 6.277648448944091797e+00 -5.761546134948730469e+00
1.160000000000000000e+02 8.320170402526855469e+00 4.152613639831542969e+00 1.315987300872802734e+01 4.355908393859863281e+00 5.254734516143798828e+00 -4.429974079132080078e+00
1.170000000000000000e+02 8.440834045410156250e+00 3.994321584701538086e+00 1.156634998321533203e+01 3.666524887084960938e+00 4.569862365722656250e+00 -3.710031270980834961e+00
1.180000000000000000e+02 8.121663093566894531e+00 4.509044647216796875e+00 2.102530670166015625e+01 5.356413841247558594e+00 7.914516448974609375e+00 -8.213012695312500000e+00
1.190000000000000000e+02 8.270874023437500000e+00 4.377316474914550781e+00 1.695326995849609375e+01 3.505294322967529297e+00 6.137569427490234375e+00 -5.230071544647216797e+00
1.200000000000000000e+02 8.420084953308105469e+00 4.245588302612304688e+00 1.468865013122558594e+01 2.815644025802612305e+00 5.251288414001464844e+00 -4.102362632751464844e+00
1.210000000000000000e+02 8.569295883178710938e+00 4.113860130310058594e+00 1.294244766235351562e+01 2.300920486450195312e+00 4.573010444641113281e+00 -3.359483718872070312e+00
1.220000000000000000e+02 8.155893325805664062e+00 4.556475162506103516e+00 2.282954978942871094e+01 2.257200479507446289e+00 7.526025295257568359e+00 -6.643074989318847656e+00
1.230000000000000000e+02 8.327924728393554688e+00 4.456367015838623047e+00 1.820960044860839844e+01 1.753198981285095215e+00 5.988839626312255859e+00 -4.070613861083984375e+00
1.240000000000000000e+02 8.499955177307128906e+00 4.356259346008300781e+00 1.566574287414550781e+01 1.562061429023742676e+00 5.168341159820556641e+00 -3.240819454193115234e+00
1.250000000000000000e+02 8.671985626220703125e+00 4.256151199340820312e+00 1.429826641082763672e+01 1.241654038429260254e+00 4.661976337432861328e+00 -2.876153945922851562e+00
1.260000000000000000e+02 8.180218696594238281e+00 4.609668731689453125e+00 2.364733695983886719e+01 -2.461050748825073242e-01 7.020369529724121094e+00 -3.818570137023925781e+00
1.270000000000000000e+02 8.368467330932617188e+00 4.545023918151855469e+00 1.818693351745605469e+01 8.861486911773681641e-01 5.721924781799316406e+00 -2.623777389526367188e+00
1.280000000000000000e+02 8.556714057922363281e+00 4.480378627777099609e+00 1.660188293457031250e+01 6.870619654655456543e-01 5.186683177947998047e+00 -2.424836635589599609e+00
1.290000000000000000e+02 8.744961738586425781e+00 4.415733337402343750e+00 1.506494617462158203e+01 4.041254520416259766e-01 4.640721321105957031e+00 -1.929952502250671387e+00
1.300000000000000000e+02 8.193705558776855469e+00 4.666584968566894531e+00 2.113941001892089844e+01 -8.250005841255187988e-01 6.094322681427001953e+00 -1.049564361572265625e+00
1.310000000000000000e+02 8.390944480895996094e+00 4.639883518218994141e+00 1.866379737854003906e+01 6.109818220138549805e-01 5.782433986663818359e+00 -1.726879000663757324e+00
1.320000000000000000e+02 8.588184356689453125e+00 4.613182544708251953e+00 1.654310035705566406e+01 -9.970189630985260010e-02 4.933019161224365234e+00 -1.182277321815490723e+00
1.330000000000000000e+02 8.785423278808593750e+00 4.586481094360351562e+00 1.548366546630859375e+01 2.190253138542175293e-01 4.710807323455810547e+00 -1.117366075515747070e+00
1.340000000000000000e+02 1.940666389465332031e+01 3.069528102874755859e+00 2.452742338180541992e+00 7.007536888122558594e-01 9.460487961769104004e-01 -2.064521610736846924e-01
1.350000000000000000e+02 1.852965354919433594e+01 3.849174737930297852e+00 -3.764043331146240234e+00 1.776102930307388306e-01 -1.075929880142211914e+00 5.173282027244567871e-01
1.360000000000000000e+02 1.946417236328125000e+01 3.955204248428344727e+00 -4.866000175476074219e+00 -4.467733204364776611e-02 -1.473203301429748535e+00 9.722498655319213867e-01
1.370000000000000000e+02 1.853022384643554688e+01 3.481578588485717773e+00 1.115469813346862793e+00 5.532470345497131348e-01 5.006150603294372559e-01 -8.387610316276550293e-01
1.380000000000000000e+02 1.888065910339355469e+01 3.068046808242797852e+00 4.028289318084716797e+00 1.634924888610839844e+00 1.698964238166809082e+00 -1.483050346374511719e+00
1.390000000000000000e+02 1.851264190673828125e+01 3.119854688644409180e+00 4.961287975311279297e+00 7.054080367088317871e-01 1.700008749961853027e+00 -1.697530388832092285e+00
1.400000000000000000e+02 2.090713691711425781e+01 3.037693738937377930e+00 -3.463011085987091064e-01 -1.767339259386062622e-01 -1.569105088710784912e-01 6.694465875625610352e-01
1.410000000000000000e+02 2.014124488830566406e+01 3.091982126235961914e+00 5.760963559150695801e-01 -1.373182982206344604e-01 1.316334307193756104e-01 3.285588920116424561e-01
1.420000000000000000e+02 2.097125053405761719e+01 3.775025129318237305e+00 -2.683513879776000977e+00 -2.386295944452285767e-01 -8.766430020332336426e-01 5.680857300758361816e-01
1.430000000000000000e+02 1.853870582580566406e+01 3.666600465774536133e+00 -1.227704286575317383e+00 4.916754662990570068e-01 -2.208086252212524414e-01 -1.724877059459686279e-01
1.440000000000000000e+02 1.855896568298339844e+01 4.026643276214599609e+00 -5.002874851226806641e+00 5.536102056503295898e-01 -1.334779381752014160e+00 9.538069963455200195e-01
1.450000000000000000e+02 1.917529106140136719e+01 3.532583951950073242e+00 -1.044326543807983398e+00 2.141682803630828857e-01 -2.490474879741668701e-01 2.233007848262786865e-01
1.460000000000000000e+02 1.859504890441894531e+01 2.924810647964477539e+00 5.515441894531250000e+00 1.480061173439025879e+00 2.098650932312011719e+00 -2.316925764083862305e+00
1.470000000000000000e+02 1.880144309997558594e+01 3.347646236419677734e+00 2.153722763061523438e+00 1.090366840362548828e+00 9.732269048690795898e-01 -7.208493351936340332e-01
1.480000000000000000e+02 1.893396759033203125e+01 4.029515743255615234e+00 -5.674322605133056641e+00 -1.734280735254287720e-01 -1.754325151443481445e+00 7.677890658378601074e-01
1.490000000000000000e+02 1.866519165039062500e+01 4.207315921783447266e+00 -7.197792530059814453e+00 2.202744930982589722e-01 -2.093255519866943359e+00 8.017165660858154297e-01
1.500000000000000000e+02 2.019800376892089844e+01 3.829823493957519531e+00 -3.640434741973876953e+00 -1.607135236263275146e-01 -1.140344500541687012e+00 8.744463324546813965e-01
1.510000000000000000e+02 1.882187080383300781e+01 3.765968561172485352e+00 -3.051942110061645508e+00 2.198505103588104248e-01 -8.496274948120117188e-01 4.682532250881195068e-01
1.520000000000000000e+02 1.850293922424316406e+01 3.301009416580200195e+00 3.950983047485351562e+00 8.600321412086486816e-01 1.443304538726806641e+00 -1.430066704750061035e+00
1.530000000000000000e+02 7.314691162109375000e+01 9.576668739318847656e+00 -1.974140405654907227e+00 4.645698070526123047e-01 -4.528711736202239990e-01 -1.617534518241882324e+00
1.540000000000000000e+02 7.298120117187500000e+01 1.086204242706298828e+01 1.025385499000549316e+00 2.023831605911254883e+00 9.147651791572570801e-01 -2.217930316925048828e+00
1.550000000000000000e+02 7.343002319335937500e+01 1.186757373809814453e+01 1.706425189971923828e+00 3.591657161712646484e+00 1.589424729347229004e+00 -1.482258200645446777e+00
1.560000000000000000e+02 7.387053680419921875e+01 1.354387474060058594e+01 1.274456739425659180e+00 5.071599006652832031e+00 1.903816699981689453e+00 -8.840858936309814453e-01
1.570000000000000000e+02 7.290142822265625000e+01 1.765733146667480469e+01 7.474837303161621094e-01 6.182673931121826172e+00 2.079047441482543945e+00 4.599933028221130371e-01
1.580000000000000000e+02 7.430100250244140625e+01 1.825029754638671875e+01 4.681887328624725342e-01 6.120640277862548828e+00 1.976648688316345215e+00 8.238326758146286011e-02
1.590000000000000000e+02 7.413775634765625000e+01 1.973676109313964844e+01 3.353208303451538086e-01 6.218377590179443359e+00 1.966109633445739746e+00 2.699384987354278564e-01
1.600000000000000000e+02 7.274174499511718750e+01 2.265536308288574219e+01 3.966091945767402649e-02 6.466641426086425781e+00 1.951890707015991211e+00 2.953570783138275146e-01
1.610000000000000000e+02 7.414193725585937500e+01 2.414662361145019531e+01 -1.898535713553428650e-02 6.461402893066406250e+00 1.932725191116333008e+00 2.808300256729125977e-01
1.620000000000000000e+02 7.398715972900390625e+01 2.573344421386718750e+01 -2.101993001997470856e-02 6.464727878570556641e+00 1.933112382888793945e+00 2.612229883670806885e-01
1.630000000000000000e+02 7.419264221191406250e+01 2.744232749938964844e+01 -5.215525627136230469e-02 6.501385688781738281e+00 1.934769153594970703e+00 2.597515881061553955e-01
1.640000000000000000e+02 7.490404510498046875e+01 2.886705398559570312e+01 -5.426900088787078857e-02 6.540430545806884766e+00 1.945848584175109863e+00 2.055570930242538452e-01
1.650000000000000000e+02 7.539565277099609375e+01 3.014149665832519531e+01 -4.438811913132667542e-02 6.587043285369873047e+00 1.962796568870544434e+00 2.020913213491439819e-01
1.660000000000000000e+02 7.408016204833984375e+01 3.176970291137695312e+01 -7.818637788295745850e-02 6.526491641998291016e+00 1.934491634368896484e+00 1.928130090236663818e-01
1.670000000000000000e+02 7.194042205810546875e+01 3.571125030517578125e+01 -1.152248084545135498e-01 6.370028972625732422e+00 1.876441240310668945e+00 1.290232241153717041e-01
1.680000000000000000e+02 7.671169281005859375e+01 3.742689895629882812e+01 -4.845250025391578674e-02 6.880846977233886719e+00 2.049718379974365234e+00 8.268804103136062622e-02
1.690000000000000000e+02 7.208660888671875000e+01 4.102581024169921875e+01 -8.832197636365890503e-02 6.442931652069091797e+00 1.906382918357849121e+00 1.866922900080680847e-02
1.700000000000000000e+02 6.273716735839843750e+01 4.071413421630859375e+01 -2.589248120784759521e-01 5.503191947937011719e+00 1.573280215263366699e+00 4.251397214829921722e-03
1.710000000000000000e+02 7.171321105957031250e+01 3.820952224731445312e+01 -1.211572885513305664e-01 6.395712375640869141e+00 1.882366538047790527e+00 9.946928918361663818e-02
1.720000000000000000e+02 7.448282623291015625e+01 3.795610046386718750e+01 -6.700270622968673706e-02 6.626224517822265625e+00 1.967766523361206055e+00 7.142478972673416138e-02
1.730000000000000000e+02 7.271361541748046875e+01 2.988292694091796875e+01 -8.309656381607055664e-02 6.441148281097412109e+00 1.907415509223937988e+00 2.316230237483978271e-01
1.740000000000000000e+02 7.129502868652343750e+01 3.016665840148925781e+01 -9.423950314521789551e-02 6.349530696868896484e+00 1.876587390899658203e+00 2.086973041296005249e-01
1.750000000000000000e+02 7.133230590820312500e+01 2.686904716491699219e+01 -5.227444320917129517e-02 6.394723415374755859e+00 1.902734756469726562e+00 2.695839107036590576e-01
1.760000000000000000e+02 7.211295318603515625e+01 2.551583480834960938e+01 -6.982664018869400024e-02 6.429718017578125000e+00 1.907967329025268555e+00 2.596636116504669189e-01
1.770000000000000000e+02 7.098983764648437500e+01 2.364169692993164062e+01 -2.968826889991760254e-02 6.406419754028320312e+00 1.913019537925720215e+00 2.545787394046783447e-01
1.780000000000000000e+02 7.246314239501953125e+01 2.009837532043457031e+01 2.844559848308563232e-01 6.498184204101562500e+00 2.034792184829711914e+00 3.778542578220367432e-01
1.790000000000000000e+02 7.164715576171875000e+01 1.882150077819824219e+01 3.696785271167755127e-01 6.324649810791015625e+00 2.008298397064208984e+00 4.023678004741668701e-01
1.800000000000000000e+02 7.088847351074218750e+01 1.753570556640625000e+01 6.560390591621398926e-01 6.703755855560302734e+00 2.207938432693481445e+00 7.402173280715942383e-01
1.810000000000000000e+02 7.172344207763671875e+01 1.497600555419921875e+01 1.515316367149353027e+00 5.390760898590087891e+00 2.071823120117187500e+00 4.722409844398498535e-01
1.820000000000000000e+02 7.114121246337890625e+01 1.335003757476806641e+01 2.165393829345703125e+00 4.758588314056396484e+00 2.077194690704345703e+00 6.965267658233642578e-01
1.830000000000000000e+02 7.155677795410156250e+01 1.215892601013183594e+01 1.978373169898986816e+00 3.876218318939208984e+00 1.756377458572387695e+00 2.670894376933574677e-02
1.840000000000000000e+02 7.193336486816406250e+01 9.387234687805175781e+00 -3.365713119506835938e+00 -4.182987809181213379e-01 -1.135203599929809570e+00 -1.051548957824707031e+00
1.850000000000000000e+02 7.502919006347656250e+01 8.861395835876464844e+00 1.747050881385803223e+00 7.926671028137207031e+00 2.902116537094116211e+00 -3.915103673934936523e+00
1.860000000000000000e+02 7.638717651367187500e+01 1.062838268280029297e+01 -6.712500452995300293e-01 8.042668342590332031e+00 2.211425304412841797e+00 -8.519603013992309570e-01
1.870000000000000000e+02 7.548163604736328125e+01 1.316928958892822266e+01 3.198144137859344482e-01 6.196251869201660156e+00 1.954819798469543457e+00 -1.291588544845581055e+00
1.880000000000000000e+02 7.497566986083984375e+01 1.421356201171875000e+01 6.559313535690307617e-01 5.500304698944091797e+00 1.846870779991149902e+00 -9.623857736587524414e-01
1.890000000000000000e+02 7.585734558105468750e+01 1.972135543823242188e+01 1.875132024288177490e-01 6.290033340454101562e+00 1.943264007568359375e+00 8.314490318298339844e-02
1.900000000000000000e+02 7.424960327148437500e+01 2.267070198059082031e+01 6.899815797805786133e-02 6.418321132659912109e+00 1.946195840835571289e+00 2.812492251396179199e-01
1.910000000000000000e+02 7.583457183837890625e+01 2.405418968200683594e+01 2.767205610871315002e-02 6.453118801116943359e+00 1.944237232208251953e+00 2.368458807468414307e-01
1.920000000000000000e+02 7.584474945068359375e+01 2.551785469055175781e+01 -3.900546953082084656e-02 6.504326820373535156e+00 1.939596414566040039e+00 2.424157857894897461e-01
1.930000000000000000e+02 7.600267791748046875e+01 2.696887397766113281e+01 -1.686198404058814049e-03 6.536808967590332031e+00 1.960536837577819824e+00 2.049723267555236816e-01
1.940000000000000000e+02 7.633146667480468750e+01 2.838621139526367188e+01 -4.608766362071037292e-02 6.592917919158935547e+00 1.964049100875854492e+00 2.119327634572982788e-01
1.950000000000000000e+02 7.665657806396484375e+01 2.987085151672363281e+01 -1.415921188890933990e-02 6.661186218261718750e+00 1.994108080863952637e+00 1.509999483823776245e-01
1.960000000000000000e+02 7.552841186523437500e+01 3.171900939941406250e+01 -3.748146444559097290e-02 6.630230426788330078e+00 1.977824687957763672e+00 1.617791056632995605e-01
1.970000000000000000e+02 7.569213867187500000e+01 3.350189590454101562e+01 -6.442814320325851440e-02 6.675940036773681641e+00 1.983453512191772461e+00 1.509059667587280273e-01
1.980000000000000000e+02 7.614617919921875000e+01 3.543742370605468750e+01 -3.019054792821407318e-02 6.778374671936035156e+00 2.024455308914184570e+00 8.548003435134887695e-02
1.990000000000000000e+02 7.733481597900390625e+01 3.917871475219726562e+01 -2.028849720954895020e-02 7.025694847106933594e+00 2.101621866226196289e+00 -5.234554875642061234e-03
2.000000000000000000e+02 7.541630554199218750e+01 4.029219818115234375e+01 -2.458685822784900665e-02 6.768067359924316406e+00 2.023044109344482422e+00 6.689929962158203125e-02
2.010000000000000000e+02 7.594128417968750000e+01 9.701418876647949219e+00 -8.687162399291992188e-01 1.043764877319335938e+01 2.870679855346679688e+00 -1.790058732032775879e+00
2.020000000000000000e+02 7.797910308837890625e+01 6.996013641357421875e+00 1.280166387557983398e+00 9.109663009643554688e+00 3.116948604583740234e+00 -5.055588483810424805e-01
2.030000000000000000e+02 7.932701873779296875e+01 6.959208011627197266e+00 1.201215609908103943e-01 6.076668739318847656e+00 1.859037041664123535e+00 -3.999821543693542480e-01
2.040000000000000000e+02 7.935134124755859375e+01 8.315201759338378906e+00 4.826517403125762939e-01 5.967347621917724609e+00 1.934999704360961914e+00 2.630497813224792480e-01
2.050000000000000000e+02 7.742790985107421875e+01 1.023509216308593750e+01 -6.264107227325439453e-01 8.552962303161621094e+00 2.377965450286865234e+00 -2.467255741357803345e-01
2.060000000000000000e+02 7.692673492431640625e+01 9.302160263061523438e+00 -3.886160850524902344e-01 9.805451393127441406e+00 2.825050592422485352e+00 -1.788500398397445679e-01
2.070000000000000000e+02 7.662460327148437500e+01 7.179167747497558594e+00 2.974180459976196289e+00 1.467723846435546875e+01 5.295425415039062500e+00 -2.717309236526489258e+00
2.080000000000000000e+02 7.629753112792968750e+01 6.011459350585937500e+00 7.223026752471923828e-01 1.627440071105957031e+01 5.099010944366455078e+00 -1.552726387977600098e+00
2.090000000000000000e+02 7.618080902099609375e+01 4.722810268402099609e+00 4.149281680583953857e-01 1.415992736816406250e+01 4.372456550598144531e+00 -4.361592233180999756e-01
2.100000000000000000e+02 7.590454864501953125e+01 3.525512456893920898e+00 7.829798758029937744e-02 1.039843082427978516e+01 3.143018722534179688e+00 1.165387183427810669e-01
2.110000000000000000e+02 7.495891571044921875e+01 1.855520129203796387e+00 -2.914592504501342773e+00 2.400456905364990234e+00 -1.542406827211380005e-01 -7.486714720726013184e-01
2.120000000000000000e+02 7.305871582031250000e+01 2.716294229030609131e-01 -4.108611106872558594e+00 -2.816449403762817383e-01 -1.317076921463012695e+00 -1.958105683326721191e+00
2.130000000000000000e+02 7.245950317382812500e+01 -6.188083887100219727e-01 -1.314278602600097656e+00 2.022422313690185547e+00 2.124430835247039795e-01 -2.996134996414184570e+00
2.140000000000000000e+02 6.979109954833984375e+01 2.308994770050048828e+00 2.637101173400878906e+00 1.182267951965332031e+01 4.337934017181396484e+00 -4.458393573760986328e+00
2.150000000000000000e+02 6.895896148681640625e+01 2.651444077491760254e-01 -2.254811525344848633e+00 8.229782104492187500e+00 1.792491078376770020e+00 -1.010221362113952637e+00
2.160000000000000000e+02 6.584783935546875000e+01 1.528652310371398926e+00 -8.000283688306808472e-02 4.811708927154541016e+00 1.419511795043945312e+00 2.865096092224121094e+00
2.170000000000000000e+02 6.508064270019531250e+01 2.168774604797363281e+00 -7.344960570335388184e-01 5.268047809600830078e+00 1.360065460205078125e+00 2.864341020584106445e+00
2.180000000000000000e+02 6.290670013427734375e+01 1.599921345710754395e+00 -2.294332981109619141e+00 4.356709480285644531e+00 6.187129020690917969e-01 2.521016359329223633e+00
2.190000000000000000e+02 6.083168411254882812e+01 1.428899645805358887e+00 -3.398990154266357422e+00 2.457149744033813477e+00 -2.825521230697631836e-01 6.964137554168701172e-01
2.200000000000000000e+02 5.884093475341796875e+01 1.645519375801086426e+00 -5.834100723266601562e+00 -1.146743535995483398e+00 -2.094253301620483398e+00 -2.584781646728515625e+00
2.210000000000000000e+02 5.696759033203125000e+01 9.433897584676742554e-02 -2.099631786346435547e+00 -7.008467614650726318e-02 -6.509149670600891113e-01 -3.863972425460815430e+00
2.220000000000000000e+02 5.581423568725585938e+01 6.229100823402404785e-01 6.237472966313362122e-02 5.276265621185302734e+00 1.601592063903808594e+00 -5.663059234619140625e+00
2.230000000000000000e+02 5.425088500976562500e+01 1.886684775352478027e+00 4.848066329956054688e+00 1.818868446350097656e+01 6.911025047302246094e+00 -6.470174789428710938e+00
2.240000000000000000e+02 5.558547210693359375e+01 -8.058516383171081543e-01 -1.496035218238830566e+00 7.380474567413330078e+00 1.765331745147705078e+00 -6.572009086608886719e+00
2.250000000000000000e+02 5.443119430541992188e+01 -9.378998279571533203e-01 -3.252920150756835938e+00 8.478312492370605469e+00 1.567617654800415039e+00 -4.465417861938476562e+00
2.260000000000000000e+02 5.329434204101562500e+01 -2.694779634475708008e+00 -3.351174831390380859e+00 6.667614459991455078e+00 9.949318170547485352e-01 -2.868539810180664062e+00
2.270000000000000000e+02 5.274121093750000000e+01 -4.700935363769531250e+00 -3.359115362167358398e+00 4.574825286865234375e+00 3.647129535675048828e-01 -1.224739670753479004e+00
2.280000000000000000e+02 5.335971832275390625e+01 -7.831784248352050781e+00 1.082500576972961426e+00 4.431578159332275391e+00 1.654223680496215820e+00 -1.964494466781616211e+00
2.290000000000000000e+02 5.258267211914062500e+01 -6.660549640655517578e+00 8.112333714962005615e-02 3.007569789886474609e+00 9.266079664230346680e-01 -1.462796211242675781e+00
2.300000000000000000e+02 5.420991516113281250e+01 -7.037542343139648438e+00 -1.026869565248489380e-01 5.039033889770507812e+00 1.480904102325439453e+00 -1.766791939735412598e+00
2.310000000000000000e+02 5.493365859985351562e+01 -1.026169204711914062e+01 1.328303694725036621e+00 7.864447116851806641e+00 2.757825136184692383e+00 -2.425791263580322266e+00
2.320000000000000000e+02 5.554896926879882812e+01 -1.165475845336914062e+01 1.029888868331909180e+00 1.008827972412109375e+01 3.335450649261474609e+00 -2.231393337249755859e+00
2.330000000000000000e+02 5.858078384399414062e+01 -1.663232803344726562e+01 1.731513381004333496e+00 8.997253417968750000e+00 3.218630075454711914e+00 -1.380623877048492432e-01
2.340000000000000000e+02 6.103244781494140625e+01 -1.785249137878417969e+01 3.130543529987335205e-01 6.858857631683349609e+00 2.151573419570922852e+00 -1.440223336219787598e+00
2.350000000000000000e+02 6.200388336181640625e+01 -1.931674957275390625e+01 1.753957122564315796e-01 6.178814888000488281e+00 1.906263113021850586e+00 -1.460780143737792969e+00
2.360000000000000000e+02 6.516252136230468750e+01 -2.249847030639648438e+01 2.343621402978897095e-01 4.858212947845458984e+00 1.527772545814514160e+00 -1.043437957763671875e+00
2.370000000000000000e+02 6.654732513427734375e+01 -2.356649780273437500e+01 3.990809619426727295e-01 4.962564468383789062e+00 1.608493685722351074e+00 -5.442017912864685059e-01
2.380000000000000000e+02 6.781636047363281250e+01 -2.498422622680664062e+01 3.216723501682281494e-01 5.211740970611572266e+00 1.660023927688598633e+00 -2.431404739618301392e-01
2.390000000000000000e+02 7.128818511962890625e+01 -2.776135063171386719e+01 1.830648481845855713e-01 6.135928153991699219e+00 1.895697832107543945e+00 8.657895028591156006e-02
2.400000000000000000e+02 7.219963836669921875e+01 -2.923072052001953125e+01 1.260735392570495605e-01 6.343063354492187500e+00 1.940741062164306641e+00 8.948992192745208740e-02
2.410000000000000000e+02 7.403194427490234375e+01 -3.111610984802246094e+01 1.028435528278350830e-01 6.745319366455078125e+00 2.054448843002319336e+00 9.045081585645675659e-02
2.420000000000000000e+02 7.511385345458984375e+01 -3.300964355468750000e+01 6.530648469924926758e-02 6.946923255920410156e+00 2.103668928146362305e+00 6.580942869186401367e-02
2.430000000000000000e+02 7.710443878173828125e+01 -3.501810836791992188e+01 -1.188155612908303738e-03 7.290752410888671875e+00 2.186869382858276367e+00 2.760644257068634033e-02
2.440000000000000000e+02 7.903394317626953125e+01 -3.486523056030273438e+01 1.733796438202261925e-03 7.592545509338378906e+00 2.278283834457397461e+00 2.303196862339973450e-02
2.450000000000000000e+02 7.898587799072265625e+01 -3.341312789916992188e+01 -7.492650300264358521e-03 7.625097274780273438e+00 2.285281419754028320e+00 1.909312419593334198e-02
2.460000000000000000e+02 7.710963439941406250e+01 -3.175885963439941406e+01 3.886637836694717407e-02 7.294939994812011719e+00 2.200141906738281250e+00 7.428029179573059082e-02
2.470000000000000000e+02 7.550389099121093750e+01 -2.996896362304687500e+01 7.886511832475662231e-02 7.009275913238525391e+00 2.126442193984985352e+00 1.182867288589477539e-01
2.480000000000000000e+02 7.364530944824218750e+01 -2.848528861999511719e+01 1.165562868118286133e-01 6.646597385406494141e+00 2.028946161270141602e+00 1.532599776983261108e-01
2.490000000000000000e+02 7.028904724121093750e+01 -2.643787765502929688e+01 2.431349456310272217e-01 5.865199565887451172e+00 1.832500338554382324e+00 8.200699836015701294e-02
2.500000000000000000e+02 6.967640686035156250e+01 -2.450652694702148438e+01 2.838068604469299316e-01 5.505903720855712891e+00 1.736913204193115234e+00 6.288921087980270386e-02
2.510000000000000000e+02 6.866249084472656250e+01 -2.377638435363769531e+01 4.523638188838958740e-01 5.064031124114990234e+00 1.654918551445007324e+00 -1.006242185831069946e-01
2.520000000000000000e+02 6.768938446044921875e+01 -2.240573692321777344e+01 4.876603782176971436e-01 4.691601276397705078e+00 1.553778529167175293e+00 -3.234749734401702881e-01
2.530000000000000000e+02 6.386497116088867188e+01 -2.057114219665527344e+01 1.269016712903976440e-01 5.181829929351806641e+00 1.592619419097900391e+00 -1.452724218368530273e+00
2.540000000000000000e+02 6.346515274047851562e+01 -1.772523307800292969e+01 1.035401821136474609e-01 5.199448108673095703e+00 1.590896487236022949e+00 -1.589488744735717773e+00
2.550000000000000000e+02 6.220819854736328125e+01 -1.696007919311523438e+01 2.463576048612594604e-01 6.377166271209716797e+00 1.987057209014892578e+00 -1.341287493705749512e+00
2.560000000000000000e+02 6.118555831909179688e+01 -1.595868873596191406e+01 4.524900317192077637e-01 6.933394908905029297e+00 2.215765476226806641e+00 -1.093316674232482910e+00
2.570000000000000000e+02 5.888047409057617188e+01 -1.269855117797851562e+01 6.648548841476440430e-01 8.939777374267578125e+00 2.881389617919921875e+00 6.304170191287994385e-02
2.580000000000000000e+02 6.916294860839843750e+01 4.406445026397705078e+00 1.850484251976013184e+00 1.707382583618164062e+01 5.677292823791503906e+00 -1.721667766571044922e+00
2.590000000000000000e+02 6.724501800537109375e+01 6.565808296203613281e+00 -4.265496879816055298e-02 1.037069225311279297e+01 3.098411321640014648e+00 -1.652099251747131348e+00
2.600000000000000000e+02 6.436113739013671875e+01 7.391596794128417969e+00 8.044248819351196289e-01 5.523904323577880859e+00 1.898498773574829102e+00 2.536713123321533203e+00
2.610000000000000000e+02 6.614717102050781250e+01 7.303286552429199219e+00 -8.741015791893005371e-01 1.073672294616699219e+01 2.958786249160766602e+00 -3.834834694862365723e-01
2.620000000000000000e+02 6.275419998168945312e+01 5.311272621154785156e+00 3.087973892688751221e-01 1.885322451591491699e+00 6.582359671592712402e-01 1.183350324630737305e+00
2.630000000000000000e+02 6.192804336547851562e+01 4.265282154083251953e+00 -3.338225185871124268e-01 1.360890507698059082e+00 3.081203997135162354e-01 3.068019151687622070e-01
2.640000000000000000e+02 5.993640518188476562e+01 2.418274879455566406e+00 -3.840192794799804688e+00 -3.318218886852264404e-01 -1.251604437828063965e+00 -1.659661412239074707e+00
2.650000000000000000e+02 6.188629531860351562e+01 2.454182386398315430e+00 -2.362484216690063477e+00 2.989012241363525391e+00 1.879584044218063354e-01 9.254279732704162598e-01
2.660000000000000000e+02 6.098098754882812500e+01 3.294708490371704102e+00 -2.067775249481201172e+00 2.469982206821441650e-01 -5.462331175804138184e-01 -4.228840470314025879e-01
2.670000000000000000e+02 6.282515335083007812e+01 3.508744239807128906e+00 -1.110383391380310059e+00 2.923604011535644531e+00 5.439661741256713867e-01 1.316579699516296387e+00
2.680000000000000000e+02 6.619294738769531250e+01 3.072025299072265625e+00 1.193071246147155762e+00 6.753835678100585938e+00 2.384072065353393555e+00 1.174207568168640137e+00
2.690000000000000000e+02 6.556206512451171875e+01 3.983466863632202148e+00 2.913301289081573486e-01 6.609953880310058594e+00 2.070385217666625977e+00 7.555466294288635254e-01
2.700000000000000000e+02 6.857831573486328125e+01 3.210682153701782227e+00 3.211076736450195312e+00 1.281155967712402344e+01 4.806790828704833984e+00 -1.621356248855590820e+00
2.710000000000000000e+02 6.941175079345703125e+01 5.652089118957519531e+00 2.501504123210906982e-01 1.399263763427734375e+01 4.272836208343505859e+00 1.013193011283874512e+00
2.720000000000000000e+02 6.982924652099609375e+01 6.902058601379394531e+00 3.016414940357208252e-01 8.423783302307128906e+00 2.617627382278442383e+00 9.630999565124511719e-01
2.730000000000000000e+02 7.040661621093750000e+01 8.027652740478515625e+00 -1.850250601768493652e+00 2.841735363006591797e+00 2.974454760551452637e-01 -2.422775179147720337e-01
2.740000000000000000e+02 7.068193817138671875e+01 9.242163658142089844e+00 -1.651585936546325684e+00 2.435275554656982422e+00 2.351069003343582153e-01 1.057672798633575439e-01
2.750000000000000000e+02 6.951905822753906250e+01 9.267066955566406250e+00 -6.622236967086791992e-01 7.439693927764892578e+00 2.033241033554077148e+00 6.167243123054504395e-01
2.760000000000000000e+02 6.892491912841796875e+01 1.148851680755615234e+01 1.910745143890380859e+00 7.952380180358886719e+00 2.958937644958496094e+00 1.327280998229980469e+00
2.770000000000000000e+02 6.671094512939453125e+01 1.386717796325683594e+01 9.624825119972229004e-01 1.013707065582275391e+01 3.329866170883178711e+00 6.324957013130187988e-01
2.780000000000000000e+02 6.518292999267578125e+01 1.324717330932617188e+01 3.794225454330444336e+00 1.193503952026367188e+01 4.718779563903808594e+00 -4.776358127593994141e+00
2.790000000000000000e+02 6.294589233398437500e+01 1.486333847045898438e+01 9.563392996788024902e-01 1.655380725860595703e+00 7.835159897804260254e-01 -1.285923719406127930e+00
2.800000000000000000e+02 6.095428085327148438e+01 1.521644401550292969e+01 1.549624800682067871e+00 1.539899468421936035e+00 9.268572926521301270e-01 5.307786464691162109e-01
2.810000000000000000e+02 6.200680923461914062e+01 1.394502639770507812e+01 -5.021622180938720703e-01 -5.314178019762039185e-02 -1.665911972522735596e-01 -5.053546428680419922e-01
2.820000000000000000e+02 5.759405517578125000e+01 1.447325992584228516e+01 1.284115672111511230e+00 3.187994718551635742e+00 1.341633081436157227e+00 2.392078638076782227e+00
2.830000000000000000e+02 5.609226608276367188e+01 1.352173137664794922e+01 1.669197201728820801e+00 5.588675975799560547e+00 2.177361965179443359e+00 2.706323146820068359e+00
2.840000000000000000e+02 5.520491409301757812e+01 1.300752067565917969e+01 2.040620326995849609e+00 6.530414581298828125e+00 2.571310281753540039e+00 2.648694038391113281e+00
2.850000000000000000e+02 4.939216995239257812e+01 1.548946952819824219e+01 1.486971378326416016e+00 7.155054092407226562e+00 2.592607736587524414e+00 -4.730876445770263672e+00
2.860000000000000000e+02 5.073474884033203125e+01 1.234278488159179688e+01 8.016434311866760254e-01 2.602227592468261719e+01 8.047175407409667969e+00 4.605309367179870605e-01
2.870000000000000000e+02 5.065915298461914062e+01 1.101149463653564453e+01 2.959080934524536133e+00 2.366773414611816406e+01 7.988044261932373047e+00 3.952705860137939453e+00
2.880000000000000000e+02 4.988926696777343750e+01 9.033012390136718750e+00 2.783551931381225586e+00 1.428916263580322266e+01 5.121814250946044922e+00 5.185719013214111328e+00
2.890000000000000000e+02 5.096565628051757812e+01 9.697114944458007812e+00 2.204292297363281250e+00 1.839578437805175781e+01 6.180023193359375000e+00 2.785397052764892578e+00
2.900000000000000000e+02 5.329309844970703125e+01 7.809969425201416016e+00 -8.117575049400329590e-01 1.363330268859863281e+01 3.846463680267333984e+00 3.284260332584381104e-01
2.910000000000000000e+02 5.277371215820312500e+01 5.975226402282714844e+00 3.808719813823699951e-01 1.412305355072021484e+01 4.351177692413330078e+00 -1.385012626647949219e+00
2.920000000000000000e+02 5.451491165161132812e+01 6.240888595581054688e+00 4.980337023735046387e-01 1.235339736938476562e+01 3.855429172515869141e+00 2.958644866943359375e+00
2.930000000000000000e+02 5.423572158813476562e+01 8.141719818115234375e+00 5.063840188086032867e-03 1.146864223480224609e+01 3.442111730575561523e+00 1.048954844474792480e+00
2.940000000000000000e+02 5.465510559082031250e+01 9.692235946655273438e+00 5.254665017127990723e-01 8.636468887329101562e+00 2.748580455780029297e+00 1.259669065475463867e+00
2.950000000000000000e+02 5.288401412963867188e+01 1.142113208770751953e+01 3.071747064590454102e+00 1.339468479156494141e+01 4.939929485321044922e+00 6.305283904075622559e-01
2.960000000000000000e+02 5.064769363403320312e+01 1.370081615447998047e+01 3.391503572463989258e+00 2.198715400695800781e+01 7.613597393035888672e+00 -3.302118301391601562e+00
2.970000000000000000e+02 5.193053817749023438e+01 1.376750469207763672e+01 3.060817718505859375e+00 1.445216464996337891e+01 5.253894805908203125e+00 1.418364644050598145e+00
2.980000000000000000e+02 5.323374557495117188e+01 1.038727760314941406e+01 1.700412511825561523e+00 1.240143871307373047e+01 4.230555534362792969e+00 8.770267367362976074e-01
2.990000000000000000e+02 5.520921707153320312e+01 8.435488700866699219e+00 3.988980948925018311e-01 6.892295360565185547e+00 2.187358140945434570e+00 1.443690657615661621e+00
3.000000000000000000e+02 5.513150787353515625e+01 7.302878856658935547e+00 7.689075469970703125e-01 8.061530113220214844e+00 2.649131298065185547e+00 1.805231332778930664e+00
3.010000000000000000e+02 6.710797882080078125e+01 -3.442706108093261719e+00 -3.627958536148071289e+00 -5.368949770927429199e-01 -1.249456048011779785e+00 2.149318456649780273e+00
3.020000000000000000e+02 6.626455688476562500e+01 -8.729389309883117676e-01 -2.103246927261352539e+00 2.313501358032226562e+00 6.307636946439743042e-02 1.624474763870239258e+00
3.030000000000000000e+02 6.806881713867187500e+01 -4.398848056793212891e+00 -1.894260168075561523e+00 3.518413603305816650e-01 -4.627256393432617188e-01 3.153649270534515381e-01
3.040000000000000000e+02 6.802286529541015625e+01 -2.654592514038085938e+00 -4.441168308258056641e+00 2.810483932495117188e+00 -4.892052710056304932e-01 -2.602860629558563232e-01
3.050000000000000000e+02 6.714114379882812500e+01 -1.740314960479736328e+00 -3.427822828292846680e+00 2.569412469863891602e+00 -2.575230896472930908e-01 2.084899842739105225e-01
3.060000000000000000e+02 7.025260925292968750e+01 5.641258321702480316e-03 -3.230612993240356445e+00 6.749370574951171875e+00 1.055627226829528809e+00 -3.556745767593383789e+00
3.070000000000000000e+02 7.150914764404296875e+01 -2.763932645320892334e-01 -1.729394912719726562e+00 4.051536083221435547e+00 6.966423988342285156e-01 -4.272895336151123047e+00
3.080000000000000000e+02 7.086138153076171875e+01 -5.288155555725097656e+00 -5.607982873916625977e-01 4.871012210845947266e+00 1.293064236640930176e+00 -1.383857369422912598e+00
3.090000000000000000e+02 7.213936614990234375e+01 -7.804411411285400391e+00 1.032952308654785156e+00 7.949241161346435547e+00 2.694658041000366211e+00 -1.589802026748657227e+00
3.100000000000000000e+02 7.348805999755859375e+01 -9.103625297546386719e+00 1.026208877563476562e+00 9.583244323730468750e+00 3.182835817337036133e+00 5.009061694145202637e-01
3.110000000000000000e+02 7.237944030761718750e+01 -1.168707180023193359e+01 5.229327082633972168e-01 1.365218639373779297e+01 4.252535820007324219e+00 -1.446168571710586548e-01
3.120000000000000000e+02 7.230390167236328125e+01 -1.309480667114257812e+01 4.981330633163452148e-01 1.446270179748535156e+01 4.488250255584716797e+00 9.300649166107177734e-01
3.130000000000000000e+02 7.205068969726562500e+01 -1.449226379394531250e+01 2.358285427093505859e+00 1.415670490264892578e+01 4.954496860504150391e+00 2.947987556457519531e+00
3.140000000000000000e+02 7.143748474121093750e+01 -1.567254066467285156e+01 7.145944237709045410e-01 7.332759380340576172e+00 2.414206027984619141e+00 2.993368864059448242e+00
3.150000000000000000e+02 7.084025573730468750e+01 -1.689554023742675781e+01 -9.167705178260803223e-01 4.137732505798339844e+00 9.662885069847106934e-01 2.542479991912841797e+00
3.160000000000000000e+02 6.938317871093750000e+01 -1.631154632568359375e+01 -1.797655940055847168e+00 1.866948902606964111e-01 -4.832883179187774658e-01 1.057083725929260254e+00
3.170000000000000000e+02 6.815632629394531250e+01 -1.544653320312500000e+01 -1.563929677009582520e+00 1.262124925851821899e-01 -4.313151538372039795e-01 3.266581296920776367e-01
3.180000000000000000e+02 6.714581298828125000e+01 -1.427241611480712891e+01 -4.462060928344726562e-01 7.295647263526916504e-01 8.500758558511734009e-02 -5.192825943231582642e-02
3.190000000000000000e+02 6.424600982666015625e+01 -1.301996612548828125e+01 -2.461730241775512695e-01 5.130393505096435547e+00 1.465266108512878418e+00 -1.084957003593444824e+00
3.200000000000000000e+02 6.351189804077148438e+01 -1.082204151153564453e+01 6.014609932899475098e-01 6.965357780456542969e+00 2.270045518875122070e+00 -1.321695685386657715e+00
3.210000000000000000e+02 6.347608947753906250e+01 -9.550256729125976562e+00 1.102749109268188477e+00 8.840787887573242188e+00 2.983061075210571289e+00 -1.529227972030639648e+00
3.220000000000000000e+02 6.320045471191406250e+01 -8.205721855163574219e+00 2.254271656274795532e-01 1.078558349609375000e+01 3.303303241729736328e+00 -1.170966863632202148e+00
3.230000000000000000e+02 6.150071334838867188e+01 -6.820869922637939453e+00 8.287973403930664062e-01 9.744418144226074219e+00 3.171964645385742188e+00 3.940644264221191406e-01
3.240000000000000000e+02 5.942471694946289062e+01 -6.071263313293457031e+00 1.664640903472900391e+00 7.395720958709716797e+00 2.718108654022216797e+00 -8.586741983890533447e-02
3.250000000000000000e+02 5.872164154052734375e+01 -4.458515167236328125e+00 8.793299198150634766e-01 5.852035999298095703e+00 2.019409656524658203e+00 -1.477318167686462402e+00
3.260000000000000000e+02 5.620237731933593750e+01 -3.112040519714355469e+00 -1.026294827461242676e+00 6.120799064636230469e+00 1.528351306915283203e+00 -4.048355579376220703e+00
3.270000000000000000e+02 6.304108428955078125e+01 -6.783246517181396484e+00 9.525649547576904297e-01 1.217365646362304688e+01 3.937866449356079102e+00 -2.748925685882568359e-01
3.280000000000000000e+02 6.150567626953125000e+01 -5.192125797271728516e+00 2.355867147445678711e+00 9.466326713562011719e+00 3.546658277511596680e+00 1.262249350547790527e+00
3.290000000000000000e+02 6.026105117797851562e+01 -3.400660753250122070e+00 9.461179375648498535e-01 6.209326744079589844e+00 2.146633386611938477e+00 -6.039433479309082031e-01
3.300000000000000000e+02 5.655167770385742188e+01 -1.168210983276367188e+00 3.563210070133209229e-01 4.809015274047851562e+00 1.549600958824157715e+00 -6.211292743682861328e+00
3.310000000000000000e+02 6.301139450073242188e+01 -5.323381900787353516e+00 2.603700757026672363e-01 1.375882530212402344e+01 4.205758571624755859e+00 8.351715803146362305e-01
3.320000000000000000e+02 6.175832366943359375e+01 -3.525334596633911133e+00 1.727107048034667969e+00 8.132610321044921875e+00 2.957915067672729492e+00 3.425645828247070312e-01
3.330000000000000000e+02 6.029565048217773438e+01 -2.006899118423461914e+00 -2.186565399169921875e-01 5.390698432922363281e+00 1.551612615585327148e+00 -4.602760672569274902e-01
3.340000000000000000e+02 5.799494934082031250e+01 -6.088964343070983887e-01 -5.823543667793273926e-01 1.163862228393554688e+00 1.744523495435714722e-01 -2.925420761108398438e+00
3.350000000000000000e+02 5.773823928833007812e+01 1.022500634193420410e+00 -6.499874114990234375e+00 -1.259628295898437500e+00 -2.327850818634033203e+00 -2.781816244125366211e+00
3.360000000000000000e+02 6.320661544799804688e+01 -3.805970430374145508e+00 2.963373422622680664e+00 1.420515537261962891e+01 5.150558471679687500e+00 2.860241413116455078e+00
3.370000000000000000e+02 6.315416336059570312e+01 -1.469356417655944824e+00 -2.992835283279418945e+00 8.709748268127441406e+00 1.715073943138122559e+00 3.100689649581909180e+00
3.380000000000000000e+02 6.400205230712890625e+01 -2.570810317993164062e+00 -8.803449869155883789e-01 8.573732376098632812e+00 2.308016300201416016e+00 3.780976772308349609e+00
3.390000000000000000e+02 6.613349914550781250e+01 -2.564165592193603516e+00 -6.667534351348876953e+00 -1.806506276130676270e+00 -2.542212247848510742e+00 2.955808639526367188e+00
3.400000000000000000e+02 6.440032196044921875e+01 -6.566250920295715332e-01 -2.246199369430541992e+00 5.602318286895751953e+00 1.006835699081420898e+00 5.322361946105957031e+00
3.410000000000000000e+02 6.644480133056640625e+01 7.121791839599609375e-01 -8.800215721130371094e-01 4.954272747039794922e+00 1.222275376319885254e+00 1.404307484626770020e+00
3.420000000000000000e+02 6.727951812744140625e+01 1.389623165130615234e+00 -6.844858527183532715e-01 6.300826549530029297e+00 1.684902191162109375e+00 1.118914604187011719e+00
3.430000000000000000e+02 5.013697814941406250e+01 -3.513873815536499023e+00 -5.658811092376708984e+00 2.494086325168609619e-01 -1.622820734977722168e+00 1.516835689544677734e+00
3.440000000000000000e+02 4.836689758300781250e+01 -2.144585371017456055e+00 -6.966129541397094727e-01 -4.825482964515686035e-01 -3.537483811378479004e-01 2.717294931411743164e+00
3.450000000000000000e+02 4.860566711425781250e+01 -3.150688409805297852e-01 1.100657820701599121e+00 2.571068286895751953e+00 1.101517796516418457e+00 3.101413726806640625e+00
3.460000000000000000e+02 4.836702346801757812e+01 2.590310335159301758e+00 2.858510494232177734e+00 4.233243465423583984e+00 2.127526283264160156e+00 2.947543144226074219e+00
3.470000000000000000e+02 4.632331848144531250e+01 4.783069133758544922e+00 2.391409635543823242e+00 2.935169935226440430e+00 1.597973942756652832e+00 2.654637098312377930e+00
3.480000000000000000e+02 4.531991195678710938e+01 3.754544019699096680e+00 2.578046321868896484e+00 3.070692062377929688e+00 1.694621562957763672e+00 2.765235185623168945e+00
3.490000000000000000e+02 4.433323669433593750e+01 2.806977272033691406e+00 2.464335441589355469e+00 3.464124679565429688e+00 1.778538107872009277e+00 3.200092315673828125e+00
3.500000000000000000e+02 4.335821914672851562e+01 1.872712254524230957e+00 1.952415227890014648e+00 3.289880990982055664e+00 1.572688817977905273e+00 2.442539453506469727e+00
3.510000000000000000e+02 4.136154937744140625e+01 7.704918831586837769e-02 6.157528758049011230e-01 8.204290270805358887e-01 4.308545589447021484e-01 2.907862663269042969e-01
3.520000000000000000e+02 4.174698257446289062e+01 -1.710400342941284180e+00 1.257583260536193848e+00 2.874680042266845703e+00 1.239678978919982910e+00 8.301609009504318237e-02
3.530000000000000000e+02 4.182718276977539062e+01 -4.206726551055908203e+00 2.635692119598388672e+00 3.752386331558227539e+00 1.916423439979553223e+00 7.126781344413757324e-02
3.540000000000000000e+02 4.061664962768554688e+01 -7.287366867065429688e+00 -2.549327909946441650e-01 2.252249002456665039e+00 5.991948843002319336e-01 1.100608587265014648e+00
3.550000000000000000e+02 4.122133255004882812e+01 -9.570437431335449219e+00 -1.478900790214538574e+00 4.104636669158935547e+00 7.877208590507507324e-01 1.461555957794189453e+00
3.560000000000000000e+02 4.059014129638671875e+01 -1.128978252410888672e+01 -4.385688304901123047e-01 4.062667369842529297e+00 1.087229490280151367e+00 4.509189128875732422e-01
3.570000000000000000e+02 4.099938201904296875e+01 -1.270579147338867188e+01 -1.286222040653228760e-02 7.092316150665283203e+00 2.123836278915405273e+00 3.343517482280731201e-01
3.580000000000000000e+02 4.111437988281250000e+01 -1.420886039733886719e+01 3.778181076049804688e-01 9.397707939147949219e+00 2.932657718658447266e+00 7.531919479370117188e-01
3.590000000000000000e+02 4.221120452880859375e+01 -1.626921272277832031e+01 1.036436080932617188e+00 5.502551078796386719e+00 1.961696147918701172e+00 3.531000390648841858e-02
3.600000000000000000e+02 4.340801239013671875e+01 -1.667781448364257812e+01 -5.273682251572608948e-02 4.415913581848144531e+00 1.308953046798706055e+00 -3.417189419269561768e-01
3.610000000000000000e+02 4.459426879882812500e+01 -1.864764404296875000e+01 -5.191320180892944336e-01 3.446017265319824219e+00 8.780655860900878906e-01 -6.679688692092895508e-01
3.620000000000000000e+02 4.907646942138671875e+01 -2.403568649291992188e+01 -6.837137043476104736e-02 1.957167267799377441e+00 5.666387677192687988e-01 -2.564801275730133057e-01
3.630000000000000000e+02 5.040660095214843750e+01 -2.609522628784179688e+01 4.840807989239692688e-02 2.402305126190185547e+00 7.352139353752136230e-01 1.430455595254898071e-01
3.640000000000000000e+02 5.078474426269531250e+01 -2.777703094482421875e+01 2.392882555723190308e-01 2.758622407913208008e+00 8.993731737136840820e-01 1.767111718654632568e-01
3.650000000000000000e+02 5.158742141723632812e+01 -2.954253959655761719e+01 4.706874117255210876e-02 3.029906034469604492e+00 9.230924844741821289e-01 2.432329356670379639e-01
3.660000000000000000e+02 5.517026901245117188e+01 -2.985215187072753906e+01 -8.185202628374099731e-02 4.017514228820800781e+00 1.180698633193969727e+00 3.825560808181762695e-01
3.670000000000000000e+02 5.658511352539062500e+01 -3.198416328430175781e+01 -7.848116010427474976e-02 4.094312667846679688e+00 1.204749464988708496e+00 1.864131689071655273e-01
3.680000000000000000e+02 5.925058746337890625e+01 -3.881211853027343750e+01 8.134267479181289673e-02 4.589846611022949219e+00 1.401356816291809082e+00 4.207044839859008789e-02
3.690000000000000000e+02 6.737274932861328125e+01 -4.076479339599609375e+01 4.514161497354507446e-02 5.782417297363281250e+00 1.748267769813537598e+00 -1.877332921139895916e-03
3.700000000000000000e+02 6.916763305664062500e+01 -3.632683563232421875e+01 4.662928357720375061e-02 6.019528865814208984e+00 1.819847345352172852e+00 -1.017003227025270462e-02
3.710000000000000000e+02 6.789220428466796875e+01 -3.414685821533203125e+01 4.267011210322380066e-02 5.727896690368652344e+00 1.731169939041137695e+00 -3.180543333292007446e-02
3.720000000000000000e+02 6.769026184082031250e+01 -3.214254760742187500e+01 9.192918241024017334e-02 5.721263885498046875e+00 1.743957877159118652e+00 -4.016422107815742493e-02
3.730000000000000000e+02 6.846127319335937500e+01 -3.021414947509765625e+01 1.044997796416282654e-01 5.769356727600097656e+00 1.762156844139099121e+00 -9.086275100708007812e-02
3.740000000000000000e+02 6.737873840332031250e+01 -2.683960342407226562e+01 2.126626968383789062e-01 5.432414531707763672e+00 1.693523049354553223e+00 -2.474108189344406128e-01
3.750000000000000000e+02 6.560746765136718750e+01 -2.630116462707519531e+01 1.509201377630233765e-01 5.320392131805419922e+00 1.641393661499023438e+00 -4.168422222137451172e-01
3.760000000000000000e+02 6.520607757568359375e+01 -2.426748275756835938e+01 8.652539551258087158e-02 5.219408512115478516e+00 1.591780066490173340e+00 -6.735042333602905273e-01
3.770000000000000000e+02 6.357820129394531250e+01 -2.442240715026855469e+01 6.689262390136718750e-02 5.406296730041503906e+00 1.641956806182861328e+00 -6.990303993225097656e-01
3.780000000000000000e+02 6.217707061767578125e+01 -2.480321502685546875e+01 -5.881532430648803711e-01 5.581823825836181641e+00 1.498101115226745605e+00 -7.684069275856018066e-01
3.790000000000000000e+02 6.101812362670898438e+01 -2.520650672912597656e+01 -4.291567802429199219e-01 5.776997566223144531e+00 1.604352235794067383e+00 -1.885995566844940186e-01
3.800000000000000000e+02 5.803211212158203125e+01 -2.568117332458496094e+01 -3.865994811058044434e-01 5.211235046386718750e+00 1.447390675544738770e+00 4.986433982849121094e-01
3.810000000000000000e+02 5.597176742553710938e+01 -2.481052398681640625e+01 -6.418861150741577148e-01 5.218209266662597656e+00 1.372896909713745117e+00 1.116989374160766602e+00
3.820000000000000000e+02 5.386488723754882812e+01 -2.438899421691894531e+01 -2.854960970580577850e-02 3.071658849716186523e+00 9.129327535629272461e-01 9.805766940116882324e-01
3.830000000000000000e+02 5.196266174316406250e+01 -2.497651672363281250e+01 6.816934049129486084e-02 2.463182926177978516e+00 7.594056725502014160e-01 4.860022664070129395e-01
3.840000000000000000e+02 5.056447219848632812e+01 -2.449526977539062500e+01 2.863662838935852051e-01 2.052988767623901367e+00 7.018065452575683594e-01 1.608296930789947510e-01
3.850000000000000000e+02 4.910026550292968750e+01 -3.698349952697753906e+00 -8.030304908752441406e+00 -1.299735188484191895e+00 -2.799011945724487305e+00 3.183799982070922852e+00
3.860000000000000000e+02 5.082746505737304688e+01 -4.518886089324951172e+00 -4.567151069641113281e+00 2.832437306642532349e-02 -1.361648082733154297e+00 1.337467312812805176e+00
3.870000000000000000e+02 5.728568649291992188e+01 -1.279311084747314453e+01 9.459874033927917480e-01 1.039423465728759766e+01 3.402066469192504883e+00 -4.808304011821746826e-01
3.880000000000000000e+02 5.845675277709960938e+01 -1.782308959960937500e+01 8.704113960266113281e-01 7.748867988586425781e+00 2.585783720016479492e+00 -1.268447041511535645e+00
3.890000000000000000e+02 5.980243301391601562e+01 -1.856490898132324219e+01 4.995020031929016113e-01 7.836439609527587891e+00 2.500782489776611328e+00 -9.734821319580078125e-01
3.900000000000000000e+02 6.267552185058593750e+01 -2.075240707397460938e+01 -1.517810225486755371e-01 5.708696365356445312e+00 1.667074680328369141e+00 -1.544323325157165527e+00
3.910000000000000000e+02 6.366260528564453125e+01 -2.187731742858886719e+01 1.481232643127441406e-01 5.395548343658447266e+00 1.663101434707641602e+00 -1.204228639602661133e+00
3.920000000000000000e+02 5.735831832885742188e+01 -1.403336620330810547e+01 8.044886589050292969e-01 1.052241134643554688e+01 3.398069858551025391e+00 -5.273407101631164551e-01
3.930000000000000000e+02 5.658481979370117188e+01 -1.631633186340332031e+01 5.087625384330749512e-01 1.357909393310546875e+01 4.226356983184814453e+00 -4.993570595979690552e-02
3.940000000000000000e+02 5.860950851440429688e+01 -1.906379699707031250e+01 2.727906107902526855e-01 8.069758415222167969e+00 2.502764701843261719e+00 -1.297796249389648438e+00
3.950000000000000000e+02 6.158977890014648438e+01 -2.133776283264160156e+01 -1.276475936174392700e-01 6.321486473083496094e+00 1.858151674270629883e+00 -1.311490893363952637e+00
3.960000000000000000e+02 6.266753005981445312e+01 -2.277674484252929688e+01 -4.617911577224731445e-01 5.628571510314941406e+00 1.550034046173095703e+00 -1.101938843727111816e+00
3.970000000000000000e+02 5.652868270874023438e+01 -1.761335754394531250e+01 1.790472388267517090e+00 1.358953857421875000e+01 4.614003181457519531e+00 1.238255500793457031e+00
3.980000000000000000e+02 5.699654006958007812e+01 -1.922441101074218750e+01 1.300289779901504517e-01 1.009650707244873047e+01 3.067960739135742188e+00 4.687621295452117920e-01
3.990000000000000000e+02 5.551741409301757812e+01 -1.946911430358886719e+01 -1.280210018157958984e+00 6.259471893310546875e+00 1.493778586387634277e+00 2.891360759735107422e+00
4.000000000000000000e+02 5.805990600585937500e+01 -2.101682853698730469e+01 -1.961811065673828125e+00 6.917204856872558594e+00 1.486618161201477051e+00 -1.496868431568145752e-01
4.010000000000000000e+02 5.688207244873046875e+01 -2.158616065979003906e+01 -1.782869577407836914e+00 7.156754493713378906e+00 1.612165451049804688e+00 8.826223015785217285e-01
4.020000000000000000e+02 6.017710113525390625e+01 -2.401165771484375000e+01 -8.327006697654724121e-01 5.781821727752685547e+00 1.484736323356628418e+00 -6.227349638938903809e-01
4.030000000000000000e+02 6.137483978271484375e+01 -2.337515640258789062e+01 -2.270065844058990479e-01 5.969154834747314453e+00 1.722644567489624023e+00 -6.302365064620971680e-01
4.040000000000000000e+02 5.585900878906250000e+01 -2.228778076171875000e+01 -6.054916381835937500e-01 6.180019855499267578e+00 1.672358512878417969e+00 2.162865877151489258e+00
4.050000000000000000e+02 5.699871063232421875e+01 -2.404054260253906250e+01 -1.269862055778503418e+00 5.260015964508056641e+00 1.197046279907226562e+00 2.859796583652496338e-01
4.060000000000000000e+02 5.804420471191406250e+01 -2.330754470825195312e+01 -6.754964590072631836e-01 5.671215057373046875e+00 1.498715639114379883e+00 3.186819255352020264e-01
4.070000000000000000e+02 5.325621795654296875e+01 -1.882638359069824219e+01 -3.147884607315063477e+00 -1.322976350784301758e+00 -1.341258287429809570e+00 1.835908770561218262e+00
4.080000000000000000e+02 5.369890975952148438e+01 -2.150863647460937500e+01 -1.191805303096771240e-01 1.998644113540649414e+00 5.638390779495239258e-01 1.454278349876403809e+00
4.090000000000000000e+02 5.160288238525390625e+01 -1.980398368835449219e+01 -1.416494011878967285e+00 2.218697220087051392e-01 -3.583872914314270020e-01 2.474883757531642914e-02
4.100000000000000000e+02 5.045946502685546875e+01 -1.930554199218750000e+01 -1.360709190368652344e+00 6.428033709526062012e-01 -2.153717577457427979e-01 1.045172363519668579e-01
4.110000000000000000e+02 4.724545288085937500e+01 -1.947356224060058594e+01 -7.671122550964355469e-01 1.920709252357482910e+00 3.460791110992431641e-01 -7.046814560890197754e-01
4.120000000000000000e+02 4.586183166503906250e+01 -1.906204605102539062e+01 -5.662012100219726562e-01 2.668811321258544922e+00 6.307830810546875000e-01 -6.374824047088623047e-01
4.130000000000000000e+02 5.216941833496093750e+01 -1.801087760925292969e+01 -2.425210952758789062e+00 -1.033025622367858887e+00 -1.037470936775207520e+00 1.584245324134826660e+00
4.140000000000000000e+02 4.997043609619140625e+01 -1.549886035919189453e+01 -1.324821829795837402e+00 -8.986101746559143066e-01 -6.670296192169189453e-01 1.093296527862548828e+00
4.150000000000000000e+02 4.896945190429687500e+01 -1.451080226898193359e+01 -1.058951497077941895e+00 -5.678324103355407715e-01 -4.880351722240447998e-01 8.849318027496337891e-01
4.160000000000000000e+02 4.710244369506835938e+01 -1.220063495635986328e+01 -5.925506353378295898e-01 3.283216953277587891e-01 -7.926868647336959839e-02 1.174064278602600098e-01
4.170000000000000000e+02 4.560900115966796875e+01 -9.833582878112792969e+00 -1.129459291696548462e-01 5.650608539581298828e+00 1.661298871040344238e+00 -7.269780635833740234e-01
4.180000000000000000e+02 4.412424087524414062e+01 -4.641461849212646484e+00 3.028482675552368164e+00 1.383588600158691406e+01 5.059310436248779297e+00 1.799426436424255371e+00
4.190000000000000000e+02 4.488446426391601562e+01 -3.753707647323608398e+00 3.083839178085327148e+00 1.387460231781005859e+01 5.087532520294189453e+00 4.580711841583251953e+00
4.200000000000000000e+02 4.508007431030273438e+01 -8.020417690277099609e-01 -2.754305005073547363e-01 6.015636920928955078e+00 1.722061991691589355e+00 4.342037200927734375e+00
4.210000000000000000e+02 4.565793609619140625e+01 3.940611183643341064e-01 7.128028869628906250e-01 3.604552268981933594e+00 1.295206546783447266e+00 4.065416812896728516e+00
4.220000000000000000e+02 4.775530242919921875e+01 1.226989030838012695e+00 2.565018653869628906e+00 3.537878274917602539e+00 1.830869078636169434e+00 3.506552457809448242e+00
4.230000000000000000e+02 4.608480453491210938e+01 2.542256116867065430e+00 2.593328714370727539e+00 3.131040334701538086e+00 1.717310667037963867e+00 3.368625879287719727e+00
4.240000000000000000e+02 4.488636779785156250e+01 1.905619382858276367e+00 1.586471796035766602e+00 3.374299049377441406e+00 1.488231182098388672e+00 3.122552633285522461e+00
4.250000000000000000e+02 4.734375000000000000e+01 3.628933906555175781e+00 3.190340042114257812e+00 3.837756156921386719e+00 2.108428955078125000e+00 3.080026865005493164e+00
4.260000000000000000e+02 4.634841537475585938e+01 -1.108305454254150391e+01 6.711278855800628662e-02 2.994122743606567383e+00 9.183706641197204590e-01 -1.747111082077026367e-01
4.270000000000000000e+02 4.322817993164062500e+01 -3.913010835647583008e+00 3.140785455703735352e+00 7.212430477142333984e+00 3.105964899063110352e+00 4.907519817352294922e-01
4.280000000000000000e+02 4.664974594116210938e+01 -2.991953849792480469e+00 -1.764118790626525879e+00 1.070265412330627441e+00 -2.081559896469116211e-01 3.529168128967285156e+00
4.290000000000000000e+02 4.720077514648437500e+01 -1.643150091171264648e+00 1.753316819667816162e-01 1.880261063575744629e+00 6.166778206825256348e-01 5.136296272277832031e+00
4.300000000000000000e+02 3.179449081420898438e+01 -2.832762598991394043e-01 4.695685863494873047e+00 1.193764209747314453e+00 1.766834974288940430e+00 1.358063071966171265e-01
4.310000000000000000e+02 3.288528442382812500e+01 -1.398900151252746582e-01 3.159316778182983398e+00 -2.248867899179458618e-01 8.803290128707885742e-01 -2.286980599164962769e-01
4.320000000000000000e+02 3.519646835327148438e+01 -2.920722246170043945e+00 2.285877009853720665e-03 -5.660664439201354980e-01 -1.691341698169708252e-01 3.451034128665924072e-01
4.330000000000000000e+02 3.861903762817382812e+01 -3.660312414169311523e+00 1.293750882148742676e+00 -6.410897970199584961e-01 1.957983225584030151e-01 -3.296108245849609375e-01
4.340000000000000000e+02 3.866753768920898438e+01 -4.883372306823730469e+00 7.798296809196472168e-01 -7.334755659103393555e-01 1.390624605119228363e-02 1.235499233007431030e-01
4.350000000000000000e+02 3.864648056030273438e+01 -7.525263786315917969e+00 -1.150846123695373535e+00 -2.160445451736450195e+00 -9.933874607086181641e-01 1.756745100021362305e+00
4.360000000000000000e+02 3.936993026733398438e+01 -8.729053497314453125e+00 -1.097119569778442383e+00 -1.173956274986267090e+00 -6.813227534294128418e-01 1.540373206138610840e+00
4.370000000000000000e+02 3.903886032104492188e+01 -5.925661087036132812e+00 1.680666059255599976e-01 -8.367083072662353516e-01 -2.005925029516220093e-01 6.648875474929809570e-01
4.380000000000000000e+02 3.346886825561523438e+01 -1.089917182922363281e+00 1.434701561927795410e+00 2.325725927948951721e-02 4.373876452445983887e-01 -6.630070805549621582e-01
4.390000000000000000e+02 4.095975112915039062e+01 -1.564650344848632812e+01 2.127712488174438477e+00 9.835685729980468750e+00 3.589019298553466797e+00 2.085622072219848633e+00
4.400000000000000000e+02 3.930145645141601562e+01 -1.640072059631347656e+01 7.182490825653076172e-01 5.912930965423583984e-01 3.928626477718353271e-01 2.080006599426269531e+00
4.410000000000000000e+02 4.018564987182617188e+01 -1.838457298278808594e+01 -4.032454192638397217e-01 3.505888223648071289e+00 9.307928681373596191e-01 1.783021926879882812e+00
4.420000000000000000e+02 3.813128280639648438e+01 -1.565497875213623047e+01 -1.578594684600830078e+00 -9.700072407722473145e-01 -7.645805478096008301e-01 4.054177999496459961e-01
4.430000000000000000e+02 3.638039016723632812e+01 -1.612602424621582031e+01 -8.517379164695739746e-01 2.546570599079132080e-01 -1.791242510080337524e-01 2.117272466421127319e-02
4.440000000000000000e+02 3.505931854248046875e+01 -1.376390361785888672e+01 -6.740229129791259766e-01 1.557347625494003296e-01 -1.554864346981048584e-01 2.134462743997573853e-01
4.450000000000000000e+02 3.468349075317382812e+01 -1.251138591766357422e+01 -2.274451404809951782e-01 -4.247957468032836914e-02 -8.097741752862930298e-02 2.210013121366500854e-01
4.460000000000000000e+02 3.326862335205078125e+01 -1.316062164306640625e+01 -5.394992828369140625e-01 4.201155006885528564e-01 -3.581513091921806335e-02 1.063990779221057892e-02
4.470000000000000000e+02 3.199309730529785156e+01 -1.093381214141845703e+01 -2.232377827167510986e-01 3.962316811084747314e-01 5.189817026257514954e-02 -8.257570117712020874e-02
4.480000000000000000e+02 3.029763221740722656e+01 -8.184831619262695312e+00 9.402506053447723389e-02 4.654596447944641113e-01 1.678454130887985229e-01 -2.333085089921951294e-01
4.490000000000000000e+02 2.997788238525390625e+01 -7.058999061584472656e+00 1.601928323507308960e-01 4.358047842979431152e-01 1.787992864847183228e-01 -2.875930368900299072e-01
4.500000000000000000e+02 2.538013458251953125e+01 -2.877463340759277344e+00 1.370422720909118652e+00 8.029535412788391113e-01 6.520128846168518066e-01 -5.459470152854919434e-01
4.510000000000000000e+02 2.398110008239746094e+01 -8.202408552169799805e-01 2.002157211303710938e+00 2.250808179378509521e-01 6.681714057922363281e-01 -1.114974021911621094e+00
4.520000000000000000e+02 2.241627693176269531e+01 -5.132204294204711914e-01 2.244436502456665039e+00 1.251093745231628418e+00 1.048659086227416992e+00 -1.800978660583496094e+00
4.530000000000000000e+02 2.011108398437500000e+01 2.400133848190307617e+00 3.332108497619628906e+00 6.778055429458618164e-01 1.202974200248718262e+00 -1.086996436119079590e+00
4.540000000000000000e+02 1.922458839416503906e+01 1.677120566368103027e+00 5.851693153381347656e+00 4.609181404113769531e+00 3.138262510299682617e+00 -5.067661285400390625e+00
4.550000000000000000e+02 1.799086570739746094e+01 2.830605268478393555e+00 8.278266906738281250e+00 3.302927255630493164e+00 3.474358320236206055e+00 -4.889389038085937500e+00
4.560000000000000000e+02 3.710276794433593750e+01 -1.476005554199218750e+01 -6.468610763549804688e-01 -1.421713978052139282e-01 -2.367097437381744385e-01 7.715633511543273926e-01
4.570000000000000000e+02 3.388513183593750000e+01 -1.147529697418212891e+01 -2.569549083709716797e-01 4.910140112042427063e-02 -6.235604733228683472e-02 3.206036239862442017e-02
4.580000000000000000e+02 3.231143569946289062e+01 -9.224942207336425781e+00 -8.941168780438601971e-04 2.581894099712371826e-01 7.718858122825622559e-02 -1.307777911424636841e-01
4.590000000000000000e+02 3.164407730102539062e+01 -7.965345382690429688e+00 8.247434347867965698e-02 2.283364236354827881e-01 9.324322640895843506e-02 -1.498814672231674194e-01
4.600000000000000000e+02 3.055533599853515625e+01 -5.430657386779785156e+00 4.061628878116607666e-02 1.379971802234649658e-01 5.358404293656349182e-02 -6.901657581329345703e-02
4.610000000000000000e+02 3.010094642639160156e+01 -4.145483970642089844e+00 9.118648618459701538e-02 3.335469663143157959e-01 1.274200379848480225e-01 7.516945153474807739e-02
4.620000000000000000e+02 2.983637619018554688e+01 -2.852675914764404297e+00 1.736084222793579102e-01 1.063169240951538086e+00 3.710332810878753662e-01 4.062658250331878662e-01
4.630000000000000000e+02 3.026161003112792969e+01 -7.804532051086425781e-01 3.514580488204956055e+00 2.512931108474731445e+00 1.808253526687622070e+00 1.769106984138488770e+00
4.640000000000000000e+02 2.793972969055175781e+01 5.083531737327575684e-01 1.226153373718261719e+00 -4.804001450538635254e-01 2.237259596586227417e-01 -1.828641146421432495e-01
4.650000000000000000e+02 2.518568992614746094e+01 2.397219181060791016e+00 -1.904347300529479980e+00 -2.063621431589126587e-01 -6.332128047943115234e-01 -3.475432693958282471e-01
4.660000000000000000e+02 2.494372558593750000e+01 9.048714041709899902e-01 1.545591503381729126e-01 -6.153186559677124023e-01 -1.382278501987457275e-01 -6.424278020858764648e-02
4.670000000000000000e+02 2.939556503295898438e+01 1.597916036844253540e-01 2.509770154953002930e+00 4.801723640412092209e-03 7.543715834617614746e-01 -1.029462069272994995e-01
4.680000000000000000e+02 3.081177902221679688e+01 1.874196290969848633e+00 5.795667171478271484e-01 1.680996179580688477e+00 6.781688928604125977e-01 4.076393544673919678e-01
4.690000000000000000e+02 2.919721031188964844e+01 3.674456357955932617e+00 -1.581179141998291016e+00 -6.355409622192382812e-01 -6.650159955024719238e-01 -1.068484067916870117e+00
4.700000000000000000e+02 3.150250625610351562e+01 5.390629291534423828e+00 -9.432089328765869141e-01 -1.624103784561157227e-01 -3.316858112812042236e-01 -3.680023550987243652e-01
4.710000000000000000e+02 3.377312850952148438e+01 7.229084014892578125e+00 -3.127148151397705078e-01 -1.656096428632736206e-02 -9.878273308277130127e-02 -3.006846830248832703e-02
4.720000000000000000e+02 3.630897140502929688e+01 6.211848735809326172e+00 -1.628158539533615112e-01 4.005358740687370300e-02 -3.682868182659149170e-02 1.344196200370788574e-01
4.730000000000000000e+02 3.654166030883789062e+01 7.180951118469238281e+00 -5.557013303041458130e-02 1.371520664542913437e-02 -1.255647744983434677e-02 7.791896164417266846e-02
4.740000000000000000e+02 3.964839935302734375e+01 7.186275959014892578e+00 -5.168657004833221436e-02 -1.347541809082031250e-02 -1.954859681427478790e-02 1.200073957443237305e-02
4.750000000000000000e+02 4.047565841674804688e+01 8.704915046691894531e+00 -1.210628077387809753e-02 8.273642510175704956e-03 -1.149791409261524677e-03 -3.439413616433739662e-03
4.760000000000000000e+02 3.937060165405273438e+01 8.359921455383300781e+00 -4.483333788812160492e-03 -6.307098374236375093e-05 -1.363921328447759151e-03 1.011030469089746475e-02
4.770000000000000000e+02 3.839834594726562500e+01 9.141313552856445312e+00 1.579649932682514191e-02 3.535622730851173401e-03 5.799636710435152054e-03 2.730080159381031990e-04
4.780000000000000000e+02 3.916094970703125000e+01 9.037818908691406250e+00 -1.924149505794048309e-02 -1.803550124168395996e-02 -1.118309888988733292e-02 -1.450237352401018143e-02
4.790000000000000000e+02 3.756316375732421875e+01 9.392381668090820312e+00 -1.765812933444976807e-02 -1.435225363820791245e-02 -9.603114798665046692e-03 2.378979261266067624e-04
4.800000000000000000e+02 3.741975784301757812e+01 7.413359642028808594e+00 -2.308890223503112793e-02 -6.360884755849838257e-02 -2.600932493805885315e-02 3.470819815993309021e-02
4.810000000000000000e+02 6.413719940185546875e+01 1.393693065643310547e+01 1.636232852935791016e+00 2.401462316513061523e+00 1.211308598518371582e+00 -2.951615571975708008e+00
4.820000000000000000e+02 6.580355834960937500e+01 1.444919490814208984e+01 -8.120030760765075684e-01 1.038489532470703125e+01 2.871867656707763672e+00 -9.174830913543701172e-01
4.830000000000000000e+02 6.602931976318359375e+01 1.144474697113037109e+01 2.566184520721435547e+00 2.078792572021484375e+01 7.006232738494873047e+00 -6.970809102058410645e-01
4.840000000000000000e+02 6.590250396728515625e+01 1.024788475036621094e+01 1.172218203544616699e+00 1.854533004760742188e+01 5.915264606475830078e+00 2.318318367004394531e+00
4.850000000000000000e+02 6.514268493652343750e+01 8.382999420166015625e+00 1.671073675155639648e+00 1.130062389373779297e+01 3.891509294509887695e+00 2.993181705474853516e+00
4.860000000000000000e+02 6.774767303466796875e+01 7.584294319152832031e+00 -1.563029408454895020e+00 1.189869499206542969e+01 3.100699663162231445e+00 -1.696534037590026855e+00
4.870000000000000000e+02 6.881481170654296875e+01 7.268438816070556641e+00 -1.306545495986938477e+00 1.031566143035888672e+01 2.702734708786010742e+00 -1.326435685157775879e+00
4.880000000000000000e+02 6.862351226806640625e+01 8.926242828369140625e+00 -6.287073493003845215e-01 9.460729598999023438e+00 2.649606704711914062e+00 -9.600788354873657227e-01
4.890000000000000000e+02 6.818523406982421875e+01 9.848006248474121094e+00 1.343656182289123535e+00 1.058963680267333984e+01 3.579988002777099609e+00 -4.172635674476623535e-01
4.900000000000000000e+02 6.729113006591796875e+01 1.031635379791259766e+01 1.861319899559020996e+00 1.251406192779541016e+01 4.312614440917968750e+00 -9.158857464790344238e-01
4.910000000000000000e+02 5.290604400634765625e+01 1.506840467453002930e+00 2.630743503570556641e+00 1.174695396423339844e+01 4.313309192657470703e+00 4.868453443050384521e-01
4.920000000000000000e+02 5.076692199707031250e+01 2.163305133581161499e-01 1.144721508026123047e+00 5.658832073211669922e+00 2.041066169738769531e+00 9.653516411781311035e-01
4.930000000000000000e+02 4.977713775634765625e+01 4.800516366958618164e-01 1.874156475067138672e+00 4.322670936584472656e+00 1.859048247337341309e+00 1.953068971633911133e+00
4.940000000000000000e+02 4.953218841552734375e+01 -4.467388689517974854e-01 8.395700454711914062e-01 3.010252952575683594e+00 1.154946923255920410e+00 2.159936904907226562e+00
4.950000000000000000e+02 5.184691238403320312e+01 1.328246444463729858e-01 9.721300601959228516e-01 7.905649662017822266e+00 2.663333892822265625e+00 1.262403726577758789e-01
4.960000000000000000e+02 5.306351470947265625e+01 2.553302347660064697e-01 -3.409929871559143066e-01 1.135522460937500000e+01 3.304269552230834961e+00 -1.341396212577819824e+00
4.970000000000000000e+02 5.386389160156250000e+01 3.062545061111450195e+00 3.462580442428588867e+00 2.262042617797851562e+01 7.824901580810546875e+00 -2.932560682296752930e+00
4.980000000000000000e+02 5.198401260375976562e+01 3.605961799621582031e+00 4.267766952514648438e+00 1.159701347351074219e+01 4.759434223175048828e+00 -1.057433009147644043e+00
4.990000000000000000e+02 5.174790573120117188e+01 6.849163532257080078e+00 6.506859660148620605e-01 1.288478755950927734e+01 4.060642242431640625e+00 4.326147735118865967e-01
5.000000000000000000e+02 5.083349227905273438e+01 7.857215404510498047e+00 -2.814531326293945312e-01 1.439125823974609375e+01 4.232941627502441406e+00 6.814891099929809570e-01
5.010000000000000000e+02 4.819268798828125000e+01 6.976535320281982422e+00 2.301192760467529297e+00 5.328155517578125000e+00 2.288804531097412109e+00 3.006291389465332031e+00
5.020000000000000000e+02 4.834352111816406250e+01 4.940991401672363281e+00 2.689420223236083984e+00 5.396801471710205078e+00 2.425866603851318359e+00 2.622084617614746094e+00
5.030000000000000000e+02 5.005406951904296875e+01 2.533646106719970703e+00 2.982866525650024414e+00 6.397443294525146484e+00 2.814092874526977539e+00 1.981151819229125977e+00
5.040000000000000000e+02 5.061846542358398438e+01 1.851175427436828613e+00 3.229400634765625000e+00 6.788187980651855469e+00 3.005276679992675781e+00 1.271609306335449219e+00
5.050000000000000000e+02 5.148558425903320312e+01 2.209088325500488281e+00 3.153088569641113281e+00 9.019491195678710938e+00 3.651773929595947266e+00 9.284607768058776855e-01
5.060000000000000000e+02 5.097111129760742188e+01 3.060528993606567383e+00 3.996423006057739258e+00 8.566561698913574219e+00 3.768895387649536133e+00 7.636733651161193848e-01
5.070000000000000000e+02 5.099332046508789062e+01 6.139911651611328125e+00 9.082077145576477051e-01 1.221493434906005859e+01 3.936942577362060547e+00 6.752237677574157715e-02
5.080000000000000000e+02 5.001708984375000000e+01 7.068449497222900391e+00 8.746318221092224121e-01 1.162743854522705078e+01 3.750621080398559570e+00 2.637228965759277344e+00
5.090000000000000000e+02 4.905164718627929688e+01 8.042009353637695312e+00 2.244675159454345703e+00 8.000744819641113281e+00 3.073626041412353516e+00 4.030655860900878906e+00
5.100000000000000000e+02 5.401894760131835938e+01 5.097329139709472656e+00 1.599876165390014648e+00 1.807133865356445312e+01 5.901364326477050781e+00 1.956305742263793945e+00
5.110000000000000000e+02 5.333488082885742188e+01 6.810502529144287109e+00 -2.491494417190551758e-01 1.440704727172851562e+01 4.247369289398193359e+00 -1.598705537617206573e-02
5.120000000000000000e+02 5.171574401855468750e+01 8.468802452087402344e+00 2.418914735317230225e-01 1.409592151641845703e+01 4.301343917846679688e+00 4.054078459739685059e-01
5.130000000000000000e+02 5.553258132934570312e+01 1.016822338104248047e+01 1.004448771476745605e+00 6.393591880798339844e+00 2.219412326812744141e+00 1.479889154434204102e+00
5.140000000000000000e+02 5.617495346069335938e+01 8.866727828979492188e+00 3.074942529201507568e-01 3.137019395828247070e+00 1.033354163169860840e+00 1.113768339157104492e+00
5.150000000000000000e+02 5.654272460937500000e+01 1.249046707153320312e+01 1.466952800750732422e+00 4.083519935607910156e+00 1.665141820907592773e+00 2.307486295700073242e+00
5.160000000000000000e+02 5.984532546997070312e+01 1.247010326385498047e+01 -4.770533740520477295e-01 -6.302335113286972046e-02 -1.620230227708816528e-01 -6.990274041891098022e-02
5.170000000000000000e+02 5.988547897338867188e+01 1.449458980560302734e+01 8.768600821495056152e-01 1.348933696746826172e+00 6.677381396293640137e-01 1.279356718063354492e+00
5.180000000000000000e+02 1.621680831909179688e+01 7.088275432586669922e+00 4.029738306999206543e-01 2.073327451944351196e-01 1.830919682979583740e-01 2.060565203428268433e-01
5.190000000000000000e+02 1.658250999450683594e+01 7.280613422393798828e+00 2.989941239356994629e-01 1.138047054409980774e-01 1.238396465778350830e-01 2.367427349090576172e-01
5.200000000000000000e+02 1.852553939819335938e+01 6.552616119384765625e+00 -9.730181097984313965e-02 -2.928029000759124756e-02 -3.797462955117225647e-02 -4.738529771566390991e-02
5.210000000000000000e+02 1.974207305908203125e+01 6.621734142303466797e+00 -1.605209410190582275e-01 2.492464892566204071e-02 -4.067888483405113220e-02 -7.370730489492416382e-02
5.220000000000000000e+02 2.045557212829589844e+01 6.635086536407470703e+00 -1.748727411031723022e-01 6.270782649517059326e-02 -3.364947438240051270e-02 -8.749921619892120361e-02
5.230000000000000000e+02 2.791931724548339844e+01 1.018473434448242188e+01 -4.450579285621643066e-01 -4.218572378158569336e-01 -2.600745558738708496e-01 -4.437026679515838623e-01
5.240000000000000000e+02 2.891828536987304688e+01 1.112723445892333984e+01 -4.607406258583068848e-01 -3.780518174171447754e-01 -2.516377270221710205e-01 -3.880968987941741943e-01
5.250000000000000000e+02 2.992968940734863281e+01 1.202127933502197266e+01 -5.057467222213745117e-01 -3.046973049640655518e-01 -2.431332021951675415e-01 -3.810852468013763428e-01
5.260000000000000000e+02 3.110792541503906250e+01 1.399755668640136719e+01 -1.245730400085449219e+00 -2.176400721073150635e-01 -4.390111565589904785e-01 -1.477315723896026611e-01
5.270000000000000000e+02 3.237740707397460938e+01 1.428235054016113281e+01 -1.823324561119079590e+00 -1.234118416905403137e-01 -5.840209126472473145e-01 -3.048081099987030029e-01
5.280000000000000000e+02 3.096681594848632812e+01 1.645706748962402344e+01 -1.450633883476257324e+00 3.298337012529373169e-02 -4.252951741218566895e-01 3.880884051322937012e-01
5.290000000000000000e+02 3.101450920104980469e+01 1.800345230102539062e+01 -1.262785553932189941e+00 -5.205282196402549744e-02 -3.944515287876129150e-01 4.880700111389160156e-01
5.300000000000000000e+02 3.078331184387207031e+01 1.955530738830566406e+01 -9.686112403869628906e-01 -2.134930156171321869e-02 -2.969881594181060791e-01 3.138155043125152588e-01
5.310000000000000000e+02 3.053076362609863281e+01 2.115559196472167969e+01 -8.162121772766113281e-01 -9.088032878935337067e-03 -2.475900650024414062e-01 2.432981431484222412e-01
5.320000000000000000e+02 3.168016052246093750e+01 2.353104591369628906e+01 -4.429206252098083496e-01 4.827059060335159302e-02 -1.183950081467628479e-01 9.362236410379409790e-02
5.330000000000000000e+02 3.232202529907226562e+01 2.496147155761718750e+01 -1.466914415359497070e-01 1.138670668005943298e-01 -9.847310371696949005e-03 1.440219674259424210e-02
5.340000000000000000e+02 3.282408905029296875e+01 2.651966285705566406e+01 -5.493332818150520325e-02 2.200480550527572632e-01 4.953441768884658813e-02 -4.816624522209167480e-02
5.350000000000000000e+02 3.323438262939453125e+01 2.824015235900878906e+01 1.056527867913246155e-01 3.114063739776611328e-01 1.251177489757537842e-01 -9.349318593740463257e-02
5.360000000000000000e+02 3.235453796386718750e+01 3.575286483764648438e+01 4.005730748176574707e-01 4.926905035972595215e-01 2.679790854454040527e-01 -7.083291560411453247e-02
5.370000000000000000e+02 3.056278610229492188e+01 3.415343093872070312e+01 3.827778100967407227e-01 2.408053427934646606e-01 1.870749443769454956e-01 -2.082659862935543060e-02
5.380000000000000000e+02 3.186089134216308594e+01 3.103895950317382812e+01 2.523213028907775879e-01 3.051041662693023682e-01 1.672276407480239868e-01 -5.898132175207138062e-02
5.390000000000000000e+02 3.143028831481933594e+01 2.903767395019531250e+01 1.175191774964332581e-01 1.941687166690826416e-01 9.350636601448059082e-02 -4.569208994507789612e-02
5.400000000000000000e+02 3.119724845886230469e+01 2.723805618286132812e+01 -9.266546927392482758e-03 1.062431558966636658e-01 2.909298241138458252e-02 -4.270704463124275208e-03
5.410000000000000000e+02 2.947377014160156250e+01 2.357885932922363281e+01 -4.856278598308563232e-01 -4.937247186899185181e-02 -1.605001091957092285e-01 1.210432425141334534e-01
5.420000000000000000e+02 2.868022918701171875e+01 2.262736129760742188e+01 -6.360325217247009277e-01 -6.316181272268295288e-02 -2.097583115100860596e-01 1.279117316007614136e-01
5.430000000000000000e+02 2.939461708068847656e+01 2.134609222412109375e+01 -8.004524707794189453e-01 -2.377891167998313904e-02 -2.472694069147109985e-01 1.875095367431640625e-01
5.440000000000000000e+02 2.977838516235351562e+01 1.937175941467285156e+01 -1.128435850143432617e+00 3.828254714608192444e-02 -3.270459771156311035e-01 3.465573489665985107e-01
5.450000000000000000e+02 3.006398582458496094e+01 1.809292602539062500e+01 -1.261005878448486328e+00 7.771958410739898682e-02 -3.549858927726745605e-01 4.203034043312072754e-01
5.460000000000000000e+02 3.089211082458496094e+01 1.282575893402099609e+01 -9.691880941390991211e-01 -2.958393692970275879e-01 -3.795082569122314453e-01 -4.341564774513244629e-01
5.470000000000000000e+02 2.116125679016113281e+01 5.977250576019287109e+00 -2.531468868255615234e-01 5.936852470040321350e-02 -5.813350528478622437e-02 -1.149151921272277832e-01
5.480000000000000000e+02 2.040924453735351562e+01 6.012064933776855469e+00 -2.585881352424621582e-01 2.849949523806571960e-02 -6.902659684419631958e-02 -1.059022843837738037e-01
5.490000000000000000e+02 2.225873565673828125e+01 7.059764862060546875e+00 -2.250161319971084595e-01 7.914629578590393066e-02 -4.376094788312911987e-02 -1.310576498508453369e-01
5.500000000000000000e+02 2.096839523315429688e+01 9.699750900268554688e+00 1.270810663700103760e-01 1.683162599802017212e-01 8.861920237541198730e-02 1.387736946344375610e-01
5.510000000000000000e+02 2.187038230895996094e+01 5.917501926422119141e+00 -2.464973777532577515e-01 4.569517821073532104e-02 -6.024065986275672913e-02 -1.386173218488693237e-01
5.520000000000000000e+02 2.320816993713378906e+01 6.716653347015380859e+00 -2.665638029575347900e-01 1.370619609951972961e-02 -7.585728168487548828e-02 -1.611080318689346313e-01
5.530000000000000000e+02 2.367429733276367188e+01 7.868704319000244141e+00 -2.873108088970184326e-01 5.585724720731377602e-04 -8.602567762136459351e-02 -1.502213925123214722e-01
5.540000000000000000e+02 2.502184104919433594e+01 7.460012912750244141e+00 -3.559967279434204102e-01 -2.760719358921051025e-01 -1.896205991506576538e-01 -3.148435354232788086e-01
5.550000000000000000e+02 2.695138168334960938e+01 9.225609779357910156e+00 -4.594233036041259766e-01 -4.048256278038024902e-01 -2.592746913433074951e-01 -4.301932454109191895e-01
5.560000000000000000e+02 3.366091918945312500e+01 1.461179351806640625e+01 -2.904318809509277344e+00 -3.472470939159393311e-01 -9.754697680473327637e-01 -3.068949095904827118e-03
5.570000000000000000e+02 3.480435180664062500e+01 1.502668285369873047e+01 -2.717304468154907227e+00 -7.806676626205444336e-01 -1.049391627311706543e+00 3.721567094326019287e-01
5.580000000000000000e+02 3.331291961669921875e+01 1.627038955688476562e+01 -1.395024895668029785e+00 -4.288003146648406982e-01 -5.471475720405578613e-01 4.762808680534362793e-01
5.590000000000000000e+02 3.313442993164062500e+01 1.789211463928222656e+01 -1.176134824752807617e+00 -1.983577311038970947e-01 -4.123477637767791748e-01 2.917462885379791260e-01
5.600000000000000000e+02 3.298956298828125000e+01 1.947490310668945312e+01 -8.259021043777465820e-01 -1.355258226394653320e-01 -2.884283661842346191e-01 3.163499236106872559e-01
5.610000000000000000e+02 3.286049270629882812e+01 2.110806083679199219e+01 -6.830784082412719727e-01 6.381908431649208069e-03 -2.030089497566223145e-01 1.558832824230194092e-01
5.620000000000000000e+02 3.307690429687500000e+01 2.268293571472167969e+01 -3.882984817028045654e-01 3.912661224603652954e-02 -1.047515571117401123e-01 9.344306588172912598e-02
5.630000000000000000e+02 3.452386474609375000e+01 2.561837005615234375e+01 -4.669861495494842529e-02 3.296643793582916260e-01 8.488973230123519897e-02 -9.071440994739532471e-02
5.640000000000000000e+02 3.495830535888671875e+01 2.737140274047851562e+01 5.393891409039497375e-02 4.681817293167114258e-01 1.566361933946609497e-01 -1.589622050523757935e-01
5.650000000000000000e+02 3.535410690307617188e+01 2.907610130310058594e+01 1.821819841861724854e-01 5.913540124893188477e-01 2.320608049631118774e-01 -1.889687925577163696e-01
5.660000000000000000e+02 3.779225540161132812e+01 3.108269309997558594e+01 2.465631812810897827e-01 1.053869962692260742e+00 3.901299536228179932e-01 -3.025386631488800049e-01
5.670000000000000000e+02 3.473565292358398438e+01 3.209651565551757812e+01 3.073725104331970215e-01 6.431257724761962891e-01 2.851494848728179932e-01 -1.696622520685195923e-01
5.680000000000000000e+02 3.786523437500000000e+01 4.079127120971679688e+01 3.605635166168212891e-01 1.268326520919799805e+00 4.886670112609863281e-01 -5.172167718410491943e-02
5.690000000000000000e+02 3.347804641723632812e+01 4.049395751953125000e+01 4.555966854095458984e-01 6.350369453430175781e-01 3.271901011466979980e-01 -2.310820296406745911e-02
5.700000000000000000e+02 3.566147994995117188e+01 1.387640094757080078e+01 -2.767192840576171875e+00 -7.911720275878906250e-01 -1.067509412765502930e+00 1.034693002700805664e+00
5.710000000000000000e+02 3.552128219604492188e+01 1.672089576721191406e+01 -1.513535261154174805e+00 -4.322863817214965820e-01 -5.837464928627014160e-01 3.761855512857437134e-02
5.720000000000000000e+02 3.537506484985351562e+01 1.803650283813476562e+01 -9.424648880958557129e-01 -2.283385246992111206e-01 -3.512410223484039307e-01 7.592073827981948853e-02
5.730000000000000000e+02 3.528740310668945312e+01 1.939383697509765625e+01 -8.030472993850708008e-01 -7.485453784465789795e-02 -2.633705437183380127e-01 8.818745613098144531e-02
5.740000000000000000e+02 3.516826248168945312e+01 2.193334007263183594e+01 -4.779379963874816895e-01 1.781758964061737061e-01 -8.992862701416015625e-02 4.439594224095344543e-03
5.750000000000000000e+02 3.602014923095703125e+01 2.326916503906250000e+01 -2.409405261278152466e-01 3.299460411071777344e-01 2.670165337622165680e-02 -7.958505302667617798e-02
5.760000000000000000e+02 3.642219161987304688e+01 2.476198387145996094e+01 -9.531782567501068115e-02 4.985738098621368408e-01 1.209767982363700867e-01 -2.332137972116470337e-01
5.770000000000000000e+02 3.681562423706054688e+01 2.668468284606933594e+01 2.860834635794162750e-02 6.762208342552185059e-01 2.114487588405609131e-01 -2.484219521284103394e-01
5.780000000000000000e+02 3.680663681030273438e+01 2.864152717590332031e+01 1.705979853868484497e-01 8.182094693183898926e-01 2.966422438621520996e-01 -2.905956804752349854e-01
5.790000000000000000e+02 3.621964263916015625e+01 3.033639335632324219e+01 1.916124671697616577e-01 8.202417492866516113e-01 3.035562634468078613e-01 -2.415607720613479614e-01
5.800000000000000000e+02 3.859634399414062500e+01 3.739619064331054688e+01 3.041970133781433105e-01 1.353150486946105957e+00 4.972042441368103027e-01 -1.664250940084457397e-01
5.810000000000000000e+02 3.819155120849609375e+01 1.454350662231445312e+01 -1.642871141433715820e+00 2.623332142829895020e-01 -4.141613841056823730e-01 2.453689128160476685e-01
5.820000000000000000e+02 3.843239212036132812e+01 1.305398273468017578e+01 -1.248909950256347656e+00 1.563716381788253784e-01 -3.277615010738372803e-01 4.486081004142761230e-01
5.830000000000000000e+02 3.916016006469726562e+01 1.291615200042724609e+01 -1.149178862571716309e+00 1.700116097927093506e-01 -2.937501966953277588e-01 3.277449309825897217e-01
5.840000000000000000e+02 4.071514129638671875e+01 1.261923694610595703e+01 -1.079730272293090820e+00 2.244307845830917358e-01 -2.565898299217224121e-01 5.477465316653251648e-02
5.850000000000000000e+02 4.154986953735351562e+01 1.250582027435302734e+01 -1.083386659622192383e+00 3.109190464019775391e-01 -2.317402809858322144e-01 -8.872200548648834229e-02
5.860000000000000000e+02 4.233282470703125000e+01 1.228730392456054688e+01 -1.008644580841064453e+00 2.198495417833328247e-01 -2.366385161876678467e-01 -1.921929121017456055e-01
5.870000000000000000e+02 4.241997909545898438e+01 1.372324180603027344e+01 -1.317555427551269531e+00 4.208111763000488281e-01 -2.690232694149017334e-01 -2.297520488500595093e-01
5.880000000000000000e+02 4.169962310791015625e+01 1.594365787506103516e+01 -1.282032370567321777e+00 6.664236783981323242e-01 -1.846826225519180298e-01 5.411774292588233948e-02
5.890000000000000000e+02 4.122867202758789062e+01 1.781711387634277344e+01 -8.472746014595031738e-01 7.002663612365722656e-01 -4.410247504711151123e-02 -1.634780913591384888e-01
5.900000000000000000e+02 4.112236022949218750e+01 1.969305610656738281e+01 -5.030175447463989258e-01 7.681961059570312500e-01 7.955355942249298096e-02 -3.386527001857757568e-01
5.910000000000000000e+02 4.263961029052734375e+01 2.169225311279296875e+01 1.991913281381130219e-02 1.316720485687255859e+00 4.009918868541717529e-01 -6.657798290252685547e-01
5.920000000000000000e+02 4.290764617919921875e+01 2.374234771728515625e+01 8.317966014146804810e-03 1.626868844032287598e+00 4.905560314655303955e-01 -7.128993868827819824e-01
5.930000000000000000e+02 4.340711975097656250e+01 2.582312774658203125e+01 -3.997804597020149231e-02 1.931567549705505371e+00 5.674768686294555664e-01 -7.631549835205078125e-01
5.940000000000000000e+02 4.490113067626953125e+01 3.090874671936035156e+01 -5.311994999647140503e-02 2.539259195327758789e+00 7.458417415618896484e-01 -5.666165947914123535e-01
5.950000000000000000e+02 4.234529113769531250e+01 3.742794799804687500e+01 1.814450025558471680e-01 2.068825721740722656e+00 6.750811934471130371e-01 -2.082929760217666626e-01
5.960000000000000000e+02 4.244449996948242188e+01 4.080451583862304688e+01 1.758306771516799927e-01 2.085689783096313477e+00 6.784561276435852051e-01 -6.966369599103927612e-02
5.970000000000000000e+02 3.931084442138671875e+01 3.423403167724609375e+01 2.706306278705596924e-01 1.418882250785827637e+00 5.068538784980773926e-01 -2.812726497650146484e-01
5.980000000000000000e+02 4.235508346557617188e+01 3.135229110717773438e+01 1.195194944739341736e-01 1.926208496093750000e+00 6.137183904647827148e-01 -4.974177181720733643e-01
5.990000000000000000e+02 4.239628982543945312e+01 2.879199981689453125e+01 2.714281529188156128e-02 1.833459973335266113e+00 5.581808090209960938e-01 -5.895342230796813965e-01
6.000000000000000000e+02 4.218833923339843750e+01 2.681197166442871094e+01 8.882079273462295532e-02 1.709959149360656738e+00 5.396339893341064453e-01 -6.426104903221130371e-01
6.010000000000000000e+02 4.089186477661132812e+01 2.499538803100585938e+01 5.881557613611221313e-02 1.269258975982666016e+00 3.984223604202270508e-01 -5.648149847984313965e-01
6.020000000000000000e+02 4.049597549438476562e+01 2.278017997741699219e+01 -6.678356975317001343e-02 9.581124186515808105e-01 2.673986554145812988e-01 -4.983074069023132324e-01
6.030000000000000000e+02 4.044788742065429688e+01 2.081286811828613281e+01 -3.367900848388671875e-01 8.030463457107543945e-01 1.398768723011016846e-01 -3.838351070880889893e-01
6.040000000000000000e+02 4.128705596923828125e+01 1.871662139892578125e+01 -5.938820242881774902e-01 7.518127560615539551e-01 4.737921431660652161e-02 -2.765268981456756592e-01
6.050000000000000000e+02 4.024961471557617188e+01 1.654243659973144531e+01 -1.141303062438964844e+00 5.775544643402099609e-01 -1.691245734691619873e-01 -6.207616627216339111e-02
6.060000000000000000e+02 4.002423095703125000e+01 1.418628406524658203e+01 -1.377633690834045410e+00 4.569513499736785889e-01 -2.762047052383422852e-01 8.749733865261077881e-02
6.070000000000000000e+02 4.005581283569335938e+01 1.351419162750244141e+01 -1.266302347183227539e+00 3.301599025726318359e-01 -2.808427512645721436e-01 1.648766845464706421e-01
6.080000000000000000e+02 4.057837295532226562e+01 1.446498966217041016e+01 -1.433850646018981934e+00 5.371490716934204102e-01 -2.690104842185974121e-01 6.202317401766777039e-02
6.090000000000000000e+02 4.158386993408203125e+01 1.335963821411132812e+01 -1.229430794715881348e+00 3.714130818843841553e-01 -2.574053406715393066e-01 -7.175217568874359131e-02
6.100000000000000000e+02 3.710499954223632812e+01 1.326886463165283203e+01 -1.372750520706176758e+00 -2.098206877708435059e-01 -4.747713506221771240e-01 7.974600791931152344e-01
6.110000000000000000e+02 4.294366455078125000e+01 1.286103916168212891e+01 -1.148721098899841309e+00 2.558878660202026367e-01 -2.678499817848205566e-01 -2.563752233982086182e-01
6.120000000000000000e+02 4.400226974487304688e+01 1.193095779418945312e+01 -7.477348446846008301e-01 -2.845203876495361328e-01 -3.096765577793121338e-01 -4.884739220142364502e-01
6.130000000000000000e+02 4.514072418212890625e+01 1.360024642944335938e+01 -1.460465312004089355e+00 -4.602178335189819336e-01 -5.762049555778503418e-01 -8.158521056175231934e-01
6.140000000000000000e+02 4.413961791992187500e+01 1.496204757690429688e+01 -1.683903336524963379e+00 4.780905544757843018e-01 -3.617438375949859619e-01 -4.173325300216674805e-01
6.150000000000000000e+02 4.330241012573242188e+01 1.427615547180175781e+01 -1.559106826782226562e+00 3.860641121864318848e-01 -3.519128262996673584e-01 -3.268507122993469238e-01
6.160000000000000000e+02 4.490011596679687500e+01 1.591877651214599609e+01 -1.482281804084777832e+00 4.973623156547546387e-01 -2.954758405685424805e-01 -1.729131937026977539e-01
6.170000000000000000e+02 4.613792037963867188e+01 1.456454658508300781e+01 -2.092420816421508789e+00 -6.659738421440124512e-01 -8.275183439254760742e-01 -1.211891174316406250e+00
6.180000000000000000e+02 4.391520309448242188e+01 1.817827224731445312e+01 -2.478798031806945801e-01 9.246155619621276855e-01 2.030207216739654541e-01 -6.241045594215393066e-01
6.190000000000000000e+02 4.488304901123046875e+01 2.027554130554199219e+01 -2.813074365258216858e-02 1.722750663757324219e+00 5.083859562873840332e-01 -9.413845539093017578e-01
6.200000000000000000e+02 4.483449554443359375e+01 2.266078376770019531e+01 -1.406488120555877686e-01 2.058779478073120117e+00 5.754391551017761230e-01 -1.042371153831481934e+00
6.210000000000000000e+02 4.577531051635742188e+01 2.327994728088378906e+01 -9.321379661560058594e-02 2.592730998992919922e+00 7.498551607131958008e-01 -1.075699448585510254e+00
6.220000000000000000e+02 4.638891220092773438e+01 2.424570274353027344e+01 -1.720208674669265747e-01 2.762773513793945312e+00 7.772257924079895020e-01 -1.016136288642883301e+00
6.230000000000000000e+02 4.677508544921875000e+01 2.577514648437500000e+01 -2.178055047988891602e-01 3.094079256057739258e+00 8.628821372985839844e-01 -9.979819059371948242e-01
6.240000000000000000e+02 4.704062652587890625e+01 2.783415985107421875e+01 -2.442407160997390747e-01 3.186079263687133789e+00 8.825515508651733398e-01 -7.485957741737365723e-01
6.250000000000000000e+02 4.588079833984375000e+01 3.684680175781250000e+01 -1.638460345566272736e-02 2.797377347946166992e+00 8.342978358268737793e-01 -2.696873843669891357e-01
6.260000000000000000e+02 4.474759674072265625e+01 2.838292884826660156e+01 -3.445804864168167114e-02 2.417069435119628906e+00 7.147833704948425293e-01 -7.200855612754821777e-01
6.270000000000000000e+02 4.405031585693359375e+01 2.419742202758789062e+01 -1.787199266254901886e-02 1.992951750755310059e+00 5.925239324569702148e-01 -8.133601546287536621e-01
6.280000000000000000e+02 4.220520019531250000e+01 1.985244560241699219e+01 -2.987020015716552734e-01 9.742342233657836914e-01 2.026596665382385254e-01 -4.722723364830017090e-01
6.290000000000000000e+02 4.360762786865234375e+01 1.688754844665527344e+01 -4.804588258266448975e-01 6.922032237052917480e-01 6.352331489324569702e-02 -8.956039696931838989e-02
6.300000000000000000e+02 4.637037277221679688e+01 1.836618995666503906e+01 9.657383710145950317e-02 1.466486334800720215e+00 4.689180552959442139e-01 -1.456052064895629883e+00
6.310000000000000000e+02 4.596684646606445312e+01 2.108351135253906250e+01 1.984915137290954590e-02 2.305978775024414062e+00 6.977483630180358887e-01 -1.167457103729248047e+00
6.320000000000000000e+02 4.689870071411132812e+01 2.205683898925781250e+01 -1.344555169343948364e-01 2.660020589828491211e+00 7.576695680618286133e-01 -1.354802727699279785e+00
6.330000000000000000e+02 4.765070724487304688e+01 2.325926017761230469e+01 -3.124953806400299072e-01 3.538529396057128906e+00 9.678102135658264160e-01 -1.377871394157409668e+00
6.340000000000000000e+02 4.835261917114257812e+01 2.464018249511718750e+01 -4.509683549404144287e-01 3.787569999694824219e+00 1.000980496406555176e+00 -9.298981428146362305e-01
6.350000000000000000e+02 4.937913513183593750e+01 2.555158042907714844e+01 -5.051193833351135254e-01 4.155140399932861328e+00 1.095006346702575684e+00 -8.322591781616210938e-01
6.360000000000000000e+02 4.907814025878906250e+01 2.736204147338867188e+01 -3.751772046089172363e-01 3.796289920806884766e+00 1.026333808898925781e+00 -7.018215060234069824e-01
6.370000000000000000e+02 5.229363632202148438e+01 2.984591484069824219e+01 -4.378315210342407227e-01 4.468608856201171875e+00 1.209233164787292480e+00 -2.523847222328186035e-01
6.380000000000000000e+02 4.792267608642578125e+01 3.274791717529296875e+01 -1.768600046634674072e-01 3.268780231475830078e+00 9.275760650634765625e-01 -4.331454634666442871e-01
6.390000000000000000e+02 5.148360824584960938e+01 3.356138229370117188e+01 -3.047261238098144531e-01 4.045686721801757812e+00 1.122288227081298828e+00 -2.303889542818069458e-01
6.400000000000000000e+02 5.060489273071289062e+01 3.858381271362304688e+01 -1.945110261440277100e-01 3.713803291320800781e+00 1.055787682533264160e+00 -1.295175850391387939e-01
6.410000000000000000e+02 4.555936813354492188e+01 1.715563964843750000e+01 2.157494425773620605e-02 8.205304145812988281e-01 2.526316046714782715e-01 -6.032823324203491211e-01
6.420000000000000000e+02 5.066851806640625000e+01 1.515682983398437500e+01 1.964175462722778320e+00 1.516583347320556641e+01 5.139002799987792969e+00 -2.466962337493896484e+00
6.430000000000000000e+02 3.930766677856445312e+01 -6.420993208885192871e-01 1.634152054786682129e+00 2.402420043945312500e-01 5.623182058334350586e-01 -6.892818212509155273e-01
6.440000000000000000e+02 3.779323196411132812e+01 6.579686999320983887e-01 1.036125659942626953e+00 -3.299168050289154053e-01 2.118626534938812256e-01 -4.449968039989471436e-01
6.450000000000000000e+02 3.741213607788085938e+01 1.851021647453308105e+00 1.274370849132537842e-01 -7.206357121467590332e-01 -1.779595911502838135e-01 -9.810897707939147949e-02
6.460000000000000000e+02 3.866656112670898438e+01 5.050503730773925781e+00 -3.476129611954092979e-03 -9.284658730030059814e-02 -2.889681607484817505e-02 2.891455311328172684e-03
6.470000000000000000e+02 3.600366210937500000e+01 5.216505527496337891e+00 -9.664229303598403931e-02 5.039765685796737671e-02 -1.387339085340499878e-02 2.557271122932434082e-01
6.480000000000000000e+02 3.475351333618164062e+01 5.391018390655517578e+00 -3.263434469699859619e-01 1.316758692264556885e-01 -5.840027704834938049e-02 1.707803457975387573e-01
6.490000000000000000e+02 3.356534957885742188e+01 5.022727489471435547e+00 -4.428873062133789062e-01 3.224279880523681641e-01 -3.613779321312904358e-02 2.344266176223754883e-01
6.500000000000000000e+02 3.442948532104492188e+01 3.097478389739990234e+00 1.199049875140190125e-01 1.473720073699951172e-01 8.018309623003005981e-02 5.561959743499755859e-01
6.510000000000000000e+02 3.455761718750000000e+01 2.057199716567993164e+00 8.612361550331115723e-01 -2.376895025372505188e-02 2.512401640415191650e-01 4.538689255714416504e-01
6.520000000000000000e+02 3.500440216064453125e+01 1.182432651519775391e+00 1.140912532806396484e+00 -3.601163327693939209e-01 2.342388629913330078e-01 3.388925492763519287e-01
6.530000000000000000e+02 3.402342987060546875e+01 5.691213607788085938e-01 1.788681864738464355e+00 -2.896957993507385254e-01 4.496958255767822266e-01 5.695145726203918457e-01
6.540000000000000000e+02 3.555969619750976562e+01 -1.194652438163757324e+00 1.452802181243896484e+00 -8.735250234603881836e-01 1.737831681966781616e-01 -2.780342102050781250e-01
6.550000000000000000e+02 3.438922882080078125e+01 -1.961165070533752441e+00 8.919453620910644531e-01 -3.217129111289978027e-01 1.710697263479232788e-01 -7.093396782875061035e-02
6.560000000000000000e+02 3.801348876953125000e+01 3.937218904495239258e+00 -1.729881041683256626e-04 -3.703624606132507324e-01 -1.111606284976005554e-01 2.210050821304321289e-02
6.570000000000000000e+02 3.698178482055664062e+01 4.785464763641357422e+00 4.114499315619468689e-02 -1.420679986476898193e-01 -3.027690015733242035e-02 2.631083726882934570e-01
6.580000000000000000e+02 3.928874206542968750e+01 6.186251640319824219e+00 3.448539599776268005e-02 -1.796349324285984039e-02 4.956570453941822052e-03 1.269055064767599106e-02
6.590000000000000000e+02 4.110834121704101562e+01 8.446981430053710938e+00 1.582685485482215881e-02 8.112476207315921783e-03 7.181799504905939102e-03 -1.489715883508324623e-03
6.600000000000000000e+02 3.727376174926757812e+01 8.642570495605468750e+00 2.383104152977466583e-02 -3.530001640319824219e-02 -3.440692089498043060e-03 6.895948667079210281e-03
6.610000000000000000e+02 3.617655944824218750e+01 9.623147010803222656e+00 -1.713433861732482910e-02 -5.378788709640502930e-02 -2.127666771411895752e-02 -6.490102037787437439e-03
6.620000000000000000e+02 3.560551834106445312e+01 9.127142906188964844e+00 -8.462718687951564789e-03 3.542011603713035583e-02 8.087218739092350006e-03 1.452274899929761887e-02
6.630000000000000000e+02 3.553954315185546875e+01 7.590013504028320312e+00 -1.810406446456909180e-01 3.827320039272308350e-02 -4.283023253083229065e-02 7.300138473510742188e-03
6.640000000000000000e+02 3.612610626220703125e+01 8.425914764404296875e+00 1.599165052175521851e-02 -1.876745186746120453e-02 -8.327406831085681915e-04 -1.796125434339046478e-02
6.650000000000000000e+02 3.472446060180664062e+01 8.224619865417480469e+00 -2.570063993334770203e-02 1.093331724405288696e-03 -7.382192648947238922e-03 -1.953833177685737610e-02
6.660000000000000000e+02 3.268401718139648438e+01 6.259674072265625000e+00 -5.156558752059936523e-01 -7.557150674983859062e-04 -1.549234837293624878e-01 -2.148540765047073364e-01
6.670000000000000000e+02 3.035281181335449219e+01 4.543720722198486328e+00 -1.352980494499206543e+00 -2.765275835990905762e-01 -4.888524115085601807e-01 -7.820584774017333984e-01
6.680000000000000000e+02 2.618529891967773438e+01 2.640665531158447266e+00 -2.054213762283325195e+00 -2.199137359857559204e-01 -6.822382807731628418e-01 -8.435753583908081055e-01
6.690000000000000000e+02 2.360782432556152344e+01 1.901900053024291992e+00 -8.870651125907897949e-01 -9.852646589279174805e-01 -5.616989135742187500e-01 2.845539748668670654e-01
6.700000000000000000e+02 2.359680938720703125e+01 9.870072007179260254e-01 9.598650336265563965e-01 -3.485831916332244873e-01 1.833845525979995728e-01 -6.190400719642639160e-01
6.710000000000000000e+02 2.359844017028808594e+01 5.489514768123626709e-02 1.773302674293518066e+00 -2.433788590133190155e-02 5.246894359588623047e-01 -9.898524880409240723e-01
6.720000000000000000e+02 2.469742774963378906e+01 -1.771504640579223633e+00 1.771006941795349121e+00 3.794182837009429932e-01 6.451275944709777832e-01 -7.928491234779357910e-01
6.730000000000000000e+02 2.739826583862304688e+01 -1.290738701820373535e+00 1.573633670806884766e+00 -1.092267688363790512e-02 4.688133001327514648e-01 5.893644094467163086e-01
6.740000000000000000e+02 2.930188751220703125e+01 -1.643557429313659668e+00 1.290938735008239746e+00 1.142938256263732910e+00 7.301630973815917969e-01 1.320075750350952148e+00
6.750000000000000000e+02 2.845688247680664062e+01 -5.520833730697631836e-01 2.746986627578735352e+00 -1.135637611150741577e-01 7.900269031524658203e-01 7.964342236518859863e-01
6.760000000000000000e+02 2.273299789428710938e+01 1.997463464736938477e+00 1.519321203231811523e-01 4.439534246921539307e-02 5.889823660254478455e-02 9.527710080146789551e-02
6.770000000000000000e+02 2.060542869567871094e+01 1.299637317657470703e+00 3.582374572753906250e+00 1.838413596153259277e+00 1.626236438751220703e+00 -2.454306364059448242e+00
6.780000000000000000e+02 1.877235412597656250e+01 2.378979206085205078e+00 8.272975921630859375e+00 3.730152368545532227e+00 3.600938558578491211e+00 -4.316861152648925781e+00
6.790000000000000000e+02 2.009504699707031250e+01 7.736159563064575195e-01 3.844389200210571289e+00 3.784084320068359375e+00 2.288542032241821289e+00 -3.745462894439697266e+00
6.800000000000000000e+02 2.190906906127929688e+01 -1.237311840057373047e+00 2.164209127426147461e+00 2.593554973602294922e+00 1.427329182624816895e+00 -2.315620422363281250e+00
6.810000000000000000e+02 2.366102790832519531e+01 -2.396761417388916016e+00 1.597089767456054688e+00 1.328107953071594238e+00 8.775593042373657227e-01 -1.396540164947509766e+00
6.820000000000000000e+02 2.272078132629394531e+01 -2.201621532440185547e+00 1.623241066932678223e+00 1.881022572517395020e+00 1.051279067993164062e+00 -1.806242704391479492e+00
6.830000000000000000e+02 2.410378265380859375e+01 -3.559263229370117188e+00 1.213026881217956543e+00 1.498977780342102051e+00 8.136013746261596680e-01 -1.172633886337280273e+00
6.840000000000000000e+02 2.487541198730468750e+01 -4.750745296478271484e+00 7.613656520843505859e-01 1.800363421440124512e+00 7.685187458992004395e-01 -8.407314419746398926e-01
6.850000000000000000e+02 2.554879188537597656e+01 -6.107233047485351562e+00 3.980582952499389648e-01 2.145521402359008789e+00 7.630739212036132812e-01 -5.512081980705261230e-01
6.860000000000000000e+02 2.905218696594238281e+01 -9.491378784179687500e+00 -3.969059884548187256e-02 7.487435936927795410e-01 2.127158939838409424e-01 -3.546366989612579346e-01
6.870000000000000000e+02 3.032076454162597656e+01 -1.193363857269287109e+01 -2.551712095737457275e-01 6.845656633377075195e-01 1.288183331489562988e-01 -1.350796520709991455e-01
6.880000000000000000e+02 3.215925979614257812e+01 -1.370396900177001953e+01 -3.442427515983581543e-01 5.226658582687377930e-01 5.352692678570747375e-02 -9.565544873476028442e-02
6.890000000000000000e+02 3.422480392456054688e+01 -1.578028488159179688e+01 -4.329541921615600586e-01 5.319110155105590820e-01 2.968705445528030396e-02 3.622110933065414429e-02
6.900000000000000000e+02 3.580717086791992188e+01 -1.768765449523925781e+01 4.054131209850311279e-01 3.783475458621978760e-01 2.351281940937042236e-01 1.131907254457473755e-01
6.910000000000000000e+02 3.800745773315429688e+01 -2.056976509094238281e+01 2.023250907659530640e-01 1.859130620956420898e+00 6.184366941452026367e-01 9.145442843437194824e-01
6.920000000000000000e+02 3.934648895263671875e+01 -2.131534767150878906e+01 -3.408375978469848633e-01 2.469095706939697266e+00 6.384774446487426758e-01 7.722716927528381348e-01
6.930000000000000000e+02 4.074985122680664062e+01 -2.206174278259277344e+01 -4.318432807922363281e-01 3.029742956161499023e+00 7.793699502944946289e-01 4.192783832550048828e-01
6.940000000000000000e+02 4.192572402954101562e+01 -2.447299766540527344e+01 -3.646531999111175537e-01 2.750289440155029297e+00 7.156908512115478516e-01 -8.630548836663365364e-04
6.950000000000000000e+02 4.342524337768554688e+01 -2.728273200988769531e+01 -1.247709915041923523e-01 2.501410245895385742e+00 7.129917740821838379e-01 -1.361292898654937744e-01
6.960000000000000000e+02 4.531768417358398438e+01 -3.078993225097656250e+01 9.530137479305267334e-02 2.469745397567749023e+00 7.695140242576599121e-01 -7.132840156555175781e-02
6.970000000000000000e+02 4.903853988647460938e+01 -3.182686233520507812e+01 1.596784889698028564e-01 2.884955406188964844e+00 9.133902192115783691e-01 5.652408674359321594e-02
6.980000000000000000e+02 5.080781173706054688e+01 -3.188278007507324219e+01 1.191662922501564026e-01 3.063003540039062500e+00 9.546509385108947754e-01 1.552517861127853394e-01
6.990000000000000000e+02 6.357210922241210938e+01 -3.730068206787109375e+01 5.501597002148628235e-02 5.217898845672607422e+00 1.581874370574951172e+00 1.982467807829380035e-02
7.000000000000000000e+02 5.631057357788085938e+01 -4.045917892456054688e+01 9.621495753526687622e-02 4.093560218811035156e+00 1.256932616233825684e+00 2.665088139474391937e-02
7.010000000000000000e+02 5.335118103027343750e+01 -3.396940612792968750e+01 7.338830828666687012e-02 3.497180223464965820e+00 1.071170568466186523e+00 1.657973080873489380e-01
7.020000000000000000e+02 2.580368423461914062e+01 -7.618332386016845703e+00 3.546405732631683350e-01 2.267411947250366211e+00 7.866157293319702148e-01 -1.061752513051033020e-01
7.030000000000000000e+02 2.738800048828125000e+01 -8.986312866210937500e+00 5.453538522124290466e-02 1.256758570671081543e+00 3.933881819248199463e-01 -3.937039375305175781e-01
7.040000000000000000e+02 2.806811141967773438e+01 -1.014964199066162109e+01 -1.788102537393569946e-01 1.136951923370361328e+00 2.874424755573272705e-01 -3.324775099754333496e-01
7.050000000000000000e+02 2.985239982604980469e+01 -1.291181373596191406e+01 -4.431221187114715576e-01 7.604360580444335938e-01 9.519419074058532715e-02 -1.551824063062667847e-01
7.060000000000000000e+02 3.075984573364257812e+01 -1.341578865051269531e+01 -3.185889422893524170e-01 6.823813319206237793e-01 1.091377213597297668e-01 -1.583808064460754395e-01
7.070000000000000000e+02 3.150289916992187500e+01 -1.512961864471435547e+01 -3.680273294448852539e-01 6.382787227630615234e-01 8.107541501522064209e-02 -1.579236835241317749e-01
7.080000000000000000e+02 3.431867218017578125e+01 -1.898527717590332031e+01 3.695131838321685791e-01 6.286274790763854980e-01 2.994422018527984619e-01 1.515421718358993530e-01
7.090000000000000000e+02 3.550680541992187500e+01 -1.930533790588378906e+01 2.562380731105804443e-01 8.368378877639770508e-01 3.279227912425994873e-01 4.882451295852661133e-01
7.100000000000000000e+02 3.755574035644531250e+01 -2.210038948059082031e+01 -7.617130130529403687e-02 1.802997112274169922e+00 5.180477499961853027e-01 5.649411678314208984e-01
7.110000000000000000e+02 3.890859222412109375e+01 -2.285998344421386719e+01 -1.309337466955184937e-01 2.296477079391479492e+00 6.496629714965820312e-01 5.398343801498413086e-01
7.120000000000000000e+02 4.035787963867187500e+01 -2.368537521362304688e+01 -4.208771884441375732e-01 2.518961906433105469e+00 6.294254064559936523e-01 2.800846099853515625e-01
7.130000000000000000e+02 4.148446273803710938e+01 -2.642507362365722656e+01 -2.623425126075744629e-01 2.375775814056396484e+00 6.340299844741821289e-01 -6.648091133683919907e-03
7.140000000000000000e+02 4.330995178222656250e+01 -2.988598060607910156e+01 -3.447642549872398376e-02 2.362010955810546875e+00 6.982603669166564941e-01 -6.997588276863098145e-02
7.150000000000000000e+02 4.720969772338867188e+01 -3.362439346313476562e+01 1.691846102476119995e-01 2.676200389862060547e+00 8.536154627799987793e-01 -7.498602848500013351e-03
7.160000000000000000e+02 4.907398605346679688e+01 -3.388264846801757812e+01 1.790979504585266113e-01 2.953459978103637695e+00 9.397673606872558594e-01 3.812965005636215210e-02
7.170000000000000000e+02 2.606877899169921875e+01 -9.316825866699218750e+00 -2.067505121231079102e-01 1.635737180709838867e+00 4.286960065364837646e-01 -6.351976841688156128e-02
7.180000000000000000e+02 2.320794296264648438e+01 -9.451654434204101562e+00 -8.434861302375793457e-01 -2.446556985378265381e-01 -3.264425396919250488e-01 1.774694174528121948e-01
7.190000000000000000e+02 2.196005630493164062e+01 -8.818292617797851562e+00 -5.881142020225524902e-01 -4.338844120502471924e-02 -1.894507855176925659e-01 2.480913102626800537e-01
7.200000000000000000e+02 2.084999275207519531e+01 -8.802759170532226562e+00 -4.221869409084320068e-01 -1.161786615848541260e-01 -1.615096777677536011e-01 1.690659373998641968e-01
7.210000000000000000e+02 2.026953125000000000e+01 -7.644069671630859375e+00 -3.701154589653015137e-01 -1.314590722322463989e-01 -1.504723578691482544e-01 1.414324939250946045e-01
7.220000000000000000e+02 1.828727722167968750e+01 -5.757377624511718750e+00 -1.426011919975280762e-01 -5.491832271218299866e-02 -5.925585329532623291e-02 6.110772863030433655e-02
7.230000000000000000e+02 1.934117317199707031e+01 -6.690452575683593750e+00 -1.497172564268112183e-01 -5.380821973085403442e-02 -6.105764582753181458e-02 1.376112103462219238e-01
7.240000000000000000e+02 1.179433059692382812e+01 -1.970052123069763184e+00 -2.675535716116428375e-02 7.007272914052009583e-03 -5.924425553530454636e-03 3.004591213539242744e-03
7.250000000000000000e+02 1.033562755584716797e+01 -1.812761783599853516e+00 -2.638402022421360016e-02 5.778688937425613403e-03 -6.181599572300910950e-03 -2.153595443814992905e-03
7.260000000000000000e+02 9.011028289794921875e+00 -3.213090896606445312e+00 -3.500663861632347107e-02 5.677322857081890106e-03 -8.798794820904731750e-03 -8.014946244657039642e-03
7.270000000000000000e+02 6.571059703826904297e+00 -1.881458759307861328e+00 -1.130308583378791809e-02 -7.424510840792208910e-05 -3.413199447095394135e-03 -6.356031633913516998e-03
7.280000000000000000e+02 4.289541244506835938e+00 -1.976353526115417480e+00 -6.306589581072330475e-03 -2.878857310861349106e-03 -2.755634021013975143e-03 -4.066859371960163116e-03
7.290000000000000000e+02 3.927305459976196289e+00 -3.985362529754638672e+00 -8.838299661874771118e-03 -5.840881261974573135e-03 -4.403754603117704391e-03 -9.944343939423561096e-03
7.300000000000000000e+02 4.562324047088623047e+00 -5.628115653991699219e+00 -1.508054044097661972e-02 -9.643208235502243042e-03 -7.417124696075916290e-03 -2.163890562951564789e-02
7.310000000000000000e+02 4.188133239746093750e+00 -7.230749130249023438e+00 -1.596394181251525879e-02 -2.438572235405445099e-02 -1.210489962249994278e-02 -3.241316229104995728e-02
7.320000000000000000e+02 4.637730121612548828e+00 -9.258065223693847656e+00 -1.730341278016567230e-02 -3.110839985311031342e-02 -1.452354434877634048e-02 -4.854265972971916199e-02
7.330000000000000000e+02 5.835791587829589844e+00 -1.135757350921630859e+01 -3.565634787082672119e-02 -4.058751836419105530e-02 -2.287315949797630310e-02 -7.808271050453186035e-02
7.340000000000000000e+02 5.201835632324218750e+00 -1.308110713958740234e+01 -2.392174117267131805e-02 -6.595410406589508057e-02 -2.696275524795055389e-02 -8.646971732378005981e-02
7.350000000000000000e+02 3.943108797073364258e+00 -1.403937816619873047e+01 -1.371903158724308014e-02 -9.223041683435440063e-02 -3.178483247756958008e-02 -7.433772087097167969e-02
7.360000000000000000e+02 4.479581356048583984e+00 -1.826914596557617188e+01 -3.166689770296216011e-03 -1.517400443553924561e-01 -4.647202044725418091e-02 -9.942469000816345215e-02
7.370000000000000000e+02 2.766975164413452148e+00 -1.953398132324218750e+01 1.187712769024074078e-04 -2.129721045494079590e-01 -6.385599821805953979e-02 -6.862716376781463623e-02
7.380000000000000000e+02 2.802922248840332031e+00 -2.098876380920410156e+01 -2.074477262794971466e-03 -2.429539114236831665e-01 -7.350851595401763916e-02 -7.107017934322357178e-02
7.390000000000000000e+02 2.805238008499145508e+00 -2.246150207519531250e+01 3.946149721741676331e-03 -2.743221521377563477e-01 -8.111280202865600586e-02 -6.966544687747955322e-02
7.400000000000000000e+02 2.769965171813964844e+00 -2.393719291687011719e+01 -2.543103881180286407e-03 -3.053372204303741455e-01 -9.236410260200500488e-02 -6.760742515325546265e-02
7.410000000000000000e+02 2.636665821075439453e+00 -2.690094184875488281e+01 -6.749772583134472370e-04 -3.662197291851043701e-01 -1.100684180855751038e-01 -5.915711820125579834e-02
7.420000000000000000e+02 2.363497018814086914e+00 -2.821578788757324219e+01 5.868668667972087860e-03 -4.026612937450408936e-01 -1.190377846360206604e-01 -5.811714380979537964e-02
7.430000000000000000e+02 3.590603113174438477e+00 -3.070407104492187500e+01 1.240809261798858643e-02 -3.744853734970092773e-01 -1.086231842637062073e-01 -6.004965677857398987e-02
7.440000000000000000e+02 2.455008268356323242e+00 -3.198479652404785156e+01 7.747641764581203461e-03 -4.653784036636352539e-01 -1.372892260551452637e-01 -3.829400986433029175e-02
7.450000000000000000e+02 2.607639551162719727e+00 -3.322343826293945312e+01 1.046646479517221451e-02 -4.656514823436737061e-01 -1.365555077791213989e-01 -4.286839812994003296e-02
7.460000000000000000e+02 2.124434947967529297e+00 -3.466389846801757812e+01 1.201769243925809860e-02 -5.157349109649658203e-01 -1.511151641607284546e-01 -3.004005551338195801e-02
7.470000000000000000e+02 3.182551622390747070e+00 -3.731045532226562500e+01 1.787352748215198517e-02 -5.015243887901306152e-01 -1.450952440500259399e-01 -2.951648831367492676e-02
7.480000000000000000e+02 4.552571296691894531e+00 -4.021790695190429688e+01 8.051539771258831024e-03 -4.345837831497192383e-01 -1.279596686363220215e-01 -2.942829579114913940e-02
7.490000000000000000e+02 3.600003242492675781e+00 -3.529132080078125000e+01 1.814032159745693207e-02 -4.408259391784667969e-01 -1.268056780099868774e-01 -3.830183669924736023e-02
7.500000000000000000e+02 3.839132785797119141e+00 -3.341787338256835938e+01 1.840557157993316650e-02 -4.114373028278350830e-01 -1.179095208644866943e-01 -4.896138980984687805e-02
7.510000000000000000e+02 4.707491874694824219e+00 -3.153025627136230469e+01 1.052486151456832886e-02 -3.343298137187957764e-01 -9.714148938655853271e-02 -7.061619311571121216e-02
7.520000000000000000e+02 4.888035774230957031e+00 -2.889287185668945312e+01 7.936618290841579437e-03 -3.029666244983673096e-01 -8.850900083780288696e-02 -8.634236454963684082e-02
7.530000000000000000e+02 4.261161804199218750e+00 -2.715536308288574219e+01 1.050359662622213364e-02 -3.085032105445861816e-01 -8.939988911151885986e-02 -8.590757101774215698e-02
7.540000000000000000e+02 4.329475879669189453e+00 -2.577118682861328125e+01 2.029452240094542503e-03 -2.777846455574035645e-01 -8.272656053304672241e-02 -9.170199930667877197e-02
7.550000000000000000e+02 4.561748504638671875e+00 -2.432564926147460938e+01 1.052896864712238312e-02 -2.499093115329742432e-01 -7.181410491466522217e-02 -9.748107939958572388e-02
7.560000000000000000e+02 4.572221755981445312e+00 -2.273015403747558594e+01 -4.588134761434048414e-04 -2.221810519695281982e-01 -6.679195910692214966e-02 -1.041325777769088745e-01
7.570000000000000000e+02 4.582517147064208984e+00 -2.122058486938476562e+01 3.140324261039495468e-03 -1.979810893535614014e-01 -5.845222622156143188e-02 -1.024216637015342712e-01
7.580000000000000000e+02 6.277365684509277344e+00 -1.994256782531738281e+01 -2.578213752713054419e-05 -1.345890611410140991e-01 -4.038445279002189636e-02 -1.276796013116836548e-01
7.590000000000000000e+02 6.154553890228271484e+00 -1.702015113830566406e+01 -1.234901789575815201e-02 -9.670647233724594116e-02 -3.271664679050445557e-02 -1.198513507843017578e-01
7.600000000000000000e+02 4.198743343353271484e+00 -1.538195419311523438e+01 -9.743953123688697815e-03 -1.094126030802726746e-01 -3.574696928262710571e-02 -8.577066659927368164e-02
7.610000000000000000e+02 6.859772205352783203e+00 -1.182815170288085938e+01 -3.373204916715621948e-02 -3.150029852986335754e-02 -1.956970430910587311e-02 -9.275460243225097656e-02
7.620000000000000000e+02 6.353551864624023438e+00 -1.060126018524169922e+01 -3.036385215818881989e-02 -2.874908596277236938e-02 -1.773388125002384186e-02 -7.410280406475067139e-02
7.630000000000000000e+02 5.467530727386474609e+00 -6.544148921966552734e+00 -2.463178150355815887e-02 -1.500262971967458725e-02 -1.189032383263111115e-02 -3.351629525423049927e-02
7.640000000000000000e+02 5.210012912750244141e+00 -5.371254444122314453e+00 -2.282963134348392487e-02 -1.077308878302574158e-02 -1.008081622421741486e-02 -2.292350679636001587e-02
7.650000000000000000e+02 5.436927318572998047e+00 -3.649262905120849609e+00 -1.480124238878488541e-02 -2.766020828858017921e-03 -5.270178895443677902e-03 -1.259873434901237488e-02
7.660000000000000000e+02 1.620420455932617188e+01 -5.280898094177246094e+00 -1.165054067969322205e-01 1.117676310241222382e-02 -3.159859403967857361e-02 4.429462924599647522e-02
7.670000000000000000e+02 1.654910278320312500e+01 -3.850279331207275391e+00 -5.281922966241836548e-02 -3.078742325305938721e-02 -2.508199587464332581e-02 1.751445420086383820e-02
7.680000000000000000e+02 4.465297698974609375e+00 -2.908684730529785156e+00 -8.196436800062656403e-03 -2.798539586365222931e-03 -3.298492869362235069e-03 -6.914846599102020264e-03
7.690000000000000000e+02 2.743093729019165039e+00 -2.067487478256225586e+00 -2.980258548632264137e-03 -2.247497206553816795e-03 -1.568326726555824280e-03 -1.530738081783056259e-03
7.700000000000000000e+02 3.140022754669189453e+00 -4.225129127502441406e+00 -7.738216314464807510e-03 -9.293462149798870087e-03 -5.109503399580717087e-03 -9.465194307267665863e-03
7.710000000000000000e+02 2.181669473648071289e+00 -7.348742485046386719e+00 -8.419313468039035797e-03 -2.331604063510894775e-02 -9.520606137812137604e-03 -1.780324243009090424e-02
7.720000000000000000e+02 3.550978183746337891e+00 -9.992536544799804688e+00 -1.700946502387523651e-02 -4.505641013383865356e-02 -1.861976273357868195e-02 -4.347120597958564758e-02
7.730000000000000000e+02 4.743980407714843750e+00 -1.079514598846435547e+01 -1.705477945506572723e-02 -4.667804390192031860e-02 -1.911984756588935852e-02 -6.165245547890663147e-02
7.740000000000000000e+02 2.514426469802856445e+00 -1.248883438110351562e+01 -7.626829668879508972e-03 -8.124981820583343506e-02 -2.666299417614936829e-02 -4.488886147737503052e-02
7.750000000000000000e+02 2.456099271774291992e+00 -1.386523818969726562e+01 -3.881970187649130821e-03 -1.048453003168106079e-01 -3.261818364262580872e-02 -5.032840743660926819e-02
7.760000000000000000e+02 2.705258369445800781e+00 -1.808958244323730469e+01 -4.099256824702024460e-03 -1.846069842576980591e-01 -5.661187320947647095e-02 -6.611269712448120117e-02
7.770000000000000000e+02 9.294847846031188965e-01 -1.929940414428710938e+01 -1.690799836069345474e-03 -2.491554617881774902e-01 -7.525388151407241821e-02 -2.480996400117874146e-02
7.780000000000000000e+02 9.463680982589721680e-01 -2.072647285461425781e+01 1.077297842130064964e-03 -2.868570983409881592e-01 -8.573393523693084717e-02 -2.551970630884170532e-02
7.790000000000000000e+02 9.477908611297607422e-01 -2.215741729736328125e+01 -1.376813044771552086e-03 -3.250721096992492676e-01 -9.793467819690704346e-02 -2.552108094096183777e-02
7.800000000000000000e+02 9.065263867378234863e-01 -2.501322364807128906e+01 -1.820856705307960510e-03 -4.021134972572326660e-01 -1.211803033947944641e-01 -2.460485883057117462e-02
7.810000000000000000e+02 8.666211366653442383e-01 -2.643099594116210938e+01 6.205139216035604477e-03 -4.402366280555725098e-01 -1.302094459533691406e-01 -2.276329137384891510e-02
7.820000000000000000e+02 7.846543192863464355e-01 -2.780500411987304688e+01 -1.602023839950561523e-03 -4.753382503986358643e-01 -1.430820822715759277e-01 -1.729495078325271606e-02
7.830000000000000000e+02 2.175382614135742188e+00 -3.071361160278320312e+01 7.384410593658685684e-03 -4.598583877086639404e-01 -1.357421875000000000e-01 -4.284642264246940613e-02
7.840000000000000000e+02 6.234235167503356934e-01 -3.205325698852539062e+01 4.483605269342660904e-03 -5.777437090873718262e-01 -1.719780266284942627e-01 -1.320267561823129654e-02
7.850000000000000000e+02 1.665539622306823730e+00 -3.264448547363281250e+01 1.015435066074132919e-02 -5.189031958580017090e-01 -1.526246517896652222e-01 -2.934489957988262177e-02
7.860000000000000000e+02 4.879910349845886230e-01 -3.454256439208984375e+01 -1.163261476904153824e-03 -6.141966581344604492e-01 -1.846079677343368530e-01 -1.475959201343357563e-03
7.870000000000000000e+02 1.072277069091796875e+00 -3.731589508056640625e+01 5.774541292339563370e-03 -6.047872900962829590e-01 -1.797038316726684570e-01 7.886721752583980560e-03
7.880000000000000000e+02 9.365399479866027832e-01 -3.883724975585937500e+01 -1.401134021580219269e-02 -6.000332832336425781e-01 -1.842133849859237671e-01 5.125199095346033573e-05
7.890000000000000000e+02 1.113013744354248047e+00 -4.013986587524414062e+01 2.302294224500656128e-02 -5.862551927566528320e-01 -1.689696609973907471e-01 1.414111908525228500e-02
7.900000000000000000e+02 1.937359690666198730e+00 -4.162894821166992188e+01 -1.979209855198860168e-02 -5.776839852333068848e-01 -1.792428344488143921e-01 5.606472026556730270e-03
7.910000000000000000e+02 1.961345672607421875e+00 -2.117390871047973633e+00 -5.587075138464570045e-04 -1.400354201905429363e-03 -5.877185030840337276e-04 3.868707281071692705e-04
7.920000000000000000e+02 3.914605975151062012e-01 -2.194478750228881836e+00 4.620733670890331268e-04 1.791918883100152016e-03 6.761976983398199081e-04 4.382192855700850487e-04
7.930000000000000000e+02 4.818569123744964600e-01 -4.960473060607910156e+00 6.029121577739715576e-04 -9.439862915314733982e-04 -1.023222357616759837e-04 -1.294241519644856453e-03
7.940000000000000000e+02 1.423592686653137207e+00 -4.765097618103027344e+00 -3.109854413196444511e-03 -5.953283514827489853e-03 -2.718941308557987213e-03 -4.408064763993024826e-03
7.950000000000000000e+02 7.550255060195922852e-01 -7.743014812469482422e+00 -1.365549862384796143e-03 -2.032294124364852905e-02 -6.506547331809997559e-03 -7.381282281130552292e-03
7.960000000000000000e+02 9.689649939537048340e-01 -9.210728645324707031e+00 -4.290604032576084137e-03 -3.732372820377349854e-02 -1.248429995030164719e-02 -1.232140325009822845e-02
7.970000000000000000e+02 8.721991181373596191e-01 -1.220664215087890625e+01 2.963606675621122122e-04 -8.136454969644546509e-02 -2.432045713067054749e-02 -1.672890782356262207e-02
7.980000000000000000e+02 8.379627466201782227e-01 -1.363344192504882812e+01 -1.884504803456366062e-03 -1.105685308575630188e-01 -3.373591229319572449e-02 -1.797237060964107513e-02
7.990000000000000000e+02 8.773010969161987305e-01 -1.646228218078613281e+01 -1.765267341397702694e-03 -1.764577180147171021e-01 -5.346689373254776001e-02 -2.173282951116561890e-02
8.000000000000000000e+02 9.045389890670776367e-01 -1.787669944763183594e+01 -2.224208146799355745e-04 -2.119718194007873535e-01 -6.365827471017837524e-02 -2.335395663976669312e-02
8.010000000000000000e+02 5.329867839813232422e+00 -3.332407379150390625e+01 2.926400117576122284e-02 -3.171100616455078125e-01 -8.635381609201431274e-02 -6.822169572114944458e-02
8.020000000000000000e+02 5.926072597503662109e+00 -3.082003211975097656e+01 2.627575024962425232e-02 -2.711729109287261963e-01 -7.346914708614349365e-02 -8.418960869312286377e-02
8.030000000000000000e+02 6.628657817840576172e+00 -2.610417556762695312e+01 1.881202496588230133e-02 -1.951768696308135986e-01 -5.290945246815681458e-02 -1.171197593212127686e-01
8.040000000000000000e+02 6.198652744293212891e+00 -2.450213241577148438e+01 5.673733539879322052e-03 -1.979565769433975220e-01 -5.768485367298126221e-02 -1.268160343170166016e-01
8.050000000000000000e+02 6.227229118347167969e+00 -2.293680381774902344e+01 1.140622794628143311e-02 -1.753771156072616577e-01 -4.919126629829406738e-02 -1.229624301195144653e-01
8.060000000000000000e+02 6.307718753814697266e+00 -2.144230651855468750e+01 -1.923773437738418579e-03 -1.557121723890304565e-01 -4.729078337550163269e-02 -1.308709383010864258e-01
8.070000000000000000e+02 7.977156162261962891e+00 -2.007622909545898438e+01 -5.755536258220672607e-03 -9.216262400150299072e-02 -2.937544882297515869e-02 -1.512597799301147461e-01
8.080000000000000000e+02 7.691382408142089844e+00 -1.720508956909179688e+01 -2.270000241696834564e-02 -7.269452512264251709e-02 -2.861835807561874390e-02 -1.400236040353775024e-01
8.090000000000000000e+02 7.693244457244873047e+00 -1.491053295135498047e+01 -3.669428080320358276e-02 -4.604832455515861511e-02 -2.482278086245059967e-02 -1.262516081333160400e-01
8.100000000000000000e+02 6.954550743103027344e+00 -1.361060142517089844e+01 -3.622178733348846436e-02 -4.934297129511833191e-02 -2.566942758858203888e-02 -1.091426238417625427e-01
8.110000000000000000e+02 7.612967967987060547e+00 -1.237533283233642578e+01 -4.941002652049064636e-02 -2.597700618207454681e-02 -2.261611074209213257e-02 -1.003291383385658264e-01
8.120000000000000000e+02 7.798655033111572266e+00 -9.637377738952636719e+00 -5.747779831290245056e-02 -4.506997764110565186e-03 -1.859543845057487488e-02 -7.624144852161407471e-02
8.130000000000000000e+02 7.224190711975097656e+00 -7.678674221038818359e+00 -4.279256239533424377e-02 -1.547777908854186535e-03 -1.330210268497467041e-02 -4.488305002450942993e-02
8.140000000000000000e+02 7.369004726409912109e+00 -6.874312877655029297e+00 -4.416861757636070251e-02 -2.554772421717643738e-03 -1.401701755821704865e-02 -4.338497295975685120e-02
8.150000000000000000e+02 6.857194423675537109e+00 -3.393512964248657227e+00 -1.971955224871635437e-02 -5.789918213849887252e-05 -5.933235399425029755e-03 -1.274853385984897614e-02
8.160000000000000000e+02 7.329421043395996094e+00 -1.861907720565795898e+00 -1.653640531003475189e-02 2.442988625261932611e-04 -4.887632094323635101e-03 -5.591408349573612213e-03
8.170000000000000000e+02 1.720838546752929688e+01 -4.063833236694335938e+01 1.399352848529815674e-01 2.549502253532409668e-01 1.184656471014022827e-01 -2.066764421761035919e-02
8.180000000000000000e+02 8.163509368896484375e+00 -3.794116592407226562e+01 4.683204367756843567e-02 -2.107814550399780273e-01 -4.918482527136802673e-02 -4.500792175531387329e-02
8.190000000000000000e+02 5.412306308746337891e+00 -3.777377319335937500e+01 3.227798268198966980e-02 -3.419161438941955566e-01 -9.289144724607467651e-02 -3.864299133419990540e-02
8.200000000000000000e+02 7.329719066619873047e+00 -3.011371994018554688e+01 2.547570504248142242e-02 -2.090698629617691040e-01 -5.507824942469596863e-02 -1.051924303174018860e-01
8.210000000000000000e+02 7.510219573974609375e+00 -2.766716003417968750e+01 2.400951087474822998e-02 -1.835058182477951050e-01 -4.784889519214630127e-02 -1.227160096168518066e-01
8.220000000000000000e+02 7.549350261688232422e+00 -2.451308059692382812e+01 2.086851932108402252e-02 -1.447638720273971558e-01 -3.716860711574554443e-02 -1.332173794507980347e-01
8.230000000000000000e+02 9.314113616943359375e+00 -2.383994483947753906e+01 2.425749599933624268e-02 -8.120184391736984253e-02 -1.708330586552619934e-02 -1.530835330486297607e-01
8.240000000000000000e+02 7.803638935089111328e+00 -2.320795249938964844e+01 6.334523670375347137e-03 -1.281159669160842896e-01 -3.653443232178688049e-02 -1.484899967908859253e-01
8.250000000000000000e+02 8.079314231872558594e+00 -2.169609260559082031e+01 8.034989237785339355e-03 -1.028455197811126709e-01 -2.844315953552722931e-02 -1.470870673656463623e-01
8.260000000000000000e+02 9.326062202453613281e+00 -1.972871780395507812e+01 -7.093579042702913284e-03 -5.247085914015769958e-02 -1.786933094263076782e-02 -1.611857861280441284e-01
8.270000000000000000e+02 9.085036277770996094e+00 -1.722659683227539062e+01 -2.136642299592494965e-02 -3.591370955109596252e-02 -1.718403957784175873e-02 -1.516099274158477783e-01
8.280000000000000000e+02 9.035490989685058594e+00 -1.594803142547607422e+01 -3.891960158944129944e-02 -3.056916594505310059e-02 -2.084662951529026031e-02 -1.474294066429138184e-01
8.290000000000000000e+02 8.650855064392089844e+00 -1.294702434539794922e+01 -5.380373448133468628e-02 -1.193223614245653152e-02 -1.972079090774059296e-02 -1.123727038502693176e-01
8.300000000000000000e+02 9.404507637023925781e+00 -1.181703281402587891e+01 -6.763830780982971191e-02 3.918038681149482727e-03 -1.911607943475246429e-02 -1.058086603879928589e-01
8.310000000000000000e+02 8.733470916748046875e+00 -9.887680053710937500e+00 -5.644536390900611877e-02 2.391308313235640526e-03 -1.621621660888195038e-02 -7.583304494619369507e-02
8.320000000000000000e+02 8.343013763427734375e+00 -7.861973285675048828e+00 -6.091371551156044006e-02 3.391680307686328888e-03 -1.725661009550094604e-02 -5.627338588237762451e-02
8.330000000000000000e+02 9.881832122802734375e+00 -6.181187152862548828e+00 -7.395424693822860718e-02 1.351323537528514862e-02 -1.813230477273464203e-02 -3.212499991059303284e-02
8.340000000000000000e+02 9.078763008117675781e+00 -4.591842174530029297e+00 -4.873339831829071045e-02 1.095920801162719727e-02 -1.133225765079259872e-02 -1.400848757475614548e-02
8.350000000000000000e+02 9.062156677246093750e+00 -3.899015426635742188e+00 -3.442510217428207397e-02 2.500716829672455788e-03 -9.577315300703048706e-03 -1.604638993740081787e-02
8.360000000000000000e+02 9.661187171936035156e+00 -2.473103523254394531e+00 -3.170209750533103943e-02 6.038513034582138062e-03 -7.699075620621442795e-03 -3.652192186564207077e-03
8.370000000000000000e+02 7.887587547302246094e+00 -4.094409942626953125e+01 3.683117032051086426e-02 -2.338648736476898193e-01 -5.911011248826980591e-02 -1.533805485814809799e-02
8.380000000000000000e+02 8.530413627624511719e+00 -3.212539291381835938e+01 4.312229901552200317e-02 -1.612040102481842041e-01 -3.542451560497283936e-02 -9.204595535993576050e-02
8.390000000000000000e+02 8.586208343505859375e+00 -2.929286384582519531e+01 3.684826940298080444e-02 -1.456831693649291992e-01 -3.265047073364257812e-02 -1.162905767560005188e-01
8.400000000000000000e+02 8.594810485839843750e+00 -2.691706657409667969e+01 2.885208465158939362e-02 -1.315358877182006836e-01 -3.080514073371887207e-02 -1.324376165866851807e-01
8.410000000000000000e+02 9.530652046203613281e+00 -2.598685073852539062e+01 3.199506551027297974e-02 -9.159545600414276123e-02 -1.788011752068996429e-02 -1.439035683870315552e-01
8.420000000000000000e+02 1.039164924621582031e+01 -2.494444847106933594e+01 2.868510596454143524e-02 -4.799875617027282715e-02 -5.794095341116189957e-03 -1.573139131069183350e-01
8.430000000000000000e+02 1.049305057525634766e+01 -2.070270347595214844e+01 3.312506712973117828e-03 -2.574576064944267273e-02 -6.729975808411836624e-03 -1.663914471864700317e-01
8.440000000000000000e+02 1.234404754638671875e+01 -1.962911415100097656e+01 -7.938237860798835754e-03 3.593382984399795532e-02 8.398678153753280640e-03 -1.716641783714294434e-01
8.450000000000000000e+02 1.183883094787597656e+01 -1.712663269042968750e+01 -4.250738397240638733e-02 2.522641979157924652e-02 -5.184289067983627319e-03 -1.671564877033233643e-01
8.460000000000000000e+02 1.021662139892578125e+01 -1.544261264801025391e+01 -4.725776985287666321e-02 -4.777667112648487091e-03 -1.561063062399625778e-02 -1.498946398496627808e-01
8.470000000000000000e+02 1.043855190277099609e+01 -1.382547378540039062e+01 -7.420797646045684814e-02 7.326419465243816376e-03 -2.006446756422519684e-02 -1.393190622329711914e-01
8.480000000000000000e+02 1.145256710052490234e+01 -1.137232875823974609e+01 -1.021942645311355591e-01 3.705208748579025269e-02 -1.954265311360359192e-02 -1.062470376491546631e-01
8.490000000000000000e+02 1.120398616790771484e+01 -1.049778556823730469e+01 -9.351964294910430908e-02 3.297879174351692200e-02 -1.816225424408912659e-02 -9.596017003059387207e-02
8.500000000000000000e+02 1.061184406280517578e+01 -8.607740402221679688e+00 -1.051100939512252808e-01 2.685803361237049103e-02 -2.347561903297901154e-02 -6.660436838865280151e-02
8.510000000000000000e+02 1.130507183074951172e+01 -6.473371505737304688e+00 -7.590883225202560425e-02 2.608659863471984863e-02 -1.494667120277881622e-02 -2.810456231236457825e-02
8.520000000000000000e+02 1.034610366821289062e+01 -4.659772872924804688e+00 -5.110580846667289734e-02 1.532423868775367737e-02 -1.073447056114673615e-02 -1.414393354207277298e-02
8.530000000000000000e+02 1.051636505126953125e+01 -2.932785272598266602e+00 -4.384496435523033142e-02 5.520828068256378174e-03 -1.149724051356315613e-02 -6.136931478977203369e-03
8.540000000000000000e+02 1.105922412872314453e+01 -1.862101912498474121e+00 -2.585988305509090424e-02 -1.437974569853395224e-04 -7.801103871315717697e-03 6.011476507410407066e-04
8.550000000000000000e+02 1.142321777343750000e+01 -3.736884689331054688e+01 8.081042766571044922e-02 -2.948031015694141388e-02 1.539903599768877029e-02 -5.606033280491828918e-02
8.560000000000000000e+02 1.159140872955322266e+01 -3.316893005371093750e+01 7.057378441095352173e-02 -3.974025696516036987e-02 9.250057861208915710e-03 -9.797521680593490601e-02
8.570000000000000000e+02 9.922703742980957031e+00 -3.110938644409179688e+01 5.055041983723640442e-02 -1.035679578781127930e-01 -1.590526103973388672e-02 -1.093957498669624329e-01
8.580000000000000000e+02 9.678492546081542969e+00 -2.830917549133300781e+01 4.151553660631179810e-02 -9.969021379947662354e-02 -1.745240204036235809e-02 -1.308596134185791016e-01
8.590000000000000000e+02 1.059728622436523438e+01 -2.717563247680664062e+01 4.232734069228172302e-02 -5.312951654195785522e-02 -3.240653313696384430e-03 -1.441049128770828247e-01
8.600000000000000000e+02 1.131862926483154297e+01 -2.599082374572753906e+01 4.693189263343811035e-02 -2.034482546150684357e-02 7.976121269166469574e-03 -1.564777344465255737e-01
8.610000000000000000e+02 1.155805492401123047e+01 -2.464279365539550781e+01 3.012433648109436035e-02 -1.023697759956121445e-02 5.966207478195428848e-03 -1.631446629762649536e-01
8.620000000000000000e+02 1.166460418701171875e+01 -2.302501487731933594e+01 2.849036082625389099e-02 6.186127196997404099e-03 1.040294673293828964e-02 -1.673474609851837158e-01
8.630000000000000000e+02 1.209986209869384766e+01 -2.131069755554199219e+01 1.915288448799401522e-04 1.780143938958644867e-02 5.397890694439411163e-03 -1.764002442359924316e-01
8.640000000000000000e+02 1.354013347625732422e+01 -1.942444038391113281e+01 -1.238188706338405609e-02 5.439274013042449951e-02 1.260325592011213303e-02 -1.772631406784057617e-01
8.650000000000000000e+02 1.183793354034423828e+01 -1.544643783569335938e+01 -6.227378547191619873e-02 2.692010253667831421e-02 -1.060610450804233551e-02 -1.567471027374267578e-01
8.660000000000000000e+02 1.319608020782470703e+01 -1.283073520660400391e+01 -1.057818681001663208e-01 6.279338896274566650e-02 -1.289654336869716644e-02 -1.348038166761398315e-01
8.670000000000000000e+02 1.384774971008300781e+01 -1.132290554046630859e+01 -1.406433433294296265e-01 6.624690443277359009e-02 -2.231893129646778107e-02 -1.161600649356842041e-01
8.680000000000000000e+02 1.349327945709228516e+01 -1.029242229461669922e+01 -1.597294062376022339e-01 6.798958033323287964e-02 -2.752194739878177643e-02 -8.534588664770126343e-02
8.690000000000000000e+02 1.244865989685058594e+01 -8.504527091979980469e+00 -1.366267502307891846e-01 4.722766205668449402e-02 -2.681972831487655640e-02 -5.600526556372642517e-02
8.700000000000000000e+02 1.171049308776855469e+01 -7.045157432556152344e+00 -1.127081662416458130e-01 3.415131941437721252e-02 -2.356705255806446075e-02 -3.410777449607849121e-02
8.710000000000000000e+02 1.311146450042724609e+01 -4.374613761901855469e+00 -6.703776121139526367e-02 7.050339132547378540e-03 -1.799622736871242523e-02 -5.584796890616416931e-04
8.720000000000000000e+02 1.178608798980712891e+01 -3.728818893432617188e+00 -6.168391183018684387e-02 9.332316927611827850e-03 -1.570547744631767273e-02 -4.177426919341087341e-03
8.730000000000000000e+02 1.259328365325927734e+01 -2.122757434844970703e+00 -3.318636864423751831e-02 2.856228034943342209e-03 -9.099042974412441254e-03 4.552640952169895172e-03
8.740000000000000000e+02 1.106841659545898438e+01 -2.983456039428710938e+01 5.868514999747276306e-02 -4.925018921494483948e-02 2.830487908795475960e-03 -1.256058812141418457e-01
8.750000000000000000e+02 1.197082805633544922e+01 -2.838805389404296875e+01 6.140601634979248047e-02 -3.356067230924963951e-03 1.741498522460460663e-02 -1.439397186040878296e-01
8.760000000000000000e+02 1.262809562683105469e+01 -2.683028793334960938e+01 5.301976948976516724e-02 2.726390771567821503e-02 2.408510260283946991e-02 -1.534337848424911499e-01
8.770000000000000000e+02 1.301778030395507812e+01 -2.522812652587890625e+01 4.751777276396751404e-02 5.162827298045158386e-02 2.974381484091281891e-02 -1.632513850927352905e-01
8.780000000000000000e+02 1.328371429443359375e+01 -2.361948394775390625e+01 2.949798479676246643e-02 5.541770532727241516e-02 2.547470666468143463e-02 -1.693673431873321533e-01
8.790000000000000000e+02 1.366640567779541016e+01 -2.195288848876953125e+01 2.265976183116436005e-02 7.217103242874145508e-02 2.844923920929431915e-02 -1.723583191633224487e-01
8.800000000000000000e+02 1.460178947448730469e+01 -1.916516876220703125e+01 -1.095918845385313034e-02 9.872446209192276001e-02 2.632958069443702698e-02 -1.716299802064895630e-01
8.810000000000000000e+02 1.441312980651855469e+01 -1.778280830383300781e+01 -4.366318508982658386e-02 7.879587262868881226e-02 1.053980644792318344e-02 -1.743274182081222534e-01
8.820000000000000000e+02 1.514318847656250000e+01 -1.504915428161621094e+01 -7.797501981258392334e-02 9.253594279289245605e-02 4.368276800960302353e-03 -1.488058269023895264e-01
8.830000000000000000e+02 1.495183181762695312e+01 -1.405249977111816406e+01 -1.187004968523979187e-01 8.651719987392425537e-02 -9.654989466071128845e-03 -1.633545011281967163e-01
8.840000000000000000e+02 1.502005100250244141e+01 -1.215540695190429688e+01 -1.607693284749984741e-01 7.621517032384872437e-02 -2.536625042557716370e-02 -1.314974427223205566e-01
8.850000000000000000e+02 1.451571846008300781e+01 -9.532825469970703125e+00 -1.494973152875900269e-01 6.560323387384414673e-02 -2.516822516918182373e-02 -6.727039813995361328e-02
8.860000000000000000e+02 1.494963073730468750e+01 -8.059341430664062500e+00 -1.568856090307235718e-01 4.845041409134864807e-02 -3.253055736422538757e-02 -1.947006955742835999e-02
8.870000000000000000e+02 1.419258403778076172e+01 -6.219666957855224609e+00 -1.040635630488395691e-01 3.751317784190177917e-02 -1.996511593461036682e-02 4.813574254512786865e-03
8.880000000000000000e+02 1.501304626464843750e+01 -5.041847705841064453e+00 -1.074195727705955505e-01 4.511066712439060211e-03 -3.087255358695983887e-02 1.369257178157567978e-02
8.890000000000000000e+02 1.441945171356201172e+01 -3.607710361480712891e+00 -6.698688119649887085e-02 2.178940689191222191e-03 -1.944238133728504181e-02 1.241068076342344284e-02
8.900000000000000000e+02 1.430883598327636719e+01 -1.992468833923339844e+00 -1.708162762224674225e-02 -1.586551428772509098e-03 -5.600453820079565048e-03 8.931103162467479706e-03
8.910000000000000000e+02 1.385765743255615234e+01 -3.551670837402343750e+01 9.899172186851501465e-02 8.061344176530838013e-02 5.388154834508895874e-02 -7.661849260330200195e-02
8.920000000000000000e+02 1.239166355133056641e+01 -4.073059844970703125e+01 9.105178713798522949e-02 1.245419029146432877e-02 3.105179406702518463e-02 -1.813473179936408997e-02
8.930000000000000000e+02 1.500022029876708984e+01 -3.294423294067382812e+01 1.113676130771636963e-01 1.430204361677169800e-01 7.631641626358032227e-02 -1.005652248859405518e-01
8.940000000000000000e+02 1.364445304870605469e+01 -2.956885528564453125e+01 7.873304933309555054e-02 7.233633846044540405e-02 4.532081633806228638e-02 -1.345563828945159912e-01
8.950000000000000000e+02 1.419465827941894531e+01 -2.771041488647460938e+01 7.245796918869018555e-02 9.815263748168945312e-02 5.118318274617195129e-02 -1.484168171882629395e-01
8.960000000000000000e+02 1.453316211700439453e+01 -2.594499015808105469e+01 5.597627535462379456e-02 1.042743921279907227e-01 4.807519912719726562e-02 -1.565232127904891968e-01
8.970000000000000000e+02 1.478857231140136719e+01 -2.429467391967773438e+01 4.770855605602264404e-02 1.167038306593894958e-01 4.932371526956558228e-02 -1.648196876049041748e-01
8.980000000000000000e+02 1.511599349975585938e+01 -2.271872711181640625e+01 2.454561740159988403e-02 1.191398501396179199e-01 4.310563951730728149e-02 -1.681295037269592285e-01
8.990000000000000000e+02 1.565622138977050781e+01 -2.119420814514160156e+01 1.594903506338596344e-02 1.329393684864044189e-01 4.466652125120162964e-02 -1.694359481334686279e-01
9.000000000000000000e+02 1.625929641723632812e+01 -1.988429260253906250e+01 -1.705712266266345978e-02 1.435576975345611572e-01 3.795017302036285400e-02 -1.605817526578903198e-01
9.010000000000000000e+02 1.747906494140625000e+01 -1.756988716125488281e+01 -4.224093258380889893e-02 1.692810803651809692e-01 3.811204433441162109e-02 -1.460222899913787842e-01
9.020000000000000000e+02 1.728726959228515625e+01 -1.451100444793701172e+01 -1.268960237503051758e-01 1.275822520256042480e-01 2.058693498838692904e-04 -1.379510760307312012e-01
9.030000000000000000e+02 1.742635536193847656e+01 -1.291672992706298828e+01 -1.763665825128555298e-01 1.106108501553535461e-01 -1.972671970725059509e-02 -1.203935816884040833e-01
9.040000000000000000e+02 1.643479347229003906e+01 -1.130901432037353516e+01 -2.199387550354003906e-01 8.921123296022415161e-02 -3.921825438737869263e-02 -9.427522867918014526e-02
9.050000000000000000e+02 1.665276527404785156e+01 -9.811573028564453125e+00 -2.569579482078552246e-01 8.025263994932174683e-02 -5.301158875226974487e-02 -5.973790585994720459e-02
9.060000000000000000e+02 1.669320869445800781e+01 -8.250906944274902344e+00 -2.631030678749084473e-01 6.206116452813148499e-02 -6.031256541609764099e-02 -1.217566989362239838e-02
9.070000000000000000e+02 1.608182334899902344e+01 -6.700061798095703125e+00 -1.569638401269912720e-01 1.898862607777118683e-02 -4.139256477355957031e-02 1.437914278358221054e-02
9.080000000000000000e+02 1.722840118408203125e+01 -3.708379364013671875e+01 1.381093114614486694e-01 2.454216927289962769e-01 1.150593012571334839e-01 -4.840388149023056030e-02
9.090000000000000000e+02 1.786620712280273438e+01 -3.126708602905273438e+01 1.183802857995033264e-01 2.714111208915710449e-01 1.169374212622642517e-01 -1.001618728041648865e-01
9.100000000000000000e+02 1.596961688995361328e+01 -2.846700096130371094e+01 8.656544238328933716e-02 1.725115776062011719e-01 7.772310823202133179e-02 -1.338864564895629883e-01
9.110000000000000000e+02 1.614293861389160156e+01 -2.657164001464843750e+01 7.768344134092330933e-02 1.765509843826293945e-01 7.627032697200775146e-02 -1.497659534215927124e-01
9.120000000000000000e+02 1.778140258789062500e+01 -2.373414611816406250e+01 3.699414804577827454e-02 2.254175692796707153e-01 7.872352004051208496e-02 -1.532300561666488647e-01
9.130000000000000000e+02 1.901874732971191406e+01 -2.248668098449707031e+01 2.107837237417697906e-02 2.606391906738281250e-01 8.451527357101440430e-02 -1.487255841493606567e-01
9.140000000000000000e+02 1.881168556213378906e+01 -2.118536949157714844e+01 2.176120877265930176e-02 2.464637160301208496e-01 8.046747744083404541e-02 -1.454307585954666138e-01
9.150000000000000000e+02 1.848068618774414062e+01 -1.747644424438476562e+01 -7.458127290010452271e-02 1.873487234115600586e-01 3.383023291826248169e-02 -1.445575058460235596e-01
9.160000000000000000e+02 1.788152503967285156e+01 -1.530314445495605469e+01 -1.027311906218528748e-01 1.333969980478286743e-01 9.199740365147590637e-03 -1.396220326423645020e-01
9.170000000000000000e+02 1.805938911437988281e+01 -1.375808143615722656e+01 -1.302841305732727051e-01 1.082491874694824219e-01 -6.610482465475797653e-03 -1.269025057554244995e-01
9.180000000000000000e+02 1.786291885375976562e+01 -1.126505947113037109e+01 -2.427663654088973999e-01 9.828948974609375000e-02 -4.334306344389915466e-02 -9.795006364583969116e-02
9.190000000000000000e+02 1.817091941833496094e+01 -9.590445518493652344e+00 -3.135364651679992676e-01 6.828495860099792480e-02 -7.357545197010040283e-02 -4.020727053284645081e-02
9.200000000000000000e+02 1.747135925292968750e+01 -8.852128028869628906e+00 -2.312208116054534912e-01 8.075676858425140381e-02 -4.513921216130256653e-02 -1.516543142497539520e-02
9.210000000000000000e+02 1.768371772766113281e+01 -3.395237350463867188e+01 1.404043436050415039e-01 2.731765210628509521e-01 1.240742579102516174e-01 -8.745107054710388184e-02
9.220000000000000000e+02 1.922840118408203125e+01 -2.542836380004882812e+01 5.928508937358856201e-02 2.995221018791198730e-01 1.076421514153480530e-01 -1.396767348051071167e-01
9.230000000000000000e+02 1.912205314636230469e+01 -2.389291763305664062e+01 6.498103588819503784e-02 2.783041894435882568e-01 1.029855608940124512e-01 -1.363415867090225220e-01
9.240000000000000000e+02 2.027986145019531250e+01 -2.245800209045410156e+01 4.536805674433708191e-02 3.233070373535156250e-01 1.106025278568267822e-01 -1.321726441383361816e-01
9.250000000000000000e+02 2.000626945495605469e+01 -2.107602691650390625e+01 -8.179605938494205475e-03 2.913330197334289551e-01 8.494602143764495850e-02 -1.399219632148742676e-01
9.260000000000000000e+02 1.994789505004882812e+01 -1.664420509338378906e+01 -1.011055707931518555e-01 2.420797497034072876e-01 4.229225590825080872e-02 -1.008704155683517456e-01
9.270000000000000000e+02 2.003413581848144531e+01 -1.494189929962158203e+01 -1.315459012985229492e-01 2.129340320825576782e-01 2.441643923521041870e-02 -7.249980419874191284e-02
9.280000000000000000e+02 2.034161949157714844e+01 -1.331546878814697266e+01 -1.884026378393173218e-01 1.698577105998992920e-01 -5.563479382544755936e-03 -4.691676422953605652e-02
9.290000000000000000e+02 1.935251235961914062e+01 -1.135926055908203125e+01 -2.788636386394500732e-01 1.019068658351898193e-01 -5.308702960610389709e-02 -8.666746318340301514e-02
9.300000000000000000e+02 1.977546882629394531e+01 -9.594867706298828125e+00 -4.052959680557250977e-01 5.773894488811492920e-02 -1.042671054601669312e-01 -2.250151149928569794e-02
9.310000000000000000e+02 2.113320159912109375e+01 -3.729162597656250000e+01 1.840545535087585449e-01 4.822405576705932617e-01 1.998885422945022583e-01 -4.868375137448310852e-02
9.320000000000000000e+02 1.979904556274414062e+01 -2.906491279602050781e+01 1.081602349877357483e-01 3.474621176719665527e-01 1.366866976022720337e-01 -1.092222854495048523e-01
9.330000000000000000e+02 1.946839904785156250e+01 -2.710824775695800781e+01 1.154824197292327881e-01 3.174343109130859375e-01 1.298750191926956177e-01 -1.270109415054321289e-01
9.340000000000000000e+02 2.057325935363769531e+01 -2.541191673278808594e+01 8.858484774827957153e-02 3.471588790416717529e-01 1.307231187820434570e-01 -1.183344423770904541e-01
9.350000000000000000e+02 2.121990013122558594e+01 -2.090547370910644531e+01 9.029327891767024994e-03 3.585341572761535645e-01 1.102690473198890686e-01 -1.169958263635635376e-01
9.360000000000000000e+02 2.215654182434082031e+01 -1.925227546691894531e+01 -3.524625301361083984e-02 3.848122358322143555e-01 1.048697903752326965e-01 -9.705088287591934204e-02
9.370000000000000000e+02 2.198415756225585938e+01 -1.683217620849609375e+01 -8.330682665109634399e-02 3.428326845169067383e-01 7.785775512456893921e-02 -4.895178601145744324e-02
9.380000000000000000e+02 2.168259620666503906e+01 -1.353937625885009766e+01 -1.989169269800186157e-01 2.748868167400360107e-01 2.279097028076648712e-02 6.883308291435241699e-02
9.390000000000000000e+02 2.192915725708007812e+01 -1.118307685852050781e+01 -3.018289804458618164e-01 -3.303036093711853027e-02 -1.004578024148941040e-01 -2.668033726513385773e-02
9.400000000000000000e+02 2.138455390930175781e+01 -9.956734657287597656e+00 -5.605931282043457031e-01 5.300612375140190125e-02 -1.522760987281799316e-01 1.456622406840324402e-02
9.410000000000000000e+02 2.034841346740722656e+01 -1.062833976745605469e+01 -3.035793602466583252e-01 1.739460043609142303e-02 -8.585542440414428711e-02 -3.758811205625534058e-02
9.420000000000000000e+02 2.055846023559570312e+01 -3.417896270751953125e+01 1.452793926000595093e-01 4.235807061195373535e-01 1.706580370664596558e-01 -6.401827186346054077e-02
9.430000000000000000e+02 2.222183799743652344e+01 -3.112851142883300781e+01 1.387305408716201782e-01 4.964911937713623047e-01 1.905665099620819092e-01 -7.954312860965728760e-02
9.440000000000000000e+02 2.104041671752929688e+01 -2.686927604675292969e+01 9.161894768476486206e-02 3.908263742923736572e-01 1.447336077690124512e-01 -1.271043568849563599e-01
9.450000000000000000e+02 2.189771842956542969e+01 -2.573118019104003906e+01 8.069595694541931152e-02 4.243790209293365479e-01 1.515225023031234741e-01 -1.168416962027549744e-01
9.460000000000000000e+02 2.189651489257812500e+01 -2.395443153381347656e+01 7.514996826648712158e-02 4.126647412776947021e-01 1.463444232940673828e-01 -1.200563535094261169e-01
9.470000000000000000e+02 2.293472480773925781e+01 -2.208093261718750000e+01 4.071114957332611084e-02 4.538168311119079590e-01 1.483583897352218628e-01 -1.054792180657386780e-01
9.480000000000000000e+02 2.360659408569335938e+01 -1.915332794189453125e+01 -8.869356662034988403e-02 4.702790975570678711e-01 1.144756525754928589e-01 -1.070656180381774902e-01
9.490000000000000000e+02 2.331171417236328125e+01 -1.631132125854492188e+01 -1.825928092002868652e-01 4.526764750480651855e-01 8.102510124444961548e-02 -2.340282872319221497e-02
9.500000000000000000e+02 2.374971961975097656e+01 -1.544261169433593750e+01 -1.857356131076812744e-01 4.459073543548583984e-01 7.805152237415313721e-02 -1.675243861973285675e-02
9.510000000000000000e+02 2.408436965942382812e+01 -1.430031204223632812e+01 -2.690553367137908936e-01 5.001281499862670898e-01 6.932184100151062012e-02 5.956204235553741455e-02
9.520000000000000000e+02 2.434140205383300781e+01 -1.292700767517089844e+01 -3.114707767963409424e-01 5.076192617416381836e-01 5.884455144405364990e-02 1.024776175618171692e-01
9.530000000000000000e+02 2.463102531433105469e+01 -1.134447956085205078e+01 -3.919129371643066406e-01 6.918240189552307129e-01 8.997332304716110229e-02 3.008334636688232422e-01
9.540000000000000000e+02 2.198639678955078125e+01 -4.072127914428710938e+01 1.815052181482315063e-01 5.304069519042968750e-01 2.135736495256423950e-01 -9.427572600543498993e-03
9.550000000000000000e+02 2.443889999389648438e+01 -3.673395538330078125e+01 1.791636794805526733e-01 6.792721152305603027e-01 2.575307488441467285e-01 -2.510819584131240845e-02
9.560000000000000000e+02 2.395017051696777344e+01 -3.056509780883789062e+01 1.796355843544006348e-01 5.739578008651733398e-01 2.260780185461044312e-01 -6.747015565633773804e-02
9.570000000000000000e+02 2.350133514404296875e+01 -2.851393318176269531e+01 1.196959912776947021e-01 5.392251610755920410e-01 1.976763308048248291e-01 -8.384214341640472412e-02
9.580000000000000000e+02 2.354443931579589844e+01 -2.623118972778320312e+01 1.325090378522872925e-01 5.033587813377380371e-01 1.907603442668914795e-01 -9.492149204015731812e-02
9.590000000000000000e+02 2.344495773315429688e+01 -2.387207984924316406e+01 4.225944355130195618e-02 4.850240945816040039e-01 1.581850647926330566e-01 -1.165933832526206970e-01
9.600000000000000000e+02 2.377113914489746094e+01 -2.093387413024902344e+01 -2.118917647749185562e-03 4.800441265106201172e-01 1.433775573968887329e-01 -1.054796800017356873e-01
9.610000000000000000e+02 2.487532234191894531e+01 -1.841636085510253906e+01 -1.214652135968208313e-01 5.464693307876586914e-01 1.275012344121932983e-01 -7.669978588819503784e-02
9.620000000000000000e+02 2.568458175659179688e+01 -1.695377922058105469e+01 -1.941121071577072144e-01 6.068593263626098633e-01 1.238241568207740784e-01 -6.915957480669021606e-02
9.630000000000000000e+02 2.616826820373535156e+01 -1.546197509765625000e+01 -3.100844025611877441e-01 6.660842895507812500e-01 1.067999750375747681e-01 -1.608194969594478607e-02
9.640000000000000000e+02 2.662839126586914062e+01 -1.413883018493652344e+01 -3.747794032096862793e-01 7.686492800712585449e-01 1.181609705090522766e-01 -1.884695887565612793e-02
9.650000000000000000e+02 2.604939460754394531e+01 -1.200631999969482422e+01 -4.832911789417266846e-01 8.836834430694580078e-01 1.201176792383193970e-01 8.428964018821716309e-02
9.660000000000000000e+02 2.461624336242675781e+01 -9.606558799743652344e+00 -5.289171934127807617e-01 7.584443092346191406e-01 6.885813176631927490e-02 4.255449473857879639e-01
9.670000000000000000e+02 2.695574188232421875e+01 -1.087588024139404297e+01 -5.376924276351928711e-01 1.085191130638122559e+00 1.642496287822723389e-01 -7.983633130788803101e-02
9.680000000000000000e+02 2.635701751708984375e+01 -4.042872238159179688e+01 2.223464846611022949e-01 8.428014516830444336e-01 3.195443749427795410e-01 -1.816309988498687744e-02
9.690000000000000000e+02 2.516599464416503906e+01 -3.277333068847656250e+01 1.633078008890151978e-01 6.843818426132202148e-01 2.543069124221801758e-01 -4.458751156926155090e-02
9.700000000000000000e+02 2.521664619445800781e+01 -2.620485305786132812e+01 9.781464934349060059e-02 5.958639383316040039e-01 2.081035822629928589e-01 -9.682514518499374390e-02
9.710000000000000000e+02 2.508638191223144531e+01 -2.393354988098144531e+01 9.317275136709213257e-02 5.577755570411682129e-01 1.952845007181167603e-01 -9.582480043172836304e-02
9.720000000000000000e+02 2.715602874755859375e+01 -2.012311935424804688e+01 -7.087383419275283813e-02 6.351268887519836426e-01 1.692759096622467041e-01 -1.275021582841873169e-01
9.730000000000000000e+02 2.695657157897949219e+01 -1.884207153320312500e+01 -1.059723049402236938e-01 6.314980983734130859e-01 1.576577275991439819e-01 -8.904579281806945801e-02
9.740000000000000000e+02 2.688840675354003906e+01 -1.742595291137695312e+01 -2.233541607856750488e-01 6.524673104286193848e-01 1.287339478731155396e-01 -8.891470730304718018e-02
9.750000000000000000e+02 2.761118698120117188e+01 -1.475950908660888672e+01 -3.870468735694885254e-01 7.717607617378234863e-01 1.154141575098037720e-01 -6.810906529426574707e-02
9.760000000000000000e+02 2.723600196838378906e+01 -1.296791744232177734e+01 -4.507032930850982666e-01 8.704907894134521484e-01 1.259362548589706421e-01 -4.394191876053810120e-02
9.770000000000000000e+02 2.811543655395507812e+01 -1.202878761291503906e+01 -3.714647591114044189e-01 9.174159765243530273e-01 1.637853682041168213e-01 -1.355831921100616455e-01
9.780000000000000000e+02 2.945629882812500000e+01 -3.854438018798828125e+01 1.968355327844619751e-01 1.051637530326843262e+00 3.745419383049011230e-01 -2.567389048635959625e-03
9.790000000000000000e+02 2.675614166259765625e+01 -3.135252189636230469e+01 1.933360099792480469e-01 7.740291357040405273e-01 2.902095317840576172e-01 -2.286341041326522827e-02
9.800000000000000000e+02 2.621869087219238281e+01 -2.801104545593261719e+01 1.658398061990737915e-01 6.945853233337402344e-01 2.581275403499603271e-01 -3.304314985871315002e-02
9.810000000000000000e+02 2.676823425292968750e+01 -2.636216163635253906e+01 1.444021463394165039e-01 7.021271586418151855e-01 2.539587914943695068e-01 -5.377875268459320068e-02
9.820000000000000000e+02 2.673722648620605469e+01 -2.434114074707031250e+01 7.829067111015319824e-02 6.655408143997192383e-01 2.231494337320327759e-01 -7.411932200193405151e-02
9.830000000000000000e+02 2.759344673156738281e+01 -2.128457832336425781e+01 8.082562126219272614e-03 6.766529679298400879e-01 2.054206579923629761e-01 -8.393711596727371216e-02
9.840000000000000000e+02 2.926084518432617188e+01 -1.982604980468750000e+01 -9.919948875904083252e-02 7.055713534355163574e-01 1.819115579128265381e-01 -1.230474710464477539e-01
9.850000000000000000e+02 2.934139823913574219e+01 -1.879278755187988281e+01 -9.670104086399078369e-02 7.173071503639221191e-01 1.861818283796310425e-01 -1.031028553843498230e-01
9.860000000000000000e+02 2.941656684875488281e+01 -1.642381095886230469e+01 -2.593936920166015625e-01 7.426903247833251953e-01 1.449889987707138062e-01 -1.377708613872528076e-01
9.870000000000000000e+02 2.897441482543945312e+01 -1.446617794036865234e+01 -4.061013460159301758e-01 7.603332400321960449e-01 1.062695756554603577e-01 -1.175751313567161560e-01
9.880000000000000000e+02 2.954564666748046875e+01 -1.378669548034667969e+01 -3.460012078285217285e-01 7.538253068923950195e-01 1.223472207784652710e-01 -1.423247754573822021e-01
9.890000000000000000e+02 2.867443275451660156e+01 -3.346240234375000000e+01 1.780871003866195679e-01 9.495070576667785645e-01 3.382782340049743652e-01 -2.307727560400962830e-02
9.900000000000000000e+02 2.834748458862304688e+01 -2.657317543029785156e+01 1.267257779836654663e-01 8.072209954261779785e-01 2.801840305328369141e-01 -3.188888356089591980e-02
9.910000000000000000e+02 2.839899253845214844e+01 -2.472096443176269531e+01 1.314246207475662231e-01 7.647337913513183594e-01 2.688475251197814941e-01 -3.296049684286117554e-02
9.920000000000000000e+02 2.696748542785644531e+01 -2.248446655273437500e+01 5.951758846640586853e-02 6.469312310218811035e-01 2.119346559047698975e-01 -8.486734330654144287e-02
9.930000000000000000e+02 3.019782447814941406e+01 -2.016825675964355469e+01 2.760974504053592682e-02 7.092646956443786621e-01 2.210623174905776978e-01 -9.872669726610183716e-02
9.940000000000000000e+02 3.056040573120117188e+01 -1.902817344665527344e+01 -1.084929928183555603e-01 7.065127491950988770e-01 1.794059276580810547e-01 -1.202653646469116211e-01
9.950000000000000000e+02 3.059349441528320312e+01 -1.767286872863769531e+01 -1.478811651468276978e-01 7.250264883041381836e-01 1.731435954570770264e-01 -1.232634559273719788e-01
9.960000000000000000e+02 2.941007232666015625e+01 -1.531755447387695312e+01 -3.489444255828857422e-01 7.326490283012390137e-01 1.151113808155059814e-01 -1.459960788488388062e-01
9.970000000000000000e+02 3.315379714965820312e+01 -4.049150085449218750e+01 2.232259660959243774e-01 1.335278272628784180e+00 4.675512611865997314e-01 1.570346765220165253e-02
9.980000000000000000e+02 2.995479393005371094e+01 -3.137549972534179688e+01 1.924457699060440063e-01 1.052400469779968262e+00 3.734538555145263672e-01 2.044362574815750122e-02
9.990000000000000000e+02 3.013566207885742188e+01 -2.502195739746093750e+01 1.202549412846565247e-01 9.093564748764038086e-01 3.088834285736083984e-01 1.946013793349266052e-02
1.000000000000000000e+03 3.011313438415527344e+01 -2.324181938171386719e+01 1.426523327827453613e-01 8.426694869995117188e-01 2.955965399742126465e-01 7.756689097732305527e-03
1.001000000000000000e+03 3.092700767517089844e+01 -2.122209930419921875e+01 9.430794417858123779e-02 7.897078990936279297e-01 2.652047574520111084e-01 3.859420074149966240e-03
1.002000000000000000e+03 3.206830978393554688e+01 -2.059765052795410156e+01 5.727401748299598694e-02 7.599215507507324219e-01 2.451586723327636719e-01 -4.430278390645980835e-02
1.003000000000000000e+03 3.182953262329101562e+01 -1.910154151916503906e+01 2.401087991893291473e-02 7.287925481796264648e-01 2.258410155773162842e-01 -3.438575193285942078e-02
1.004000000000000000e+03 3.180593299865722656e+01 -1.764125442504882812e+01 -1.900317221879959106e-01 6.407192349433898926e-01 1.352062523365020752e-01 -1.684609204530715942e-01
1.005000000000000000e+03 3.041375732421875000e+01 -1.523065853118896484e+01 -3.234165906906127930e-01 7.256795167922973633e-01 1.206788867712020874e-01 -1.434425860643386841e-01
1.006000000000000000e+03 3.116181182861328125e+01 -3.546859741210937500e+01 2.202149182558059692e-01 1.193852782249450684e+00 4.242203235626220703e-01 1.731026917695999146e-02
1.007000000000000000e+03 3.224272918701171875e+01 -3.277433395385742188e+01 1.580468565225601196e-01 1.261619687080383301e+00 4.258999526500701904e-01 1.779729872941970825e-02
1.008000000000000000e+03 3.087622070312500000e+01 -2.941268157958984375e+01 1.436238735914230347e-01 1.088574767112731934e+00 3.696596026420593262e-01 2.070799656212329865e-02
1.009000000000000000e+03 3.148625183105468750e+01 -2.751213645935058594e+01 1.563301980495452881e-01 1.102687120437622070e+00 3.777052164077758789e-01 7.868111133575439453e-02
1.010000000000000000e+03 3.189569854736328125e+01 -2.560679435729980469e+01 1.541992276906967163e-01 1.064759492874145508e+00 3.656876087188720703e-01 8.738945424556732178e-02
1.011000000000000000e+03 3.153819656372070312e+01 -2.275819396972656250e+01 1.133219897747039795e-01 8.907994031906127930e-01 3.012364208698272705e-01 4.617238789796829224e-02
1.012000000000000000e+03 3.267779159545898438e+01 -2.195948600769042969e+01 2.351640760898590088e-01 9.331125617027282715e-01 3.504830002784729004e-01 1.926210969686508179e-01
1.013000000000000000e+03 3.316943359375000000e+01 -2.024097442626953125e+01 2.486545741558074951e-01 7.789596915245056152e-01 3.082842826843261719e-01 1.733920872211456299e-01
1.014000000000000000e+03 3.310236740112304688e+01 -1.895023155212402344e+01 -4.120594821870326996e-03 6.368364691734313965e-01 1.898147612810134888e-01 -1.142078042030334473e-01
1.015000000000000000e+03 3.422442245483398438e+01 -3.681713485717773438e+01 1.857186704874038696e-01 1.442360639572143555e+00 4.884237945079803467e-01 -4.696893505752086639e-03
1.016000000000000000e+03 3.513927459716796875e+01 -3.098732376098632812e+01 1.057800278067588806e-01 1.546049118041992188e+00 4.955487549304962158e-01 4.726749286055564880e-02
1.017000000000000000e+03 3.331393432617187500e+01 -2.820466804504394531e+01 1.095274537801742554e-01 1.317278623580932617e+00 4.280418157577514648e-01 8.380071818828582764e-02
1.018000000000000000e+03 3.359105300903320312e+01 -2.627356338500976562e+01 1.154500395059585571e-01 1.317964434623718262e+00 4.300243556499481201e-01 1.870949119329452515e-01
1.019000000000000000e+03 3.251281738281250000e+01 -2.405529594421386719e+01 1.491412967443466187e-01 1.072498798370361328e+00 3.664920330047607422e-01 1.425962299108505249e-01
1.020000000000000000e+03 3.515048217773437500e+01 -2.078835296630859375e+01 2.163091748952865601e-01 1.049384117126464844e+00 3.797079920768737793e-01 3.118613958358764648e-01
1.021000000000000000e+03 3.485023498535156250e+01 -3.370088958740234375e+01 1.742414385080337524e-01 1.515003085136413574e+00 5.067733526229858398e-01 4.988800734281539917e-02
1.022000000000000000e+03 3.771309661865234375e+01 -3.405824279785156250e+01 1.441954225301742554e-01 1.787266492843627930e+00 5.794385671615600586e-01 1.265560626052320004e-03
1.023000000000000000e+03 3.522552490234375000e+01 -2.863929557800292969e+01 8.946448564529418945e-02 1.551677107810974121e+00 4.923424720764160156e-01 1.470994800329208374e-01
1.024000000000000000e+03 3.522219848632812500e+01 -2.663209724426269531e+01 4.590222612023353577e-02 1.528615236282348633e+00 4.723552465438842773e-01 1.458373963832855225e-01
1.025000000000000000e+03 3.666689300537109375e+01 -2.516687965393066406e+01 -5.428501218557357788e-02 1.708956599235534668e+00 4.964014887809753418e-01 2.598852813243865967e-01
1.026000000000000000e+03 3.572987747192382812e+01 -2.303245735168457031e+01 4.129289835691452026e-02 1.426879286766052246e+00 4.404516518115997314e-01 3.235490620136260986e-01
1.027000000000000000e+03 3.629727935791015625e+01 -2.142021179199218750e+01 2.333140224218368530e-01 1.384171366691589355e+00 4.852455854415893555e-01 6.194540858268737793e-01
1.028000000000000000e+03 3.779849624633789062e+01 -3.733455657958984375e+01 1.840059012174606323e-01 1.777171611785888672e+00 5.883532762527465820e-01 1.651865243911743164e-02
1.029000000000000000e+03 3.715229415893554688e+01 -2.868505096435546875e+01 -1.610318664461374283e-03 1.787536501884460449e+00 5.357778668403625488e-01 9.447093307971954346e-02
1.030000000000000000e+03 3.784316253662109375e+01 -2.592383003234863281e+01 -2.530832402408123016e-02 1.950821876525878906e+00 5.776540637016296387e-01 2.486928701400756836e-01
1.031000000000000000e+03 3.843138504028320312e+01 -2.441604804992675781e+01 -2.151802629232406616e-01 2.065752983093261719e+00 5.551717877388000488e-01 3.351972699165344238e-01
1.032000000000000000e+03 4.064160919189453125e+01 -3.374604034423828125e+01 1.212615594267845154e-01 2.101016759872436523e+00 6.666834354400634766e-01 2.218945417553186417e-03
1.033000000000000000e+03 3.742995071411132812e+01 -3.117564392089843750e+01 8.629309386014938354e-02 1.804907202720642090e+00 5.673601031303405762e-01 7.089985162019729614e-02
1.034000000000000000e+03 3.896335983276367188e+01 -2.859051132202148438e+01 -1.011604536324739456e-02 1.993925452232360840e+00 5.951428413391113281e-01 1.091529503464698792e-01
1.035000000000000000e+03 3.985734558105468750e+01 -2.532390785217285156e+01 -1.815589070320129395e-01 2.330038785934448242e+00 6.445439457893371582e-01 2.234278768301010132e-01
1.036000000000000000e+03 4.702764892578125000e+01 -4.060563278198242188e+01 2.126858383417129517e-01 2.742941141128540039e+00 8.866881132125854492e-01 -2.623519627377390862e-03
1.037000000000000000e+03 4.171726226806640625e+01 -3.718994522094726562e+01 1.854775398969650269e-01 2.161956071853637695e+00 7.042300701141357422e-01 -2.380980364978313446e-02
1.038000000000000000e+03 3.957723617553710938e+01 -3.089880180358886719e+01 1.814642362296581268e-02 1.996138930320739746e+00 6.042855978012084961e-01 1.953179016709327698e-02
1.039000000000000000e+03 3.913567352294921875e+01 -2.684963226318359375e+01 -2.008313089609146118e-01 2.099431037902832031e+00 5.695799589157104492e-01 1.324619799852371216e-01
1.040000000000000000e+03 4.268126678466796875e+01 -3.230504989624023438e+01 1.181142255663871765e-01 2.272221088409423828e+00 7.171005606651306152e-01 -3.604847192764282227e-02
1.041000000000000000e+03 4.142030715942382812e+01 -3.007063865661621094e+01 -4.359768703579902649e-02 2.221144914627075195e+00 6.532641649246215820e-01 -3.208887949585914612e-02
1.042000000000000000e+03 4.568580245971679688e+01 -3.686015319824218750e+01 2.082563340663909912e-01 2.586823225021362305e+00 8.385238051414489746e-01 1.182689704000949860e-02
1.043000000000000000e+03 4.498005294799804688e+01 -3.351711273193359375e+01 1.047822162508964539e-01 2.430991649627685547e+00 7.607321143150329590e-01 -2.307008206844329834e-02
1.044000000000000000e+03 4.835081100463867188e+01 -3.586310958862304688e+01 1.966813951730728149e-01 2.859149217605590820e+00 9.167491793632507324e-01 2.357074245810508728e-02
1.045000000000000000e+03 5.120183944702148438e+01 -3.426351928710937500e+01 1.709782034158706665e-01 3.235388278961181641e+00 1.021909952163696289e+00 1.303940266370773315e-01
1.046000000000000000e+03 5.125762939453125000e+01 -3.709646224975585938e+01 1.713611781597137451e-01 3.264343023300170898e+00 1.030711293220520020e+00 7.233745604753494263e-02
1.047000000000000000e+03 5.447844314575195312e+01 -3.685795974731445312e+01 1.284260749816894531e-01 3.785114526748657227e+00 1.174062132835388184e+00 9.625124931335449219e-02
1.048000000000000000e+03 6.905173492431640625e+01 -3.307786178588867188e+01 7.731717079877853394e-02 5.948762893676757812e+00 1.807824015617370605e+00 -5.558406189084053040e-02
1.049000000000000000e+03 6.995481109619140625e+01 -3.157820701599121094e+01 1.247295588254928589e-01 6.064566612243652344e+00 1.856788873672485352e+00 2.100078575313091278e-02
1.050000000000000000e+03 6.979914855957031250e+01 -2.880877304077148438e+01 1.655900329351425171e-01 5.869101047515869141e+00 1.810407400131225586e+00 -1.704170368611812592e-02
1.051000000000000000e+03 7.516355895996093750e+01 -4.015236282348632812e+01 2.895722910761833191e-02 7.010588645935058594e+00 2.111863613128662109e+00 -3.352317586541175842e-02
1.052000000000000000e+03 7.215510559082031250e+01 -3.549076461791992188e+01 3.842794150114059448e-02 6.450302600860595703e+00 1.946619153022766113e+00 4.880796372890472412e-02
1.053000000000000000e+03 7.042225646972656250e+01 -3.445835876464843750e+01 6.945888698101043701e-02 6.239859580993652344e+00 1.892795562744140625e+00 3.415392711758613586e-02
1.054000000000000000e+03 7.284224700927734375e+01 -3.373833465576171875e+01 9.017995744943618774e-02 6.576378822326660156e+00 1.999967694282531738e+00 6.810805946588516235e-02
1.055000000000000000e+03 7.218135070800781250e+01 -3.145352172851562500e+01 1.186994090676307678e-01 6.417760848999023438e+00 1.960938096046447754e+00 8.112683892250061035e-02
1.056000000000000000e+03 7.099317932128906250e+01 -3.026878356933593750e+01 1.078311651945114136e-01 6.184518814086914062e+00 1.887705087661743164e+00 4.060688242316246033e-02
1.057000000000000000e+03 7.391548919677734375e+01 -3.590087890625000000e+01 3.847007453441619873e-02 6.727371215820312500e+00 2.029752254486083984e+00 2.523188665509223938e-02
1.058000000000000000e+03 7.442696380615234375e+01 -3.442977142333984375e+01 1.750206016004085541e-02 6.824522018432617188e+00 2.052607297897338867e+00 4.262369126081466675e-02
1.059000000000000000e+03 7.352061462402343750e+01 -3.233166885375976562e+01 5.537242442369461060e-02 6.660375118255615234e+00 2.014724254608154297e+00 7.705216109752655029e-02
1.060000000000000000e+03 7.800681304931640625e+01 -4.161239242553710938e+01 5.730060487985610962e-02 7.393486976623535156e+00 2.235236167907714844e+00 1.614194549620151520e-02
1.061000000000000000e+03 7.409840393066406250e+01 -3.781125640869140625e+01 9.628444910049438477e-03 6.735432147979736328e+00 2.023518085479736328e+00 1.925000222399830818e-03
1.062000000000000000e+03 7.154652404785156250e+01 -3.777541351318359375e+01 4.224986210465431213e-02 6.389257907867431641e+00 1.929452419281005859e+00 3.036114573478698730e-02
1.063000000000000000e+03 7.594355010986328125e+01 -3.721519470214843750e+01 -2.086839266121387482e-02 7.156035900115966797e+00 2.140550136566162109e+00 -9.255710057914257050e-03
1.064000000000000000e+03 7.543430328369140625e+01 -3.555498504638671875e+01 1.889489963650703430e-02 6.993083953857421875e+00 2.103593587875366211e+00 3.595177084207534790e-02
1.065000000000000000e+03 7.691056823730468750e+01 -3.886980438232421875e+01 -1.330815162509679794e-02 7.333631515502929688e+00 2.196097135543823242e+00 4.261385276913642883e-02
1.066000000000000000e+03 7.811948394775390625e+01 -3.795502090454101562e+01 -1.149219367653131485e-02 7.392077922821044922e+00 2.214175701141357422e+00 4.516504704952239990e-02
1.067000000000000000e+03 7.753295135498046875e+01 -3.659558868408203125e+01 -1.350627839565277100e-02 7.357947826385498047e+00 2.203332424163818359e+00 5.836649611592292786e-02
1.068000000000000000e+03 7.878992462158203125e+01 -4.004162979125976562e+01 -3.275979682803153992e-02 7.417826175689697266e+00 2.215519905090332031e+00 5.052047967910766602e-02
1.069000000000000000e+03 7.924349975585937500e+01 -3.879487228393554688e+01 2.087890729308128357e-02 7.483673095703125000e+00 2.251365423202514648e+00 2.148153632879257202e-02
1.070000000000000000e+03 7.916062927246093750e+01 -3.628882980346679688e+01 1.711714267730712891e-02 7.563005447387695312e+00 2.274036884307861328e+00 9.632248431444168091e-03
1.071000000000000000e+03 7.900402832031250000e+01 -3.195960426330566406e+01 1.371044199913740158e-02 7.657720088958740234e+00 2.301429271697998047e+00 2.209469117224216461e-02
1.072000000000000000e+03 7.902693939208984375e+01 -3.050900268554687500e+01 5.584373138844966888e-03 7.703460693359375000e+00 2.312713623046875000e+00 3.694301471114158630e-02
1.073000000000000000e+03 7.717293548583984375e+01 -3.021520042419433594e+01 2.160957641899585724e-02 7.351692676544189453e+00 2.211990594863891602e+00 9.401298314332962036e-02
1.074000000000000000e+03 7.536500549316406250e+01 -2.833934593200683594e+01 4.450209066271781921e-02 6.997781753540039062e+00 2.112685203552246094e+00 1.576489955186843872e-01
1.075000000000000000e+03 7.242267608642578125e+01 -2.538336753845214844e+01 1.642995774745941162e-01 6.258106231689453125e+00 1.926721811294555664e+00 2.753787636756896973e-01
1.076000000000000000e+03 7.281856536865234375e+01 -2.694504737854003906e+01 1.425538063049316406e-01 6.413066387176513672e+00 1.966686010360717773e+00 1.731156855821609497e-01
1.077000000000000000e+03 7.113129425048828125e+01 -2.331034660339355469e+01 2.255306839942932129e-01 5.700513839721679688e+00 1.777813315391540527e+00 3.791813254356384277e-01
1.078000000000000000e+03 6.903337097167968750e+01 -2.170790290832519531e+01 4.698124825954437256e-01 4.673836708068847656e+00 1.543094754219055176e+00 7.053739577531814575e-02
1.079000000000000000e+03 6.690284729003906250e+01 -2.058891105651855469e+01 6.506857275962829590e-01 3.909046173095703125e+00 1.367919564247131348e+00 -7.513382434844970703e-01
1.080000000000000000e+03 6.470015716552734375e+01 -1.773702049255371094e+01 1.193545013666152954e-02 4.513844966888427734e+00 1.357734084129333496e+00 -1.594312071800231934e+00
1.081000000000000000e+03 6.407129669189453125e+01 -1.676939010620117188e+01 5.810229852795600891e-02 4.901913166046142578e+00 1.488004684448242188e+00 -1.511326789855957031e+00
1.082000000000000000e+03 6.062614440917968750e+01 -1.273345470428466797e+01 5.078022480010986328e-01 8.326576232910156250e+00 2.650313377380371094e+00 2.177814543247222900e-01
1.083000000000000000e+03 5.870328521728515625e+01 -1.134870910644531250e+01 7.432445287704467773e-01 8.905018806457519531e+00 2.894479036331176758e+00 3.248615860939025879e-01
1.084000000000000000e+03 5.717577362060546875e+01 -9.797483444213867188e+00 7.588537335395812988e-01 8.277714729309082031e+00 2.710970401763916016e+00 -3.720003068447113037e-01
1.085000000000000000e+03 5.503450012207031250e+01 -8.134082794189453125e+00 6.690658926963806152e-01 6.395991802215576172e+00 2.119517326354980469e+00 -1.659625530242919922e+00
1.086000000000000000e+03 5.411444473266601562e+01 -9.030798912048339844e+00 1.045337200164794922e+00 5.515168666839599609e+00 1.968151807785034180e+00 -2.456553936004638672e+00
1.087000000000000000e+03 7.904528808593750000e+01 -2.906652450561523438e+01 2.374257892370223999e-03 7.766761779785156250e+00 2.330740928649902344e+00 4.322265461087226868e-02
1.088000000000000000e+03 7.728395080566406250e+01 -2.713704872131347656e+01 -5.675262771546840668e-03 7.483187675476074219e+00 2.243253707885742188e+00 1.288946866989135742e-01
1.089000000000000000e+03 7.547618865966796875e+01 -2.659096717834472656e+01 5.642370134592056274e-02 7.052894115447998047e+00 2.132795333862304688e+00 2.080881744623184204e-01
1.090000000000000000e+03 7.429336547851562500e+01 -2.414627075195312500e+01 -1.013790629804134369e-02 6.897136211395263672e+00 2.066099405288696289e+00 3.264555037021636963e-01
1.091000000000000000e+03 7.285133361816406250e+01 -2.211445999145507812e+01 -7.571943104267120361e-02 6.442108154296875000e+00 1.909916639328002930e+00 6.398209333419799805e-01
1.092000000000000000e+03 7.135849761962890625e+01 -2.171068763732910156e+01 1.637157797813415527e-01 5.558606624603271484e+00 1.716696739196777344e+00 5.850574970245361328e-01
1.093000000000000000e+03 7.007478332519531250e+01 -2.094018173217773438e+01 4.742149710655212402e-01 4.800832748413085938e+00 1.582514286041259766e+00 6.003559827804565430e-01
1.094000000000000000e+03 6.641902160644531250e+01 -1.876299858093261719e+01 2.657963931560516357e-01 3.566939592361450195e+00 1.149820804595947266e+00 -1.208672881126403809e+00
1.095000000000000000e+03 6.501959991455078125e+01 -1.603483200073242188e+01 -4.547315239906311035e-01 4.116067409515380859e+00 1.098400712013244629e+00 -1.474959015846252441e+00
1.096000000000000000e+03 5.974361419677734375e+01 -1.096806812286376953e+01 6.314555406570434570e-01 8.566263198852539062e+00 2.759315490722656250e+00 5.461509227752685547e-01
1.097000000000000000e+03 5.679356765747070312e+01 -7.900328636169433594e+00 7.227227687835693359e-01 7.098248958587646484e+00 2.346291542053222656e+00 -5.545384287834167480e-01
1.098000000000000000e+03 5.577079010009765625e+01 -5.640657424926757812e+00 -9.769344925880432129e-01 6.144091606140136719e+00 1.550147175788879395e+00 -1.853290796279907227e+00
1.099000000000000000e+03 5.346504211425781250e+01 -5.887182712554931641e+00 -1.037169575691223145e+00 4.651730060577392578e+00 1.084368228912353516e+00 -1.200573444366455078e+00
1.100000000000000000e+03 7.908766937255859375e+01 -2.764002799987792969e+01 7.638908922672271729e-03 7.841315269470214844e+00 2.354686260223388672e+00 4.953311756253242493e-02
1.101000000000000000e+03 7.753796386718750000e+01 -2.567142677307128906e+01 1.050812657922506332e-02 7.593383312225341797e+00 2.281167507171630859e+00 1.271529048681259155e-01
1.102000000000000000e+03 7.591998291015625000e+01 -2.485356712341308594e+01 -5.721518397331237793e-02 7.244174003601074219e+00 2.156087636947631836e+00 2.180229276418685913e-01
1.103000000000000000e+03 7.440862274169921875e+01 -2.229731941223144531e+01 -2.681811749935150146e-01 7.074426174163818359e+00 2.041873455047607422e+00 3.858734071254730225e-01
1.104000000000000000e+03 7.293836212158203125e+01 -2.064750862121582031e+01 -4.098818600177764893e-01 6.678993701934814453e+00 1.880733489990234375e+00 8.546375036239624023e-01
1.105000000000000000e+03 7.167928314208984375e+01 -2.026654434204101562e+01 4.931681789457798004e-03 5.639046669006347656e+00 1.693193554878234863e+00 1.181070923805236816e+00
1.106000000000000000e+03 6.938787078857421875e+01 -1.969517517089843750e+01 3.980264961719512939e-01 3.946145534515380859e+00 1.303251624107360840e+00 4.370283186435699463e-01
1.107000000000000000e+03 6.705110931396484375e+01 -1.657443046569824219e+01 -6.525685787200927734e-01 2.281282186508178711e+00 4.886140823364257812e-01 -1.032225966453552246e+00
1.108000000000000000e+03 6.512235260009765625e+01 -1.410591220855712891e+01 -1.935662925243377686e-01 3.621925592422485352e+00 1.028507828712463379e+00 -1.033005714416503906e+00
1.109000000000000000e+03 6.360458374023437500e+01 -1.196585559844970703e+01 2.095658630132675171e-01 6.043416023254394531e+00 1.875894546508789062e+00 -6.330409049987792969e-01
1.110000000000000000e+03 6.033381652832031250e+01 -8.462550163269042969e+00 6.872126460075378418e-01 8.572384834289550781e+00 2.777879238128662109e+00 5.010791420936584473e-01
1.111000000000000000e+03 5.878790664672851562e+01 -7.768461704254150391e+00 8.400384187698364258e-01 7.677123546600341797e+00 2.555148601531982422e+00 -5.056036636233329773e-02
1.112000000000000000e+03 5.745998382568359375e+01 -5.457414150238037109e+00 4.294418990612030029e-01 6.206619262695312500e+00 1.990818381309509277e+00 -1.296766638755798340e+00
1.113000000000000000e+03 5.439493560791015625e+01 -5.191667556762695312e+00 -2.056338787078857422e+00 5.692669868469238281e+00 1.090899348258972168e+00 -1.996692180633544922e+00
1.114000000000000000e+03 5.201631164550781250e+01 -3.480648756027221680e+00 -3.767196178436279297e+00 5.177813053131103516e+00 4.231851398944854736e-01 -1.431011438369750977e+00
1.115000000000000000e+03 7.917655944824218750e+01 -2.624502754211425781e+01 -1.849705725908279419e-02 7.928579807281494141e+00 2.373024702072143555e+00 4.808152467012405396e-02
1.116000000000000000e+03 7.583339691162109375e+01 -2.213350105285644531e+01 -2.346816360950469971e-01 7.533701419830322266e+00 2.189705848693847656e+00 1.833213269710540771e-01
1.117000000000000000e+03 7.309399414062500000e+01 -1.931199455261230469e+01 -7.192484736442565918e-01 7.564430713653564453e+00 2.053554773330688477e+00 9.744082689285278320e-01
1.118000000000000000e+03 7.058644866943359375e+01 -1.838192176818847656e+01 -4.112701117992401123e-02 3.987671852111816406e+00 1.183963418006896973e+00 1.811822772026062012e+00
1.119000000000000000e+03 7.930546569824218750e+01 -2.490044212341308594e+01 2.160440385341644287e-02 8.022119522094726562e+00 2.413117170333862305e+00 3.935015574097633362e-02
1.120000000000000000e+03 7.832981872558593750e+01 -2.330518913269042969e+01 -2.326492033898830414e-02 7.862891674041748047e+00 2.351887941360473633e+00 4.989065602421760559e-02
1.121000000000000000e+03 7.413385772705078125e+01 -1.962716865539550781e+01 -7.203537821769714355e-01 7.676753997802734375e+00 2.086920022964477539e+00 3.596248626708984375e-01
1.122000000000000000e+03 7.343466186523437500e+01 -1.802594566345214844e+01 -9.968597888946533203e-01 8.221314430236816406e+00 2.167336225509643555e+00 5.012569427490234375e-01
1.123000000000000000e+03 7.942419433593750000e+01 -2.358390045166015625e+01 -5.049565434455871582e-02 8.114016532897949219e+00 2.419056177139282227e+00 2.372467704117298126e-02
1.124000000000000000e+03 7.692853546142578125e+01 -2.149262237548828125e+01 -1.663541793823242188e-01 7.709119796752929688e+00 2.262829780578613281e+00 -2.954548597335815430e-02
1.125000000000000000e+03 7.502956390380859375e+01 -2.011323928833007812e+01 -4.487171471118927002e-01 7.749232769012451172e+00 2.190154790878295898e+00 2.157206684350967407e-01
1.126000000000000000e+03 7.506802368164062500e+01 -1.762173080444335938e+01 -4.917684495449066162e-01 8.571646690368652344e+00 2.423963546752929688e+00 -1.868801414966583252e-01
1.127000000000000000e+03 7.223609924316406250e+01 -1.751722145080566406e+01 -9.197353124618530273e-01 8.200956344604492188e+00 2.184366226196289062e+00 1.828063368797302246e+00
1.128000000000000000e+03 7.937268066406250000e+01 -2.089416694641113281e+01 -6.764796376228332520e-02 8.068477630615234375e+00 2.400248765945434570e+00 -6.697724014520645142e-02
1.129000000000000000e+03 7.838278198242187500e+01 -2.223992156982421875e+01 -7.349844276905059814e-02 7.908475875854492188e+00 2.350493192672729492e+00 -1.412459462881088257e-02
1.130000000000000000e+03 7.691841125488281250e+01 -1.779824066162109375e+01 -3.512296676635742188e-01 8.076807022094726562e+00 2.317673444747924805e+00 -4.628858268260955811e-01
1.131000000000000000e+03 7.933792877197265625e+01 -1.949641036987304688e+01 2.323186397552490234e-02 7.899350643157958984e+00 2.376774787902832031e+00 -1.145876049995422363e-01
1.132000000000000000e+03 7.811629486083984375e+01 -1.802433776855468750e+01 -1.263063680380582809e-02 7.754311084747314453e+00 2.322504043579101562e+00 -3.834253251552581787e-01
1.133000000000000000e+03 7.573367309570312500e+01 -1.556338024139404297e+01 3.418156802654266357e-01 8.579153060913085938e+00 2.676290750503540039e+00 -4.622508883476257324e-01
1.134000000000000000e+03 7.480903625488281250e+01 -1.380931377410888672e+01 1.318649888038635254e+00 9.259943008422851562e+00 3.173577785491943359e+00 -2.953488826751708984e-01
1.135000000000000000e+03 7.936656188964843750e+01 -1.809666824340820312e+01 -9.509090334177017212e-02 7.602384090423583984e+00 2.252187967300415039e+00 -1.874234229326248169e-01
1.136000000000000000e+03 7.819386291503906250e+01 -1.669576644897460938e+01 -8.503655344247817993e-02 7.572053909301757812e+00 2.246105194091796875e+00 -4.948197901248931885e-01
1.137000000000000000e+03 7.696065521240234375e+01 -1.547263145446777344e+01 1.119889095425605774e-01 7.913133144378662109e+00 2.407536506652832031e+00 -5.709918141365051270e-01
1.138000000000000000e+03 7.229982757568359375e+01 -1.030218887329101562e+01 9.430153369903564453e-01 1.337234592437744141e+01 4.294608116149902344e+00 -1.407355666160583496e+00
1.139000000000000000e+03 7.939066314697265625e+01 -1.671409606933593750e+01 1.050892397761344910e-01 7.200578212738037109e+00 2.191700220108032227e+00 -1.827852874994277954e-01
1.140000000000000000e+03 7.933898925781250000e+01 -1.395673942565917969e+01 1.815558224916458130e-01 6.488207340240478516e+00 2.000929117202758789e+00 -1.015458554029464722e-01
1.141000000000000000e+03 7.927456665039062500e+01 -1.257040691375732422e+01 -3.626580163836479187e-02 6.440069675445556641e+00 1.921141147613525391e+00 4.020030051469802856e-02
1.142000000000000000e+03 7.925317382812500000e+01 -1.118372344970703125e+01 1.939152479171752930e-01 6.660533428192138672e+00 2.056334733963012695e+00 1.934929639101028442e-01
1.143000000000000000e+03 7.928209686279296875e+01 -9.780488967895507812e+00 3.349612234160304070e-04 7.204865932464599609e+00 2.161560297012329102e+00 3.716286122798919678e-01
1.144000000000000000e+03 7.928746032714843750e+01 -8.364917755126953125e+00 1.150064170360565186e-01 8.046171188354492188e+00 2.448353290557861328e+00 4.849202930927276611e-01
1.145000000000000000e+03 7.930278778076171875e+01 -5.543705940246582031e+00 4.647648707032203674e-02 1.011287498474121094e+01 3.047805547714233398e+00 5.458206534385681152e-01
1.146000000000000000e+03 7.936116790771484375e+01 -4.167078495025634766e+00 -4.534035548567771912e-02 1.121786022186279297e+01 3.351756095886230469e+00 5.542083382606506348e-01
1.147000000000000000e+03 7.945265197753906250e+01 -2.810020923614501953e+00 -7.281473278999328613e-02 1.235869026184082031e+01 3.685762643814086914e+00 4.086058735847473145e-01
1.148000000000000000e+03 7.949790954589843750e+01 -1.452974438667297363e+00 1.806578040122985840e-02 1.342167472839355469e+01 4.031922340393066406e+00 3.467997908592224121e-01
1.149000000000000000e+03 7.937873840332031250e+01 1.267101287841796875e+00 -1.402047127485275269e-01 1.332323837280273438e+01 3.954910278320312500e+00 -4.623918831348419189e-01
1.150000000000000000e+03 7.920353698730468750e+01 2.677055358886718750e+00 -5.935618281364440918e-01 1.142208194732666016e+01 3.248555898666381836e+00 -1.322336554527282715e+00
1.151000000000000000e+03 7.915836334228515625e+01 4.152491092681884766e+00 3.268233239650726318e-01 9.343216896057128906e+00 2.901012182235717773e+00 -1.450376987457275391e+00
1.152000000000000000e+03 7.928498840332031250e+01 9.703565597534179688e+00 -2.887933552265167236e-01 6.707487583160400391e+00 1.925608277320861816e+00 3.979457318782806396e-01
1.153000000000000000e+03 7.926893615722656250e+01 1.113353157043457031e+01 -9.801653772592544556e-02 7.089357376098632812e+00 2.097402334213256836e+00 5.908858403563499451e-02
1.154000000000000000e+03 7.801472473144531250e+01 1.257560920715332031e+01 -1.405334472656250000e-01 7.011510848999023438e+00 2.061293125152587891e+00 -3.894912600517272949e-01
1.155000000000000000e+03 7.790544128417968750e+01 1.129278182983398438e+01 -4.349166750907897949e-01 7.463445663452148438e+00 2.108558654785156250e+00 -5.658766254782676697e-02
1.156000000000000000e+03 7.931735992431640625e+01 1.254985523223876953e+01 -6.631774455308914185e-02 7.043858528137207031e+00 2.093262195587158203e+00 -1.072760671377182007e-01
1.157000000000000000e+03 7.661949157714843750e+01 1.364572525024414062e+01 -2.046931348741054535e-02 6.548798084259033203e+00 1.958498716354370117e+00 -8.383699655532836914e-01
1.158000000000000000e+03 7.594824218750000000e+01 1.217179679870605469e+01 -3.814179003238677979e-01 6.934013366699218750e+00 1.965778589248657227e+00 -1.683329105377197266e+00
1.159000000000000000e+03 7.928386688232421875e+01 1.394038677215576172e+01 2.375452965497970581e-02 6.767673969268798828e+00 2.037428617477416992e+00 -1.546363830566406250e-01
1.160000000000000000e+03 7.763793182373046875e+01 1.528253173828125000e+01 1.245663017034530640e-01 6.385797977447509766e+00 1.953109264373779297e+00 -4.006192684173583984e-01
1.161000000000000000e+03 7.750832366943359375e+01 1.677134323120117188e+01 1.809148341417312622e-01 6.265611648559570312e+00 1.933957934379577637e+00 -1.999863833189010620e-01
1.162000000000000000e+03 7.921494293212890625e+01 1.533699321746826172e+01 1.149898301810026169e-02 6.513139724731445312e+00 1.957391619682312012e+00 -1.188656762242317200e-01
1.163000000000000000e+03 7.917252349853515625e+01 1.674577713012695312e+01 8.568544872105121613e-03 6.317717075347900391e+00 1.897885680198669434e+00 -1.041305214166641235e-01
1.164000000000000000e+03 7.752645874023437500e+01 1.824107170104980469e+01 1.273191124200820923e-01 6.244068145751953125e+00 1.911416172981262207e+00 -8.146763592958450317e-02
1.165000000000000000e+03 7.916788482666015625e+01 1.815527534484863281e+01 7.793908566236495972e-02 6.199120521545410156e+00 1.883117794990539551e+00 -3.200111910700798035e-02
1.166000000000000000e+03 7.750537109375000000e+01 2.105686378479003906e+01 1.856968738138675690e-02 6.315788269042968750e+00 1.900307416915893555e+00 1.145844832062721252e-01
1.167000000000000000e+03 7.751087188720703125e+01 1.964951133728027344e+01 1.276511549949645996e-01 6.260078430175781250e+00 1.916318774223327637e+00 6.142451241612434387e-02
1.168000000000000000e+03 7.916731262207031250e+01 1.955606269836425781e+01 -3.011980280280113220e-02 6.174886226654052734e+00 1.843429923057556152e+00 1.211829297244548798e-02
1.169000000000000000e+03 7.916643524169921875e+01 2.095426177978515625e+01 7.211901247501373291e-02 6.215402126312255859e+00 1.886256337165832520e+00 4.316281899809837341e-02
1.170000000000000000e+03 7.585427856445312500e+01 2.259504699707031250e+01 2.086591161787509918e-02 6.412500381469726562e+00 1.930009961128234863e+00 2.337692975997924805e-01
1.171000000000000000e+03 7.916786193847656250e+01 2.235540771484375000e+01 -5.400768667459487915e-02 6.299501895904541016e+00 1.873648166656494141e+00 6.516587734222412109e-02
1.172000000000000000e+03 7.751445007324218750e+01 2.390039634704589844e+01 -3.493345901370048523e-02 6.440426826477050781e+00 1.921648025512695312e+00 1.788845062255859375e-01
1.173000000000000000e+03 7.917377471923828125e+01 2.375548362731933594e+01 5.849736928939819336e-02 6.400651454925537109e+00 1.937744617462158203e+00 6.154059991240501404e-02
1.174000000000000000e+03 7.754971313476562500e+01 2.530896186828613281e+01 3.148031979799270630e-02 6.506964683532714844e+00 1.961533427238464355e+00 1.619002223014831543e-01
1.175000000000000000e+03 7.918822479248046875e+01 2.515044021606445312e+01 -5.452637374401092529e-02 6.508842468261718750e+00 1.936294794082641602e+00 7.322529703378677368e-02
1.176000000000000000e+03 7.778675079345703125e+01 2.811490440368652344e+01 1.531537901610136032e-02 6.648869037628173828e+00 1.999255299568176270e+00 1.276489943265914917e-01
1.177000000000000000e+03 7.763891601562500000e+01 2.670411109924316406e+01 -4.150011762976646423e-02 6.578616619110107422e+00 1.961134910583496094e+00 1.722759008407592773e-01
1.178000000000000000e+03 7.921590423583984375e+01 2.654014015197753906e+01 4.267378523945808411e-02 6.616088390350341797e+00 1.997628688812255859e+00 5.564359575510025024e-02
1.179000000000000000e+03 7.925699615478515625e+01 2.793834495544433594e+01 -3.816834464669227600e-02 6.719950675964355469e+00 2.004534721374511719e+00 6.532990932464599609e-02
1.180000000000000000e+03 7.796498107910156250e+01 2.959594345092773438e+01 -3.766926005482673645e-02 6.723976612091064453e+00 2.005892276763916016e+00 1.337041407823562622e-01
1.181000000000000000e+03 7.931142425537109375e+01 2.935965347290039062e+01 1.969905197620391846e-02 6.819691658020019531e+00 2.051817178726196289e+00 4.197806119918823242e-02
1.182000000000000000e+03 7.821133422851562500e+01 3.118323135375976562e+01 -4.874737467616796494e-03 6.837181568145751953e+00 2.049691915512084961e+00 8.530167490243911743e-02
1.183000000000000000e+03 7.940224456787109375e+01 3.078616714477539062e+01 -3.135049715638160706e-02 6.899442672729492188e+00 2.060427665710449219e+00 3.787436336278915405e-02
1.184000000000000000e+03 7.706732177734375000e+01 3.324169158935546875e+01 -1.457944791764020920e-02 6.799685478210449219e+00 2.035531759262084961e+00 9.343738108873367310e-02
1.185000000000000000e+03 7.693008422851562500e+01 3.154347610473632812e+01 -3.864195197820663452e-02 6.725478649139404297e+00 2.006051063537597656e+00 1.511837989091873169e-01
1.186000000000000000e+03 7.873372650146484375e+01 3.254505157470703125e+01 -5.657406523823738098e-03 6.912942886352539062e+00 2.072185516357421875e+00 5.582592263817787170e-02
1.187000000000000000e+03 7.755467987060546875e+01 3.478000259399414062e+01 -2.833461016416549683e-02 6.862322807312011719e+00 2.050196409225463867e+00 9.424620866775512695e-02
1.188000000000000000e+03 7.955118560791015625e+01 3.326369094848632812e+01 -3.761315718293190002e-02 7.035376071929931641e+00 2.099328756332397461e+00 9.259937331080436707e-03
1.189000000000000000e+03 7.818467712402343750e+01 3.363011169433593750e+01 -2.268567681312561035e-02 6.924995422363281250e+00 2.070693016052246094e+00 7.989796251058578491e-02
1.190000000000000000e+03 7.934455108642578125e+01 3.449153137207031250e+01 1.747635006904602051e-02 7.065263748168945312e+00 2.124821901321411133e+00 1.642548851668834686e-02
1.191000000000000000e+03 7.902310943603515625e+01 3.586849975585937500e+01 -1.141742058098316193e-02 7.080075740814208984e+00 2.120597600936889648e+00 7.606288418173789978e-03
1.192000000000000000e+03 7.887741851806640625e+01 3.739616394042968750e+01 -9.460580535233020782e-03 7.076934814453125000e+00 2.120242118835449219e+00 -3.886261256411671638e-03
1.193000000000000000e+03 7.904220581054687500e+01 3.889431381225585938e+01 1.756320893764495850e-02 7.075898647308349609e+00 2.128038406372070312e+00 3.925565630197525024e-03
1.194000000000000000e+03 7.887420654296875000e+01 4.018075180053710938e+01 -3.321144729852676392e-02 7.061146736145019531e+00 2.108380556106567383e+00 -1.685038395226001740e-02
1.195000000000000000e+03 7.805786132812500000e+01 4.164639663696289062e+01 2.596581727266311646e-02 7.049678325653076172e+00 2.122693300247192383e+00 -7.338957395404577255e-03
1.196000000000000000e+03 7.065912628173828125e+01 3.310472869873046875e+01 -1.091386228799819946e-01 6.285432338714599609e+00 1.852888107299804688e+00 1.694383770227432251e-01
1.197000000000000000e+03 7.028365325927734375e+01 3.091524887084960938e+01 -1.026769950985908508e-01 6.278436660766601562e+00 1.852727890014648438e+00 2.147624343633651733e-01
1.198000000000000000e+03 7.061535644531250000e+01 2.893601799011230469e+01 -9.427368640899658203e-02 6.318527221679687500e+00 1.867276072502136230e+00 2.437899112701416016e-01
1.199000000000000000e+03 7.020661926269531250e+01 2.264510917663574219e+01 1.333682332187891006e-02 6.482928752899169922e+00 1.948879718780517578e+00 2.365208268165588379e-01
1.200000000000000000e+03 7.018551635742187500e+01 2.107878112792968750e+01 8.062555640935897827e-02 6.446450233459472656e+00 1.958122730255126953e+00 3.008468151092529297e-01
1.201000000000000000e+03 7.000621795654296875e+01 1.948700523376464844e+01 1.791600137948989868e-01 6.823217391967773438e+00 2.100713253021240234e+00 4.072701334953308105e-01
1.202000000000000000e+03 6.961179351806640625e+01 1.799840545654296875e+01 2.181872576475143433e-01 6.788655281066894531e+00 2.102052688598632812e+00 4.430561065673828125e-01
1.203000000000000000e+03 6.943671417236328125e+01 1.530040836334228516e+01 1.028605937957763672e+00 7.113645076751708984e+00 2.442675352096557617e+00 1.286053180694580078e+00
1.204000000000000000e+03 6.969760131835937500e+01 1.410087776184082031e+01 2.006905078887939453e+00 6.688830852508544922e+00 2.608720779418945312e+00 1.362832546234130859e+00
1.205000000000000000e+03 7.027358245849609375e+01 1.178868579864501953e+01 2.352694988250732422e+00 4.321417808532714844e+00 2.002233743667602539e+00 1.170549631118774414e+00
1.206000000000000000e+03 7.052023315429687500e+01 1.057489204406738281e+01 4.691855907440185547e-01 4.137342929840087891e+00 1.381958603858947754e+00 1.144184350967407227e+00
1.207000000000000000e+03 6.836923980712890625e+01 3.770486068725585938e+01 -1.640932708978652954e-01 6.051116943359375000e+00 1.766107082366943359e+00 8.787931501865386963e-02
1.208000000000000000e+03 6.788931274414062500e+01 3.384881973266601562e+01 -1.508426368236541748e-01 6.069212436676025391e+00 1.775510907173156738e+00 1.669699251651763916e-01
1.209000000000000000e+03 6.930528259277343750e+01 3.222125244140625000e+01 -1.482764929533004761e-01 6.202466964721679688e+00 1.816257119178771973e+00 1.740597784519195557e-01
1.210000000000000000e+03 6.940270996093750000e+01 2.994124412536621094e+01 -1.313729435205459595e-01 6.233794212341308594e+00 1.830726385116577148e+00 1.919629126787185669e-01
1.211000000000000000e+03 6.992308807373046875e+01 2.767232894897460938e+01 -8.851131051778793335e-02 6.267729282379150391e+00 1.853765368461608887e+00 2.058798074722290039e-01
1.212000000000000000e+03 7.034536743164062500e+01 2.493265914916992188e+01 -4.097383841872215271e-02 6.347207069396972656e+00 1.891869902610778809e+00 2.531112134456634521e-01
1.213000000000000000e+03 6.855325317382812500e+01 2.461096954345703125e+01 -3.049144148826599121e-02 6.268529891967773438e+00 1.871411442756652832e+00 1.733778566122055054e-01
1.214000000000000000e+03 6.880023956298828125e+01 2.295448112487792969e+01 -1.687510230112820864e-04 6.291265964508056641e+00 1.887329220771789551e+00 1.873127967119216919e-01
1.215000000000000000e+03 6.870063781738281250e+01 2.135665321350097656e+01 4.872892424464225769e-02 6.560920238494873047e+00 1.982894778251647949e+00 1.348761469125747681e-01
1.216000000000000000e+03 6.840528869628906250e+01 1.980742454528808594e+01 4.191743955016136169e-02 6.567843914031982422e+00 1.982928514480590820e+00 7.350782305002212524e-02
1.217000000000000000e+03 6.707342529296875000e+01 1.671386146545410156e+01 -3.070625942200422287e-03 7.966316223144531250e+00 2.388973712921142578e+00 -1.212466657161712646e-01
1.218000000000000000e+03 6.863537597656250000e+01 1.386666965484619141e+01 1.690260887145996094e+00 8.187522888183593750e+00 2.963335275650024414e+00 1.820311307907104492e+00
1.219000000000000000e+03 6.834538269042968750e+01 3.102101516723632812e+01 -1.308616399765014648e-01 6.116966247558593750e+00 1.795831441879272461e+00 2.083888053894042969e-01
1.220000000000000000e+03 6.808504486083984375e+01 2.796153450012207031e+01 -1.003262922167778015e-01 6.147797107696533203e+00 1.814241290092468262e+00 2.176754921674728394e-01
1.221000000000000000e+03 6.816233825683593750e+01 2.627562522888183594e+01 -5.271162837743759155e-02 6.147124767303466797e+00 1.828323841094970703e+00 1.891884654760360718e-01
1.222000000000000000e+03 6.673950958251953125e+01 2.435692977905273438e+01 2.893536910414695740e-02 6.019093513488769531e+00 1.814408659934997559e+00 1.301711946725845337e-01
1.223000000000000000e+03 6.740920257568359375e+01 2.166192817687988281e+01 7.337591052055358887e-02 6.250539302825927734e+00 1.897174596786499023e+00 7.961894385516643524e-03
1.224000000000000000e+03 6.694371795654296875e+01 2.037645149230957031e+01 6.572306156158447266e-02 6.493970394134521484e+00 1.967908024787902832e+00 -4.601060599088668823e-02
1.225000000000000000e+03 6.614173889160156250e+01 1.919941329956054688e+01 1.635235100984573364e-01 6.489664077758789062e+00 1.995956301689147949e+00 -4.751777946949005127e-01
1.226000000000000000e+03 6.613491821289062500e+01 1.729252624511718750e+01 9.081690758466720581e-02 7.184401512145996094e+00 2.182565450668334961e+00 -9.678933620452880859e-01
1.227000000000000000e+03 6.651983642578125000e+01 1.554318141937255859e+01 2.008607983589172363e-01 8.404077529907226562e+00 2.581481456756591797e+00 -5.677139759063720703e-01
1.228000000000000000e+03 6.583956146240234375e+01 3.584278869628906250e+01 -2.216812670230865479e-01 5.862689495086669922e+00 1.692302465438842773e+00 1.078056544065475464e-01
1.229000000000000000e+03 6.755701446533203125e+01 4.082618331909179688e+01 -1.975837796926498413e-01 5.988616943359375000e+00 1.737309932708740234e+00 4.556296393275260925e-02
1.230000000000000000e+03 6.469377136230468750e+01 3.317187881469726562e+01 -2.130200713872909546e-01 5.737400531768798828e+00 1.657314181327819824e+00 1.612813621759414673e-01
1.231000000000000000e+03 6.621786499023437500e+01 3.006753349304199219e+01 -1.355488896369934082e-01 5.923904418945312500e+00 1.736506700515747070e+00 2.073684781789779663e-01
1.232000000000000000e+03 6.609323120117187500e+01 2.811871719360351562e+01 -7.821878790855407715e-02 5.891100883483886719e+00 1.743864655494689941e+00 1.697230488061904907e-01
1.233000000000000000e+03 6.620143127441406250e+01 2.616004180908203125e+01 -2.662361972033977509e-02 5.988535881042480469e+00 1.788573741912841797e+00 1.562568247318267822e-01
1.234000000000000000e+03 6.737779235839843750e+01 2.290243721008300781e+01 4.142204672098159790e-02 6.261388301849365234e+00 1.890843152999877930e+00 4.361813887953758240e-02
1.235000000000000000e+03 6.458182525634765625e+01 2.222557830810546875e+01 2.807378768920898438e-01 5.639367103576660156e+00 1.776031494140625000e+00 -1.134533062577247620e-02
1.236000000000000000e+03 6.570013427734375000e+01 2.128448486328125000e+01 2.065795511007308960e-01 5.987320423126220703e+00 1.858169913291931152e+00 -2.664926648139953613e-01
1.237000000000000000e+03 6.414972686767578125e+01 1.914568901062011719e+01 5.917370319366455078e-01 5.484779357910156250e+00 1.822954893112182617e+00 -7.648622393608093262e-01
1.238000000000000000e+03 6.522154235839843750e+01 1.819276809692382812e+01 2.794069051742553711e-01 6.109621524810791016e+00 1.916708469390869141e+00 -7.385282516479492188e-01
1.239000000000000000e+03 6.479358673095703125e+01 1.516570758819580078e+01 3.852408528327941895e-01 7.569599628448486328e+00 2.386452198028564453e+00 -3.213983058929443359e+00
1.240000000000000000e+03 6.547595214843750000e+01 1.627528762817382812e+01 -7.312495261430740356e-03 7.073490142822265625e+00 2.119853258132934570e+00 -1.046357393264770508e+00
1.241000000000000000e+03 6.263294219970703125e+01 3.721710205078125000e+01 -2.663295865058898926e-01 5.522439479827880859e+00 1.576833009719848633e+00 6.987560540437698364e-02
1.242000000000000000e+03 6.199084091186523438e+01 3.118612480163574219e+01 -2.139601707458496094e-01 5.517909049987792969e+00 1.591184616088867188e+00 1.524752378463745117e-01
1.243000000000000000e+03 6.406201171875000000e+01 2.840066528320312500e+01 -8.950027823448181152e-02 5.727762699127197266e+00 1.691478610038757324e+00 2.022305577993392944e-01
1.244000000000000000e+03 6.409951782226562500e+01 2.624334144592285156e+01 4.709155857563018799e-02 5.656733036041259766e+00 1.711147308349609375e+00 1.326937526464462280e-01
1.245000000000000000e+03 6.342762374877929688e+01 2.296809196472167969e+01 3.486827015876770020e-01 5.423985481262207031e+00 1.731800436973571777e+00 -3.289949148893356323e-02
1.246000000000000000e+03 6.281588745117187500e+01 2.201111221313476562e+01 5.302283763885498047e-01 5.108541488647460938e+00 1.691630959510803223e+00 7.782677561044692993e-02
1.247000000000000000e+03 6.302353286743164062e+01 2.013501167297363281e+01 8.619218468666076660e-01 4.723219394683837891e+00 1.675542354583740234e+00 -2.540963292121887207e-01
1.248000000000000000e+03 6.223128890991210938e+01 1.914297294616699219e+01 1.158092617988586426e+00 4.263283252716064453e+00 1.626412749290466309e+00 -1.811359375715255737e-01
1.249000000000000000e+03 6.260250091552734375e+01 1.707285690307617188e+01 1.423606157302856445e+00 3.274288892745971680e+00 1.409368515014648438e+00 -8.532300591468811035e-01
1.250000000000000000e+03 6.370302963256835938e+01 1.604332923889160156e+01 1.449754118919372559e+00 3.743941068649291992e+00 1.558108568191528320e+00 -2.142475366592407227e+00
1.251000000000000000e+03 6.215124130249023438e+01 3.400762939453125000e+01 -2.617124021053314209e-01 5.488849163055419922e+00 1.568140983581542969e+00 8.510243147611618042e-02
1.252000000000000000e+03 5.977698516845703125e+01 3.133749961853027344e+01 -2.714504897594451904e-01 5.310614109039306641e+00 1.511749029159545898e+00 7.892408221960067749e-02
1.253000000000000000e+03 6.199459457397460938e+01 2.868042755126953125e+01 -1.187334135174751282e-01 5.512353420257568359e+00 1.618086099624633789e+00 1.687819957733154297e-01
1.254000000000000000e+03 6.204046630859375000e+01 2.646463584899902344e+01 2.559301815927028656e-02 5.493358135223388672e+00 1.655685305595397949e+00 2.667323946952819824e-01
1.255000000000000000e+03 6.220878219604492188e+01 2.308042907714843750e+01 3.723309636116027832e-01 5.304340839385986328e+00 1.703001499176025391e+00 2.327929586172103882e-01
1.256000000000000000e+03 6.191640090942382812e+01 2.121059226989746094e+01 7.649229168891906738e-01 4.891349792480468750e+00 1.696881890296936035e+00 1.917760223150253296e-01
1.257000000000000000e+03 6.104261779785156250e+01 2.022133827209472656e+01 1.060320973396301270e+00 4.265694141387939453e+00 1.597804427146911621e+00 4.420464634895324707e-01
1.258000000000000000e+03 6.030880737304687500e+01 1.908236503601074219e+01 1.212239265441894531e+00 4.108691215515136719e+00 1.596279144287109375e+00 7.604849338531494141e-01
1.259000000000000000e+03 6.149086380004882812e+01 1.811697769165039062e+01 1.539504766464233398e+00 3.247077941894531250e+00 1.435974836349487305e+00 1.536439359188079834e-01
1.260000000000000000e+03 6.182246398925781250e+01 1.607571029663085938e+01 1.592181444168090820e+00 1.726061463356018066e+00 9.954729080200195312e-01 -3.509209752082824707e-01
1.261000000000000000e+03 6.079255676269531250e+01 1.712703132629394531e+01 1.641044616699218750e+00 2.949527978897094727e+00 1.377171874046325684e+00 6.011655926704406738e-01
1.262000000000000000e+03 5.882624816894531250e+01 3.736867523193359375e+01 -3.008997440338134766e-01 5.023844718933105469e+00 1.416883468627929688e+00 -2.018877305090427399e-03
1.263000000000000000e+03 5.776725387573242188e+01 3.116626358032226562e+01 -3.278493285179138184e-01 5.124958992004394531e+00 1.439132928848266602e+00 6.003392115235328674e-02
1.264000000000000000e+03 5.999868392944335938e+01 2.877919387817382812e+01 -1.853742003440856934e-01 5.383028030395507812e+00 1.559296250343322754e+00 2.128490358591079712e-01
1.265000000000000000e+03 6.014291763305664062e+01 2.647251701354980469e+01 -4.770182073116302490e-02 5.352246284484863281e+00 1.591363310813903809e+00 2.641599476337432861e-01
1.266000000000000000e+03 6.088648605346679688e+01 2.253494644165039062e+01 5.020393133163452148e-01 4.940452098846435547e+00 1.632747411727905273e+00 4.262337684631347656e-01
1.267000000000000000e+03 5.976645660400390625e+01 2.137986564636230469e+01 6.150572299957275391e-01 4.949263095855712891e+00 1.669296145439147949e+00 7.409418225288391113e-01
1.268000000000000000e+03 5.904416275024414062e+01 1.989548492431640625e+01 9.228202104568481445e-01 4.455009937286376953e+00 1.613349080085754395e+00 1.213409304618835449e+00
1.269000000000000000e+03 5.852928543090820312e+01 1.853663063049316406e+01 1.108242869377136230e+00 4.456664562225341797e+00 1.669472217559814453e+00 1.524290800094604492e+00
1.270000000000000000e+03 5.924788284301757812e+01 1.689339828491210938e+01 1.674575686454772949e+00 3.416977882385253906e+00 1.527466058731079102e+00 1.690240621566772461e+00
1.271000000000000000e+03 5.920389175415039062e+01 1.575258064270019531e+01 1.582103848457336426e+00 2.492284059524536133e+00 1.222316384315490723e+00 1.581946492195129395e+00
1.272000000000000000e+03 6.010562133789062500e+01 1.626582145690917969e+01 1.543988466262817383e+00 2.080567836761474609e+00 1.087366938591003418e+00 8.834085464477539062e-01
1.273000000000000000e+03 5.939701080322265625e+01 3.419641876220703125e+01 -2.880734801292419434e-01 5.202059268951416016e+00 1.474195718765258789e+00 5.031633004546165466e-02
1.274000000000000000e+03 5.833277893066406250e+01 2.641047859191894531e+01 -1.747837513685226440e-01 5.325080394744873047e+00 1.545089006423950195e+00 3.393886089324951172e-01
1.275000000000000000e+03 5.854059600830078125e+01 2.420187759399414062e+01 4.753748700022697449e-02 5.295090675354003906e+00 1.602788448333740234e+00 4.925423264503479004e-01
1.276000000000000000e+03 5.826982879638671875e+01 2.219423294067382812e+01 2.595986425876617432e-01 5.159213066101074219e+00 1.625643491744995117e+00 9.094127416610717773e-01
1.277000000000000000e+03 5.770596694946289062e+01 2.046790313720703125e+01 4.657857418060302734e-01 5.288950443267822266e+00 1.726420879364013672e+00 1.331109762191772461e+00
1.278000000000000000e+03 5.817476654052734375e+01 1.722713279724121094e+01 1.235768675804138184e+00 4.079448699951171875e+00 1.594565153121948242e+00 1.945187211036682129e+00
1.279000000000000000e+03 5.795419311523437500e+01 1.585591888427734375e+01 1.706320524215698242e+00 3.616905450820922852e+00 1.596967816352844238e+00 2.243940114974975586e+00
1.280000000000000000e+03 5.799250030517578125e+01 4.076475143432617188e+01 -2.931420207023620605e-01 4.908061981201171875e+00 1.384475946426391602e+00 1.721935346722602844e-02
1.281000000000000000e+03 5.559992980957031250e+01 3.680482482910156250e+01 -3.090038895606994629e-01 4.621112346649169922e+00 1.293632507324218750e+00 -6.005205586552619934e-02
1.282000000000000000e+03 5.609545135498046875e+01 3.081424903869628906e+01 -3.218595385551452637e-01 4.935733318328857422e+00 1.384162187576293945e+00 -2.524300292134284973e-02
1.283000000000000000e+03 5.639111709594726562e+01 2.895787811279296875e+01 -3.654797077178955078e-01 5.092657089233398438e+00 1.418153285980224609e+00 9.167181700468063354e-02
1.284000000000000000e+03 5.674327087402343750e+01 2.615682601928710938e+01 -2.727690041065216064e-01 5.289788246154785156e+00 1.505105853080749512e+00 2.494840621948242188e-01
1.285000000000000000e+03 5.685321044921875000e+01 2.432367134094238281e+01 -2.035625576972961426e-01 5.373817443847656250e+00 1.551076531410217285e+00 5.774041414260864258e-01
1.286000000000000000e+03 5.667409896850585938e+01 2.254070281982421875e+01 -1.403466165065765381e-01 5.596873283386230469e+00 1.636958003044128418e+00 7.470665574073791504e-01
1.287000000000000000e+03 5.631376647949218750e+01 2.082694816589355469e+01 -5.904304981231689453e-02 5.739864826202392578e+00 1.704246520996093750e+00 1.277940392494201660e+00
1.288000000000000000e+03 5.704254913330078125e+01 1.755837059020996094e+01 1.039367675781250000e+00 4.905376434326171875e+00 1.783423304557800293e+00 2.113811016082763672e+00
1.289000000000000000e+03 5.662012100219726562e+01 1.638726997375488281e+01 1.213432669639587402e+00 5.168967247009277344e+00 1.914720058441162109e+00 2.713472366333007812e+00
1.290000000000000000e+03 5.612005615234375000e+01 1.500113487243652344e+01 1.637681841850280762e+00 5.753232002258300781e+00 2.217274188995361328e+00 2.812692165374755859e+00
1.291000000000000000e+03 5.365283203125000000e+01 4.046071624755859375e+01 -2.287435829639434814e-01 4.167070388793945312e+00 1.181498050689697266e+00 -4.605701938271522522e-02
1.292000000000000000e+03 5.495003890991210938e+01 3.293949890136718750e+01 -3.629298210144042969e-01 4.692971706390380859e+00 1.299012541770935059e+00 -9.419903904199600220e-02
1.293000000000000000e+03 5.579619598388671875e+01 2.750024604797363281e+01 -3.749200403690338135e-01 5.208300590515136719e+00 1.450014114379882812e+00 9.390250593423843384e-02
1.294000000000000000e+03 5.531154251098632812e+01 2.614576721191406250e+01 -4.301936030387878418e-01 5.223501682281494141e+00 1.437992453575134277e+00 2.164955586194992065e-01
1.295000000000000000e+03 5.365954589843750000e+01 2.469862174987792969e+01 -6.097800731658935547e-01 5.312345027923583984e+00 1.410769462585449219e+00 8.905005455017089844e-02
1.296000000000000000e+03 5.493083572387695312e+01 2.112413787841796875e+01 -4.628315567970275879e-01 6.230607032775878906e+00 1.730332612991333008e+00 7.902618646621704102e-01
1.297000000000000000e+03 5.451589584350585938e+01 1.934940910339355469e+01 -5.643294453620910645e-01 6.947334289550781250e+00 1.914901375770568848e+00 1.422464013099670410e+00
1.298000000000000000e+03 5.450177764892578125e+01 1.734677696228027344e+01 2.024914771318435669e-01 7.697940349578857422e+00 2.370129585266113281e+00 2.223432302474975586e+00
1.299000000000000000e+03 5.464419555664062500e+01 1.528361701965332031e+01 1.497373223304748535e+00 7.802794933319091797e+00 2.790050506591796875e+00 3.121947526931762695e+00
1.300000000000000000e+03 5.342259979248046875e+01 3.158403968811035156e+01 -3.523341417312622070e-01 4.506659984588623047e+00 1.246297717094421387e+00 -1.816794872283935547e-01
1.301000000000000000e+03 5.410326385498046875e+01 2.846208000183105469e+01 -4.298461675643920898e-01 4.822121620178222656e+00 1.317682623863220215e+00 -1.014892682433128357e-01
1.302000000000000000e+03 5.371160888671875000e+01 2.664870643615722656e+01 -5.165046453475952148e-01 5.077263355255126953e+00 1.368227601051330566e+00 -1.121889799833297729e-01
1.303000000000000000e+03 5.212272262573242188e+01 2.502383995056152344e+01 -7.023516297340393066e-01 5.196256637573242188e+00 1.348171472549438477e+00 -3.149932920932769775e-01
1.304000000000000000e+03 5.267478179931640625e+01 2.246899223327636719e+01 -9.317540526390075684e-01 6.071914672851562500e+00 1.542048215866088867e+00 7.032582163810729980e-02
1.305000000000000000e+03 5.292967605590820312e+01 2.008478164672851562e+01 -9.717396497726440430e-01 7.164732933044433594e+00 1.857897996902465820e+00 3.955115973949432373e-01
1.306000000000000000e+03 5.200465774536132812e+01 1.869718551635742188e+01 -1.251655936241149902e+00 7.922704696655273438e+00 2.001314640045166016e+00 -8.670187741518020630e-02
1.307000000000000000e+03 5.123194503784179688e+01 1.762504959106445312e+01 -1.486877799034118652e+00 8.956204414367675781e+00 2.240797996520996094e+00 -1.165086984634399414e+00
1.308000000000000000e+03 5.198648071289062500e+01 1.518607425689697266e+01 1.275237798690795898e+00 1.275454616546630859e+01 4.208935260772705078e+00 1.675326704978942871e+00
1.309000000000000000e+03 5.304429244995117188e+01 1.707137870788574219e+01 -4.597215950489044189e-01 9.415351867675781250e+00 2.686688899993896484e+00 1.877702236175537109e+00
1.310000000000000000e+03 5.217586517333984375e+01 2.682504844665527344e+01 -5.037553310394287109e-01 4.694179058074951172e+00 1.257127165794372559e+00 -2.311039716005325317e-01
1.311000000000000000e+03 5.071007156372070312e+01 2.550959205627441406e+01 -5.231337547302246094e-01 4.447486877441406250e+00 1.177305936813354492e+00 -5.741651058197021484e-01
1.312000000000000000e+03 5.089336395263671875e+01 2.244656372070312500e+01 -8.207359910011291504e-01 5.297526359558105469e+00 1.343037128448486328e+00 -6.821901798248291016e-01
1.313000000000000000e+03 5.053330993652343750e+01 2.121827507019042969e+01 -8.823585510253906250e-01 5.517569541931152344e+00 1.390563249588012695e+00 -9.525603652000427246e-01
1.314000000000000000e+03 5.021747207641601562e+01 1.971729278564453125e+01 -1.074518680572509766e+00 6.213679790496826172e+00 1.541748285293579102e+00 -1.372819423675537109e+00
1.315000000000000000e+03 4.996535873413085938e+01 1.823384857177734375e+01 -8.844801783561706543e-01 6.479201316833496094e+00 1.678416252136230469e+00 -1.625337123870849609e+00
1.316000000000000000e+03 4.979284667968750000e+01 1.694153976440429688e+01 -1.846363782882690430e+00 8.495444297790527344e+00 1.994724273681640625e+00 -3.196527481079101562e+00
1.317000000000000000e+03 5.027744674682617188e+01 3.142477416992187500e+01 -2.811335027217864990e-01 3.818276643753051758e+00 1.061142921447753906e+00 -3.905165195465087891e-01
1.318000000000000000e+03 4.966160583496093750e+01 2.335326766967773438e+01 -6.167668104171752930e-01 4.654688835144042969e+00 1.211376547813415527e+00 -9.646409153938293457e-01
1.319000000000000000e+03 4.902465057373046875e+01 2.210877990722656250e+01 -7.240995764732360840e-01 4.613769054412841797e+00 1.166900873184204102e+00 -1.182990789413452148e+00
1.320000000000000000e+03 4.838980865478515625e+01 2.072322082519531250e+01 -3.861202001571655273e-01 4.265069961547851562e+00 1.163684964179992676e+00 -1.923173427581787109e+00
1.321000000000000000e+03 4.746543884277343750e+01 1.945430374145507812e+01 -1.421417146921157837e-01 2.640891313552856445e+00 7.496249079704284668e-01 -1.949764013290405273e+00
1.322000000000000000e+03 4.877806854248046875e+01 1.790936470031738281e+01 -1.841280013322830200e-01 5.653095245361328125e+00 1.640690207481384277e+00 -3.231936931610107422e+00
1.323000000000000000e+03 4.801993942260742188e+01 1.663353157043457031e+01 9.396225214004516602e-02 9.499493837356567383e-01 3.131734728813171387e-01 -2.517322301864624023e+00
1.324000000000000000e+03 3.989562988281250000e+01 3.144388198852539062e+01 1.576910316944122314e-01 1.430789589881896973e+00 4.765441715717315674e-01 -3.948550522327423096e-01
1.325000000000000000e+03 4.023857879638671875e+01 2.898372650146484375e+01 1.508711427450180054e-01 1.368828654289245605e+00 4.559099376201629639e-01 -4.744405448436737061e-01
1.326000000000000000e+03 4.044232559204101562e+01 2.686272430419921875e+01 1.712849922478199005e-02 1.305852293968200684e+00 3.968942463397979736e-01 -5.256345272064208984e-01
1.327000000000000000e+03 3.939406585693359375e+01 2.450906944274902344e+01 -1.119050830602645874e-01 9.174380302429199219e-01 2.416598796844482422e-01 -4.311532676219940186e-01
1.328000000000000000e+03 3.941070938110351562e+01 2.201703262329101562e+01 -2.916799783706665039e-01 6.901206970214843750e-01 1.195322126150131226e-01 -3.737237751483917236e-01
1.329000000000000000e+03 3.876682281494140625e+01 2.091171836853027344e+01 -4.389785826206207275e-01 5.077565908432006836e-01 2.063340134918689728e-02 -2.559747993946075439e-01
1.330000000000000000e+03 3.953806686401367188e+01 1.863871574401855469e+01 -8.427221775054931641e-01 5.015078186988830566e-01 -1.023643165826797485e-01 -1.872509717941284180e-01
1.331000000000000000e+03 3.944333267211914062e+01 1.673765182495117188e+01 -1.160125732421875000e+00 4.848120510578155518e-01 -2.025940865278244019e-01 -1.592683047056198120e-02
1.332000000000000000e+03 4.000338363647460938e+01 1.474434947967529297e+01 -1.410808920860290527e+00 5.080931782722473145e-01 -2.708147168159484863e-01 1.368941366672515869e-01
1.333000000000000000e+03 3.857431030273437500e+01 1.371275711059570312e+01 -1.409295320510864258e+00 2.510608434677124023e-01 -3.474703431129455566e-01 3.633170723915100098e-01
1.334000000000000000e+03 3.839476013183593750e+01 2.881554222106933594e+01 1.042695567011833191e-01 1.048091769218444824e+00 3.457084000110626221e-01 -3.664128780364990234e-01
1.335000000000000000e+03 3.869552612304687500e+01 2.659781837463378906e+01 1.026316210627555847e-01 9.493564963340759277e-01 3.155964314937591553e-01 -4.008144438266754150e-01
1.336000000000000000e+03 3.811365890502929688e+01 2.350926399230957031e+01 -1.197293400764465332e-01 6.375026106834411621e-01 1.553319692611694336e-01 -2.923411726951599121e-01
1.337000000000000000e+03 3.713697433471679688e+01 2.245030021667480469e+01 -3.482963144779205322e-01 3.922120332717895508e-01 1.317471079528331757e-02 -1.893469691276550293e-01
1.338000000000000000e+03 3.647352218627929688e+01 1.944774818420410156e+01 -6.865224838256835938e-01 7.362730801105499268e-02 -1.838685572147369385e-01 -4.819688946008682251e-02
1.339000000000000000e+03 3.771439361572265625e+01 1.818032073974609375e+01 -9.479611515998840332e-01 2.194437831640243530e-01 -2.185552120208740234e-01 -1.219755336642265320e-01
1.340000000000000000e+03 3.872551727294921875e+01 1.479921531677246094e+01 -1.586270809173583984e+00 3.755865991115570068e-01 -3.632052838802337646e-01 1.738453507423400879e-01
1.341000000000000000e+03 3.663451766967773438e+01 1.383909320831298828e+01 -2.539310693740844727e+00 -2.279629409313201904e-01 -8.301821351051330566e-01 7.562708854675292969e-01
1.342000000000000000e+03 3.020460700988769531e+01 3.873277282714843750e+01 4.903458356857299805e-01 3.092523217201232910e-01 2.398794591426849365e-01 -2.321692742407321930e-02
1.343000000000000000e+03 2.832337188720703125e+01 3.571595382690429688e+01 4.007966220378875732e-01 9.785986691713333130e-02 1.495969444513320923e-01 4.778665024787187576e-03
1.344000000000000000e+03 2.830045509338378906e+01 2.609848785400390625e+01 -1.851117312908172607e-01 -8.101893216371536255e-02 -7.983919978141784668e-02 6.467811018228530884e-02
1.345000000000000000e+03 2.796843338012695312e+01 2.467119407653808594e+01 -3.053916692733764648e-01 -1.211099550127983093e-01 -1.279504895210266113e-01 9.064372628927230835e-02
1.346000000000000000e+03 2.797406387329101562e+01 2.198525238037109375e+01 -7.751100659370422363e-01 -9.810999035835266113e-02 -2.619660198688507080e-01 1.293082237243652344e-01
1.347000000000000000e+03 2.855177879333496094e+01 2.111905479431152344e+01 -8.845939636230468750e-01 -2.476481534540653229e-02 -2.728076279163360596e-01 1.602920740842819214e-01
1.348000000000000000e+03 2.893524360656738281e+01 1.897441482543945312e+01 -1.234570026397705078e+00 9.285163879394531250e-02 -3.425155282020568848e-01 3.189244568347930908e-01
1.349000000000000000e+03 2.881074905395507812e+01 1.666803169250488281e+01 -1.286495447158813477e+00 1.297546476125717163e-01 -3.470222353935241699e-01 4.673710167407989502e-01
1.350000000000000000e+03 2.883231925964355469e+01 1.537585639953613281e+01 -1.116623520851135254e+00 4.938641935586929321e-02 -3.201711475849151611e-01 3.860452473163604736e-01
1.351000000000000000e+03 3.001291275024414062e+01 1.353611660003662109e+01 -8.415285348892211914e-01 -1.524980217218399048e-01 -2.982079684734344482e-01 -7.513300329446792603e-02
1.352000000000000000e+03 2.722189521789550781e+01 3.287134170532226562e+01 3.189243674278259277e-01 -1.563807204365730286e-02 9.098589420318603516e-02 3.826855123043060303e-02
1.353000000000000000e+03 2.948066139221191406e+01 2.956142807006835938e+01 1.524884700775146484e-01 4.622097685933113098e-02 5.961283668875694275e-02 2.372749336063861847e-02
1.354000000000000000e+03 2.833818817138671875e+01 2.767545700073242188e+01 -2.549604047089815140e-03 -3.328890725970268250e-02 -1.075155287981033325e-02 6.231377273797988892e-02
1.355000000000000000e+03 2.691222953796386719e+01 2.665351867675781250e+01 -1.112379431724548340e-01 -1.466620415449142456e-01 -7.736999541521072388e-02 9.018300473690032959e-02
1.356000000000000000e+03 2.597693634033203125e+01 2.435444259643554688e+01 -3.660713434219360352e-01 -2.337138205766677856e-01 -1.799355447292327881e-01 1.052889302372932434e-01
1.357000000000000000e+03 2.785257911682128906e+01 2.066926574707031250e+01 -9.947937130928039551e-01 -5.839860439300537109e-02 -3.159576952457427979e-01 1.562189459800720215e-01
1.358000000000000000e+03 2.638002014160156250e+01 1.773973083496093750e+01 -1.720273137092590332e+00 1.615434736013412476e-01 -4.676188826560974121e-01 2.457968890666961670e-01
1.359000000000000000e+03 2.639657402038574219e+01 1.671288871765136719e+01 -1.641860723495483398e+00 2.672519981861114502e-01 -4.123826026916503906e-01 5.202071666717529297e-01
1.360000000000000000e+03 2.761990547180175781e+01 1.566381835937500000e+01 -9.936240911483764648e-01 1.075413376092910767e-01 -2.658248245716094971e-01 5.846496820449829102e-01
1.361000000000000000e+03 2.828493881225585938e+01 1.318677330017089844e+01 -4.837186634540557861e-01 -2.027439773082733154e-01 -2.059388011693954468e-01 -3.010361082851886749e-02
1.362000000000000000e+03 2.545108032226562500e+01 3.696249389648437500e+01 4.366293251514434814e-01 -9.243442676961421967e-03 1.282157599925994873e-01 4.542037472128868103e-02
1.363000000000000000e+03 2.463994026184082031e+01 3.384271240234375000e+01 3.183630108833312988e-01 -9.147547930479049683e-02 6.806626170873641968e-02 7.759744673967361450e-02
1.364000000000000000e+03 2.636253547668457031e+01 3.049695777893066406e+01 1.764035522937774658e-01 -1.009284555912017822e-01 2.264252677559852600e-02 7.878499478101730347e-02
1.365000000000000000e+03 2.580769920349121094e+01 2.863724517822265625e+01 5.525169894099235535e-02 -1.727124750614166260e-01 -3.523823246359825134e-02 9.373115748167037964e-02
1.366000000000000000e+03 2.571451568603515625e+01 2.717222595214843750e+01 -8.881264179944992065e-02 -2.015322744846343994e-01 -8.710347861051559448e-02 1.138071864843368530e-01
1.367000000000000000e+03 2.479357147216796875e+01 2.537423896789550781e+01 -2.684733569622039795e-01 -2.799099385738372803e-01 -1.645149886608123779e-01 1.264744997024536133e-01
1.368000000000000000e+03 2.402753448486328125e+01 2.450678253173828125e+01 -3.407616019248962402e-01 -3.168707787990570068e-01 -1.972897052764892578e-01 1.381930410861968994e-01
1.369000000000000000e+03 2.606686019897460938e+01 2.233287429809570312e+01 -6.956561803817749023e-01 -2.220575511455535889e-01 -2.753141224384307861e-01 8.464094251394271851e-02
1.370000000000000000e+03 2.558950805664062500e+01 2.022339820861816406e+01 -1.117496848106384277e+00 -2.591764926910400391e-01 -4.130020141601562500e-01 2.897191606462001801e-02
1.371000000000000000e+03 2.532751083374023438e+01 1.848920249938964844e+01 -1.611316561698913574e+00 -2.387189865112304688e-01 -5.550106763839721680e-01 -3.060095198452472687e-02
1.372000000000000000e+03 2.487630462646484375e+01 1.614490318298339844e+01 -1.926979541778564453e+00 -5.983774065971374512e-01 -7.576071023941040039e-01 9.120362997055053711e-01
1.373000000000000000e+03 2.519897460937500000e+01 1.521308517456054688e+01 -9.290023893117904663e-02 6.900927424430847168e-01 1.791577488183975220e-01 5.260689854621887207e-01
1.374000000000000000e+03 2.508041000366210938e+01 1.474580287933349609e+01 1.563995480537414551e-01 1.083240270614624023e+00 3.718919456005096436e-01 4.545058906078338623e-01
1.375000000000000000e+03 2.516091728210449219e+01 1.375253963470458984e+01 2.773041427135467529e-01 7.032000422477722168e-01 2.941512465476989746e-01 2.712903320789337158e-01
1.376000000000000000e+03 2.470437431335449219e+01 1.395501136779785156e+01 3.789760470390319824e-01 1.119710683822631836e+00 4.496060013771057129e-01 5.804669857025146484e-01
1.377000000000000000e+03 2.468559837341308594e+01 1.123013687133789062e+01 -5.188014730811119080e-02 2.593719363212585449e-01 6.224754080176353455e-02 5.590603686869144440e-03
1.378000000000000000e+03 2.500714111328125000e+01 1.220759677886962891e+01 7.137373834848403931e-02 4.068629443645477295e-01 1.434710025787353516e-01 8.393284678459167480e-02
1.379000000000000000e+03 2.188309478759765625e+01 3.432571411132812500e+01 3.147990107536315918e-01 -1.255099624395370483e-01 5.678671598434448242e-02 1.297461688518524170e-01
1.380000000000000000e+03 2.420633125305175781e+01 2.880030822753906250e+01 4.694345220923423767e-02 -2.085438072681427002e-01 -4.848010838031768799e-02 1.340036094188690186e-01
1.381000000000000000e+03 2.289463615417480469e+01 2.806353187561035156e+01 -7.059027906507253647e-03 -2.448193728923797607e-01 -7.556352019309997559e-02 1.710536181926727295e-01
1.382000000000000000e+03 2.384009742736816406e+01 2.658362960815429688e+01 -1.210656017065048218e-01 -2.685010731220245361e-01 -1.168700009584426880e-01 1.473827362060546875e-01
1.383000000000000000e+03 2.307553482055664062e+01 2.375390434265136719e+01 -4.498777985572814941e-01 -3.482914566993713379e-01 -2.394507825374603271e-01 1.685784459114074707e-01
1.384000000000000000e+03 2.274695205688476562e+01 2.206553840637207031e+01 -6.786227226257324219e-01 -3.966867923736572266e-01 -3.225928544998168945e-01 1.640236377716064453e-01
1.385000000000000000e+03 2.391553306579589844e+01 2.050166320800781250e+01 -1.007106781005859375e+00 -4.743723869323730469e-01 -4.444437325000762939e-01 6.824751198291778564e-02
1.386000000000000000e+03 2.363030242919921875e+01 1.818482971191406250e+01 -1.715769410133361816e+00 -7.074175477027893066e-01 -7.269560694694519043e-01 6.637749075889587402e-02
1.387000000000000000e+03 2.229603195190429688e+01 4.084139633178710938e+01 4.500578045845031738e-01 -7.998722791671752930e-02 1.110211759805679321e-01 2.790525555610656738e-02
1.388000000000000000e+03 2.200439834594726562e+01 3.752008819580078125e+01 4.075571000576019287e-01 -8.558779954910278320e-02 9.659078717231750488e-02 7.340534031391143799e-02
1.389000000000000000e+03 2.414296150207519531e+01 3.108546447753906250e+01 2.064624428749084473e-01 -1.615878492593765259e-01 1.346237771213054657e-02 1.265864968299865723e-01
1.390000000000000000e+03 2.206746482849121094e+01 2.689328384399414062e+01 -9.184781461954116821e-02 -2.713056504726409912e-01 -1.089460402727127075e-01 1.900649666786193848e-01
1.391000000000000000e+03 2.137504005432128906e+01 2.425071144104003906e+01 -3.820627331733703613e-01 -3.246701061725616455e-01 -2.120198607444763184e-01 2.188778519630432129e-01
1.392000000000000000e+03 2.207652854919433594e+01 2.311811256408691406e+01 -5.201575160026550293e-01 -3.730587661266326904e-01 -2.679648697376251221e-01 1.857294440269470215e-01
1.393000000000000000e+03 2.288436889648437500e+01 2.064668846130371094e+01 -9.407342672348022461e-01 -4.593690633773803711e-01 -4.200310111045837402e-01 1.307225674390792847e-01
1.394000000000000000e+03 2.174345970153808594e+01 1.842305564880371094e+01 -1.555423140525817871e+00 -3.976833522319793701e-01 -5.859319567680358887e-01 8.143693953752517700e-02
1.395000000000000000e+03 2.154785919189453125e+01 1.593936634063720703e+01 -1.903352618217468262e+00 -3.859416842460632324e-01 -6.867883205413818359e-01 -7.343888282775878906e-01
1.396000000000000000e+03 1.911671447753906250e+01 3.424731445312500000e+01 2.733827233314514160e-01 -1.272744685411453247e-01 4.383247345685958862e-02 1.699715107679367065e-01
1.397000000000000000e+03 2.181390762329101562e+01 3.142803192138671875e+01 1.852982342243194580e-01 -1.825439780950546265e-01 8.262745104730129242e-04 1.615083068609237671e-01
1.398000000000000000e+03 2.149836349487304688e+01 2.916882514953613281e+01 7.101672142744064331e-02 -2.232803553342819214e-01 -4.567909240722656250e-02 1.959729045629501343e-01
1.399000000000000000e+03 1.967632293701171875e+01 2.612434196472167969e+01 -1.927884221076965332e-01 -2.445645481348037720e-01 -1.312058866024017334e-01 2.475256025791168213e-01
1.400000000000000000e+03 1.979524612426757812e+01 2.351589775085449219e+01 -4.430013895034790039e-01 -2.868959009647369385e-01 -2.189691811800003052e-01 2.367972880601882935e-01
1.401000000000000000e+03 2.023675727844238281e+01 2.253044128417968750e+01 -6.001967787742614746e-01 -3.122612535953521729e-01 -2.737374007701873779e-01 2.146781831979751587e-01
1.402000000000000000e+03 2.038577079772949219e+01 2.054026985168457031e+01 -9.251759648323059082e-01 -3.231236636638641357e-01 -3.744898736476898193e-01 1.703635901212692261e-01
1.403000000000000000e+03 2.039367675781250000e+01 1.952697753906250000e+01 -1.118681073188781738e+00 -3.039231598377227783e-01 -4.267812371253967285e-01 1.193863898515701294e-01
1.404000000000000000e+03 2.021162986755371094e+01 1.654410934448242188e+01 -1.561831116676330566e+00 -2.240511476993560791e-01 -5.357646942138671875e-01 -4.091695845127105713e-01
1.405000000000000000e+03 1.982905769348144531e+01 1.492148876190185547e+01 -1.341480851173400879e+00 -3.769802153110504150e-01 -5.155383348464965820e-01 -6.880344152450561523e-01
1.406000000000000000e+03 1.844763183593750000e+01 1.414179611206054688e+01 -1.074939012527465820e+00 -3.354818522930145264e-01 -4.231262505054473877e-01 -6.039519906044006348e-01
1.407000000000000000e+03 1.442658519744873047e+01 1.436670494079589844e+01 -7.939531207084655762e-01 -1.268583983182907104e-01 -2.762434482574462891e-01 -2.910310029983520508e-01
1.408000000000000000e+03 1.307793426513671875e+01 1.576830482482910156e+01 -7.179580926895141602e-01 8.620689064264297485e-02 -1.895253658294677734e-01 -1.474800407886505127e-01
1.409000000000000000e+03 1.047708702087402344e+01 1.931507873535156250e+01 -4.707329273223876953e-01 3.196519911289215088e-01 -4.532427713274955750e-02 9.567787870764732361e-03
1.410000000000000000e+03 9.521407127380371094e+00 2.150338935852050781e+01 -3.159091174602508545e-01 3.396412432193756104e-01 7.119636517018079758e-03 8.400717377662658691e-02
1.411000000000000000e+03 7.257942199707031250e+00 2.178647041320800781e+01 -2.181571573019027710e-01 4.684194326400756836e-01 7.507868111133575439e-02 5.064461380243301392e-02
1.412000000000000000e+03 6.416201114654541016e+00 2.404323387145996094e+01 -1.212721467018127441e-01 4.891923964023590088e-01 1.103760674595832825e-01 1.208239272236824036e-01
1.413000000000000000e+03 4.785813808441162109e+00 2.624892234802246094e+01 -3.728695586323738098e-02 5.635732412338256836e-01 1.578858941793441772e-01 1.435680687427520752e-01
1.414000000000000000e+03 3.438707828521728516e+00 2.737204551696777344e+01 -1.047404576092958450e-02 6.391068100929260254e-01 1.885898262262344360e-01 1.258318126201629639e-01
1.415000000000000000e+03 6.936207413673400879e-01 2.761382675170898438e+01 1.789529807865619659e-03 8.454700112342834473e-01 2.541778683662414551e-01 3.174871951341629028e-02
1.416000000000000000e+03 6.731648445129394531e-01 2.622352600097656250e+01 -6.761459168046712875e-03 9.073778986930847168e-01 2.701849341392517090e-01 2.689070999622344971e-02
1.417000000000000000e+03 2.029284954071044922e+00 2.618583679199218750e+01 -5.452168174088001251e-03 7.885242104530334473e-01 2.349216043949127197e-01 7.483515888452529907e-02
1.418000000000000000e+03 3.487816810607910156e+00 2.501600265502929688e+01 -2.598512172698974609e-02 6.955808401107788086e-01 2.008787095546722412e-01 9.809177368879318237e-02
1.419000000000000000e+03 5.069453716278076172e+00 2.312956237792968750e+01 -9.771452844142913818e-02 5.957347154617309570e-01 1.494060605764389038e-01 7.842618227005004883e-02
1.420000000000000000e+03 6.095872402191162109e+00 2.081699752807617188e+01 -2.062292248010635376e-01 5.577416419982910156e-01 1.054537370800971985e-01 -4.968804772943258286e-03
1.421000000000000000e+03 7.835081577301025391e+00 2.009160232543945312e+01 -3.150464594364166260e-01 4.742604196071624756e-01 4.776418954133987427e-02 -1.141747366636991501e-02
1.422000000000000000e+03 9.926896095275878906e+00 1.648624420166015625e+01 -5.698237419128417969e-01 4.207230806350708008e-01 -4.473019763827323914e-02 -1.184476763010025024e-01
1.423000000000000000e+03 1.111959552764892578e+01 1.485448551177978516e+01 -6.479061245918273926e-01 3.105232715606689453e-01 -1.012148559093475342e-01 -1.465541571378707886e-01
1.424000000000000000e+03 1.504612922668457031e+01 1.196078300476074219e+01 -7.438243627548217773e-01 -4.860181808471679688e-01 -3.689527809619903564e-01 -5.820820331573486328e-01
1.425000000000000000e+03 1.753928947448730469e+01 4.078318405151367188e+01 3.494011461734771729e-01 -6.752069294452667236e-02 8.456413447856903076e-02 3.661663830280303955e-02
1.426000000000000000e+03 1.818121147155761719e+01 3.738979339599609375e+01 3.302777409553527832e-01 -9.073418378829956055e-02 7.186307013034820557e-02 1.141291558742523193e-01
1.427000000000000000e+03 1.680344963073730469e+01 3.350544738769531250e+01 2.142933309078216553e-01 -9.441807121038436890e-02 3.596257418394088745e-02 1.959888786077499390e-01
1.428000000000000000e+03 1.959445762634277344e+01 3.154140090942382812e+01 1.706864833831787109e-01 -1.639751195907592773e-01 2.013409975916147232e-03 2.018633782863616943e-01
1.429000000000000000e+03 1.980917167663574219e+01 2.938185310363769531e+01 6.686815619468688965e-02 -1.996487081050872803e-01 -3.983416780829429626e-02 2.155457288026809692e-01
1.430000000000000000e+03 1.892046356201171875e+01 2.734222221374511719e+01 -7.995245605707168579e-02 -2.094074189662933350e-01 -8.680795878171920776e-02 2.434383183717727661e-01
1.431000000000000000e+03 1.787874794006347656e+01 2.651846122741699219e+01 -1.558912247419357300e-01 -1.799920350313186646e-01 -1.007649749517440796e-01 2.620990872383117676e-01
1.432000000000000000e+03 1.793239021301269531e+01 2.424168014526367188e+01 -3.635575175285339355e-01 -1.918580085039138794e-01 -1.666246503591537476e-01 2.532171905040740967e-01
1.433000000000000000e+03 1.847278213500976562e+01 2.246314048767089844e+01 -5.553425550460815430e-01 -2.142646908760070801e-01 -2.308821827173233032e-01 2.184662222862243652e-01
1.434000000000000000e+03 1.746337699890136719e+01 2.071792793273925781e+01 -7.256112694740295410e-01 -1.355269253253936768e-01 -2.583414614200592041e-01 1.400654017925262451e-01
1.435000000000000000e+03 1.819907379150390625e+01 1.862002372741699219e+01 -1.043998837471008301e+00 -1.524079442024230957e-01 -3.589220643043518066e-01 -3.194387629628181458e-02
1.436000000000000000e+03 1.884327507019042969e+01 1.667180633544921875e+01 -1.287166714668273926e+00 -1.913957148790359497e-01 -4.435687065124511719e-01 -3.249040842056274414e-01
1.437000000000000000e+03 1.826999092102050781e+01 1.459900856018066406e+01 -1.137763261795043945e+00 -2.811679244041442871e-01 -4.256793260574340820e-01 -5.743055343627929688e-01
1.438000000000000000e+03 1.861153411865234375e+01 1.474044609069824219e+01 -1.177527308464050293e+00 -3.031563460826873779e-01 -4.442051053047180176e-01 -5.825882554054260254e-01
1.439000000000000000e+03 1.509865188598632812e+01 3.239968872070312500e+01 1.510093361139297485e-01 -4.115989431738853455e-02 3.295483440160751343e-02 2.157218009233474731e-01
1.440000000000000000e+03 1.825195884704589844e+01 2.897353553771972656e+01 2.138881012797355652e-02 -1.647316366434097290e-01 -4.300284758210182190e-02 2.458131760358810425e-01
1.441000000000000000e+03 1.695113563537597656e+01 2.797956466674804688e+01 -3.748241066932678223e-02 -1.280035078525543213e-01 -4.964577406644821167e-02 2.600778043270111084e-01
1.442000000000000000e+03 1.588249206542968750e+01 2.678605461120605469e+01 -1.328122764825820923e-01 -8.199160546064376831e-02 -6.444116681814193726e-02 2.658953368663787842e-01
1.443000000000000000e+03 1.569890499114990234e+01 2.466425132751464844e+01 -2.877119481563568115e-01 -7.197990268468856812e-02 -1.079075559973716736e-01 2.518934011459350586e-01
1.444000000000000000e+03 1.646343994140625000e+01 2.254482650756835938e+01 -5.042639374732971191e-01 -1.045002117753028870e-01 -1.826292425394058228e-01 2.050882428884506226e-01
1.445000000000000000e+03 1.590075016021728516e+01 2.115729331970214844e+01 -6.043448448181152344e-01 -5.832053720951080322e-02 -1.987996101379394531e-01 1.496445387601852417e-01
1.446000000000000000e+03 1.711221313476562500e+01 1.696224021911621094e+01 -1.021176099777221680e+00 -1.392586380243301392e-01 -3.481304049491882324e-01 -2.224625945091247559e-01
1.447000000000000000e+03 1.697934341430664062e+01 1.450590991973876953e+01 -1.007324457168579102e+00 -3.024778962135314941e-01 -3.929407000541687012e-01 -5.110564827919006348e-01
1.448000000000000000e+03 1.696135902404785156e+01 1.513753890991210938e+01 -1.023242115974426270e+00 -2.415110021829605103e-01 -3.794259428977966309e-01 -4.391274154186248779e-01
1.449000000000000000e+03 1.265506935119628906e+01 4.088505554199218750e+01 2.376406043767929077e-01 4.977874085307121277e-02 8.622580021619796753e-02 4.500117525458335876e-02
1.450000000000000000e+03 1.223171329498291016e+01 3.784849929809570312e+01 2.027384191751480103e-01 6.685143709182739258e-02 8.087695389986038208e-02 1.171232983469963074e-01
1.451000000000000000e+03 1.519622230529785156e+01 3.606692123413085938e+01 2.478545457124710083e-01 -3.066799417138099670e-02 6.515596807003021240e-02 1.465588808059692383e-01
1.452000000000000000e+03 1.352365684509277344e+01 3.405923080444335938e+01 1.558711081743240356e-01 2.757590077817440033e-02 5.503410473465919495e-02 1.977604925632476807e-01
1.453000000000000000e+03 1.382982540130615234e+01 3.116193771362304688e+01 7.670109719038009644e-02 1.307247485965490341e-02 2.693207003176212311e-02 2.383566647768020630e-01
1.454000000000000000e+03 1.602526664733886719e+01 3.059968757629394531e+01 8.949770778417587280e-02 -8.594983071088790894e-02 1.064363634213805199e-03 2.426970601081848145e-01
1.455000000000000000e+03 1.585302734375000000e+01 2.905263519287109375e+01 8.413803763687610626e-03 -8.148255944252014160e-02 -2.192062698304653168e-02 2.551062703132629395e-01
1.456000000000000000e+03 1.393015480041503906e+01 2.683905982971191406e+01 -1.248554736375808716e-01 1.342309173196554184e-02 -3.342971578240394592e-02 2.602463066577911377e-01
1.457000000000000000e+03 1.455744361877441406e+01 2.400431632995605469e+01 -3.182271420955657959e-01 3.304725978523492813e-03 -9.447672218084335327e-02 2.263127863407135010e-01
1.458000000000000000e+03 1.511184024810791016e+01 2.301946449279785156e+01 -4.067309796810150146e-01 -1.966799795627593994e-02 -1.279196888208389282e-01 2.129272669553756714e-01
1.459000000000000000e+03 1.331853389739990234e+01 2.069523429870605469e+01 -5.179275870323181152e-01 1.058400496840476990e-01 -1.236262544989585876e-01 1.057948991656303406e-01
1.460000000000000000e+03 1.393941497802734375e+01 1.670282745361328125e+01 -7.444891929626464844e-01 3.190216794610023499e-02 -2.137761116027832031e-01 -1.218427047133445740e-01
1.461000000000000000e+03 1.491258907318115234e+01 1.489919376373291016e+01 -8.312916159629821777e-01 -1.440348476171493530e-01 -2.925979495048522949e-01 -2.871648669242858887e-01
1.462000000000000000e+03 4.892743110656738281e+00 4.048754501342773438e+01 4.762448742985725403e-02 3.458413481712341309e-01 1.180397495627403259e-01 3.019722551107406616e-02
1.463000000000000000e+03 1.245186614990234375e+01 3.226841354370117188e+01 1.047771051526069641e-01 7.199186831712722778e-02 5.303069204092025757e-02 2.244120985269546509e-01
1.464000000000000000e+03 1.168408489227294922e+01 3.069710540771484375e+01 3.727430477738380432e-02 1.207859665155410767e-01 4.741808027029037476e-02 2.394036799669265747e-01
1.465000000000000000e+03 1.285352897644042969e+01 2.988145065307617188e+01 3.254733234643936157e-02 5.916212499141693115e-02 2.751283720135688782e-02 2.471903711557388306e-01
1.466000000000000000e+03 1.289438152313232422e+01 2.779142951965332031e+01 -6.244072318077087402e-02 6.598553061485290527e-02 1.063442789018154144e-03 2.576410472393035889e-01
1.467000000000000000e+03 1.212718296051025391e+01 2.675468826293945312e+01 -1.123975738883018494e-01 1.120169833302497864e-01 -1.141792818089015782e-04 2.448733001947402954e-01
1.468000000000000000e+03 1.285377407073974609e+01 2.419170379638671875e+01 -2.725456357002258301e-01 9.918864816427230835e-02 -5.200709775090217590e-02 2.134207338094711304e-01
1.469000000000000000e+03 1.356209087371826172e+01 2.332467651367187500e+01 -3.434821069240570068e-01 6.558787077665328979e-02 -8.336827158927917480e-02 2.064117789268493652e-01
1.470000000000000000e+03 1.250520229339599609e+01 1.882574462890625000e+01 -5.748935341835021973e-01 1.725736111402511597e-01 -1.206959709525108337e-01 1.145102083683013916e-02
1.471000000000000000e+03 8.607603073120117188e+00 3.837063217163085938e+01 1.271587908267974854e-01 2.123236060142517090e-01 1.018447205424308777e-01 9.684440493583679199e-02
1.472000000000000000e+03 1.122771167755126953e+01 3.519639968872070312e+01 1.471053957939147949e-01 1.138275563716888428e-01 7.827988266944885254e-02 1.816945970058441162e-01
1.473000000000000000e+03 8.043480873107910156e+00 3.389994812011718750e+01 8.009511232376098633e-02 2.509738206863403320e-01 9.932067990303039551e-02 1.860804557800292969e-01
1.474000000000000000e+03 1.034203338623046875e+01 3.119828796386718750e+01 5.380800366401672363e-02 1.749628782272338867e-01 6.863126903772354126e-02 2.332714051008224487e-01
1.475000000000000000e+03 1.105730438232421875e+01 2.938914489746093750e+01 1.031158212572336197e-02 1.545385569334030151e-01 4.945504292845726013e-02 2.444021403789520264e-01
1.476000000000000000e+03 1.083679485321044922e+01 2.818545913696289062e+01 -4.855895042419433594e-02 1.739718466997146606e-01 3.762386739253997803e-02 2.404375076293945312e-01
1.477000000000000000e+03 1.038490962982177734e+01 2.561704444885253906e+01 -1.483474671840667725e-01 2.173858880996704102e-01 2.071152441203594208e-02 2.181170284748077393e-01
1.478000000000000000e+03 1.119321060180664062e+01 2.429348754882812500e+01 -2.242457419633865356e-01 1.943023800849914551e-01 -8.983007632195949554e-03 1.973190009593963623e-01
1.479000000000000000e+03 1.187190532684326172e+01 2.341780662536621094e+01 -2.986125648021697998e-01 1.645741313695907593e-01 -4.021152481436729431e-02 1.876682639122009277e-01
1.480000000000000000e+03 1.166330528259277344e+01 2.103134727478027344e+01 -4.187312126159667969e-01 2.131295502185821533e-01 -6.168050318956375122e-02 9.874163568019866943e-02
1.481000000000000000e+03 1.140239810943603516e+01 1.946035957336425781e+01 -4.954675137996673584e-01 2.502624094486236572e-01 -7.356152683496475220e-02 3.176548704504966736e-02
1.482000000000000000e+03 8.569016456604003906e+00 3.578479385375976562e+01 1.041146889328956604e-01 2.188027352094650269e-01 9.687522798776626587e-02 1.526464819908142090e-01
1.483000000000000000e+03 9.856624603271484375e+00 2.974243354797363281e+01 4.150105174630880356e-03 2.055720537900924683e-01 6.291665136814117432e-02 2.332379370927810669e-01
1.484000000000000000e+03 9.435438156127929688e+00 2.838332557678222656e+01 -2.957640588283538818e-02 2.439075261354446411e-01 6.429933756589889526e-02 2.324449121952056885e-01
1.485000000000000000e+03 9.385351181030273438e+00 2.568503570556640625e+01 -1.306563466787338257e-01 2.876403033733367920e-01 4.709519073367118835e-02 1.983277201652526855e-01
1.486000000000000000e+03 9.105030059814453125e+00 2.394725418090820312e+01 -2.018623054027557373e-01 3.229897022247314453e-01 3.633821755647659302e-02 1.607754677534103394e-01
1.487000000000000000e+03 9.131955146789550781e+00 2.311716461181640625e+01 -2.218404859304428101e-01 3.342689275741577148e-01 3.372853249311447144e-02 1.353909373283386230e-01
1.488000000000000000e+03 5.494511127471923828e+00 3.696762466430664062e+01 6.289102137088775635e-02 3.367696702480316162e-01 1.198982074856758118e-01 9.766598790884017944e-02
1.489000000000000000e+03 9.018020629882812500e+00 3.141625595092773438e+01 4.377343505620956421e-02 2.314814925193786621e-01 8.257647603750228882e-02 2.144453823566436768e-01
1.490000000000000000e+03 8.547710418701171875e+00 3.010841751098632812e+01 1.725094951689243317e-02 2.711704075336456299e-01 8.652640879154205322e-02 2.230188399553298950e-01
1.491000000000000000e+03 7.546997070312500000e+00 2.757375526428222656e+01 -3.889009356498718262e-02 3.639310896396636963e-01 9.751229733228683472e-02 2.020173668861389160e-01
1.492000000000000000e+03 8.273732185363769531e+00 2.601095390319824219e+01 -9.638629108667373657e-02 3.443515598773956299e-01 7.438958436250686646e-02 1.931080818176269531e-01
1.493000000000000000e+03 7.815002441406250000e+00 2.394300842285156250e+01 -1.519868969917297363e-01 4.062699973583221436e-01 7.628493010997772217e-02 1.376104950904846191e-01
1.494000000000000000e+03 8.248313903808593750e+00 2.207524299621582031e+01 -2.422488182783126831e-01 4.095746576786041260e-01 5.019774660468101501e-02 8.418785035610198975e-02
1.495000000000000000e+03 6.271090030670166016e+00 3.560216140747070312e+01 6.529214978218078613e-02 3.282886743545532227e-01 1.180742532014846802e-01 1.293875873088836670e-01
1.496000000000000000e+03 6.468443870544433594e+00 3.401948547363281250e+01 5.882560834288597107e-02 3.238840699195861816e-01 1.148129105567932129e-01 1.569474190473556519e-01
1.497000000000000000e+03 5.706699848175048828e+00 3.084963417053222656e+01 1.915861852467060089e-02 4.196490347385406494e-01 1.316422969102859497e-01 1.823744773864746094e-01
1.498000000000000000e+03 6.729616641998291016e+00 2.922971725463867188e+01 -1.608273945748806000e-03 3.911543488502502441e-01 1.168638244271278381e-01 1.997268348932266235e-01
1.499000000000000000e+03 6.276978969573974609e+00 2.799895668029785156e+01 -2.937461994588375092e-02 4.317092299461364746e-01 1.207003816962242126e-01 1.873124539852142334e-01
1.500000000000000000e+03 6.930385589599609375e+00 2.635760498046875000e+01 -7.164932042360305786e-02 4.225173592567443848e-01 1.052604168653488159e-01 1.764521002769470215e-01
1.501000000000000000e+03 2.014042615890502930e+00 4.166141128540039062e+01 2.209397405385971069e-02 3.930324614048004150e-01 1.245379298925399780e-01 6.299600470811128616e-03
1.502000000000000000e+03 6.006640434265136719e+00 3.844197082519531250e+01 6.682539731264114380e-02 3.092626631259918213e-01 1.128264218568801880e-01 7.655216008424758911e-02
1.503000000000000000e+03 4.538355350494384766e+00 3.806170272827148438e+01 3.433709964156150818e-02 3.802361786365509033e-01 1.243719905614852905e-01 5.432976037263870239e-02
1.504000000000000000e+03 4.395335197448730469e+00 3.496945571899414062e+01 3.261150792241096497e-02 4.174450039863586426e-01 1.350169479846954346e-01 1.124742552638053894e-01
1.505000000000000000e+03 4.738361835479736328e+00 3.350264358520507812e+01 2.993208169937133789e-02 4.249258339405059814e-01 1.364573687314987183e-01 1.364362984895706177e-01
1.506000000000000000e+03 4.315805912017822266e+00 3.122170257568359375e+01 1.169788092374801636e-02 4.932976663112640381e-01 1.514986604452133179e-01 1.420832723379135132e-01
1.507000000000000000e+03 3.919390201568603516e+00 2.989705848693847656e+01 5.824476946145296097e-03 5.507433414459228516e-01 1.669703423976898193e-01 1.384001374244689941e-01
1.508000000000000000e+03 4.992779254913330078e+00 2.835536193847656250e+01 -8.824288845062255859e-03 5.168360471725463867e-01 1.524035185575485229e-01 1.635270118713378906e-01
1.509000000000000000e+03 5.757515430450439453e+00 2.686810111999511719e+01 -3.641903772950172424e-02 4.881370663642883301e-01 1.355154067277908325e-01 1.669055074453353882e-01
1.510000000000000000e+03 3.389195203781127930e+00 3.928520202636718750e+01 1.793060451745986938e-02 4.090028703212738037e-01 1.280800402164459229e-01 4.435529932379722595e-02
1.511000000000000000e+03 2.543411970138549805e+00 3.825634384155273438e+01 8.071086369454860687e-03 4.181232750415802002e-01 1.278583109378814697e-01 4.784155637025833130e-02
1.512000000000000000e+03 2.413331508636474609e+00 3.601333236694335938e+01 1.155655365437269211e-02 4.643584191799163818e-01 1.427744925022125244e-01 6.598278135061264038e-02
1.513000000000000000e+03 2.614044904708862305e+00 3.468585968017578125e+01 1.438767649233341217e-02 4.866425395011901855e-01 1.503090709447860718e-01 7.937548309564590454e-02
1.514000000000000000e+03 2.818390607833862305e+00 3.322604370117187500e+01 1.043569762259721756e-02 5.171323418617248535e-01 1.582704186439514160e-01 9.797677397727966309e-02
1.515000000000000000e+03 2.729705572128295898e+00 3.169464874267578125e+01 8.986213244497776031e-03 5.640808939933776855e-01 1.719201356172561646e-01 1.051897183060646057e-01
1.516000000000000000e+03 2.418058395385742188e+00 3.022440719604492188e+01 2.802399103529751301e-04 6.291552186012268066e-01 1.888306438922882080e-01 9.731371700763702393e-02
1.517000000000000000e+03 3.627509832382202148e+00 2.862022209167480469e+01 -5.882678087800741196e-03 5.972970724105834961e-01 1.774243265390396118e-01 1.290757507085800171e-01
1.518000000000000000e+03 1.298095941543579102e+00 4.012859344482421875e+01 -2.769946819171309471e-03 4.027659893035888672e-01 1.199988126754760742e-01 1.937826909124851227e-02
1.519000000000000000e+03 9.456485509872436523e-01 3.877204132080078125e+01 3.128895536065101624e-03 4.279201924800872803e-01 1.293147206306457520e-01 1.840905658900737762e-02
1.520000000000000000e+03 8.117895722389221191e-01 3.606692886352539062e+01 6.365645211189985275e-03 4.998703300952911377e-01 1.518707871437072754e-01 2.363936230540275574e-02
1.521000000000000000e+03 8.648759722709655762e-01 3.467905807495117188e+01 2.118823118507862091e-03 5.457077622413635254e-01 1.643479764461517334e-01 3.099920600652694702e-02
1.522000000000000000e+03 9.109612107276916504e-01 3.326965713500976562e+01 1.172028714790940285e-03 5.967339873313903809e-01 1.793718039989471436e-01 3.372930735349655151e-02
1.523000000000000000e+03 8.921046853065490723e-01 3.184591865539550781e+01 1.483720378018915653e-03 6.495839357376098633e-01 1.953202933073043823e-01 3.565599024295806885e-02
1.524000000000000000e+03 8.154553771018981934e-01 3.042144203186035156e+01 1.630419632419943810e-03 7.104613184928894043e-01 2.136275172233581543e-01 3.830974176526069641e-02
1.525000000000000000e+03 6.854958534240722656e-01 2.484430122375488281e+01 1.985688460990786552e-03 9.591252207756042480e-01 2.883332669734954834e-01 2.191388607025146484e-02
1.526000000000000000e+03 2.068461418151855469e+00 2.490645980834960938e+01 -1.698997430503368378e-02 8.205840587615966797e-01 2.410782277584075928e-01 6.364775449037551880e-02
1.527000000000000000e+03 3.855115652084350586e+00 2.281593704223632812e+01 -6.430113315582275391e-02 6.845228075981140137e-01 1.860665082931518555e-01 5.462844669818878174e-02
1.528000000000000000e+03 4.664736270904541016e+00 2.074980163574218750e+01 -1.285896599292755127e-01 6.431889533996582031e-01 1.543797850608825684e-01 -2.321532927453517914e-02
1.529000000000000000e+03 6.934003353118896484e+00 1.873613929748535156e+01 -3.237892389297485352e-01 5.553181767463684082e-01 6.945867836475372314e-02 -1.039804592728614807e-01
1.530000000000000000e+03 6.642331600189208984e+00 1.720684242248535156e+01 -3.764033913612365723e-01 6.043725013732910156e-01 6.839072704315185547e-02 -1.964190453290939331e-01
1.531000000000000000e+03 8.981245040893554688e+00 1.518570423126220703e+01 -5.879316926002502441e-01 5.643196702003479004e-01 -7.083608768880367279e-03 -1.949835121631622314e-01
1.532000000000000000e+03 1.123176383972167969e+01 1.342853355407714844e+01 -6.518402099609375000e-01 2.796683609485626221e-01 -1.116515547037124634e-01 -1.718038618564605713e-01
1.533000000000000000e+03 1.320988559722900391e+01 1.033937931060791016e+01 -4.819807708263397217e-01 -3.848069310188293457e-01 -2.600362896919250488e-01 -3.973860740661621094e-01
1.534000000000000000e+03 1.474328327178955078e+01 1.169799709320068359e+01 -6.775577664375305176e-01 -4.502601027488708496e-01 -3.383453488349914551e-01 -5.570202469825744629e-01
1.535000000000000000e+03 7.337398529052734375e-01 2.346477508544921875e+01 -8.798445574939250946e-03 9.959188699722290039e-01 2.961361110210418701e-01 1.444262918084859848e-02
1.536000000000000000e+03 8.369133472442626953e-01 2.206280517578125000e+01 -1.728293136693537235e-03 1.013877749443054199e+00 3.036448061466217041e-01 5.399182438850402832e-03
1.537000000000000000e+03 3.367171525955200195e+00 2.046678733825683594e+01 -8.870039135217666626e-02 7.322369217872619629e-01 1.930609494447708130e-01 -3.274914622306823730e-02
1.538000000000000000e+03 4.829016208648681641e+00 1.878244018554687500e+01 -2.034349292516708374e-01 6.418678760528564453e-01 1.315298825502395630e-01 -1.247035637497901917e-01
1.539000000000000000e+03 6.874408721923828125e+00 1.795051574707031250e+01 -3.660131692886352539e-01 5.724678039550781250e-01 6.193638592958450317e-02 -1.382112205028533936e-01
1.540000000000000000e+03 7.698407173156738281e+00 1.596744823455810547e+01 -5.068635940551757812e-01 6.131982207298278809e-01 3.190037980675697327e-02 -2.272361069917678833e-01
1.541000000000000000e+03 9.295192718505859375e+00 1.393712806701660156e+01 -6.442714333534240723e-01 5.805660486221313477e-01 -1.911160722374916077e-02 -2.043026536703109741e-01
1.542000000000000000e+03 1.121996688842773438e+01 1.071302890777587891e+01 -4.657817780971527100e-01 1.307511776685714722e-01 -1.005091741681098938e-01 -1.537672877311706543e-01
1.543000000000000000e+03 1.291917705535888672e+01 1.005425071716308594e+01 -4.172497689723968506e-01 -3.310557007789611816e-01 -2.244916409254074097e-01 -3.986535072326660156e-01
1.544000000000000000e+03 8.236270546913146973e-01 2.062365150451660156e+01 -9.304542094469070435e-03 1.015115261077880859e+00 3.017432093620300293e-01 -3.727156901732087135e-03
1.545000000000000000e+03 3.461115121841430664e+00 1.948602104187011719e+01 -1.003759726881980896e-01 7.072386741638183594e-01 1.820588111877441406e-01 -8.102764934301376343e-02
1.546000000000000000e+03 4.973817348480224609e+00 1.796699714660644531e+01 -2.443551868200302124e-01 6.419276595115661621e-01 1.192717328667640686e-01 -1.783728301525115967e-01
1.547000000000000000e+03 6.736805915832519531e+00 1.548829841613769531e+01 -4.843530058860778809e-01 6.746764779090881348e-01 5.709704011678695679e-02 -3.044711947441101074e-01
1.548000000000000000e+03 7.748441696166992188e+00 1.386870384216308594e+01 -6.149225831031799316e-01 7.503533363342285156e-01 4.062922298908233643e-02 -3.071781694889068604e-01
1.549000000000000000e+03 1.001436233520507812e+01 1.176824092864990234e+01 -5.972906947135925293e-01 5.165731310844421387e-01 -2.421526610851287842e-02 -1.386862546205520630e-01
1.550000000000000000e+03 1.225999736785888672e+01 1.015617370605468750e+01 -4.066753387451171875e-01 -1.812527477741241455e-01 -1.763784289360046387e-01 -3.085190057754516602e-01
1.551000000000000000e+03 7.450391650199890137e-01 1.920025062561035156e+01 -1.200048997998237610e-02 9.889895915985107422e-01 2.930967211723327637e-01 -2.413252368569374084e-02
1.552000000000000000e+03 2.153335332870483398e+00 1.928942680358886719e+01 -4.658939316868782043e-02 8.395839929580688477e-01 2.378983795642852783e-01 -6.684487313032150269e-02
1.553000000000000000e+03 3.633339405059814453e+00 1.849474334716796875e+01 -1.442660987377166748e-01 6.951488256454467773e-01 1.652648299932479858e-01 -1.470740735530853271e-01
1.554000000000000000e+03 4.645144462585449219e+00 1.562701797485351562e+01 -3.108049631118774414e-01 6.567950844764709473e-01 1.037970483303070068e-01 -3.714497387409210205e-01
1.555000000000000000e+03 5.940055847167968750e+00 1.402866458892822266e+01 -5.116019845008850098e-01 7.666811943054199219e-01 7.652376592159271240e-02 -4.608067274093627930e-01
1.556000000000000000e+03 7.975955486297607422e+00 1.300987243652343750e+01 -6.478977799415588379e-01 8.074344992637634277e-01 4.786101728677749634e-02 -3.041837811470031738e-01
1.557000000000000000e+03 1.053070640563964844e+01 1.038341140747070312e+01 -4.520001709461212158e-01 3.151309788227081299e-01 -4.106075316667556763e-02 -9.054981917142868042e-02
1.558000000000000000e+03 2.112057685852050781e+00 1.597483158111572266e+01 -8.169401437044143677e-02 6.564484834671020508e-01 1.724263280630111694e-01 -2.372331321239471436e-01
1.559000000000000000e+03 3.493266820907592773e+00 1.326755428314208984e+01 -2.951968312263488770e-01 5.542232394218444824e-01 7.770792394876480103e-02 -6.170893907546997070e-01
1.560000000000000000e+03 5.857904911041259766e+00 1.182318305969238281e+01 -5.908252000808715820e-01 1.008234024047851562e+00 1.252226680517196655e-01 -6.470993757247924805e-01
1.561000000000000000e+03 9.943530082702636719e+00 8.783159255981445312e+00 -2.560248076915740967e-01 4.343546330928802490e-01 5.349894613027572632e-02 6.335487961769104004e-02
1.562000000000000000e+03 9.970671653747558594e+00 6.254281997680664062e+00 7.985414564609527588e-02 -4.314675331115722656e-01 -1.054840162396430969e-01 -4.224957898259162903e-02
1.563000000000000000e+03 1.131234073638916016e+01 8.225745201110839844e+00 -1.655010730028152466e-01 -2.909342944622039795e-01 -1.369306147098541260e-01 -2.592715620994567871e-01
1.564000000000000000e+03 7.635767459869384766e-01 1.631524085998535156e+01 -4.454058595001697540e-03 7.956911325454711914e-01 2.373711168766021729e-01 -8.255007863044738770e-02
1.565000000000000000e+03 1.749748468399047852e+00 1.472964096069335938e+01 -6.395489722490310669e-02 5.352020263671875000e-01 1.413741260766983032e-01 -2.907458543777465820e-01
1.566000000000000000e+03 4.250438690185546875e+00 1.237330245971679688e+01 -3.977133929729461670e-01 6.645619869232177734e-01 8.005458116531372070e-02 -7.254162430763244629e-01
1.567000000000000000e+03 5.936297416687011719e+00 1.117915725708007812e+01 -6.199938654899597168e-01 1.124853014945983887e+00 1.514577269554138184e-01 -6.787138581275939941e-01
1.568000000000000000e+03 6.009272336959838867e-01 1.489473915100097656e+01 -1.238854322582483292e-02 6.003165245056152344e-01 1.763783991336822510e-01 -1.001875698566436768e-01
1.569000000000000000e+03 5.304176807403564453e-01 1.352229595184326172e+01 -5.776391830295324326e-03 3.130530416965484619e-01 9.218299388885498047e-02 -1.241244152188301086e-01
1.570000000000000000e+03 2.570149898529052734e+00 1.340672969818115234e+01 -1.661705523729324341e-01 4.130263030529022217e-01 7.405672222375869751e-02 -5.323279500007629395e-01
1.571000000000000000e+03 4.287563323974609375e+00 1.159216022491455078e+01 -4.214808344841003418e-01 7.230761647224426270e-01 9.047859162092208862e-02 -8.437553644180297852e-01
1.572000000000000000e+03 4.778639316558837891e+00 8.658610343933105469e+00 -1.434448212385177612e-01 1.128295779228210449e+00 2.954553067684173584e-01 -1.235598683357238770e+00
1.573000000000000000e+03 6.370472908020019531e-01 1.078816795349121094e+01 -5.955248326063156128e-02 -6.420319676399230957e-01 -2.104753404855728149e-01 -2.634074687957763672e-01
1.574000000000000000e+03 5.260408520698547363e-01 1.216266345977783203e+01 -1.668269000947475433e-02 -7.522349059581756592e-02 -2.757185325026512146e-02 -1.559499204158782959e-01
1.575000000000000000e+03 2.534010887145996094e+00 1.141460132598876953e+01 -2.021503746509552002e-01 2.444754540920257568e-01 1.269752439111471176e-02 -7.499358654022216797e-01
1.576000000000000000e+03 3.662229061126708984e+00 8.664999008178710938e+00 -1.311325840651988983e-02 4.162738025188446045e-01 1.209481582045555115e-01 -1.181300640106201172e+00
1.577000000000000000e+03 1.690279722213745117e+00 1.114793109893798828e+01 -9.417509287595748901e-02 -2.143173664808273315e-01 -9.254773706197738647e-02 -6.514306068420410156e-01
1.578000000000000000e+03 3.102311611175537109e+00 8.020818710327148438e+00 2.321635037660598755e-01 -1.547968834638595581e-01 2.320998534560203552e-02 -1.034006237983703613e+00
1.579000000000000000e+03 3.788053512573242188e+00 7.608850002288818359e+00 4.678420126438140869e-01 2.684455513954162598e-01 2.208862751722335815e-01 -1.196093916893005371e+00
1.580000000000000000e+03 7.279080152511596680e-01 9.345942497253417969e+00 -3.749726712703704834e-02 -1.250438928604125977e+00 -3.863808810710906982e-01 -3.539930284023284912e-01
1.581000000000000000e+03 2.350725889205932617e+00 6.400751590728759766e+00 5.999966859817504883e-01 -1.009782314300537109e+00 -1.229356974363327026e-01 -4.448661506175994873e-01
1.582000000000000000e+03 6.187026023864746094e+00 4.858853816986083984e+00 5.335958003997802734e+00 1.326634526252746582e+00 1.998777747154235840e+00 -1.612068057060241699e+00
1.583000000000000000e+03 6.300345063209533691e-01 7.878694534301757812e+00 5.599190294742584229e-02 -1.921855926513671875e+00 -5.597591996192932129e-01 -3.319405019283294678e-01
1.584000000000000000e+03 1.741260290145874023e+00 7.663699626922607422e+00 1.837217807769775391e-01 -1.164449453353881836e+00 -2.942183017730712891e-01 -6.541398167610168457e-01
1.585000000000000000e+03 2.985808610916137695e+00 5.644653797149658203e+00 1.153278946876525879e+00 -9.016768336296081543e-01 7.548064738512039185e-02 -2.517504692077636719e-01
1.586000000000000000e+03 4.533195972442626953e+00 3.456014156341552734e+00 1.997379660606384277e+00 -7.474807500839233398e-01 3.749696910381317139e-01 1.546818733215332031e+00
1.587000000000000000e+03 6.787425041198730469e+00 3.503128767013549805e+00 4.934815406799316406e+00 2.138752460479736328e+00 2.122070312500000000e+00 1.692253947257995605e+00
1.588000000000000000e+03 5.106884837150573730e-01 6.466180324554443359e+00 8.841535449028015137e-02 -2.542942047119140625e+00 -7.363579869270324707e-01 -1.422359794378280640e-01
1.589000000000000000e+03 5.156165361404418945e-01 5.049763679504394531e+00 1.021116003394126892e-01 -2.525911092758178711e+00 -7.271398305892944336e-01 1.369687467813491821e-01
1.590000000000000000e+03 2.997209548950195312e+00 4.288379192352294922e+00 1.091601014137268066e+00 -1.154035687446594238e+00 -1.873038522899150848e-02 7.473202943801879883e-01
1.591000000000000000e+03 4.012049198150634766e+00 1.805511236190795898e+00 -9.823213219642639160e-01 -4.087208211421966553e-01 -4.173126518726348877e-01 2.032730340957641602e+00
1.592000000000000000e+03 4.728464603424072266e+00 1.769637823104858398e+00 -1.447769045829772949e+00 -2.247739881277084351e-01 -5.017629265785217285e-01 2.237846374511718750e+00
1.593000000000000000e+03 5.410628795623779297e+00 1.714725375175476074e+00 -1.823073267936706543e+00 -1.996751278638839722e-01 -6.068245172500610352e-01 2.211396694183349609e+00
1.594000000000000000e+03 5.662166595458984375e+00 2.134955883026123047e+00 -5.098581314086914062e-01 1.206423640251159668e-01 -1.167647317051887512e-01 2.385427474975585938e+00
1.595000000000000000e+03 6.619855880737304688e+00 3.623779058456420898e+00 5.302544593811035156e+00 1.722258448600769043e+00 2.107440948486328125e+00 1.565009832382202148e+00
1.596000000000000000e+03 7.224301815032958984e+00 2.700088739395141602e+00 1.832575321197509766e+00 2.566104412078857422e+00 1.319603919982910156e+00 1.474132776260375977e+00
1.597000000000000000e+03 9.674676895141601562e+00 1.773704528808593750e+00 -1.316886425018310547e+00 5.239503979682922363e-01 -2.378808110952377319e-01 -1.313435196876525879e+00
1.598000000000000000e+03 9.775670051574707031e+00 2.957566499710083008e+00 4.892839431762695312e+00 7.175400853157043457e-01 1.683113932609558105e+00 -1.732647180557250977e+00
1.599000000000000000e+03 6.781783103942871094e+00 1.787072300910949707e+00 -2.002577304840087891e+00 7.888271808624267578e-01 -3.641250729560852051e-01 1.905561685562133789e+00
1.600000000000000000e+03 7.861972332000732422e+00 2.659280300140380859e+00 1.624913334846496582e+00 2.542559623718261719e+00 1.250241875648498535e+00 2.205074876546859741e-01
1.601000000000000000e+03 4.750832915306091309e-01 3.601386070251464844e+00 2.909062430262565613e-02 -1.950058460235595703e+00 -5.762903690338134766e-01 3.062863647937774658e-01
1.602000000000000000e+03 1.490967750549316406e+00 5.245774269104003906e+00 4.113026857376098633e-01 -1.754416942596435547e+00 -4.029342532157897949e-01 1.926743090152740479e-01
1.603000000000000000e+03 2.584658384323120117e+00 1.922309517860412598e+00 -5.218033194541931152e-01 -5.411601662635803223e-01 -3.188890516757965088e-01 1.455680847167968750e+00
1.604000000000000000e+03 2.101794242858886719e+00 2.978049516677856445e+00 2.378127872943878174e-01 -1.046770691871643066e+00 -2.426873594522476196e-01 1.221031546592712402e+00
1.605000000000000000e+03 3.801324963569641113e-01 2.189521312713623047e+00 -5.116261914372444153e-02 -9.230578541755676270e-01 -2.922661304473876953e-01 2.722583115100860596e-01
1.606000000000000000e+03 1.131105303764343262e+00 2.120173215866088867e+00 -1.748535037040710449e-01 -8.487450480461120605e-01 -3.070795536041259766e-01 7.543951869010925293e-01
1.607000000000000000e+03 1.187006378173828125e+01 1.711407661437988281e+00 -1.088483452796936035e+00 5.843412280082702637e-01 -1.512426584959030151e-01 -1.770644545555114746e+00
1.608000000000000000e+03 1.327111816406250000e+01 2.402081489562988281e+00 6.625388860702514648e-01 7.755991816520690918e-01 4.314414262771606445e-01 -1.598724603652954102e+00
1.609000000000000000e+03 1.487670135498046875e+01 1.889312744140625000e+00 -2.034843444824218750e+00 -4.381766319274902344e+00 -1.924983024597167969e+00 -2.341114759445190430e+00
1.610000000000000000e+03 1.498523330688476562e+01 2.817718029022216797e+00 3.370868861675262451e-01 -2.434906721115112305e+00 -6.293459534645080566e-01 -2.605034828186035156e+00
1.611000000000000000e+03 2.394452857971191406e+01 1.138271141052246094e+01 6.079650297760963440e-02 3.564292192459106445e-01 1.251677125692367554e-01 1.428353488445281982e-01
1.612000000000000000e+03 2.295510864257812500e+01 1.213722896575927734e+01 4.012256860733032227e-01 3.196314275264739990e-01 2.162571400403976440e-01 3.587033152580261230e-01
1.613000000000000000e+03 1.944731140136718750e+01 9.382775306701660156e+00 2.142487913370132446e-01 1.380931586027145386e-01 1.057025864720344543e-01 1.591794937849044800e-01
1.614000000000000000e+03 1.693818092346191406e+01 7.526438713073730469e+00 3.026375472545623779e-01 1.697303801774978638e-01 1.417103856801986694e-01 1.713808029890060425e-01
1.615000000000000000e+03 1.778185653686523438e+01 6.014838218688964844e+00 -1.866354793310165405e-01 -6.097912788391113281e-02 -7.428438216447830200e-02 -7.304552197456359863e-02
1.616000000000000000e+03 1.782941055297851562e+01 8.324199676513671875e+00 2.038720399141311646e-01 9.991242736577987671e-02 9.113533794879913330e-02 1.898932158946990967e-01
1.617000000000000000e+03 7.180985260009765625e+01 1.081523323059082031e+01 1.731780886650085449e+00 1.632863044738769531e+00 1.009393215179443359e+00 9.265047311782836914e-02
1.618000000000000000e+03 6.730794525146484375e+01 9.410056114196777344e+00 1.701872944831848145e-01 1.330317497253417969e+01 4.042008876800537109e+00 -7.664917111396789551e-01
1.619000000000000000e+03 6.529068756103515625e+01 6.430409431457519531e+00 -6.347959488630294800e-02 8.825057029724121094e+00 2.628473281860351562e+00 9.539462327957153320e-01
1.620000000000000000e+03 6.508021545410156250e+01 4.805407524108886719e+00 1.787699460983276367e-01 6.914510250091552734e+00 2.127984046936035156e+00 1.001501798629760742e+00
1.621000000000000000e+03 7.780348205566406250e+01 5.726511955261230469e+00 1.410799741744995117e+00 1.013084983825683594e+01 3.462494850158691406e+00 -2.330978155136108398e+00
1.622000000000000000e+03 7.758422088623046875e+01 4.366567611694335938e+00 3.141547366976737976e-02 1.104388904571533203e+01 3.322591543197631836e+00 -2.423174381256103516e+00
1.623000000000000000e+03 7.701997375488281250e+01 3.157294750213623047e+00 -6.573625802993774414e-01 1.108307552337646484e+01 3.127713918685913086e+00 -2.280951976776123047e+00
1.624000000000000000e+03 4.235983657836914062e+01 9.552928805351257324e-01 5.655393004417419434e-01 1.672809958457946777e+00 6.715047955513000488e-01 1.318848133087158203e+00
1.625000000000000000e+03 4.345272827148437500e+01 -1.325034976005554199e+00 2.843922376632690430e-01 5.515078544616699219e+00 1.739841222763061523e+00 1.559131622314453125e+00
1.626000000000000000e+03 4.447655105590820312e+01 -1.942925214767456055e+00 -7.143276929855346680e-01 8.404011726379394531e+00 2.306905269622802734e+00 2.650460958480834961e+00
1.627000000000000000e+03 4.397972488403320312e+01 1.237734556198120117e+00 6.587740778923034668e-01 4.069806575775146484e+00 1.418574094772338867e+00 2.353370904922485352e+00
1.628000000000000000e+03 4.652531051635742188e+01 -3.158307820558547974e-02 1.311962604522705078e+00 3.338889122009277344e+00 1.395255446434020996e+00 4.682814598083496094e+00
1.629000000000000000e+03 4.550299072265625000e+01 -2.558596134185791016e+00 8.427993059158325195e-01 7.506452083587646484e+00 2.504775524139404297e+00 5.305628776550292969e+00
1.630000000000000000e+03 5.052791595458984375e+01 -8.333933353424072266e-01 2.074837684631347656e-01 4.169999122619628906e+00 1.313244819641113281e+00 7.667846679687500000e-01
1.631000000000000000e+03 5.177744293212890625e+01 1.253775000572204590e+00 2.334963798522949219e+00 8.683336257934570312e+00 3.305490016937255859e+00 1.582196950912475586e-01
1.632000000000000000e+03 5.967275619506835938e+01 6.218503713607788086e-01 -3.621131658554077148e+00 2.060302257537841797e+00 -4.682487845420837402e-01 5.870057269930839539e-02
1.633000000000000000e+03 6.145771026611328125e+01 -5.432731509208679199e-01 -2.513270378112792969e+00 5.381252288818359375e+00 8.603946566581726074e-01 1.705471992492675781e+00
1.634000000000000000e+03 6.519254302978515625e+01 -1.684888362884521484e+00 -4.391376972198486328e+00 1.123239696025848389e-01 -1.283715844154357910e+00 4.554020881652832031e+00
1.635000000000000000e+03 6.393606948852539062e+01 2.762293577194213867e+00 -9.595036506652832031e-01 4.874614238739013672e+00 1.174533247947692871e+00 2.070175409317016602e+00
1.636000000000000000e+03 6.374526977539062500e+01 5.303451418876647949e-01 -2.717065334320068359e+00 5.962323188781738281e+00 9.735773801803588867e-01 3.480680942535400391e+00
1.637000000000000000e+03 6.879418182373046875e+01 1.402007699012756348e+00 -9.704927802085876465e-01 8.745871543884277344e+00 2.332613468170166016e+00 -8.426068723201751709e-02
1.638000000000000000e+03 6.819641113281250000e+01 -8.701914548873901367e-01 -3.134444475173950195e+00 4.972252368927001953e+00 5.513424277305603027e-01 -7.905862927436828613e-01
1.639000000000000000e+03 6.905923461914062500e+01 -1.852154731750488281e+00 -3.307202339172363281e+00 4.648924350738525391e+00 4.025166630744934082e-01 -1.794936537742614746e+00
1.640000000000000000e+03 7.395742034912109375e+01 1.104017734527587891e+00 -6.069287776947021484e+00 -8.299243450164794922e-01 -2.069763660430908203e+00 -1.796832680702209473e+00
1.641000000000000000e+03 7.379813385009765625e+01 -6.429752707481384277e-01 -1.353797316551208496e+00 1.804293870925903320e+00 1.351489871740341187e-01 -6.068645119667053223e-01
1.642000000000000000e+03 7.577102661132812500e+01 -1.692966103553771973e+00 -7.787189483642578125e-01 6.354649066925048828e+00 1.672778964042663574e+00 1.133077502250671387e+00
1.643000000000000000e+03 7.785932159423828125e+01 -5.443431854248046875e+00 -5.440220236778259277e-02 9.234704971313476562e+00 2.754090785980224609e+00 1.382241725921630859e+00
1.644000000000000000e+03 7.228884124755859375e+01 -1.429491639137268066e+00 -1.408330082893371582e+00 3.906023740768432617e+00 7.493081092834472656e-01 -3.007207870483398438e+00
1.645000000000000000e+03 7.438624572753906250e+01 -1.648045659065246582e+00 -8.733781576156616211e-01 4.325556755065917969e+00 1.035653591156005859e+00 3.569404184818267822e-01
1.646000000000000000e+03 7.576868438720703125e+01 -4.426937580108642578e+00 -2.020505368709564209e-01 7.712179183959960938e+00 2.253038644790649414e+00 1.245925307273864746e+00
1.647000000000000000e+03 7.785677337646484375e+01 -6.919321060180664062e+00 1.774172633886337280e-01 8.704296112060546875e+00 2.664514064788818359e+00 1.263243794441223145e+00
1.648000000000000000e+03 7.928589630126953125e+01 -6.948780059814453125e+00 -4.701865091919898987e-02 9.038216590881347656e+00 2.697359561920166016e+00 5.550608634948730469e-01
1.649000000000000000e+03 7.660587310791015625e+01 1.442733287811279297e+00 -2.838775396347045898e+00 8.902087211608886719e+00 1.818993687629699707e+00 -1.018815279006958008e+00
1.650000000000000000e+03 7.708956146240234375e+01 3.949063420295715332e-01 -1.947394967079162598e+00 9.527344703674316406e+00 2.273984909057617188e+00 2.079833894968032837e-01
1.651000000000000000e+03 7.615323638916015625e+01 -2.533831357955932617e+00 -5.855666995048522949e-01 7.588397502899169922e+00 2.100849151611328125e+00 1.154373526573181152e+00
1.652000000000000000e+03 7.745146942138671875e+01 -6.520429849624633789e-01 -7.478681802749633789e-01 9.441530227661132812e+00 2.608098745346069336e+00 5.349941253662109375e-01
1.653000000000000000e+03 7.765896606445312500e+01 -1.636868238449096680e+00 -4.886215627193450928e-01 9.948317527770996094e+00 2.837908983230590820e+00 1.116578817367553711e+00
1.654000000000000000e+03 7.838442993164062500e+01 -2.776657342910766602e+00 -9.821271896362304688e-02 1.063826847076416016e+01 3.162016868591308594e+00 1.106577754020690918e+00
1.655000000000000000e+03 7.693339538574218750e+01 -1.964900612831115723e+00 -3.956070542335510254e-01 8.445537567138671875e+00 2.414979219436645508e+00 1.154322624206542969e+00
1.656000000000000000e+03 7.463652801513671875e+01 7.888468354940414429e-02 -1.917647123336791992e+00 3.221464157104492188e+00 3.911451101303100586e-01 1.005302309989929199e+00
1.657000000000000000e+03 7.601029205322265625e+01 2.469286918640136719e+00 -1.633117318153381348e+00 8.304397583007812500e+00 2.001384019851684570e+00 -2.254502475261688232e-01
1.658000000000000000e+03 7.610484313964843750e+01 -1.991880536079406738e-01 -1.539769411087036133e+00 6.858621597290039062e+00 1.595655560493469238e+00 8.154920339584350586e-01
1.659000000000000000e+03 7.843412780761718750e+01 -3.251180350780487061e-01 -4.727229773998260498e-01 1.160431098937988281e+01 3.339476346969604492e+00 4.517991840839385986e-01
1.660000000000000000e+03 6.644867706298828125e+01 4.651346206665039062e+00 1.123671054840087891e+00 8.051732063293457031e+00 2.752620935440063477e+00 -1.374970823526382446e-01
1.661000000000000000e+03 6.436776733398437500e+01 5.555567741394042969e+00 3.086599707603454590e-01 5.062605381011962891e+00 1.611379623413085938e+00 1.526646375656127930e+00
1.662000000000000000e+03 6.354705429077148438e+01 6.366593837738037109e+00 9.185354709625244141e-01 3.590610265731811523e+00 1.352743744850158691e+00 1.281448960304260254e+00
1.663000000000000000e+03 6.359667968750000000e+01 4.571479797363281250e+00 9.673715382814407349e-02 3.932145595550537109e+00 1.208664774894714355e+00 1.138913750648498535e+00
1.664000000000000000e+03 6.794139099121093750e+01 4.972833633422851562e+00 1.875142693519592285e+00 1.041821002960205078e+01 3.688005924224853516e+00 -1.997826576232910156e+00
1.665000000000000000e+03 6.688853454589843750e+01 5.521306514739990234e+00 4.190815985202789307e-01 9.246567726135253906e+00 2.899694919586181641e+00 -9.299390316009521484e-01
1.666000000000000000e+03 7.243061828613281250e+01 -2.304403781890869141e+00 -1.258196353912353516e+00 4.070711612701416016e+00 8.437545895576477051e-01 -2.093871355056762695e+00
1.667000000000000000e+03 7.465442657470703125e+01 -5.299529075622558594e+00 -1.979332268238067627e-01 7.117355823516845703e+00 2.075826644897460938e+00 8.249870538711547852e-01
1.668000000000000000e+03 7.552867889404296875e+01 -6.198221206665039062e+00 1.675622537732124329e-02 8.074568748474121094e+00 2.427397489547729492e+00 1.306308865547180176e+00
1.669000000000000000e+03 7.788516998291015625e+01 -8.383291244506835938e+00 1.042667925357818604e-01 8.345492362976074219e+00 2.534927606582641602e+00 1.129929900169372559e+00
1.670000000000000000e+03 7.024670410156250000e+01 -1.410276770591735840e+00 -2.562576532363891602e+00 5.602750301361083984e+00 9.120520949363708496e-01 -2.765098094940185547e+00
1.671000000000000000e+03 6.970309448242187500e+01 -2.924609899520874023e+00 -3.171118021011352539e+00 4.385334014892578125e+00 3.642647564411163330e-01 -1.715619564056396484e+00
1.672000000000000000e+03 7.167855834960937500e+01 -4.234822750091552734e+00 -1.453171610832214355e+00 5.244818210601806641e+00 1.137493968009948730e+00 -1.159346818923950195e+00
1.673000000000000000e+03 7.358123779296875000e+01 -5.974360466003417969e+00 -3.894214332103729248e-01 7.407124996185302734e+00 2.105311155319213867e+00 2.613250613212585449e-01
1.674000000000000000e+03 7.533393096923828125e+01 -8.532629013061523438e+00 6.542518138885498047e-01 8.615112304687500000e+00 2.780809164047241211e+00 1.292653322219848633e+00
1.675000000000000000e+03 7.789840698242187500e+01 -9.809791564941406250e+00 3.493967950344085693e-01 7.986371517181396484e+00 2.500730514526367188e+00 8.697270154953002930e-01
1.676000000000000000e+03 6.173154067993164062e+01 -1.949554085731506348e+00 -1.319602608680725098e+00 7.235442638397216797e+00 1.774751901626586914e+00 3.970597982406616211e-01
1.677000000000000000e+03 5.895380401611328125e+01 -1.952331781387329102e+00 6.944000720977783203e-02 3.691173315048217773e+00 1.128183960914611816e+00 -1.618446469306945801e+00
1.678000000000000000e+03 5.750440216064453125e+01 -3.014829635620117188e+00 3.175864517688751221e-01 4.556293487548828125e+00 1.462164044380187988e+00 -3.298410892486572266e+00
1.679000000000000000e+03 5.641008377075195312e+01 -4.336671829223632812e+00 -7.404141426086425781e-01 5.852133750915527344e+00 1.533515930175781250e+00 -2.503818511962890625e+00
1.680000000000000000e+03 5.846068191528320312e+01 -5.592366695404052734e+00 7.781043648719787598e-01 6.388717174530029297e+00 2.150046586990356445e+00 -1.215907573699951172e+00
1.681000000000000000e+03 5.839334106445312500e+01 -6.675380706787109375e+00 8.071531057357788086e-01 7.147752285003662109e+00 2.386471509933471680e+00 -1.193591579794883728e-01
1.682000000000000000e+03 6.007052612304687500e+01 -7.156499385833740234e+00 1.227213740348815918e+00 8.128978729248046875e+00 2.806857824325561523e+00 6.181444525718688965e-01
1.683000000000000000e+03 5.536777114868164062e+01 -4.652648448944091797e+00 -1.242182374000549316e+00 6.270742416381835938e+00 1.508567929267883301e+00 -2.616065502166748047e+00
1.684000000000000000e+03 5.498092651367187500e+01 -3.503019571304321289e+00 -2.388384819030761719e+00 6.366575717926025391e+00 1.193457245826721191e+00 -3.234940290451049805e+00
1.685000000000000000e+03 5.111214828491210938e+01 -2.499004602432250977e+00 -3.022036314010620117e+00 3.965341329574584961e+00 2.829915285110473633e-01 -9.357391595840454102e-01
1.686000000000000000e+03 5.004145050048828125e+01 -1.849443912506103516e+00 -1.520039796829223633e+00 1.860335469245910645e+00 1.020887196063995361e-01 8.839101195335388184e-01
1.687000000000000000e+03 4.903261184692382812e+01 -1.234414458274841309e+00 2.357799857854843140e-01 2.020974397659301758e+00 6.770263314247131348e-01 2.544169187545776367e+00
1.688000000000000000e+03 4.228276824951171875e+01 -3.297518014907836914e+00 1.718675971031188965e+00 4.744306564331054688e+00 1.938894748687744141e+00 -2.923932373523712158e-01
1.689000000000000000e+03 4.452790069580078125e+01 -5.673968315124511719e+00 1.555085182189941406e+00 1.595901966094970703e+01 5.254231452941894531e+00 8.524251580238342285e-01
1.690000000000000000e+03 4.338034057617187500e+01 -5.530019283294677734e+00 2.581178903579711914e+00 8.216126441955566406e+00 3.239191532135009766e+00 7.617148160934448242e-01
1.691000000000000000e+03 4.164737319946289062e+01 -6.141265392303466797e+00 1.340080142021179199e+00 4.087066650390625000e+00 1.628144025802612305e+00 7.378000020980834961e-01
1.692000000000000000e+03 4.286902999877929688e+01 -1.037075519561767578e+01 -1.546595096588134766e+00 6.370970249176025391e+00 1.447312593460083008e+00 1.885832786560058594e+00
1.693000000000000000e+03 4.277626419067382812e+01 -1.149616718292236328e+01 -1.012331128120422363e+00 6.201295375823974609e+00 1.556689262390136719e+00 1.806802630424499512e+00
1.694000000000000000e+03 4.250999832153320312e+01 -1.275778102874755859e+01 -4.148345887660980225e-01 6.375943660736083984e+00 1.788332700729370117e+00 1.685029149055480957e+00
1.695000000000000000e+03 4.295843124389648438e+01 -1.549008178710937500e+01 1.340905070304870605e+00 4.953732013702392578e+00 1.888391017913818359e+00 4.173452854156494141e-01
1.696000000000000000e+03 4.404244995117187500e+01 -1.518339252471923828e+01 3.999865055084228516e-01 4.164329051971435547e+00 1.369294762611389160e+00 3.060747981071472168e-01
1.697000000000000000e+03 4.466629028320312500e+01 -1.635899925231933594e+01 1.061699166893959045e-01 3.534373998641967773e+00 1.092163205146789551e+00 -2.113047987222671509e-01
1.698000000000000000e+03 4.057250595092773438e+01 -1.073178291320800781e+00 1.097370862960815430e+00 7.839271426200866699e-01 5.643894076347351074e-01 -3.510835468769073486e-01
1.699000000000000000e+03 4.283118820190429688e+01 -2.326430320739746094e+00 8.756689429283142090e-01 5.554625988006591797e+00 1.929088473320007324e+00 7.106162309646606445e-01
1.700000000000000000e+03 3.885216903686523438e+01 -2.233622789382934570e+00 1.335623502731323242e+00 -2.017389535903930664e-01 3.401653468608856201e-01 -6.860142946243286133e-01
1.701000000000000000e+03 4.008629608154296875e+01 -2.435912847518920898e+00 1.788918375968933105e+00 1.051509380340576172e+00 8.521283268928527832e-01 -8.699647784233093262e-01
1.702000000000000000e+03 3.974898147583007812e+01 -4.698097229003906250e+00 1.398588180541992188e+00 4.625478088855743408e-01 5.583407878875732422e-01 -2.547479271888732910e-01
1.703000000000000000e+03 4.006218338012695312e+01 -5.528163909912109375e+00 1.139085888862609863e+00 1.390735507011413574e+00 7.589464187622070312e-01 2.069089412689208984e-01
1.704000000000000000e+03 3.599876785278320312e+01 -3.685498714447021484e+00 -3.673000633716583252e-01 -1.496501922607421875e+00 -5.591406226158142090e-01 6.437798142433166504e-01
1.705000000000000000e+03 3.662104415893554688e+01 -1.859463751316070557e-01 1.554789423942565918e+00 -1.171591639518737793e+00 1.149593144655227661e-01 -3.262289166450500488e-01
1.706000000000000000e+03 3.570017623901367188e+01 5.298743247985839844e-01 1.324276328086853027e+00 -5.714503526687622070e-01 2.258477956056594849e-01 -1.586951687932014465e-02
1.707000000000000000e+03 3.601610946655273438e+01 1.520150899887084961e+00 8.210420012474060059e-01 -3.049708306789398193e-01 1.548213362693786621e-01 1.167731545865535736e-02
1.708000000000000000e+03 3.554419708251953125e+01 2.539222717285156250e+00 2.661405503749847412e-01 -1.271898299455642700e-01 4.168521240353584290e-02 3.232291936874389648e-01
1.709000000000000000e+03 3.296199417114257812e+01 2.850404262542724609e+00 2.469843924045562744e-01 6.112020015716552734e-01 2.574559152126312256e-01 6.310493350028991699e-01
1.710000000000000000e+03 3.721198654174804688e+01 -3.836187601089477539e+00 3.331065773963928223e-01 -1.736209273338317871e+00 -4.209308028221130371e-01 2.764490246772766113e-01
1.711000000000000000e+03 4.256958389282226562e+01 -4.770257472991943359e+00 2.653647184371948242e+00 6.264428615570068359e+00 2.675422668457031250e+00 6.496106386184692383e-01
1.712000000000000000e+03 5.886263656616210938e+01 -3.201217651367187500e+00 5.436555743217468262e-01 4.654911518096923828e+00 1.559570193290710449e+00 -1.555175185203552246e+00
1.713000000000000000e+03 6.003852081298828125e+01 -4.866530418395996094e+00 1.472172498703002930e+00 6.670311450958251953e+00 2.442745208740234375e+00 -2.634721696376800537e-01
1.714000000000000000e+03 6.984680938720703125e+01 -4.496316909790039062e+00 -1.531860470771789551e+00 3.272400140762329102e+00 5.221619009971618652e-01 -1.210183143615722656e+00
1.715000000000000000e+03 7.182465362548828125e+01 -6.053658962249755859e+00 -6.020898222923278809e-01 6.329996109008789062e+00 1.718371868133544922e+00 -9.187386035919189453e-01
1.716000000000000000e+03 7.458057403564453125e+01 -8.132507324218750000e+00 6.900412440299987793e-01 8.645353317260742188e+00 2.800618410110473633e+00 9.166878461837768555e-01
1.717000000000000000e+03 7.591628265380859375e+01 -9.239779472351074219e+00 6.220937967300415039e-01 8.529423713684082031e+00 2.745455265045166016e+00 1.206201672554016113e+00
1.718000000000000000e+03 7.777894592285156250e+01 -1.268118572235107422e+01 5.465109944343566895e-01 7.527684688568115234e+00 2.422258615493774414e+00 9.561782330274581909e-02
1.719000000000000000e+03 7.380506134033203125e+01 -4.338039398193359375e+00 -5.142124295234680176e-01 6.327109336853027344e+00 1.743869066238403320e+00 1.000597402453422546e-01
1.720000000000000000e+03 7.679254913330078125e+01 -3.480444908142089844e+00 -1.140090301632881165e-01 8.327224731445312500e+00 2.463964700698852539e+00 1.454888820648193359e+00
1.721000000000000000e+03 4.065116882324218750e+01 -4.869009494781494141e+00 1.656666755676269531e+00 2.050142526626586914e+00 1.112042784690856934e+00 1.812800616025924683e-01
1.722000000000000000e+03 4.123222351074218750e+01 -2.806413412094116211e+00 1.667434692382812500e+00 2.454010009765625000e+00 1.236433386802673340e+00 -2.137327790260314941e-01
1.723000000000000000e+03 6.903773498535156250e+01 -5.347757339477539062e+00 -1.042319387197494507e-01 1.705508828163146973e+00 4.803830683231353760e-01 -5.085245966911315918e-01
1.724000000000000000e+03 7.656034088134765625e+01 -6.745479583740234375e+00 1.596236377954483032e-01 8.555995941162109375e+00 2.614685773849487305e+00 1.583800673484802246e+00
1.725000000000000000e+03 7.091571807861328125e+01 -7.199002742767333984e+00 1.378947854042053223e+00 5.540175914764404297e+00 2.075737237930297852e+00 -2.209620475769042969e+00
1.726000000000000000e+03 7.351867675781250000e+01 -8.008260726928710938e+00 4.707170724868774414e-01 9.240758895874023438e+00 2.913442850112915039e+00 4.067333042621612549e-01
1.727000000000000000e+03 7.539849853515625000e+01 -1.233381080627441406e+01 1.314280986785888672e+00 8.936882972717285156e+00 3.075349092483520508e+00 5.055617094039916992e-01
1.728000000000000000e+03 7.805471801757812500e+01 -1.405732727050781250e+01 8.499990403652191162e-02 7.381724357604980469e+00 2.240017414093017578e+00 -3.131846487522125244e-01
1.729000000000000000e+03 7.601210784912109375e+01 -7.752126216888427734e+00 3.670656681060791016e-01 8.475836753845214844e+00 2.652870893478393555e+00 1.406150102615356445e+00
1.730000000000000000e+03 7.671688079833984375e+01 -8.617714881896972656e+00 4.162717461585998535e-01 8.371126174926757812e+00 2.636219263076782227e+00 1.309560060501098633e+00
1.731000000000000000e+03 7.458786773681640625e+01 -9.005540847778320312e+00 8.937227725982666016e-01 9.148548126220703125e+00 3.012681484222412109e+00 7.740736007690429688e-01
1.732000000000000000e+03 7.615573120117187500e+01 -1.093961811065673828e+01 8.211814165115356445e-01 8.667938232421875000e+00 2.846735954284667969e+00 7.353862524032592773e-01
1.733000000000000000e+03 7.770401763916015625e+01 -1.124560260772705078e+01 3.889783322811126709e-01 7.761419296264648438e+00 2.445119142532348633e+00 5.583078265190124512e-01
1.734000000000000000e+03 7.690808105468750000e+01 -1.426136589050292969e+01 4.492522478103637695e-01 7.925479412078857422e+00 2.512419462203979492e+00 -2.977790832519531250e-01
1.735000000000000000e+03 7.318656158447265625e+01 -1.488999271392822266e+01 1.303422570228576660e+00 9.910341262817382812e+00 3.364129066467285156e+00 7.676925510168075562e-02
1.736000000000000000e+03 7.590117645263671875e+01 -1.421575736999511719e+01 6.788635253906250000e-01 8.667021751403808594e+00 2.803765535354614258e+00 -2.899436354637145996e-01
1.737000000000000000e+03 7.816292572021484375e+01 -1.538552856445312500e+01 1.657112091779708862e-01 7.410927772521972656e+00 2.272991657257080078e+00 -3.979137539863586426e-01
1.738000000000000000e+03 6.583489227294921875e+01 -1.725810241699218750e+01 6.371279060840606689e-02 3.408399105072021484e+00 1.041633605957031250e+00 -1.397449731826782227e+00
1.739000000000000000e+03 7.397879791259765625e+01 -1.677441787719726562e+01 -2.397361546754837036e-01 8.802374839782714844e+00 2.568791627883911133e+00 4.541436582803726196e-02
1.740000000000000000e+03 6.404133605957031250e+01 -1.495023250579833984e+01 -3.599677085876464844e-01 5.024767875671386719e+00 1.399440050125122070e+00 -1.192455649375915527e+00
1.741000000000000000e+03 6.192181777954101562e+01 -1.485577964782714844e+01 3.098092377185821533e-01 6.797682285308837891e+00 2.132247447967529297e+00 -7.286803722381591797e-01
1.742000000000000000e+03 5.883419418334960938e+01 -1.407196235656738281e+01 9.781281948089599609e-01 9.653649330139160156e+00 3.189533233642578125e+00 -5.910354200750589371e-03
1.743000000000000000e+03 6.009565734863281250e+01 -1.547191524505615234e+01 1.265459656715393066e+00 7.874070644378662109e+00 2.741859197616577148e+00 -3.326153755187988281e-01
1.744000000000000000e+03 6.619692230224609375e+01 -1.320998859405517578e+01 4.638432059437036514e-03 1.403767704963684082e+00 4.225218296051025391e-01 -6.576328277587890625e-01
1.745000000000000000e+03 6.228210830688476562e+01 -1.250425720214843750e+01 3.693389892578125000e-02 7.081303119659423828e+00 2.135471105575561523e+00 -4.614905118942260742e-01
1.746000000000000000e+03 6.046669387817382812e+01 -1.421348762512207031e+01 4.454485774040222168e-01 7.931254863739013672e+00 2.513010978698730469e+00 -1.955219954252243042e-01
1.747000000000000000e+03 5.585161209106445312e+01 -1.309846210479736328e+01 5.960785150527954102e-01 1.191852378845214844e+01 3.754380702972412109e+00 -1.939268231391906738e+00
1.748000000000000000e+03 6.166491317749023438e+01 -8.379457473754882812e+00 1.094934463500976562e+00 9.280168533325195312e+00 3.112530946731567383e+00 3.381941318511962891e-01
1.749000000000000000e+03 6.069324874877929688e+01 -1.136023426055908203e+01 2.568170130252838135e-01 8.364306449890136719e+00 2.586337089538574219e+00 2.158887088298797607e-01
1.750000000000000000e+03 6.207922363281250000e+01 -1.112812995910644531e+01 4.715903997421264648e-01 8.284094810485839844e+00 2.626705646514892578e+00 1.395645290613174438e-01
1.751000000000000000e+03 6.060076141357421875e+01 -1.024477767944335938e+01 5.992829799652099609e-01 8.632303237915039062e+00 2.769475698471069336e+00 5.148994326591491699e-01
1.752000000000000000e+03 5.992522048950195312e+01 -9.472199440002441406e+00 9.700035452842712402e-01 8.516310691833496094e+00 2.845894336700439453e+00 5.243030786514282227e-01
1.753000000000000000e+03 5.832376480102539062e+01 -9.496077537536621094e+00 8.177235722541809082e-01 8.334340095520019531e+00 2.745619058609008789e+00 1.491361111402511597e-01
1.754000000000000000e+03 5.927879333496093750e+01 -8.759452819824218750e+00 7.011634707450866699e-01 8.323163032531738281e+00 2.707297801971435547e+00 4.774588346481323242e-01
1.755000000000000000e+03 5.772613143920898438e+01 -8.583449363708496094e+00 3.952542543411254883e-01 7.697202682495117188e+00 2.427736997604370117e+00 -3.224139213562011719e-01
1.756000000000000000e+03 5.730264282226562500e+01 -6.663590908050537109e+00 1.972471326589584351e-01 6.811830997467041016e+00 2.102723360061645508e+00 -9.824803471565246582e-01
1.757000000000000000e+03 5.172296905517578125e+01 -5.552137851715087891e+00 -1.447664856910705566e+00 1.551351904869079590e+00 3.110612742602825165e-02 4.224334284663200378e-02
1.758000000000000000e+03 6.037907791137695312e+01 -2.195020675659179688e+01 -1.124181628227233887e+00 6.461150169372558594e+00 1.601090550422668457e+00 -9.408056139945983887e-01
1.759000000000000000e+03 6.351348495483398438e+01 -1.908570480346679688e+01 2.162404507398605347e-01 5.382463932037353516e+00 1.679611206054687500e+00 -1.651117324829101562e+00
1.760000000000000000e+03 6.504501342773437500e+01 -1.906300544738769531e+01 2.734418213367462158e-01 4.242413997650146484e+00 1.354756832122802734e+00 -1.449516654014587402e+00
1.761000000000000000e+03 6.824494171142578125e+01 -2.007417869567871094e+01 7.331936955451965332e-01 3.777921915054321289e+00 1.353334665298461914e+00 5.011628940701484680e-02
1.762000000000000000e+03 7.190450286865234375e+01 -1.886812210083007812e+01 -6.917363405227661133e-01 6.214629650115966797e+00 1.656868100166320801e+00 1.708455324172973633e+00
1.763000000000000000e+03 7.541419219970703125e+01 -1.884498596191406250e+01 -5.204907059669494629e-01 8.008774757385253906e+00 2.246484994888305664e+00 -2.542359828948974609e-01
1.764000000000000000e+03 7.658414459228515625e+01 -1.917043876647949219e+01 -2.523058652877807617e-01 7.928015232086181641e+00 2.302712917327880859e+00 -2.086128741502761841e-01
1.765000000000000000e+03 4.551338672637939453e+00 -1.974313735961914062e+01 -4.610555712133646011e-03 -1.757265925407409668e-01 -5.410114675760269165e-02 -1.035406216979026794e-01
1.766000000000000000e+03 1.431793880462646484e+01 -2.049011230468750000e+01 -1.068631932139396667e-02 8.738635480403900146e-02 2.301000989973545074e-02 -1.725854575634002686e-01
1.767000000000000000e+03 1.859690475463867188e+01 -1.995471000671386719e+01 -2.594155445694923401e-02 2.264947742223739624e-01 6.016596779227256775e-02 -1.466065198183059692e-01
1.768000000000000000e+03 2.599412727355957031e+01 -1.972650909423828125e+01 -6.524916738271713257e-02 5.900683403015136719e-01 1.574457436800003052e-01 -1.070274710655212402e-01
1.769000000000000000e+03 2.824279975891113281e+01 -1.988408851623535156e+01 -2.736653201282024384e-02 6.844336986541748047e-01 1.971201598644256592e-01 -9.252802282571792603e-02
1.770000000000000000e+03 3.672651290893554688e+01 -1.987119483947753906e+01 2.292744666337966919e-01 1.204338550567626953e+00 4.300839006900787354e-01 6.064263582229614258e-01
1.771000000000000000e+03 3.976825332641601562e+01 -1.981970787048339844e+01 -6.422472745180130005e-02 3.010613203048706055e+00 8.839165568351745605e-01 1.130688548088073730e+00
1.772000000000000000e+03 3.759826278686523438e+01 -1.693375015258789062e+01 6.228886246681213379e-01 -7.828709483146667480e-02 1.633804440498352051e-01 4.018723368644714355e-01
1.773000000000000000e+03 4.112500000000000000e+01 -2.050724411010742188e+01 -7.282288074493408203e-01 3.416705846786499023e+00 8.065431118011474609e-01 6.361492276191711426e-01
1.774000000000000000e+03 4.151339340209960938e+01 -1.901622009277343750e+01 -6.454218626022338867e-01 4.915803432464599609e+00 1.281114578247070312e+00 6.269292831420898438e-01
1.775000000000000000e+03 4.058386611938476562e+01 -1.700259017944335938e+01 1.008368492126464844e+00 6.696535587310791016e+00 2.311471223831176758e+00 2.181878805160522461e+00
1.776000000000000000e+03 4.187680816650390625e+01 -1.759386253356933594e+01 -1.699315458536148071e-01 5.736189365386962891e+00 1.669877290725708008e+00 -1.055771112442016602e-01
1.777000000000000000e+03 4.220758056640625000e+01 -2.272451400756835938e+01 -6.679678559303283691e-01 2.968605518341064453e+00 6.901913285255432129e-01 1.637532003223896027e-02
1.778000000000000000e+03 4.249766159057617188e+01 -2.111510848999023438e+01 -7.298978567123413086e-01 3.720748186111450195e+00 8.972550630569458008e-01 -3.199070226401090622e-03
1.779000000000000000e+03 4.285258865356445312e+01 -1.957542037963867188e+01 -7.575408816337585449e-01 4.008938789367675781e+00 9.754194021224975586e-01 -3.455034196376800537e-01
1.780000000000000000e+03 4.326347732543945312e+01 -1.807411575317382812e+01 -9.944590926170349121e-02 4.234717845916748047e+00 1.240581631660461426e+00 -3.452082574367523193e-01
1.781000000000000000e+03 4.417840576171875000e+01 -2.008970260620117188e+01 -5.852836966514587402e-01 3.506107330322265625e+00 8.762471079826354980e-01 -5.131556391716003418e-01
1.782000000000000000e+03 4.512193298339843750e+01 -2.334795379638671875e+01 -4.782719612121582031e-01 2.590452432632446289e+00 6.336541771888732910e-01 -5.253073573112487793e-01
1.783000000000000000e+03 4.707561492919921875e+01 -2.525813102722167969e+01 -1.497077196836471558e-01 2.303387165069580078e+00 6.461037993431091309e-01 -3.740893304347991943e-01
1.784000000000000000e+03 4.883202362060546875e+01 -2.574337768554687500e+01 1.616152822971343994e-01 2.306106090545654297e+00 7.403164505958557129e-01 -1.182788684964179993e-01
1.785000000000000000e+03 4.966587448120117188e+01 -2.820059776306152344e+01 9.050603210926055908e-02 2.586009025573730469e+00 8.029545545578002930e-01 6.027149409055709839e-02
1.786000000000000000e+03 5.388193893432617188e+01 -3.085040283203125000e+01 -2.312873111804947257e-04 3.507311820983886719e+00 1.052124142646789551e+00 3.000217080116271973e-01
1.787000000000000000e+03 5.513439559936523438e+01 -3.313076019287109375e+01 6.030353903770446777e-02 3.919969081878662109e+00 1.194081783294677734e+00 2.145528495311737061e-01
1.788000000000000000e+03 5.676127624511718750e+01 -3.575267410278320312e+01 1.170237082988023758e-02 4.064943790435791016e+00 1.222993850708007812e+00 8.115234971046447754e-02
1.789000000000000000e+03 4.677294158935546875e+01 -2.111845207214355469e+01 -4.732860624790191650e-01 2.325674772262573242e+00 5.557166337966918945e-01 -6.646658778190612793e-01
1.790000000000000000e+03 4.809112930297851562e+01 -2.179564285278320312e+01 -3.999350666999816895e-01 1.760556340217590332e+00 4.081864058971405029e-01 -7.024781107902526855e-01
1.791000000000000000e+03 5.088789367675781250e+01 -2.295470428466796875e+01 -9.966839849948883057e-02 1.571795225143432617e+00 4.416380524635314941e-01 1.273784339427947998e-01
1.792000000000000000e+03 5.239034652709960938e+01 -2.347560119628906250e+01 1.938477903604507446e-01 2.125267267227172852e+00 6.957345604896545410e-01 7.162217497825622559e-01
1.793000000000000000e+03 5.253809738159179688e+01 -2.184237098693847656e+01 -2.498592138290405273e-01 1.420380115509033203e+00 3.511562645435333252e-01 9.217714071273803711e-01
1.794000000000000000e+03 5.270915222167968750e+01 -2.036138725280761719e+01 -7.889828830957412720e-02 4.939461946487426758e-01 1.245143786072731018e-01 7.935701608657836914e-01
1.795000000000000000e+03 4.861868286132812500e+01 -2.020846176147460938e+01 -6.763039231300354004e-01 1.503468036651611328e+00 2.481492310762405396e-01 -5.094119906425476074e-01
1.796000000000000000e+03 4.992899703979492188e+01 -2.085600471496582031e+01 -5.698930025100708008e-01 9.720135331153869629e-01 1.206361576914787292e-01 -4.652716815471649170e-01
1.797000000000000000e+03 5.121110916137695312e+01 -2.139910125732421875e+01 1.173753514885902405e-01 1.086397171020507812e+00 3.611317276954650879e-01 2.500090003013610840e-01
1.798000000000000000e+03 5.478890609741210938e+01 -2.318329620361328125e+01 -3.875209987163543701e-01 3.263093709945678711e+00 8.626718521118164062e-01 1.696955442428588867e+00
1.799000000000000000e+03 5.940044403076171875e+01 -2.048694610595703125e+01 -3.692774474620819092e-01 7.830312252044677734e+00 2.238310575485229492e+00 -1.068348407745361328e+00
1.800000000000000000e+03 6.069306182861328125e+01 -1.991510581970214844e+01 -1.691994071006774902e-01 6.648757457733154297e+00 1.943867325782775879e+00 -1.578437089920043945e+00
1.801000000000000000e+03 6.536642456054687500e+01 -2.076741600036621094e+01 4.071502983570098877e-01 4.606610298156738281e+00 1.504128217697143555e+00 -1.218280434608459473e+00
1.802000000000000000e+03 7.605995178222656250e+01 -2.065476608276367188e+01 -3.954983353614807129e-01 7.714310646057128906e+00 2.195643663406372070e+00 -1.145111210644245148e-02
1.803000000000000000e+03 7.807717895507812500e+01 -2.096273422241210938e+01 -7.583734393119812012e-02 7.902941226959228516e+00 2.348131179809570312e+00 -8.972953259944915771e-02
1.804000000000000000e+03 5.103847885131835938e+01 -1.765798568725585938e+01 -1.782455205917358398e+00 -7.120727300643920898e-01 -7.483583688735961914e-01 9.592631459236145020e-01
1.805000000000000000e+03 4.677128601074218750e+01 -1.678659629821777344e+01 -5.676220655441284180e-01 1.923721790313720703e+00 4.068299233913421631e-01 -4.053563773632049561e-01
1.806000000000000000e+03 4.551126098632812500e+01 -1.766470146179199219e+01 -4.780831634998321533e-01 2.874423980712890625e+00 7.189022302627563477e-01 -6.329100728034973145e-01
1.807000000000000000e+03 4.795909500122070312e+01 -1.791416740417480469e+01 -7.307630181312561035e-01 1.355174064636230469e+00 1.873233169317245483e-01 -3.440235853195190430e-01
1.808000000000000000e+03 3.712268066406250000e+01 -1.836198425292968750e+01 5.469674468040466309e-01 7.930049300193786621e-01 4.019916951656341553e-01 8.873826861381530762e-01
1.809000000000000000e+03 2.307952880859375000e+01 -1.774149131774902344e+01 -9.829438477754592896e-02 4.351219236850738525e-01 1.010482683777809143e-01 -5.880625545978546143e-02
1.810000000000000000e+03 2.195932769775390625e+01 -1.787521362304687500e+01 -1.124031022191047668e-01 3.703738451004028320e-01 7.739122211933135986e-02 -9.911845624446868896e-02
1.811000000000000000e+03 1.945462799072265625e+01 -1.761174964904785156e+01 -4.153230041265487671e-02 2.210846543312072754e-01 5.386570841073989868e-02 -1.192190051078796387e-01
1.812000000000000000e+03 1.847658920288085938e+01 -1.872956085205078125e+01 -1.699356734752655029e-02 2.133820354938507080e-01 5.891654267907142639e-02 -1.385612189769744873e-01
1.813000000000000000e+03 1.649171829223632812e+01 -1.873280715942382812e+01 -1.742040738463401794e-02 1.503496766090393066e-01 3.987878188490867615e-02 -1.654987782239913940e-01
1.814000000000000000e+03 1.333612442016601562e+01 -1.794813537597656250e+01 -3.005133010447025299e-02 6.192303448915481567e-02 9.561510756611824036e-03 -1.704066395759582520e-01
1.815000000000000000e+03 1.134047508239746094e+01 -1.804212188720703125e+01 -2.552911080420017242e-02 1.807777024805545807e-02 -2.235402353107929230e-03 -1.697423309087753296e-01
1.816000000000000000e+03 8.971673011779785156e+00 -1.851696777343750000e+01 -1.677520200610160828e-02 -5.999949201941490173e-02 -2.303240820765495300e-02 -1.585437506437301636e-01
1.817000000000000000e+03 7.712852001190185547e+00 -1.855080986022949219e+01 -1.028854213654994965e-02 -7.884047180414199829e-02 -2.673870325088500977e-02 -1.413592547178268433e-01
1.818000000000000000e+03 4.420941829681396484e+00 -1.681123542785644531e+01 -1.018661074340343475e-02 -1.293484568595886230e-01 -4.186052083969116211e-02 -9.544542431831359863e-02
1.819000000000000000e+03 6.175668239593505859e+00 -1.844527626037597656e+01 -1.069131493568420410e-02 -1.176982447504997253e-01 -3.851686790585517883e-02 -1.265988349914550781e-01
1.820000000000000000e+03 4.892802429199218750e+01 -1.660091018676757812e+01 -1.105673313140869141e+00 3.018270134925842285e-01 -2.411538958549499512e-01 3.051308095455169678e-01
1.821000000000000000e+03 4.993750381469726562e+01 -1.737001228332519531e+01 -1.249553442001342773e+00 1.217610463500022888e-01 -3.383377194404602051e-01 3.964725434780120850e-01
1.822000000000000000e+03 4.786252212524414062e+01 -1.560217285156250000e+01 -7.825249433517456055e-01 6.581631898880004883e-01 -3.730851784348487854e-02 2.003110349178314209e-01
1.823000000000000000e+03 4.578066253662109375e+01 -1.553844261169433594e+01 -3.241877853870391846e-01 2.713846445083618164e+00 7.168976068496704102e-01 -4.185738414525985718e-02
1.824000000000000000e+03 3.541628646850585938e+01 -1.510536289215087891e+01 -3.661359250545501709e-01 1.651413589715957642e-01 -6.029836833477020264e-02 1.727100163698196411e-01
1.825000000000000000e+03 3.308092117309570312e+01 -1.751851463317871094e+01 -1.223777979612350464e-01 6.782996058464050293e-01 1.667765378952026367e-01 -5.105521157383918762e-02
1.826000000000000000e+03 3.053947257995605469e+01 -1.641981315612792969e+01 -2.963704168796539307e-01 6.864848136901855469e-01 1.170343160629272461e-01 -1.630321741104125977e-01
1.827000000000000000e+03 2.938576889038085938e+01 -1.760804939270019531e+01 -2.156150788068771362e-01 6.992352008819580078e-01 1.450860351324081421e-01 -1.427081674337387085e-01
1.828000000000000000e+03 2.721430206298828125e+01 -1.596762561798095703e+01 -2.781732082366943359e-01 7.134908437728881836e-01 1.305952966213226318e-01 -7.943240553140640259e-02
1.829000000000000000e+03 2.465425300598144531e+01 -1.611668777465820312e+01 -2.193402647972106934e-01 5.395618677139282227e-01 9.606647491455078125e-02 -2.445422671735286713e-02
1.830000000000000000e+03 2.185999298095703125e+01 -1.596898746490478516e+01 -1.635919958353042603e-01 3.277725279331207275e-01 4.925415664911270142e-02 -6.746216118335723877e-02
1.831000000000000000e+03 1.833651924133300781e+01 -1.628968620300292969e+01 -7.330580800771713257e-02 1.807154715061187744e-01 3.222289681434631348e-02 -1.201108396053314209e-01
1.832000000000000000e+03 1.647452926635742188e+01 -1.751427459716796875e+01 -5.671811103820800781e-02 1.266059279441833496e-01 2.096634358167648315e-02 -1.564203202724456787e-01
1.833000000000000000e+03 1.429939746856689453e+01 -1.651784515380859375e+01 -5.096427723765373230e-02 8.292891085147857666e-02 9.589388966560363770e-03 -1.626468449831008911e-01
1.834000000000000000e+03 1.250680160522460938e+01 -1.632518959045410156e+01 -4.888724908232688904e-02 4.163455963134765625e-02 -2.175806788727641106e-03 -1.629907190799713135e-01
1.835000000000000000e+03 1.094688415527343750e+01 -1.637077903747558594e+01 -4.059221968054771423e-02 9.636070579290390015e-03 -9.286845102906227112e-03 -1.602357327938079834e-01
1.836000000000000000e+03 7.729965209960937500e+00 -1.601830863952636719e+01 -2.242638729512691498e-02 -5.730397626757621765e-02 -2.391910925507545471e-02 -1.334573477506637573e-01
1.837000000000000000e+03 2.530754327774047852e+00 -1.526603317260742188e+01 -5.474164150655269623e-03 -1.314249038696289062e-01 -4.106971994042396545e-02 -5.600015446543693542e-02
1.838000000000000000e+03 6.398594856262207031e+00 -1.587021541595458984e+01 -2.365867421030998230e-02 -8.198101073503494263e-02 -3.169190511107444763e-02 -1.172940433025360107e-01
1.839000000000000000e+03 2.632633686065673828e+00 -1.666962432861328125e+01 -2.450479427352547646e-03 -1.567059457302093506e-01 -4.774693027138710022e-02 -6.117758154869079590e-02
1.840000000000000000e+03 4.790987777709960938e+01 -1.340528583526611328e+01 -8.542249202728271484e-01 -7.050776481628417969e-02 -2.774198055267333984e-01 5.884590744972229004e-01
1.841000000000000000e+03 4.674824142456054688e+01 -1.444622707366943359e+01 -6.492291092872619629e-01 1.624734044075012207e+00 2.926514744758605957e-01 6.569060683250427246e-02
1.842000000000000000e+03 4.484330749511718750e+01 -1.457127094268798828e+01 -2.123123258352279663e-01 3.603627204895019531e+00 1.017394542694091797e+00 4.944138824939727783e-01
1.843000000000000000e+03 4.426764297485351562e+01 -1.169766807556152344e+01 -1.024995803833007812e+00 5.528368949890136719e+00 1.351011872291564941e+00 1.353878498077392578e+00
1.844000000000000000e+03 4.399781417846679688e+01 -1.301229095458984375e+01 -3.406558930873870850e-01 4.983050823211669922e+00 1.392718553543090820e+00 1.340197086334228516e+00
1.845000000000000000e+03 4.422613525390625000e+01 -1.024342727661132812e+01 -1.047825574874877930e+00 6.432291030883789062e+00 1.615339636802673340e+00 9.614551067352294922e-01
1.846000000000000000e+03 4.176774597167968750e+01 -1.077778148651123047e+01 -1.232743263244628906e+00 5.668922901153564453e+00 1.330853819847106934e+00 1.884050250053405762e+00
1.847000000000000000e+03 3.996500778198242188e+01 -9.986018180847167969e+00 -8.958473801612854004e-01 8.071008920669555664e-01 -2.662394568324089050e-02 9.812121987342834473e-01
1.848000000000000000e+03 4.384679412841796875e+01 -8.827949523925781250e+00 -8.670049905776977539e-01 8.055109977722167969e+00 2.156431436538696289e+00 7.833463549613952637e-01
1.849000000000000000e+03 4.213418197631835938e+01 -8.058020591735839844e+00 -5.002822875976562500e-01 5.440900325775146484e+00 1.482185482978820801e+00 1.494372367858886719e+00
1.850000000000000000e+03 4.513761901855468750e+01 -8.405242919921875000e+00 1.335416287183761597e-01 8.418019294738769531e+00 2.565468072891235352e+00 -1.373947620391845703e+00
1.851000000000000000e+03 4.076116561889648438e+01 -8.367433547973632812e+00 -1.008626580238342285e+00 2.905185699462890625e+00 5.689677000045776367e-01 1.322574853897094727e+00
1.852000000000000000e+03 3.241239547729492188e+01 8.006768226623535156e-01 2.232136964797973633e+00 8.741757869720458984e-01 9.318938255310058594e-01 1.400166511535644531e+00
1.853000000000000000e+03 3.171560287475585938e+01 2.410676956176757812e+00 7.999435067176818848e-03 8.066500425338745117e-01 2.443948388099670410e-01 7.997623682022094727e-01
1.854000000000000000e+03 2.796873664855957031e+01 2.937778949737548828e+00 -1.920822024345397949e+00 -7.323979735374450684e-01 -7.959659695625305176e-01 -9.474197030067443848e-01
1.855000000000000000e+03 2.762918853759765625e+01 1.458755135536193848e+00 2.229863032698631287e-02 -7.182259559631347656e-01 -2.087782025337219238e-01 -4.482898712158203125e-01
1.856000000000000000e+03 2.705628967285156250e+01 1.221323609352111816e+00 1.418723165988922119e-01 -4.523035585880279541e-01 -9.312936663627624512e-02 -3.534356355667114258e-01
1.857000000000000000e+03 2.657534217834472656e+01 -4.339688420295715332e-01 1.717971205711364746e+00 -5.644648075103759766e-01 3.460519015789031982e-01 1.497490406036376953e-01
1.858000000000000000e+03 2.476601600646972656e+01 1.801259636878967285e+00 -1.095904350280761719e+00 -3.510957360267639160e-01 -4.341000318527221680e-01 -1.970875859260559082e-01
1.859000000000000000e+03 2.324062538146972656e+01 -1.374616384506225586e+00 2.068526744842529297e+00 9.425404667854309082e-01 9.033201336860656738e-01 -1.572486639022827148e+00
1.860000000000000000e+03 4.608663177490234375e+01 -1.268568992614746094e+00 -8.655226826667785645e-01 3.634321451187133789e+00 8.306396007537841797e-01 4.971380233764648438e+00
1.861000000000000000e+03 5.765592575073242188e+01 -1.717664241790771484e+00 -4.763812720775604248e-01 2.709522724151611328e+00 6.699424386024475098e-01 -3.375223398208618164e+00
1.862000000000000000e+03 6.017470169067382812e+01 -6.283546090126037598e-01 -1.722567796707153320e+00 3.853546857833862305e+00 6.392937302589416504e-01 -1.518134623765945435e-01
1.863000000000000000e+03 6.548957824707031250e+01 4.351115971803665161e-02 -1.549867749214172363e+00 2.720607280731201172e+00 3.512218296527862549e-01 3.680128097534179688e+00
1.864000000000000000e+03 6.722975158691406250e+01 -9.065849334001541138e-02 -1.841559290885925293e+00 4.904264450073242188e+00 9.188115596771240234e-01 1.020415663719177246e+00
1.865000000000000000e+03 7.852407073974609375e+01 -1.552112936973571777e+00 -1.849177479743957520e-01 1.134427070617675781e+01 3.347805738449096680e+00 7.155659198760986328e-01
1.866000000000000000e+03 3.291963958740234375e+01 -1.610096359252929688e+01 -3.140609562397003174e-01 5.417187213897705078e-01 6.829732656478881836e-02 -1.545251756906509399e-01
1.867000000000000000e+03 3.376098251342773438e+01 -1.435064411163330078e+01 -3.895783126354217529e-01 3.076938092708587646e-01 -2.456534840166568756e-02 -4.180577397346496582e-02
1.868000000000000000e+03 2.851528167724609375e+01 -1.522464370727539062e+01 -3.282220363616943359e-01 7.706395387649536133e-01 1.327252388000488281e-01 -1.316762566566467285e-01
1.869000000000000000e+03 2.511881637573242188e+01 -1.483179664611816406e+01 -2.745142877101898193e-01 5.871306657791137695e-01 9.378491342067718506e-02 5.653805565088987350e-03
1.870000000000000000e+03 2.288949775695800781e+01 -1.501578521728515625e+01 -2.230038940906524658e-01 4.145953953266143799e-01 5.747745186090469360e-02 1.688768155872821808e-02
1.871000000000000000e+03 2.142455291748046875e+01 -1.509476470947265625e+01 -1.415216475725173950e-01 2.905256450176239014e-01 4.470119625329971313e-02 -3.578721545636653900e-03
1.872000000000000000e+03 1.670425224304199219e+01 -1.525606918334960938e+01 -1.039091795682907104e-01 1.291411370038986206e-01 7.569589186459779739e-03 -1.446864902973175049e-01
1.873000000000000000e+03 1.413401794433593750e+01 -1.536626338958740234e+01 -8.738107979297637939e-02 6.981258839368820190e-02 -5.270548164844512939e-03 -1.663679182529449463e-01
1.874000000000000000e+03 1.280627250671386719e+01 -1.468202972412109375e+01 -7.978174090385437012e-02 4.958853498101234436e-02 -9.057960473001003265e-03 -1.577146053314208984e-01
1.875000000000000000e+03 1.118680095672607422e+01 -1.449740886688232422e+01 -6.395344436168670654e-02 2.601774036884307861e-02 -1.138071063905954361e-02 -1.478203833103179932e-01
1.876000000000000000e+03 9.591643333435058594e+00 -1.372151565551757812e+01 -5.994592234492301941e-02 1.145371701568365097e-03 -1.764016598463058472e-02 -1.243749856948852539e-01
1.877000000000000000e+03 3.961071491241455078e+00 -1.282065773010253906e+01 -1.159072481095790863e-02 -7.537029683589935303e-02 -2.608830481767654419e-02 -6.761574745178222656e-02
1.878000000000000000e+03 5.215535163879394531e+00 -1.408403682708740234e+01 -1.648037135601043701e-02 -8.033572137355804443e-02 -2.904482744634151459e-02 -9.312520176172256470e-02
1.879000000000000000e+03 8.491547107696533203e-01 -1.505132389068603516e+01 -4.075284814462065697e-04 -1.423226445913314819e-01 -4.281905293464660645e-02 -1.995383203029632568e-02
1.880000000000000000e+03 3.256924057006835938e+01 -1.206015777587890625e+01 -2.302933186292648315e-01 3.765377700328826904e-01 4.387333989143371582e-02 -1.965622790157794952e-02
1.881000000000000000e+03 2.815829086303710938e+01 -1.377709484100341797e+01 -3.828539550304412842e-01 8.336265683174133301e-01 1.352317780256271362e-01 -1.201868057250976562e-01
1.882000000000000000e+03 2.552516746520996094e+01 -1.345366859436035156e+01 -3.688629865646362305e-01 6.790329217910766602e-01 9.305097162723541260e-02 9.110189974308013916e-02
1.883000000000000000e+03 2.309638023376464844e+01 -1.401252460479736328e+01 -1.782234162092208862e-01 3.557884395122528076e-01 5.326950550079345703e-02 4.523723945021629333e-02
1.884000000000000000e+03 2.120206642150878906e+01 -1.274485778808593750e+01 -1.497346162796020508e-01 4.638345912098884583e-02 -3.100534714758396149e-02 -4.945140704512596130e-02
1.885000000000000000e+03 1.893661117553710938e+01 -1.303158950805664062e+01 -1.917931437492370605e-01 1.337839663028717041e-01 -1.740275323390960693e-02 -1.013104245066642761e-01
1.886000000000000000e+03 1.654289817810058594e+01 -1.386991310119628906e+01 -1.151522472500801086e-01 1.085241883993148804e-01 -1.988417468965053558e-03 -1.410894989967346191e-01
1.887000000000000000e+03 1.394137859344482422e+01 -1.324444770812988281e+01 -1.308812499046325684e-01 6.796352565288543701e-02 -1.887531764805316925e-02 -1.501650214195251465e-01
1.888000000000000000e+03 1.061252689361572266e+01 -1.273751354217529297e+01 -7.244823127985000610e-02 2.199226059019565582e-02 -1.513679139316082001e-02 -1.249862089753150940e-01
1.889000000000000000e+03 7.207981109619140625e+00 -1.291411209106445312e+01 -3.687967360019683838e-02 -3.205700218677520752e-02 -2.068100310862064362e-02 -1.072530448436737061e-01
1.890000000000000000e+03 5.430775165557861328e+00 -1.216994190216064453e+01 -2.201485633850097656e-02 -5.246741697192192078e-02 -2.234468236565589905e-02 -8.028620481491088867e-02
1.891000000000000000e+03 6.204695224761962891e+00 -1.326856231689453125e+01 -2.694385871291160583e-02 -5.369632691144943237e-02 -2.419205568730831146e-02 -9.758903831243515015e-02
1.892000000000000000e+03 3.618145751953125000e+01 -1.387758255004882812e+01 -6.916753053665161133e-01 -4.701877832412719727e-01 -3.485589325428009033e-01 3.089798688888549805e-01
1.893000000000000000e+03 3.019025039672851562e+01 -9.333602905273437500e+00 -2.382724732160568237e-02 5.032799839973449707e-01 1.438358128070831299e-01 -2.376577705144882202e-01
1.894000000000000000e+03 3.085058784484863281e+01 -1.090046787261962891e+01 -2.511612474918365479e-01 5.635412335395812988e-01 9.371399879455566406e-02 -1.805103719234466553e-01
1.895000000000000000e+03 2.904966545104980469e+01 -1.117103767395019531e+01 -3.871716856956481934e-01 8.228439092636108398e-01 1.307016611099243164e-01 -2.328767627477645874e-01
1.896000000000000000e+03 2.319081687927246094e+01 -1.107949924468994141e+01 -1.830288618803024292e-01 1.299338489770889282e-01 -1.592850685119628906e-02 2.237571477890014648e-01
1.897000000000000000e+03 1.694419479370117188e+01 -1.204043292999267578e+01 -1.787779331207275391e-01 8.951343595981597900e-02 -2.677934989333152771e-02 -1.145159751176834106e-01
1.898000000000000000e+03 1.493792152404785156e+01 -1.108285522460937500e+01 -1.508924365043640137e-01 7.685014605522155762e-02 -2.221268601715564728e-02 -9.352210909128189087e-02
1.899000000000000000e+03 1.278167057037353516e+01 -1.187876987457275391e+01 -1.202027425169944763e-01 5.597828328609466553e-02 -1.926733739674091339e-02 -1.187027469277381897e-01
1.900000000000000000e+03 1.039862823486328125e+01 -1.064835739135742188e+01 -7.617428153753280640e-02 2.175953425467014313e-02 -1.632442511618137360e-02 -9.399277716875076294e-02
1.901000000000000000e+03 9.029504776000976562e+00 -1.102032756805419922e+01 -6.023059785366058350e-02 4.182838369160890579e-03 -1.681432873010635376e-02 -1.005048602819442749e-01
1.902000000000000000e+03 8.215930938720703125e+00 -1.128127479553222656e+01 -5.019616708159446716e-02 -1.256670802831649780e-02 -1.882886327803134918e-02 -9.236270189285278320e-02
1.903000000000000000e+03 4.222682952880859375e+00 -1.172865200042724609e+01 -2.006754465401172638e-02 -6.027593836188316345e-02 -2.410304546356201172e-02 -6.484260410070419312e-02
1.904000000000000000e+03 1.298346710205078125e+01 -9.364995956420898438e+00 -1.199862807989120483e-01 4.883989319205284119e-02 -2.134391479194164276e-02 -7.086076587438583374e-02
1.905000000000000000e+03 1.002590751647949219e+01 -9.461569786071777344e+00 -7.175777107477188110e-02 2.040829136967658997e-02 -1.540484465658664703e-02 -7.565031200647354126e-02
1.906000000000000000e+03 9.086772918701171875e+00 -9.063864707946777344e+00 -7.858694344758987427e-02 1.050803344696760178e-02 -2.042367123067378998e-02 -7.248127460479736328e-02
1.907000000000000000e+03 6.908124923706054688e+00 -8.513509750366210938e+00 -4.819803684949874878e-02 -1.009321212768554688e-02 -1.748737506568431854e-02 -5.730514973402023315e-02
1.908000000000000000e+03 4.109379768371582031e+00 -8.272718429565429688e+00 -2.026186138391494751e-02 -2.571328729391098022e-02 -1.379254460334777832e-02 -3.684892877936363220e-02
1.909000000000000000e+03 5.531605720520019531e+00 -8.740866661071777344e+00 -3.446177765727043152e-02 -2.088405191898345947e-02 -1.660374924540519714e-02 -4.921231046319007874e-02
1.910000000000000000e+03 9.955153465270996094e-01 -1.073197841644287109e+01 -1.218165270984172821e-03 -5.589755997061729431e-02 -1.713471673429012299e-02 -1.602522470057010651e-02
1.911000000000000000e+03 2.730814552307128906e+01 -7.753605842590332031e+00 2.198686748743057251e-01 1.170776963233947754e+00 4.171936810016632080e-01 -3.529754281044006348e-01
1.912000000000000000e+03 2.929231071472167969e+01 -5.923081874847412109e+00 2.318401932716369629e-01 6.392450332641601562e-01 2.613255679607391357e-01 -1.615848243236541748e-01
1.913000000000000000e+03 2.806760025024414062e+01 -6.670941829681396484e+00 3.400109708309173584e-01 1.053232908248901367e+00 4.179731607437133789e-01 -2.263080477714538574e-01
1.914000000000000000e+03 3.111526870727539062e+01 -6.683105468750000000e+00 8.218249678611755371e-02 1.722663193941116333e-01 7.633464783430099487e-02 -1.070035398006439209e-01
1.915000000000000000e+03 2.712641525268554688e+01 -5.381753921508789062e+00 5.654643774032592773e-01 1.297162890434265137e+00 5.587881803512573242e-01 -1.829246245324611664e-02
1.916000000000000000e+03 2.841091918945312500e+01 -3.339999198913574219e+00 8.436061739921569824e-01 8.471454977989196777e-01 5.072255134582519531e-01 6.401125788688659668e-01
1.917000000000000000e+03 2.625589752197265625e+01 -4.019007205963134766e+00 9.847543239593505859e-01 1.123722791671752930e+00 6.325431466102600098e-01 -2.832302153110504150e-01
1.918000000000000000e+03 7.224078369140625000e+01 1.391305160522460938e+01 1.803759336471557617e+00 4.929003715515136719e+00 2.019828796386718750e+00 1.974772363901138306e-01
1.919000000000000000e+03 7.041025543212890625e+01 1.643629837036132812e+01 8.166689276695251465e-01 6.489326477050781250e+00 2.191798686981201172e+00 8.336500525474548340e-01
1.920000000000000000e+03 7.267958068847656250e+01 1.567122459411621094e+01 1.250071287155151367e+00 5.692177772521972656e+00 2.082674741744995117e+00 3.503198325634002686e-01
1.921000000000000000e+03 7.039102935791015625e+01 1.545599365234375000e+01 1.319249987602233887e+00 6.487154960632324219e+00 2.341921567916870117e+00 9.853399991989135742e-01
1.922000000000000000e+03 5.317758178710937500e+01 1.371161079406738281e+01 2.705385684967041016e+00 1.110956954956054688e+01 4.144486427307128906e+00 2.536098003387451172e+00
1.923000000000000000e+03 5.291544342041015625e+01 1.244362068176269531e+01 3.377095222473144531e+00 1.194063568115234375e+01 4.595319271087646484e+00 1.667117714881896973e+00
1.924000000000000000e+03 5.496875762939453125e+01 1.131387042999267578e+01 1.627030014991760254e+00 7.291822433471679688e+00 2.675655841827392578e+00 1.848471522331237793e+00
1.925000000000000000e+03 5.703848266601562500e+01 9.723307609558105469e+00 2.098874002695083618e-01 1.285719037055969238e+00 4.486819207668304443e-01 3.247847259044647217e-01
1.926000000000000000e+03 5.436616134643554688e+01 1.361611461639404297e+01 2.406308412551879883e+00 8.464832305908203125e+00 3.261342048645019531e+00 2.649423360824584961e+00
1.927000000000000000e+03 5.723059082031250000e+01 1.159747219085693359e+01 1.040395379066467285e+00 2.498277902603149414e+00 1.061601996421813965e+00 1.284400820732116699e+00
1.928000000000000000e+03 5.711709213256835938e+01 1.329126071929931641e+01 1.512234687805175781e+00 3.537091493606567383e+00 1.514797806739807129e+00 2.077421903610229492e+00
1.929000000000000000e+03 5.885639190673828125e+01 1.158884811401367188e+01 -1.405708044767379761e-01 2.146199941635131836e-01 2.221475727856159210e-02 -5.391607433557510376e-02
1.930000000000000000e+03 6.628518676757812500e+01 1.270433139801025391e+01 3.738870382308959961e+00 1.589661407470703125e+01 5.890645027160644531e+00 -1.147934436798095703e+00
1.931000000000000000e+03 6.999330902099609375e+01 1.294310760498046875e+01 2.161165952682495117e+00 6.051350593566894531e+00 2.463754892349243164e+00 1.402874231338500977e+00
1.932000000000000000e+03 7.443511199951171875e+01 1.255913925170898438e+01 6.293072104454040527e-01 4.851115703582763672e+00 1.644126892089843750e+00 -1.809677004814147949e+00
1.933000000000000000e+03 7.276472473144531250e+01 1.278252887725830078e+01 1.591597199440002441e+00 3.832628726959228516e+00 1.627267718315124512e+00 -6.434168219566345215e-01
1.934000000000000000e+03 6.921313476562500000e+01 1.033162307739257812e+01 4.925681948661804199e-01 6.985493183135986328e+00 2.243418455123901367e+00 9.865503907203674316e-01
1.935000000000000000e+03 7.499705505371093750e+01 1.155245208740234375e+01 -1.473219878971576691e-02 6.073572635650634766e+00 1.817652106285095215e+00 -2.252424240112304688e+00
1.936000000000000000e+03 5.018001556396484375e+01 5.331338405609130859e+00 1.750764727592468262e+00 9.660854339599609375e+00 3.423485755920410156e+00 1.214715480804443359e+00
1.937000000000000000e+03 4.729536437988281250e+01 5.873029232025146484e+00 2.503062009811401367e+00 3.632828474044799805e+00 1.840767145156860352e+00 2.738310337066650391e+00
1.938000000000000000e+03 4.918110275268554688e+01 6.112791538238525391e+00 2.075494289398193359e+00 8.010652542114257812e+00 3.025844097137451172e+00 2.555572509765625000e+00
1.939000000000000000e+03 5.243822097778320312e+01 7.466125011444091797e+00 -2.323059737682342529e-01 1.442672824859619141e+01 4.258326530456542969e+00 -6.180473566055297852e-01
1.940000000000000000e+03 5.365868759155273438e+01 1.187620639801025391e+01 2.592554807662963867e+00 1.016543769836425781e+01 3.827397584915161133e+00 1.953490734100341797e+00
1.941000000000000000e+03 5.371139526367187500e+01 9.292612075805664062e+00 5.293745398521423340e-01 1.177263832092285156e+01 3.690603971481323242e+00 4.418217539787292480e-01
1.942000000000000000e+03 5.189390563964843750e+01 1.121700096130371094e+01 2.789689064025878906e+00 1.629492568969726562e+01 5.725384712219238281e+00 9.538834691047668457e-01
1.943000000000000000e+03 5.793450546264648438e+01 1.064726066589355469e+01 -2.853990159928798676e-02 2.451822906732559204e-01 6.499271839857101440e-02 2.185962051153182983e-01
1.944000000000000000e+03 5.804418563842773438e+01 1.252867507934570312e+01 8.391894698143005371e-01 1.613968849182128906e+00 7.359474897384643555e-01 1.433629989624023438e+00
1.945000000000000000e+03 2.325275421142578125e+01 5.883452892303466797e+00 -2.333012223243713379e-01 -3.547437116503715515e-02 -8.063267916440963745e-02 -1.816860437393188477e-01
1.946000000000000000e+03 2.406949043273925781e+01 6.938575744628906250e+00 -3.130912482738494873e-01 -1.829347461462020874e-01 -1.488077938556671143e-01 -2.254076153039932251e-01
1.947000000000000000e+03 2.598224449157714844e+01 8.308840751647949219e+00 -4.171469509601593018e-01 -3.452933430671691895e-01 -2.287320941686630249e-01 -3.870303928852081299e-01
1.948000000000000000e+03 2.550952148437500000e+01 9.005558967590332031e+00 -3.546561598777770996e-01 -1.693927198648452759e-01 -1.572146564722061157e-01 -2.691357135772705078e-01
1.949000000000000000e+03 2.820352554321289062e+01 1.171709156036376953e+01 -3.112123310565948486e-01 -3.354292809963226318e-01 -1.939924806356430054e-01 -2.963788211345672607e-01
1.950000000000000000e+03 2.690535545349121094e+01 1.268796253204345703e+01 -1.885066479444503784e-01 -8.160597831010818481e-02 -8.103378862142562866e-02 -5.810356140136718750e-02
1.951000000000000000e+03 4.093556594848632812e+01 1.507330131530761719e+01 -1.326966524124145508e+00 5.786861181259155273e-01 -2.244841456413269043e-01 3.365099430084228516e-02
1.952000000000000000e+03 2.997271919250488281e+01 1.694457817077636719e+01 -1.312452435493469238e+00 5.360999330878257751e-02 -3.776527345180511475e-01 4.243043959140777588e-01
1.953000000000000000e+03 3.213225173950195312e+01 1.617716217041015625e+01 -1.654220223426818848e+00 -1.625111699104309082e-01 -5.450193881988525391e-01 4.885012209415435791e-01
1.954000000000000000e+03 2.940614128112792969e+01 1.448347282409667969e+01 -9.334769248962402344e-01 -1.177212446928024292e-01 -3.153594434261322021e-01 7.931219786405563354e-02
1.955000000000000000e+03 7.476979064941406250e+01 1.693110275268554688e+01 7.229482531547546387e-01 5.931741714477539062e+00 1.996406912803649902e+00 1.148091070353984833e-02
1.956000000000000000e+03 6.938951873779296875e+01 1.659231758117675781e+01 5.944137573242187500e-01 7.388422966003417969e+00 2.394850969314575195e+00 8.478145599365234375e-01
1.957000000000000000e+03 4.239866638183593750e+01 1.746422004699707031e+01 -6.864811778068542480e-01 7.159230113029479980e-01 8.832547813653945923e-03 -2.971341311931610107e-01
1.958000000000000000e+03 4.022323989868164062e+01 1.783267211914062500e+01 -8.269902467727661133e-01 6.244328618049621582e-01 -6.076721474528312683e-02 -1.346961110830307007e-01
1.959000000000000000e+03 4.119822692871093750e+01 1.700699996948242188e+01 -9.546861052513122559e-01 6.097122430801391602e-01 -1.034921482205390930e-01 -1.582975387573242188e-01
1.960000000000000000e+03 3.935258483886718750e+01 1.540597820281982422e+01 -1.412050604820251465e+00 4.487812519073486328e-01 -2.889808118343353271e-01 1.126044616103172302e-01
1.961000000000000000e+03 3.674810409545898438e+01 1.583715248107910156e+01 -1.677566289901733398e+00 -9.594897925853729248e-02 -5.320545434951782227e-01 5.114809051156044006e-02
1.962000000000000000e+03 2.951958274841308594e+01 1.603275680541992188e+01 -1.214633822441101074e+00 5.445939674973487854e-02 -3.480523526668548584e-01 4.262013733386993408e-01
1.963000000000000000e+03 2.615345954895019531e+01 1.570741176605224609e+01 -8.714488744735717773e-01 1.645193845033645630e-01 -2.120788544416427612e-01 8.693847060203552246e-01
1.964000000000000000e+03 1.277894020080566406e+01 1.501876068115234375e+01 -7.126932144165039062e-01 9.785759449005126953e-02 -1.844506859779357910e-01 -1.740465015172958374e-01
1.965000000000000000e+03 1.379387187957763672e+01 1.529107761383056641e+01 -7.563219666481018066e-01 -9.224360808730125427e-03 -2.296638935804367065e-01 -1.970149874687194824e-01
1.966000000000000000e+03 1.156618690490722656e+01 1.784255599975585938e+01 -5.803434848785400391e-01 2.562207579612731934e-01 -9.723682701587677002e-02 -3.748478367924690247e-02
1.967000000000000000e+03 1.206740283966064453e+01 1.798842430114746094e+01 -6.007145643234252930e-01 2.078535258769989014e-01 -1.178583204746246338e-01 -3.031013906002044678e-02
1.968000000000000000e+03 9.756558418273925781e+00 1.750022697448730469e+01 -5.318893194198608398e-01 4.078034162521362305e-01 -3.722577169537544250e-02 -8.380123227834701538e-02
1.969000000000000000e+03 5.894998073577880859e+00 1.739363098144531250e+01 -3.316236138343811035e-01 6.242499351501464844e-01 8.778788894414901733e-02 -1.967220753431320190e-01
1.970000000000000000e+03 4.501233100891113281e+00 1.685656166076660156e+01 -2.378815412521362305e-01 6.560799479484558105e-01 1.254595220088958740e-01 -2.616890966892242432e-01
1.971000000000000000e+03 3.197515249252319336e+00 1.540175342559814453e+01 -1.846146732568740845e-01 6.067457199096679688e-01 1.266393065452575684e-01 -3.629845380783081055e-01
1.972000000000000000e+03 6.364321708679199219e+00 1.475302886962890625e+01 -4.930705726146697998e-01 7.221682667732238770e-01 6.872931122779846191e-02 -3.756223917007446289e-01
1.973000000000000000e+03 7.555405139923095703e+00 1.533555793762207031e+01 -5.285289287567138672e-01 6.630507707595825195e-01 4.035654664039611816e-02 -2.693576216697692871e-01
1.974000000000000000e+03 9.538037300109863281e+00 1.503387641906738281e+01 -6.242374777793884277e-01 4.951345324516296387e-01 -3.873087465763092041e-02 -1.660556942224502563e-01
1.975000000000000000e+03 1.132520961761474609e+01 1.609649467468261719e+01 -6.454591155052185059e-01 2.832966148853302002e-01 -1.086487546563148499e-01 -1.086936071515083313e-01
1.976000000000000000e+03 1.481823158264160156e+01 1.302014064788818359e+01 -8.137009143829345703e-01 -2.913036644458770752e-01 -3.315013647079467773e-01 -4.453453123569488525e-01
1.977000000000000000e+03 1.472744846343994141e+01 1.369359970092773438e+01 -8.112312555313110352e-01 -2.213857322931289673e-01 -3.097850978374481201e-01 -3.729889392852783203e-01
1.978000000000000000e+03 4.717672729492187500e+01 1.549247455596923828e+01 -1.999051570892333984e+00 -7.171285748481750488e-01 -8.148540258407592773e-01 -1.373745560646057129e+00
1.979000000000000000e+03 3.682713699340820312e+01 3.130574226379394531e+00 1.292946934700012207e-01 -3.562271893024444580e-01 -6.807974725961685181e-02 2.325380444526672363e-01
1.980000000000000000e+03 3.112811279296875000e+01 3.492651700973510742e+00 -7.696376442909240723e-01 6.088242530822753906e-01 -4.824400320649147034e-02 9.694828651845455170e-03
1.981000000000000000e+03 2.932804870605468750e+01 1.771093845367431641e+00 5.271635055541992188e-01 2.014119923114776611e-01 2.185726463794708252e-01 -1.506976634263992310e-01
1.982000000000000000e+03 1.833892059326171875e+01 -7.790103435516357422e+00 -3.080320358276367188e-01 1.088573876768350601e-02 -8.914388716220855713e-02 5.455236509442329407e-02
1.983000000000000000e+03 1.356057739257812500e+01 -7.829649925231933594e+00 -1.227565780282020569e-01 4.819308593869209290e-02 -2.236904762685298920e-02 -3.167637065052986145e-02
1.984000000000000000e+03 1.208453369140625000e+01 -7.702023506164550781e+00 -9.716197103261947632e-02 3.335085883736610413e-02 -1.914333365857601166e-02 -4.595789685845375061e-02
1.985000000000000000e+03 1.054221820831298828e+01 -6.562411308288574219e+00 -7.386739552021026611e-02 2.153981104493141174e-02 -1.569827646017074585e-02 -2.984675392508506775e-02
1.986000000000000000e+03 9.362821578979492188e+00 -6.736078739166259766e+00 -5.523337051272392273e-02 1.347769610583782196e-02 -1.252670213580131531e-02 -4.061535000801086426e-02
1.987000000000000000e+03 8.333317756652832031e+00 -6.102720737457275391e+00 -4.635122790932655334e-02 3.680675989016890526e-03 -1.280116476118564606e-02 -3.598799929022789001e-02
1.988000000000000000e+03 6.407438755035400391e+00 -6.733260154724121094e+00 -3.443446382880210876e-02 -4.848109092563390732e-03 -1.178477145731449127e-02 -3.473582863807678223e-02
1.989000000000000000e+03 2.704016447067260742e+00 -8.759429931640625000e+00 -5.994516890496015549e-03 -3.515375033020973206e-02 -1.234448049217462540e-02 -2.756919339299201965e-02
1.990000000000000000e+03 1.259871101379394531e+01 -6.440518379211425781e+00 -8.859688788652420044e-02 3.119632229208946228e-02 -1.722016930580139160e-02 -1.481513306498527527e-02
1.991000000000000000e+03 1.088361072540283203e+01 -5.013669013977050781e+00 -7.006856054067611694e-02 1.459920126944780350e-02 -1.664080843329429626e-02 -1.693473383784294128e-02
1.992000000000000000e+03 9.154631614685058594e+00 -5.302879333496093750e+00 -4.723147302865982056e-02 7.464662194252014160e-03 -1.193004287779331207e-02 -2.749727480113506317e-02
1.993000000000000000e+03 8.334255218505859375e+00 -4.621260166168212891e+00 -3.719716146588325500e-02 2.039298880845308304e-03 -1.054735854268074036e-02 -2.388401329517364502e-02
1.994000000000000000e+03 4.222261428833007812e+00 -4.852261066436767578e+00 -1.503510959446430206e-02 -1.050295867025852203e-02 -7.661420386284589767e-03 -1.610219292342662811e-02
1.995000000000000000e+03 1.064583873748779297e+01 -4.028951168060302734e+00 -5.435540527105331421e-02 8.072084747254848480e-03 -1.388499606400728226e-02 -1.223001442849636078e-02
1.996000000000000000e+03 9.858810424804687500e+00 -3.867331504821777344e+00 -4.547737538814544678e-02 1.169440709054470062e-02 -1.013489067554473877e-02 -8.086632937192916870e-03
1.997000000000000000e+03 7.659729957580566406e+00 -3.949483871459960938e+00 -2.982924506068229675e-02 2.627965994179248810e-03 -8.160383440554141998e-03 -1.729886978864669800e-02
1.998000000000000000e+03 3.691798686981201172e+00 -3.032568454742431641e+00 -7.699870970100164413e-03 -5.267382599413394928e-03 -3.890176070854067802e-03 -6.331162992864847183e-03
1.999000000000000000e+03 6.165271282196044922e+00 -3.526192426681518555e+00 -2.168993651866912842e-02 -2.242348389700055122e-03 -7.179685868322849274e-03 -1.233259681612253189e-02
2.000000000000000000e+03 2.311429500579833984e+00 -4.500455379486083984e+00 -2.828447381034493446e-03 -7.376081775873899460e-03 -3.061358816921710968e-03 -5.498439073562622070e-03
2.001000000000000000e+03 2.900687932968139648e+00 -3.177788019180297852e+00 -3.649350488558411598e-03 -4.113715607672929764e-03 -2.328919945284724236e-03 -3.574239788576960564e-03
2.002000000000000000e+03 9.900525093078613281e+00 -2.230552673339843750e+01 8.540553972125053406e-03 -5.525460839271545410e-02 -1.401421613991260529e-02 -1.656623780727386475e-01
2.003000000000000000e+03 1.785500717163085938e+01 -2.243978309631347656e+01 4.277816042304039001e-02 2.189311832189559937e-01 7.851280272006988525e-02 -1.501462608575820923e-01
2.004000000000000000e+03 2.243808555603027344e+01 -2.071923065185546875e+01 -4.023760929703712463e-02 3.999918699264526367e-01 1.079262793064117432e-01 -1.236192584037780762e-01
2.005000000000000000e+03 2.535159111022949219e+01 -2.164575958251953125e+01 -1.325446553528308868e-02 5.641797184944152832e-01 1.652775704860687256e-01 -1.026241481304168701e-01
2.006000000000000000e+03 3.361862182617187500e+01 -2.125359344482421875e+01 1.339517086744308472e-01 9.172058701515197754e-01 3.153472542762756348e-01 1.085015609860420227e-01
2.007000000000000000e+03 4.384235382080078125e+01 -2.159802246093750000e+01 -7.671142220497131348e-01 3.135876893997192383e+00 7.106287479400634766e-01 -5.002148747444152832e-01
2.008000000000000000e+03 4.366638946533203125e+01 -2.319008255004882812e+01 -4.938107132911682129e-01 3.003682374954223633e+00 7.529615163803100586e-01 -2.915130257606506348e-01
2.009000000000000000e+03 4.529389190673828125e+01 -2.511451911926269531e+01 -2.202655225992202759e-01 2.604563474655151367e+00 7.152893543243408203e-01 -3.324609696865081787e-01
2.010000000000000000e+03 4.702199554443359375e+01 -2.703734779357910156e+01 8.373972028493881226e-02 2.469448328018188477e+00 7.659564614295959473e-01 -2.029334157705307007e-01
2.011000000000000000e+03 4.738908004760742188e+01 -2.985688591003417969e+01 1.339425146579742432e-01 2.598751068115234375e+00 8.198080658912658691e-01 -5.937170237302780151e-02
2.012000000000000000e+03 4.886875915527343750e+01 -3.001651573181152344e+01 1.093841791152954102e-01 2.687056779861450195e+00 8.389322757720947266e-01 2.136632055044174194e-02
2.013000000000000000e+03 5.915741348266601562e+01 -2.260124015808105469e+01 -6.988143324851989746e-01 6.728231430053710938e+00 1.808825135231018066e+00 -2.241478301584720612e-02
2.014000000000000000e+03 6.972439575195312500e+01 -2.319296646118164062e+01 4.298352599143981934e-01 5.221265792846679688e+00 1.695330381393432617e+00 1.646941602230072021e-01
2.015000000000000000e+03 8.614388465881347656e+00 -2.498000717163085938e+01 2.032516151666641235e-02 -1.157382205128669739e-01 -2.862391620874404907e-02 -1.467106193304061890e-01
2.016000000000000000e+03 2.159083557128906250e+01 -2.235274314880371094e+01 1.419431902468204498e-02 3.816050589084625244e-01 1.187398210167884827e-01 -1.327458322048187256e-01
2.017000000000000000e+03 2.979775619506835938e+01 -2.176659202575683594e+01 2.409517019987106323e-02 7.681040167808532715e-01 2.376597523689270020e-01 -4.631055146455764771e-02
2.018000000000000000e+03 3.352859115600585938e+01 -2.316798019409179688e+01 5.089375376701354980e-02 1.151044964790344238e+00 3.605816066265106201e-01 1.958390772342681885e-01
2.019000000000000000e+03 4.357326889038085938e+01 -2.500664329528808594e+01 -4.223495721817016602e-01 2.609527111053466797e+00 6.561532616615295410e-01 -2.305086255073547363e-01
2.020000000000000000e+03 4.535138320922851562e+01 -2.727162551879882812e+01 -1.045112758874893188e-01 2.426824569702148438e+00 6.966939568519592285e-01 -2.297129631042480469e-01
2.021000000000000000e+03 4.605253982543945312e+01 -2.905460929870605469e+01 5.195002257823944092e-02 2.505656242370605469e+00 7.672818899154663086e-01 -1.004665568470954895e-01
2.022000000000000000e+03 5.243284606933593750e+01 -3.154680061340332031e+01 1.587253212928771973e-01 3.342691898345947266e+00 1.050425171852111816e+00 2.277057766914367676e-01
2.023000000000000000e+03 4.749839019775390625e+01 -2.345557212829589844e+01 -1.031852141022682190e-01 2.203023433685302734e+00 6.299514770507812500e-01 -4.496742486953735352e-01
2.024000000000000000e+03 5.912355041503906250e+01 -2.484085273742675781e+01 -9.835330843925476074e-01 5.859842300415039062e+00 1.462892651557922363e+00 -7.360891997814178467e-02
2.025000000000000000e+03 7.096464538574218750e+01 -2.502219581604003906e+01 2.192873954772949219e-01 5.876825332641601562e+00 1.828833818435668945e+00 1.454164534807205200e-01
2.026000000000000000e+03 7.268737030029296875e+01 -2.372554779052734375e+01 4.236306622624397278e-02 6.290178775787353516e+00 1.899762511253356934e+00 3.878549039363861084e-01
2.027000000000000000e+03 7.749643707275390625e+01 -2.264075851440429688e+01 -1.005706787109375000e-01 7.782248973846435547e+00 2.304503440856933594e+00 3.820053860545158386e-02
2.028000000000000000e+03 2.682487964630126953e+00 -2.539388084411621094e+01 7.883043028414249420e-03 -3.350833654403686523e-01 -9.816009551286697388e-02 -6.323613971471786499e-02
2.029000000000000000e+03 7.795226097106933594e+00 -2.568960952758789062e+01 1.862178556621074677e-02 -1.531351357698440552e-01 -4.035400599241256714e-02 -1.350778937339782715e-01
2.030000000000000000e+03 1.646077919006347656e+01 -2.334050750732421875e+01 4.419871047139167786e-02 1.721398532390594482e-01 6.490156799554824829e-02 -1.597535908222198486e-01
2.031000000000000000e+03 3.386768722534179688e+01 -2.455483055114746094e+01 1.614833176136016846e-01 1.230839848518371582e+00 4.176969528198242188e-01 1.870526522397994995e-01
2.032000000000000000e+03 3.530715179443359375e+01 -2.478315162658691406e+01 8.702440559864044189e-02 1.484165310859680176e+00 4.713569283485412598e-01 3.343975841999053955e-01
2.033000000000000000e+03 3.676192092895507812e+01 -2.670821571350097656e+01 1.848645333666354418e-04 1.749976396560668945e+00 5.250483751296997070e-01 2.520035207271575928e-01
2.034000000000000000e+03 5.168168640136718750e+01 -2.627295684814453125e+01 2.152064293622970581e-01 2.663973808288574219e+00 8.637540936470031738e-01 3.748859465122222900e-01
2.035000000000000000e+03 5.193964767456054688e+01 -2.752193641662597656e+01 3.342859447002410889e-02 2.852010011672973633e+00 8.656315803527832031e-01 3.664861619472503662e-01
2.036000000000000000e+03 5.834278488159179688e+01 -3.413631820678710938e+01 -9.843111038208007812e-03 4.522752761840820312e+00 1.353872895240783691e+00 8.678539097309112549e-02
2.037000000000000000e+03 6.067948913574218750e+01 -3.609527587890625000e+01 -1.242843735963106155e-02 4.804460048675537109e+00 1.437609434127807617e+00 4.099453613162040710e-02
2.038000000000000000e+03 5.325404739379882812e+01 -2.576357650756835938e+01 2.811556309461593628e-02 2.970974922180175781e+00 8.997271656990051270e-01 7.137323021888732910e-01
2.039000000000000000e+03 5.385892105102539062e+01 -2.810671615600585938e+01 -3.093473799526691437e-02 3.387376785278320312e+00 1.006932616233825684e+00 5.560444593429565430e-01
2.040000000000000000e+03 5.780781173706054688e+01 -3.072601127624511719e+01 -1.320535987615585327e-01 4.588860511779785156e+00 1.337041974067687988e+00 2.188843935728073120e-01
2.041000000000000000e+03 5.951446533203125000e+01 -3.239530181884765625e+01 -1.480859667062759399e-01 4.697745800018310547e+00 1.364897966384887695e+00 4.178629070520401001e-02
2.042000000000000000e+03 6.676478576660156250e+01 -3.745523071289062500e+01 3.005447797477245331e-02 5.661849975585937500e+00 1.707571387290954590e+00 -1.040767133235931396e-02
2.043000000000000000e+03 5.505010604858398438e+01 -2.563644409179687500e+01 -3.098985254764556885e-01 3.800118207931518555e+00 1.047065854072570801e+00 1.064195275306701660e+00
2.044000000000000000e+03 5.686706542968750000e+01 -2.641194915771484375e+01 -5.869984626770019531e-01 4.496424674987792969e+00 1.172827839851379395e+00 2.261458635330200195e-01
2.045000000000000000e+03 6.158396148681640625e+01 -3.371329116821289062e+01 -4.015833139419555664e-03 5.030601501464843750e+00 1.507975697517395020e+00 2.804664522409439087e-02
2.046000000000000000e+03 6.387425994873046875e+01 -3.446729660034179688e+01 -2.518131956458091736e-02 5.286808490753173828e+00 1.578488230705261230e+00 -2.809212170541286469e-02
2.047000000000000000e+03 5.769295120239257812e+01 -2.800903892517089844e+01 -2.960552871227264404e-01 4.877817630767822266e+00 1.374528646469116211e+00 4.449138939380645752e-01
2.048000000000000000e+03 5.883546447753906250e+01 -2.949553298950195312e+01 -3.698179423809051514e-01 4.773842334747314453e+00 1.321207404136657715e+00 3.969116508960723877e-02
2.049000000000000000e+03 6.037663269042968750e+01 -3.071863555908203125e+01 -9.447506815195083618e-02 4.984797477722167969e+00 1.467096805572509766e+00 5.702355504035949707e-02
2.050000000000000000e+03 6.405510711669921875e+01 -3.202643585205078125e+01 7.783973123878240585e-03 5.354081630706787109e+00 1.608559608459472656e+00 -3.673424571752548218e-02
2.051000000000000000e+03 6.610124206542968750e+01 -3.456436920166015625e+01 5.316242203116416931e-02 5.574557781219482422e+00 1.688316106796264648e+00 5.335765425115823746e-03
2.052000000000000000e+03 5.878180313110351562e+01 -2.721521949768066406e+01 -6.968135237693786621e-01 5.251128673553466797e+00 1.366294503211975098e+00 1.083521172404289246e-02
2.053000000000000000e+03 6.097052764892578125e+01 -2.914008140563964844e+01 -3.724478781223297119e-01 5.134748458862304688e+00 1.428690195083618164e+00 -1.268180310726165771e-01
2.054000000000000000e+03 6.021915435791015625e+01 -2.594414138793945312e+01 -3.235523700714111328e-01 5.479483127593994141e+00 1.546779155731201172e+00 -6.591376662254333496e-02
2.055000000000000000e+03 6.127430343627929688e+01 -2.765299797058105469e+01 -1.918335109949111938e-01 5.367938995361328125e+00 1.552831649780273438e+00 -1.196319162845611572e-01
2.056000000000000000e+03 6.251351547241210938e+01 -2.967716979980468750e+01 -4.669272899627685547e-02 5.264305591583251953e+00 1.565283894538879395e+00 -8.657972514629364014e-02
2.057000000000000000e+03 6.595965576171875000e+01 -3.201622009277343750e+01 -4.992464557290077209e-03 5.508441925048828125e+00 1.651034832000732422e+00 -9.579749405384063721e-02
2.058000000000000000e+03 6.266526031494140625e+01 -2.794281387329101562e+01 -3.154765367507934570e-01 5.327445507049560547e+00 1.503590703010559082e+00 -3.553854525089263916e-01
2.059000000000000000e+03 6.410410308837890625e+01 -2.994565200805664062e+01 -1.187132298946380615e-01 5.345755100250244141e+00 1.568112492561340332e+00 -1.848917305469512939e-01
2.060000000000000000e+03 6.570427703857421875e+01 -2.991319274902343750e+01 8.208288252353668213e-02 5.514117717742919922e+00 1.678860187530517578e+00 -1.255461871623992920e-01
2.061000000000000000e+03 6.259684753417968750e+01 -2.632209777832031250e+01 -5.509586259722709656e-02 5.423074722290039062e+00 1.610393643379211426e+00 -3.207394480705261230e-01
2.062000000000000000e+03 6.408729553222656250e+01 -2.808290100097656250e+01 6.217276304960250854e-02 5.352804660797119141e+00 1.624493241310119629e+00 -2.525308430194854736e-01
2.063000000000000000e+03 6.693384552001953125e+01 -2.888753318786621094e+01 1.119909659028053284e-01 5.546376705169677734e+00 1.697510242462158203e+00 -1.517711132764816284e-01
2.064000000000000000e+03 6.399014282226562500e+01 -2.625971984863281250e+01 -2.223546802997589111e-01 5.389659881591796875e+00 1.550191640853881836e+00 -5.217493772506713867e-01
2.065000000000000000e+03 6.915473937988281250e+01 -2.569937133789062500e+01 2.592306435108184814e-01 5.547090530395507812e+00 1.741896390914916992e+00 -3.862502798438072205e-02
2.066000000000000000e+03 7.386652374267578125e+01 -2.586558532714843750e+01 5.747090652585029602e-02 6.697998046875000000e+00 2.026640653610229492e+00 2.459745854139328003e-01
2.067000000000000000e+03 5.479223728179931641e+00 -2.671829986572265625e+01 1.008658949285745621e-02 -2.512569725513458252e-01 -7.235112041234970093e-02 -1.082813590764999390e-01
2.068000000000000000e+03 1.781550407409667969e+01 -2.698171615600585938e+01 7.956238836050033569e-02 2.452030479907989502e-01 9.742963314056396484e-02 -1.352109014987945557e-01
2.069000000000000000e+03 2.985003852844238281e+01 -2.679455757141113281e+01 1.614910215139389038e-01 9.427077770233154297e-01 3.312596380710601807e-01 1.870176754891872406e-02
2.070000000000000000e+03 5.272340774536132812e+01 -2.689819908142089844e+01 9.693895280361175537e-02 3.030950546264648438e+00 9.383668303489685059e-01 4.575605392456054688e-01
2.071000000000000000e+03 5.448471069335937500e+01 -2.681316566467285156e+01 -7.650134712457656860e-02 3.617599010467529297e+00 1.062329292297363281e+00 6.347544789314270020e-01
2.072000000000000000e+03 5.570705413818359375e+01 -2.707089424133300781e+01 -3.453977108001708984e-01 4.489058971405029297e+00 1.243098378181457520e+00 7.585979700088500977e-01
2.073000000000000000e+03 6.136308288574218750e+01 -2.633801460266113281e+01 -5.496801137924194336e-01 5.405241966247558594e+00 1.456668615341186523e+00 -5.237303376197814941e-01
2.074000000000000000e+03 3.451621055603027344e+00 -2.930510711669921875e+01 6.196699105203151703e-03 -3.651161789894104004e-01 -1.076758503913879395e-01 -6.628485023975372314e-02
2.075000000000000000e+03 6.304453372955322266e+00 -2.833379173278808594e+01 2.228213846683502197e-02 -2.247338891029357910e-01 -6.073552370071411133e-02 -1.027499288320541382e-01
2.076000000000000000e+03 1.787935829162597656e+01 -2.895255851745605469e+01 1.135039702057838440e-01 2.606407701969146729e-01 1.122434213757514954e-01 -1.259397268295288086e-01
2.077000000000000000e+03 2.166990280151367188e+01 -2.874589157104492188e+01 1.492330580949783325e-01 4.315841197967529297e-01 1.742451488971710205e-01 -9.395238757133483887e-02
2.078000000000000000e+03 2.800424957275390625e+01 -2.964734649658203125e+01 1.601490229368209839e-01 8.412751555442810059e-01 3.004272580146789551e-01 -3.628432750701904297e-02
2.079000000000000000e+03 2.913168716430664062e+01 -2.820437622070312500e+01 1.801813691854476929e-01 9.084735512733459473e-01 3.265964984893798828e-01 1.705946773290634155e-02
2.080000000000000000e+03 4.050342559814453125e+01 -2.801673698425292969e+01 -8.340661227703094482e-02 2.226764202117919922e+00 6.430072784423828125e-01 3.864991664886474609e-02
2.081000000000000000e+03 5.279953384399414062e+01 -2.898607254028320312e+01 1.405448615550994873e-01 3.291496038436889648e+00 1.029612302780151367e+00 3.415821194648742676e-01
2.082000000000000000e+03 7.407933807373046875e+01 -2.992325973510742188e+01 6.601329892873764038e-02 6.765540599822998047e+00 2.049466133117675781e+00 1.057945191860198975e-01
2.083000000000000000e+03 7.718743896484375000e+01 -2.867238044738769531e+01 3.156965225934982300e-02 7.404688358306884766e+00 2.230877399444580078e+00 1.213259026408195496e-01
2.084000000000000000e+03 3.629538774490356445e+00 -3.191647148132324219e+01 1.190982945263385773e-02 -3.927771151065826416e-01 -1.142601817846298218e-01 -6.157547235488891602e-02
2.085000000000000000e+03 1.280570030212402344e+01 -3.143363380432128906e+01 7.950129359960556030e-02 2.760125696659088135e-02 3.213076293468475342e-02 -1.212826147675514221e-01
2.086000000000000000e+03 1.563309669494628906e+01 -3.059635162353515625e+01 1.017879396677017212e-01 1.688153296709060669e-01 8.118098229169845581e-02 -1.229583472013473511e-01
2.087000000000000000e+03 2.014231872558593750e+01 -3.143326759338378906e+01 1.549464315176010132e-01 3.781089782714843750e-01 1.599166244268417358e-01 -9.146075695753097534e-02
2.088000000000000000e+03 2.516449165344238281e+01 -2.944008445739746094e+01 1.535533517599105835e-01 6.410552859306335449e-01 2.383825927972793579e-01 -6.992422044277191162e-02
2.089000000000000000e+03 3.291251754760742188e+01 -3.036982154846191406e+01 1.618233770132064819e-01 1.307022333145141602e+00 4.406537115573883057e-01 7.734859734773635864e-02
2.090000000000000000e+03 4.720077896118164062e+01 -3.150773048400878906e+01 1.142956689000129700e-01 2.603067636489868164e+00 8.152089715003967285e-01 -6.153798475861549377e-02
2.091000000000000000e+03 5.028809738159179688e+01 -2.989650154113769531e+01 1.822489351034164429e-01 2.922166109085083008e+00 9.313245415687561035e-01 1.344688087701797485e-01
2.092000000000000000e+03 5.645527267456054688e+01 -2.886556053161621094e+01 -2.562479972839355469e-01 4.166944026947021484e+00 1.173208832740783691e+00 3.236479461193084717e-01
2.093000000000000000e+03 7.543180847167968750e+01 -3.147696113586425781e+01 3.759847208857536316e-02 7.014626026153564453e+00 2.115667343139648438e+00 8.732691407203674316e-02
2.094000000000000000e+03 7.317066192626953125e-01 -3.061980247497558594e+01 1.123439171351492405e-03 -5.470679998397827148e-01 -1.637833714485168457e-01 -1.783147081732749939e-02
2.095000000000000000e+03 6.941694736480712891e+00 -3.287030029296875000e+01 2.567419596016407013e-02 -2.404403686523437500e-01 -6.442984938621520996e-02 -8.376060426235198975e-02
2.096000000000000000e+03 9.860992431640625000e+00 -3.449215316772460938e+01 5.596240982413291931e-02 -1.154428347945213318e-01 -1.784412749111652374e-02 -8.026672154664993286e-02
2.097000000000000000e+03 6.216723251342773438e+01 -3.158346176147460938e+01 -1.663348823785781860e-01 5.131407737731933594e+00 1.489521741867065430e+00 -7.203079015016555786e-02
2.098000000000000000e+03 7.134025573730468750e+01 -3.280205535888671875e+01 8.158244937658309937e-02 6.308429718017578125e+00 1.917003631591796875e+00 3.671358153223991394e-02
2.099000000000000000e+03 7.697444152832031250e+01 -3.335802078247070312e+01 1.367079373449087143e-02 7.255442142486572266e+00 2.180733919143676758e+00 4.503444582223892212e-02
2.100000000000000000e+03 5.566397666931152344e+00 -3.545096588134765625e+01 2.788037620484828949e-02 -3.336562514305114746e-01 -9.173275530338287354e-02 -5.520130321383476257e-02
2.101000000000000000e+03 7.718181133270263672e+00 -3.523025512695312500e+01 5.324130877852439880e-02 -2.034174501895904541e-01 -4.505284130573272705e-02 -6.700085103511810303e-02
2.102000000000000000e+03 1.217962861061096191e+00 -3.380169296264648438e+01 3.393525723367929459e-03 -5.799748301506042480e-01 -1.729743927717208862e-01 -1.245672721415758133e-02
2.103000000000000000e+03 8.754893541336059570e-01 -3.579438400268554688e+01 2.385082188993692398e-03 -6.126328706741333008e-01 -1.830743402242660522e-01 1.551622175611555576e-03
2.104000000000000000e+03 2.312262916564941406e+01 -3.373406600952148438e+01 1.848334372043609619e-01 5.641135573387145996e-01 2.246840894222259521e-01 -5.871974676847457886e-02
2.105000000000000000e+03 2.690007972717285156e+01 -3.540371704101562500e+01 2.103975415229797363e-01 8.123028278350830078e-01 3.068101108074188232e-01 -1.862227544188499451e-02
2.106000000000000000e+03 6.293939971923828125e+01 -4.066062927246093750e+01 3.859119117259979248e-02 5.032968521118164062e+00 1.521467924118041992e+00 -2.682844875380396843e-03
2.107000000000000000e+03 2.622980594635009766e+00 -3.910808181762695312e+01 1.121441461145877838e-02 -5.656923651695251465e-01 -1.663433760404586792e-01 9.759262204170227051e-03
2.108000000000000000e+03 7.932849884033203125e+01 -3.760923767089843750e+01 -3.025223873555660248e-02 7.536122322082519531e+00 2.251760959625244141e+00 1.773908548057079315e-02
2.109000000000000000e+03 3.762646484375000000e+01 -4.077798843383789062e+01 2.173489183187484741e-01 1.754679441452026367e+00 5.916084647178649902e-01 -1.577555201947689056e-02
2.110000000000000000e+03 4.229200363159179688e+01 -4.078612899780273438e+01 2.232141792774200439e-01 2.217226743698120117e+00 7.321322560310363770e-01 1.162908319383859634e-02
2.111000000000000000e+03 5.183088684082031250e+01 -4.056203460693359375e+01 1.711540520191192627e-01 3.375343561172485352e+00 1.063949227333068848e+00 2.926182001829147339e-02
2.112000000000000000e+03 7.187451171875000000e+01 -4.078348159790039062e+01 3.258229792118072510e-02 6.453009128570556641e+00 1.945677399635314941e+00 9.621198289096355438e-03
2.113000000000000000e+03 6.823315429687500000e+01 1.820500755310058594e+01 1.315559297800064087e-01 7.173388957977294922e+00 2.191483497619628906e+00 1.280796825885772705e-01
2.114000000000000000e+03 5.728293609619140625e+01 1.893989372253417969e+01 7.948397397994995117e-01 4.990944385528564453e+00 1.735735297203063965e+00 1.885508060455322266e+00
2.115000000000000000e+03 4.356371307373046875e+01 1.990351676940917969e+01 -3.561623990535736084e-01 1.184169888496398926e+00 2.484022378921508789e-01 -6.811172366142272949e-01
2.116000000000000000e+03 3.936410522460937500e+01 1.604763412475585938e+01 -1.318938851356506348e+00 4.951866269111633301e-01 -2.471256703138351440e-01 -2.263866597786545753e-03
2.117000000000000000e+03 3.770025634765625000e+01 1.950941848754882812e+01 -7.530665397644042969e-01 2.405514866113662720e-01 -1.537545174360275269e-01 -1.411724239587783813e-01
2.118000000000000000e+03 2.916196632385253906e+01 2.035605812072753906e+01 -9.890534281730651855e-01 -2.129283966496586800e-03 -2.973548173904418945e-01 2.656557857990264893e-01
2.119000000000000000e+03 2.866667366027832031e+01 1.781394386291503906e+01 -1.350156188011169434e+00 1.604234874248504639e-01 -3.569198250770568848e-01 4.052445292472839355e-01
2.120000000000000000e+03 2.406169700622558594e+01 1.659363174438476562e+01 -4.137736320495605469e+00 -6.094923019409179688e-01 -1.424168586730957031e+00 5.592902302742004395e-01
2.121000000000000000e+03 2.360759162902832031e+01 1.665063858032226562e+01 -3.856255769729614258e+00 -4.587517082691192627e-01 -1.294502258300781250e+00 -8.244810253381729126e-02
2.122000000000000000e+03 2.235264968872070312e+01 1.628235244750976562e+01 -2.434541463851928711e+00 -2.973891496658325195e-01 -8.195791840553283691e-01 -7.462641000747680664e-01
2.123000000000000000e+03 1.889471244812011719e+01 1.775476646423339844e+01 -1.232037186622619629e+00 -1.731618344783782959e-01 -4.215597212314605713e-01 -1.493720263242721558e-01
2.124000000000000000e+03 1.720292472839355469e+01 1.752056121826171875e+01 -1.013824224472045898e+00 -1.274306476116180420e-01 -3.423764705657958984e-01 -1.555906385183334351e-01
2.125000000000000000e+03 1.518799209594726562e+01 1.744550514221191406e+01 -8.135851621627807617e-01 -3.566309809684753418e-02 -2.547744810581207275e-01 -1.077445521950721741e-01
2.126000000000000000e+03 8.421109199523925781e+00 1.936560821533203125e+01 -3.814282417297363281e-01 4.513996839523315430e-01 2.099143341183662415e-02 -2.792736329138278961e-02
2.127000000000000000e+03 8.906751632690429688e+00 1.870978355407714844e+01 -4.323697090148925781e-01 4.368047416210174561e-01 1.330505474470555782e-03 -4.830265417695045471e-02
2.128000000000000000e+03 8.239702224731445312e+00 1.825864410400390625e+01 -4.195216000080108643e-01 4.889263510704040527e-01 2.082142606377601624e-02 -8.178752660751342773e-02
2.129000000000000000e+03 5.940712451934814453e+00 1.885453414916992188e+01 -2.800926864147186279e-01 5.977281332015991211e-01 9.529063105583190918e-02 -1.096898168325424194e-01
2.130000000000000000e+03 7.585881042480468750e+01 2.114309692382812500e+01 1.466858685016632080e-01 6.323786735534667969e+00 1.941141843795776367e+00 2.024602741003036499e-01
2.131000000000000000e+03 7.426091766357421875e+01 2.121333503723144531e+01 1.320473849773406982e-01 6.404785156250000000e+00 1.961049795150756836e+00 2.699714601039886475e-01
2.132000000000000000e+03 6.495272064208984375e+01 2.018727684020996094e+01 3.795380890369415283e-01 5.697692394256591797e+00 1.823169112205505371e+00 -3.269515335559844971e-01
2.133000000000000000e+03 5.596274185180664062e+01 1.916518402099609375e+01 1.963972598314285278e-01 6.247979164123535156e+00 1.933312892913818359e+00 1.882925510406494141e+00
2.134000000000000000e+03 4.378123855590820312e+01 2.212267684936523438e+01 -1.366920620203018188e-01 1.621405720710754395e+00 4.454140961170196533e-01 -8.711214661598205566e-01
2.135000000000000000e+03 4.147710418701171875e+01 2.129919624328613281e+01 -2.974907159805297852e-01 9.764137268066406250e-01 2.036768943071365356e-01 -4.948812723159790039e-01
2.136000000000000000e+03 3.965912628173828125e+01 2.017889595031738281e+01 -5.095206499099731445e-01 6.037096381187438965e-01 2.825670503079891205e-02 -2.691898941993713379e-01
2.137000000000000000e+03 3.757954406738281250e+01 2.101102256774902344e+01 -4.062565863132476807e-01 3.770987689495086670e-01 -8.747344836592674255e-03 -1.735935360193252563e-01
2.138000000000000000e+03 3.522497558593750000e+01 2.071833992004394531e+01 -5.481033921241760254e-01 4.666392877697944641e-02 -1.504318416118621826e-01 -4.942937754094600677e-03
2.139000000000000000e+03 3.408419036865234375e+01 2.084042167663574219e+01 -5.994008779525756836e-01 -7.805366185493767262e-04 -1.800544261932373047e-01 1.488308757543563843e-01
2.140000000000000000e+03 2.843955039978027344e+01 1.984427261352539062e+01 -1.157179117202758789e+00 5.218327045440673828e-02 -3.314987719058990479e-01 2.546341419219970703e-01
2.141000000000000000e+03 2.698903083801269531e+01 1.938443756103515625e+01 -1.312228798866271973e+00 -1.045519765466451645e-02 -3.968052268028259277e-01 1.410776674747467041e-01
2.142000000000000000e+03 2.528728103637695312e+01 1.960549163818359375e+01 -1.269700527191162109e+00 -3.023487925529479980e-01 -4.716148078441619873e-01 -2.974570728838443756e-03
2.143000000000000000e+03 2.431945037841796875e+01 1.978915596008300781e+01 -1.160155534744262695e+00 -4.600827693939208984e-01 -4.860714972019195557e-01 3.371864184737205505e-02
2.144000000000000000e+03 1.991840934753417969e+01 1.855102920532226562e+01 -1.287863254547119141e+00 -2.320483922958374023e-01 -4.559734761714935303e-01 -4.586594644933938980e-03
2.145000000000000000e+03 1.822331619262695312e+01 1.935133552551269531e+01 -9.621293544769287109e-01 -1.628484129905700684e-01 -3.374933302402496338e-01 4.573753103613853455e-02
2.146000000000000000e+03 1.704814338684082031e+01 1.879363822937011719e+01 -9.041213393211364746e-01 -1.024469137191772461e-01 -3.019704818725585938e-01 -2.273923717439174652e-02
2.147000000000000000e+03 1.548698616027832031e+01 1.895731163024902344e+01 -7.638671398162841797e-01 -2.659751288592815399e-02 -2.371393889188766479e-01 8.120443671941757202e-03
2.148000000000000000e+03 1.330790138244628906e+01 1.897802734375000000e+01 -6.192851066589355469e-01 1.155387088656425476e-01 -1.511239260435104370e-01 1.938085444271564484e-02
2.149000000000000000e+03 7.403321266174316406e+00 2.092457771301269531e+01 -2.575752437114715576e-01 4.771742224693298340e-01 6.587969511747360229e-02 2.166148833930492401e-02
2.150000000000000000e+03 4.749738693237304688e+00 1.971476554870605469e+01 -1.830079108476638794e-01 6.455307006835937500e-01 1.387568414211273193e-01 -7.495062053203582764e-02
2.151000000000000000e+03 7.249674987792968750e+01 2.403299713134765625e+01 1.317394198849797249e-03 6.442254543304443359e+00 1.933071494102478027e+00 2.896377742290496826e-01
2.152000000000000000e+03 6.383125305175781250e+01 2.112508010864257812e+01 5.052352547645568848e-01 5.407676696777343750e+00 1.773873567581176758e+00 -2.553035616874694824e-01
2.153000000000000000e+03 5.364628982543945312e+01 2.154370498657226562e+01 -6.747290492057800293e-01 6.091104507446289062e+00 1.624912619590759277e+00 5.188340544700622559e-01
2.154000000000000000e+03 4.170123672485351562e+01 2.330459594726562500e+01 -1.782188415527343750e-01 1.248138666152954102e+00 3.209759294986724854e-01 -6.417321562767028809e-01
2.155000000000000000e+03 3.614856719970703125e+01 2.204589843750000000e+01 -3.632733821868896484e-01 2.023123949766159058e-01 -4.828830063343048096e-02 -1.295120567083358765e-01
2.156000000000000000e+03 3.089065742492675781e+01 2.239854240417480469e+01 -5.372895002365112305e-01 -1.300636213272809982e-02 -1.650887578725814819e-01 1.265517771244049072e-01
2.157000000000000000e+03 2.730253219604492188e+01 2.154547309875488281e+01 -8.748924136161804199e-01 -1.258476823568344116e-01 -3.002220392227172852e-01 8.766176551580429077e-02
2.158000000000000000e+03 2.217786026000976562e+01 2.119210243225097656e+01 -8.121108412742614746e-01 -4.293584823608398438e-01 -3.724408149719238281e-01 1.675902456045150757e-01
2.159000000000000000e+03 1.956686782836914062e+01 2.083297920227050781e+01 -8.258441686630249023e-01 -2.681021392345428467e-01 -3.281838893890380859e-01 1.730305701494216919e-01
2.160000000000000000e+03 1.710414505004882812e+01 2.184301376342773438e+01 -5.793897509574890137e-01 -1.170306801795959473e-01 -2.089261263608932495e-01 1.854222118854522705e-01
2.161000000000000000e+03 1.395840263366699219e+01 2.115594291687011719e+01 -5.106498003005981445e-01 6.313139945268630981e-02 -1.342555135488510132e-01 1.309112757444381714e-01
2.162000000000000000e+03 1.276906585693359375e+01 2.130419349670410156e+01 -4.469268918037414551e-01 1.369934380054473877e-01 -9.298003464937210083e-02 1.264661699533462524e-01
2.163000000000000000e+03 1.055982398986816406e+01 2.059573364257812500e+01 -4.039888679981231689e-01 2.924872040748596191e-01 -3.345049172639846802e-02 6.477655470371246338e-02
2.164000000000000000e+03 6.124624729156494141e+00 2.307908439636230469e+01 -1.346911489963531494e-01 5.137780308723449707e-01 1.137260645627975464e-01 8.678887039422988892e-02
2.165000000000000000e+03 5.439091205596923828e+00 2.231949615478515625e+01 -1.330099105834960938e-01 5.757136940956115723e-01 1.328111290931701660e-01 5.316767096519470215e-02
2.166000000000000000e+03 4.309296607971191406e+00 2.179208946228027344e+01 -9.886047244071960449e-02 6.605446338653564453e-01 1.685052514076232910e-01 2.046317607164382935e-02
2.167000000000000000e+03 2.957805156707763672e+00 2.134419631958007812e+01 -4.881531372666358948e-02 7.806787490844726562e-01 2.195590436458587646e-01 2.811254467815160751e-03
2.168000000000000000e+03 6.639859771728515625e+01 2.233542633056640625e+01 8.197429776191711426e-02 6.129322528839111328e+00 1.863389015197753906e+00 4.702546074986457825e-02
2.169000000000000000e+03 5.525652694702148438e+01 2.449485588073730469e+01 -4.408567845821380615e-01 5.491596221923828125e+00 1.515221714973449707e+00 2.767149806022644043e-01
2.170000000000000000e+03 5.163674545288085938e+01 2.354510116577148438e+01 -7.298769354820251465e-01 5.217289924621582031e+00 1.346223831176757812e+00 -5.257247686386108398e-01
2.171000000000000000e+03 4.518861389160156250e+01 2.453882980346679688e+01 -1.288699209690093994e-01 2.406832456588745117e+00 6.833887696266174316e-01 -1.014874458312988281e+00
2.172000000000000000e+03 4.224975967407226562e+01 2.528469657897949219e+01 -5.776212364435195923e-02 1.534695625305175781e+00 4.430800676345825195e-01 -6.966198682785034180e-01
2.173000000000000000e+03 3.030857658386230469e+01 2.461192512512207031e+01 -2.654201388359069824e-01 -7.821547798812389374e-03 -8.197250217199325562e-02 6.124383211135864258e-02
2.174000000000000000e+03 2.736402702331542969e+01 2.354157257080078125e+01 -5.281983613967895508e-01 -1.593984216451644897e-01 -2.062790393829345703e-01 1.070791855454444885e-01
2.175000000000000000e+03 2.518740272521972656e+01 2.338665962219238281e+01 -5.302184224128723145e-01 -2.922417223453521729e-01 -2.467380464076995850e-01 1.123620197176933289e-01
2.176000000000000000e+03 2.361557960510253906e+01 2.262953948974609375e+01 -5.981040596961975098e-01 -3.755090534687042236e-01 -2.920839488506317139e-01 1.318667531013488770e-01
2.177000000000000000e+03 1.985699462890625000e+01 2.443093299865722656e+01 -3.589929938316345215e-01 -2.786547541618347168e-01 -1.912943273782730103e-01 2.403534948825836182e-01
2.178000000000000000e+03 1.614090156555175781e+01 2.349857330322265625e+01 -4.006497561931610107e-01 -8.748750388622283936e-02 -1.464411765336990356e-01 2.316425740718841553e-01
2.179000000000000000e+03 4.991329669952392578e+00 2.518010711669921875e+01 -5.995154753327369690e-02 5.677820444107055664e-01 1.523491442203521729e-01 1.266407668590545654e-01
2.180000000000000000e+03 5.014944076538085938e+00 2.408845901489257812e+01 -7.363203167915344238e-02 5.856643319129943848e-01 1.536096930503845215e-01 1.024304181337356567e-01
2.181000000000000000e+03 3.617694616317749023e+00 2.389529037475585938e+01 -4.563757404685020447e-02 6.934838891029357910e-01 1.943538933992385864e-01 7.788154482841491699e-02
2.182000000000000000e+03 7.233512878417968750e+01 2.815840339660644531e+01 -7.399621605873107910e-02 6.413849353790283203e+00 1.901955962181091309e+00 2.281637340784072876e-01
2.183000000000000000e+03 6.387474060058593750e+01 2.437484169006347656e+01 1.616310924291610718e-01 5.637318611145019531e+00 1.739684939384460449e+00 1.446041315793991089e-01
2.184000000000000000e+03 6.206782150268554688e+01 2.457622528076171875e+01 2.356345355510711670e-01 5.309985637664794922e+00 1.663686037063598633e+00 1.872050613164901733e-01
2.185000000000000000e+03 4.489111709594726562e+01 2.620836257934570312e+01 -6.971418857574462891e-02 2.362266778945922852e+00 6.877657771110534668e-01 -8.048759102821350098e-01
2.186000000000000000e+03 2.655087661743164062e+01 2.543741607666015625e+01 -2.655661106109619141e-01 -1.931193172931671143e-01 -1.376056373119354248e-01 1.013472303748130798e-01
2.187000000000000000e+03 2.220849418640136719e+01 2.493807792663574219e+01 -2.808715999126434326e-01 -3.216819167137145996e-01 -1.807660609483718872e-01 1.882343590259552002e-01
2.188000000000000000e+03 1.485516357421875000e+01 2.581901741027832031e+01 -1.845424324274063110e-01 -2.955725602805614471e-02 -6.422990560531616211e-02 2.564762234687805176e-01
2.189000000000000000e+03 1.302116680145263672e+01 2.591374397277832031e+01 -1.625533998012542725e-01 7.044410705566406250e-02 -2.763278968632221222e-02 2.434716373682022095e-01
2.190000000000000000e+03 1.138216304779052734e+01 2.598130607604980469e+01 -1.514434069395065308e-01 1.676402539014816284e-01 4.859056323766708374e-03 2.295724600553512573e-01
2.191000000000000000e+03 9.193363189697265625e+00 2.480273818969726562e+01 -1.538343578577041626e-01 3.073382079601287842e-01 4.605115205049514771e-02 1.841191947460174561e-01
2.192000000000000000e+03 7.946210384368896484e+00 2.495548248291015625e+01 -1.287226378917694092e-01 3.783316016197204590e-01 7.488269358873367310e-02 1.664419770240783691e-01
2.193000000000000000e+03 3.406312465667724609e+00 2.616684341430664062e+01 -2.762652188539505005e-02 6.765146851539611816e-01 1.946664452552795410e-01 1.112151592969894409e-01
2.194000000000000000e+03 7.414865112304687500e+01 3.002692794799804688e+01 -4.559041187167167664e-02 6.512317180633544922e+00 1.940017938613891602e+00 2.117441445589065552e-01
2.195000000000000000e+03 6.989421844482421875e+01 2.635379981994628906e+01 -8.094680309295654297e-02 6.308685302734375000e+00 1.868321537971496582e+00 2.333987504243850708e-01
2.196000000000000000e+03 5.075892257690429688e+01 2.698549270629882812e+01 -5.531567335128784180e-01 4.482746124267578125e+00 1.178876757621765137e+00 -5.107038617134094238e-01
2.197000000000000000e+03 2.966124153137207031e+01 2.761405563354492188e+01 -1.244764588773250580e-02 2.796142129227519035e-03 -2.895451150834560394e-03 1.479576714336872101e-02
2.198000000000000000e+03 2.542839241027832031e+01 2.618062973022460938e+01 -1.626346260309219360e-01 -2.326957583427429199e-01 -1.185991168022155762e-01 1.170442253351211548e-01
2.199000000000000000e+03 2.104271697998046875e+01 2.770181083679199219e+01 -6.241727247834205627e-02 -2.500821352005004883e-01 -9.374982118606567383e-02 2.111258059740066528e-01
2.200000000000000000e+03 1.488558769226074219e+01 2.786774444580078125e+01 -5.781963095068931580e-02 -3.698431700468063354e-02 -2.844118513166904449e-02 2.638411223888397217e-01
2.201000000000000000e+03 1.099637985229492188e+01 2.700510597229003906e+01 -8.647363632917404175e-02 1.798634231090545654e-01 2.801693603396415710e-02 2.423925995826721191e-01
2.202000000000000000e+03 8.880436897277832031e+00 2.713584327697753906e+01 -7.081521302461624146e-02 2.921735346317291260e-01 6.640749424695968628e-02 2.153360992670059204e-01
2.203000000000000000e+03 7.128859710693359375e+01 3.149812698364257812e+01 -1.082850396633148193e-01 6.357075691223144531e+00 1.874637246131896973e+00 2.085687071084976196e-01
2.204000000000000000e+03 6.804914093017578125e+01 2.959306716918945312e+01 -1.171015426516532898e-01 6.096321582794189453e+00 1.793766021728515625e+00 1.962311565876007080e-01
2.205000000000000000e+03 5.811757278442382812e+01 2.873003768920898438e+01 -2.699260711669921875e-01 5.256109237670898438e+00 1.495854973793029785e+00 1.304175853729248047e-01
2.206000000000000000e+03 5.131211090087890625e+01 2.834303092956542969e+01 -4.382174015045166016e-01 4.367592811584472656e+00 1.178812623023986816e+00 -4.146368503570556641e-01
2.207000000000000000e+03 4.947252273559570312e+01 2.937764549255371094e+01 -3.445226550102233887e-01 3.809112310409545898e+00 1.039376854896545410e+00 -5.230678319931030273e-01
2.208000000000000000e+03 4.731473922729492188e+01 3.022364616394042969e+01 -1.693569719791412354e-01 3.154587745666503906e+00 8.955692052841186523e-01 -5.881190896034240723e-01
2.209000000000000000e+03 3.377221679687500000e+01 3.009895324707031250e+01 1.908255517482757568e-01 4.432318508625030518e-01 1.902172118425369263e-01 -1.418199241161346436e-01
2.210000000000000000e+03 2.788189697265625000e+01 2.923193550109863281e+01 1.292858421802520752e-01 -3.698442503809928894e-02 2.769042551517486572e-02 4.772616550326347351e-02
2.211000000000000000e+03 2.469993209838867188e+01 2.717937088012695312e+01 -8.853168040513992310e-02 -2.532295882701873779e-01 -1.025283858180046082e-01 1.298028975725173950e-01
2.212000000000000000e+03 1.998457145690917969e+01 2.783123397827148438e+01 -4.939823970198631287e-02 -2.207650989294052124e-01 -8.104900270700454712e-02 2.369467169046401978e-01
2.213000000000000000e+03 1.387431335449218750e+01 2.887857055664062500e+01 -7.683828473091125488e-03 1.077692490071058273e-02 9.279288351535797119e-04 2.566091120243072510e-01
2.214000000000000000e+03 8.071492195129394531e+00 2.881106948852539062e+01 -2.039266563951969147e-02 3.184649050235748291e-01 8.942167460918426514e-02 2.119182944297790527e-01
2.215000000000000000e+03 7.261910247802734375e+01 3.167847442626953125e+01 -8.026042580604553223e-02 6.431588649749755859e+00 1.905398488044738770e+00 1.917701214551925659e-01
2.216000000000000000e+03 6.675927734375000000e+01 3.203602600097656250e+01 -1.766782402992248535e-01 5.977284431457519531e+00 1.740181922912597656e+00 1.754292249679565430e-01
2.217000000000000000e+03 6.419110870361328125e+01 3.069135856628417969e+01 -1.665080040693283081e-01 5.710706233978271484e+00 1.663259387016296387e+00 1.572390347719192505e-01
2.218000000000000000e+03 5.491921234130859375e+01 2.993311119079589844e+01 -4.152526259422302246e-01 4.870574474334716797e+00 1.336596608161926270e+00 -7.004752010107040405e-02
2.219000000000000000e+03 4.231111526489257812e+01 3.422517013549804688e+01 1.159399449825286865e-01 2.011447191238403320e+00 6.382161378860473633e-01 -3.661217987537384033e-01
2.220000000000000000e+03 3.265987014770507812e+01 3.323083877563476562e+01 3.355309665203094482e-01 4.748980700969696045e-01 2.431287169456481934e-01 -1.013919115066528320e-01
2.221000000000000000e+03 2.965010833740234375e+01 3.183825111389160156e+01 2.795283496379852295e-01 1.201594918966293335e-01 1.199063509702682495e-01 1.258231350220739841e-03
2.222000000000000000e+03 2.715631675720214844e+01 2.802519798278808594e+01 8.952638134360313416e-03 -1.186372041702270508e-01 -3.290536999702453613e-02 9.037971496582031250e-02
2.223000000000000000e+03 1.764316749572753906e+01 3.108219718933105469e+01 1.328190863132476807e-01 -1.297634392976760864e-01 9.166980744339525700e-04 2.256391197443008423e-01
2.224000000000000000e+03 5.393943786621093750e+00 3.212170791625976562e+01 2.703394927084445953e-02 4.166416525840759277e-01 1.331026852130889893e-01 1.617142707109451294e-01
2.225000000000000000e+03 7.406455993652343750e+01 3.366545104980468750e+01 -6.565634906291961670e-02 6.544988155364990234e+00 1.943799495697021484e+00 1.581343859434127808e-01
2.226000000000000000e+03 6.968811798095703125e+01 3.512940597534179688e+01 -1.532126665115356445e-01 6.220290660858154297e+00 1.820123434066772461e+00 1.428112238645553589e-01
2.227000000000000000e+03 5.692923355102539062e+01 3.379823303222656250e+01 -3.006888926029205322e-01 4.896687507629394531e+00 1.378799557685852051e+00 -3.751204907894134521e-02
2.228000000000000000e+03 4.524459838867187500e+01 3.370332336425781250e+01 2.476611873134970665e-03 2.619889259338378906e+00 7.867097854614257812e-01 -4.167224764823913574e-01
2.229000000000000000e+03 3.659860992431640625e+01 3.361254501342773438e+01 2.894905507564544678e-01 9.549974203109741211e-01 3.733463883399963379e-01 -2.126656770706176758e-01
2.230000000000000000e+03 1.069229888916015625e+01 3.296980285644531250e+01 8.825540542602539062e-02 1.523141562938690186e-01 7.217086851596832275e-02 2.099830359220504761e-01
2.231000000000000000e+03 7.860036373138427734e+00 3.185457992553710938e+01 4.507607594132423401e-02 3.042095303535461426e-01 1.047856807708740234e-01 1.992559283971786499e-01
2.232000000000000000e+03 6.910001754760742188e+00 3.279047393798828125e+01 4.498187825083732605e-02 3.281529545783996582e-01 1.119404509663581848e-01 1.860934942960739136e-01
2.233000000000000000e+03 7.415509796142578125e+01 3.573950576782226562e+01 -8.258453011512756348e-02 6.588072776794433594e+00 1.951646447181701660e+00 1.363322138786315918e-01
2.234000000000000000e+03 7.231918334960937500e+01 3.356701660156250000e+01 -9.901518374681472778e-02 6.417955875396728516e+00 1.895682215690612793e+00 1.793012171983718872e-01
2.235000000000000000e+03 4.895934677124023438e+01 3.550016403198242188e+01 -1.384456902742385864e-01 3.370009183883666992e+00 9.694690108299255371e-01 -2.803901731967926025e-01
2.236000000000000000e+03 4.689225006103515625e+01 4.050926589965820312e+01 -1.583854667842388153e-02 3.004099369049072266e+00 8.964782357215881348e-01 -6.610847264528274536e-02
2.237000000000000000e+03 3.514619064331054688e+01 3.672992324829101562e+01 4.010226130485534668e-01 8.167737722396850586e-01 3.653389215469360352e-01 -1.228290051221847534e-01
2.238000000000000000e+03 3.968112945556640625e+00 3.626370620727539062e+01 2.851833030581474304e-02 4.105409681797027588e-01 1.317177861928939819e-01 8.866304159164428711e-02
2.239000000000000000e+03 5.319955444335937500e+01 3.549898910522460938e+01 -2.674665749073028564e-01 4.302536487579345703e+00 1.210520982742309570e+00 -1.470870822668075562e-01
2.240000000000000000e+03 3.456077337265014648e+00 3.739662170410156250e+01 2.304147183895111084e-02 4.133644104003906250e-01 1.309217661619186401e-01 7.019786536693572998e-02
2.241000000000000000e+03 8.060362935066223145e-01 3.743231201171875000e+01 -1.770550152286887169e-03 4.608929455280303955e-01 1.377367228269577026e-01 2.033611759543418884e-02
2.242000000000000000e+03 8.043135643005371094e+00 4.111807632446289062e+01 1.103125438094139099e-01 2.348227500915527344e-01 1.035405844449996948e-01 2.769161388278007507e-02
2.243000000000000000e+03 1.570572018623352051e+00 1.349854946136474609e+01 -6.645031273365020752e-02 3.248508274555206299e-01 7.752016186714172363e-02 -3.539777398109436035e-01
2.244000000000000000e+03 5.754707336425781250e+00 1.325717926025390625e+01 -5.296624898910522461e-01 8.254947066307067871e-01 8.874965459108352661e-02 -5.322805047035217285e-01
2.245000000000000000e+03 7.395799636840820312e+00 1.336135292053222656e+01 -6.321459412574768066e-01 8.210366964340209961e-01 5.666722357273101807e-02 -3.484700620174407959e-01
2.246000000000000000e+03 8.939568519592285156e+00 1.311259269714355469e+01 -6.484751105308532715e-01 6.766580343246459961e-01 8.454876951873302460e-03 -2.251671254634857178e-01
2.247000000000000000e+03 1.131200790405273438e+01 1.384154224395751953e+01 -6.484784483909606934e-01 2.709691524505615234e-01 -1.132527887821197510e-01 -1.738100945949554443e-01
2.248000000000000000e+03 1.356414985656738281e+01 1.351676750183105469e+01 -7.280226945877075195e-01 -7.511001080274581909e-02 -2.409398108720779419e-01 -2.903774976730346680e-01
2.249000000000000000e+03 3.411381244659423828e+00 1.147357273101806641e+01 -2.949945628643035889e-01 4.238879382610321045e-01 3.866800665855407715e-02 -8.201297521591186523e-01
2.250000000000000000e+03 8.144462585449218750e+00 1.219524192810058594e+01 -6.620599031448364258e-01 8.831975460052490234e-01 6.634130328893661499e-02 -2.878160774707794189e-01
2.251000000000000000e+03 9.919310569763183594e+00 1.109569072723388672e+01 -5.557694435119628906e-01 5.438233017921447754e-01 -3.583849407732486725e-03 -1.063349246978759766e-01
2.252000000000000000e+03 1.158249282836914062e+01 1.096183681488037109e+01 -4.962990880012512207e-01 7.392563670873641968e-02 -1.267120391130447388e-01 -2.085768133401870728e-01
2.253000000000000000e+03 2.385236740112304688e+00 1.052126312255859375e+01 -1.686737090349197388e-01 -6.318116933107376099e-02 -6.955646723508834839e-02 -8.138362169265747070e-01
2.254000000000000000e+03 5.350487709045410156e+00 1.042994022369384766e+01 -5.313488245010375977e-01 1.141971707344055176e+00 1.831868439912796021e-01 -8.745167851448059082e-01
2.255000000000000000e+03 8.319349288940429688e+00 9.535647392272949219e+00 -5.408436059951782227e-01 1.297321557998657227e+00 2.269433736801147461e-01 -1.006355658173561096e-01
2.256000000000000000e+03 1.004998111724853516e+01 9.792405128479003906e+00 -4.215290248394012451e-01 4.449443817138671875e-01 7.024605292826890945e-03 -2.322603017091751099e-02
2.257000000000000000e+03 3.979813814163208008e+00 6.576745033264160156e+00 1.205337405204772949e+00 7.379886507987976074e-02 3.837408721446990967e-01 -1.112721920013427734e+00
2.258000000000000000e+03 2.578212499618530273e+00 4.801700592041015625e+00 9.964052438735961914e-01 -1.270732522010803223e+00 -8.229817450046539307e-02 3.856438994407653809e-01
2.259000000000000000e+03 4.792498111724853516e+00 4.682816982269287109e+00 3.071122646331787109e+00 -3.980844616889953613e-01 8.019114732742309570e-01 -9.246938675642013550e-02
2.260000000000000000e+03 2.797312259674072266e+00 2.709034204483032227e+00 1.801849007606506348e-01 -8.608098030090332031e-01 -2.041874825954437256e-01 1.522503972053527832e+00
2.261000000000000000e+03 5.818969726562500000e+00 4.091000080108642578e+00 4.868190765380859375e+00 2.141864299774169922e-01 1.524713277816772461e+00 4.985422194004058838e-01
2.262000000000000000e+03 4.340628814697265625e+01 -7.533350467681884766e+00 2.167971432209014893e-01 8.677140235900878906e+00 2.668181419372558594e+00 1.442734241485595703e+00
2.263000000000000000e+03 6.999440002441406250e+01 -6.286310672760009766e+00 5.355440974235534668e-01 2.678949594497680664e+00 9.643481373786926270e-01 -1.650452017784118652e+00
2.264000000000000000e+03 6.530119323730468750e+01 -1.218794250488281250e+01 6.334005594253540039e-01 2.720273494720458984e+00 1.006102204322814941e+00 -1.322795748710632324e+00
2.265000000000000000e+03 4.792488861083984375e+01 -3.283317804336547852e+00 -7.341615676879882812e+00 -1.201691031455993652e+00 -2.562992095947265625e+00 2.233904361724853516e+00
2.266000000000000000e+03 5.088874816894531250e+01 -1.638208198547363281e+01 -1.785784244537353516e+00 -1.138467311859130859e+00 -8.772754669189453125e-01 1.380906462669372559e+00
2.267000000000000000e+03 3.787821197509765625e+01 -6.394095897674560547e+00 -6.935900449752807617e-01 -2.517722368240356445e+00 -9.633937478065490723e-01 1.617111682891845703e+00
2.268000000000000000e+03 3.310437011718750000e+01 -1.038939189910888672e+01 1.179319154471158981e-02 1.856686174869537354e-01 5.923854187130928040e-02 -2.731336839497089386e-02
2.269000000000000000e+03 1.518005180358886719e+01 6.020490169525146484e+00 5.498046875000000000e-01 1.225486919283866882e-01 2.017060220241546631e-01 3.775630518794059753e-02
2.270000000000000000e+03 1.558648967742919922e+01 6.086043357849121094e+00 2.390669733285903931e-01 1.675287038087844849e-01 1.219787001609802246e-01 9.777834266424179077e-02
2.271000000000000000e+03 1.599310493469238281e+01 6.718838214874267578e+00 4.170463979244232178e-01 1.651428490877151489e-01 1.746567785739898682e-01 1.952155828475952148e-01
2.272000000000000000e+03 1.562843799591064453e+01 6.347830295562744141e+00 3.241330981254577637e-01 1.043683215975761414e-01 1.285504251718521118e-01 1.199804544448852539e-01
2.273000000000000000e+03 1.588957309722900391e+01 6.895825862884521484e+00 3.368779420852661133e-01 1.316352933645248413e-01 1.405539661645889282e-01 3.352170586585998535e-01
2.274000000000000000e+03 1.758452796936035156e+01 6.019690990447998047e+00 -1.882660537958145142e-01 4.109322279691696167e-02 -4.415184631943702698e-02 -6.405479460954666138e-02
2.275000000000000000e+03 1.966428947448730469e+01 6.040472030639648438e+00 -2.357430905103683472e-01 2.872256375849246979e-02 -6.210615858435630798e-02 -8.222258836030960083e-02
2.276000000000000000e+03 2.254565048217773438e+01 5.874285221099853516e+00 -2.386839538812637329e-01 3.032175451517105103e-02 -6.250865757465362549e-02 -1.388275176286697388e-01
2.277000000000000000e+03 3.625359725952148438e+01 1.450961780548095703e+01 -2.195201635360717773e+00 -2.673875689506530762e-01 -7.387767434120178223e-01 1.859474480152130127e-01
2.278000000000000000e+03 3.775528717041015625e+01 1.317695999145507812e+01 -1.358648061752319336e+00 7.431896775960922241e-02 -3.852987289428710938e-01 5.493946671485900879e-01
2.279000000000000000e+03 3.993207550048828125e+01 1.276911449432373047e+01 -1.093710899353027344e+00 2.248166650533676147e-01 -2.606682479381561279e-01 1.755026429891586304e-01
2.280000000000000000e+03 4.307623291015625000e+01 1.208384227752685547e+01 -9.615957736968994141e-01 1.518161445856094360e-01 -2.429338842630386353e-01 -3.176792263984680176e-01
2.281000000000000000e+03 4.043796920776367188e+01 7.480205059051513672e+00 -9.795487858355045319e-03 3.137712925672531128e-02 6.474492605775594711e-03 1.237622927874326706e-02
2.282000000000000000e+03 3.996643447875976562e+01 7.952817440032958984e+00 2.257915213704109192e-02 -6.592635996639728546e-03 4.795955028384923935e-03 -1.370571274310350418e-02
2.283000000000000000e+03 3.672757720947265625e+01 9.598288536071777344e+00 -3.151603508740663528e-03 -1.118042782763950527e-04 -9.790223557502031326e-04 5.810664035379886627e-03
2.284000000000000000e+03 2.560245895385742188e+01 9.751530289649963379e-01 2.937413752079010010e-01 -5.426800847053527832e-01 -7.468160986900329590e-02 -2.690769433975219727e-01
2.285000000000000000e+03 2.570558547973632812e+01 2.296399116516113281e+00 -1.418145179748535156e+00 -3.408922255039215088e-01 -5.277112126350402832e-01 -5.570145249366760254e-01
2.286000000000000000e+03 2.087116432189941406e+01 2.141556978225708008e+00 2.378966808319091797e+00 3.203136026859283447e-01 8.097841143608093262e-01 -4.385246336460113525e-01
2.287000000000000000e+03 1.820642089843750000e+01 2.775654077529907227e+00 8.169363021850585938e+00 1.853620529174804688e+00 3.006895065307617188e+00 -4.386307716369628906e+00
2.288000000000000000e+03 1.817207336425781250e+01 2.431523323059082031e+00 1.192137718200683594e+01 6.952533245086669922e+00 5.662173271179199219e+00 -7.948985099792480469e+00
2.289000000000000000e+03 1.771439361572265625e+01 2.837845563888549805e+00 1.189235115051269531e+01 1.977271080017089844e+00 4.160886764526367188e+00 -7.405104637145996094e+00
2.290000000000000000e+03 1.771672630310058594e+01 2.594310760498046875e+00 1.290819740295410156e+01 4.688995838165283203e+00 5.279158115386962891e+00 -8.689233779907226562e+00
2.291000000000000000e+03 2.150895690917968750e+01 4.350093603134155273e-01 2.751517772674560547e+00 1.665968537330627441e+00 1.325245857238769531e+00 -2.029847145080566406e+00
2.292000000000000000e+03 1.345430946350097656e+01 -2.123234272003173828e+00 -3.260988742113113403e-02 9.236073819920420647e-04 -9.505883790552616119e-03 1.076440606266260147e-02
2.293000000000000000e+03 8.089126586914062500e+00 -1.848205208778381348e+00 -1.642427034676074982e-02 6.830124766565859318e-04 -4.722377285361289978e-03 -5.836241412907838821e-03
2.294000000000000000e+03 5.966442584991455078e+00 -2.719908714294433594e+00 -1.281021721661090851e-02 -1.095670508220791817e-03 -4.171766340732574463e-03 -9.064363315701484680e-03
2.295000000000000000e+03 5.054878711700439453e+00 -1.939524292945861816e+00 -6.285866722464561462e-03 -7.749194628559052944e-04 -2.118235919624567032e-03 -4.524854477494955063e-03
2.296000000000000000e+03 3.519510030746459961e+00 -2.018685102462768555e+00 -3.008950967341661453e-03 -1.696744468063116074e-03 -1.411708653904497623e-03 -2.301329048350453377e-03
2.297000000000000000e+03 1.176183342933654785e+00 -2.161700487136840820e+00 -8.963712025433778763e-04 2.793034946080297232e-05 -2.605322515591979027e-04 2.747424878180027008e-04
2.298000000000000000e+03 9.333476424217224121e-01 -2.358578109741210938e+01 2.125142375007271767e-03 -3.632965087890625000e-01 -1.083514094352722168e-01 -2.545017935335636139e-02
2.299000000000000000e+03 5.898672342300415039e-01 -6.344078540802001953e+00 -2.120070159435272217e-03 -7.818595506250858307e-03 -2.981599653139710426e-03 -3.546275664120912552e-03
2.300000000000000000e+03 7.955921173095703125e+01 3.210228729248046875e+01 3.437269106507301331e-02 6.976242542266845703e+00 2.103184461593627930e+00 2.501373365521430969e-02
2.301000000000000000e+03 7.947084045410156250e+01 -9.544244408607482910e-02 -2.392399013042449951e-01 1.390910720825195312e+01 4.100960254669189453e+00 -9.746752679347991943e-03
2.302000000000000000e+03 7.938127136230468750e+01 -1.533922767639160156e+01 -1.101662516593933105e-01 6.794407844543457031e+00 2.005272626876831055e+00 -1.882809847593307495e-01
2.303000000000000000e+03 7.944327545166015625e+01 -2.225580787658691406e+01 2.574652247130870819e-02 8.146553993225097656e+00 2.451690196990966797e+00 -1.909832470118999481e-02
2.304000000000000000e+03 7.428414821624755859e-01 2.901216697692871094e+01 -5.201660562306642532e-03 7.782800197601318359e-01 2.319235056638717651e-01 3.552049025893211365e-02
2.305000000000000000e+03 8.978520393371582031e+00 1.732677340507507324e+00 -1.949106693267822266e+00 9.431473612785339355e-01 -3.017877936363220215e-01 -7.889448404312133789e-01
2.306000000000000000e+03 4.910187721252441406e+00 2.300504446029663086e+00 1.013578549027442932e-01 -3.384090065956115723e-01 -7.111534476280212402e-02 2.370236635208129883e+00
2.307000000000000000e+03 3.297842264175415039e+00 1.852257013320922852e+00 -7.587388753890991211e-01 -4.763528704643249512e-01 -3.705275356769561768e-01 1.739530444145202637e+00
2.308000000000000000e+03 1.145617008209228516e+01 2.866141319274902344e+00 3.815424203872680664e+00 3.004323840141296387e-01 1.234756946563720703e+00 -1.635784864425659180e+00
2.309000000000000000e+03 1.259297466278076172e+01 1.642202258110046387e+00 -1.107067942619323730e+00 5.676893591880798340e-01 -1.618135720491409302e-01 -1.919399619102478027e+00
2.310000000000000000e+03 1.370015239715576172e+01 2.091039657592773438e+00 -7.813233733177185059e-01 5.434801578521728516e-01 -7.135295122861862183e-02 -1.991001725196838379e+00
2.311000000000000000e+03 1.481103324890136719e+01 2.833548069000244141e+00 8.435004949569702148e-01 -1.873468995094299316e+00 -3.089905679225921631e-01 -1.791025400161743164e+00
2.312000000000000000e+03 1.515281009674072266e+01 2.777821779251098633e+00 -2.932656109333038330e-01 -2.477465391159057617e+00 -8.312192559242248535e-01 -2.792745351791381836e+00
2.313000000000000000e+03 1.443570423126220703e+01 2.872524976730346680e+00 1.332045555114746094e+00 -1.414268255233764648e+00 -2.466681599617004395e-02 -8.467010259628295898e-01
2.314000000000000000e+03 1.360444927215576172e+01 2.632815122604370117e+00 1.408030509948730469e+00 5.680947303771972656e-01 5.928375720977783203e-01 -1.279011368751525879e+00
2.315000000000000000e+03 1.365254116058349609e+01 2.878415107727050781e+00 2.322836637496948242e+00 3.675288259983062744e-01 8.071095943450927734e-01 -8.346824049949645996e-01
2.316000000000000000e+03 1.289667320251464844e+01 2.892178058624267578e+00 3.236817598342895508e+00 6.134511828422546387e-01 1.155080676078796387e+00 -1.099496722221374512e+00
2.317000000000000000e+03 1.191334152221679688e+01 2.851928472518920898e+00 3.627294778823852539e+00 6.428237557411193848e-01 1.281035661697387695e+00 -1.417670845985412598e+00
2.318000000000000000e+03 1.114036655426025391e+01 1.738318085670471191e+00 -9.268690347671508789e-01 3.255811333656311035e-01 -1.803863793611526489e-01 -1.714402556419372559e+00
2.319000000000000000e+03 1.033385562896728516e+01 3.019773721694946289e+00 5.414766311645507812e+00 4.618974626064300537e-01 1.762999057769775391e+00 -1.657384395599365234e+00
2.320000000000000000e+03 9.335206985473632812e+00 2.944136381149291992e+00 4.631587505340576172e+00 1.291177392005920410e+00 1.776829481124877930e+00 -1.870808362960815430e+00
2.321000000000000000e+03 7.909851551055908203e+00 3.014975070953369141e+00 3.491571426391601562e+00 3.510573387145996094e+00 2.100643396377563477e+00 -2.092692106962203979e-01
2.322000000000000000e+03 5.777514457702636719e+00 4.789480209350585938e+00 4.739108562469482422e+00 6.364202499389648438e-01 1.612658619880676270e+00 -1.069163322448730469e+00
2.323000000000000000e+03 6.317094802856445312e+00 5.294294834136962891e+00 4.310898780822753906e+00 2.329901456832885742e+00 1.992240071296691895e+00 -2.456723690032958984e+00
2.324000000000000000e+03 6.431092262268066406e+00 5.479115486145019531e+00 3.535682201385498047e+00 2.921990633010864258e+00 1.937301874160766602e+00 -2.612144947052001953e+00
2.325000000000000000e+03 7.845712184906005859e+00 6.340584278106689453e+00 -1.230769883841276169e-02 3.584370136260986328e+00 1.071618676185607910e+00 1.810944527387619019e-01
2.326000000000000000e+03 8.231601715087890625e+00 6.323836803436279297e+00 2.378583103418350220e-01 2.558082580566406250e+00 8.387822508811950684e-01 6.181924939155578613e-01
2.327000000000000000e+03 8.614094734191894531e+00 6.327585697174072266e+00 4.406078755855560303e-01 1.447028875350952148e+00 5.662910342216491699e-01 6.053041219711303711e-01
2.328000000000000000e+03 8.383011817932128906e+00 6.596057415008544922e+00 1.213478073477745056e-01 2.093487262725830078e+00 6.644505262374877930e-01 5.339518785476684570e-01
2.329000000000000000e+03 1.007837104797363281e+01 6.536212444305419922e+00 -3.855001032352447510e-01 -4.245960116386413574e-01 -2.430288195610046387e-01 7.561086863279342651e-02
2.330000000000000000e+03 1.050526618957519531e+01 6.874214649200439453e+00 -4.648363217711448669e-02 -5.371624231338500977e-01 -1.750938147306442261e-01 -2.670405209064483643e-01
2.331000000000000000e+03 1.118994808197021484e+01 8.874925613403320312e+00 -2.337968945503234863e-01 -1.073295697569847107e-01 -1.023379340767860413e-01 -1.745913922786712646e-01
2.332000000000000000e+03 1.234750080108642578e+01 9.477353096008300781e+00 -3.417045176029205322e-01 -2.911143898963928223e-01 -1.898456811904907227e-01 -3.484024405479431152e-01
2.333000000000000000e+03 1.263072395324707031e+01 9.766628265380859375e+00 -4.085658192634582520e-01 -3.465608954429626465e-01 -2.265380173921585083e-01 -3.383888006210327148e-01
2.334000000000000000e+03 1.410392475128173828e+01 1.121161746978759766e+01 -5.877439379692077637e-01 -3.843050003051757812e-01 -2.916146814823150635e-01 -4.984997212886810303e-01
2.335000000000000000e+03 1.478942775726318359e+01 1.235830974578857422e+01 -7.637935280799865723e-01 -3.658107519149780273e-01 -3.388812839984893799e-01 -5.105276107788085938e-01
2.336000000000000000e+03 1.567181015014648438e+01 1.248822784423828125e+01 -9.062147736549377441e-01 -4.934647381305694580e-01 -4.199038445949554443e-01 -6.345415711402893066e-01
2.337000000000000000e+03 1.599475860595703125e+01 1.273296070098876953e+01 -9.843497872352600098e-01 -4.655499160289764404e-01 -4.349699020385742188e-01 -6.582669019699096680e-01
2.338000000000000000e+03 1.643044853210449219e+01 1.351517200469970703e+01 -1.021528482437133789e+00 -3.886709809303283691e-01 -4.230598211288452148e-01 -5.600578784942626953e-01
2.339000000000000000e+03 1.808215713500976562e+01 1.397442150115966797e+01 -1.053148150444030762e+00 -3.014065921306610107e-01 -4.063664078712463379e-01 -5.835177302360534668e-01
2.340000000000000000e+03 2.017599678039550781e+01 1.513335323333740234e+01 -1.414734840393066406e+00 -3.640100955963134766e-01 -5.336235165596008301e-01 -6.986853480339050293e-01
2.341000000000000000e+03 2.275605392456054688e+01 1.640287017822265625e+01 -2.761615037918090820e+00 -3.153432309627532959e-01 -9.230874776840209961e-01 -6.888081431388854980e-01
2.342000000000000000e+03 2.491018486022949219e+01 1.433240509033203125e+01 3.042313158512115479e-01 1.192302942276000977e+00 4.489602744579315186e-01 5.078321695327758789e-01
2.343000000000000000e+03 2.422197914123535156e+01 1.327073955535888672e+01 4.520897865295410156e-01 7.625682950019836426e-01 3.643974065780639648e-01 5.617799162864685059e-01
2.344000000000000000e+03 2.403486442565917969e+01 1.209410572052001953e+01 1.788161098957061768e-01 4.670263528823852539e-01 1.937527358531951904e-01 2.460178136825561523e-01
2.345000000000000000e+03 2.262740707397460938e+01 1.190143871307373047e+01 3.855653405189514160e-01 2.953214049339294434e-01 2.042660266160964966e-01 3.223573863506317139e-01
2.346000000000000000e+03 2.198386955261230469e+01 1.141661357879638672e+01 3.351990282535552979e-01 2.452623099088668823e-01 1.741384118795394897e-01 2.757118344306945801e-01
2.347000000000000000e+03 2.075284767150878906e+01 1.043836307525634766e+01 2.313062995672225952e-01 1.853015124797821045e-01 1.249823421239852905e-01 2.004014700651168823e-01
2.348000000000000000e+03 2.013997650146484375e+01 9.854175567626953125e+00 2.198242992162704468e-01 1.733262538909912109e-01 1.179451644420623779e-01 1.735131740570068359e-01
2.349000000000000000e+03 2.001099205017089844e+01 9.182765007019042969e+00 1.435978114604949951e-01 1.549917310476303101e-01 8.957686275243759155e-02 1.289626657962799072e-01
2.350000000000000000e+03 1.877690315246582031e+01 8.948678016662597656e+00 2.142686843872070312e-01 1.333658248186111450e-01 1.042903512716293335e-01 1.436540335416793823e-01
2.351000000000000000e+03 1.844240188598632812e+01 8.768422126770019531e+00 1.983242779970169067e-01 9.110074490308761597e-02 8.682750910520553589e-02 1.713328510522842407e-01
2.352000000000000000e+03 1.753903961181640625e+01 8.070570945739746094e+00 2.598533630371093750e-01 1.582801192998886108e-01 1.254400461912155151e-01 1.552650779485702515e-01
2.353000000000000000e+03 1.659979438781738281e+01 6.020969390869140625e+00 -7.206452637910842896e-02 -8.665321767330169678e-02 -4.761532321572303772e-02 -4.941251873970031738e-02
2.354000000000000000e+03 1.485495948791503906e+01 6.114438056945800781e+00 3.783891797065734863e-01 2.949884831905364990e-01 2.020132988691329956e-01 3.449448943138122559e-01
2.355000000000000000e+03 1.468926048278808594e+01 6.033665657043457031e+00 6.436379551887512207e-01 2.772158384323120117e-01 2.762561440467834473e-01 3.182192444801330566e-01
2.356000000000000000e+03 1.456307983398437500e+01 6.069694042205810547e+00 6.330191493034362793e-01 5.713567882776260376e-02 2.070464342832565308e-01 5.740294456481933594e-01
2.357000000000000000e+03 9.788490295410156250e+00 6.241107940673828125e+00 1.312601268291473389e-01 -1.128233820199966431e-01 5.531022325158119202e-03 -1.607993394136428833e-01
2.358000000000000000e+03 8.568034172058105469e+00 6.609431266784667969e+00 1.683156937360763550e-01 1.694657683372497559e+00 5.588920116424560547e-01 5.539098381996154785e-01
2.359000000000000000e+03 9.024024963378906250e+00 6.353734970092773438e+00 4.153410494327545166e-01 6.189175844192504883e-01 3.102775812149047852e-01 3.698343634605407715e-01
2.360000000000000000e+03 9.425041198730468750e+00 6.293017864227294922e+00 2.702549397945404053e-01 8.735341951251029968e-03 8.369708061218261719e-02 6.306529045104980469e-02
2.361000000000000000e+03 1.016873264312744141e+01 6.272676944732666016e+00 1.757188737392425537e-01 -4.984320700168609619e-02 3.776269778609275818e-02 -2.925387322902679443e-01
2.362000000000000000e+03 1.040151500701904297e+01 6.299003124237060547e+00 -8.165240287780761719e-01 -9.056030511856079102e-01 -5.166381001472473145e-01 -2.299846261739730835e-01
2.363000000000000000e+03 1.028645515441894531e+01 6.653182506561279297e+00 3.706881105899810791e-01 -4.513743221759796143e-01 -2.420586161315441132e-02 -1.167640462517738342e-02
2.364000000000000000e+03 9.230340957641601562e+00 6.324274063110351562e+00 3.941462934017181396e-01 4.814127981662750244e-01 2.626677155494689941e-01 1.898653507232666016e-01
2.365000000000000000e+03 3.639671707153320312e+01 1.336221981048583984e+01 -1.557933211326599121e+00 -8.341874480247497559e-01 -7.176362276077270508e-01 9.855179786682128906e-01
2.366000000000000000e+03 6.150464057922363281e+00 5.635157108306884766e+00 3.092321395874023438e+00 2.315615892410278320e+00 1.622381210327148438e+00 -2.323568582534790039e+00
2.367000000000000000e+03 6.471673011779785156e+00 3.789767265319824219e+00 5.683467864990234375e+00 1.349834442138671875e+00 2.109990835189819336e+00 1.182419419288635254e+00
2.368000000000000000e+03 6.325298309326171875e+00 3.963543176651000977e+00 5.768359184265136719e+00 1.015094757080078125e+00 2.035036087036132812e+00 7.186584472656250000e-01
2.369000000000000000e+03 6.219738006591796875e+00 5.085510730743408203e+00 4.868417739868164062e+00 1.751803278923034668e+00 1.986066341400146484e+00 -2.066347837448120117e+00
2.370000000000000000e+03 7.450695037841796875e+00 3.070445537567138672e+00 3.354732036590576172e+00 3.658408164978027344e+00 2.103942155838012695e+00 8.774067759513854980e-01
2.371000000000000000e+03 7.080977916717529297e+00 3.269536495208740234e+00 4.169503211975097656e+00 3.080950021743774414e+00 2.175136089324951172e+00 1.455868363380432129e+00
2.372000000000000000e+03 6.540732383728027344e+00 6.166372299194335938e+00 1.454146027565002441e+00 3.464842796325683594e+00 1.475696682929992676e+00 -2.103004693984985352e+00
2.373000000000000000e+03 6.814446449279785156e+00 5.997334003448486328e+00 1.402240037918090820e+00 4.120832920074462891e+00 1.656921982765197754e+00 -2.138255834579467773e+00
2.374000000000000000e+03 7.634587287902832031e+00 6.367095947265625000e+00 6.765139847993850708e-02 3.974707841873168945e+00 1.212707757949829102e+00 -2.335981279611587524e-01
2.375000000000000000e+03 6.243785381317138672e+00 4.180521488189697266e+00 5.913569450378417969e+00 8.974627256393432617e-01 2.043309688568115234e+00 2.147246152162551880e-01
2.376000000000000000e+03 7.249931335449218750e+00 3.155800580978393555e+00 3.674545288085937500e+00 3.415822267532348633e+00 2.127110242843627930e+00 1.210560441017150879e+00
2.377000000000000000e+03 7.679465293884277344e+00 3.025566816329956055e+00 3.298348903656005859e+00 3.630751371383666992e+00 2.078730106353759766e+00 4.810118377208709717e-01
2.378000000000000000e+03 1.679444694519042969e+01 6.019553184509277344e+00 -9.752979129552841187e-02 3.839468955993652344e-02 -1.774052903056144714e-02 -3.870583698153495789e-02
2.379000000000000000e+03 1.535187816619873047e+01 6.069095611572265625e+00 2.549897432327270508e-01 -8.094935864210128784e-02 5.221211910247802734e-02 2.029793113470077515e-01
2.380000000000000000e+03 1.718717193603515625e+01 6.019888877868652344e+00 -1.474463045597076416e-01 4.170178994536399841e-02 -3.172335401177406311e-02 -6.279508769512176514e-02
2.381000000000000000e+03 1.699063682556152344e+01 6.018109321594238281e+00 -1.400957554578781128e-01 -7.997343689203262329e-02 -6.602075695991516113e-02 -4.354869574308395386e-02
2.382000000000000000e+03 1.818949317932128906e+01 6.043801784515380859e+00 -2.125296145677566528e-01 -2.706699259579181671e-02 -7.187898457050323486e-02 -8.288232982158660889e-02
2.383000000000000000e+03 1.640701293945312500e+01 6.020806789398193359e+00 -3.805253282189369202e-02 8.199546486139297485e-02 1.318288035690784454e-02 -1.039601303637027740e-02
2.384000000000000000e+03 1.504988098144531250e+01 6.111485958099365234e+00 5.319929122924804688e-01 2.426163703203201294e-01 2.323827743530273438e-01 6.310233473777770996e-02
2.385000000000000000e+03 1.583279418945312500e+01 6.063195705413818359e+00 9.833616018295288086e-02 -5.322202667593955994e-02 1.353423949331045151e-02 -1.413111295551061630e-02
2.386000000000000000e+03 1.748464012145996094e+01 6.251121044158935547e+00 -9.547470510005950928e-02 -5.561573430895805359e-03 -3.031088225543498993e-02 -3.412204980850219727e-02
2.387000000000000000e+03 1.814915847778320312e+01 6.405864238739013672e+00 -9.346886724233627319e-02 2.981018833816051483e-02 -1.909760385751724243e-02 -4.778714478015899658e-02
2.388000000000000000e+03 1.797443580627441406e+01 6.004223823547363281e+00 -2.179369628429412842e-01 2.679814025759696960e-02 -5.734164640307426453e-02 -5.675575509667396545e-02
2.389000000000000000e+03 1.626350021362304688e+01 6.511701583862304688e+00 2.526170015335083008e-01 5.626303330063819885e-02 9.266401082277297974e-02 1.067005768418312073e-01
2.390000000000000000e+03 1.894860839843750000e+01 6.069991588592529297e+00 -2.399778813123703003e-01 -1.065332093276083469e-03 -7.231296598911285400e-02 -7.828710228204727173e-02
2.391000000000000000e+03 9.108893394470214844e+00 3.024177074432373047e+00 5.077030181884765625e+00 1.709401607513427734e+00 2.035929441452026367e+00 -2.015662908554077148e+00
2.392000000000000000e+03 1.250447940826416016e+01 2.946061372756958008e+00 3.806283235549926758e+00 5.886917114257812500e-01 1.318492531776428223e+00 -1.203899145126342773e+00
2.393000000000000000e+03 1.014988803863525391e+01 2.496639728546142578e+00 2.297951698303222656e+00 3.629125356674194336e-01 7.982592582702636719e-01 -1.683029651641845703e+00
2.394000000000000000e+03 9.794480323791503906e+00 2.579877376556396484e+00 2.701826095581054688e+00 8.039574623107910156e-01 1.051735043525695801e+00 -1.667128920555114746e+00
2.395000000000000000e+03 8.572073936462402344e+00 3.024354696273803711e+00 4.337142944335937500e+00 2.882057666778564453e+00 2.165760278701782227e+00 -1.593457698822021484e+00
2.396000000000000000e+03 1.344999313354492188e+01 2.897474050521850586e+00 2.681307315826416016e+00 6.300268173217773438e-01 9.934002161026000977e-01 -9.955613017082214355e-01
2.397000000000000000e+03 1.101575374603271484e+01 2.668275117874145508e+00 3.603598833084106445e+00 4.195362031459808350e-01 1.206940531730651855e+00 -1.630560517311096191e+00
2.398000000000000000e+03 1.530520439147949219e+01 2.699711084365844727e+00 -6.903352737426757812e-01 -3.417879343032836914e+00 -1.232464432716369629e+00 -3.215645551681518555e+00
2.399000000000000000e+03 1.381403064727783203e+01 2.577274560928344727e+00 6.191303730010986328e-01 7.612067461013793945e-02 2.085753083229064941e-01 -1.300956010818481445e+00
2.400000000000000000e+03 1.431370544433593750e+01 1.775816202163696289e+00 -1.702668428421020508e+00 -4.859317541122436523e-01 -6.565800309181213379e-01 -2.264071464538574219e+00
2.401000000000000000e+03 1.407178115844726562e+01 2.565020799636840820e+00 3.562149405479431152e-01 1.290083974599838257e-01 1.455669999122619629e-01 -1.396893501281738281e+00
2.402000000000000000e+03 1.270193672180175781e+01 2.484660625457763672e+00 1.575447559356689453e+00 7.495489120483398438e-01 6.974989175796508789e-01 -1.516104578971862793e+00
2.403000000000000000e+03 1.268959808349609375e+01 2.914404630661010742e+00 3.436818361282348633e+00 6.777858734130859375e-01 1.234381198883056641e+00 -1.234511137008666992e+00
2.404000000000000000e+03 1.212594795227050781e+01 2.909970998764038086e+00 3.771071672439575195e+00 5.374382734298706055e-01 1.292552947998046875e+00 -1.177984833717346191e+00
2.405000000000000000e+03 1.068455600738525391e+01 3.023632287979125977e+00 5.083672523498535156e+00 4.155752360820770264e-01 1.649774312973022461e+00 -1.719623446464538574e+00
2.406000000000000000e+03 1.047944641113281250e+01 2.254167318344116211e+00 1.337699413299560547e+00 4.479720890522003174e-01 5.357014536857604980e-01 -1.821631669998168945e+00
2.407000000000000000e+03 1.239326858520507812e+01 2.714203119277954102e+00 2.754780054092407227e+00 5.866644382476806641e-01 1.002433300018310547e+00 -1.301168084144592285e+00
2.408000000000000000e+03 1.232017326354980469e+01 2.933324337005615234e+00 3.864094734191894531e+00 5.095299482345581055e-01 1.312087416648864746e+00 -1.268212199211120605e+00
2.409000000000000000e+03 1.073690223693847656e+01 2.725091457366943359e+00 3.734619617462158203e+00 4.773851633071899414e-01 1.263601422309875488e+00 -1.607688069343566895e+00
2.410000000000000000e+03 1.051819038391113281e+01 3.035453796386718750e+00 5.195145130157470703e+00 2.952137887477874756e-01 1.647107720375061035e+00 -1.866379499435424805e+00
2.411000000000000000e+03 9.227711677551269531e+00 2.606488943099975586e+00 3.045907258987426758e+00 1.539712429046630859e+00 1.375685930252075195e+00 -1.538257718086242676e+00
2.412000000000000000e+03 9.559739112854003906e+00 2.935531377792358398e+00 4.405476093292236328e+00 8.261172175407409668e-01 1.569477915763854980e+00 -1.772908687591552734e+00
2.413000000000000000e+03 1.014264678955078125e+01 3.019323825836181641e+00 5.396948814392089844e+00 5.268825888633728027e-01 1.777149438858032227e+00 -1.584382653236389160e+00
2.414000000000000000e+03 6.779112815856933594e+00 6.482405662536621094e+00 6.455875039100646973e-01 3.639914512634277344e+00 1.285650610923767090e+00 -1.586224198341369629e+00
2.415000000000000000e+03 2.328288459777832031e+01 1.758959007263183594e+01 -2.195407390594482422e+00 -6.499682068824768066e-01 -8.536126613616943359e-01 1.378797292709350586e-01
2.416000000000000000e+03 2.513201904296875000e+01 1.569736957550048828e+01 -5.910174846649169922e-01 1.129252016544342041e-01 -1.434276849031448364e-01 6.971147060394287109e-01
2.417000000000000000e+03 2.450794029235839844e+01 1.645232200622558594e+01 -3.194523334503173828e+00 -7.544510960578918457e-01 -1.184692263603210449e+00 9.866744279861450195e-01
2.418000000000000000e+03 2.591916656494140625e+01 1.389147949218750000e+01 1.413232386112213135e-01 2.217297852039337158e-01 1.089159101247787476e-01 1.870694160461425781e-01
2.419000000000000000e+03 2.447162437438964844e+01 1.360523700714111328e+01 4.696287214756011963e-01 9.568769335746765137e-01 4.279516935348510742e-01 5.870411396026611328e-01
2.420000000000000000e+03 2.490417480468750000e+01 1.338978958129882812e+01 2.577675879001617432e-01 7.146700024604797363e-01 2.917312681674957275e-01 3.026999235153198242e-01
2.421000000000000000e+03 2.396792984008789062e+01 1.292452144622802734e+01 4.632860422134399414e-01 6.132004857063293457e-01 3.229459524154663086e-01 4.744737148284912109e-01
2.422000000000000000e+03 1.977806091308593750e+01 9.634857177734375000e+00 2.144704312086105347e-01 1.326714605093002319e-01 1.041425690054893494e-01 1.739859282970428467e-01
2.423000000000000000e+03 2.103542137145996094e+01 1.071215915679931641e+01 2.440278828144073486e-01 1.857124716043472290e-01 1.289221048355102539e-01 2.223107814788818359e-01
2.424000000000000000e+03 2.193761825561523438e+01 1.076234340667724609e+01 1.876977980136871338e-01 2.352739125490188599e-01 1.268915086984634399e-01 2.122343927621841431e-01
2.425000000000000000e+03 2.134322166442871094e+01 1.095558738708496094e+01 2.758791446685791016e-01 2.084840685129165649e-01 1.453089565038681030e-01 2.351306825876235962e-01
2.426000000000000000e+03 1.559131336212158203e+01 6.683498859405517578e+00 5.508168339729309082e-01 2.682490646839141846e-01 2.457197755575180054e-01 2.480058670043945312e-01
2.427000000000000000e+03 1.911593818664550781e+01 9.144845008850097656e+00 2.047924548387527466e-01 1.112895384430885315e-01 9.482459723949432373e-02 1.632105857133865356e-01
2.428000000000000000e+03 2.230371665954589844e+01 1.166063308715820312e+01 3.551034331321716309e-01 2.534628510475158691e-01 1.825698763132095337e-01 3.084878921508789062e-01
2.429000000000000000e+03 1.971708869934082031e+01 8.861753463745117188e+00 1.230585277080535889e-01 1.103635653853416443e-01 7.002662867307662964e-02 1.208593994379043579e-01
2.430000000000000000e+03 1.812735557556152344e+01 8.562101364135742188e+00 2.311554998159408569e-01 1.478515118360519409e-01 1.137021034955978394e-01 1.421412974596023560e-01
2.431000000000000000e+03 1.855950736999511719e+01 8.439327239990234375e+00 1.860999464988708496e-01 1.123618707060813904e-01 8.953854441642761230e-02 1.223502010107040405e-01
2.432000000000000000e+03 1.850317192077636719e+01 8.142704963684082031e+00 1.641597449779510498e-01 9.218794852495193481e-02 7.690431177616119385e-02 1.222573444247245789e-01
2.433000000000000000e+03 2.329073905944824219e+01 1.237414169311523438e+01 4.318332076072692871e-01 3.885564506053924561e-01 2.461168915033340454e-01 3.827480971813201904e-01
2.434000000000000000e+03 2.292447471618652344e+01 1.146985244750976562e+01 2.336011976003646851e-01 2.959326803684234619e-01 1.588601619005203247e-01 2.697077691555023193e-01
2.435000000000000000e+03 2.166337776184082031e+01 1.118341636657714844e+01 3.019337058067321777e-01 2.109051197767257690e-01 1.538516432046890259e-01 2.636177837848663330e-01
2.436000000000000000e+03 1.934404945373535156e+01 8.562470436096191406e+00 1.353480070829391479e-01 1.173762381076812744e-01 7.581727206707000732e-02 9.816245734691619873e-02
2.437000000000000000e+03 2.316693687438964844e+01 1.656305694580078125e+01 -3.255782842636108398e+00 -3.739001154899597168e-01 -1.088904857635498047e+00 -4.496555626392364502e-01
2.438000000000000000e+03 1.069189453125000000e+01 7.201265811920166016e+00 -1.555040776729583740e-01 -5.221915841102600098e-01 -2.033087015151977539e-01 -1.529979109764099121e-01
2.439000000000000000e+03 1.074568653106689453e+01 8.186859130859375000e+00 -1.221633180975914001e-01 -1.120584160089492798e-01 -7.026652246713638306e-02 -1.093059554696083069e-01
2.440000000000000000e+03 2.297288322448730469e+01 1.711716079711914062e+01 -2.649550437927246094e+00 -4.520609080791473389e-01 -9.304834008216857910e-01 1.946248696185648441e-03
2.441000000000000000e+03 2.193106842041015625e+01 1.616088867187500000e+01 -2.148066997528076172e+00 -3.602604568004608154e-01 -7.524982094764709473e-01 -7.297661304473876953e-01
2.442000000000000000e+03 1.180455589294433594e+01 8.873862266540527344e+00 -2.670295238494873047e-01 -2.774908244609832764e-01 -1.633561104536056519e-01 -3.042371869087219238e-01
2.443000000000000000e+03 2.261587524414062500e+01 1.693365287780761719e+01 -2.668319940567016602e+00 -2.825224995613098145e-01 -8.852527141571044922e-01 -2.521666884422302246e-01
2.444000000000000000e+03 1.666351890563964844e+01 1.314343929290771484e+01 -1.106474280357360840e+00 -4.045354127883911133e-01 -4.533029198646545410e-01 -6.443558335304260254e-01
2.445000000000000000e+03 1.632694244384765625e+01 1.294423675537109375e+01 -1.055567145347595215e+00 -4.530663788318634033e-01 -4.525900483131408691e-01 -6.553587913513183594e-01
2.446000000000000000e+03 1.055029010772705078e+01 7.842185497283935547e+00 -1.209629550576210022e-01 -1.884947419166564941e-01 -9.283731132745742798e-02 -2.525401860475540161e-02
2.447000000000000000e+03 1.109278202056884766e+01 7.887559413909912109e+00 -1.901654154062271118e-01 -3.743963241577148438e-01 -1.693685203790664673e-01 -1.727547347545623779e-01
2.448000000000000000e+03 1.207155323028564453e+01 9.181135177612304688e+00 -3.465645015239715576e-01 -3.240346312522888184e-01 -2.011797428131103516e-01 -2.847516834735870361e-01
2.449000000000000000e+03 1.143482875823974609e+01 9.215819358825683594e+00 -3.166138231754302979e-01 -1.580265462398529053e-01 -1.423921138048171997e-01 -1.747093498706817627e-01
2.450000000000000000e+03 1.768618202209472656e+01 1.382234382629394531e+01 -1.065914630889892578e+00 -3.160275816917419434e-01 -4.145826697349548340e-01 -5.724841952323913574e-01
2.451000000000000000e+03 1.535535144805908203e+01 1.222635364532470703e+01 -8.161267042160034180e-01 -4.861277937889099121e-01 -3.906763494014739990e-01 -6.175006031990051270e-01
2.452000000000000000e+03 1.541482353210449219e+01 1.292347717285156250e+01 -8.794205784797668457e-01 -3.757618069648742676e-01 -3.765547275543212891e-01 -5.246816873550415039e-01
2.453000000000000000e+03 1.732006263732910156e+01 1.360779857635498047e+01 -1.088884830474853516e+00 -3.199245333671569824e-01 -4.226427972316741943e-01 -5.925027728080749512e-01
2.454000000000000000e+03 1.036492252349853516e+01 7.506375312805175781e+00 -1.866509206593036652e-02 -1.355325132608413696e-01 -4.625928029417991638e-02 -1.472871750593185425e-02
2.455000000000000000e+03 1.088831710815429688e+01 7.543841361999511719e+00 -8.294519782066345215e-02 -3.403776288032531738e-01 -1.269968450069427490e-01 -2.352183461189270020e-01
2.456000000000000000e+03 1.948461914062500000e+01 1.471561527252197266e+01 -1.266906619071960449e+00 -3.757336139678955078e-01 -4.927920699119567871e-01 -6.793094277381896973e-01
2.457000000000000000e+03 1.879729270935058594e+01 1.432404613494873047e+01 -1.125500321388244629e+00 -3.567351698875427246e-01 -4.446706473827362061e-01 -6.351230144500732422e-01
2.458000000000000000e+03 2.053376197814941406e+01 1.535445880889892578e+01 -1.484079241752624512e+00 -3.582727909088134766e-01 -5.527056455612182617e-01 -7.075158953666687012e-01
2.459000000000000000e+03 1.316753005981445312e+01 1.100553321838378906e+01 -5.467673540115356445e-01 -2.855665385723114014e-01 -2.497001737356185913e-01 -3.615923523902893066e-01
2.460000000000000000e+03 1.378818035125732422e+01 1.093313121795654297e+01 -5.675014853477478027e-01 -4.169635474681854248e-01 -2.953395247459411621e-01 -4.446154534816741943e-01
2.461000000000000000e+03 2.090944290161132812e+01 1.593344974517822266e+01 -1.703188061714172363e+00 -3.010780811309814453e-01 -6.012798547744750977e-01 -6.773377656936645508e-01
2.462000000000000000e+03 1.420658206939697266e+01 1.185668945312500000e+01 -6.714717745780944824e-01 -3.381093442440032959e-01 -3.028743267059326172e-01 -4.802356660366058350e-01
2.463000000000000000e+03 1.699646377563476562e+01 1.335656547546386719e+01 -1.122943997383117676e+00 -3.649016916751861572e-01 -4.463537037372589111e-01 -6.110758185386657715e-01
2.464000000000000000e+03 2.090634918212890625e+01 1.550642490386962891e+01 -1.535418152809143066e+00 -3.443509936332702637e-01 -5.639307498931884766e-01 -7.311398386955261230e-01
2.465000000000000000e+03 1.914106369018554688e+01 1.451619625091552734e+01 -1.195723533630371094e+00 -3.776921629905700684e-01 -4.720247089862823486e-01 -6.580634117126464844e-01
2.466000000000000000e+03 2.123972511291503906e+01 1.566335678100585938e+01 -1.656347274780273438e+00 -3.710450530052185059e-01 -6.082177162170410156e-01 -7.514989972114562988e-01
2.467000000000000000e+03 1.443749618530273438e+01 1.144329643249511719e+01 -6.331630349159240723e-01 -4.451096951961517334e-01 -3.234818279743194580e-01 -5.154901742935180664e-01
2.468000000000000000e+03 1.322152423858642578e+01 1.619100332260131836e+00 -1.553195476531982422e+00 8.452805280685424805e-01 -2.123745083808898926e-01 -2.159754753112792969e+00
2.469000000000000000e+03 1.375994968414306641e+01 1.665602922439575195e+00 -1.629662156105041504e+00 1.277562081813812256e-01 -4.505718052387237549e-01 -2.103445529937744141e+00
2.470000000000000000e+03 2.191468429565429688e+01 6.562673091888427734e+00 -2.359184026718139648e-01 7.628143578767776489e-02 -4.789109155535697937e-02 -1.193781271576881409e-01
2.471000000000000000e+03 3.789355087280273438e+01 1.392538833618164062e+01 -1.621185421943664551e+00 1.905747652053833008e-01 -4.291832149028778076e-01 3.889109492301940918e-01
2.472000000000000000e+03 3.720503234863281250e+01 1.401555442810058594e+01 -2.003052949905395508e+00 1.041166931390762329e-01 -5.696809291839599609e-01 3.824530839920043945e-01
2.473000000000000000e+03 4.402738952636718750e+01 1.308307838439941406e+01 -1.213562965393066406e+00 -4.624250158667564392e-02 -3.779416382312774658e-01 -5.191304087638854980e-01
2.474000000000000000e+03 1.040261077880859375e+01 1.774536252021789551e+00 -1.064425587654113770e+00 3.454732298851013184e-01 -2.156856954097747803e-01 -1.513258695602416992e+00
2.475000000000000000e+03 4.171314716339111328e+00 2.391068458557128906e+00 4.859625175595283508e-02 -5.962996482849121094e-01 -1.643110066652297974e-01 2.081697702407836914e+00
2.476000000000000000e+03 3.479110240936279297e+00 2.518900156021118164e+00 1.288415342569351196e-01 -7.295479178428649902e-01 -1.802119165658950806e-01 1.836148858070373535e+00
2.477000000000000000e+03 6.059177875518798828e+00 1.754815578460693359e+00 -1.774751901626586914e+00 4.415453970432281494e-01 -3.999619483947753906e-01 2.258883237838745117e+00
2.478000000000000000e+03 7.542595863342285156e+00 1.749608278274536133e+00 -2.367314815521240234e+00 1.375019669532775879e+00 -2.976885139942169189e-01 1.004776120185852051e+00
2.479000000000000000e+03 8.270995140075683594e+00 1.746559858322143555e+00 -2.323168277740478516e+00 1.178049564361572266e+00 -3.435356020927429199e-01 3.916597366333007812e-02
2.480000000000000000e+03 6.928985118865966797e+00 2.291499376296997070e+00 -1.617493331432342529e-01 1.445195913314819336e+00 3.850339651107788086e-01 1.896699309349060059e+00
2.481000000000000000e+03 1.348817825317382812e+00 3.358252525329589844e+00 1.681557595729827881e-01 -1.413208603858947754e+00 -3.735158741474151611e-01 8.211014866828918457e-01
2.482000000000000000e+03 2.516531562805175781e+01 -7.702425867319107056e-02 1.525327920913696289e+00 -6.142704486846923828e-01 2.733172476291656494e-01 -3.914476633071899414e-01
2.483000000000000000e+03 2.422073554992675781e+01 1.832034707069396973e+00 -1.646124005317687988e+00 -8.821490406990051270e-01 -7.584819197654724121e-01 4.013806879520416260e-01
2.484000000000000000e+03 3.803020858764648438e+01 8.218235015869140625e+00 -4.279164969921112061e-02 -4.678183700889348984e-03 -1.424095034599304199e-02 -5.928855855017900467e-03
2.485000000000000000e+03 1.947095108032226562e+01 2.484730720520019531e+00 4.445094585418701172e+00 1.010153174400329590e+00 1.636574268341064453e+00 -1.743542551994323730e+00
2.486000000000000000e+03 1.168776512145996094e+01 2.852276325225830078e+00 3.581223011016845703e+00 3.447355926036834717e-01 1.177787661552429199e+00 -1.519393563270568848e+00
2.487000000000000000e+03 1.038215065002441406e+01 2.813400983810424805e+00 4.095471858978271484e+00 3.075561821460723877e-01 1.320908427238464355e+00 -1.927395701408386230e+00
2.488000000000000000e+03 9.971444129943847656e+00 2.981471061706542969e+00 5.205121517181396484e+00 7.341633439064025879e-01 1.781785488128662109e+00 -1.621640563011169434e+00
2.489000000000000000e+03 1.299928283691406250e+01 2.595957517623901367e+00 1.751604199409484863e+00 6.646414399147033691e-01 7.248737215995788574e-01 -1.418879270553588867e+00
2.490000000000000000e+03 1.227130126953125000e+01 2.273570060729980469e+00 8.176855444908142090e-01 4.911498725414276123e-01 3.926506340503692627e-01 -1.918820619583129883e+00
2.491000000000000000e+03 3.928237533569335938e+01 1.358307170867919922e+01 -1.326553106307983398e+00 3.134939074516296387e-01 -3.039177656173706055e-01 2.608691751956939697e-01
2.492000000000000000e+03 3.872015380859375000e+01 1.428851985931396484e+01 -1.527027368545532227e+00 3.427189290523529053e-01 -3.552925288677215576e-01 2.632426023483276367e-01
2.493000000000000000e+03 3.983547210693359375e+01 8.947861671447753906e+00 5.119930137880146503e-04 1.256783585995435715e-02 3.923948854207992554e-03 -5.286151077598333359e-03
2.494000000000000000e+03 3.879554748535156250e+01 7.666171550750732422e+00 -5.219977465458214283e-04 -1.256049494259059429e-03 -5.334141314961016178e-04 7.358219008892774582e-03
2.495000000000000000e+03 1.090574741363525391e+01 -2.457018852233886719e+00 -3.106462396681308746e-02 9.696647524833679199e-03 -6.410392932593822479e-03 -8.269287063740193844e-04
2.496000000000000000e+03 2.121972274780273438e+01 6.650880336761474609e+00 -2.073235958814620972e-01 5.856636911630630493e-02 -4.462716728448867798e-02 -1.132863312959671021e-01
2.497000000000000000e+03 5.814881324768066406e+00 -1.907709717750549316e+00 -1.188605278730392456e-02 -1.161687541753053665e-03 -3.914321772754192352e-03 -5.427796393632888794e-03
2.498000000000000000e+03 5.224310874938964844e+00 -2.807037115097045898e+00 -1.355923339724540710e-02 -3.100924659520387650e-03 -4.998047370463609695e-03 -8.301137946546077728e-03
2.499000000000000000e+03 2.089919328689575195e+00 -3.332183122634887695e+00 -3.448917996138334274e-03 -4.125169012695550919e-03 -2.272226149216294289e-03 -3.061647992581129074e-03
2.500000000000000000e+03 4.209987521171569824e-01 -3.579732894897460938e+00 -1.094974926672875881e-03 1.950743375346064568e-03 2.567305346019566059e-04 -3.803553699981421232e-04
2.501000000000000000e+03 6.696470260620117188e+00 -2.642858743667602539e+00 -1.930586807429790497e-02 -6.384317530319094658e-04 -5.983289796859025955e-03 -8.679324761033058167e-03
2.502000000000000000e+03 7.431640625000000000e+00 -2.584919691085815430e+00 -1.858786121010780334e-02 7.396595319733023643e-04 -5.354460328817367554e-03 -9.236752055585384369e-03
2.503000000000000000e+03 8.175175666809082031e+00 -2.549448251724243164e+00 -2.495537325739860535e-02 2.155248308554291725e-03 -6.840037181973457336e-03 -7.217224221676588058e-03
2.504000000000000000e+03 8.922672271728515625e+00 -2.520264148712158203e+00 -2.361849322915077209e-02 1.857357448898255825e-03 -6.528340745717287064e-03 -7.831013761460781097e-03
2.505000000000000000e+03 4.082630538940429688e+01 1.338105106353759766e+01 -1.245421409606933594e+00 3.981534540653228760e-01 -2.541804015636444092e-01 2.787472866475582123e-02
2.506000000000000000e+03 1.510689926147460938e+01 -1.885648608207702637e+00 -1.499669253826141357e-02 -7.161820773035287857e-03 -6.647553760558366776e-03 7.070696912705898285e-03
2.507000000000000000e+03 1.449712753295898438e+01 -2.802424669265747070e+00 -3.875020146369934082e-02 -1.046600844711065292e-02 -1.476486306637525558e-02 2.710408158600330353e-02
2.508000000000000000e+03 6.730390167236328125e+01 3.932526826858520508e+00 1.740375280380249023e+00 8.191397666931152344e+00 2.979532003402709961e+00 -3.256104588508605957e-01
2.509000000000000000e+03 2.210331153869628906e+01 9.658244252204895020e-01 1.971279382705688477e+00 7.711222767829895020e-01 8.227205276489257812e-01 -1.163975715637207031e+00
2.510000000000000000e+03 2.178408050537109375e+01 2.014672279357910156e+00 1.251705884933471680e+00 2.951579391956329346e-01 4.640591740608215332e-01 -1.277122944593429565e-01
2.511000000000000000e+03 2.283473777770996094e+01 1.087840676307678223e+00 1.022660374641418457e+00 -1.904530078172683716e-01 2.496621906757354736e-01 -5.777575373649597168e-01
2.512000000000000000e+03 3.496372222900390625e+01 6.548397064208984375e+00 -2.095018774271011353e-01 7.924093306064605713e-02 -3.907828405499458313e-02 8.888243138790130615e-02
2.513000000000000000e+03 7.433437347412109375e+01 9.897667884826660156e+00 1.435642093420028687e-01 4.421103954315185547e+00 1.369400501251220703e+00 -2.951593160629272461e+00
2.514000000000000000e+03 7.539588165283203125e+01 1.051642894744873047e+01 -8.392525911331176758e-01 8.365688323974609375e+00 2.257930755615234375e+00 -3.121658325195312500e+00
2.515000000000000000e+03 4.385898590087890625e+01 -2.985388278961181641e+00 8.905350565910339355e-01 8.062098503112792969e+00 2.685789823532104492e+00 5.053935050964355469e-01
2.516000000000000000e+03 6.931906127929687500e+01 8.320041656494140625e+00 -1.645119667053222656e+00 9.207820892333984375e+00 2.268810510635375977e+00 -1.942001879215240479e-01
2.517000000000000000e+03 2.692704200744628906e+01 2.455396175384521484e+00 -1.365503072738647461e+00 -4.129172861576080322e-01 -5.335261225700378418e-01 -8.970784544944763184e-01
2.518000000000000000e+03 6.748355865478515625e+01 1.138550567626953125e+01 3.319236278533935547e+00 1.043953227996826172e+01 4.127630233764648438e+00 5.707924365997314453e-01
2.519000000000000000e+03 5.599261093139648438e+01 -9.169785499572753906e+00 4.237823486328125000e-01 7.746997833251953125e+00 2.451234102249145508e+00 -1.167426228523254395e+00
2.520000000000000000e+03 3.816848373413085938e+01 6.735189437866210938e+00 -3.718680888414382935e-02 -2.556097507476806641e-02 -1.882433518767356873e-02 2.770706079900264740e-02
2.521000000000000000e+03 5.446953964233398438e+01 5.466324090957641602e-01 1.502515077590942383e+00 1.198036289215087891e+01 4.044863224029541016e+00 -4.868484020233154297e+00
2.522000000000000000e+03 3.965160751342773438e+01 -6.887277126312255859e+00 -7.358798384666442871e-02 2.524466216564178467e-01 5.365758761763572693e-02 8.688568472862243652e-01
2.523000000000000000e+03 7.201427459716796875e+01 8.491986989974975586e-01 -4.171997547149658203e+00 1.270410776138305664e+00 -8.704760670661926270e-01 -2.359194517135620117e+00
2.524000000000000000e+03 5.314910888671875000e+01 4.224159240722656250e+00 3.246706724166870117e+00 1.787172317504882812e+01 6.335528850555419922e+00 -7.203214168548583984e-01
2.525000000000000000e+03 5.256322097778320312e+01 2.597743988037109375e+00 5.284874916076660156e+00 1.105170440673828125e+01 4.900973796844482422e+00 -7.073294520378112793e-01
2.526000000000000000e+03 5.898675918579101562e+01 -8.258090615272521973e-01 -1.296429514884948730e+00 2.587771654129028320e+00 3.874026238918304443e-01 -1.494571805000305176e+00
2.527000000000000000e+03 6.090710449218750000e+01 1.326236343383789062e+01 -7.903631329536437988e-01 -5.622251890599727631e-03 -2.387956231832504272e-01 -2.645422816276550293e-01
2.528000000000000000e+03 5.637928009033203125e+01 1.080597400665283203e+01 1.003284573554992676e+00 3.711829423904418945e+00 1.414534211158752441e+00 1.723634958267211914e+00
2.529000000000000000e+03 7.081871032714843750e+01 1.364803314208984375e+00 1.186841249465942383e+00 5.798308372497558594e+00 2.095545053482055664e+00 -3.406406879425048828e+00
2.530000000000000000e+03 7.557011413574218750e+01 7.820582985877990723e-01 -3.798427820205688477e+00 6.576468467712402344e+00 8.334122300148010254e-01 7.534823417663574219e-01
2.531000000000000000e+03 4.941789627075195312e+01 -2.740424871444702148e+00 -3.954034328460693359e+00 7.039566636085510254e-01 -9.750232696533203125e-01 5.700016021728515625e-01
2.532000000000000000e+03 3.786239242553710938e+01 -6.022894382476806641e-01 1.701422572135925293e+00 -4.419483244419097900e-01 3.778422772884368896e-01 -4.728448092937469482e-01
2.533000000000000000e+03 7.201470184326171875e+01 -9.020248413085937500e+00 1.343445777893066406e+00 1.042542362213134766e+01 3.530660629272460938e+00 -2.316219329833984375e+00
2.534000000000000000e+03 6.455782318115234375e+01 -1.119549083709716797e+01 1.006008982658386230e+00 5.338022232055664062e+00 1.903209328651428223e+00 -1.985037565231323242e+00
2.535000000000000000e+03 6.889789581298828125e+01 -3.619941473007202148e+00 -2.667686223983764648e+00 2.909676074981689453e+00 7.259695231914520264e-02 -4.929506778717041016e-01
2.536000000000000000e+03 3.469911575317382812e+01 -3.096530735492706299e-01 1.994209170341491699e+00 -8.006592392921447754e-01 3.580649793148040771e-01 -6.035643443465232849e-02
2.537000000000000000e+03 2.280214118957519531e+01 2.496564090251922607e-01 2.216541051864624023e+00 3.806111514568328857e-01 7.791456580162048340e-01 -1.420753240585327148e+00
2.538000000000000000e+03 5.219094467163085938e+01 1.004398441314697266e+01 1.863315224647521973e+00 1.560194301605224609e+01 5.239577293395996094e+00 3.634847402572631836e-01
2.539000000000000000e+03 2.911842727661132812e+01 1.267557621002197266e+01 -5.968188047409057617e-01 -2.729809582233428955e-01 -2.609399259090423584e-01 -2.460763752460479736e-01
2.540000000000000000e+03 7.818475341796875000e+01 9.070690274238586426e-01 -1.099573493003845215e+00 1.104926109313964844e+01 2.984906196594238281e+00 -7.955586314201354980e-01
2.541000000000000000e+03 3.607469558715820312e+01 4.234942913055419922e+00 -3.428157418966293335e-02 -2.399253845214843750e-02 -1.748223416507244110e-02 3.549916744232177734e-01
2.542000000000000000e+03 5.185712814331054688e+01 1.244940471649169922e+01 3.980770349502563477e+00 1.686022377014160156e+01 6.252297878265380859e+00 9.086267948150634766e-01
2.543000000000000000e+03 5.604626464843750000e+01 -1.436842346191406250e+01 6.725142598152160645e-01 1.359310340881347656e+01 4.279685497283935547e+00 -1.147800564765930176e+00
2.544000000000000000e+03 4.469672775268554688e+01 -7.020253181457519531e+00 6.259202957153320312e-01 1.205247497558593750e+01 3.803518533706665039e+00 -1.236168026924133301e+00
2.545000000000000000e+03 1.260704517364501953e+00 -3.474087476730346680e+00 -2.476654481142759323e-04 -1.690880046226084232e-03 -5.815636832267045975e-04 -6.585348164662718773e-04
2.546000000000000000e+03 3.108070611953735352e+00 3.367830038070678711e+00 8.385121822357177734e-01 -1.041794300079345703e+00 -6.098463758826255798e-02 1.386740326881408691e+00
2.547000000000000000e+03 2.326212167739868164e+00 5.521288394927978516e+00 8.356154561042785645e-01 -1.257194876670837402e+00 -1.264738440513610840e-01 -5.252439994364976883e-03
2.548000000000000000e+03 1.483248591423034668e+00 6.463479995727539062e+00 2.508484721183776855e-01 -1.663967609405517578e+00 -4.239357411861419678e-01 -3.085227906703948975e-01
2.549000000000000000e+03 1.737088012695312500e+01 -4.730265617370605469e+00 -7.278355956077575684e-02 -1.515144016593694687e-02 -2.638049982488155365e-02 6.103539839386940002e-02
2.550000000000000000e+03 5.713946914672851562e+01 -1.130644130706787109e+01 7.560526728630065918e-01 9.181919097900390625e+00 2.981391429901123047e+00 -5.689448118209838867e-01
2.551000000000000000e+03 5.900239944458007812e+01 -1.028262329101562500e+01 5.197609663009643555e-01 8.683928489685058594e+00 2.761106729507446289e+00 4.035465121269226074e-01
2.552000000000000000e+03 7.355380249023437500e+01 -1.339508438110351562e+01 1.724930167198181152e+00 1.112569904327392578e+01 3.855188846588134766e+00 9.334936738014221191e-01
2.553000000000000000e+03 7.378257751464843750e+01 -1.038935852050781250e+01 1.371593117713928223e+00 1.001153564453125000e+01 3.414938688278198242e+00 2.600691020488739014e-01
2.554000000000000000e+03 7.507623291015625000e+01 -1.002739143371582031e+01 9.846495389938354492e-01 9.164965629577636719e+00 3.044884681701660156e+00 8.462927937507629395e-01
2.555000000000000000e+03 7.573578643798828125e+01 7.877487182617187500e+00 3.034099578857421875e+00 1.558095550537109375e+01 5.584516525268554688e+00 -4.267737388610839844e+00
2.556000000000000000e+03 7.593117523193359375e+01 1.832502746582031250e+01 2.897339463233947754e-01 6.204326629638671875e+00 1.948218226432800293e+00 3.129499033093452454e-02
2.557000000000000000e+03 7.671846008300781250e+01 -9.719507217407226562e+00 4.160327911376953125e-01 8.330364227294921875e+00 2.623919010162353516e+00 1.065986752510070801e+00
2.558000000000000000e+03 4.379943847656250000e+01 -1.415508842468261719e+01 1.151968762278556824e-01 4.478874683380126953e+00 1.378221392631530762e+00 8.325170278549194336e-01
2.559000000000000000e+03 4.253361511230468750e+01 -1.421168136596679688e+01 8.556472063064575195e-01 6.183572292327880859e+00 2.111765861511230469e+00 1.466465353965759277e+00
2.560000000000000000e+03 7.706369018554687500e+01 -1.667772865295410156e+01 8.774175494909286499e-02 8.000860214233398438e+00 2.426580667495727539e+00 -5.997614264488220215e-01
2.561000000000000000e+03 7.792823028564453125e+01 -2.438772201538085938e+01 -5.266406387090682983e-02 7.737954139709472656e+00 2.305587053298950195e+00 9.808445721864700317e-02
2.562000000000000000e+03 2.431153774261474609e+00 2.238134765625000000e+01 -3.573090583086013794e-02 8.223012089729309082e-01 2.359710782766342163e-01 2.917975932359695435e-02
2.563000000000000000e+03 2.811250686645507812e+01 -2.269976139068603516e+00 1.360432982444763184e+00 4.202492833137512207e-01 5.342046618461608887e-01 6.841345429420471191e-01
2.564000000000000000e+03 6.787352752685546875e+01 2.168708086013793945e+00 9.969273209571838379e-01 7.181944370269775391e+00 2.453661441802978516e+00 5.815045237541198730e-01
2.565000000000000000e+03 6.679666900634765625e+01 2.174839973449707031e+00 8.645461201667785645e-01 6.992066860198974609e+00 2.356983900070190430e+00 1.329687356948852539e+00
2.566000000000000000e+03 4.252188491821289062e+01 -9.193123817443847656e+00 -1.086989402770996094e+00 6.289397716522216797e+00 1.560722470283508301e+00 1.992890000343322754e+00
2.567000000000000000e+03 2.912256813049316406e+01 -7.679720401763916016e+00 8.605955541133880615e-02 6.747179031372070312e-01 2.282332330942153931e-01 -3.206863701343536377e-01
2.568000000000000000e+03 2.838807868957519531e+01 -8.488267898559570312e+00 8.973725140094757080e-02 9.490854144096374512e-01 3.116468191146850586e-01 -2.916812896728515625e-01
2.569000000000000000e+03 7.802534484863281250e+01 -4.046635627746582031e+00 -5.078401789069175720e-02 9.758124351501464844e+00 2.912202119827270508e+00 1.185750961303710938e+00
2.570000000000000000e+03 2.865398216247558594e+01 -4.630787372589111328e+00 3.095890581607818604e-01 9.194875359535217285e-01 3.687229752540588379e-01 8.705099672079086304e-02
2.571000000000000000e+03 2.725054359436035156e+01 -3.073035001754760742e+00 1.031285405158996582e+00 6.819074749946594238e-01 5.139578580856323242e-01 2.934921681880950928e-01
2.572000000000000000e+03 7.385150146484375000e+01 -1.187491416931152344e+01 1.076461672782897949e+00 1.107419967651367188e+01 3.645198345184326172e+00 2.605511248111724854e-01
2.573000000000000000e+03 7.796564483642578125e+01 -1.947116661071777344e+01 -2.112099826335906982e-01 7.845514774322509766e+00 2.290291309356689453e+00 -2.820477187633514404e-01
2.574000000000000000e+03 3.443467330932617188e+01 1.647708320617675781e+01 -1.355753660202026367e+00 -5.182120203971862793e-01 -5.621896982192993164e-01 1.683494597673416138e-01
2.575000000000000000e+03 6.917083740234375000e+01 -1.806077957153320312e+01 6.647663116455078125e-01 2.424379348754882812e+00 9.267436861991882324e-01 6.553848385810852051e-01
2.576000000000000000e+03 3.205628967285156250e+01 1.790360069274902344e+01 -1.074116706848144531e+00 -1.668187081813812256e-01 -3.722806274890899658e-01 4.089722633361816406e-01
2.577000000000000000e+03 6.837380981445312500e+01 6.082138061523437500e+00 9.438980370759963989e-02 1.207030105590820312e+01 3.649407148361206055e+00 -2.090475320816040039e+00
2.578000000000000000e+03 3.134183311462402344e+01 -9.934627532958984375e+00 2.923787385225296021e-02 3.884383738040924072e-01 1.253028810024261475e-01 -1.656827181577682495e-01
2.579000000000000000e+03 6.607317352294921875e+01 -1.524711322784423828e+01 -8.141406774520874023e-01 2.657438039779663086e+00 5.529891848564147949e-01 -8.694914579391479492e-01
2.580000000000000000e+03 2.728242874145507812e+01 1.073795223236083984e+01 -3.247694373130798340e-01 -2.916159331798553467e-01 -1.849156171083450317e-01 -3.220177292823791504e-01
2.581000000000000000e+03 1.371208953857421875e+01 -3.078089952468872070e+00 -4.260397702455520630e-02 1.399092655628919601e-02 -8.583915419876575470e-03 1.178154814988374710e-02
2.582000000000000000e+03 1.549026107788085938e+01 -3.618430852890014648e+00 -5.656604841351509094e-02 -4.615030775312334299e-04 -1.710826531052589417e-02 2.779927290976047516e-02
2.583000000000000000e+03 3.579462814331054688e+01 1.550846767425537109e+01 -1.739647746086120605e+00 -3.578597903251647949e-01 -6.292522549629211426e-01 1.122705489397048950e-01
2.584000000000000000e+03 3.003272056579589844e+01 2.704578399658203125e+00 -7.460958361625671387e-01 4.509918093681335449e-01 -8.853121101856231689e-02 -2.652629911899566650e-01
2.585000000000000000e+03 4.577220916748046875e+01 -1.215192127227783203e+01 -9.769223332405090332e-01 3.699331760406494141e+00 8.167228102684020996e-01 4.656030535697937012e-01
2.586000000000000000e+03 4.241732406616210938e+01 -6.799855232238769531e-01 4.068658947944641113e-01 3.475216627120971680e+00 1.164624810218811035e+00 1.170231819152832031e+00
2.587000000000000000e+03 3.238655471801757812e+01 4.191215515136718750e+00 -7.297351360321044922e-01 4.257924258708953857e-01 -9.118281304836273193e-02 2.141985893249511719e-01
2.588000000000000000e+03 1.789077186584472656e+01 6.247599124908447266e+00 -1.149252727627754211e-01 -3.056096099317073822e-02 -4.364586994051933289e-02 -4.314766079187393188e-02
2.589000000000000000e+03 1.708667182922363281e+01 6.223952293395996094e+00 -7.935060560703277588e-02 8.619559230282902718e-04 -2.354659512639045715e-02 -4.423656314611434937e-02
2.590000000000000000e+03 9.613430976867675781e+00 6.268303394317626953e+00 3.544931709766387939e-01 5.452211946249008179e-02 1.227045878767967224e-01 -9.134338051080703735e-02
2.591000000000000000e+03 9.360468864440917969e+00 6.546211242675781250e+00 1.222984716296195984e-01 2.750058770179748535e-01 1.191913038492202759e-01 2.936044335365295410e-01
2.592000000000000000e+03 8.812221527099609375e+00 6.336714744567871094e+00 4.140242338180541992e-01 1.121796011924743652e+00 4.607460498809814453e-01 5.142382383346557617e-01
2.593000000000000000e+03 9.991183280944824219e+00 6.943204879760742188e+00 -1.639863997697830200e-01 -9.436661750078201294e-02 -7.750590145587921143e-02 -1.059338897466659546e-01
2.594000000000000000e+03 9.468859672546386719e+00 6.983491420745849609e+00 -1.413200646638870239e-01 4.135517776012420654e-01 8.166951686143875122e-02 2.865420877933502197e-01
2.595000000000000000e+03 1.633276748657226562e+01 6.184115886688232422e+00 1.274681277573108673e-02 8.674735203385353088e-03 6.426464300602674484e-03 1.885792613029479980e-02
2.596000000000000000e+03 1.872211074829101562e+01 7.337432861328125000e+00 3.123099543154239655e-02 2.260500937700271606e-02 1.615080051124095917e-02 2.550615742802619934e-02
2.597000000000000000e+03 1.604254722595214844e+01 6.042544364929199219e+00 1.672125607728958130e-02 7.105304300785064697e-02 2.633228898048400879e-02 4.167393222451210022e-02
2.598000000000000000e+03 1.781637763977050781e+01 7.824748039245605469e+00 1.775109767913818359e-01 7.808490097522735596e-02 7.667876780033111572e-02 1.407410353422164917e-01
2.599000000000000000e+03 1.622646713256835938e+01 6.013934135437011719e+00 1.250178925693035126e-02 -9.603730589151382446e-02 -2.506065554916858673e-02 -3.963551297783851624e-02
2.600000000000000000e+03 1.426245975494384766e+01 2.878817558288574219e+00 1.524401545524597168e+00 -1.318848580121994019e-01 4.177550077438354492e-01 -1.024693727493286133e+00
2.601000000000000000e+03 1.086030101776123047e+01 2.977231979370117188e+00 4.997710227966308594e+00 4.025801420211791992e-01 1.620087146759033203e+00 -1.733304262161254883e+00
2.602000000000000000e+03 8.700221061706542969e+00 2.801464080810546875e+00 3.413764238357543945e+00 2.348088026046752930e+00 1.728555798530578613e+00 -1.422036290168762207e+00
2.603000000000000000e+03 1.450924873352050781e+01 2.523223638534545898e+00 -7.302516698837280273e-01 -1.915479540824890137e+00 -7.937193512916564941e-01 -1.443122982978820801e+00
2.604000000000000000e+03 1.461465835571289062e+01 2.835855245590209961e+00 1.102371931076049805e+00 -1.372037887573242188e+00 -8.089976757764816284e-02 -1.542852878570556641e+00
2.605000000000000000e+03 1.105838775634765625e+01 2.951745033264160156e+00 4.868663787841796875e+00 5.042196512222290039e-01 1.611864924430847168e+00 -1.671908020973205566e+00
2.606000000000000000e+03 1.124805927276611328e+01 2.894895553588867188e+00 4.345870494842529297e+00 2.651050090789794922e-01 1.383292675018310547e+00 -1.687654852867126465e+00
2.607000000000000000e+03 8.130640029907226562e+00 3.005873441696166992e+00 3.637600898742675781e+00 3.380783319473266602e+00 2.105515241622924805e+00 -8.160638213157653809e-01
2.608000000000000000e+03 8.356089591979980469e+00 2.992402315139770508e+00 3.832610130310058594e+00 3.097041368484497070e+00 2.078895568847656250e+00 -1.186331868171691895e+00
2.609000000000000000e+03 1.318362331390380859e+01 2.762298583984375000e+00 2.221499204635620117e+00 7.155420780181884766e-01 8.811123371124267578e-01 -1.120979666709899902e+00
2.610000000000000000e+03 1.361956024169921875e+01 2.397762537002563477e+00 9.410855919122695923e-02 4.896852672100067139e-01 1.751381456851959229e-01 -1.510450005531311035e+00
2.611000000000000000e+03 8.754156112670898438e+00 3.078773975372314453e+00 5.011697292327880859e+00 2.519408702850341797e+00 2.259331703186035156e+00 -1.901230096817016602e+00
2.612000000000000000e+03 1.190776157379150391e+01 2.224358081817626953e+00 1.113039970397949219e+00 5.497559309005737305e-01 4.988387525081634521e-01 -1.759935021400451660e+00
2.613000000000000000e+03 5.814788818359375000e+00 5.221593379974365234e+00 4.056260108947753906e+00 1.129255771636962891e+00 1.555654764175415039e+00 -1.722987890243530273e+00
2.614000000000000000e+03 5.854542732238769531e+00 3.335479497909545898e+00 3.165562629699707031e+00 1.755493134260177612e-01 1.002333521842956543e+00 1.751843452453613281e+00
2.615000000000000000e+03 6.556837558746337891e+00 5.651357173919677734e+00 2.847603559494018555e+00 3.430959701538085938e+00 1.883568882942199707e+00 -2.629055738449096680e+00
2.616000000000000000e+03 5.929046630859375000e+00 5.853533267974853516e+00 2.551906347274780273e+00 2.026967048645019531e+00 1.373661994934082031e+00 -2.139501571655273438e+00
2.617000000000000000e+03 6.231733322143554688e+00 4.418169975280761719e+00 5.959864616394042969e+00 9.567981362342834473e-01 2.074998855590820312e+00 -5.111430287361145020e-01
2.618000000000000000e+03 7.194629192352294922e+00 6.250468730926513672e+00 4.417120516300201416e-01 4.407758235931396484e+00 1.454841017723083496e+00 -1.264056444168090820e+00
2.619000000000000000e+03 7.411483764648437500e+00 6.342399597167968750e+00 1.385401785373687744e-01 4.236428260803222656e+00 1.312490463256835938e+00 -6.926349997520446777e-01
2.620000000000000000e+03 6.984384059906005859e+00 6.146892070770263672e+00 9.162050485610961914e-01 4.289528846740722656e+00 1.561720132827758789e+00 -1.782236933708190918e+00
2.621000000000000000e+03 1.406457519531250000e+01 2.856201410293579102e+00 1.684089183807373047e+00 5.283638834953308105e-03 5.068118572235107422e-01 -9.195619225502014160e-01
2.622000000000000000e+03 1.510005092620849609e+01 1.263428115844726562e+01 -8.307451009750366211e-01 -3.859959542751312256e-01 -3.650223016738891602e-01 -5.120164752006530762e-01
2.623000000000000000e+03 1.776210403442382812e+01 2.690411806106567383e+00 1.182019042968750000e+01 2.292659521102905273e+00 4.233855247497558594e+00 -7.826925754547119141e+00
2.624000000000000000e+03 1.813589096069335938e+01 1.502693176269531250e+01 -1.159685969352722168e+00 -2.668907046318054199e-01 -4.279730021953582764e-01 -5.348132848739624023e-01
2.625000000000000000e+03 1.959508132934570312e+01 1.531075382232666016e+01 -1.345818042755126953e+00 -3.160330951213836670e-01 -4.985553324222564697e-01 -6.091461777687072754e-01
2.626000000000000000e+03 1.389292621612548828e+01 1.171673297882080078e+01 -6.225379705429077148e-01 -3.260698020458221436e-01 -2.845823168754577637e-01 -4.402058720588684082e-01
2.627000000000000000e+03 2.219611740112304688e+01 1.754595184326171875e+01 -2.015973567962646484e+00 -3.863959908485412598e-01 -7.207108736038208008e-01 -1.731983944773674011e-02
2.628000000000000000e+03 1.789799690246582031e+01 1.449766731262207031e+01 -1.103218317031860352e+00 -2.889619171619415283e-01 -4.176540970802307129e-01 -5.691948533058166504e-01
2.629000000000000000e+03 1.747676467895507812e+01 1.444217205047607422e+01 -1.061002016067504883e+00 -2.906604409217834473e-01 -4.054987430572509766e-01 -5.502784252166748047e-01
2.630000000000000000e+03 2.365139198303222656e+01 1.261869907379150391e+01 4.486474692821502686e-01 4.874090552330017090e-01 2.808169424533843994e-01 4.302023053169250488e-01
2.631000000000000000e+03 2.452291679382324219e+01 1.218786811828613281e+01 1.350771635770797729e-01 4.415699839591979980e-01 1.729941517114639282e-01 1.739521771669387817e-01
2.632000000000000000e+03 2.159664344787597656e+01 1.058933353424072266e+01 1.948123574256896973e-01 1.975046396255493164e-01 1.176951006054878235e-01 2.092350721359252930e-01
2.633000000000000000e+03 2.130937385559082031e+01 1.038898372650146484e+01 1.987515687942504883e-01 2.033095955848693848e-01 1.206183508038520813e-01 2.011477500200271606e-01
2.634000000000000000e+03 1.829007148742675781e+01 8.316493034362792969e+00 1.806454807519912720e-01 8.751444518566131592e-02 8.044797927141189575e-02 1.410051435232162476e-01
2.635000000000000000e+03 1.961063957214355469e+01 7.910159111022949219e+00 1.849515736103057861e-02 6.853911280632019043e-02 2.611028216779232025e-02 3.545085340738296509e-02
2.636000000000000000e+03 2.318856239318847656e+01 1.102269744873046875e+01 1.007630378007888794e-01 2.940368056297302246e-01 1.184399500489234924e-01 1.861356943845748901e-01
2.637000000000000000e+03 2.112544059753417969e+01 1.010484123229980469e+01 1.592509746551513672e-01 1.863972395658493042e-01 1.036944612860679626e-01 1.829948425292968750e-01
2.638000000000000000e+03 2.034933471679687500e+01 9.328508377075195312e+00 1.235355362296104431e-01 1.422041505575180054e-01 7.972190529108047485e-02 1.298715621232986450e-01
2.639000000000000000e+03 2.023387336730957031e+01 1.583005142211914062e+01 -1.533946156501770020e+00 -2.842251062393188477e-01 -5.454514026641845703e-01 -6.106371283531188965e-01
2.640000000000000000e+03 2.111788940429687500e+01 1.636355018615722656e+01 -1.878595709800720215e+00 -2.447959929704666138e-01 -6.370174884796142578e-01 -5.148772001266479492e-01
2.641000000000000000e+03 1.650831985473632812e+01 6.393053531646728516e+00 1.096322387456893921e-01 4.230219870805740356e-02 4.558033123612403870e-02 3.433763235807418823e-02
2.642000000000000000e+03 1.630781364440917969e+01 6.805098533630371094e+00 2.531796693801879883e-01 4.466832801699638367e-02 8.935439586639404297e-02 1.871570795774459839e-01
2.643000000000000000e+03 1.350286579132080078e+01 1.062128829956054688e+01 -4.957430958747863770e-01 -3.701187372207641602e-01 -2.597585618495941162e-01 -4.515746831893920898e-01
2.644000000000000000e+03 1.256146240234375000e+01 1.044282341003417969e+01 -4.671761989593505859e-01 -2.401571273803710938e-01 -2.122000008821487427e-01 -3.101809918880462646e-01
2.645000000000000000e+03 1.991265296936035156e+01 1.555851078033447266e+01 -1.422430396080017090e+00 -3.103250265121459961e-01 -5.198265910148620605e-01 -6.046482324600219727e-01
2.646000000000000000e+03 1.251745796203613281e+01 1.107921600341796875e+01 -5.471842885017395020e-01 -1.498366445302963257e-01 -2.091062813997268677e-01 -2.984030544757843018e-01
2.647000000000000000e+03 2.027661895751953125e+01 8.909107208251953125e+00 8.640748262405395508e-02 1.301865130662918091e-01 6.497819721698760986e-02 9.198031574487686157e-02
2.648000000000000000e+03 1.095874881744384766e+01 8.532069206237792969e+00 -2.224591523408889771e-01 -1.515920162200927734e-01 -1.122153475880622864e-01 -9.769219160079956055e-02
2.649000000000000000e+03 1.222331523895263672e+01 1.081501102447509766e+01 -4.768440127372741699e-01 -9.685984998941421509e-02 -1.721111536026000977e-01 -2.873201072216033936e-01
2.650000000000000000e+03 1.018179321289062500e+01 7.204200267791748047e+00 -1.429221499711275101e-02 -7.477097213268280029e-02 -2.671895548701286316e-02 1.111330315470695496e-01
2.651000000000000000e+03 2.639225006103515625e+01 1.354337787628173828e+01 1.194834476336836815e-03 2.648729272186756134e-02 8.304637856781482697e-03 1.199131458997726440e-01
2.652000000000000000e+03 2.542146873474121094e+01 1.415133666992187500e+01 2.204618602991104126e-01 5.756618976593017578e-01 2.388371378183364868e-01 2.923353016376495361e-01
2.653000000000000000e+03 2.567674064636230469e+01 1.460700702667236328e+01 1.240515559911727905e-01 3.388172984123229980e-01 1.388606578111648560e-01 4.016242623329162598e-01
2.654000000000000000e+03 1.104503917694091797e+01 9.537090301513671875e+00 -3.152653872966766357e-01 5.620392784476280212e-02 -7.771844416856765747e-02 -1.338572651147842407e-01
2.655000000000000000e+03 2.590680313110351562e+01 1.514171695709228516e+01 -3.039070367813110352e-01 1.434690058231353760e-01 -4.813140630722045898e-02 7.169318795204162598e-01
2.656000000000000000e+03 2.561021995544433594e+01 1.350151348114013672e+01 1.563108414411544800e-01 3.597296178340911865e-01 1.548121273517608643e-01 1.455810815095901489e-01
2.657000000000000000e+03 1.724720001220703125e+01 7.807171821594238281e+00 2.277549803256988525e-01 1.178811863064765930e-01 1.036908552050590515e-01 2.097600102424621582e-01
2.658000000000000000e+03 2.262944793701171875e+01 1.741665649414062500e+01 -2.160328388214111328e+00 -4.751650393009185791e-01 -7.906480431556701660e-01 4.025758802890777588e-02
2.659000000000000000e+03 1.875160408020019531e+01 1.528750133514404297e+01 -1.232017040252685547e+00 -2.742381989955902100e-01 -4.518765509128570557e-01 -5.359669327735900879e-01
2.660000000000000000e+03 2.449479484558105469e+01 1.265611648559570312e+01 2.191414684057235718e-01 5.545818805694580078e-01 2.321169972419738770e-01 2.607491314411163330e-01
2.661000000000000000e+03 2.497132492065429688e+01 1.256457614898681641e+01 1.073215305805206299e-01 4.454502165317535400e-01 1.658315211534500122e-01 1.103809103369712830e-01
2.662000000000000000e+03 2.565664100646972656e+01 1.604545402526855469e+01 -1.451655745506286621e+00 3.040939867496490479e-01 -3.442685008049011230e-01 9.516460299491882324e-01
2.663000000000000000e+03 5.986820220947265625e+00 2.551999568939208984e+00 8.939622640609741211e-01 4.764448106288909912e-01 4.111221134662628174e-01 2.431331872940063477e+00
2.664000000000000000e+03 2.567941093444824219e+01 1.721970367431640625e+01 -1.987558364868164062e+00 2.009111642837524414e-01 -5.359941720962524414e-01 2.683281600475311279e-01
2.665000000000000000e+03 2.472538948059082031e+01 1.755384635925292969e+01 -2.056620597839355469e+00 -4.747362136840820312e-01 -7.594070434570312500e-01 -7.845161110162734985e-02
2.666000000000000000e+03 1.881125640869140625e+01 7.995397090911865234e+00 9.689780324697494507e-02 6.568717211484909058e-02 4.877549037337303162e-02 7.140367478132247925e-02
2.667000000000000000e+03 2.467759895324707031e+01 1.701486396789550781e+01 -2.481531381607055664e+00 -4.924078285694122314e-01 -8.921818137168884277e-01 5.459074676036834717e-02
2.668000000000000000e+03 1.419517040252685547e+01 2.246315002441406250e+00 -1.127805352210998535e+00 -4.145252108573913574e-01 -4.626991450786590576e-01 -1.752313494682312012e+00
2.669000000000000000e+03 1.320517826080322266e+01 2.053285598754882812e+00 -4.179059267044067383e-01 5.808656215667724609e-01 4.888790100812911987e-02 -1.819323420524597168e+00
2.670000000000000000e+03 1.770049095153808594e+01 6.470411300659179688e+00 -3.563421219587326050e-02 -4.509571008384227753e-03 -1.204313524067401886e-02 -5.034808441996574402e-02
2.671000000000000000e+03 1.907336997985839844e+01 6.618795871734619141e+00 -1.065823882818222046e-01 3.659265488386154175e-02 -2.099691890180110931e-02 -4.767816513776779175e-02
2.672000000000000000e+03 2.227448463439941406e+01 1.098422527313232422e+01 1.950689852237701416e-01 2.372420877218246460e-01 1.296933293342590332e-01 2.332618236541748047e-01
2.673000000000000000e+03 1.266111469268798828e+01 2.102884769439697266e+00 -8.113151998259127140e-04 8.957003355026245117e-01 2.684667110443115234e-01 -1.786168694496154785e+00
2.674000000000000000e+03 1.574842929840087891e+01 1.321831512451171875e+01 -9.313860535621643066e-01 -3.837337493896484375e-01 -3.945359587669372559e-01 -5.170290470123291016e-01
2.675000000000000000e+03 3.703495025634765625e+01 1.486933898925781250e+01 -1.761839985847473145e+00 -4.120759293437004089e-02 -5.409142374992370605e-01 1.505708992481231689e-01
2.676000000000000000e+03 3.988436460494995117e+00 3.635246992111206055e+00 1.713112592697143555e+00 -9.300072789192199707e-01 2.349316179752349854e-01 1.334000587463378906e+00
2.677000000000000000e+03 2.252069282531738281e+01 6.536454200744628906e+00 -2.478251904249191284e-01 2.696671150624752045e-02 -6.625754386186599731e-02 -1.580184102058410645e-01
2.678000000000000000e+03 6.152039527893066406e+00 2.906184196472167969e+00 2.431269645690917969e+00 9.168102741241455078e-01 1.004423975944519043e+00 2.255174875259399414e+00
2.679000000000000000e+03 7.538607597351074219e+00 2.216361999511718750e+00 -6.106376647949218750e-01 1.849475860595703125e+00 3.716514408588409424e-01 9.479273557662963867e-01
2.680000000000000000e+03 8.094853401184082031e+00 2.650480270385742188e+00 1.811421513557434082e+00 2.661010980606079102e+00 1.341729760169982910e+00 -4.186985194683074951e-01
2.681000000000000000e+03 1.153201007843017578e+01 2.478079319000244141e+00 2.149948358535766602e+00 4.359894990921020508e-01 7.757813334465026855e-01 -1.672777771949768066e+00
2.682000000000000000e+03 2.118235969543457031e+01 7.322867870330810547e+00 -1.554072201251983643e-01 1.008725687861442566e-01 -1.636039651930332184e-02 -7.976126670837402344e-02
2.683000000000000000e+03 1.152919292449951172e+01 -2.704977750778198242e+00 -4.033190384507179260e-02 2.811796963214874268e-03 -1.125603169202804565e-02 -1.082832342945039272e-03
2.684000000000000000e+03 1.032836437225341797e+01 -2.393504142761230469e+00 -2.447029948234558105e-02 8.054572390392422676e-05 -7.316926028579473495e-03 -2.957001794129610062e-03
2.685000000000000000e+03 9.598841667175292969e+00 -1.817771077156066895e+00 -1.928830519318580627e-02 9.631473221816122532e-05 -5.757597275078296661e-03 -3.246638691052794456e-03
2.686000000000000000e+03 1.976609611511230469e+01 7.249186992645263672e+00 -5.840016156435012817e-02 6.702668964862823486e-02 2.587957540526986122e-03 -3.297263383865356445e-02
2.687000000000000000e+03 8.847171783447265625e+00 -1.835306406021118164e+00 -2.207621559500694275e-02 2.576938830316066742e-03 -5.849783308804035187e-03 -4.039546940475702286e-03
2.688000000000000000e+03 3.934393310546875000e+01 1.421082782745361328e+01 -1.436192512512207031e+00 3.823249638080596924e-01 -3.161602616310119629e-01 2.358940094709396362e-01
2.689000000000000000e+03 4.115710449218750000e+01 1.399148082733154297e+01 -1.312263727188110352e+00 4.635753929615020752e-01 -2.546064853668212891e-01 -3.861173614859580994e-02
2.690000000000000000e+03 3.163473129272460938e+00 5.141607761383056641e+00 1.425296783447265625e+00 -9.899705648422241211e-01 1.305978596210479736e-01 5.014186725020408630e-02
2.691000000000000000e+03 4.689330101013183594e+00 -3.794085741043090820e+00 -1.457968540489673615e-02 -6.299966014921665192e-03 -6.263895425945520401e-03 -1.194527652114629745e-02
2.692000000000000000e+03 2.661294698715209961e+00 -5.616421222686767578e+00 -7.316163741052150726e-03 -1.534249819815158844e-02 -6.797598209232091904e-03 -1.363100204616785049e-02
2.693000000000000000e+03 3.682683944702148438e+01 7.957733631134033203e+00 -1.083186194300651550e-01 3.032367490231990814e-02 -2.339848317205905914e-02 1.112263277173042297e-02
2.694000000000000000e+03 3.659191513061523438e+01 9.024941444396972656e+00 -3.341299667954444885e-02 1.411758735775947571e-02 -5.788622424006462097e-03 2.541743405163288116e-02
2.695000000000000000e+03 3.752974319458007812e+01 5.728435993194580078e+00 3.034989163279533386e-02 -1.476210802793502808e-01 -3.518135473132133484e-02 1.230311319231987000e-01
2.696000000000000000e+03 4.157028675079345703e+00 1.490566158294677734e+01 -2.967145144939422607e-01 6.357232332229614258e-01 1.017026081681251526e-01 -4.365046322345733643e-01
2.697000000000000000e+03 3.785744428634643555e+00 1.621896743774414062e+01 -2.100916504859924316e-01 6.440702676773071289e-01 1.301935762166976929e-01 -3.084107935428619385e-01
2.698000000000000000e+03 2.504136562347412109e+00 3.738907575607299805e+00 7.071211338043212891e-01 -1.189836978912353516e+00 -1.448147445917129517e-01 1.061697363853454590e+00
2.699000000000000000e+03 2.292293167114257812e+01 7.421795368194580078e+00 -2.661303877830505371e-01 2.679385244846343994e-02 -7.180096209049224854e-02 -1.261089593172073364e-01
2.700000000000000000e+03 2.507821273803710938e+01 9.694103240966796875e+00 -2.580385804176330566e-01 -2.481340616941452026e-02 -8.485559374094009399e-02 -1.656562387943267822e-01
2.701000000000000000e+03 2.641065025329589844e+01 9.792181015014648438e+00 -3.427283763885498047e-01 -2.429689317941665649e-01 -1.757091879844665527e-01 -3.163870573043823242e-01
2.702000000000000000e+03 1.883003830909729004e+00 4.291071414947509766e+00 4.622421860694885254e-01 -1.505058050155639648e+00 -3.128447532653808594e-01 6.473161578178405762e-01
2.703000000000000000e+03 4.175595474243164062e+01 1.456234741210937500e+01 -1.463525295257568359e+00 5.793703198432922363e-01 -2.652465105056762695e-01 -5.117958411574363708e-02
2.704000000000000000e+03 2.435770225524902344e+01 -5.597200989723205566e-02 1.412537693977355957e+00 -2.599412798881530762e-01 3.457789123058319092e-01 -5.693963170051574707e-01
2.705000000000000000e+03 2.572489929199218750e+01 1.145394229888916016e+01 -1.070128977298736572e-01 9.233260154724121094e-02 -4.404088482260704041e-03 -1.303118765354156494e-01
2.706000000000000000e+03 2.757309722900390625e+01 1.233881092071533203e+01 -2.768982052803039551e-01 -2.220752537250518799e-01 -1.496920287609100342e-01 -1.808042377233505249e-01
2.707000000000000000e+03 2.429037666320800781e+01 9.070405364036560059e-01 8.910747170448303223e-01 -8.632203936576843262e-01 8.356292732059955597e-03 -3.012282550334930420e-01
2.708000000000000000e+03 2.456108665466308594e+01 8.390591621398925781e+00 -3.112697899341583252e-01 -8.151821047067642212e-02 -1.178364008665084839e-01 -1.957232952117919922e-01
2.709000000000000000e+03 2.424843788146972656e+01 9.258980751037597656e+00 -2.443926483392715454e-01 5.740880966186523438e-02 -5.609515309333801270e-02 -1.058914065361022949e-01
2.710000000000000000e+03 3.728226470947265625e+01 -5.256671905517578125e+00 -5.007032155990600586e-01 -2.348182439804077148e+00 -8.546657562255859375e-01 1.156804680824279785e+00
2.711000000000000000e+03 3.615905380249023438e+01 -2.334250211715698242e+00 1.395484566688537598e+00 -1.397455096244812012e+00 -5.911443149670958519e-04 -7.772142440080642700e-02
2.712000000000000000e+03 7.808102416992187500e+01 8.231141090393066406e+00 6.587939858436584473e-01 8.902932167053222656e+00 2.868517875671386719e+00 2.436485439538955688e-01
2.713000000000000000e+03 5.698487854003906250e+01 -1.513328266143798828e+01 9.456404447555541992e-01 1.230453872680664062e+01 3.975053787231445312e+00 -6.599873900413513184e-01
2.714000000000000000e+03 7.398052215576171875e+01 1.101970386505126953e+01 -2.350434809923171997e-01 3.796977281570434570e+00 1.068580150604248047e+00 -3.268593311309814453e+00
2.715000000000000000e+03 6.686550903320312500e+01 8.105016708374023438e+00 -1.429640650749206543e-01 1.151644992828369141e+01 3.412045955657958984e+00 -1.206225872039794922e+00
2.716000000000000000e+03 5.886186218261718750e+01 1.359355449676513672e+01 8.024052977561950684e-01 1.718586921691894531e+00 7.562976479530334473e-01 1.307844877243041992e+00
2.717000000000000000e+03 4.052363204956054688e+01 -6.353770732879638672e+00 7.881235480308532715e-01 2.063940048217773438e+00 8.556190729141235352e-01 8.812800645828247070e-01
2.718000000000000000e+03 5.507705211639404297e+00 -1.516719818115234375e+01 -1.705265976488590240e-02 -8.799048513174057007e-02 -3.151294589042663574e-02 -1.031750738620758057e-01
2.719000000000000000e+03 2.084571838378906250e+01 -1.169931125640869141e+01 -2.847550213336944580e-01 1.171037852764129639e-01 -5.029536783695220947e-02 -4.104003310203552246e-02
2.720000000000000000e+03 5.638388442993164062e+01 -6.293021678924560547e+00 1.086891591548919678e-01 6.428634643554687500e+00 1.961197137832641602e+00 -1.122983098030090332e+00
2.721000000000000000e+03 7.270928192138671875e+01 -1.624677848815917969e+01 -1.020731925964355469e+00 9.877133369445800781e+00 2.656920433044433594e+00 6.146280169486999512e-01
2.722000000000000000e+03 6.444410705566406250e+01 1.714375877380371094e+01 4.605294466018676758e-01 5.983516216278076172e+00 1.933213710784912109e+00 -1.701935887336730957e+00
2.723000000000000000e+03 7.274869537353515625e+01 -6.702527523040771484e+00 7.605277746915817261e-02 7.013650417327880859e+00 2.126910924911499023e+00 -1.336102932691574097e-01
2.724000000000000000e+03 7.493608093261718750e+01 -7.172484397888183594e+00 2.450142353773117065e-01 8.289947509765625000e+00 2.560488462448120117e+00 1.285948157310485840e+00
2.725000000000000000e+03 6.298912048339843750e+01 -1.382117366790771484e+01 -2.125403657555580139e-02 6.189187049865722656e+00 1.850379943847656250e+00 -6.555554866790771484e-01
2.726000000000000000e+03 3.260250473022460938e+01 -1.481919288635253906e+01 -4.364409148693084717e-01 6.011292338371276855e-01 4.940649867057800293e-02 -7.025603950023651123e-02
2.727000000000000000e+03 5.414293670654296875e+01 1.081581974029541016e+01 1.917011976242065430e+00 9.801940917968750000e+00 3.515685796737670898e+00 1.167996883392333984e+00
2.728000000000000000e+03 3.038312149047851562e+01 1.525136947631835938e+01 -1.399180412292480469e+00 1.064954698085784912e-02 -4.165592491626739502e-01 1.808387637138366699e-01
2.729000000000000000e+03 2.846614837646484375e+01 1.405717086791992188e+01 -6.048758029937744141e-01 -1.499582976102828979e-01 -2.264502346515655518e-01 1.242308765649795532e-01
2.730000000000000000e+03 6.277876853942871094e+00 2.179309272766113281e+01 -1.667865365743637085e-01 5.406101942062377930e-01 1.121471002697944641e-01 3.603712841868400574e-02
2.731000000000000000e+03 6.183297348022460938e+01 6.052152514457702637e-01 -3.188416004180908203e+00 4.752532005310058594e+00 4.692347943782806396e-01 1.809673547744750977e+00
2.732000000000000000e+03 2.566484832763671875e+01 -1.111528277397155762e+00 1.624662518501281738e+00 -5.882048234343528748e-02 4.697526097297668457e-01 -2.394607961177825928e-01
2.733000000000000000e+03 7.778234100341796875e+01 2.163128852844238281e+00 -1.060214161872863770e+00 1.079507064819335938e+01 2.920457124710083008e+00 -1.815683960914611816e+00
2.734000000000000000e+03 3.747866439819335938e+01 -2.173025846481323242e+00 1.409934282302856445e+00 -9.160293936729431152e-01 1.481714695692062378e-01 -4.463277161121368408e-01
2.735000000000000000e+03 3.342494583129882812e+01 1.590698719024658203e+00 9.648431539535522461e-01 2.742057442665100098e-01 3.717146813869476318e-01 7.797880768775939941e-01
2.736000000000000000e+03 7.521810150146484375e+01 -8.823309540748596191e-01 -1.597758531570434570e+00 5.568499088287353516e+00 1.191222190856933594e+00 7.489114999771118164e-01
2.737000000000000000e+03 5.383193588256835938e+01 -4.005160808563232422e+00 -2.518862485885620117e+00 6.232171535491943359e+00 1.113992810249328613e+00 -2.503030538558959961e+00
2.738000000000000000e+03 4.941418075561523438e+01 3.358229398727416992e+00 3.344529390335083008e+00 6.104772090911865234e+00 2.834790468215942383e+00 2.079763412475585938e+00
2.739000000000000000e+03 6.773282623291015625e+01 8.526073455810546875e+00 3.026855736970901489e-02 1.205251312255859375e+01 3.624834537506103516e+00 -1.037743091583251953e+00
2.740000000000000000e+03 5.202532958984375000e+01 5.233750820159912109e+00 1.925256729125976562e+00 1.218847465515136719e+01 4.234119415283203125e+00 -5.592233538627624512e-01
2.741000000000000000e+03 1.400072383880615234e+01 -4.621361255645751953e+00 -7.842256128787994385e-02 2.567826583981513977e-02 -1.582328788936138153e-02 1.387428585439920425e-02
2.742000000000000000e+03 7.926493835449218750e+01 5.592098236083984375e+00 3.377298116683959961e-01 7.298007965087890625e+00 2.290721416473388672e+00 -8.580041527748107910e-01
2.743000000000000000e+03 6.592206573486328125e+01 5.458887577056884766e+00 -3.476347029209136963e-02 8.093537330627441406e+00 2.417632102966308594e+00 -2.319302558898925781e-01
2.744000000000000000e+03 7.518764495849609375e+01 -2.496167659759521484e+00 -4.667768478393554688e-01 6.095145225524902344e+00 1.688510417938232422e+00 7.385716438293457031e-01
2.745000000000000000e+03 3.981944274902343750e+01 -3.663942575454711914e+00 1.491724967956542969e+00 6.730591654777526855e-01 6.494352817535400391e-01 -3.855586647987365723e-01
2.746000000000000000e+03 7.053699493408203125e+01 -3.629532814025878906e+00 -1.870052337646484375e+00 4.398717880249023438e+00 7.585996985435485840e-01 -1.719762682914733887e+00
2.747000000000000000e+03 3.467930984497070312e+01 4.237895488739013672e+00 -1.399762034416198730e-01 1.912020146846771240e-01 1.536774635314941406e-02 4.041806459426879883e-01
2.748000000000000000e+03 6.879699707031250000e+01 1.266945838928222656e+01 2.876581192016601562e+00 7.518670558929443359e+00 3.118575572967529297e+00 1.514912486076354980e+00
2.749000000000000000e+03 5.442591094970703125e+01 1.240178775787353516e+01 2.482197523117065430e+00 8.995625495910644531e+00 3.443346738815307617e+00 2.077279806137084961e+00
2.750000000000000000e+03 5.576805877685546875e+01 1.188574981689453125e+01 1.657494187355041504e+00 5.725445270538330078e+00 2.214881896972656250e+00 1.972574949264526367e+00
2.751000000000000000e+03 7.651968383789062500e+01 -1.318280029296875000e+01 6.629505157470703125e-01 8.221891403198242188e+00 2.665452480316162109e+00 -1.030837669968605042e-01
2.752000000000000000e+03 1.534801125526428223e+00 1.229161834716796875e+01 -6.352667510509490967e-02 1.496262568980455399e-02 -1.456921547651290894e-02 -4.650330841541290283e-01
2.753000000000000000e+03 3.403775930404663086e+00 1.236806011199951172e+01 -2.931463718414306641e-01 5.161557793617248535e-01 6.690282374620437622e-02 -7.096792459487915039e-01
2.754000000000000000e+03 4.656512069702148438e+01 1.226008176803588867e+00 1.763987660408020020e+00 3.202967166900634766e+00 1.490086436271667480e+00 3.591695308685302734e+00
2.755000000000000000e+03 5.502308654785156250e+01 -6.269319057464599609e+00 -4.164374172687530518e-01 5.922583580017089844e+00 1.651843905448913574e+00 -1.543589711189270020e+00
2.756000000000000000e+03 6.336597824096679688e+01 1.811234092712402344e+01 1.137191891670227051e+00 4.305258274078369141e+00 1.632735013961791992e+00 -9.693363904953002930e-01
2.757000000000000000e+03 6.615483856201171875e+01 9.092209815979003906e+00 1.390220046043395996e+00 1.441119861602783203e+01 4.740425586700439453e+00 1.483002066612243652e+00
2.758000000000000000e+03 4.478635787963867188e+01 8.303282260894775391e-01 8.234972953796386719e-01 4.373798370361328125e+00 1.559188604354858398e+00 3.481217384338378906e+00
2.759000000000000000e+03 7.305834197998046875e+01 -1.232293844223022461e+00 -1.071666002273559570e+00 1.780742406845092773e+00 2.127228975296020508e-01 -1.649774670600891113e+00
2.760000000000000000e+03 6.453440093994140625e+01 3.935571193695068359e+00 8.936937898397445679e-02 5.081327915191650391e+00 1.551209092140197754e+00 1.696934223175048828e+00
2.761000000000000000e+03 5.170748138427734375e+01 -1.197887539863586426e+00 -1.520115613937377930e+00 6.329483032226562500e+00 1.442810177803039551e+00 -7.234699726104736328e-01
2.762000000000000000e+03 7.445457458496093750e+01 -1.535286235809326172e+01 2.238557487726211548e-01 9.472373962402343750e+00 2.908869028091430664e+00 -2.866473197937011719e-01
2.763000000000000000e+03 6.775714111328125000e+01 -1.825670623779296875e+01 4.529240429401397705e-01 2.403393268585205078e+00 8.568952083587646484e-01 -6.409921646118164062e-01
2.764000000000000000e+03 7.047835540771484375e+01 -1.979408836364746094e+01 2.826484441757202148e-01 4.607213973999023438e+00 1.466958761215209961e+00 9.127404093742370605e-01
2.765000000000000000e+03 3.886719894409179688e+01 -1.769132995605468750e+01 9.869818091392517090e-01 1.698915004730224609e+00 8.057690858840942383e-01 1.841416597366333008e+00
2.766000000000000000e+03 6.800166320800781250e+01 7.237746715545654297e-01 -9.398376345634460449e-01 5.678255081176757812e+00 1.421525239944458008e+00 -6.582593545317649841e-03
2.767000000000000000e+03 3.424206924438476562e+01 1.794583320617675781e+01 -1.089461207389831543e+00 -2.848597466945648193e-01 -4.122962951660156250e-01 2.988155484199523926e-01
2.768000000000000000e+03 3.412516403198242188e+01 1.941426086425781250e+01 -8.057136535644531250e-01 -1.096094697713851929e-01 -2.745969295501708984e-01 1.412320584058761597e-01
2.769000000000000000e+03 3.012450790405273438e+01 1.009960770606994629e+00 1.149585843086242676e+00 1.093509197235107422e+00 6.729285120964050293e-01 -2.222975343465805054e-01
2.770000000000000000e+03 1.735924911499023438e+01 -7.037534713745117188e+00 -1.727906614542007446e-01 3.267359361052513123e-02 -4.203511774539947510e-02 6.142263486981391907e-02
2.771000000000000000e+03 2.314639663696289062e+01 -1.268326187133789062e+01 -2.989237606525421143e-01 3.930177390575408936e-01 2.822819538414478302e-02 1.359691172838211060e-01
2.772000000000000000e+03 2.977373504638671875e+01 -1.030247497558593750e+01 -7.790205627679824829e-02 6.944060325622558594e-01 1.849512010812759399e-01 -2.614699304103851318e-01
2.773000000000000000e+03 3.241257667541503906e+00 -6.657613277435302734e+00 -8.516123518347740173e-03 -1.710515655577182770e-02 -7.686384022235870361e-03 -1.946175284683704376e-02
2.774000000000000000e+03 2.780554056167602539e+00 -1.112570285797119141e+01 -6.145488470792770386e-03 -6.021542102098464966e-02 -1.990827359259128571e-02 -4.127369076013565063e-02
2.775000000000000000e+03 2.319437980651855469e+00 1.804813575744628906e+01 -6.523808091878890991e-02 7.703736424446105957e-01 2.115406692028045654e-01 -1.252847760915756226e-01
2.776000000000000000e+03 3.975367307662963867e+00 1.760477256774902344e+01 -1.782797127962112427e-01 6.787737011909484863e-01 1.501481980085372925e-01 -1.982892900705337524e-01
2.777000000000000000e+03 4.756923675537109375e+01 -2.456000745296478271e-01 8.781834244728088379e-01 2.328221559524536133e+00 9.619215130805969238e-01 3.855104207992553711e+00
2.778000000000000000e+03 5.305815124511718750e+01 -1.214055776596069336e+00 -2.009523630142211914e+00 8.808864593505859375e+00 2.039802312850952148e+00 -2.400919198989868164e+00
2.779000000000000000e+03 4.310192489624023438e+01 1.594084262847900391e+01 -1.346082091331481934e+00 7.170684933662414551e-01 -1.887040883302688599e-01 2.581340074539184570e-02
2.780000000000000000e+03 2.876360130310058594e+01 1.010665178298950195e+00 1.118024706840515137e+00 2.387189865112304688e-01 4.070231020450592041e-01 4.130429401993751526e-02
2.781000000000000000e+03 4.088093948364257812e+01 -3.876288890838623047e+00 2.018573284149169922e+00 2.535457372665405273e+00 1.366209268569946289e+00 -6.214112639427185059e-01
2.782000000000000000e+03 6.187709045410156250e+01 -9.807313919067382812e+00 4.182005226612091064e-01 8.638251304626464844e+00 2.716935396194458008e+00 6.791332364082336426e-02
2.783000000000000000e+03 3.158895301818847656e+01 1.335983514785766602e+00 8.215958476066589355e-01 1.136589288711547852e+00 5.874555706977844238e-01 5.889463424682617188e-01
2.784000000000000000e+03 3.146369934082031250e+01 -1.270490932464599609e+01 -4.359972476959228516e-01 5.739466547966003418e-01 4.138481989502906799e-02 -1.112840473651885986e-01
2.785000000000000000e+03 5.271225357055664062e+01 8.911739349365234375e+00 6.572444438934326172e-01 1.428958511352539062e+01 4.484048843383789062e+00 2.238851413130760193e-02
2.786000000000000000e+03 3.188793754577636719e+01 1.951267623901367188e+01 -9.834586977958679199e-01 -3.925592824816703796e-02 -3.068144023418426514e-01 3.072907030582427979e-01
2.787000000000000000e+03 7.683534240722656250e+01 8.248669624328613281e+00 1.139741182327270508e+00 1.006730651855468750e+01 3.362114429473876953e+00 -4.134613275527954102e-01
2.788000000000000000e+03 7.789781188964843750e+01 1.388739395141601562e+01 2.771465294063091278e-02 6.697002410888671875e+00 2.017415046691894531e+00 -4.324251711368560791e-01
2.789000000000000000e+03 7.619312286376953125e+01 1.487808322906494141e+01 3.920072019100189209e-01 6.273304939270019531e+00 1.999593615531921387e+00 -6.026501059532165527e-01
2.790000000000000000e+03 7.651319122314453125e+01 -5.562737464904785156e+00 2.504125982522964478e-02 8.282256126403808594e+00 2.492189168930053711e+00 1.488905429840087891e+00
2.791000000000000000e+03 7.062741851806640625e+01 -2.630231380462646484e+00 -2.890102148056030273e+00 4.850997447967529297e+00 5.882685780525207520e-01 -2.287160158157348633e+00
2.792000000000000000e+03 7.156487274169921875e+01 -2.464317083358764648e+00 -1.888680696487426758e+00 5.001839637756347656e+00 9.339477419853210449e-01 -2.353559017181396484e+00
2.793000000000000000e+03 7.656233978271484375e+01 -1.119644880294799805e+00 -1.212876319885253906e+00 8.064795494079589844e+00 2.055575847625732422e+00 9.096304774284362793e-01
2.794000000000000000e+03 7.274916839599609375e+01 -5.071580410003662109e+00 -4.815632402896881104e-01 6.025807857513427734e+00 1.663273453712463379e+00 -3.773121535778045654e-01
2.795000000000000000e+03 1.704808473587036133e+00 -6.046986579895019531e+00 -1.048554200679063797e-03 -1.280558202415704727e-02 -4.156240727752447128e-03 -7.821636274456977844e-03
2.796000000000000000e+03 1.701908302307128906e+01 6.586038112640380859e+00 8.732285350561141968e-02 7.079765945672988892e-02 4.743615165352821350e-02 6.085118278861045837e-03
2.797000000000000000e+03 9.195773124694824219e+00 6.839482307434082031e+00 3.441834747791290283e-01 7.061255574226379395e-01 3.150927126407623291e-01 2.781843245029449463e-01
2.798000000000000000e+03 8.760203361511230469e+00 6.642363548278808594e+00 2.321552038192749023e-01 1.315520763397216797e+00 4.643028080463409424e-01 4.843627512454986572e-01
2.799000000000000000e+03 9.875843048095703125e+00 6.700163364410400391e+00 2.540711164474487305e-01 -1.440171152353286743e-01 3.301619738340377808e-02 2.807815372943878174e-01
2.800000000000000000e+03 9.596083641052246094e+00 7.663812160491943359e+00 -1.041013821959495544e-01 5.484382510185241699e-01 1.333010643720626831e-01 2.669160962104797363e-01
2.801000000000000000e+03 1.689003181457519531e+01 6.376619338989257812e+00 3.869682177901268005e-02 -7.337516639381647110e-03 9.407792240381240845e-03 2.543132193386554718e-02
2.802000000000000000e+03 8.358029365539550781e+00 2.603474855422973633e+00 1.949534654617309570e+00 2.738292932510375977e+00 1.406348347663879395e+00 -6.834834814071655273e-01
2.803000000000000000e+03 8.632494926452636719e+00 2.587993860244750977e+00 2.230189323425292969e+00 1.966674566268920898e+00 1.259059190750122070e+00 -8.468564152717590332e-01
2.804000000000000000e+03 8.553343772888183594e+00 6.986797332763671875e+00 -7.118999958038330078e-02 1.691867828369140625e+00 4.862033426761627197e-01 3.721210360527038574e-01
2.805000000000000000e+03 6.974380493164062500e+00 2.857980489730834961e+00 2.252335071563720703e+00 2.208291292190551758e+00 1.338187932968139648e+00 1.702771902084350586e+00
2.806000000000000000e+03 7.256696224212646484e+00 6.722714424133300781e+00 4.275602288544178009e-03 3.616318225860595703e+00 1.086178183555603027e+00 -7.459900975227355957e-01
2.807000000000000000e+03 5.950813770294189453e+00 5.454123497009277344e+00 3.581383705139160156e+00 1.651927471160888672e+00 1.569993376731872559e+00 -2.056214809417724609e+00
2.808000000000000000e+03 5.049370765686035156e+00 4.352098941802978516e+00 3.443918466567993164e+00 -3.829572498798370361e-01 9.182883501052856445e-01 2.989372909069061279e-01
2.809000000000000000e+03 4.345798015594482422e+00 2.935338735580444336e+00 1.067138075828552246e+00 -7.249625921249389648e-01 1.026526317000389099e-01 1.941241741180419922e+00
2.810000000000000000e+03 6.214618682861328125e+00 3.528138160705566406e+00 4.393869876861572266e+00 9.310507774353027344e-01 1.597476243972778320e+00 1.606655359268188477e+00
2.811000000000000000e+03 6.939947128295898438e+00 3.398895263671875000e+00 4.651981353759765625e+00 2.511600732803344727e+00 2.149074554443359375e+00 1.599843263626098633e+00
2.812000000000000000e+03 6.393874168395996094e+00 3.390780687332153320e+00 4.280687808990478516e+00 1.329099178314208984e+00 1.682936191558837891e+00 1.827143549919128418e+00
2.813000000000000000e+03 6.865440368652343750e+00 6.879197597503662109e+00 1.576480418443679810e-01 3.336010456085205078e+00 1.048097491264343262e+00 -1.162265658378601074e+00
2.814000000000000000e+03 1.018738174438476562e+01 8.128812789916992188e+00 -1.012089774012565613e-01 1.572853028774261475e-01 1.682290062308311462e-02 5.731210112571716309e-02
2.815000000000000000e+03 6.632627487182617188e+00 6.796705722808837891e+00 3.675801157951354980e-01 3.166694641113281250e+00 1.060282468795776367e+00 -1.422659277915954590e+00
2.816000000000000000e+03 1.205109119415283203e+01 2.523962020874023438e+00 2.449326753616333008e+00 7.135617733001708984e-01 9.488666057586669922e-01 -1.627859950065612793e+00
2.817000000000000000e+03 1.497412395477294922e+01 2.436979770660400391e+00 -1.007097125053405762e+00 -3.209379434585571289e+00 -1.264942884445190430e+00 -2.577804803848266602e+00
2.818000000000000000e+03 1.743358230590820312e+01 1.504706478118896484e+01 -1.061321496963500977e+00 -2.594926059246063232e-01 -3.962442278861999512e-01 -4.832106232643127441e-01
2.819000000000000000e+03 9.705197334289550781e+00 7.187716007232666016e+00 1.729860603809356689e-01 3.234876096248626709e-01 1.489420980215072632e-01 2.559344768524169922e-01
2.820000000000000000e+03 1.392808055877685547e+01 1.217417240142822266e+01 -6.856424212455749512e-01 -2.665508091449737549e-01 -2.856579720973968506e-01 -4.061807990074157715e-01
2.821000000000000000e+03 2.520816802978515625e+01 1.181735801696777344e+01 -3.687835112214088440e-02 2.622715532779693604e-01 6.761796027421951294e-02 -1.076801121234893799e-02
2.822000000000000000e+03 2.207626724243164062e+01 1.033827972412109375e+01 1.076001524925231934e-01 2.057343274354934692e-01 9.400034695863723755e-02 1.665381193161010742e-01
2.823000000000000000e+03 1.796328926086425781e+01 7.297518730163574219e+00 1.138992160558700562e-01 2.768797613680362701e-02 4.247615858912467957e-02 5.471035465598106384e-02
2.824000000000000000e+03 1.729973983764648438e+01 7.230171680450439453e+00 1.866000443696975708e-01 5.867902562022209167e-02 7.358372211456298828e-02 1.122978627681732178e-01
2.825000000000000000e+03 2.006364631652832031e+01 8.110722541809082031e+00 1.051982957869768143e-02 1.083703711628913879e-01 3.566705808043479919e-02 1.714687049388885498e-02
2.826000000000000000e+03 1.190150547027587891e+01 1.054992866516113281e+01 -4.607225954532623291e-01 -7.912407815456390381e-02 -1.619540005922317505e-01 -2.330058664083480835e-01
2.827000000000000000e+03 1.669785881042480469e+01 6.905323028564453125e+00 2.476355880498886108e-01 1.383019834756851196e-01 1.157812699675559998e-01 1.217696741223335266e-01
2.828000000000000000e+03 1.451907920837402344e+01 1.273811817169189453e+01 -7.775175571441650391e-01 -2.920538783073425293e-01 -3.208714127540588379e-01 -4.302450418472290039e-01
2.829000000000000000e+03 2.005226325988769531e+01 8.546957969665527344e+00 6.107552349567413330e-02 1.080695912241935730e-01 5.074353516101837158e-02 7.017234712839126587e-02
2.830000000000000000e+03 1.960776519775390625e+01 1.592944049835205078e+01 -1.408368110656738281e+00 -2.522253990173339844e-01 -4.981780350208282471e-01 -5.172591209411621094e-01
2.831000000000000000e+03 2.327282524108886719e+01 1.167551898956298828e+01 2.400901466608047485e-01 3.503610193729400635e-01 1.771353483200073242e-01 2.744146883487701416e-01
2.832000000000000000e+03 1.905724143981933594e+01 1.544755744934082031e+01 -1.284509181976318359e+00 -2.739055156707763672e-01 -4.675244092941284180e-01 -5.397336483001708984e-01
2.833000000000000000e+03 2.066247367858886719e+01 8.674633026123046875e+00 2.035810984671115875e-02 1.354921460151672363e-01 4.675507545471191406e-02 5.984899401664733887e-02
2.834000000000000000e+03 1.418564891815185547e+01 1.249179840087890625e+01 -7.153267264366149902e-01 -2.536949515342712402e-01 -2.907064855098724365e-01 -4.213040471076965332e-01
2.835000000000000000e+03 2.220681762695312500e+01 1.690225410461425781e+01 -2.352585315704345703e+00 -2.908699512481689453e-01 -7.930365800857543945e-01 -3.235251009464263916e-01
2.836000000000000000e+03 2.173963356018066406e+01 1.688435554504394531e+01 -2.088052511215209961e+00 -2.687335312366485596e-01 -7.070358395576477051e-01 -3.441481888294219971e-01
2.837000000000000000e+03 1.108220958709716797e+01 2.276614427566528320e+00 1.278736352920532227e+00 4.076628088951110840e-01 5.059197545051574707e-01 -1.797081708908081055e+00
2.838000000000000000e+03 1.196593284606933594e+01 9.864423751831054688e+00 -3.937813341617584229e-01 -1.921647936105728149e-01 -1.757838428020477295e-01 -2.459216564893722534e-01
2.839000000000000000e+03 2.113738632202148438e+01 8.424149513244628906e+00 -4.927501082420349121e-02 1.259898096323013306e-01 2.301443926990032196e-02 1.839768886566162109e-02
2.840000000000000000e+03 2.148192024230957031e+01 1.006630039215087891e+01 1.274001151323318481e-01 1.797146797180175781e-01 9.213443845510482788e-02 1.606204360723495483e-01
2.841000000000000000e+03 1.910249328613281250e+01 7.672035217285156250e+00 6.832718104124069214e-02 6.601273268461227417e-02 4.030197486281394958e-02 2.682439982891082764e-02
2.842000000000000000e+03 1.814833068847656250e+01 7.620318889617919922e+00 1.370161473751068115e-01 3.746362775564193726e-02 5.234393104910850525e-02 7.772899419069290161e-02
2.843000000000000000e+03 2.604759407043457031e+01 1.317314815521240234e+01 5.128346756100654602e-02 1.355127096176147461e-01 5.603885278105735779e-02 3.804718330502510071e-02
2.844000000000000000e+03 2.532113838195800781e+01 1.315970897674560547e+01 1.699755042791366577e-01 4.705457389354705811e-01 1.921563744544982910e-01 1.273117959499359131e-01
2.845000000000000000e+03 2.473876762390136719e+01 1.167980766296386719e+01 -1.212013978511095047e-02 3.141809105873107910e-01 9.061823040246963501e-02 5.213760957121849060e-02
2.846000000000000000e+03 2.675108528137207031e+01 1.395885181427001953e+01 -1.559487879276275635e-01 -4.843366146087646484e-02 -6.131473556160926819e-02 2.498656213283538818e-01
2.847000000000000000e+03 2.246494865417480469e+01 1.021821975708007812e+01 4.659840837121009827e-02 2.222494035959243774e-01 8.065434545278549194e-02 1.479822099208831787e-01
2.848000000000000000e+03 2.120581054687500000e+01 1.696588325500488281e+01 -1.858386039733886719e+00 -2.435121536254882812e-01 -6.305694580078125000e-01 -3.183146119117736816e-01
2.849000000000000000e+03 2.064462089538574219e+01 1.655591392517089844e+01 -1.703667163848876953e+00 -2.270578444004058838e-01 -5.792174935340881348e-01 -4.181154370307922363e-01
2.850000000000000000e+03 1.916052436828613281e+01 7.175868511199951172e+00 -3.777829930186271667e-02 2.749360911548137665e-02 -3.085407195612788200e-03 -2.123834565281867981e-02
2.851000000000000000e+03 1.613878822326660156e+01 1.383423233032226562e+01 -9.378851056098937988e-01 -3.377122879028320312e-01 -3.826792240142822266e-01 -4.871257245540618896e-01
2.852000000000000000e+03 1.894273757934570312e+01 1.490374088287353516e+01 -1.221578001976013184e+00 -3.118364214897155762e-01 -4.600243270397186279e-01 -5.968921780586242676e-01
2.853000000000000000e+03 1.843654632568359375e+01 1.516011619567871094e+01 -1.190131902694702148e+00 -2.620682418346405029e-01 -4.356600642204284668e-01 -5.371254682540893555e-01
2.854000000000000000e+03 6.509151458740234375e+00 2.907543897628784180e+00 2.542686462402343750e+00 1.278897643089294434e+00 1.146475195884704590e+00 2.144824743270874023e+00
2.855000000000000000e+03 2.372086524963378906e+01 1.727935791015625000e+01 -2.437591791152954102e+00 -8.035288453102111816e-01 -9.723362326622009277e-01 1.599426418542861938e-01
2.856000000000000000e+03 1.018861961364746094e+01 9.141987800598144531e+00 -3.114906251430511475e-01 3.191623091697692871e-01 2.301506232470273972e-03 2.430578880012035370e-02
2.857000000000000000e+03 2.337948608398437500e+01 1.052539443969726562e+01 -1.574091613292694092e-02 2.366934716701507568e-01 6.628576666116714478e-02 1.007508188486099243e-01
2.858000000000000000e+03 2.382944488525390625e+01 1.065000534057617188e+01 -5.727948248386383057e-02 2.538293898105621338e-01 5.896497145295143127e-02 6.268373876810073853e-02
2.859000000000000000e+03 5.896793365478515625e+00 3.072448968887329102e+00 2.482582807540893555e+00 3.775765299797058105e-01 8.580477833747863770e-01 2.078757286071777344e+00
2.860000000000000000e+03 1.057889366149902344e+01 8.837284088134765625e+00 -2.232569158077239990e-01 1.155523881316184998e-01 -3.231135383248329163e-02 -4.714470356702804565e-02
2.861000000000000000e+03 2.432891654968261719e+01 1.762622451782226562e+01 -2.047949075698852539e+00 -6.373048424720764160e-01 -8.055761456489562988e-01 -4.577936604619026184e-02
2.862000000000000000e+03 1.885708999633789062e+01 1.576768302917480469e+01 -1.294863224029541016e+00 -2.429430931806564331e-01 -4.613419175148010254e-01 -4.806848764419555664e-01
2.863000000000000000e+03 2.170837593078613281e+01 1.763718032836914062e+01 -1.848091006278991699e+00 -3.213642835617065430e-01 -6.508365869522094727e-01 -5.179732292890548706e-02
2.864000000000000000e+03 6.247741699218750000e+00 3.171009063720703125e+00 3.225489854812622070e+00 1.005353331565856934e+00 1.269252896308898926e+00 2.064202785491943359e+00
2.865000000000000000e+03 2.665085601806640625e+01 1.488702487945556641e+01 -4.293073117733001709e-01 2.267499826848506927e-02 -1.219896897673606873e-01 5.522379875183105469e-01
2.866000000000000000e+03 2.467549514770507812e+01 1.033048915863037109e+01 -1.755728274583816528e-01 1.244294121861457825e-01 -1.534302253276109695e-02 -7.224982231855392456e-02
2.867000000000000000e+03 2.343909454345703125e+01 9.218347549438476562e+00 -1.828953325748443604e-01 1.095870360732078552e-01 -2.199248783290386200e-02 -4.363495856523513794e-02
2.868000000000000000e+03 1.301811981201171875e+01 1.140848445892333984e+01 -5.726484656333923340e-01 -1.970236748456954956e-01 -2.309016436338424683e-01 -3.462292551994323730e-01
2.869000000000000000e+03 1.927165603637695312e+01 1.509240627288818359e+01 -1.279923200607299805e+00 -3.243319392204284668e-01 -4.812765419483184814e-01 -6.022117137908935547e-01
2.870000000000000000e+03 1.934399032592773438e+01 1.565973472595214844e+01 -1.344277501106262207e+00 -2.727096080780029297e-01 -4.850961267948150635e-01 -5.315514802932739258e-01
2.871000000000000000e+03 2.602446365356445312e+01 1.644060707092285156e+01 -1.732005834579467773e+00 3.274123370647430420e-01 -4.213780164718627930e-01 6.110242009162902832e-01
2.872000000000000000e+03 2.438424301147460938e+01 1.811107254028320312e+01 -1.730969190597534180e+00 -5.311402678489685059e-01 -6.786328554153442383e-01 -3.691690787672996521e-02
2.873000000000000000e+03 2.418893241882324219e+01 1.712851524353027344e+01 -2.545508861541748047e+00 -8.602997064590454102e-01 -1.021742582321166992e+00 7.912684231996536255e-02
2.874000000000000000e+03 2.534154129028320312e+01 1.652086830139160156e+01 -2.206779718399047852e+00 2.595506012439727783e-01 -5.841687321662902832e-01 5.579675436019897461e-01
2.875000000000000000e+03 2.513285827636718750e+01 1.761909866333007812e+01 -1.998202681541442871e+00 -2.472497224807739258e-01 -6.736357212066650391e-01 -4.020194709300994873e-02
2.876000000000000000e+03 2.356295013427734375e+01 1.118688488006591797e+01 7.925693690776824951e-02 3.141254186630249023e-01 1.180147081613540649e-01 1.786868423223495483e-01
2.877000000000000000e+03 2.284825134277343750e+01 1.087267684936523438e+01 1.137446314096450806e-01 2.579617798328399658e-01 1.115119233727455139e-01 1.947312653064727783e-01
2.878000000000000000e+03 3.717636585235595703e+00 3.109980344772338867e+00 9.283195137977600098e-01 -8.739047646522521973e-01 1.632441766560077667e-02 1.666100621223449707e+00
2.879000000000000000e+03 2.155422019958496094e+01 8.101539611816406250e+00 -1.219179779291152954e-01 1.265223771333694458e-01 1.381319132633507252e-03 -2.887623198330402374e-02
2.880000000000000000e+03 2.249095535278320312e+01 8.008131980895996094e+00 -2.117556035518646240e-01 1.023394763469696045e-01 -3.282483667135238647e-02 -7.598384469747543335e-02
2.881000000000000000e+03 2.679470825195312500e+01 1.196053600311279297e+01 -1.658719480037689209e-01 -1.298403292894363403e-01 -8.871368318796157837e-02 -1.984591186046600342e-01
2.882000000000000000e+03 2.537784004211425781e+01 1.260272312164306641e+01 5.900335311889648438e-02 3.364727497100830078e-01 1.186428293585777283e-01 4.002621024847030640e-02
2.883000000000000000e+03 5.581828117370605469e+00 2.895854949951171875e+00 1.638573646545410156e+00 -1.038042232394218445e-01 4.604308307170867920e-01 2.142175436019897461e+00
2.884000000000000000e+03 5.018508434295654297e+00 2.830314636230468750e+00 1.234120726585388184e+00 -4.047611653804779053e-01 2.488078773021697998e-01 2.157083034515380859e+00
2.885000000000000000e+03 2.602855491638183594e+01 1.208375263214111328e+01 -1.076141819357872009e-01 7.980135828256607056e-02 -8.343846537172794342e-03 -9.222830086946487427e-02
2.886000000000000000e+03 2.045125961303710938e+01 7.289371967315673828e+00 -1.131013631820678711e-01 6.105352565646171570e-02 -1.561435125768184662e-02 -5.233870074152946472e-02
2.887000000000000000e+03 1.106887245178222656e+01 -3.367297410964965820e+00 -3.762611001729965210e-02 1.103378739207983017e-02 -7.977696135640144348e-03 -4.935739561915397644e-04
2.888000000000000000e+03 9.810445785522460938e+00 -3.159554481506347656e+00 -3.146668523550033569e-02 4.375506658107042313e-03 -8.127353154122829437e-03 -9.181591682136058807e-03
2.889000000000000000e+03 2.187564659118652344e+01 7.575628757476806641e+00 -1.912542283535003662e-01 8.555484563112258911e-02 -3.170981258153915405e-02 -7.766362279653549194e-02
2.890000000000000000e+03 8.264942169189453125e+00 -3.246261596679687500e+00 -2.683202736079692841e-02 2.313083270564675331e-03 -7.355683017522096634e-03 -1.257189456373453140e-02
2.891000000000000000e+03 2.588292694091796875e+01 2.555839121341705322e-01 8.623611927032470703e-01 -4.589811265468597412e-01 1.210140138864517212e-01 -2.148337364196777344e-01
2.892000000000000000e+03 1.864816665649414062e+00 2.015825033187866211e+00 -3.419972062110900879e-01 -6.812433004379272461e-01 -3.069721460342407227e-01 1.125775933265686035e+00
2.893000000000000000e+03 3.088440656661987305e+00 6.280054569244384766e+00 1.045252561569213867e+00 -6.592151522636413574e-01 1.158112362027168274e-01 -6.240618824958801270e-01
2.894000000000000000e+03 3.510027885437011719e+00 4.711516857147216797e+00 1.697746276855468750e+00 -9.640018343925476074e-01 2.201233506202697754e-01 3.265079855918884277e-01
2.895000000000000000e+03 2.630631685256958008e+00 7.268471240997314453e+00 4.435994625091552734e-01 -6.223659515380859375e-01 -5.362993851304054260e-02 -8.441448807716369629e-01
2.896000000000000000e+03 7.082571506500244141e+00 -4.119666099548339844e+00 -3.165552392601966858e-02 -1.187690417282283306e-03 -9.852963499724864960e-03 -1.753947511315345764e-02
2.897000000000000000e+03 3.765439987182617188e+01 1.603105926513671875e+01 -1.447888016700744629e+00 1.668135970830917358e-01 -3.843223154544830322e-01 -2.257219702005386353e-02
2.898000000000000000e+03 3.783462524414062500e+01 1.515994739532470703e+01 -1.687783479690551758e+00 2.167237550020217896e-01 -4.413179159164428711e-01 1.282604485750198364e-01
2.899000000000000000e+03 2.492822170257568359e+00 1.236789608001708984e+01 -1.964733153581619263e-01 2.962624132633209229e-01 2.993673458695411682e-02 -6.598142981529235840e-01
2.900000000000000000e+03 4.580011844635009766e+00 1.376372528076171875e+01 -4.015823900699615479e-01 6.942104697227478027e-01 8.778842538595199585e-02 -5.502439141273498535e-01
2.901000000000000000e+03 2.800216197967529297e+00 1.444342613220214844e+01 -1.696143001317977905e-01 5.359421372413635254e-01 1.098983585834503174e-01 -4.308519661426544189e-01
2.902000000000000000e+03 1.242681217193603516e+01 -4.122725009918212891e+00 -5.885564535856246948e-02 2.140321582555770874e-02 -1.123572885990142822e-02 -2.241036389023065567e-03
2.903000000000000000e+03 4.212779235839843750e+01 1.661060714721679688e+01 -8.119015693664550781e-01 6.495726108551025391e-01 -4.869869351387023926e-02 4.789638798683881760e-03
2.904000000000000000e+03 2.640875816345214844e+01 -2.109574794769287109e+00 1.533286333084106445e+00 2.876727581024169922e-01 5.462877154350280762e-01 -2.530069462954998016e-02
2.905000000000000000e+03 3.090826416015625000e+01 2.788504064083099365e-01 4.137757301330566406e+00 2.702964782714843750e+00 2.052216529846191406e+00 1.043918371200561523e+00
2.906000000000000000e+03 7.435984802246093750e+01 1.525959682464599609e+01 9.686457514762878418e-01 5.709181308746337891e+00 2.003348112106323242e+00 -3.685191869735717773e-01
2.907000000000000000e+03 4.243494033813476562e+01 1.521114444732666016e+01 -1.387570619583129883e+00 6.630920171737670898e-01 -2.173435986042022705e-01 -1.006295159459114075e-01
2.908000000000000000e+03 1.472124671936035156e+01 -7.088064670562744141e+00 -1.590458452701568604e-01 4.673223569989204407e-02 -3.369408473372459412e-02 -1.169650629162788391e-02
2.909000000000000000e+03 1.312004470825195312e+01 -7.072188854217529297e+00 -1.369868665933609009e-01 4.034419730305671692e-02 -2.899280190467834473e-02 -3.011182881891727448e-02
2.910000000000000000e+03 1.879252052307128906e+01 -1.043479061126708984e+01 -2.671747207641601562e-01 7.638207077980041504e-02 -5.723779276013374329e-02 -5.491748824715614319e-02
2.911000000000000000e+03 7.445279693603515625e+01 -1.853599357604980469e+01 -6.346897482872009277e-01 8.250346183776855469e+00 2.284696817398071289e+00 2.904682159423828125e-01
2.912000000000000000e+03 6.734615325927734375e+01 1.472439575195312500e+01 -1.169142350554466248e-01 9.381114006042480469e+00 2.779259920120239258e+00 5.255723595619201660e-01
2.913000000000000000e+03 6.822084045410156250e+01 1.659662628173828125e+01 4.764252528548240662e-02 7.532774925231933594e+00 2.274125337600708008e+00 4.041856825351715088e-01
2.914000000000000000e+03 5.589791107177734375e+01 1.751859283447265625e+01 7.304478883743286133e-01 6.141607284545898438e+00 2.061616659164428711e+00 2.589181423187255859e+00
2.915000000000000000e+03 6.530277252197265625e+00 2.516220283508300781e+01 -8.444589376449584961e-02 4.647324085235595703e-01 1.140859499573707581e-01 1.496992856264114380e-01
2.916000000000000000e+03 2.211831331253051758e+00 2.049155235290527344e+01 -3.457909822463989258e-02 8.442153334617614746e-01 2.428908795118331909e-01 -3.058585710823535919e-02
2.917000000000000000e+03 6.542358398437500000e+00 -1.491214752197265625e+01 -2.350074984133243561e-02 -6.375952064990997314e-02 -2.617808058857917786e-02 -1.143563911318778992e-01
2.918000000000000000e+03 4.544039154052734375e+01 -1.349879646301269531e+01 -6.175609827041625977e-01 3.418500900268554688e+00 8.402820229530334473e-01 4.264707565307617188e-01
2.919000000000000000e+03 3.652482223510742188e+01 1.814353370666503906e+01 -1.050754785537719727e+00 -6.140612065792083740e-02 -3.336482644081115723e-01 -6.448202580213546753e-02
2.920000000000000000e+03 2.921215248107910156e+01 1.730841445922851562e+01 -1.290752172470092773e+00 1.350874900817871094e-01 -3.466994166374206543e-01 4.655366539955139160e-01
2.921000000000000000e+03 5.203038215637207031e+00 1.729272842407226562e+01 -2.759687304496765137e-01 6.451712846755981445e-01 1.107607781887054443e-01 -2.196154147386550903e-01
2.922000000000000000e+03 5.970853424072265625e+01 1.795202064514160156e+01 1.445330262184143066e+00 3.440510034561157227e+00 1.465752124786376953e+00 1.202712178230285645e+00
2.923000000000000000e+03 2.085040092468261719e+00 9.462338447570800781e+00 -5.742690712213516235e-02 -4.208233058452606201e-01 -1.434750705957412720e-01 -8.488156199455261230e-01
2.924000000000000000e+03 3.452766418457031250e+00 1.059256553649902344e+01 -2.774609625339508057e-01 3.945699930191040039e-01 3.513270989060401917e-02 -9.708284139633178711e-01
2.925000000000000000e+03 4.929515838623046875e+01 1.829040646553039551e+00 3.202077388763427734e+00 4.790692329406738281e+00 2.397830963134765625e+00 2.476641654968261719e+00
2.926000000000000000e+03 5.084771347045898438e+01 1.124167680740356445e+00 2.331038236618041992e+00 6.748924255371093750e+00 2.723988771438598633e+00 1.252280354499816895e+00
2.927000000000000000e+03 5.007262039184570312e+01 1.308037161827087402e+00 2.399563074111938477e+00 5.173467159271240234e+00 2.271909236907958984e+00 1.815951466560363770e+00
2.928000000000000000e+03 6.489649200439453125e+01 1.068495988845825195e+00 -1.126502394676208496e+00 4.900641441345214844e+00 1.132241725921630859e+00 3.720293521881103516e+00
2.929000000000000000e+03 2.703565788269042969e+01 4.292549788951873779e-01 1.217278122901916504e+00 -5.870010852813720703e-01 1.890830993652343750e-01 -2.483051717281341553e-01
2.930000000000000000e+03 4.165525817871093750e+01 -5.138136863708496094e+00 2.182261943817138672e+00 4.010939121246337891e+00 1.857960224151611328e+00 4.670170545578002930e-01
2.931000000000000000e+03 4.943277740478515625e+01 4.361693382263183594e+00 3.452434778213500977e+00 7.000776290893554688e+00 3.135963201522827148e+00 1.985811591148376465e+00
2.932000000000000000e+03 3.474274396896362305e+00 -5.179759025573730469e+00 -8.890822529792785645e-03 -1.009260676801204681e-02 -5.695028696209192276e-03 -1.400638930499553680e-02
2.933000000000000000e+03 5.752044677734375000e+01 -4.284533500671386719e+00 -9.914261847734451294e-02 5.841253280639648438e+00 1.722633123397827148e+00 -2.406050920486450195e+00
2.934000000000000000e+03 5.266711235046386719e+00 -7.345350265502929688e+00 -2.654534392058849335e-02 -1.337709277868270874e-02 -1.197673100978136063e-02 -3.638909012079238892e-02
2.935000000000000000e+03 2.208680725097656250e+01 -1.256189727783203125e+01 -1.221004128456115723e-01 1.707711368799209595e-01 1.460121851414442062e-02 1.059487089514732361e-01
2.936000000000000000e+03 2.889911270141601562e+01 -1.301643657684326172e+01 -4.367904365062713623e-01 7.997556328773498535e-01 1.088895648717880249e-01 -1.385662704706192017e-01
2.937000000000000000e+03 5.461142730712890625e+01 -2.273739099502563477e+00 -1.727872014045715332e+00 7.367152214050292969e+00 1.691784024238586426e+00 -4.224674701690673828e+00
2.938000000000000000e+03 7.467748260498046875e+01 -3.528575181961059570e+00 -4.179205596446990967e-01 6.147336483001708984e+00 1.718824744224548340e+00 6.660825014114379883e-01
2.939000000000000000e+03 1.598628902435302734e+01 -9.235371589660644531e+00 -1.767308712005615234e-01 7.173167169094085693e-02 -3.149975836277008057e-02 -4.460693523287773132e-02
2.940000000000000000e+03 2.223827934265136719e+01 -1.435544776916503906e+01 -1.833742856979370117e-01 2.875003516674041748e-01 3.123781643807888031e-02 -1.752968132495880127e-02
2.941000000000000000e+03 2.208949565887451172e+00 2.884972000122070312e+01 5.474326899275183678e-04 6.865769624710083008e-01 2.061373144388198853e-01 9.359174221754074097e-02
2.942000000000000000e+03 4.706719398498535156e+00 2.725081253051757812e+01 -2.239545434713363647e-02 5.550011396408081055e-01 1.597816944122314453e-01 1.467139422893524170e-01
2.943000000000000000e+03 6.017918395996093750e+01 -1.659498405456542969e+01 8.311090469360351562e-01 7.313490867614746094e+00 2.443380117416381836e+00 -1.053330898284912109e+00
2.944000000000000000e+03 4.249119186401367188e+01 1.853086853027343750e+01 -6.121459603309631348e-01 8.625038266181945801e-01 7.510735839605331421e-02 -3.560779988765716553e-01
2.945000000000000000e+03 3.126239967346191406e+01 -1.413311100006103516e+01 -4.073970913887023926e-01 6.580220460891723633e-01 7.518748193979263306e-02 -1.268784552812576294e-01
2.946000000000000000e+03 5.654956817626953125e+01 -5.386223316192626953e+00 -3.983764052391052246e-01 6.333538532257080078e+00 1.780548691749572754e+00 -1.989553093910217285e+00
2.947000000000000000e+03 6.260904312133789062e+01 -2.503304779529571533e-01 -2.499057054519653320e+00 5.767336368560791016e+00 9.804837107658386230e-01 2.564951181411743164e+00
2.948000000000000000e+03 5.580090713500976562e+01 -1.936678290367126465e+00 -2.011668443679809570e+00 5.911349773406982422e+00 1.169904470443725586e+00 -4.088484764099121094e+00
2.949000000000000000e+03 3.168714714050292969e+01 2.111514091491699219e+01 -6.877826452255249023e-01 -3.043808788061141968e-02 -2.154662311077117920e-01 2.426730543375015259e-01
2.950000000000000000e+03 7.073764038085937500e+01 1.444547271728515625e+01 1.706383705139160156e+00 5.943479061126708984e+00 2.294958829879760742e+00 1.108017086982727051e+00
2.951000000000000000e+03 7.343572998046875000e+01 -2.185394287109375000e+00 -6.807458400726318359e-01 3.734473466873168945e+00 9.161183238029479980e-01 -9.968307018280029297e-01
2.952000000000000000e+03 2.076828241348266602e+00 2.750604438781738281e+01 -1.033611129969358444e-02 7.421173453330993652e-01 2.195343673229217529e-01 8.391052484512329102e-02
2.953000000000000000e+03 8.114964365959167480e-01 1.777543258666992188e+01 -2.426089160144329071e-02 9.093648791313171387e-01 2.655312120914459229e-01 -5.907237902283668518e-02
2.954000000000000000e+03 8.768985748291015625e+00 7.524979591369628906e+00 -2.210780531167984009e-01 1.305965185165405273e+00 3.254661262035369873e-01 3.108580112457275391e-01
2.955000000000000000e+03 9.072270393371582031e+00 7.194819927215576172e+00 -1.201018542051315308e-01 1.016037106513977051e+00 2.687805593013763428e-01 4.440388083457946777e-01
2.956000000000000000e+03 8.819616317749023438e+00 7.185383319854736328e+00 8.234894834458827972e-03 1.264822721481323242e+00 3.819172680377960205e-01 3.289274275302886963e-01
2.957000000000000000e+03 9.308664321899414062e+00 7.262204170227050781e+00 2.464187145233154297e-01 6.450102329254150391e-01 2.674286961555480957e-01 3.136294782161712646e-01
2.958000000000000000e+03 8.529443740844726562e+00 7.466714859008789062e+00 -2.000890672206878662e-01 1.678792476654052734e+00 4.436110258102416992e-01 2.993200421333312988e-01
2.959000000000000000e+03 1.744670295715332031e+01 6.701712131500244141e+00 4.210392013192176819e-02 3.214859589934349060e-02 2.227575518190860748e-02 2.970395982265472412e-02
2.960000000000000000e+03 1.767952728271484375e+01 6.988377094268798828e+00 8.263983577489852905e-02 2.337870374321937561e-02 3.180555999279022217e-02 2.225087210536003113e-02
2.961000000000000000e+03 8.209357261657714844e+00 7.000556468963623047e+00 -1.814723312854766846e-01 2.304395675659179688e+00 6.368770003318786621e-01 2.925381064414978027e-01
2.962000000000000000e+03 9.511700630187988281e+00 2.270871400833129883e+00 1.075124144554138184e+00 8.774254918098449707e-01 5.857648849487304688e-01 -1.558499932289123535e+00
2.963000000000000000e+03 6.352463722229003906e+00 6.734859943389892578e+00 6.540684103965759277e-01 2.866693496704101562e+00 1.056228518486022949e+00 -1.648158907890319824e+00
2.964000000000000000e+03 7.676815986633300781e+00 6.676567554473876953e+00 -8.451387286186218262e-02 3.370502471923828125e+00 9.857965707778930664e-01 -1.734378933906555176e-01
2.965000000000000000e+03 5.539278030395507812e+00 3.325110673904418945e+00 2.899976015090942383e+00 -1.721174418926239014e-01 8.183575868606567383e-01 1.797703027725219727e+00
2.966000000000000000e+03 5.618798732757568359e+00 4.427082538604736328e+00 4.558089256286621094e+00 1.190564185380935669e-01 1.403143763542175293e+00 -1.750178188085556030e-01
2.967000000000000000e+03 6.004490375518798828e+00 3.661543846130371094e+00 4.423597812652587891e+00 4.720219671726226807e-01 1.468685865402221680e+00 1.326073884963989258e+00
2.968000000000000000e+03 6.488592147827148438e+00 3.189653396606445312e+00 3.587561130523681641e+00 1.457724690437316895e+00 1.513585686683654785e+00 1.992877244949340820e+00
2.969000000000000000e+03 8.972765922546386719e+00 2.428357839584350586e+00 1.773262739181518555e+00 1.570743680000305176e+00 1.003201961517333984e+00 -1.180072307586669922e+00
2.970000000000000000e+03 1.350625514984130859e+01 1.234733295440673828e+01 -6.613159775733947754e-01 -1.791018396615982056e-01 -2.521253526210784912e-01 -3.628017604351043701e-01
2.971000000000000000e+03 1.003318786621093750e+01 7.778787612915039062e+00 -1.028380542993545532e-01 1.638446450233459473e-01 1.830197684466838837e-02 1.219539642333984375e-01
2.972000000000000000e+03 6.258666038513183594e+00 6.062757015228271484e+00 1.896900057792663574e+00 2.897048950195312500e+00 1.438184738159179688e+00 -2.218430519104003906e+00
2.973000000000000000e+03 6.529209136962890625e+00 7.079507827758789062e+00 1.957900226116180420e-01 2.847888231277465820e+00 9.131035208702087402e-01 -1.301473021507263184e+00
2.974000000000000000e+03 2.231047248840332031e+01 9.769890785217285156e+00 -2.916394267231225967e-03 1.937167942523956299e-01 5.724011734127998352e-02 8.950119465589523315e-02
2.975000000000000000e+03 1.940614128112792969e+01 1.658580207824707031e+01 -1.400108098983764648e+00 -2.050603926181793213e-01 -4.815505445003509521e-01 -3.612812459468841553e-01
2.976000000000000000e+03 1.834215736389160156e+01 6.991994380950927734e+00 2.492259815335273743e-02 2.935322932898998260e-02 1.628274843096733093e-02 -7.237599231302738190e-03
2.977000000000000000e+03 2.048286247253417969e+01 7.884331703186035156e+00 -3.926103189587593079e-02 1.018411144614219666e-01 1.877402700483798981e-02 -8.714678697288036346e-03
2.978000000000000000e+03 2.197624588012695312e+01 8.526644706726074219e+00 -1.144046485424041748e-01 1.223944351077079773e-01 2.396936295554041862e-03 -3.883723169565200806e-03
2.979000000000000000e+03 1.262631130218505859e+01 1.144237899780273438e+01 -5.378900170326232910e-01 -1.237791106104850769e-01 -1.985007375478744507e-01 -3.104413747787475586e-01
2.980000000000000000e+03 1.751482772827148438e+01 1.562547588348388672e+01 -1.099110364913940430e+00 -2.159628570079803467e-01 -3.945219516754150391e-01 -4.167102873325347900e-01
2.981000000000000000e+03 1.909049034118652344e+01 1.594952392578125000e+01 -1.325065970420837402e+00 -2.368900924921035767e-01 -4.685868024826049805e-01 -4.799802303314208984e-01
2.982000000000000000e+03 2.105285072326660156e+01 7.911833286285400391e+00 -9.982579201459884644e-02 9.947624057531356812e-02 -1.048658450599759817e-04 -2.312015183269977570e-02
2.983000000000000000e+03 1.348225307464599609e+01 1.177672100067138672e+01 -6.235104799270629883e-01 -2.469217777252197266e-01 -2.611296772956848145e-01 -3.835059106349945068e-01
2.984000000000000000e+03 1.569785404205322266e+01 1.414177417755126953e+01 -9.050476551055908203e-01 -2.835607230663299561e-01 -3.565824925899505615e-01 -4.178518950939178467e-01
2.985000000000000000e+03 1.169136333465576172e+01 9.551231384277343750e+00 -3.251397311687469482e-01 -1.368146538734436035e-01 -1.385863125324249268e-01 -2.451025992631912231e-01
2.986000000000000000e+03 1.156652736663818359e+01 1.026765155792236328e+01 -4.137707650661468506e-01 4.154149442911148071e-03 -1.228849813342094421e-01 -2.147430926561355591e-01
2.987000000000000000e+03 1.510429382324218750e+01 1.333643150329589844e+01 -8.563852906227111816e-01 -3.043946623802185059e-01 -3.482339978218078613e-01 -4.349403679370880127e-01
2.988000000000000000e+03 1.426581192016601562e+01 1.308251953125000000e+01 -7.676250338554382324e-01 -2.182856649160385132e-01 -2.957732081413269043e-01 -3.818560838699340820e-01
2.989000000000000000e+03 1.301782798767089844e+01 1.189288902282714844e+01 -5.952776670455932617e-01 -1.420683264732360840e-01 -2.212037891149520874e-01 -3.316033184528350830e-01
2.990000000000000000e+03 2.081904029846191406e+01 9.202221870422363281e+00 7.550909370183944702e-02 1.553641110658645630e-01 6.926196068525314331e-02 1.075825318694114685e-01
2.991000000000000000e+03 2.686822319030761719e+01 1.553781318664550781e+01 -8.538925647735595703e-01 1.191766187548637390e-01 -2.204147875308990479e-01 6.652092337608337402e-01
2.992000000000000000e+03 2.038665390014648438e+01 8.316349983215332031e+00 -2.367752417922019958e-02 1.210195794701576233e-01 2.920261770486831665e-02 4.144812002778053284e-02
2.993000000000000000e+03 5.075339317321777344e+00 3.346251249313354492e+00 2.479771852493286133e+00 -4.400770366191864014e-01 6.119084358215332031e-01 1.729308247566223145e+00
2.994000000000000000e+03 1.036645126342773438e+01 8.486386299133300781e+00 -2.020949572324752808e-01 1.036961078643798828e-01 -2.951965481042861938e-02 3.885237872600555420e-02
2.995000000000000000e+03 2.700047492980957031e+01 1.339559173583984375e+01 -1.526523232460021973e-01 -8.364874124526977539e-02 -7.089032232761383057e-02 9.309531748294830322e-02
2.996000000000000000e+03 2.637020683288574219e+01 1.622033882141113281e+01 -1.483285546302795410e+00 3.072814643383026123e-01 -3.528012037277221680e-01 7.398828268051147461e-01
2.997000000000000000e+03 2.296721076965332031e+01 1.049221324920654297e+01 2.407721057534217834e-02 2.404636740684509277e-01 7.936226576566696167e-02 1.361328363418579102e-01
2.998000000000000000e+03 2.346976470947265625e+01 9.936772346496582031e+00 -1.135521456599235535e-01 1.857735216617584229e-01 2.166641317307949066e-02 2.974832989275455475e-02
2.999000000000000000e+03 9.693580627441406250e+00 7.986145973205566406e+00 -7.076232880353927612e-02 4.666385948657989502e-01 1.187628805637359619e-01 1.759285479784011841e-01
3.000000000000000000e+03 1.859463882446289062e+01 1.566114902496337891e+01 -1.235426783561706543e+00 -2.317891865968704224e-01 -4.401647746562957764e-01 -4.739702939987182617e-01
3.001000000000000000e+03 1.792205619812011719e+01 1.539133358001708984e+01 -1.136760234832763672e+00 -2.344571352005004883e-01 -4.113652110099792480e-01 -4.687094092369079590e-01
3.002000000000000000e+03 2.415240097045898438e+01 1.866641426086425781e+01 -1.518913269042968750e+00 -5.568852424621582031e-01 -6.227395534515380859e-01 4.811661492567509413e-04
3.003000000000000000e+03 2.283037567138671875e+01 1.797796440124511719e+01 -1.861958622932434082e+00 -5.529431700706481934e-01 -7.244705557823181152e-01 8.876693993806838989e-02
3.004000000000000000e+03 1.610820198059082031e+01 1.338619422912597656e+01 -9.760137200355529785e-01 -3.693171739578247070e-01 -4.035992622375488281e-01 -5.364691615104675293e-01
3.005000000000000000e+03 1.648923873901367188e+01 1.408318138122558594e+01 -9.639033675193786621e-01 -3.294634222984313965e-01 -3.880100250244140625e-01 -4.905867874622344971e-01
3.006000000000000000e+03 2.231109428405761719e+01 1.824847221374511719e+01 -1.673131704330444336e+00 -4.799184501171112061e-01 -6.459150314331054688e-01 1.024821400642395020e-01
3.007000000000000000e+03 1.540425300598144531e+01 1.368979072570800781e+01 -8.767254352569580078e-01 -2.973858118057250977e-01 -3.522333800792694092e-01 -4.367097020149230957e-01
3.008000000000000000e+03 2.685136032104492188e+01 1.615701866149902344e+01 -1.285291790962219238e+00 2.327653765678405762e-01 -3.157579302787780762e-01 7.111329436302185059e-01
3.009000000000000000e+03 2.802309226989746094e+01 1.489146900177001953e+01 -7.914472222328186035e-01 -2.690627984702587128e-02 -2.455060482025146484e-01 3.561036288738250732e-01
3.010000000000000000e+03 2.428672981262207031e+01 1.088102722167968750e+01 -6.882397085428237915e-02 2.379270046949386597e-01 5.073091015219688416e-02 3.543185815215110779e-02
3.011000000000000000e+03 2.398038864135742188e+01 1.780581283569335938e+01 -1.895287275314331055e+00 -7.270355820655822754e-01 -7.866968512535095215e-01 3.727074339985847473e-02
3.012000000000000000e+03 3.967041492462158203e+00 5.389055252075195312e+00 1.953939318656921387e+00 -5.189411640167236328e-01 4.304994344711303711e-01 -4.348741173744201660e-01
3.013000000000000000e+03 1.228635311126708984e+01 -3.007594108581542969e+00 -3.596982359886169434e-02 1.139176823198795319e-02 -7.373416796326637268e-03 6.757922470569610596e-03
3.014000000000000000e+03 2.406117820739746094e+01 1.002655506134033203e+01 -1.463387459516525269e-01 1.503577828407287598e-01 1.205711858347058296e-03 -2.487312257289886475e-02
3.015000000000000000e+03 2.770328140258789062e+01 1.371601581573486328e+01 -3.643449842929840088e-01 -1.649411469697952271e-01 -1.587858349084854126e-01 1.213176101446151733e-01
3.016000000000000000e+03 2.308681678771972656e+01 8.526244163513183594e+00 -2.097896784543991089e-01 8.153002709150314331e-02 -3.847789391875267029e-02 -6.910603493452072144e-02
3.017000000000000000e+03 2.242319679260253906e+01 8.989987373352050781e+00 -1.041433066129684448e-01 1.636919081211090088e-01 1.786458119750022888e-02 1.724629476666450500e-02
3.018000000000000000e+03 2.583980369567871094e+01 1.033319568634033203e+01 -2.675263881683349609e-01 -7.613799721002578735e-02 -1.030993163585662842e-01 -2.206875979900360107e-01
3.019000000000000000e+03 2.618399429321289062e+01 1.269627094268798828e+01 -2.151718921959400177e-02 7.872163504362106323e-02 1.716133393347263336e-02 -3.029203414916992188e-02
3.020000000000000000e+03 2.569923973083496094e+01 1.285791778564453125e+01 6.489533931016921997e-02 2.413745671510696411e-01 9.188096970319747925e-02 2.622553147375583649e-02
3.021000000000000000e+03 8.329918861389160156e+00 -3.934607744216918945e+00 -3.583528101444244385e-02 5.234966985881328583e-03 -9.180095046758651733e-03 -1.153038255870342255e-02
3.022000000000000000e+03 4.393911361694335938e+00 1.085328102111816406e+01 -4.246478676795959473e-01 8.216833472251892090e-01 1.191106438636779785e-01 -9.213263988494873047e-01
3.023000000000000000e+03 4.990548610687255859e+00 1.318513393402099609e+01 -4.663052260875701904e-01 7.540541291236877441e-01 8.632466942071914673e-02 -5.980052351951599121e-01
3.024000000000000000e+03 4.011400222778320312e+01 1.530002403259277344e+01 -1.395657658576965332e+00 5.714248418807983398e-01 -2.472698539495468140e-01 5.050023272633552551e-02
3.025000000000000000e+03 4.941132545471191406e+00 -4.616040229797363281e+00 -1.499452907592058182e-02 -5.448217503726482391e-03 -6.132823880761861801e-03 -1.611869223415851593e-02
3.026000000000000000e+03 5.663351058959960938e+00 -4.451110363006591797e+00 -2.217465080320835114e-02 -5.941076669842004776e-03 -8.434717543423175812e-03 -1.706085726618766785e-02
3.027000000000000000e+03 5.831578731536865234e+00 -5.179647922515869141e+00 -2.384222857654094696e-02 -4.225342534482479095e-03 -8.420271798968315125e-03 -2.315604873001575470e-02
3.028000000000000000e+03 1.298328495025634766e+01 -3.555605411529541016e+00 -6.338329613208770752e-02 6.529137026518583298e-03 -1.705624908208847046e-02 6.032502278685569763e-03
3.029000000000000000e+03 9.770822525024414062e+00 -4.531939029693603516e+00 -4.539724066853523254e-02 5.275671370327472687e-03 -1.203647162765264511e-02 -1.955348998308181763e-02
3.030000000000000000e+03 1.913289260864257812e+01 -8.636224746704101562e+00 -3.131335079669952393e-01 5.760659649968147278e-02 -7.665807753801345825e-02 5.134939402341842651e-02
3.031000000000000000e+03 3.392250299453735352e+00 6.949253082275390625e+00 7.823503613471984863e-01 -2.022517472505569458e-01 1.740295886993408203e-01 -9.739628434181213379e-01
3.032000000000000000e+03 7.546777248382568359e+00 -3.291394233703613281e+00 -2.723257243633270264e-02 1.030518207699060440e-03 -7.860616780817508698e-03 -1.128851342946290970e-02
3.033000000000000000e+03 4.251994132995605469e+00 4.106998443603515625e+00 2.336907625198364258e+00 -8.172748684883117676e-01 4.558898508548736572e-01 8.064597249031066895e-01
3.034000000000000000e+03 3.658581161499023438e+01 1.692999267578125000e+01 -1.279427766799926758e+00 -3.995413705706596375e-02 -3.958145678043365479e-01 -3.768237307667732239e-02
3.035000000000000000e+03 2.729419136047363281e+01 1.441214275360107422e+01 -4.190723598003387451e-01 -5.490948632359504700e-02 -1.421945542097091675e-01 3.563064634799957275e-01
3.036000000000000000e+03 3.913971662521362305e+00 -5.969736576080322266e+00 -1.464995089918375015e-02 -1.727353408932685852e-02 -9.577046148478984833e-03 -2.163205482065677643e-02
3.037000000000000000e+03 2.625651359558105469e+01 7.981044054031372070e-01 4.566691219806671143e-01 -5.311349034309387207e-01 -2.233972772955894470e-02 -1.749290674924850464e-01
3.038000000000000000e+03 2.361440658569335938e+00 8.548449516296386719e+00 3.254052624106407166e-02 -5.346965789794921875e-01 -1.506468057632446289e-01 -8.670007586479187012e-01
3.039000000000000000e+03 7.329914855957031250e+01 1.458747768402099609e+01 1.285065770149230957e+00 4.955941200256347656e+00 1.872302055358886719e+00 -3.766013681888580322e-01
3.040000000000000000e+03 4.103567123413085938e+01 1.636219978332519531e+01 -1.025130152702331543e+00 6.127220988273620605e-01 -1.237224042415618896e-01 4.767728596925735474e-02
3.041000000000000000e+03 1.728425025939941406e+01 -1.048640155792236328e+01 -2.144331783056259155e-01 9.381546080112457275e-02 -3.618531301617622375e-02 -8.162069320678710938e-02
3.042000000000000000e+03 2.085569000244140625e+01 -1.422551918029785156e+01 -1.283871680498123169e-01 1.700366437435150146e-01 1.249484159052371979e-02 -6.253992766141891479e-02
3.043000000000000000e+03 6.835490417480468750e+01 1.514678573608398438e+01 8.776160478591918945e-01 8.435786247253417969e+00 2.794020652770996094e+00 9.869735836982727051e-01
3.044000000000000000e+03 7.954933166503906250e+00 2.296846199035644531e+01 -1.978181600570678711e-01 4.154473245143890381e-01 6.528875231742858887e-02 1.101717725396156311e-01
3.045000000000000000e+03 6.921181201934814453e+00 2.254389190673828125e+01 -1.706871241331100464e-01 4.834720492362976074e-01 9.383548051118850708e-02 8.598796278238296509e-02
3.046000000000000000e+03 5.864669799804687500e+01 -1.536469841003417969e+01 7.902691364288330078e-01 9.721348762512207031e+00 3.153485536575317383e+00 -3.901973739266395569e-02
3.047000000000000000e+03 6.442016601562500000e+00 -1.253940773010253906e+01 -3.617338091135025024e-02 -4.646717011928558350e-02 -2.479216642677783966e-02 -9.509981423616409302e-02
3.048000000000000000e+03 7.614944458007812500e+00 -1.034746360778808594e+01 -4.426753148436546326e-02 -1.405914500355720520e-02 -1.749800331890583038e-02 -7.845807075500488281e-02
3.049000000000000000e+03 6.969138622283935547e+00 -9.894709587097167969e+00 -4.998674243688583374e-02 -1.576644554734230042e-02 -1.972595602273941040e-02 -6.970076262950897217e-02
3.050000000000000000e+03 6.045567512512207031e+00 1.977513122558593750e+01 -2.347426563501358032e-01 5.737573504447937012e-01 1.017044112086296082e-01 -5.875489115715026855e-02
3.051000000000000000e+03 1.534594058990478516e+01 -8.734216690063476562e+00 -2.272604703903198242e-01 7.703146338462829590e-02 -4.506869986653327942e-02 -4.447495564818382263e-02
3.052000000000000000e+03 1.399199104309082031e+01 -8.683568000793457031e+00 -1.721377521753311157e-01 6.503096967935562134e-02 -3.213203325867652893e-02 -5.349694937467575073e-02
3.053000000000000000e+03 7.986711025238037109e+00 -8.793678283691406250e+00 -5.105351656675338745e-02 -1.921156945172697306e-05 -1.532181818038225174e-02 -5.858288332819938660e-02
3.054000000000000000e+03 1.986136436462402344e+01 -1.233209991455078125e+01 -1.900397539138793945e-01 6.641656905412673950e-02 -3.708695620298385620e-02 -8.120142668485641479e-02
3.055000000000000000e+03 1.839892005920410156e+01 -1.212538909912109375e+01 -1.935569941997528076e-01 9.000536054372787476e-02 -3.106549195945262909e-02 -1.008104458451271057e-01
3.056000000000000000e+03 6.698824310302734375e+01 1.802520942687988281e+01 -7.075289613567292690e-04 6.859994888305664062e+00 2.057786226272583008e+00 -1.073673814535140991e-01
3.057000000000000000e+03 7.416027832031250000e+01 -2.075959205627441406e+01 -4.323832988739013672e-01 7.425388813018798828e+00 2.097901821136474609e+00 4.707167446613311768e-01
3.058000000000000000e+03 7.600840759277343750e+01 1.695822715759277344e+01 4.145943820476531982e-01 6.176135063171386719e+00 1.977218866348266602e+00 -2.790698707103729248e-01
3.059000000000000000e+03 3.422700119018554688e+01 2.211866950988769531e+01 -4.841884076595306396e-01 1.172368973493576050e-01 -1.100854501128196716e-01 4.301385208964347839e-02
3.060000000000000000e+03 1.585046768188476562e+01 -1.067689609527587891e+01 -1.800118088722229004e-01 9.034094214439392090e-02 -2.690126001834869385e-02 -9.645973145961761475e-02
3.061000000000000000e+03 6.541079998016357422e+00 -5.971816062927246094e+00 -3.210711479187011719e-02 -6.458979099988937378e-03 -1.156982872635126114e-02 -3.358376771211624146e-02
3.062000000000000000e+03 3.169653701782226562e+01 -1.631707763671875000e+01 -2.657138109207153320e-01 6.966412067413330078e-01 1.292782127857208252e-01 -1.249920055270195007e-01
3.063000000000000000e+03 6.306816101074218750e+01 -1.587495231628417969e+01 -1.476180851459503174e-01 5.637995243072509766e+00 1.647113204002380371e+00 -1.349009752273559570e+00
3.064000000000000000e+03 8.019497871398925781e+00 7.328762054443359375e+00 -2.117101699113845825e-01 2.330138444900512695e+00 6.355284452438354492e-01 9.403152018785476685e-02
3.065000000000000000e+03 7.727996826171875000e+00 7.170802116394042969e+00 -2.554185688495635986e-01 2.739130973815917969e+00 7.451137304306030273e-01 -8.073045313358306885e-02
3.066000000000000000e+03 5.624149799346923828e+00 5.736294269561767578e+00 2.826085090637207031e+00 1.343009710311889648e+00 1.250728487968444824e+00 -1.880738019943237305e+00
3.067000000000000000e+03 5.263999462127685547e+00 5.568791389465332031e+00 2.835952043533325195e+00 6.988055109977722168e-01 1.060427308082580566e+00 -1.439795494079589844e+00
3.068000000000000000e+03 5.228585243225097656e+00 3.798448801040649414e+00 3.385384798049926758e+00 -3.758258521556854248e-01 9.028676748275756836e-01 1.109581589698791504e+00
3.069000000000000000e+03 9.879938125610351562e+00 7.464626312255859375e+00 -2.377488464117050171e-02 1.359134167432785034e-01 3.364155814051628113e-02 1.099824681878089905e-01
3.070000000000000000e+03 6.082302570343017578e+00 6.626155376434326172e+00 9.668619632720947266e-01 2.520724296569824219e+00 1.046275973320007324e+00 -1.820655584335327148e+00
3.071000000000000000e+03 6.505136013031005859e+00 6.431554794311523438e+00 9.778602719306945801e-01 3.278131008148193359e+00 1.276797413825988770e+00 -1.839403748512268066e+00
3.072000000000000000e+03 1.948690223693847656e+01 1.713154411315917969e+01 -1.389757990837097168e+00 -1.981088072061538696e-01 -4.763600230216979980e-01 -2.678883671760559082e-01
3.073000000000000000e+03 1.086659812927246094e+01 1.016470909118652344e+01 -3.867103159427642822e-01 1.910631209611892700e-01 -5.869415774941444397e-02 -1.205686405301094055e-01
3.074000000000000000e+03 1.166103267669677734e+01 1.163820838928222656e+01 -5.541198253631591797e-01 1.207858845591545105e-01 -1.300001889467239380e-01 -2.046159058809280396e-01
3.075000000000000000e+03 1.226407718658447266e+01 1.140509319305419922e+01 -5.353969335556030273e-01 -4.165704920887947083e-02 -1.731161922216415405e-01 -2.582902014255523682e-01
3.076000000000000000e+03 1.396038913726806641e+01 1.291462421417236328e+01 -7.337312102317810059e-01 -1.980806291103363037e-01 -2.795435488224029541e-01 -3.666034936904907227e-01
3.077000000000000000e+03 1.450358772277832031e+01 1.336089992523193359e+01 -8.006111979484558105e-01 -2.269601523876190186e-01 -3.082714080810546875e-01 -3.778492510318756104e-01
3.078000000000000000e+03 1.080916309356689453e+01 9.184998512268066406e+00 -3.019533157348632812e-01 4.681153222918510437e-02 -7.654253393411636353e-02 -6.442596763372421265e-02
3.079000000000000000e+03 1.128027534484863281e+01 9.918485641479492188e+00 -3.973203301429748535e-01 7.288883905857801437e-03 -1.170094385743141174e-01 -1.473033726215362549e-01
3.080000000000000000e+03 2.139681434631347656e+01 8.918999671936035156e+00 -1.333344448357820511e-02 1.570671498775482178e-01 4.312010854482650757e-02 5.703461170196533203e-02
3.081000000000000000e+03 2.625679588317871094e+01 1.434347629547119141e+01 -4.171402379870414734e-02 4.491532966494560242e-02 9.603924117982387543e-04 3.759694695472717285e-01
3.082000000000000000e+03 2.153148078918457031e+01 9.405533790588378906e+00 2.515922300517559052e-02 1.749177724123001099e-01 6.002309918403625488e-02 1.021210327744483948e-01
3.083000000000000000e+03 1.192919540405273438e+01 1.120603179931640625e+01 -5.284360647201538086e-01 -8.927844464778900146e-03 -1.612091809511184692e-01 -2.384015321731567383e-01
3.084000000000000000e+03 1.397661113739013672e+01 1.331830596923828125e+01 -7.597069740295410156e-01 -1.684939116239547729e-01 -2.784602642059326172e-01 -3.377675712108612061e-01
3.085000000000000000e+03 2.064443206787109375e+01 1.709822845458984375e+01 -1.669847011566162109e+00 -2.258431166410446167e-01 -5.687070488929748535e-01 -2.831551432609558105e-01
3.086000000000000000e+03 1.042521190643310547e+01 9.485510826110839844e+00 -3.353659212589263916e-01 2.772963047027587891e-01 -1.742088422179222107e-02 -4.169049859046936035e-02
3.087000000000000000e+03 9.778662681579589844e+00 8.381331443786621094e+00 -2.346453964710235596e-01 4.598303735256195068e-01 6.755548715591430664e-02 1.495606154203414917e-01
3.088000000000000000e+03 2.315723800659179688e+01 1.867243957519531250e+01 -1.505694985389709473e+00 -6.032313108444213867e-01 -6.326779127120971680e-01 1.177783980965614319e-01
3.089000000000000000e+03 2.117404365539550781e+01 1.772007179260253906e+01 -1.715366482734680176e+00 -2.738488316535949707e-01 -5.967646241188049316e-01 -8.733107894659042358e-02
3.090000000000000000e+03 1.065555763244628906e+01 9.819686889648437500e+00 -4.023554325103759766e-01 1.991620212793350220e-01 -6.095802411437034607e-02 -7.449645549058914185e-02
3.091000000000000000e+03 2.369004249572753906e+01 1.929625892639160156e+01 -1.275634050369262695e+00 -5.538155436515808105e-01 -5.488348603248596191e-01 6.074206531047821045e-02
3.092000000000000000e+03 2.774965667724609375e+01 1.676473617553710938e+01 -1.357258081436157227e+00 2.185310423374176025e-01 -3.416181206703186035e-01 5.319947600364685059e-01
3.093000000000000000e+03 2.197526359558105469e+01 9.997451782226562500e+00 6.883241981267929077e-02 1.946377158164978027e-01 7.904104143381118774e-02 1.450361758470535278e-01
3.094000000000000000e+03 1.818735122680664062e+01 1.613821411132812500e+01 -1.193578720092773438e+00 -1.991357207298278809e-01 -4.178143143653869629e-01 -3.825733065605163574e-01
3.095000000000000000e+03 2.476368522644042969e+01 1.911625671386718750e+01 -1.377667784690856934e+00 -4.001783132553100586e-01 -5.333538055419921875e-01 -1.648660190403461456e-02
3.096000000000000000e+03 4.747966289520263672e+00 3.954301595687866211e+00 2.835774183273315430e+00 -6.465407013893127441e-01 6.567700505256652832e-01 9.279900789260864258e-01
3.097000000000000000e+03 2.524017333984375000e+01 1.084126377105712891e+01 -1.495954692363739014e-01 9.313435852527618408e-02 -1.693833246827125549e-02 -9.474037587642669678e-02
3.098000000000000000e+03 1.352327251434326172e+01 1.293166542053222656e+01 -7.140718102455139160e-01 -1.252473592758178711e-01 -2.517957389354705811e-01 -3.256976902484893799e-01
3.099000000000000000e+03 1.300125694274902344e+01 1.243913269042968750e+01 -6.581783294677734375e-01 -8.983841538429260254e-02 -2.244050204753875732e-01 -3.021154701709747314e-01
3.100000000000000000e+03 4.224326610565185547e+00 8.204375267028808594e+00 1.477445214986801147e-01 7.104364633560180664e-01 2.574543058872222900e-01 -1.275329470634460449e+00
3.101000000000000000e+03 3.038242816925048828e+00 9.213100433349609375e+00 -5.400082468986511230e-02 1.691835969686508179e-01 3.455483168363571167e-02 -1.050751566886901855e+00
3.102000000000000000e+03 5.789387702941894531e+00 1.250328540802001953e+01 -5.799537897109985352e-01 9.165163040161132812e-01 1.009687557816505432e-01 -5.940231680870056152e-01
3.103000000000000000e+03 5.056511402130126953e+00 1.442198562622070312e+01 -4.090197384357452393e-01 7.006710171699523926e-01 8.749537914991378784e-02 -4.740876555442810059e-01
3.104000000000000000e+03 2.293260383605957031e+01 1.002327156066894531e+01 -4.178056120872497559e-02 1.954111158847808838e-01 4.608916491270065308e-02 8.217119425535202026e-02
3.105000000000000000e+03 2.278098297119140625e+01 9.487000465393066406e+00 -8.739650994539260864e-02 1.742140352725982666e-01 2.604525908827781677e-02 4.743940755724906921e-02
3.106000000000000000e+03 1.340423488616943359e+01 -5.642552375793457031e+00 -1.079405248165130615e-01 2.202482521533966064e-02 -2.577470988035202026e-02 -1.197604089975357056e-02
3.107000000000000000e+03 1.266814899444580078e+01 -5.195770740509033203e+00 -7.571633160114288330e-02 2.756125479936599731e-02 -1.444652397185564041e-02 1.426402130164206028e-03
3.108000000000000000e+03 3.838290691375732422e+00 4.320673465728759766e+00 1.851222038269042969e+00 -9.341973662376403809e-01 2.751073837280273438e-01 6.574025154113769531e-01
3.109000000000000000e+03 3.761007690429687500e+01 1.702783966064453125e+01 -1.282515645027160645e+00 1.206538155674934387e-01 -3.485585451126098633e-01 -4.658519104123115540e-02
3.110000000000000000e+03 1.146956348419189453e+01 -5.429697036743164062e+00 -6.650175899267196655e-02 2.208451181650161743e-02 -1.332517340779304504e-02 -1.166496612131595612e-02
3.111000000000000000e+03 1.133832168579101562e+01 -4.391371250152587891e+00 -5.388782173395156860e-02 1.841495372354984283e-02 -1.064186077564954758e-02 -6.791329476982355118e-03
3.112000000000000000e+03 6.588093280792236328e+00 -5.170804500579833984e+00 -3.099996224045753479e-02 -1.887664897367358208e-03 -9.866288863122463226e-03 -2.081546001136302948e-02
3.113000000000000000e+03 6.426892757415771484e+00 -4.340853214263916016e+00 -2.244113199412822723e-02 -1.509348163381218910e-03 -7.185143884271383286e-03 -1.887858472764492035e-02
3.114000000000000000e+03 3.753741979598999023e+00 9.819038391113281250e+00 -2.279897332191467285e-01 5.284561514854431152e-01 9.013992547988891602e-02 -1.064703226089477539e+00
3.115000000000000000e+03 5.099987983703613281e+00 1.171899318695068359e+01 -5.279957652091979980e-01 9.154207110404968262e-01 1.162274777889251709e-01 -7.439607381820678711e-01
3.116000000000000000e+03 5.040559768676757812e+00 1.243598175048828125e+01 -5.038659572601318359e-01 8.362489342689514160e-01 9.971487522125244141e-02 -6.795198917388916016e-01
3.117000000000000000e+03 4.028354644775390625e+00 4.962285041809082031e+00 2.199014902114868164e+00 -6.692416667938232422e-01 4.589319825172424316e-01 -1.035761758685112000e-01
3.118000000000000000e+03 3.497707605361938477e+00 5.547947883605957031e+00 1.597800374031066895e+00 -6.844069957733154297e-01 2.740180194377899170e-01 -3.909341096878051758e-01
3.119000000000000000e+03 9.882587432861328125e+00 -5.104993820190429688e+00 -6.473459303379058838e-02 1.255491469055414200e-02 -1.565390266478061676e-02 -2.049425244331359863e-02
3.120000000000000000e+03 5.165689945220947266e+00 7.277715206146240234e+00 6.439143419265747070e-01 1.413748860359191895e+00 6.172989606857299805e-01 -1.545771837234497070e+00
3.121000000000000000e+03 8.317368507385253906e+00 -5.331662654876708984e+00 -4.746819660067558289e-02 7.752612233161926270e-03 -1.191467512398958206e-02 -2.212853170931339264e-02
3.122000000000000000e+03 7.588251113891601562e+00 -4.548032283782958984e+00 -3.150666132569313049e-02 2.950559603050351143e-03 -8.566830307245254517e-03 -1.542713493108749390e-02
3.123000000000000000e+03 7.111805915832519531e+00 1.949738121032714844e+01 -3.023779690265655518e-01 5.215611457824707031e-01 6.575495004653930664e-02 -4.900179430842399597e-02
3.124000000000000000e+03 5.731132030487060547e+00 -5.828546047210693359e+00 -2.370568178594112396e-02 -6.149127613753080368e-03 -8.956442587077617645e-03 -2.348582446575164795e-02
3.125000000000000000e+03 3.852492141723632812e+01 1.610288238525390625e+01 -1.398236989974975586e+00 3.200348019599914551e-01 -3.234606683254241943e-01 4.623971506953239441e-02
3.126000000000000000e+03 1.947840118408203125e+01 -1.399011039733886719e+01 -1.275083869695663452e-01 1.231484413146972656e-01 -1.307983999140560627e-03 -1.029993146657943726e-01
3.127000000000000000e+03 2.063622474670410156e+01 -1.580595970153808594e+01 -1.032140254974365234e-01 2.327436804771423340e-01 3.885889798402786255e-02 -8.709359169006347656e-02
3.128000000000000000e+03 5.085580825805664062e+01 1.655175399780273438e+01 -1.869737267494201660e+00 9.719982147216796875e+00 2.355073451995849609e+00 -8.743259310722351074e-01
3.129000000000000000e+03 5.327600097656250000e+01 1.529127597808837891e+01 1.421282291412353516e+00 1.022584438323974609e+01 3.494138002395629883e+00 2.569101810455322266e+00
3.130000000000000000e+03 3.882957839965820312e+01 1.788885307312011719e+01 -9.681403040885925293e-01 3.738310337066650391e-01 -1.782927960157394409e-01 -1.254930794239044189e-01
3.131000000000000000e+03 3.857418823242187500e+01 1.694546318054199219e+01 -1.210640668869018555e+00 3.544915318489074707e-01 -2.568447589874267578e-01 -7.326247543096542358e-02
3.132000000000000000e+03 1.033802127838134766e+01 2.472851562500000000e+01 -1.944983601570129395e-01 2.318389564752578735e-01 1.120217889547348022e-02 1.965080052614212036e-01
3.133000000000000000e+03 3.443970870971679688e+01 -1.741226387023925781e+01 -2.129140347242355347e-01 4.594039022922515869e-01 7.394696027040481567e-02 -1.572345048189163208e-01
3.134000000000000000e+03 2.829917716979980469e+01 -1.628463935852050781e+01 -3.009089827537536621e-01 7.196924090385437012e-01 1.256350278854370117e-01 -1.145935878157615662e-01
3.135000000000000000e+03 8.800001144409179688e+00 -1.483947277069091797e+01 -4.061163961887359619e-02 -2.355029620230197906e-02 -1.924858056008815765e-02 -1.324476897716522217e-01
3.136000000000000000e+03 8.391425132751464844e+00 -1.059393692016601562e+01 -6.930321455001831055e-02 -4.782740725204348564e-04 -2.093444764614105225e-02 -8.992045372724533081e-02
3.137000000000000000e+03 4.035612487792968750e+01 1.716543006896972656e+01 -1.048776984214782715e+00 6.515799760818481445e-01 -1.191590875387191772e-01 -6.128669530153274536e-02
3.138000000000000000e+03 4.017859268188476562e+01 1.591034603118896484e+01 -1.242328763008117676e+00 5.380896329879760742e-01 -2.112717479467391968e-01 6.241095066070556641e-02
3.139000000000000000e+03 7.274820804595947266e+00 -1.108001995086669922e+01 -5.297759920358657837e-02 -1.983921974897384644e-02 -2.184504456818103790e-02 -8.859129995107650757e-02
3.140000000000000000e+03 3.637342453002929688e+01 2.078713607788085938e+01 -5.536667108535766602e-01 1.441458612680435181e-01 -1.228562444448471069e-01 -5.583186447620391846e-02
3.141000000000000000e+03 2.772824668884277344e+01 1.940573883056640625e+01 -1.272946715354919434e+00 6.236395239830017090e-02 -3.631748259067535400e-01 2.024391144514083862e-01
3.142000000000000000e+03 1.601244163513183594e+01 -1.225719165802001953e+01 -1.406588107347488403e-01 1.043072193861007690e-01 -1.090547814965248108e-02 -1.288147717714309692e-01
3.143000000000000000e+03 2.272824859619140625e+01 -1.674724388122558594e+01 -1.659786105155944824e-01 4.009512066841125488e-01 7.049178332090377808e-02 -7.633149623870849609e-02
3.144000000000000000e+03 2.398819541931152344e+01 -1.715813064575195312e+01 -1.514313668012619019e-01 4.724048972129821777e-01 9.629205614328384399e-02 -6.837207823991775513e-02
3.145000000000000000e+03 7.867946147918701172e+00 -1.306861782073974609e+01 -4.714045301079750061e-02 -2.775989286601543427e-02 -2.247010357677936554e-02 -1.132274046540260315e-01
3.146000000000000000e+03 9.018329620361328125e+00 7.543720245361328125e+00 1.851233653724193573e-02 1.004350781440734863e+00 3.068589568138122559e-01 2.541342973709106445e-01
3.147000000000000000e+03 5.324113368988037109e+00 6.426546573638916016e+00 1.555798649787902832e+00 1.371848583221435547e+00 8.782941699028015137e-01 -1.723129630088806152e+00
3.148000000000000000e+03 5.882273197174072266e+00 6.418238639831542969e+00 1.453301429748535156e+00 2.129065513610839844e+00 1.074710011482238770e+00 -1.898676037788391113e+00
3.149000000000000000e+03 6.075432777404785156e+00 6.115734100341796875e+00 1.889067173004150391e+00 2.440974950790405273e+00 1.299012660980224609e+00 -2.114835023880004883e+00
3.150000000000000000e+03 9.362038612365722656e+00 8.090824127197265625e+00 -2.721854448318481445e-01 7.688635587692260742e-01 1.490034312009811401e-01 2.332270145416259766e-01
3.151000000000000000e+03 5.675913810729980469e+00 3.736723899841308594e+00 4.029944896697998047e+00 -9.956026915460824966e-04 1.208684682846069336e+00 1.173089623451232910e+00
3.152000000000000000e+03 4.433908939361572266e+00 6.197537899017333984e+00 1.696134805679321289e+00 2.538373768329620361e-01 5.849916934967041016e-01 -1.206292033195495605e+00
3.153000000000000000e+03 7.476818084716796875e+00 6.931538105010986328e+00 -1.521543264389038086e-01 3.311686515808105469e+00 9.478597044944763184e-01 -3.980494439601898193e-01
3.154000000000000000e+03 1.704955863952636719e+01 1.637080383300781250e+01 -1.032420754432678223e+00 -1.636391282081604004e-01 -3.588179647922515869e-01 -2.908609211444854736e-01
3.155000000000000000e+03 9.318567276000976562e+00 7.780949115753173828e+00 1.700804568827152252e-02 6.891853213310241699e-01 2.118580043315887451e-01 2.305208295583724976e-01
3.156000000000000000e+03 7.223843574523925781e+00 7.278666019439697266e+00 -2.513490319252014160e-01 2.968913555145263672e+00 8.152693510055541992e-01 -6.093250513076782227e-01
3.157000000000000000e+03 9.481017112731933594e+00 7.410343170166015625e+00 -1.703945174813270569e-02 4.318436980247497559e-01 1.244412735104560852e-01 1.974305659532546997e-01
3.158000000000000000e+03 9.817732810974121094e+00 9.457387924194335938e+00 -3.886912465095520020e-01 5.411219596862792969e-01 4.572920873761177063e-02 2.620962820947170258e-02
3.159000000000000000e+03 9.552831649780273438e+00 9.123456001281738281e+00 -3.448625504970550537e-01 6.921744346618652344e-01 1.041935756802558899e-01 7.874776422977447510e-02
3.160000000000000000e+03 1.494488716125488281e+01 1.408769607543945312e+01 -8.434011340141296387e-01 -2.152073979377746582e-01 -3.175825774669647217e-01 -3.504267334938049316e-01
3.161000000000000000e+03 1.415493965148925781e+01 1.362723255157470703e+01 -7.584257125854492188e-01 -1.609300523996353149e-01 -2.758067250251770020e-01 -3.241148293018341064e-01
3.162000000000000000e+03 4.379582405090332031e+00 5.220594882965087891e+00 2.488523721694946289e+00 -3.367239832878112793e-01 6.455399394035339355e-01 -5.300313234329223633e-01
3.163000000000000000e+03 4.277140140533447266e+00 4.547493457794189453e+00 2.491295337677001953e+00 -7.056058645248413086e-01 5.357068777084350586e-01 2.746674120426177979e-01
3.164000000000000000e+03 1.643117713928222656e+01 1.524511528015136719e+01 -9.572503566741943359e-01 -2.192524373531341553e-01 -3.529508411884307861e-01 -3.798040151596069336e-01
3.165000000000000000e+03 1.642119598388671875e+01 1.460835742950439453e+01 -9.585276246070861816e-01 -2.764893472194671631e-01 -3.705050945281982422e-01 -4.429523646831512451e-01
3.166000000000000000e+03 1.945777320861816406e+01 1.776961708068847656e+01 -1.329747796058654785e+00 -1.902985423803329468e-01 -4.560139179229736328e-01 -1.400382071733474731e-01
3.167000000000000000e+03 1.428368473052978516e+01 1.396612453460693359e+01 -7.915734052658081055e-01 -1.396888494491577148e-01 -2.793786823749542236e-01 -3.071554303169250488e-01
3.168000000000000000e+03 1.207831954956054688e+01 1.185624217987060547e+01 -5.757665634155273438e-01 2.436631917953491211e-02 -1.654200702905654907e-01 -2.447800785303115845e-01
3.169000000000000000e+03 1.131560420989990234e+01 1.198321628570556641e+01 -5.826889276504516602e-01 1.904973387718200684e-01 -1.176574826240539551e-01 -1.794282644987106323e-01
3.170000000000000000e+03 1.520105075836181641e+01 1.446919822692871094e+01 -8.428648114204406738e-01 -2.003065198659896851e-01 -3.129514157772064209e-01 -3.436574935913085938e-01
3.171000000000000000e+03 2.060461807250976562e+01 1.778383636474609375e+01 -1.552408456802368164e+00 -2.410846352577209473e-01 -5.380479097366333008e-01 -1.101497709751129150e-01
3.172000000000000000e+03 1.926849746704101562e+01 1.619603729248046875e+01 -1.370955586433410645e+00 -2.219390422105789185e-01 -4.778684079647064209e-01 -4.339332878589630127e-01
3.173000000000000000e+03 1.826336669921875000e+01 1.671480178833007812e+01 -1.190361022949218750e+00 -1.750420331954956055e-01 -4.096209108829498291e-01 -2.944663465023040771e-01
3.174000000000000000e+03 2.252877044677734375e+01 1.905219078063964844e+01 -1.363266825675964355e+00 -5.159583687782287598e-01 -5.637675523757934570e-01 1.294559985399246216e-01
3.175000000000000000e+03 1.084292316436767578e+01 1.055110549926757812e+01 -4.844615459442138672e-01 2.264807075262069702e-01 -7.739424705505371094e-02 -1.245602145791053772e-01
3.176000000000000000e+03 2.182831573486328125e+01 1.927544212341308594e+01 -1.259866476058959961e+00 -4.375385642051696777e-01 -5.092214941978454590e-01 1.385546326637268066e-01
3.177000000000000000e+03 2.200243568420410156e+01 9.415882110595703125e+00 -1.532632485032081604e-02 1.538239717483520508e-01 4.154929518699645996e-02 6.887976825237274170e-02
3.178000000000000000e+03 1.762416648864746094e+01 1.622641944885253906e+01 -1.106395959854125977e+00 -1.826749593019485474e-01 -3.867212533950805664e-01 -3.396936953067779541e-01
3.179000000000000000e+03 2.670402908325195312e+01 1.855689620971679688e+01 -1.509314775466918945e+00 7.955254614353179932e-02 -4.289286732673645020e-01 1.521442830562591553e-01
3.180000000000000000e+03 2.566861724853515625e+01 1.782986640930175781e+01 -1.849747538566589355e+00 7.391422521322965622e-03 -5.527068376541137695e-01 5.964228883385658264e-02
3.181000000000000000e+03 1.244812297821044922e+01 1.248291206359863281e+01 -6.212060451507568359e-01 1.131291873753070831e-02 -1.829679310321807861e-01 -2.559227347373962402e-01
3.182000000000000000e+03 1.888566970825195312e+01 1.720167160034179688e+01 -1.265978217124938965e+00 -1.774005591869354248e-01 -4.330136477947235107e-01 -2.348157465457916260e-01
3.183000000000000000e+03 2.331288719177246094e+01 2.000785827636718750e+01 -1.097727417945861816e+00 -5.197185873985290527e-01 -4.852338135242462158e-01 9.556525200605392456e-02
3.184000000000000000e+03 2.266324615478515625e+01 1.990574455261230469e+01 -1.109974861145019531e+00 -5.017590522766113281e-01 -4.835201501846313477e-01 1.364120543003082275e-01
3.185000000000000000e+03 1.199135684967041016e+01 -4.791475296020507812e+00 -7.301616668701171875e-02 1.209543831646442413e-02 -1.827621832489967346e-02 -1.093989983201026917e-02
3.186000000000000000e+03 7.715042114257812500e+00 1.889653015136718750e+01 -3.689913153648376465e-01 5.003122091293334961e-01 3.939625993371009827e-02 -7.012535631656646729e-02
3.187000000000000000e+03 7.451893806457519531e+00 -5.245791912078857422e+00 -3.591975942254066467e-02 -3.213151067029684782e-04 -1.087232213467359543e-02 -2.790197730064392090e-02
3.188000000000000000e+03 4.608592033386230469e+00 1.018939495086669922e+01 -4.043588042259216309e-01 9.195160269737243652e-01 1.545471698045730591e-01 -9.892630577087402344e-01
3.189000000000000000e+03 5.928058624267578125e+00 1.806512832641601562e+01 -2.930037677288055420e-01 6.117152571678161621e-01 9.561344981193542480e-02 -1.584120243787765503e-01
3.190000000000000000e+03 6.740507125854492188e+00 1.371540546417236328e+01 -5.774466395378112793e-01 8.129445910453796387e-01 7.064938545227050781e-02 -4.138967692852020264e-01
3.191000000000000000e+03 2.732185554504394531e+01 1.631946945190429688e+01 -1.276618123054504395e+00 2.083486318588256836e-01 -3.204808235168457031e-01 6.128637790679931641e-01
3.192000000000000000e+03 4.395970821380615234e+00 7.357532501220703125e+00 6.538598537445068359e-01 6.861165165901184082e-01 4.019929170608520508e-01 -1.344995856285095215e+00
3.193000000000000000e+03 4.784968376159667969e+00 7.099917411804199219e+00 8.263145089149475098e-01 1.035511732101440430e+00 5.585478544235229492e-01 -1.480856180191040039e+00
3.194000000000000000e+03 1.033306503295898438e+01 -5.583456516265869141e+00 -5.710512772202491760e-02 1.627493090927600861e-02 -1.224905904382467270e-02 -2.163641527295112610e-02
3.195000000000000000e+03 2.589016914367675781e+01 1.906146430969238281e+01 -1.439763784408569336e+00 -1.383865922689437866e-01 -4.734451174736022949e-01 2.153788506984710693e-02
3.196000000000000000e+03 2.815427207946777344e+01 1.856857681274414062e+01 -1.357408285140991211e+00 1.400199532508850098e-01 -3.652164936065673828e-01 3.128810226917266846e-01
3.197000000000000000e+03 8.426110267639160156e+00 -6.950154781341552734e+00 -5.851247161626815796e-02 8.029540069401264191e-03 -1.514487992972135544e-02 -3.764863312244415283e-02
3.198000000000000000e+03 1.243743610382080078e+01 -1.088966941833496094e+01 -1.113954260945320129e-01 4.869991168379783630e-02 -1.880865544080734253e-02 -1.054466217756271362e-01
3.199000000000000000e+03 1.865158081054687500e+01 -1.468312454223632812e+01 -1.303902417421340942e-01 1.617396920919418335e-01 9.404835291206836700e-03 -1.131863370537757874e-01
3.200000000000000000e+03 1.921901321411132812e+01 -1.571698188781738281e+01 -8.860836923122406006e-02 1.676219701766967773e-01 2.370408177375793457e-02 -1.182757765054702759e-01
3.201000000000000000e+03 2.087332916259765625e+01 -1.743781280517578125e+01 -5.924136191606521606e-02 2.870770394802093506e-01 6.835070997476577759e-02 -9.612309187650680542e-02
3.202000000000000000e+03 1.207669353485107422e+01 2.507616615295410156e+01 -2.105181515216827393e-01 1.365134716033935547e-01 -2.220140397548675537e-02 2.284564673900604248e-01
3.203000000000000000e+03 2.815027427673339844e+01 -1.874360084533691406e+01 -1.639343351125717163e-01 6.766670942306518555e-01 1.538198292255401611e-01 -1.215045154094696045e-01
3.204000000000000000e+03 9.577125549316406250e+00 -1.032326984405517578e+01 -8.665813505649566650e-02 1.192331593483686447e-02 -2.242044545710086823e-02 -8.871020376682281494e-02
3.205000000000000000e+03 1.488554859161376953e+01 -1.317971515655517578e+01 -1.156706362962722778e-01 8.481786400079727173e-02 -9.255831129848957062e-03 -1.242136806249618530e-01
3.206000000000000000e+03 1.403196716308593750e+01 -1.231541061401367188e+01 -1.283273100852966309e-01 7.221258431673049927e-02 -1.683441922068595886e-02 -1.153038144111633301e-01
3.207000000000000000e+03 3.882885742187500000e+01 1.967688179016113281e+01 -6.258818507194519043e-01 4.671549797058105469e-01 -4.761805757880210876e-02 -2.169505804777145386e-01
3.208000000000000000e+03 4.035256576538085938e+01 1.924020576477050781e+01 -6.061401963233947754e-01 6.957201957702636719e-01 2.687399461865425110e-02 -2.887089848518371582e-01
3.209000000000000000e+03 1.605284881591796875e+01 -1.492294025421142578e+01 -1.196847707033157349e-01 9.928532689809799194e-02 -6.119832862168550491e-03 -1.513420045375823975e-01
3.210000000000000000e+03 8.410573959350585938e+00 -1.207314968109130859e+01 -5.446100980043411255e-02 -1.281583588570356369e-02 -2.018305473029613495e-02 -1.072039604187011719e-01
3.211000000000000000e+03 9.574183464050292969e+00 -1.279352760314941406e+01 -6.330209225416183472e-02 -4.097181838005781174e-03 -2.021978236734867096e-02 -1.219035759568214417e-01
3.212000000000000000e+03 9.265607833862304688e+00 2.230581092834472656e+01 -2.726149260997772217e-01 3.417398333549499512e-01 2.073746919631958008e-02 1.064384654164314270e-01
3.213000000000000000e+03 7.938838958740234375e+00 8.128090858459472656e+00 -4.048052132129669189e-01 1.932916522026062012e+00 4.584333896636962891e-01 -6.839908659458160400e-02
3.214000000000000000e+03 5.591844081878662109e+00 6.642428398132324219e+00 1.207002639770507812e+00 1.767115831375122070e+00 8.922355771064758301e-01 -1.764321088790893555e+00
3.215000000000000000e+03 6.940253257751464844e+00 7.629168987274169922e+00 -2.558908164501190186e-01 2.652604103088378906e+00 7.190139889717102051e-01 -7.867089509963989258e-01
3.216000000000000000e+03 6.119345188140869141e+00 6.288677692413330078e+00 1.606986880302429199e+00 2.586685895919799805e+00 1.258101820945739746e+00 -2.020639896392822266e+00
3.217000000000000000e+03 6.258508205413818359e+00 6.399693012237548828e+00 1.312750458717346191e+00 2.824853658676147461e+00 1.241281270980834961e+00 -1.937813997268676758e+00
3.218000000000000000e+03 9.356275558471679688e+00 8.474192619323730469e+00 -2.058669775724411011e-01 8.087840676307678223e-01 1.808751225471496582e-01 1.659390330314636230e-01
3.219000000000000000e+03 5.420649051666259766e+00 4.161427974700927734e+00 4.018186569213867188e+00 -2.020618915557861328e-01 1.144837498664855957e+00 4.967956840991973877e-01
3.220000000000000000e+03 4.879101753234863281e+00 5.889769077301025391e+00 2.197894811630249023e+00 5.201979875564575195e-01 8.154278397560119629e-01 -1.358013391494750977e+00
3.221000000000000000e+03 4.756920814514160156e+00 5.063471794128417969e+00 2.898976802825927734e+00 -2.135173231363296509e-01 8.056378364562988281e-01 -5.706142187118530273e-01
3.222000000000000000e+03 7.474751472473144531e+00 7.543119907379150391e+00 -3.178551793098449707e-01 2.623473644256591797e+00 6.916855573654174805e-01 -3.433538079261779785e-01
3.223000000000000000e+03 1.093847560882568359e+01 1.115183925628662109e+01 -5.244202017784118652e-01 2.551853060722351074e-01 -8.077047765254974365e-02 -1.544872671365737915e-01
3.224000000000000000e+03 1.255014038085937500e+01 1.192686557769775391e+01 -6.033612489700317383e-01 -5.577668175101280212e-02 -1.977413743734359741e-01 -2.783721089363098145e-01
3.225000000000000000e+03 1.158707904815673828e+01 1.277929019927978516e+01 -6.432375311851501465e-01 1.779196411371231079e-01 -1.395953595638275146e-01 -1.945572942495346069e-01
3.226000000000000000e+03 1.088458633422851562e+01 1.208685111999511719e+01 -5.815022587776184082e-01 3.239986598491668701e-01 -7.725108414888381958e-02 -1.585662662982940674e-01
3.227000000000000000e+03 1.644139480590820312e+01 1.587917613983154297e+01 -9.696562290191650391e-01 -1.705839335918426514e-01 -3.420720398426055908e-01 -3.139096498489379883e-01
3.228000000000000000e+03 9.258406639099121094e+00 9.469069480895996094e+00 -4.731948673725128174e-01 8.233723044395446777e-01 1.050532311201095581e-01 1.691150851547718048e-02
3.229000000000000000e+03 1.299808597564697266e+01 1.302927112579345703e+01 -6.731383800506591797e-01 -4.105489328503608704e-02 -2.142579853534698486e-01 -2.788361608982086182e-01
3.230000000000000000e+03 1.241525268554687500e+01 1.309462833404541016e+01 -6.669979691505432129e-01 5.612593516707420349e-02 -1.832616031169891357e-01 -2.312785536050796509e-01
3.231000000000000000e+03 1.243254089355468750e+01 1.371734142303466797e+01 -6.744409799575805664e-01 9.934590011835098267e-02 -1.725285202264785767e-01 -2.088707387447357178e-01
3.232000000000000000e+03 2.114241409301757812e+01 1.853612518310546875e+01 -1.434402942657470703e+00 -3.320159316062927246e-01 -5.299256443977355957e-01 5.611118674278259277e-02
3.233000000000000000e+03 1.588151168823242188e+01 1.535731792449951172e+01 -9.176936149597167969e-01 -1.826799660921096802e-01 -3.301120698451995850e-01 -3.269432187080383301e-01
3.234000000000000000e+03 2.002964210510253906e+01 1.779269981384277344e+01 -1.422302246093750000e+00 -2.187329083681106567e-01 -4.923105239868164062e-01 -1.322472989559173584e-01
3.235000000000000000e+03 1.835828590393066406e+01 1.776919555664062500e+01 -1.143349409103393555e+00 -1.556779891252517700e-01 -3.897082209587097168e-01 -1.420279741287231445e-01
3.236000000000000000e+03 7.119225978851318359e+00 1.431195735931396484e+01 -5.700380206108093262e-01 7.460644245147705078e-01 5.280793085694313049e-02 -3.448999524116516113e-01
3.237000000000000000e+03 1.383209991455078125e+01 1.393928241729736328e+01 -7.684634327888488770e-01 -8.682311326265335083e-02 -2.565859854221343994e-01 -2.786127030849456787e-01
3.238000000000000000e+03 2.753609275817871094e+01 1.799409866333007812e+01 -1.476755380630493164e+00 1.827949732542037964e-01 -3.881881237030029297e-01 3.300535976886749268e-01
3.239000000000000000e+03 2.712357330322265625e+01 1.730905723571777344e+01 -1.534738063812255859e+00 2.372196763753890991e-01 -3.892554938793182373e-01 4.201502203941345215e-01
3.240000000000000000e+03 1.586051845550537109e+01 1.472667026519775391e+01 -9.019618630409240723e-01 -2.376350015401840210e-01 -3.418790698051452637e-01 -3.822841048240661621e-01
3.241000000000000000e+03 1.028816413879394531e+01 1.010521411895751953e+01 -4.254783987998962402e-01 3.882617652416229248e-01 -1.116498280316591263e-02 -5.200682207942008972e-02
3.242000000000000000e+03 9.933629035949707031e+00 1.043326091766357422e+01 -4.978900253772735596e-01 5.303253531455993652e-01 9.730593301355838776e-03 -6.542219966650009155e-02
3.243000000000000000e+03 4.173996448516845703e+00 5.823804378509521484e+00 1.866546630859375000e+00 -1.355938166379928589e-01 5.192858576774597168e-01 -9.017068147659301758e-01
3.244000000000000000e+03 1.535205364227294922e+01 1.489616489410400391e+01 -8.722460865974426270e-01 -1.853410303592681885e-01 -3.172761201858520508e-01 -3.218278288841247559e-01
3.245000000000000000e+03 9.357658386230468750e+00 1.811172866821289062e+01 -4.743970036506652832e-01 4.242464900016784668e-01 -1.504516135901212692e-02 -6.051766872406005859e-02
3.246000000000000000e+03 1.831272125244140625e+01 1.726150512695312500e+01 -1.176773071289062500e+00 -1.625064015388488770e-01 -4.017838239669799805e-01 -2.145043909549713135e-01
3.247000000000000000e+03 4.397238731384277344e+00 6.886605739593505859e+00 1.004112243652343750e+00 5.123029351234436035e-01 4.549245536327362061e-01 -1.314618945121765137e+00
3.248000000000000000e+03 2.052265739440917969e+01 1.858897399902343750e+01 -1.360174536705017090e+00 -2.786180377006530762e-01 -4.916377663612365723e-01 2.231101877987384796e-02
3.249000000000000000e+03 7.422540664672851562e+00 -6.065641403198242188e+00 -4.163454100489616394e-02 1.495272503234446049e-03 -1.204178016632795334e-02 -2.887240424752235413e-02
3.250000000000000000e+03 5.202699184417724609e+00 1.104868602752685547e+01 -5.280092954635620117e-01 1.009508371353149414e+00 1.444497108459472656e-01 -8.168460726737976074e-01
3.251000000000000000e+03 6.497632980346679688e+00 1.312593269348144531e+01 -5.962401032447814941e-01 8.610343933105468750e-01 7.943827658891677856e-02 -4.636594057083129883e-01
3.252000000000000000e+03 4.282719135284423828e+00 9.196207046508789062e+00 -1.679488122463226318e-01 7.985792756080627441e-01 1.891891360282897949e-01 -1.170845031738281250e+00
3.253000000000000000e+03 5.932191371917724609e+00 1.583944988250732422e+01 -4.035335481166839600e-01 6.705046296119689941e-01 8.009131997823715210e-02 -3.226679563522338867e-01
3.254000000000000000e+03 6.609489440917968750e+00 1.190202999114990234e+01 -6.554637551307678223e-01 1.036614298820495605e+00 1.143451482057571411e-01 -5.106667876243591309e-01
3.255000000000000000e+03 5.652443885803222656e+00 1.683077621459960938e+01 -3.286200761795043945e-01 6.422806382179260254e-01 9.409816563129425049e-02 -2.538323402404785156e-01
3.256000000000000000e+03 2.494150352478027344e+01 2.023644065856933594e+01 -1.087280750274658203e+00 -3.544207215309143066e-01 -4.325104355812072754e-01 2.751623839139938354e-02
3.257000000000000000e+03 1.018993377685546875e+01 2.247933387756347656e+01 -2.896073460578918457e-01 2.806735634803771973e-01 -2.680133562535047531e-03 1.289774626493453979e-01
3.258000000000000000e+03 8.499840736389160156e+00 2.125039482116699219e+01 -2.984968721866607666e-01 4.066626727581024170e-01 3.244973346590995789e-02 5.439020320773124695e-02
3.259000000000000000e+03 2.118907165527343750e+01 2.040719223022460938e+01 -9.796863198280334473e-01 -3.889360427856445312e-01 -4.105867147445678711e-01 1.754671484231948853e-01
3.260000000000000000e+03 2.827679061889648438e+01 1.611086845397949219e+01 -1.144448518753051758e+00 1.041784584522247314e-01 -3.120810091495513916e-01 5.119886398315429688e-01
3.261000000000000000e+03 1.389544963836669922e+01 -1.427287292480468750e+01 -8.394896984100341797e-02 6.861189007759094238e-02 -4.601124674081802368e-03 -1.440044492483139038e-01
3.262000000000000000e+03 1.384147930145263672e+01 2.497780799865722656e+01 -2.431369572877883911e-01 3.199984133243560791e-02 -6.334113329648971558e-02 2.434706836938858032e-01
3.263000000000000000e+03 1.333172702789306641e+01 -1.669072341918945312e+01 -5.762783810496330261e-02 5.067119747400283813e-02 -2.086993074044585228e-03 -1.738451421260833740e-01
3.264000000000000000e+03 3.040957641601562500e+01 -1.419689655303955078e+01 -4.385259449481964111e-01 7.330791950225830078e-01 8.836597204208374023e-02 -1.445483267307281494e-01
3.265000000000000000e+03 2.590812683105468750e+01 2.092929458618164062e+01 -9.707610011100769043e-01 -2.172258347272872925e-01 -3.563960492610931396e-01 5.251740664243698120e-02
3.266000000000000000e+03 1.612927246093750000e+01 -1.586703681945800781e+01 -6.197932362556457520e-02 1.094823926687240601e-01 1.425092108547687531e-02 -1.539711952209472656e-01
3.267000000000000000e+03 1.222571182250976562e+01 -1.360559272766113281e+01 -9.198058396577835083e-02 4.199338704347610474e-02 -1.499615795910358429e-02 -1.384602040052413940e-01
3.268000000000000000e+03 1.172484683990478516e+01 -1.246944999694824219e+01 -9.252121299505233765e-02 3.464017435908317566e-02 -1.736431196331977844e-02 -1.266488879919052124e-01
3.269000000000000000e+03 9.517974853515625000e+00 -8.160182952880859375e+00 -6.540918350219726562e-02 1.665840670466423035e-02 -1.462523359805345535e-02 -5.292947962880134583e-02
3.270000000000000000e+03 2.815712928771972656e+01 -1.751206588745117188e+01 -1.917137354612350464e-01 7.088873386383056641e-01 1.551520824432373047e-01 -1.124940589070320129e-01
3.271000000000000000e+03 8.305612564086914062e+00 8.288351058959960938e+00 -4.633386433124542236e-01 1.631675720214843750e+00 3.505011200904846191e-01 7.025033235549926758e-02
3.272000000000000000e+03 6.789018154144287109e+00 7.148699283599853516e+00 -1.884223893284797668e-02 2.957629919052124023e+00 8.816363215446472168e-01 -1.077044010162353516e+00
3.273000000000000000e+03 9.195570945739746094e+00 8.882509231567382812e+00 -4.274715185165405273e-01 8.729329109191894531e-01 1.336384117603302002e-01 1.017421558499336243e-01
3.274000000000000000e+03 9.048135757446289062e+00 7.838202953338623047e+00 -2.268458157777786255e-01 1.127722382545471191e+00 2.702629566192626953e-01 3.397124111652374268e-01
3.275000000000000000e+03 5.477526664733886719e+00 6.098890304565429688e+00 2.041433095932006836e+00 1.353530049324035645e+00 1.018488883972167969e+00 -1.779494524002075195e+00
3.276000000000000000e+03 6.679650306701660156e+00 7.463136672973632812e+00 -1.439860612154006958e-01 2.706490516662597656e+00 7.687513232231140137e-01 -9.933692812919616699e-01
3.277000000000000000e+03 1.882239151000976562e+01 1.832020568847656250e+01 -1.156506299972534180e+00 -1.730937361717224121e-01 -3.988800048828125000e-01 -6.363583356142044067e-02
3.278000000000000000e+03 6.183702945709228516e+00 7.250226020812988281e+00 2.428702116012573242e-01 2.402345418930053711e+00 7.935646772384643555e-01 -1.380017280578613281e+00
3.279000000000000000e+03 9.660257339477539062e+00 1.010929775238037109e+01 -4.745241403579711914e-01 6.314597725868225098e-01 4.708069562911987305e-02 -2.118330076336860657e-02
3.280000000000000000e+03 1.527838134765625000e+01 1.606392288208007812e+01 -8.559814095497131348e-01 -1.000052019953727722e-01 -2.867959737777709961e-01 -2.250312566757202148e-01
3.281000000000000000e+03 1.302622413635253906e+01 1.366833209991455078e+01 -7.122899293899536133e-01 -8.487589075230062008e-04 -2.139416038990020752e-01 -2.442518472671508789e-01
3.282000000000000000e+03 1.699239349365234375e+01 1.575976371765136719e+01 -1.024412035942077637e+00 -1.950951367616653442e-01 -3.658521473407745361e-01 -3.614526987075805664e-01
3.283000000000000000e+03 1.057817840576171875e+01 1.095121383666992188e+01 -5.032773017883300781e-01 3.285912573337554932e-01 -5.240580812096595764e-02 -1.123007535934448242e-01
3.284000000000000000e+03 1.935015296936035156e+01 1.843905639648437500e+01 -1.212045431137084961e+00 -1.990077048540115356e-01 -4.233159422874450684e-01 -4.011236131191253662e-02
3.285000000000000000e+03 1.775741386413574219e+01 1.736492729187011719e+01 -1.087047100067138672e+00 -1.444640904664993286e-01 -3.694533705711364746e-01 -1.886607855558395386e-01
3.286000000000000000e+03 1.768611907958984375e+01 1.682188224792480469e+01 -1.107480883598327637e+00 -1.594358086585998535e-01 -3.800750076770782471e-01 -2.591213583946228027e-01
3.287000000000000000e+03 9.573022842407226562e+00 1.079870891571044922e+01 -5.526790618896484375e-01 6.529082655906677246e-01 3.006876073777675629e-02 -8.544228971004486084e-02
3.288000000000000000e+03 1.067012691497802734e+01 1.155334091186523438e+01 -5.549228787422180176e-01 3.376622498035430908e-01 -6.517820060253143311e-02 -1.350288540124893188e-01
3.289000000000000000e+03 4.729681968688964844e+00 6.495908260345458984e+00 1.467768192291259766e+00 6.588545441627502441e-01 6.379868388175964355e-01 -1.403014063835144043e+00
3.290000000000000000e+03 1.446152305603027344e+01 1.483833980560302734e+01 -8.071651458740234375e-01 -1.032883599400520325e-01 -2.731360495090484619e-01 -2.674198448657989502e-01
3.291000000000000000e+03 1.646576690673828125e+01 1.650750732421875000e+01 -9.541658163070678711e-01 -1.384929269552230835e-01 -3.277976214885711670e-01 -2.486021071672439575e-01
3.292000000000000000e+03 7.042195796966552734e+00 1.282900619506835938e+01 -6.391084194183349609e-01 9.055470228195190430e-01 7.993157953023910522e-02 -4.156129956245422363e-01
3.293000000000000000e+03 6.510261535644531250e+00 1.254016590118408203e+01 -6.084737181663513184e-01 9.381673932075500488e-01 9.890808910131454468e-02 -4.982300996780395508e-01
3.294000000000000000e+03 1.009840488433837891e+01 -7.293976306915283203e+00 -8.682743459939956665e-02 1.921271532773971558e-02 -2.028441429138183594e-02 -4.836852103471755981e-02
3.295000000000000000e+03 1.192291164398193359e+01 1.238194942474365234e+01 -6.092469692230224609e-01 1.019560098648071289e-01 -1.521872878074645996e-01 -2.129404991865158081e-01
3.296000000000000000e+03 1.085160446166992188e+01 1.253853225708007812e+01 -6.232492327690124512e-01 3.232092857360839844e-01 -9.001197665929794312e-02 -1.656277775764465332e-01
3.297000000000000000e+03 1.910343933105468750e+01 1.912263488769531250e+01 -1.076206803321838379e+00 -2.013144195079803467e-01 -3.832563757896423340e-01 3.872362524271011353e-02
3.298000000000000000e+03 2.130381011962890625e+01 2.151091003417968750e+01 -7.596973180770874023e-01 -3.816595077514648438e-01 -3.424070477485656738e-01 1.910748481750488281e-01
3.299000000000000000e+03 2.113347434997558594e+01 1.943392372131347656e+01 -1.199632167816162109e+00 -3.709017932415008545e-01 -4.711601734161376953e-01 1.299738883972167969e-01
3.300000000000000000e+03 1.040273094177246094e+01 2.180053520202636719e+01 -3.338824212551116943e-01 2.864784598350524902e-01 -1.422119047492742538e-02 1.139804124832153320e-01
3.301000000000000000e+03 7.038199901580810547e+00 1.621653747558593750e+01 -4.541504383087158203e-01 6.306629180908203125e-01 5.295373499393463135e-02 -2.473360598087310791e-01
3.302000000000000000e+03 8.379776000976562500e+00 1.351577377319335938e+01 -6.486510634422302246e-01 7.216681838035583496e-01 2.190513536334037781e-02 -2.574630677700042725e-01
3.303000000000000000e+03 7.653246402740478516e+00 1.472350215911865234e+01 -5.693216919898986816e-01 6.875635981559753418e-01 3.547257557511329651e-02 -2.896892428398132324e-01
3.304000000000000000e+03 2.340315246582031250e+01 2.124815940856933594e+01 -8.445770144462585449e-01 -4.451462030410766602e-01 -3.869169652462005615e-01 1.109001636505126953e-01
3.305000000000000000e+03 6.029731750488281250e+00 1.056945228576660156e+01 -6.124715209007263184e-01 1.264624357223510742e+00 1.956458687782287598e-01 -7.171941399574279785e-01
3.306000000000000000e+03 6.620511054992675781e+00 1.124312496185302734e+01 -6.520920991897583008e-01 1.158445239067077637e+00 1.519059538841247559e-01 -5.470695495605468750e-01
3.307000000000000000e+03 2.459220504760742188e+01 2.101975822448730469e+01 -9.166210889816284180e-01 -3.839834332466125488e-01 -3.901813626289367676e-01 5.592404305934906006e-02
3.308000000000000000e+03 2.402980422973632812e+01 2.177341842651367188e+01 -7.683389186859130859e-01 -4.058867096900939941e-01 -3.522676825523376465e-01 1.004116609692573547e-01
3.309000000000000000e+03 6.036354541778564453e+00 7.483966350555419922e+00 1.475989669561386108e-01 2.218967676162719727e+00 7.099699974060058594e-01 -1.355515837669372559e+00
3.310000000000000000e+03 1.109629058837890625e+01 -7.736382007598876953e+00 -8.551063388586044312e-02 3.265745565295219421e-02 -1.585595309734344482e-02 -4.476049914956092834e-02
3.311000000000000000e+03 5.172675609588623047e+00 1.627324676513671875e+01 -3.286034464836120605e-01 6.558718681335449219e-01 9.818053245544433594e-02 -3.053964376449584961e-01
3.312000000000000000e+03 5.500764369964599609e+00 1.515103626251220703e+01 -4.133121371269226074e-01 6.898666620254516602e-01 8.296635746955871582e-02 -3.877922594547271729e-01
3.313000000000000000e+03 9.224987983703613281e+00 1.974130249023437500e+01 -3.986934423446655273e-01 3.952769041061401367e-01 -1.024959143251180649e-03 1.197373567265458405e-04
3.314000000000000000e+03 7.773981571197509766e+00 1.761494064331054688e+01 -4.218473434448242188e-01 5.404788851737976074e-01 3.558944910764694214e-02 -1.388034075498580933e-01
3.315000000000000000e+03 5.333199024200439453e+00 9.044911384582519531e+00 -3.112218379974365234e-01 1.354795336723327637e+00 3.130720555782318115e-01 -1.092512249946594238e+00
3.316000000000000000e+03 9.960822105407714844e+00 1.841301155090332031e+01 -4.924539923667907715e-01 3.731694221496582031e-01 -3.578537330031394958e-02 -3.745369240641593933e-02
3.317000000000000000e+03 1.005312252044677734e+01 2.004998970031738281e+01 -4.201345443725585938e-01 3.306993842124938965e-01 -2.683054655790328979e-02 4.129041358828544617e-02
3.318000000000000000e+03 2.819360160827636719e+01 1.730694580078125000e+01 -1.350483179092407227e+00 1.889873147010803223e-01 -3.484487831592559814e-01 4.725219309329986572e-01
3.319000000000000000e+03 1.146889209747314453e+01 -9.198287010192871094e+00 -9.085109829902648926e-02 3.702130541205406189e-02 -1.614893786609172821e-02 -6.937477737665176392e-02
3.320000000000000000e+03 1.529032039642333984e+01 -1.625780296325683594e+01 -7.863059639930725098e-02 9.732630848884582520e-02 5.608713719993829727e-03 -1.664775609970092773e-01
3.321000000000000000e+03 1.321835803985595703e+01 -1.568590259552001953e+01 -6.298764795064926147e-02 5.815552175045013428e-02 -1.449638977646827698e-03 -1.572022587060928345e-01
3.322000000000000000e+03 2.706366157531738281e+01 2.250956535339355469e+01 -6.612222790718078613e-01 -1.712934076786041260e-01 -2.497547119855880737e-01 1.061706244945526123e-01
3.323000000000000000e+03 1.746253776550292969e+01 -1.877207946777343750e+01 -4.205119237303733826e-02 1.681260913610458374e-01 3.782247006893157959e-02 -1.544340848922729492e-01
3.324000000000000000e+03 1.544935226440429688e+01 -1.756273078918457031e+01 -3.680250048637390137e-02 1.141081899404525757e-01 2.319170720875263214e-02 -1.645919084548950195e-01
3.325000000000000000e+03 1.266168975830078125e+01 2.261036300659179688e+01 -3.645341694355010986e-01 1.321887522935867310e-01 -6.970362365245819092e-02 1.705658584833145142e-01
3.326000000000000000e+03 6.229544639587402344e+00 9.502661705017089844e+00 -5.709974169731140137e-01 1.562516450881958008e+00 2.974556982517242432e-01 -7.760279178619384766e-01
3.327000000000000000e+03 8.069866180419921875e+00 8.825599670410156250e+00 -4.777367115020751953e-01 1.587632775306701660e+00 3.329688012599945068e-01 -1.102536320686340332e-01
3.328000000000000000e+03 5.822309017181396484e+00 6.884858608245849609e+00 7.913330793380737305e-01 2.162805318832397461e+00 8.862414956092834473e-01 -1.703855752944946289e+00
3.329000000000000000e+03 6.263929367065429688e+00 7.013001918792724609e+00 4.195031523704528809e-01 2.612246513366699219e+00 9.095249176025390625e-01 -1.516204118728637695e+00
3.330000000000000000e+03 7.671410560607910156e+00 8.542857170104980469e+00 -5.677654743194580078e-01 1.871152758598327637e+00 3.910161852836608887e-01 -2.128314524888992310e-01
3.331000000000000000e+03 7.180656433105468750e+00 7.872817516326904297e+00 -4.257868826389312744e-01 2.453686237335205078e+00 6.083698272705078125e-01 -5.490159392356872559e-01
3.332000000000000000e+03 9.002274513244628906e+00 8.401914596557617188e+00 -3.387732505798339844e-01 9.800553321838378906e-01 1.923846304416656494e-01 1.468515992164611816e-01
3.333000000000000000e+03 8.926927566528320312e+00 9.271733283996582031e+00 -4.324379265308380127e-01 1.020458340644836426e+00 1.764061152935028076e-01 3.189168870449066162e-02
3.334000000000000000e+03 7.411884784698486328e+00 8.178349494934082031e+00 -4.507802128791809082e-01 2.229961872100830078e+00 5.337544679641723633e-01 -3.786357343196868896e-01
3.335000000000000000e+03 5.992855072021484375e+00 7.742987632751464844e+00 7.493066601455211639e-03 2.088434219360351562e+00 6.287782192230224609e-01 -1.255831718444824219e+00
3.336000000000000000e+03 6.247661113739013672e+00 7.599463939666748047e+00 -3.553986549377441406e-02 2.334637403488159180e+00 6.897292733192443848e-01 -1.185241699218750000e+00
3.337000000000000000e+03 5.158226490020751953e+00 7.709973812103271484e+00 3.150862157344818115e-01 1.431026577949523926e+00 5.238338112831115723e-01 -1.402076721191406250e+00
3.338000000000000000e+03 7.230935096740722656e+00 1.062447357177734375e+01 -6.639153361320495605e-01 1.268733859062194824e+00 1.814455538988113403e-01 -4.390342533588409424e-01
3.339000000000000000e+03 8.970477104187011719e+00 1.018619060516357422e+01 -5.568064451217651367e-01 8.842515349388122559e-01 9.823351353406906128e-02 -7.083380222320556641e-02
3.340000000000000000e+03 5.856525897979736328e+00 8.652707099914550781e+00 -3.678151965141296387e-01 1.706575155258178711e+00 4.016280174255371094e-01 -1.064017057418823242e+00
3.341000000000000000e+03 5.322827339172363281e+00 6.936071395874023438e+00 9.534772634506225586e-01 1.504983544349670410e+00 7.375382184982299805e-01 -1.650964498519897461e+00
3.342000000000000000e+03 1.180086708068847656e+01 1.433495903015136719e+01 -6.666172146797180176e-01 2.082936763763427734e-01 -1.374970525503158569e-01 -1.727760434150695801e-01
3.343000000000000000e+03 1.586742305755615234e+01 1.598716163635253906e+01 -9.006288647651672363e-01 -1.429438441991806030e-01 -3.130718171596527100e-01 -2.690600454807281494e-01
3.344000000000000000e+03 1.142904090881347656e+01 1.237925148010253906e+01 -5.935041904449462891e-01 2.039530575275421143e-01 -1.168653368949890137e-01 -1.943657547235488892e-01
3.345000000000000000e+03 1.651741790771484375e+01 1.712622833251953125e+01 -9.518867135047912598e-01 -1.156174764037132263e-01 -3.202512562274932861e-01 -1.796319782733917236e-01
3.346000000000000000e+03 6.712843418121337891e+00 1.003464126586914062e+01 -6.466081142425537109e-01 1.456169366836547852e+00 2.428683787584304810e-01 -5.845472216606140137e-01
3.347000000000000000e+03 4.930360794067382812e+00 9.588384628295898438e+00 -3.780212998390197754e-01 1.083033919334411621e+00 2.115037739276885986e-01 -1.052996993064880371e+00
3.348000000000000000e+03 1.533356475830078125e+01 1.544956493377685547e+01 -8.592520952224731445e-01 -1.476914137601852417e-01 -3.020830452442169189e-01 -2.811745703220367432e-01
3.349000000000000000e+03 1.429204082489013672e+01 1.540814208984375000e+01 -7.884724736213684082e-01 -5.955940857529640198e-02 -2.544095814228057861e-01 -2.188955396413803101e-01
3.350000000000000000e+03 1.968807792663574219e+01 1.940952873229980469e+01 -1.081731677055358887e+00 -2.487773597240447998e-01 -3.991526961326599121e-01 8.426843583583831787e-02
3.351000000000000000e+03 2.194337272644042969e+01 2.018701744079589844e+01 -1.055360078811645508e+00 -4.459138810634613037e-01 -4.503822028636932373e-01 1.644335836172103882e-01
3.352000000000000000e+03 5.103150367736816406e+00 8.175354957580566406e+00 -3.330576466396450996e-03 1.356872081756591797e+00 4.060624539852142334e-01 -1.299496531486511230e+00
3.353000000000000000e+03 9.632933616638183594e+00 1.905405426025390625e+01 -4.426768720149993896e-01 3.845433294773101807e-01 -1.744006387889385223e-02 -1.461176667362451553e-02
3.354000000000000000e+03 8.734338760375976562e+00 9.670143127441406250e+00 -5.666758418083190918e-01 1.056939840316772461e+00 1.470791995525360107e-01 -5.577033385634422302e-02
3.355000000000000000e+03 1.784659385681152344e+01 1.786128807067871094e+01 -1.068530082702636719e+00 -1.414180845022201538e-01 -3.629844486713409424e-01 -1.255977004766464233e-01
3.356000000000000000e+03 7.574403285980224609e+00 1.246616554260253906e+01 -6.620157361030578613e-01 9.119982123374938965e-01 7.499474287033081055e-02 -3.506861627101898193e-01
3.357000000000000000e+03 1.860411834716796875e+01 1.886480331420898438e+01 -1.057099819183349609e+00 -1.725454032421112061e-01 -3.688935637474060059e-01 -2.856082748621702194e-03
3.358000000000000000e+03 8.323075294494628906e+00 1.592523384094238281e+01 -5.437955856323242188e-01 5.729621648788452148e-01 8.749975822865962982e-03 -1.952681094408035278e-01
3.359000000000000000e+03 8.338195800781250000e+00 1.533805942535400391e+01 -5.750327110290527344e-01 5.945607423782348633e-01 5.858405027538537979e-03 -2.136369347572326660e-01
3.360000000000000000e+03 7.318724632263183594e+00 1.185443592071533203e+01 -6.601365208625793457e-01 1.020534634590148926e+00 1.081194281578063965e-01 -4.085623919963836670e-01
3.361000000000000000e+03 1.099701213836669922e+01 2.279254913330078125e+01 -3.051899969577789307e-01 2.278600484132766724e-01 -2.319898456335067749e-02 1.522825509309768677e-01
3.362000000000000000e+03 2.726527404785156250e+01 2.012762641906738281e+01 -1.111095786094665527e+00 -5.286973714828491211e-02 -3.491896688938140869e-01 1.285625249147415161e-01
3.363000000000000000e+03 9.267184257507324219e+00 1.664262199401855469e+01 -5.509043335914611816e-01 4.623531997203826904e-01 -2.656533569097518921e-02 -1.204035878181457520e-01
3.364000000000000000e+03 8.544936180114746094e+00 1.729156112670898438e+01 -4.888477325439453125e-01 5.028666853904724121e-01 4.205685574561357498e-03 -1.259120553731918335e-01
3.365000000000000000e+03 8.026613235473632812e+00 1.645877838134765625e+01 -4.946619570255279541e-01 5.635578632354736328e-01 2.066876552999019623e-02 -1.843448430299758911e-01
3.366000000000000000e+03 1.684384918212890625e+01 2.550734519958496094e+01 -2.245436310768127441e-01 -1.268960833549499512e-01 -1.054319143295288086e-01 2.584964334964752197e-01
3.367000000000000000e+03 2.453804016113281250e+01 2.248427772521972656e+01 -6.313225030899047852e-01 -3.477555811405181885e-01 -2.937234044075012207e-01 9.614069759845733643e-02
3.368000000000000000e+03 1.742582511901855469e+01 -2.007864379882812500e+01 7.050725165754556656e-03 1.858760863542556763e-01 5.787804350256919861e-02 -1.542315781116485596e-01
3.369000000000000000e+03 1.944512367248535156e+01 -1.865993118286132812e+01 -5.617313459515571594e-02 2.471007555723190308e-01 5.727828666567802429e-02 -1.296984702348709106e-01
3.370000000000000000e+03 1.418981647491455078e+01 2.247026634216308594e+01 -4.254592359066009521e-01 3.860100731253623962e-02 -1.160574704408645630e-01 1.832575947046279907e-01
3.371000000000000000e+03 6.685433864593505859e+00 8.952270507812500000e+00 -5.423132181167602539e-01 1.817231297492980957e+00 3.824754357337951660e-01 -7.181001305580139160e-01
3.372000000000000000e+03 7.233398914337158203e+00 8.848289489746093750e+00 -5.634868741035461426e-01 1.883284211158752441e+00 3.959391713142395020e-01 -4.156234264373779297e-01
3.373000000000000000e+03 9.066257476806640625e+00 8.100365638732910156e+00 -2.049200981855392456e-01 1.030519247055053711e+00 2.476797401905059814e-01 1.993040889501571655e-01
3.374000000000000000e+03 6.899900913238525391e+00 8.172349929809570312e+00 -3.730176687240600586e-01 2.279302120208740234e+00 5.718852877616882324e-01 -7.105043530464172363e-01
3.375000000000000000e+03 1.355141353607177734e+01 1.448021602630615234e+01 -7.416585087776184082e-01 -1.993427611887454987e-02 -2.284778356552124023e-01 -2.335432171821594238e-01
3.376000000000000000e+03 1.296515941619873047e+01 1.435298633575439453e+01 -7.116297483444213867e-01 4.428600892424583435e-02 -2.002031207084655762e-01 -2.080554515123367310e-01
3.377000000000000000e+03 7.086741447448730469e+00 8.437323570251464844e+00 -5.316319465637207031e-01 2.090716838836669922e+00 4.677254855632781982e-01 -5.274081826210021973e-01
3.378000000000000000e+03 1.081822395324707031e+01 1.375461196899414062e+01 -6.486808657646179199e-01 3.559796214103698730e-01 -8.781036734580993652e-02 -1.632776260375976562e-01
3.379000000000000000e+03 1.179809570312500000e+01 1.322713756561279297e+01 -6.363989710807800293e-01 1.801745444536209106e-01 -1.368673145771026611e-01 -1.964832544326782227e-01
3.380000000000000000e+03 6.432367801666259766e+00 7.779489040374755859e+00 -1.734406203031539917e-01 2.346428871154785156e+00 6.518964767456054688e-01 -1.041831851005554199e+00
3.381000000000000000e+03 9.270387649536132812e+00 1.046539783477783203e+01 -5.604977011680603027e-01 7.889869809150695801e-01 6.854677200317382812e-02 -7.500986009836196899e-02
3.382000000000000000e+03 1.029141044616699219e+01 1.134733104705810547e+01 -5.597766041755676270e-01 4.288062453269958496e-01 -3.929110616445541382e-02 -1.274874061346054077e-01
3.383000000000000000e+03 1.044366168975830078e+01 1.198056411743164062e+01 -5.968092679977416992e-01 3.969401419162750244e-01 -5.996073409914970398e-02 -1.541741639375686646e-01
3.384000000000000000e+03 9.603008270263671875e+00 1.149851131439208984e+01 -6.024747490882873535e-01 6.216321587562561035e-01 5.747216753661632538e-03 -1.353672295808792114e-01
3.385000000000000000e+03 8.815037727355957031e+00 8.686500549316406250e+00 -3.359079957008361816e-01 1.213153481483459473e+00 2.631736397743225098e-01 1.391025632619857788e-01
3.386000000000000000e+03 1.097886371612548828e+01 1.301827621459960938e+01 -6.234223842620849609e-01 3.213193416595458984e-01 -9.063090384006500244e-02 -1.684353649616241455e-01
3.387000000000000000e+03 9.109854698181152344e+00 9.813549995422363281e+00 -4.964548647403717041e-01 9.054980874061584473e-01 1.227129697799682617e-01 -1.056671794503927231e-02
3.388000000000000000e+03 8.861499786376953125e+00 1.082106208801269531e+01 -6.041688919067382812e-01 8.906795382499694824e-01 8.595319837331771851e-02 -1.436200737953186035e-01
3.389000000000000000e+03 1.402511882781982422e+01 1.472097206115722656e+01 -7.759495973587036133e-01 -7.137998938560485840e-02 -2.541988790035247803e-01 -2.448253035545349121e-01
3.390000000000000000e+03 1.836295127868652344e+01 1.823336219787597656e+01 -1.105047821998596191e+00 -1.572212725877761841e-01 -3.786807358264923096e-01 -8.318708837032318115e-02
3.391000000000000000e+03 5.782578945159912109e+00 9.376742362976074219e+00 -4.965880215167999268e-01 1.478554844856262207e+00 2.945900261402130127e-01 -9.413093328475952148e-01
3.392000000000000000e+03 9.386781692504882812e+00 1.560744571685791016e+01 -5.877238512039184570e-01 4.938047230243682861e-01 -2.817573770880699158e-02 -1.575785279273986816e-01
3.393000000000000000e+03 8.945939064025878906e+00 1.614868354797363281e+01 -5.597227811813354492e-01 5.169719457626342773e-01 -1.282524038106203079e-02 -1.665740758180618286e-01
3.394000000000000000e+03 5.638328552246093750e+00 8.207329750061035156e+00 -1.171067580580711365e-01 1.697940826416015625e+00 4.742501974105834961e-01 -1.211921930313110352e+00
3.395000000000000000e+03 8.946619987487792969e+00 1.230360412597656250e+01 -6.483144760131835938e-01 7.396349310874938965e-01 2.739614248275756836e-02 -2.122537046670913696e-01
3.396000000000000000e+03 6.656556129455566406e+00 1.062518501281738281e+01 -6.683312058448791504e-01 1.289859294891357422e+00 1.864584386348724365e-01 -5.588479042053222656e-01
3.397000000000000000e+03 5.544549465179443359e+00 9.861965179443359375e+00 -5.057683587074279785e-01 1.310968399047851562e+00 2.415600121021270752e-01 -9.169278144836425781e-01
3.398000000000000000e+03 7.922400951385498047e+00 1.168352794647216797e+01 -6.829361319541931152e-01 9.816043972969055176e-01 8.960047364234924316e-02 -2.973876893520355225e-01
3.399000000000000000e+03 7.245611190795898438e+00 1.122751998901367188e+01 -6.868900656700134277e-01 1.138405323028564453e+00 1.354545503854751587e-01 -4.175125360488891602e-01
3.400000000000000000e+03 1.469081401824951172e+01 1.608078384399414062e+01 -8.054581880569458008e-01 -5.845420435070991516e-02 -2.591737210750579834e-01 -1.942122727632522583e-01
3.401000000000000000e+03 6.329227447509765625e+00 8.330231666564941406e+00 -3.190228044986724854e-01 2.026418924331665039e+00 5.122188329696655273e-01 -9.399603605270385742e-01
3.402000000000000000e+03 6.099762439727783203e+00 8.030829429626464844e+00 -2.019076943397521973e-01 2.054733991622924805e+00 5.558478832244873047e-01 -1.116795539855957031e+00
3.403000000000000000e+03 1.733804702758789062e+01 1.803889846801757812e+01 -9.900721311569213867e-01 -1.206495314836502075e-01 -3.332164883613586426e-01 -1.022563725709915161e-01
3.404000000000000000e+03 8.501501083374023438e+00 1.266722869873046875e+01 -6.598997116088867188e-01 7.831976413726806641e-01 3.698938712477684021e-02 -2.497933954000473022e-01
3.405000000000000000e+03 8.601874351501464844e+00 1.194084262847900391e+01 -6.655761599540710449e-01 8.383696079254150391e-01 5.183804035186767578e-02 -2.234017550945281982e-01
3.406000000000000000e+03 1.120349788665771484e+01 2.201871490478515625e+01 -3.470429182052612305e-01 2.209712415933609009e-01 -3.782150521874427795e-02 1.345268934965133667e-01
3.407000000000000000e+03 2.061994743347167969e+01 2.372942161560058594e+01 -4.275383353233337402e-01 -3.196207284927368164e-01 -2.241477221250534058e-01 2.243461608886718750e-01
3.408000000000000000e+03 2.113313293457031250e+01 2.269119262695312500e+01 -5.636345148086547852e-01 -3.567653894424438477e-01 -2.761199474334716797e-01 2.098314166069030762e-01
3.409000000000000000e+03 1.079323482513427734e+01 1.805866050720214844e+01 -5.396764874458312988e-01 3.186141848564147949e-01 -6.631869822740554810e-02 -4.137058556079864502e-02
3.410000000000000000e+03 1.119568634033203125e+01 1.837973785400390625e+01 -5.436756610870361328e-01 2.767181992530822754e-01 -8.008724451065063477e-02 -1.777363009750843048e-02
3.411000000000000000e+03 2.044123268127441406e+01 2.154950332641601562e+01 -7.201511263847351074e-01 -3.293615281581878662e-01 -3.148537874221801758e-01 2.069236487150192261e-01
3.412000000000000000e+03 1.867389106750488281e+01 1.974139404296875000e+01 -9.502362012863159180e-01 -1.913802623748779297e-01 -3.424849510192871094e-01 8.653356134891510010e-02
3.413000000000000000e+03 1.917961883544921875e+01 2.017999649047851562e+01 -9.253040552139282227e-01 -2.328510284423828125e-01 -3.474465310573577881e-01 1.370290070772171021e-01
3.414000000000000000e+03 8.835911750793457031e+00 1.776735687255859375e+01 -4.713571965694427490e-01 4.656136035919189453e-01 -1.723080873489379883e-03 -9.611187875270843506e-02
3.415000000000000000e+03 1.884593772888183594e+01 2.525276565551757812e+01 -2.544296085834503174e-01 -2.275879085063934326e-01 -1.446052491664886475e-01 2.480852752923965454e-01
3.416000000000000000e+03 1.672740173339843750e+01 2.111250686645507812e+01 -6.526147723197937012e-01 -1.000292152166366577e-01 -2.257931977510452271e-01 1.556049138307571411e-01
3.417000000000000000e+03 7.765718460083007812e+00 1.002062702178955078e+01 -6.276051402091979980e-01 1.340667724609375000e+00 2.139187753200531006e-01 -2.998132109642028809e-01
3.418000000000000000e+03 6.695304870605468750e+00 8.508339881896972656e+00 -4.873058199882507324e-01 2.043179750442504883e+00 4.667621850967407227e-01 -7.419334053993225098e-01
3.419000000000000000e+03 6.743158340454101562e+00 9.472087860107421875e+00 -6.172031760215759277e-01 1.629409790039062500e+00 3.036619722843170166e-01 -6.143236756324768066e-01
3.420000000000000000e+03 6.157457828521728516e+00 9.065562248229980469e+00 -4.782445728778839111e-01 1.684158205986022949e+00 3.617740869522094727e-01 -8.559423089027404785e-01
3.421000000000000000e+03 1.257748031616210938e+01 1.562783336639404297e+01 -6.930897831916809082e-01 1.384567916393280029e-01 -1.663898825645446777e-01 -1.397826373577117920e-01
3.422000000000000000e+03 9.298418998718261719e+00 1.190928745269775391e+01 -6.343511939048767090e-01 6.970428228378295898e-01 1.880748756229877472e-02 -1.597560495138168335e-01
3.423000000000000000e+03 9.192003250122070312e+00 1.119046497344970703e+01 -6.141204237937927246e-01 7.737042903900146484e-01 4.787515103816986084e-02 -1.339873671531677246e-01
3.424000000000000000e+03 7.813657283782958984e+00 1.114696693420410156e+01 -6.588056087493896484e-01 1.085070967674255371e+00 1.278795897960662842e-01 -3.243518769741058350e-01
3.425000000000000000e+03 7.758036613464355469e+00 1.059455013275146484e+01 -6.883005499839782715e-01 1.201088190078735352e+00 1.538362950086593628e-01 -3.074586093425750732e-01
3.426000000000000000e+03 7.303338050842285156e+00 9.403446197509765625e+00 -6.260089278221130371e-01 1.637076854705810547e+00 3.033203780651092529e-01 -4.146393239498138428e-01
3.427000000000000000e+03 1.522066307067871094e+01 1.672756195068359375e+01 -8.316410779953002930e-01 -6.632489711046218872e-02 -2.693898081779479980e-01 -1.690329611301422119e-01
3.428000000000000000e+03 1.585713005065917969e+01 1.663370513916015625e+01 -8.978554606437683105e-01 -1.038499474525451660e-01 -3.005116283893585205e-01 -2.040527611970901489e-01
3.429000000000000000e+03 1.025043582916259766e+01 1.247537517547607422e+01 -6.198508739471435547e-01 4.627953469753265381e-01 -4.711665958166122437e-02 -1.586154103279113770e-01
3.430000000000000000e+03 1.796043968200683594e+01 1.829766654968261719e+01 -1.042080044746398926e+00 -1.400155574083328247e-01 -3.546286523342132568e-01 -7.742287218570709229e-02
3.431000000000000000e+03 1.662105751037597656e+01 1.772098541259765625e+01 -9.314695000648498535e-01 -1.006195023655891418e-01 -3.096266984939575195e-01 -1.224645227193832397e-01
3.432000000000000000e+03 1.002466106414794922e+01 1.432169437408447266e+01 -6.422343254089355469e-01 4.591328203678131104e-01 -5.493045970797538757e-02 -1.631672531366348267e-01
3.433000000000000000e+03 8.675810813903808594e+00 1.405674552917480469e+01 -6.183769702911376953e-01 6.517299413681030273e-01 1.000589318573474884e-02 -2.372841238975524902e-01
3.434000000000000000e+03 1.412157058715820312e+01 1.602682304382324219e+01 -7.712671756744384766e-01 -8.487469516694545746e-03 -2.339264005422592163e-01 -1.702959984540939331e-01
3.435000000000000000e+03 1.480445957183837891e+01 1.546551418304443359e+01 -8.240589499473571777e-01 -9.586542099714279175e-02 -2.759773135185241699e-01 -2.423598319292068481e-01
3.436000000000000000e+03 1.783569335937500000e+01 1.895689773559570312e+01 -9.673191308975219727e-01 -1.370129436254501343e-01 -3.312996029853820801e-01 -4.353533964604139328e-03
3.437000000000000000e+03 1.810504341125488281e+01 2.026229476928710938e+01 -8.371487259864807129e-01 -1.719426214694976807e-01 -3.027274012565612793e-01 1.258404999971389771e-01
3.438000000000000000e+03 9.916139602661132812e+00 1.298630619049072266e+01 -6.358713507652282715e-01 5.189654827117919922e-01 -3.507175669074058533e-02 -1.763255745172500610e-01
3.439000000000000000e+03 9.384131431579589844e+00 1.265743637084960938e+01 -6.448920965194702148e-01 6.340724229812622070e-01 -3.245902713388204575e-03 -1.786635816097259521e-01
3.440000000000000000e+03 1.330007648468017578e+01 1.513790702819824219e+01 -7.324514985084533691e-01 4.348131641745567322e-02 -2.066910564899444580e-01 -1.835114508867263794e-01
3.441000000000000000e+03 8.361827850341796875e+00 1.103828716278076172e+01 -6.726517677307128906e-01 9.953369498252868652e-01 9.680555015802383423e-02 -2.170146405696868896e-01
3.442000000000000000e+03 1.028883457183837891e+01 1.781655120849609375e+01 -5.346224904060363770e-01 3.555576503276824951e-01 -5.371944606304168701e-02 -5.277052149176597595e-02
3.443000000000000000e+03 1.167559528350830078e+01 1.490532779693603516e+01 -6.725067496299743652e-01 2.339296489953994751e-01 -1.315731257200241089e-01 -1.505706757307052612e-01
3.444000000000000000e+03 1.457387733459472656e+01 1.675560379028320312e+01 -7.872081995010375977e-01 -1.788282580673694611e-02 -2.415273040533065796e-01 -1.401366889476776123e-01
3.445000000000000000e+03 1.185478878021240234e+01 1.377671051025390625e+01 -6.756429076194763184e-01 1.828127056360244751e-01 -1.478490680456161499e-01 -1.818460971117019653e-01
3.446000000000000000e+03 1.237087059020996094e+01 1.433925819396972656e+01 -6.962631940841674805e-01 1.293549388647079468e-01 -1.700724810361862183e-01 -1.854056864976882935e-01
3.447000000000000000e+03 1.972163772583007812e+01 2.161562347412109375e+01 -7.174536585807800293e-01 -2.935732305049896240e-01 -3.033080697059631348e-01 2.008077055215835571e-01
3.448000000000000000e+03 9.417145729064941406e+00 1.447747802734375000e+01 -6.184928417205810547e-01 5.495606064796447754e-01 -2.067966945469379425e-02 -1.890396028757095337e-01
3.449000000000000000e+03 1.883757209777832031e+01 2.132074165344238281e+01 -7.219937443733215332e-01 -2.214086055755615234e-01 -2.830207049846649170e-01 1.771081387996673584e-01
3.450000000000000000e+03 8.448558807373046875e+00 1.152491188049316406e+01 -6.444264650344848633e-01 9.195824265480041504e-01 8.254678547382354736e-02 -2.324664592742919922e-01
3.451000000000000000e+03 1.204032325744628906e+01 2.181317520141601562e+01 -3.944475948810577393e-01 1.756385117769241333e-01 -6.564272940158843994e-02 1.399019062519073486e-01
3.452000000000000000e+03 1.114664268493652344e+01 1.754601097106933594e+01 -5.776333212852478027e-01 2.960609495639801025e-01 -8.447170257568359375e-02 -4.999138787388801575e-02
3.453000000000000000e+03 1.173445796966552734e+01 1.868074035644531250e+01 -5.580833554267883301e-01 2.384120821952819824e-01 -9.590138494968414307e-02 -1.254681032150983810e-03
3.454000000000000000e+03 1.275913715362548828e+01 1.805878639221191406e+01 -6.339149475097656250e-01 1.578523665666580200e-01 -1.428187787532806396e-01 -2.914770506322383881e-02
3.455000000000000000e+03 2.054773712158203125e+01 2.519281578063964844e+01 -2.488857358694076538e-01 -2.925220429897308350e-01 -1.624223291873931885e-01 2.210998982191085815e-01
3.456000000000000000e+03 1.714473342895507812e+01 2.328261566162109375e+01 -4.351506829261779785e-01 -1.398660093545913696e-01 -1.725050061941146851e-01 2.249278426170349121e-01
3.457000000000000000e+03 1.780595779418945312e+01 2.129274368286132812e+01 -6.896101236343383789e-01 -1.699558049440383911e-01 -2.578697800636291504e-01 1.685416102409362793e-01
3.458000000000000000e+03 8.662239074707031250e+00 1.043799304962158203e+01 -6.309997439384460449e-01 1.011488437652587891e+00 1.141466200351715088e-01 -1.292824000120162964e-01
3.459000000000000000e+03 8.528960227966308594e+00 9.046543121337890625e+00 -5.432440638542175293e-01 1.264643549919128418e+00 2.164198458194732666e-01 -1.036985870450735092e-02
3.460000000000000000e+03 8.897697448730468750e+00 1.160250949859619141e+01 -6.443195939064025879e-01 8.007980585098266602e-01 4.694353789091110229e-02 -1.864891201257705688e-01
3.461000000000000000e+03 9.734483718872070312e+00 1.221176624298095703e+01 -6.261261701583862305e-01 5.751293301582336426e-01 -1.529905200004577637e-02 -1.622543483972549438e-01
3.462000000000000000e+03 7.845275878906250000e+00 9.413903236389160156e+00 -6.417827010154724121e-01 1.501693248748779297e+00 2.579731643199920654e-01 -2.167677283287048340e-01
3.463000000000000000e+03 7.259960651397705078e+00 1.002241134643554688e+01 -6.742846965789794922e-01 1.411969780921936035e+00 2.213055193424224854e-01 -4.130571484565734863e-01
3.464000000000000000e+03 1.358294010162353516e+01 1.591474533081054688e+01 -7.432329058647155762e-01 4.028441756963729858e-02 -2.108845412731170654e-01 -1.542302221059799194e-01
3.465000000000000000e+03 9.866502761840820312e+00 1.379833889007568359e+01 -6.370733380317687988e-01 5.062081217765808105e-01 -3.925957158207893372e-02 -1.725532561540603638e-01
3.466000000000000000e+03 1.039576625823974609e+01 1.339284420013427734e+01 -6.425029039382934570e-01 4.145819544792175293e-01 -6.837629526853561401e-02 -1.672855019569396973e-01
3.467000000000000000e+03 8.224023818969726562e+00 1.004122161865234375e+01 -6.525328159332275391e-01 1.221536278724670410e+00 1.707010418176651001e-01 -1.730804294347763062e-01
3.468000000000000000e+03 1.636362648010253906e+01 1.994947814941406250e+01 -7.554549574851989746e-01 -6.963791698217391968e-02 -2.475278675556182861e-01 8.481662720441818237e-02
3.469000000000000000e+03 1.588030624389648438e+01 1.729876708984375000e+01 -8.707650303840637207e-01 -7.991062104701995850e-02 -2.852027118206024170e-01 -1.445056200027465820e-01
3.470000000000000000e+03 1.437629508972167969e+01 1.832486724853515625e+01 -7.188298106193542480e-01 3.382929787039756775e-02 -2.055001556873321533e-01 -2.514130063354969025e-02
3.471000000000000000e+03 1.072075843811035156e+01 1.596475601196289062e+01 -6.180176138877868652e-01 3.452727198600769043e-01 -8.182346820831298828e-02 -1.140199676156044006e-01
3.472000000000000000e+03 1.006408119201660156e+01 1.582243347167968750e+01 -6.055443286895751953e-01 4.262541234493255615e-01 -5.378705635666847229e-02 -1.363483667373657227e-01
3.473000000000000000e+03 1.223015880584716797e+01 1.495126152038574219e+01 -6.838818788528442383e-01 1.633978188037872314e-01 -1.561452299356460571e-01 -1.595504581928253174e-01
3.474000000000000000e+03 1.275332736968994141e+01 2.031813812255859375e+01 -5.154218077659606934e-01 1.450304388999938965e-01 -1.111174076795578003e-01 8.353053033351898193e-02
3.475000000000000000e+03 1.155997562408447266e+01 1.702426147460937500e+01 -6.213029623031616211e-01 2.578386068344116211e-01 -1.090392991900444031e-01 -7.887417823076248169e-02
3.476000000000000000e+03 1.597553253173828125e+01 1.796066284179687500e+01 -8.649321794509887695e-01 -7.007594406604766846e-02 -2.805024385452270508e-01 -8.131946623325347900e-02
3.477000000000000000e+03 1.008704471588134766e+01 1.489361667633056641e+01 -6.263965368270874023e-01 4.491575360298156738e-01 -5.317169427871704102e-02 -1.588281691074371338e-01
3.478000000000000000e+03 8.835068702697753906e+00 1.462498378753662109e+01 -6.120306849479675293e-01 5.901514291763305664e-01 -6.563779897987842560e-03 -2.126053273677825928e-01
3.479000000000000000e+03 1.848616218566894531e+01 2.076207351684570312e+01 -7.716849446296691895e-01 -1.988349556922912598e-01 -2.911559641361236572e-01 1.599396914243698120e-01
3.480000000000000000e+03 1.105623626708984375e+01 1.671310424804687500e+01 -6.103730201721191406e-01 3.055004179477691650e-01 -9.146177768707275391e-02 -8.686110377311706543e-02
3.481000000000000000e+03 1.303105735778808594e+01 1.969975090026855469e+01 -5.665559768676757812e-01 1.315950155258178711e-01 -1.304882764816284180e-01 5.793918296694755554e-02
3.482000000000000000e+03 1.226573753356933594e+01 1.953748893737792969e+01 -5.434364676475524902e-01 1.877159327268600464e-01 -1.067161560058593750e-01 4.529644921422004700e-02
3.483000000000000000e+03 1.374017810821533203e+01 1.999476432800292969e+01 -5.825230479240417480e-01 8.395008742809295654e-02 -1.495718806982040405e-01 7.724802196025848389e-02
3.484000000000000000e+03 1.339134502410888672e+01 2.189367294311523438e+01 -4.423303902149200439e-01 9.200093895196914673e-02 -1.050988286733627319e-01 1.569733917713165283e-01
3.485000000000000000e+03 1.123469066619873047e+01 1.432283687591552734e+01 -6.654521226882934570e-01 2.814234793186187744e-01 -1.152085810899734497e-01 -1.558137387037277222e-01
3.486000000000000000e+03 1.953618049621582031e+01 2.235213851928710938e+01 -6.022719740867614746e-01 -2.881986200809478760e-01 -2.671411931514739990e-01 2.247980237007141113e-01
3.487000000000000000e+03 1.772881507873535156e+01 1.977647781372070312e+01 -8.629866242408752441e-01 -1.390591114759445190e-01 -3.006137311458587646e-01 7.304996252059936523e-02
3.488000000000000000e+03 8.241920471191406250e+00 1.054209232330322266e+01 -6.226632595062255859e-01 1.105754017829895020e+00 1.449272185564041138e-01 -2.174625992774963379e-01
3.489000000000000000e+03 1.374428462982177734e+01 1.743366241455078125e+01 -7.142552733421325684e-01 6.841246783733367920e-02 -1.937528401613235474e-01 -7.279549539089202881e-02
3.490000000000000000e+03 1.334585189819335938e+01 1.657855796813964844e+01 -7.161282896995544434e-01 8.304315805435180664e-02 -1.899255365133285522e-01 -1.154983490705490112e-01
3.491000000000000000e+03 1.189179515838623047e+01 1.612131500244140625e+01 -6.500460505485534668e-01 2.244474738836288452e-01 -1.276795715093612671e-01 -1.098000779747962952e-01
3.492000000000000000e+03 1.205249691009521484e+01 1.554140663146972656e+01 -6.785039901733398438e-01 2.008855640888214111e-01 -1.432855278253555298e-01 -1.335760504007339478e-01
3.493000000000000000e+03 1.150401115417480469e+01 1.548521518707275391e+01 -6.506677865982055664e-01 2.591907680034637451e-01 -1.174431070685386658e-01 -1.259773373603820801e-01
3.494000000000000000e+03 1.064177894592285156e+01 1.426617813110351562e+01 -6.434300541877746582e-01 3.802663385868072510e-01 -7.894911617040634155e-02 -1.595679968595504761e-01
3.495000000000000000e+03 1.413378238677978516e+01 1.919541931152343750e+01 -6.554198861122131348e-01 5.414710193872451782e-02 -1.803818494081497192e-01 3.103500790894031525e-02
3.496000000000000000e+03 1.486625194549560547e+01 1.959193611145019531e+01 -6.763027906417846680e-01 1.468836795538663864e-02 -1.984843164682388306e-01 5.110757052898406982e-02
3.497000000000000000e+03 1.618698310852050781e+01 1.856754112243652344e+01 -8.420596718788146973e-01 -6.809186190366744995e-02 -2.730454504489898682e-01 -3.586697578430175781e-02
3.498000000000000000e+03 1.470951080322265625e+01 2.162557792663574219e+01 -5.138338804244995117e-01 1.536440197378396988e-02 -1.495408415794372559e-01 1.582942306995391846e-01
3.499000000000000000e+03 1.354506301879882812e+01 1.820347404479980469e+01 -6.641291975975036621e-01 9.327728301286697388e-02 -1.712555736303329468e-01 -2.273149043321609497e-02
3.500000000000000000e+03 1.820440292358398438e+01 2.181831932067871094e+01 -6.345403790473937988e-01 -1.927162557840347290e-01 -2.481769770383834839e-01 1.899787187576293945e-01
3.501000000000000000e+03 1.202544403076171875e+01 1.660031700134277344e+01 -6.525638103485107422e-01 2.148491293191909790e-01 -1.313144117593765259e-01 -8.713885396718978882e-02
3.502000000000000000e+03 1.038802337646484375e+01 1.526414108276367188e+01 -6.248758435249328613e-01 4.019066691398620605e-01 -6.689076125621795654e-02 -1.418332308530807495e-01
3.503000000000000000e+03 1.093884658813476562e+01 1.540393543243408203e+01 -6.407968997955322266e-01 3.310565948486328125e-01 -9.292208403348922729e-02 -1.349451541900634766e-01
3.504000000000000000e+03 1.237065601348876953e+01 1.617822837829589844e+01 -6.791450977325439453e-01 1.703563779592514038e-01 -1.526366174221038818e-01 -1.122709065675735474e-01
3.505000000000000000e+03 1.660508537292480469e+01 2.042931747436523438e+01 -7.082242965698242188e-01 -8.653848618268966675e-02 -2.384288311004638672e-01 1.109701171517372131e-01
3.506000000000000000e+03 1.446637439727783203e+01 1.749698066711425781e+01 -7.557402253150939941e-01 1.057576667517423630e-02 -2.235493361949920654e-01 -8.496268093585968018e-02
3.507000000000000000e+03 1.521771430969238281e+01 1.823352813720703125e+01 -7.735617756843566895e-01 -1.842889562249183655e-02 -2.375971972942352295e-01 -4.516951367259025574e-02
3.508000000000000000e+03 1.604773902893066406e+01 2.042119789123535156e+01 -6.874754428863525391e-01 -5.738641694188117981e-02 -2.234585583209991455e-01 1.056987494230270386e-01
3.509000000000000000e+03 1.198381519317626953e+01 1.743945121765136719e+01 -6.311829090118408203e-01 2.150280475616455078e-01 -1.248464584350585938e-01 -5.303335934877395630e-02
3.510000000000000000e+03 1.304428195953369141e+01 1.729017639160156250e+01 -6.750774979591369629e-01 1.265297234058380127e-01 -1.645643264055252075e-01 -6.522869318723678589e-02
3.511000000000000000e+03 1.246523761749267578e+01 1.699474906921386719e+01 -6.522009968757629395e-01 1.753841191530227661e-01 -1.430450528860092163e-01 -7.703153043985366821e-02
3.512000000000000000e+03 1.282293128967285156e+01 1.638796234130859375e+01 -6.976765990257263184e-01 1.296578198671340942e-01 -1.704056411981582642e-01 -1.097152754664421082e-01
3.513000000000000000e+03 1.775237274169921875e+01 2.245779609680175781e+01 -5.346817970275878906e-01 -1.701616942882537842e-01 -2.114530503749847412e-01 2.150429785251617432e-01
3.514000000000000000e+03 1.685463523864746094e+01 1.961875534057617188e+01 -8.086053729057312012e-01 -9.266144782304763794e-02 -2.703800499439239502e-01 5.284794792532920837e-02
3.515000000000000000e+03 1.441422080993652344e+01 2.038855552673339844e+01 -5.907083749771118164e-01 4.019272327423095703e-02 -1.651547104120254517e-01 1.000012457370758057e-01
3.516000000000000000e+03 1.717341613769531250e+01 2.014686584472656250e+01 -7.837468981742858887e-01 -1.123300641775131226e-01 -2.688230872154235840e-01 1.052142754197120667e-01
3.517000000000000000e+03 1.559231376647949219e+01 2.205961227416992188e+01 -5.132980346679687500e-01 -4.729897156357765198e-02 -1.681790947914123535e-01 1.773999333381652832e-01
3.518000000000000000e+03 2.632369422912597656e+01 2.173373460769653320e+00 -1.248677253723144531e+00 -2.976471781730651855e-01 -4.638973176479339600e-01 -3.834958374500274658e-01
3.519000000000000000e+03 1.484069538116455078e+01 6.017161846160888672e+00 4.872354269027709961e-01 2.317797392606735229e-01 2.157045453786849976e-01 2.136510163545608521e-01
3.520000000000000000e+03 1.513943767547607422e+01 6.247359752655029297e+00 5.918666124343872070e-01 3.617998212575912476e-02 1.884139925241470337e-01 2.882998287677764893e-01
3.521000000000000000e+03 1.501828670501708984e+01 6.010617256164550781e+00 2.729400396347045898e-01 1.185363978147506714e-01 1.174429357051849365e-01 2.634252905845642090e-01
3.522000000000000000e+03 1.532381534576416016e+01 6.450881481170654297e+00 4.267099499702453613e-01 1.776966452598571777e-01 1.813219785690307617e-01 3.863571584224700928e-01
3.523000000000000000e+03 1.590484142303466797e+01 6.301377296447753906e+00 2.401565909385681152e-01 5.881814286112785339e-02 8.969242125749588013e-02 1.492550671100616455e-01
3.524000000000000000e+03 1.670024299621582031e+01 6.212931156158447266e+00 -2.865347824990749359e-02 -2.433677576482295990e-02 -1.589707657694816589e-02 -2.447077631950378418e-02
3.525000000000000000e+03 1.738497543334960938e+01 6.019744873046875000e+00 -1.598509997129440308e-01 -7.576090097427368164e-02 -7.068356871604919434e-02 -5.665098503232002258e-02
3.526000000000000000e+03 1.845510673522949219e+01 6.074560165405273438e+00 -2.013497799634933472e-01 7.915641181170940399e-03 -5.803024396300315857e-02 -5.789198726415634155e-02
3.527000000000000000e+03 9.714965820312500000e+00 6.429191589355468750e+00 -1.400379091501235962e-01 -6.004387885332107544e-02 -6.002453714609146118e-02 1.909824013710021973e-01
3.528000000000000000e+03 8.964604377746582031e+00 6.704516410827636719e+00 1.720987558364868164e-01 8.995593786239624023e-01 3.214974403381347656e-01 4.208565354347229004e-01
3.529000000000000000e+03 8.421228408813476562e+00 6.324271202087402344e+00 3.674794137477874756e-01 2.086017370223999023e+00 7.360489964485168457e-01 6.705151200294494629e-01
3.530000000000000000e+03 8.203619003295898438e+00 6.584605216979980469e+00 8.595583587884902954e-02 2.528120279312133789e+00 7.842227816581726074e-01 4.582359790802001953e-01
3.531000000000000000e+03 8.041937828063964844e+00 6.327526569366455078e+00 1.518579870462417603e-01 3.252651691436767578e+00 1.021352887153625488e+00 4.429139494895935059e-01
3.532000000000000000e+03 8.035815238952636719e+00 6.569760322570800781e+00 -2.727504260838031769e-02 3.007283926010131836e+00 8.940026760101318359e-01 3.368380963802337646e-01
3.533000000000000000e+03 7.023287296295166016e+00 6.590147018432617188e+00 2.619844079017639160e-01 3.781438112258911133e+00 1.213026762008666992e+00 -1.209185838699340820e+00
3.534000000000000000e+03 6.453382968902587891e+00 5.962579250335693359e+00 1.968438744544982910e+00 3.321657419204711914e+00 1.587028861045837402e+00 -2.323865413665771484e+00
3.535000000000000000e+03 6.685428142547607422e+00 5.819102287292480469e+00 2.107691049575805664e+00 3.899538516998291016e+00 1.802168846130371094e+00 -2.530856847763061523e+00
3.536000000000000000e+03 5.870534896850585938e+00 4.574220180511474609e+00 5.076971054077148438e+00 6.192042231559753418e-01 1.708852529525756836e+00 -7.428738474845886230e-01
3.537000000000000000e+03 6.212338447570800781e+00 4.637108802795410156e+00 5.766712665557861328e+00 1.073111891746520996e+00 2.051947355270385742e+00 -1.104617595672607422e+00
3.538000000000000000e+03 7.563646316528320312e+00 2.633658409118652344e+00 1.589251279830932617e+00 2.761094808578491211e+00 1.305103898048400879e+00 8.189502954483032227e-01
3.539000000000000000e+03 8.922659873962402344e+00 3.076118946075439453e+00 5.267624855041503906e+00 2.075267553329467773e+00 2.202867746353149414e+00 -2.131700515747070312e+00
3.540000000000000000e+03 1.014333343505859375e+01 2.810863494873046875e+00 4.459877967834472656e+00 4.686529934406280518e-01 1.478559374809265137e+00 -1.852120995521545410e+00
3.541000000000000000e+03 1.057967948913574219e+01 2.885421276092529297e+00 4.412833213806152344e+00 4.515624046325683594e-01 1.459318757057189941e+00 -1.791770815849304199e+00
3.542000000000000000e+03 1.222697448730468750e+01 2.656787633895874023e+00 2.728240251541137695e+00 4.386571645736694336e-01 9.500692486763000488e-01 -1.495030879974365234e+00
3.543000000000000000e+03 1.259065628051757812e+01 2.753183126449584961e+00 2.966042518615722656e+00 6.373484134674072266e-01 1.081017255783081055e+00 -1.291997790336608887e+00
3.544000000000000000e+03 1.309253120422363281e+01 2.928365945816040039e+00 3.037791490554809570e+00 5.559467077255249023e-01 1.078121542930603027e+00 -1.127254605293273926e+00
3.545000000000000000e+03 1.326493549346923828e+01 2.928489923477172852e+00 2.957271575927734375e+00 5.698791146278381348e-01 1.058145165443420410e+00 -9.310297966003417969e-01
3.546000000000000000e+03 1.337768554687500000e+01 2.663796186447143555e+00 1.787691354751586914e+00 5.948982834815979004e-01 7.147768735885620117e-01 -1.131204009056091309e+00
3.547000000000000000e+03 1.385679626464843750e+01 2.860751628875732422e+00 2.034556627273559570e+00 2.659620046615600586e-01 6.901556253433227539e-01 -9.902727603912353516e-01
3.548000000000000000e+03 1.431996631622314453e+01 2.687110185623168945e+00 3.773095905780792236e-01 -4.222961962223052979e-01 -1.349598076194524765e-02 -1.067500948905944824e+00
3.549000000000000000e+03 1.540061855316162109e+01 2.432709932327270508e+00 -1.631112098693847656e+00 -6.563703536987304688e+00 -2.458444595336914062e+00 -4.046330928802490234e+00
3.550000000000000000e+03 1.574358940124511719e+01 -1.923192024230957031e+00 -4.280991852283477783e-03 -5.703924689441919327e-03 -2.995474962517619133e-03 1.044320594519376755e-02
3.551000000000000000e+03 2.398668670654296875e+01 5.902733802795410156e+00 -1.943660676479339600e-01 -2.350771576166152954e-01 -1.288329660892486572e-01 -2.084402441978454590e-01
3.552000000000000000e+03 1.543409442901611328e+01 -2.586481094360351562e+00 -6.490635685622692108e-03 -5.032621789723634720e-03 -3.456977428868412971e-03 1.635375618934631348e-02
3.553000000000000000e+03 4.238101541996002197e-01 -3.336141204833984375e+01 2.156351692974567413e-03 -6.042582392692565918e-01 -1.806305646896362305e-01 -3.284751204773783684e-03
3.554000000000000000e+03 2.118804216384887695e+00 -2.938710784912109375e+01 -3.772568190470337868e-03 -4.484854936599731445e-01 -1.356774270534515381e-01 -4.337167739868164062e-02
3.555000000000000000e+03 7.220457196235656738e-01 -2.917847824096679688e+01 1.772651739884167910e-04 -5.104475617408752441e-01 -1.530810892581939697e-01 -1.886211149394512177e-02
3.556000000000000000e+03 3.665419769287109375e+01 1.329075145721435547e+01 -1.146001696586608887e+00 -4.020267724990844727e-01 -4.644085466861724854e-01 7.438228130340576172e-01
3.557000000000000000e+03 1.851105880737304688e+01 2.707503080368041992e+00 6.674173355102539062e+00 2.517096042633056641e+00 2.757380723953247070e+00 -3.199632167816162109e+00
3.558000000000000000e+03 1.805342674255371094e+01 2.771857738494873047e+00 8.676503181457519531e+00 5.949345588684082031e+00 4.387754440307617188e+00 -5.157668113708496094e+00
3.559000000000000000e+03 1.819340705871582031e+01 2.629049539566040039e+00 8.316387176513671875e+00 4.535436630249023438e+00 3.855547189712524414e+00 -5.887810230255126953e+00
3.560000000000000000e+03 1.785683631896972656e+01 2.841015338897705078e+00 1.011378479003906250e+01 3.305519342422485352e+00 4.025791168212890625e+00 -7.245578289031982422e+00
3.561000000000000000e+03 1.778711318969726562e+01 2.782939195632934570e+00 1.108308887481689453e+01 2.613324165344238281e+00 4.108923912048339844e+00 -8.061333656311035156e+00
3.562000000000000000e+03 1.795075988769531250e+01 2.745336294174194336e+00 1.038575172424316406e+01 2.981978893280029297e+00 4.010319232940673828e+00 -6.891552448272705078e+00
3.563000000000000000e+03 2.548494148254394531e+01 1.758659124374389648e+00 -9.659911990165710449e-01 -3.715521395206451416e-01 -4.012629985809326172e-01 -3.593901693820953369e-01
3.564000000000000000e+03 2.273515462875366211e+00 3.721627044677734375e+01 1.257375534623861313e-02 4.415771365165710449e-01 1.362452656030654907e-01 5.232114717364311218e-02
3.565000000000000000e+03 2.190653800964355469e+00 2.364276885986328125e+01 -1.379850786179304123e-02 8.389316201210021973e-01 2.475399374961853027e-01 5.371924862265586853e-02
3.566000000000000000e+03 1.155000782012939453e+01 8.555398941040039062e+00 -2.710824608802795410e-01 -3.342266678810119629e-01 -1.815927326679229736e-01 -2.295493632555007935e-01
3.567000000000000000e+03 1.286012172698974609e+01 1.074665737152099609e+01 -4.836843609809875488e-01 -2.332737892866134644e-01 -2.150874435901641846e-01 -3.640422224998474121e-01
3.568000000000000000e+03 1.340862274169921875e+01 1.129780197143554688e+01 -5.583246946334838867e-01 -2.729518413543701172e-01 -2.493829578161239624e-01 -4.117665886878967285e-01
3.569000000000000000e+03 1.671181106567382812e+01 1.371981716156005859e+01 -1.012185811996459961e+00 -3.709264695644378662e-01 -4.149336814880371094e-01 -5.651676058769226074e-01
3.570000000000000000e+03 2.467066192626953125e+01 1.303796291351318359e+01 2.800035178661346436e-01 6.604673862457275391e-01 2.821412980556488037e-01 3.059728741645812988e-01
3.571000000000000000e+03 2.047689056396484375e+01 1.012128162384033203e+01 2.131236046552658081e-01 1.681085973978042603e-01 1.143696606159210205e-01 1.970951259136199951e-01
3.572000000000000000e+03 1.891728401184082031e+01 8.456312179565429688e+00 1.457189917564392090e-01 7.425206899642944336e-02 6.599131971597671509e-02 1.197919547557830811e-01
3.573000000000000000e+03 1.805037879943847656e+01 8.089177131652832031e+00 2.132159471511840820e-01 1.003401502966880798e-01 9.406682848930358887e-02 1.311649084091186523e-01
3.574000000000000000e+03 1.757500267028808594e+01 7.537986755371093750e+00 2.152752578258514404e-01 8.568184077739715576e-02 9.028712660074234009e-02 1.097448021173477173e-01
3.575000000000000000e+03 2.101901817321777344e+01 -2.103587090969085693e-01 2.943838119506835938e+00 3.203912019729614258e+00 1.844325065612792969e+00 -3.053546428680419922e+00
3.576000000000000000e+03 7.379953002929687500e+01 -6.946555614471435547e+00 2.257207930088043213e-01 7.977618217468261719e+00 2.461001873016357422e+00 3.526523411273956299e-01
3.577000000000000000e+03 5.454842758178710938e+01 -2.031381225585937500e+01 -1.429845690727233887e+00 1.840759992599487305e+00 1.232742890715599060e-01 2.631709098815917969e+00
3.578000000000000000e+03 2.672811126708984375e+01 4.056167984008789062e+01 4.913936257362365723e-01 1.042786166071891785e-01 1.787016689777374268e-01 4.150506574660539627e-03
3.579000000000000000e+03 1.760405540466308594e+01 2.825386762619018555e+00 1.161850833892822266e+01 1.435272336006164551e+00 3.916134119033813477e+00 -7.248463630676269531e+00
3.580000000000000000e+03 9.903576850891113281e+00 6.476604461669921875e+00 1.054811775684356689e-01 7.198923081159591675e-02 5.324112251400947571e-02 -3.734572529792785645e-01
3.581000000000000000e+03 1.484375572204589844e+01 6.230920314788818359e+00 8.328557610511779785e-01 5.442337393760681152e-01 4.131268560886383057e-01 3.410536348819732666e-01
3.582000000000000000e+03 1.801454162597656250e+01 2.689232587814331055e+00 1.031673431396484375e+01 6.584830760955810547e+00 5.070469379425048828e+00 -6.227097511291503906e+00
3.583000000000000000e+03 1.577543258666992188e+01 6.566141128540039062e+00 3.664615452289581299e-01 9.460808336734771729e-02 1.383208930492401123e-01 2.444480657577514648e-01
3.584000000000000000e+03 1.599162864685058594e+01 6.519086837768554688e+00 2.536425590515136719e-01 8.126293867826461792e-02 1.004716455936431885e-01 1.243524104356765747e-01
3.585000000000000000e+03 1.477624416351318359e+01 2.560579299926757812e+00 -8.105126619338989258e-01 -2.743112564086914062e+00 -1.066087603569030762e+00 -2.068105220794677734e+00
3.586000000000000000e+03 1.240782833099365234e+01 2.509648084640502930e+00 1.755000472068786621e+00 6.326891183853149414e-01 7.163068652153015137e-01 -1.696459770202636719e+00
3.587000000000000000e+03 2.615824699401855469e+01 1.786987543106079102e+00 -6.452138423919677734e-01 -3.656587898731231689e-01 -3.032617866992950439e-01 -4.614697098731994629e-01
3.588000000000000000e+03 2.710778045654296875e+01 1.855571985244750977e+00 -5.446226000785827637e-01 -6.489810943603515625e-01 -3.580811023712158203e-01 -7.289103269577026367e-01
3.589000000000000000e+03 2.647086143493652344e+01 1.366228580474853516e+00 -1.741933822631835938e-02 -5.502195954322814941e-01 -1.702916920185089111e-01 -5.709077715873718262e-01
3.590000000000000000e+03 2.661028289794921875e+01 1.839749097824096680e+00 -9.426681995391845703e-01 -4.541118741035461426e-01 -4.190340340137481689e-01 -6.588457822799682617e-01
3.591000000000000000e+03 7.949500560760498047e+00 2.356311798095703125e+00 1.891016215085983276e-01 2.003803730010986328e+00 6.578716039657592773e-01 1.961403489112854004e-01
3.592000000000000000e+03 8.322158813476562500e+00 2.202867031097412109e+00 -2.224854528903961182e-01 2.020714998245239258e+00 5.394688248634338379e-01 -2.489621937274932861e-01
3.593000000000000000e+03 8.848183631896972656e+00 2.641911268234252930e+00 2.746191263198852539e+00 1.547857284545898438e+00 1.288214564323425293e+00 -1.395393490791320801e+00
3.594000000000000000e+03 8.848555564880371094e+00 2.924502849578857422e+00 4.421042442321777344e+00 2.089552402496337891e+00 1.953178524971008301e+00 -1.814704298973083496e+00
3.595000000000000000e+03 9.015193939208984375e+00 2.793460607528686523e+00 3.663554430007934570e+00 1.827214837074279785e+00 1.647230744361877441e+00 -1.858530282974243164e+00
3.596000000000000000e+03 9.020915031433105469e+00 2.138055324554443359e+00 -2.307311594486236572e-01 1.200264334678649902e+00 2.908599376678466797e-01 -1.109868288040161133e+00
3.597000000000000000e+03 8.713696479797363281e+00 2.280752897262573242e+00 3.108286857604980469e-01 1.339819908142089844e+00 4.951946139335632324e-01 -7.916421890258789062e-01
3.598000000000000000e+03 1.789291000366210938e+01 2.797867298126220703e+00 1.053282451629638672e+01 4.460549354553222656e+00 4.498012065887451172e+00 -7.623936176300048828e+00
3.599000000000000000e+03 1.788826179504394531e+01 2.706365585327148438e+00 1.135770416259765625e+01 4.629427433013916016e+00 4.796139717102050781e+00 -8.271665573120117188e+00
3.600000000000000000e+03 6.738187313079833984e+00 3.276500940322875977e+00 4.129611492156982422e+00 1.901468873023986816e+00 1.809324145317077637e+00 1.854508042335510254e+00
3.601000000000000000e+03 8.779660224914550781e+00 6.900653839111328125e+00 2.745423018932342529e-01 1.351065635681152344e+00 4.876823723316192627e-01 5.639266967773437500e-01
3.602000000000000000e+03 8.430950164794921875e+00 6.810676097869873047e+00 2.574272155761718750e-01 1.944203495979309082e+00 6.604892015457153320e-01 5.031637549400329590e-01
3.603000000000000000e+03 8.076112747192382812e+00 6.796348094940185547e+00 5.570439994335174561e-02 2.663195610046386719e+00 8.156699538230895996e-01 2.780213057994842529e-01
3.604000000000000000e+03 7.858806610107421875e+00 6.594883441925048828e+00 7.881953567266464233e-02 3.312661170959472656e+00 1.017444133758544922e+00 2.007112652063369751e-01
3.605000000000000000e+03 7.853859424591064453e+00 6.839160919189453125e+00 -1.438647508621215820e-01 2.887743949890136719e+00 8.231637477874755859e-01 3.150471299886703491e-02
3.606000000000000000e+03 7.039588928222656250e+00 7.039303779602050781e+00 -5.954357609152793884e-02 3.212711572647094727e+00 9.459503889083862305e-01 -8.844799995422363281e-01
3.607000000000000000e+03 6.306873798370361328e+00 6.218952655792236328e+00 1.555111885070800781e+00 2.929484128952026367e+00 1.345378756523132324e+00 -2.110930204391479492e+00
3.608000000000000000e+03 6.143050670623779297e+00 5.944900035858154297e+00 2.262766361236572266e+00 2.543482065200805664e+00 1.441874504089355469e+00 -2.229609966278076172e+00
3.609000000000000000e+03 6.322371482849121094e+00 5.794308185577392578e+00 2.530045509338378906e+00 2.918397426605224609e+00 1.634532928466796875e+00 -2.416608333587646484e+00
3.610000000000000000e+03 5.458792686462402344e+00 5.256944179534912109e+00 3.544617891311645508e+00 7.100535035133361816e-01 1.276401400566101074e+00 -1.393565535545349121e+00
3.611000000000000000e+03 5.609966278076171875e+00 5.013391494750976562e+00 4.167140007019042969e+00 6.463073492050170898e-01 1.444034099578857422e+00 -1.224236726760864258e+00
3.612000000000000000e+03 5.413598060607910156e+00 4.612680912017822266e+00 4.124935626983642578e+00 6.088441610336303711e-02 1.255746006965637207e+00 -4.308571219444274902e-01
3.613000000000000000e+03 5.886195659637451172e+00 4.360833168029785156e+00 5.172975063323974609e+00 4.547082781791687012e-01 1.688305020332336426e+00 -1.912689954042434692e-01
3.614000000000000000e+03 6.755683898925781250e+01 1.256861877441406250e+01 2.792162656784057617e+00 1.051762104034423828e+01 3.992935180664062500e+00 1.729622364044189453e+00
3.615000000000000000e+03 4.924358749389648438e+01 -1.871639060974121094e+01 -1.152791261672973633e+00 7.537591457366943359e-01 -1.197096332907676697e-01 -1.680966168642044067e-01
3.616000000000000000e+03 5.860733795166015625e+01 1.039846614003181458e-01 -1.471733689308166504e+00 6.809009313583374023e-01 -2.372498363256454468e-01 -1.316059589385986328e+00
3.617000000000000000e+03 5.188329315185546875e+01 1.658329963684082031e+01 -8.573637008666992188e-01 1.137885665893554688e+01 3.156447649002075195e+00 6.089828610420227051e-01
3.618000000000000000e+03 7.803005981445312500e+01 9.431223869323730469e+00 -1.355270594358444214e-01 8.230566024780273438e+00 2.428511619567871094e+00 2.378224134445190430e-01
3.619000000000000000e+03 5.114665222167968750e+01 4.527435302734375000e+00 3.384450912475585938e+00 1.091577339172363281e+01 4.290067195892333984e+00 -1.593532264232635498e-01
3.620000000000000000e+03 1.048309326171875000e+01 2.576265573501586914e+00 2.901890754699707031e+00 5.255159735679626465e-01 1.028221964836120605e+00 -1.565291881561279297e+00
3.621000000000000000e+03 1.613922882080078125e+01 6.264446735382080078e+00 9.429398924112319946e-02 6.964435800909996033e-03 3.037752769887447357e-02 3.326832503080368042e-02
3.622000000000000000e+03 1.983127784729003906e+01 1.922428011894226074e+00 4.898023128509521484e+00 1.482536077499389648e+00 1.914167761802673340e+00 -2.360390424728393555e+00
3.623000000000000000e+03 9.609681129455566406e+00 6.675379753112792969e+00 3.591847419738769531e-01 1.994779556989669800e-01 1.675988137722015381e-01 1.401319820433855057e-02
3.624000000000000000e+03 8.388295173645019531e+00 7.152995109558105469e+00 -7.654790580272674561e-02 1.974616050720214844e+00 5.694204568862915039e-01 3.225444555282592773e-01
3.625000000000000000e+03 6.055713653564453125e+00 3.272195816040039062e+00 3.334176778793334961e+00 8.057153224945068359e-01 1.241967678070068359e+00 1.921770334243774414e+00
3.626000000000000000e+03 1.674581146240234375e+01 6.583735466003417969e+00 8.683029562234878540e-02 -1.520336605608463287e-02 2.148807980120182037e-02 4.776054248213768005e-02
3.627000000000000000e+03 2.051563453674316406e+01 1.614940834045410156e+01 -1.661489963531494141e+00 -2.481675148010253906e-01 -5.728972554206848145e-01 -5.606447458267211914e-01
3.628000000000000000e+03 1.726576614379882812e+01 6.432751178741455078e+00 1.852910779416561127e-02 -2.978900447487831116e-02 -3.377968678250908852e-03 -2.078660205006599426e-02
3.629000000000000000e+03 1.797256088256835938e+01 6.720888137817382812e+00 -1.571609452366828918e-02 -1.431713253259658813e-02 -9.009968489408493042e-03 9.031655499711632729e-04
3.630000000000000000e+03 2.839744567871093750e+01 1.922975301742553711e+00 -3.876720368862152100e-02 -6.098392605781555176e-01 -1.945819407701492310e-01 -6.738509535789489746e-01
3.631000000000000000e+03 8.584340095520019531e+00 7.207393169403076172e+00 -4.847991839051246643e-02 1.585963845252990723e+00 4.612451791763305664e-01 3.578203618526458740e-01
3.632000000000000000e+03 5.124972343444824219e+00 5.116879940032958984e+00 3.320425510406494141e+00 1.436217576265335083e-01 1.039214253425598145e+00 -8.985677361488342285e-01
3.633000000000000000e+03 5.242382526397705078e+00 4.853190422058105469e+00 3.875309467315673828e+00 8.254860341548919678e-02 1.187357425689697266e+00 -6.760072708129882812e-01
3.634000000000000000e+03 7.750508117675781250e+01 2.247911643981933594e+01 6.564768403768539429e-02 6.366506576538085938e+00 1.929646372795104980e+00 1.570790857076644897e-01
3.635000000000000000e+03 1.448654747009277344e+01 1.210007762908935547e+01 -7.160398364067077637e-01 -3.741090893745422363e-01 -3.270446658134460449e-01 -4.915959239006042480e-01
3.636000000000000000e+03 1.692749404907226562e+01 1.400197887420654297e+01 -1.019705533981323242e+00 -3.377049863338470459e-01 -4.072231650352478027e-01 -5.409123897552490234e-01
3.637000000000000000e+03 4.319221115112304688e+01 2.915248274803161621e-01 3.785497546195983887e-01 3.873471736907958984e+00 1.275606513023376465e+00 2.067305803298950195e+00
3.638000000000000000e+03 4.411803817749023438e+01 -2.830692529678344727e-01 -3.858052492141723633e-01 5.460421085357666016e+00 1.522384762763977051e+00 2.649004697799682617e+00
3.639000000000000000e+03 7.137391662597656250e+01 -1.386605858802795410e+00 -2.481799840927124023e+00 4.747080802917480469e+00 6.795842647552490234e-01 -3.237464666366577148e+00
3.640000000000000000e+03 2.651024436950683594e+01 1.114993286132812500e+01 -1.972555071115493774e-01 -1.364572495222091675e-01 -1.001138314604759216e-01 -2.199718058109283447e-01
3.641000000000000000e+03 1.782036209106445312e+01 1.498302078247070312e+01 -1.108188390731811523e+00 -2.580805420875549316e-01 -4.098806679248809814e-01 -5.117283463478088379e-01
3.642000000000000000e+03 1.986668968200683594e+01 1.627203369140625000e+01 -1.500511288642883301e+00 -2.281009554862976074e-01 -5.185836553573608398e-01 -4.466947019100189209e-01
3.643000000000000000e+03 2.177048110961914062e+01 1.024940872192382812e+01 1.262140870094299316e-01 2.226726114749908447e-01 1.046660095453262329e-01 1.779116690158843994e-01
3.644000000000000000e+03 2.259760475158691406e+01 1.062949562072753906e+01 9.781755506992340088e-02 2.373302280902862549e-01 1.005443334579467773e-01 1.717301458120346069e-01
3.645000000000000000e+03 2.259000587463378906e+01 1.124887752532958984e+01 2.232107818126678467e-01 2.750886082649230957e-01 1.494898200035095215e-01 2.442952841520309448e-01
3.646000000000000000e+03 2.363664054870605469e+01 1.188377189636230469e+01 2.227973043918609619e-01 4.036694467067718506e-01 1.879400163888931274e-01 2.844922840595245361e-01
3.647000000000000000e+03 2.430495834350585938e+01 1.159407424926757812e+01 4.806763678789138794e-02 3.473865985870361328e-01 1.186362728476524353e-01 1.180373579263687134e-01
3.648000000000000000e+03 2.518559646606445312e+01 1.706191825866699219e+01 -2.263616085052490234e+00 -2.656251378357410431e-02 -6.870536208152770996e-01 1.461018323898315430e-01
3.649000000000000000e+03 2.578048515319824219e+01 1.679334831237792969e+01 -1.893319129943847656e+00 2.904940247535705566e-01 -4.808475375175476074e-01 4.831146299839019775e-01
3.650000000000000000e+03 6.565642833709716797e+00 2.568073034286499023e+00 8.965284824371337891e-01 1.061908960342407227e+00 5.875312089920043945e-01 2.057347297668457031e+00
3.651000000000000000e+03 1.710498619079589844e+01 6.889577865600585938e+00 1.536610424518585205e-01 -4.673922900110483170e-03 4.469613730907440186e-02 6.097067147493362427e-02
3.652000000000000000e+03 7.229458618164062500e+01 -3.224436759948730469e+00 -1.248568296432495117e+00 4.741106033325195312e+00 1.047761321067810059e+00 -1.616576552391052246e+00
3.653000000000000000e+03 2.905540466308593750e+00 1.698249053955078125e+01 -1.158057227730751038e-01 6.926462054252624512e-01 1.730521470308303833e-01 -2.137345373630523682e-01
3.654000000000000000e+03 7.988526821136474609e+00 7.731928348541259766e+00 -3.653842210769653320e-01 2.168326377868652344e+00 5.408826470375061035e-01 3.991199657320976257e-02
3.655000000000000000e+03 7.695558071136474609e+00 7.864962577819824219e+00 -4.276192784309387207e-01 2.220405578613281250e+00 5.378358960151672363e-01 -1.779881566762924194e-01
3.656000000000000000e+03 7.687583923339843750e+01 1.255113792419433594e+01 -2.250860482454299927e-01 7.043250560760498047e+00 2.045449495315551758e+00 -6.838775873184204102e-01
3.657000000000000000e+03 3.843371582031250000e+01 -1.909434890747070312e+01 1.315834075212478638e-01 1.783483743667602539e+00 5.745201706886291504e-01 1.197817087173461914e+00
3.658000000000000000e+03 6.762241363525390625e+01 1.369465255737304688e+01 2.235387086868286133e+00 1.034246540069580078e+01 3.773355722427368164e+00 1.719461202621459961e+00
3.659000000000000000e+03 4.177716445922851562e+01 -7.082021713256835938e+00 1.677447557449340820e-01 4.883693695068359375e+00 1.515431523323059082e+00 1.200609683990478516e+00
3.660000000000000000e+03 4.271272659301757812e+01 -6.501679420471191406e+00 1.265363812446594238e+00 7.005502223968505859e+00 2.481259822845458984e+00 1.331641674041748047e+00
3.661000000000000000e+03 4.940044403076171875e+00 5.354384422302246094e+00 2.819765567779541016e+00 1.629467904567718506e-01 8.948137164115905762e-01 -1.022657155990600586e+00
3.662000000000000000e+03 6.831275463104248047e+00 3.057619333267211914e+00 3.033133029937744141e+00 1.839482426643371582e+00 1.461784601211547852e+00 1.765302062034606934e+00
3.663000000000000000e+03 5.818682670593261719e+00 6.137551784515380859e+00 1.993355512619018555e+00 1.990166902542114258e+00 1.195056676864624023e+00 -2.004707336425781250e+00
3.664000000000000000e+03 5.032328414916992188e+01 3.844066619873046875e+00 3.464772701263427734e+00 8.281426429748535156e+00 3.523859739303588867e+00 1.009560108184814453e+00
3.665000000000000000e+03 7.747888946533203125e+01 -2.541412830352783203e+00 -1.699437648057937622e-01 9.512720108032226562e+00 2.802833080291748047e+00 1.167217135429382324e+00
3.666000000000000000e+03 4.881534576416015625e+01 8.336082100868225098e-01 2.131139516830444336e+00 3.404476165771484375e+00 1.660684704780578613e+00 2.858761548995971680e+00
3.667000000000000000e+03 1.204137420654296875e+01 -5.901509761810302734e+00 -9.835955500602722168e-02 2.424181997776031494e-02 -2.223532088100910187e-02 -2.145905792713165283e-02
3.668000000000000000e+03 1.584985065460205078e+01 -7.892389774322509766e+00 -1.862027198076248169e-01 6.371330469846725464e-02 -3.674682229757308960e-02 1.028915401548147202e-02
3.669000000000000000e+03 4.947580337524414062e+01 -2.241890907287597656e+01 4.142438247799873352e-02 1.600102543830871582e+00 4.924580752849578857e-01 -2.207329422235488892e-01
3.670000000000000000e+03 5.101349830627441406e+00 6.185882568359375000e+00 1.915562629699707031e+00 9.254849553108215332e-01 8.523142933845520020e-01 -1.573855519294738770e+00
3.671000000000000000e+03 7.672786712646484375e+01 1.158055496215820312e+01 -6.638333201408386230e-01 7.963274955749511719e+00 2.189832448959350586e+00 -9.360442161560058594e-01
3.672000000000000000e+03 3.471072673797607422e+00 3.902976274490356445e+00 1.431286215782165527e+00 -1.032094120979309082e+00 1.197576373815536499e-01 1.046783566474914551e+00
3.673000000000000000e+03 8.463676452636718750e+00 7.711798191070556641e+00 -2.781318426132202148e-01 1.682594060897827148e+00 4.213386774063110352e-01 3.049730658531188965e-01
3.674000000000000000e+03 8.638187408447265625e+00 7.830134391784667969e+00 -1.418355405330657959e-01 1.501457095146179199e+00 4.078864455223083496e-01 2.451031208038330078e-01
3.675000000000000000e+03 6.001758098602294922e+00 7.102035522460937500e+00 5.006604194641113281e-01 2.327359437942504883e+00 8.484059572219848633e-01 -1.584425449371337891e+00
3.676000000000000000e+03 5.532051086425781250e+00 7.162801265716552734e+00 6.203792095184326172e-01 1.761512279510498047e+00 7.145674824714660645e-01 -1.567939996719360352e+00
3.677000000000000000e+03 5.345752239227294922e+00 2.957072067260742188e+01 -1.188365975394845009e-03 4.613445997238159180e-01 1.380468606948852539e-01 1.739176511764526367e-01
3.678000000000000000e+03 4.600413799285888672e+00 5.582160472869873047e+00 2.417559623718261719e+00 4.450959712266921997e-02 7.386207580566406250e-01 -9.799614548683166504e-01
3.679000000000000000e+03 3.681745290756225586e+00 6.072070121765136719e+00 1.423329472541809082e+00 -3.675670027732849121e-01 3.167287409305572510e-01 -7.555348873138427734e-01
3.680000000000000000e+03 2.507909393310546875e+01 1.286081600189208984e+01 1.454145312309265137e-01 4.749651849269866943e-01 1.861139088869094849e-01 1.351913213729858398e-01
3.681000000000000000e+03 2.613291931152343750e+01 1.712331199645996094e+01 -1.803031563758850098e+00 2.557389736175537109e-01 -4.641877710819244385e-01 3.709953129291534424e-01
3.682000000000000000e+03 8.254575729370117188e+00 7.719439506530761719e+00 -3.121551275253295898e-01 1.816484689712524414e+00 4.512988924980163574e-01 1.562979966402053833e-01
3.683000000000000000e+03 6.652532577514648438e+00 7.978300094604492188e+00 -3.572209477424621582e-01 2.356904029846191406e+00 5.999048948287963867e-01 -8.669585585594177246e-01
3.684000000000000000e+03 6.417893886566162109e+00 7.351490974426269531e+00 5.593872070312500000e-02 2.562622308731079102e+00 7.855682969093322754e-01 -1.236306071281433105e+00
3.685000000000000000e+03 7.349811553955078125e+01 -3.310364007949829102e+00 -7.611126303672790527e-01 5.167072296142578125e+00 1.321787953376770020e+00 -4.558909535408020020e-01
3.686000000000000000e+03 3.859632492065429688e+01 1.538196945190429688e+01 -1.456419229507446289e+00 3.612998127937316895e-01 -3.285358250141143799e-01 5.415048450231552124e-02
3.687000000000000000e+03 3.413679504394531250e+01 -2.029460334777832031e+01 1.350081115961074829e-01 8.908455967903137207e-01 3.077561259269714355e-01 2.576569616794586182e-01
3.688000000000000000e+03 1.521467971801757812e+01 -1.012311267852783203e+01 -2.188425213098526001e-01 8.515196293592453003e-02 -4.010716825723648071e-02 -8.656025677919387817e-02
3.689000000000000000e+03 4.101455307006835938e+01 1.574347782135009766e+01 -1.317608475685119629e+00 6.681216955184936523e-01 -1.948460340499877930e-01 -6.872611120343208313e-03
3.690000000000000000e+03 7.601647949218750000e+01 -1.696234512329101562e+01 -1.913028657436370850e-01 8.273341178894042969e+00 2.424611330032348633e+00 -5.611528754234313965e-01
3.691000000000000000e+03 1.091251564025878906e+01 -5.981922149658203125e+00 -8.516858518123626709e-02 2.258377335965633392e-02 -1.877544261515140533e-02 -2.722824923694133759e-02
3.692000000000000000e+03 4.548441314697265625e+01 -2.056257057189941406e+01 -7.061011791229248047e-01 2.716114997863769531e+00 6.030040979385375977e-01 -8.181149959564208984e-01
3.693000000000000000e+03 9.266770362854003906e+00 7.515604972839355469e+00 -2.117095589637756348e-01 9.031021595001220703e-01 2.074177861213684082e-01 3.477161228656768799e-01
3.694000000000000000e+03 1.482867050170898438e+01 2.994984245300292969e+01 5.264944583177566528e-02 -2.711973898112773895e-02 7.658911868929862976e-03 2.456519156694412231e-01
3.695000000000000000e+03 2.545212554931640625e+01 1.220163726806640625e+01 -8.129353518597781658e-04 2.543417811393737793e-01 7.605865597724914551e-02 -1.894375495612621307e-02
3.696000000000000000e+03 4.509796142578125000e+01 -2.195257759094238281e+01 -5.040388107299804688e-01 2.881072282791137695e+00 7.131100893020629883e-01 -5.570217370986938477e-01
3.697000000000000000e+03 5.035131931304931641e+00 6.738953113555908203e+00 1.145784854888916016e+00 1.201618313789367676e+00 7.042209506034851074e-01 -1.593747735023498535e+00
3.698000000000000000e+03 8.285099983215332031e+00 7.411604881286621094e+00 -2.033082395792007446e-01 1.933094978332519531e+00 5.189360380172729492e-01 2.444221228361129761e-01
3.699000000000000000e+03 8.403318405151367188e+00 7.922800540924072266e+00 -1.983280926942825317e-01 1.638918519020080566e+00 4.321771264076232910e-01 1.469573229551315308e-01
3.700000000000000000e+03 2.170712089538574219e+01 9.749949455261230469e+00 6.651015579700469971e-02 2.009315788745880127e-01 8.023251593112945557e-02 1.329772621393203735e-01
3.701000000000000000e+03 2.926809501647949219e+01 1.807918357849121094e+01 -1.298633217811584473e+00 1.126900687813758850e-01 -3.557829260826110840e-01 4.014847576618194580e-01
3.702000000000000000e+03 7.116647338867187500e+01 1.589894104003906250e+01 1.196694254875183105e+00 6.253401279449462891e+00 2.235028743743896484e+00 8.979654312133789062e-01
3.703000000000000000e+03 1.849544525146484375e+01 7.667063713073730469e+00 1.204442158341407776e-01 6.273598223924636841e-02 5.495405942201614380e-02 5.742585286498069763e-02
3.704000000000000000e+03 1.829833030700683594e+01 7.894250869750976562e+00 1.420895606279373169e-01 7.434265315532684326e-02 6.492966413497924805e-02 8.839335292577743530e-02
3.705000000000000000e+03 2.688684844970703125e+01 1.670124626159667969e+01 -1.572849035263061523e+00 2.794851064682006836e-01 -3.880091905593872070e-01 5.430649518966674805e-01
3.706000000000000000e+03 7.663293457031250000e+01 -2.350793457031250000e+01 -1.035194173455238342e-01 7.483010292053222656e+00 2.213847398757934570e+00 1.625842452049255371e-01
3.707000000000000000e+03 3.935630416870117188e+01 1.480714702606201172e+01 -1.466011524200439453e+00 4.616867899894714355e-01 -3.012974262237548828e-01 1.018030121922492981e-01
3.708000000000000000e+03 3.965839004516601562e+01 1.740264511108398438e+01 -1.016930937767028809e+00 5.025628805160522461e-01 -1.543104350566864014e-01 -7.818655669689178467e-02
3.709000000000000000e+03 4.692593574523925781e+00 7.842410564422607422e+00 2.938656210899353027e-01 9.943456053733825684e-01 3.864633738994598389e-01 -1.363608002662658691e+00
3.710000000000000000e+03 6.322899341583251953e+00 1.651503562927246094e+01 -4.011558592319488525e-01 6.371019482612609863e-01 7.078382372856140137e-02 -2.515769302845001221e-01
3.711000000000000000e+03 5.196744441986083984e+00 -8.100240707397460938e+00 -2.396980300545692444e-02 -2.184064127504825592e-02 -1.374313328415155411e-02 -4.304308444261550903e-02
3.712000000000000000e+03 5.963110733032226562e+01 -2.837539291381835938e+01 -1.830624043941497803e-01 5.049012660980224609e+00 1.459785103797912598e+00 9.525512158870697021e-02
3.713000000000000000e+03 5.994965362548828125e+01 -2.716012191772460938e+01 -5.623565912246704102e-01 5.187311649322509766e+00 1.387486457824707031e+00 -1.426491290330886841e-01
3.714000000000000000e+03 3.707857513427734375e+01 -2.366183853149414062e+01 4.210428148508071899e-02 1.781566381454467773e+00 5.471011996269226074e-01 4.656980335712432861e-01
3.715000000000000000e+03 7.166747570037841797e+00 3.057458496093750000e+01 1.482796389609575272e-02 3.491425514221191406e-01 1.091911569237709045e-01 2.000768780708312988e-01
3.716000000000000000e+03 7.545539855957031250e+01 1.593742752075195312e+01 4.478652477264404297e-01 5.870645999908447266e+00 1.895553350448608398e+00 -4.155844151973724365e-01
3.717000000000000000e+03 7.367794036865234375e+01 1.638088226318359375e+01 8.219668269157409668e-01 5.682314395904541016e+00 1.951284289360046387e+00 -8.651991188526153564e-02
3.718000000000000000e+03 5.179226684570312500e+01 2.138699340820312500e+01 -1.046735644340515137e+00 6.279024124145507812e+00 1.569686532020568848e+00 -6.539993286132812500e-01
3.719000000000000000e+03 4.857017135620117188e+01 -2.851165390014648438e+01 1.320549994707107544e-01 2.619825124740600586e+00 8.255640268325805664e-01 -7.698074728250503540e-02
3.720000000000000000e+03 5.581220626831054688e+01 -7.185244560241699219e+00 -1.234248206019401550e-01 6.475866794586181641e+00 1.905732512474060059e+00 -1.347359776496887207e+00
3.721000000000000000e+03 2.303390502929687500e+01 2.575319290161132812e+01 -2.142876684665679932e-01 -2.935592234134674072e-01 -1.523540616035461426e-01 1.729608923196792603e-01
3.722000000000000000e+03 6.280550956726074219e+00 -9.296670913696289062e+00 -3.044569678604602814e-02 -1.972273737192153931e-02 -1.505053043365478516e-02 -6.044672429561614990e-02
3.723000000000000000e+03 5.467197418212890625e+00 -1.000910282135009766e+01 -3.324100375175476074e-02 -3.212160989642143250e-02 -1.960878260433673859e-02 -6.123297289013862610e-02
3.724000000000000000e+03 5.756722450256347656e+00 7.378201961517333984e+00 3.661859929561614990e-01 2.012694358825683594e+00 7.136641144752502441e-01 -1.504079222679138184e+00
3.725000000000000000e+03 5.036006927490234375e+01 2.436705780029296875e+01 -6.408184170722961426e-01 4.622641086578369141e+00 1.194546818733215332e+00 -6.714843511581420898e-01
3.726000000000000000e+03 2.625733757019042969e+01 1.979209327697753906e+01 -1.230468988418579102e+00 -1.016343384981155396e-01 -3.996309936046600342e-01 6.432254612445831299e-02
3.727000000000000000e+03 4.577954769134521484e+00 -6.370760917663574219e+00 -1.875692792236804962e-02 -1.101035531610250473e-02 -8.930184878408908844e-03 -2.357924729585647583e-02
3.728000000000000000e+03 2.008185195922851562e+01 1.711190605163574219e+01 -1.521377921104431152e+00 -2.066387087106704712e-01 -5.184050202369689941e-01 -2.720361948013305664e-01
3.729000000000000000e+03 8.820069313049316406e+00 8.004521369934082031e+00 -3.201907873153686523e-01 1.216687083244323730e+00 2.689488828182220459e-01 1.980673670768737793e-01
3.730000000000000000e+03 2.657515525817871094e+01 2.053306007385253906e+01 -1.080652117729187012e+00 -1.344921141862869263e-01 -3.645432591438293457e-01 8.279743045568466187e-02
3.731000000000000000e+03 2.486813163757324219e+01 1.803442382812500000e+01 -1.796821355819702148e+00 -3.990191221237182617e-01 -6.587521433830261230e-01 -5.900466442108154297e-02
3.732000000000000000e+03 5.376395416259765625e+01 2.299048423767089844e+01 -6.529545187950134277e-01 5.808254718780517578e+00 1.546589970588684082e+00 1.370100677013397217e-01
3.733000000000000000e+03 6.551620483398437500e+01 -2.819532775878906250e+01 -1.813760027289390564e-02 5.415060520172119141e+00 1.619076848030090332e+00 -2.693044841289520264e-01
3.734000000000000000e+03 7.192343139648437500e+01 1.671621322631835938e+01 9.237691164016723633e-01 5.922808647155761719e+00 2.053973436355590820e+00 4.552836418151855469e-01
3.735000000000000000e+03 3.751609802246093750e+00 1.412337684631347656e+01 -2.849199175834655762e-01 5.973673462867736816e-01 9.373423457145690918e-02 -5.167999267578125000e-01
3.736000000000000000e+03 4.857541656494140625e+01 -2.723014831542968750e+01 6.772086769342422485e-02 2.473266601562500000e+00 7.622962594032287598e-01 -3.580872341990470886e-02
3.737000000000000000e+03 4.727883529663085938e+01 -2.852885055541992188e+01 -5.374438129365444183e-03 2.548349380493164062e+00 7.628924250602722168e-01 -7.209020107984542847e-02
3.738000000000000000e+03 4.285396099090576172e+00 1.312447071075439453e+01 -3.794071376323699951e-01 6.720067858695983887e-01 8.777989447116851807e-02 -6.347115635871887207e-01
3.739000000000000000e+03 9.030117034912109375e+00 3.280469131469726562e+01 7.365778088569641113e-02 2.241707593202590942e-01 8.934856206178665161e-02 2.033490240573883057e-01
3.740000000000000000e+03 3.452734756469726562e+01 -2.219917488098144531e+01 2.331363409757614136e-01 1.154273152351379395e+00 4.162228405475616455e-01 3.781431615352630615e-01
3.741000000000000000e+03 7.301964569091796875e+01 -3.041757583618164062e+01 9.395784884691238403e-02 6.550080776214599609e+00 1.993211627006530762e+00 1.104611754417419434e-01
3.742000000000000000e+03 1.130095481872558594e+01 1.137058353424072266e+01 -5.306381583213806152e-01 1.710734069347381592e-01 -1.078694313764572144e-01 -1.674618870019912720e-01
3.743000000000000000e+03 6.902247619628906250e+01 -2.715408706665039062e+01 2.455547899007797241e-01 5.698699474334716797e+00 1.783276319503784180e+00 -4.670565575361251831e-02
3.744000000000000000e+03 5.625745296478271484e+00 7.752840042114257812e+00 1.521218419075012207e-01 1.814374446868896484e+00 5.899488925933837891e-01 -1.404965877532958984e+00
3.745000000000000000e+03 2.966942214965820312e+01 2.595110130310058594e+01 -1.714998036623001099e-01 -1.523376442492008209e-02 -5.602006986737251282e-02 5.933655798435211182e-02
3.746000000000000000e+03 1.573220157623291016e+01 -1.336268997192382812e+01 -1.498614400625228882e-01 8.639359474182128906e-02 -1.904035545885562897e-02 -1.367634385824203491e-01
3.747000000000000000e+03 7.282287597656250000e+01 2.133065795898437500e+01 1.367433965206146240e-01 6.397402763366699219e+00 1.960243821144104004e+00 3.342763185501098633e-01
3.748000000000000000e+03 7.156591033935546875e+01 2.117487144470214844e+01 9.571016579866409302e-02 6.527961730957031250e+00 1.987101554870605469e+00 2.889594435691833496e-01
3.749000000000000000e+03 1.076841449737548828e+01 -9.896711349487304688e+00 -1.112630665302276611e-01 3.051667101681232452e-02 -2.422391995787620544e-02 -8.283946663141250610e-02
3.750000000000000000e+03 1.202765941619873047e+01 -9.988741874694824219e+00 -1.310259550809860229e-01 4.853259399533271790e-02 -2.474800869822502136e-02 -8.550485223531723022e-02
3.751000000000000000e+03 2.048136329650878906e+01 2.680652236938476562e+01 -1.123341917991638184e-01 -2.605640590190887451e-01 -1.118694767355918884e-01 2.174999564886093140e-01
3.752000000000000000e+03 2.132063674926757812e+01 2.595798492431640625e+01 -2.008174955844879150e-01 -2.857654094696044922e-01 -1.459748744964599609e-01 2.193787246942520142e-01
3.753000000000000000e+03 1.198003673553466797e+01 2.873157882690429688e+01 -2.735415101051330566e-02 1.090945005416870117e-01 2.452210523188114166e-02 2.533974051475524902e-01
3.754000000000000000e+03 1.776825332641601562e+01 -2.526403236389160156e+01 7.581617683172225952e-02 2.345180660486221313e-01 9.310027211904525757e-02 -1.469056308269500732e-01
3.755000000000000000e+03 3.484705352783203125e+01 2.307106018066406250e+01 -2.193525433540344238e-01 2.092702388763427734e-01 -3.024691715836524963e-03 -5.492553487420082092e-02
3.756000000000000000e+03 3.380806350708007812e+01 2.408933448791503906e+01 -2.745983600616455078e-01 2.102958261966705322e-01 -1.929076015949249268e-02 -3.786851465702056885e-02
3.757000000000000000e+03 2.850901031494140625e+01 -2.308605957031250000e+01 6.641477346420288086e-02 7.451678514480590820e-01 2.434747815132141113e-01 -6.059436500072479248e-02
3.758000000000000000e+03 8.683891296386718750e+00 8.359233856201171875e+00 -3.359977602958679199e-01 1.353874087333679199e+00 3.053629100322723389e-01 1.354962736368179321e-01
3.759000000000000000e+03 6.031333446502685547e+00 -8.176012992858886719e+00 -3.091181255877017975e-02 -1.283592823892831802e-02 -1.312432251870632172e-02 -4.697441309690475464e-02
3.760000000000000000e+03 6.240418910980224609e+00 -7.477093219757080078e+00 -3.557375073432922363e-02 -1.352285593748092651e-02 -1.472898200154304504e-02 -4.463697969913482666e-02
3.761000000000000000e+03 1.889184570312500000e+01 1.624546813964843750e+01 -1.306374549865722656e+00 -2.084763050079345703e-01 -4.544552862644195557e-01 -4.005571603775024414e-01
3.762000000000000000e+03 1.861269760131835938e+01 1.602123451232910156e+01 -1.260969161987304688e+00 -2.090343534946441650e-01 -4.410010874271392822e-01 -4.208492934703826904e-01
3.763000000000000000e+03 1.824076080322265625e+01 1.560923480987548828e+01 -1.181345343589782715e+00 -2.344733923673629761e-01 -4.247455894947052002e-01 -4.610815346240997314e-01
3.764000000000000000e+03 3.093311119079589844e+01 2.571396446228027344e+01 -1.712416261434555054e-01 4.981259256601333618e-02 -3.642870858311653137e-02 3.607396408915519714e-02
3.765000000000000000e+03 5.517663574218750000e+01 2.280635833740234375e+01 -4.373147487640380859e-01 5.640177726745605469e+00 1.560858845710754395e+00 6.362710595130920410e-01
3.766000000000000000e+03 4.619483947753906250e+01 -2.261742973327636719e+01 -4.492766857147216797e-01 2.428698778152465820e+00 5.938266515731811523e-01 -7.015889286994934082e-01
3.767000000000000000e+03 6.291847229003906250e+00 -1.402630901336669922e+01 -2.857496775686740875e-02 -5.810932070016860962e-02 -2.600528672337532043e-02 -1.075548231601715088e-01
3.768000000000000000e+03 2.653289985656738281e+01 2.133322715759277344e+01 -8.964797258377075195e-01 -1.741497665643692017e-01 -3.211888372898101807e-01 8.322614431381225586e-02
3.769000000000000000e+03 2.529511260986328125e+01 2.166529846191406250e+01 -8.102631568908691406e-01 -3.014807105064392090e-01 -3.335231542587280273e-01 6.783291697502136230e-02
3.770000000000000000e+03 2.942570877075195312e+01 -2.071330451965332031e+01 6.867506355047225952e-02 7.012062072753906250e-01 2.309643775224685669e-01 -5.473406240344047546e-02
3.771000000000000000e+03 2.863071823120117188e+01 -2.184187316894531250e+01 8.623965084552764893e-02 7.103804349899291992e-01 2.389860302209854126e-01 -6.635714322328567505e-02
3.772000000000000000e+03 9.466283798217773438e+00 9.753575325012207031e+00 -4.686386287212371826e-01 7.107151150703430176e-01 7.262294739484786987e-02 -7.316994015127420425e-03
3.773000000000000000e+03 6.030736923217773438e+01 2.433183097839355469e+01 1.836952716112136841e-01 5.285696983337402344e+00 1.640817642211914062e+00 4.788066446781158447e-01
3.774000000000000000e+03 1.720652580261230469e+01 -1.582917881011962891e+01 -7.837799936532974243e-02 1.315327584743499756e-01 1.594642549753189087e-02 -1.376798152923583984e-01
3.775000000000000000e+03 1.669230270385742188e+01 -1.648231887817382812e+01 -6.659726798534393311e-02 1.364253759384155273e-01 2.094843238592147827e-02 -1.581011414527893066e-01
3.776000000000000000e+03 1.746882247924804688e+01 -1.656067657470703125e+01 -7.965617626905441284e-02 1.425377279520034790e-01 1.886446401476860046e-02 -1.498657912015914917e-01
3.777000000000000000e+03 1.627645683288574219e+01 -2.487892913818359375e+01 5.131048709154129028e-02 1.698440462350845337e-01 6.634635478258132935e-02 -1.553777456283569336e-01
3.778000000000000000e+03 7.141802978515625000e+01 2.249343872070312500e+01 5.715905502438545227e-02 6.435804367065429688e+00 1.947888970375061035e+00 3.070548474788665771e-01
3.779000000000000000e+03 6.538883209228515625e+01 2.348754882812500000e+01 1.289579123258590698e-01 5.873073101043701172e+00 1.800609230995178223e+00 -4.432913288474082947e-02
3.780000000000000000e+03 9.913930892944335938e+00 2.650314331054687500e+01 -9.618524461984634399e-02 2.359115630388259888e-01 4.191789776086807251e-02 2.196964919567108154e-01
3.781000000000000000e+03 1.043137550354003906e+01 -1.161092948913574219e+01 -8.822364360094070435e-02 2.161531336605548859e-02 -1.998250000178813934e-02 -1.114010736346244812e-01
3.782000000000000000e+03 2.127454376220703125e+01 -1.652068710327148438e+01 -1.240716055035591125e-01 3.144204914569854736e-01 5.710466951131820679e-02 -6.187203526496887207e-02
3.783000000000000000e+03 2.262161445617675781e+01 -1.589048194885253906e+01 -1.168503165245056152e-01 3.523773849010467529e-01 7.065811753273010254e-02 -1.972547173500061035e-02
3.784000000000000000e+03 2.029745674133300781e+01 -1.829626464843750000e+01 -5.887409299612045288e-02 2.915728688240051270e-01 6.980963051319122314e-02 -1.055385693907737732e-01
3.785000000000000000e+03 2.086622428894042969e+01 -1.948464012145996094e+01 -4.846737906336784363e-02 3.119417130947113037e-01 7.904230058193206787e-02 -1.240371167659759521e-01
3.786000000000000000e+03 6.138960838317871094e+00 1.000304698944091797e+01 -6.047842502593994141e-01 1.410314083099365234e+00 2.416589260101318359e-01 -7.451751232147216797e-01
3.787000000000000000e+03 1.103487014770507812e+01 1.172929954528808594e+01 -5.647804737091064453e-01 2.622559368610382080e-01 -9.075736254453659058e-02 -1.718193441629409790e-01
3.788000000000000000e+03 2.849347877502441406e+01 -2.089032745361328125e+01 -3.265334293246269226e-02 7.027447223663330078e-01 2.010274231433868408e-01 -9.413716197013854980e-02
3.789000000000000000e+03 9.191104888916015625e+00 -6.027652740478515625e+00 -6.259427219629287720e-02 1.485058106482028961e-02 -1.432310696691274643e-02 -2.805418521165847778e-02
3.790000000000000000e+03 8.625450134277343750e+00 1.006787300109863281e+01 -5.607845783233642578e-01 1.086238980293273926e+00 1.576363444328308105e-01 -9.986957907676696777e-02
3.791000000000000000e+03 7.760334491729736328e+00 -1.390296554565429688e+01 -3.722633793950080872e-02 -3.248423337936401367e-02 -2.091317065060138702e-02 -1.162590309977531433e-01
3.792000000000000000e+03 1.912421607971191406e+01 2.192931747436523438e+01 -6.462478041648864746e-01 -2.503075599670410156e-01 -2.689666152000427246e-01 2.047185897827148438e-01
3.793000000000000000e+03 1.558928203582763672e+01 -1.893482780456542969e+01 -2.432621642947196960e-02 1.129598617553710938e-01 2.659009397029876709e-02 -1.717231571674346924e-01
3.794000000000000000e+03 2.047712516784667969e+01 -2.392511367797851562e+01 4.673036932945251465e-02 3.347531259059906006e-01 1.144450455904006958e-01 -1.382886171340942383e-01
3.795000000000000000e+03 8.083306312561035156e+00 1.431791210174560547e+01 -6.087762713432312012e-01 6.959178447723388672e-01 2.614247240126132965e-02 -2.729267179965972900e-01
3.796000000000000000e+03 1.972727775573730469e+01 -1.979855537414550781e+01 -8.501415140926837921e-03 2.741252183914184570e-01 7.968713343143463135e-02 -1.320922821760177612e-01
3.797000000000000000e+03 8.813180923461914062e+00 2.047660446166992188e+01 -3.381404280662536621e-01 4.002500474452972412e-01 1.863288506865501404e-02 3.627686575055122375e-02
3.798000000000000000e+03 1.025880527496337891e+01 2.392258644104003906e+01 -2.225018441677093506e-01 2.506653964519500732e-01 8.449062705039978027e-03 1.765460669994354248e-01
3.799000000000000000e+03 9.726732254028320312e+00 2.073784637451171875e+01 -3.681921958923339844e-01 3.432964682579040527e-01 -7.468714844435453415e-03 6.006702780723571777e-02
3.800000000000000000e+03 8.708735466003417969e+00 -1.386620235443115234e+01 -4.988613724708557129e-02 -2.256403863430023193e-02 -2.173505350947380066e-02 -1.298686116933822632e-01
3.801000000000000000e+03 1.892986679077148438e+01 2.319106101989746094e+01 -4.863678216934204102e-01 -2.451121658086776733e-01 -2.194439917802810669e-01 2.336719185113906860e-01
3.802000000000000000e+03 1.764871978759765625e+01 -2.130659103393554688e+01 -2.757406618911772966e-04 1.996869891881942749e-01 5.982337519526481628e-02 -1.587454527616500854e-01
3.803000000000000000e+03 1.682219123840332031e+01 -2.199760055541992188e+01 1.809149608016014099e-02 1.775507181882858276e-01 5.869266390800476074e-02 -1.603045910596847534e-01
3.804000000000000000e+03 1.753873634338378906e+01 1.852061462402343750e+01 -9.834489822387695312e-01 -1.250413954257965088e-01 -3.325470983982086182e-01 -4.825084656476974487e-02
3.805000000000000000e+03 1.679519462585449219e+01 1.827489089965820312e+01 -9.263175129890441895e-01 -9.846476465463638306e-02 -3.074346780776977539e-01 -6.717011332511901855e-02
3.806000000000000000e+03 7.419287204742431641e+00 1.689702987670898438e+01 -4.437997043132781982e-01 5.788046121597290039e-01 4.050147905945777893e-02 -1.826012432575225830e-01
3.807000000000000000e+03 9.454550743103027344e+00 1.344959354400634766e+01 -6.419380903244018555e-01 5.808349251747131348e-01 -1.833095028996467590e-02 -1.902682632207870483e-01
3.808000000000000000e+03 9.753942489624023438e+00 -1.453357505798339844e+01 -4.918921366333961487e-02 -7.550786249339580536e-03 -1.702200062572956085e-02 -1.454659104347229004e-01
3.809000000000000000e+03 1.031489944458007812e+01 -1.751801490783691406e+01 -2.980332262814044952e-02 -1.744206622242927551e-02 -1.417361665517091751e-02 -1.623387932777404785e-01
3.810000000000000000e+03 8.604066848754882812e+00 1.669757652282714844e+01 -4.976046681404113770e-01 5.246911048889160156e-01 8.125930093228816986e-03 -1.535445451736450195e-01
3.811000000000000000e+03 8.257157325744628906e+00 1.477786159515380859e+01 -5.803286433219909668e-01 6.407203674316406250e-01 1.811750791966915131e-02 -2.410192042589187622e-01
3.812000000000000000e+03 1.736960792541503906e+01 1.929125404357910156e+01 -8.921775817871093750e-01 -1.175966411828994751e-01 -3.029322624206542969e-01 3.173980861902236938e-02
3.813000000000000000e+03 1.650298881530761719e+01 1.910835456848144531e+01 -8.345717787742614746e-01 -7.753378897905349731e-02 -2.736316621303558350e-01 1.464159507304430008e-02
3.814000000000000000e+03 1.594674110412597656e+01 1.951146316528320312e+01 -7.510551214218139648e-01 -4.845103621482849121e-02 -2.398518472909927368e-01 4.534224420785903931e-02
3.815000000000000000e+03 1.059220981597900391e+01 1.479207324981689453e+01 -6.473184227943420410e-01 3.759993612766265869e-01 -8.139571547508239746e-02 -1.498937010765075684e-01
3.816000000000000000e+03 1.023730564117431641e+01 1.071788787841796875e+01 -5.062393546104431152e-01 4.337652623653411865e-01 -2.174222841858863831e-02 -8.863658457994461060e-02
3.817000000000000000e+03 9.983608245849609375e+00 -1.876139068603515625e+01 -1.421705633401870728e-02 -2.108768187463283539e-02 -1.059142127633094788e-02 -1.653779447078704834e-01
3.818000000000000000e+03 1.106098556518554688e+01 -1.930357551574707031e+01 -1.350669376552104950e-02 -7.501196581870317459e-03 -6.302366964519023895e-03 -1.690177619457244873e-01
3.819000000000000000e+03 1.229875183105468750e+01 -1.814530563354492188e+01 -2.898140624165534973e-02 2.578605525195598602e-02 -9.586057858541607857e-04 -1.725068241357803345e-01
3.820000000000000000e+03 1.090589904785156250e+01 2.130896186828613281e+01 -3.943640589714050293e-01 2.563149034976959229e-01 -4.141474887728691101e-02 1.022608503699302673e-01
3.821000000000000000e+03 1.138454055786132812e+01 2.027984428405761719e+01 -4.657555818557739258e-01 2.418301105499267578e-01 -6.717764586210250854e-02 6.699545681476593018e-02
3.822000000000000000e+03 1.021594524383544922e+01 2.316755294799804688e+01 -2.701116800308227539e-01 2.651551961898803711e-01 -1.486943918280303478e-03 1.591145545244216919e-01
3.823000000000000000e+03 1.511103248596191406e+01 2.081435966491699219e+01 -5.920720100402832031e-01 -5.932627711445093155e-03 -1.794013977050781250e-01 1.214860007166862488e-01
3.824000000000000000e+03 1.062681674957275391e+01 1.860449981689453125e+01 -5.136882066726684570e-01 3.201109170913696289e-01 -5.807318165898323059e-02 -1.341479085385799408e-02
3.825000000000000000e+03 1.547685527801513672e+01 2.008230972290039062e+01 -6.832495331764221191e-01 -2.640288509428501129e-02 -2.128957211971282959e-01 8.754496276378631592e-02
3.826000000000000000e+03 9.191230773925781250e+00 1.726581573486328125e+01 -5.191684365272521973e-01 4.561114013195037842e-01 -1.891710795462131500e-02 -1.025155931711196899e-01
3.827000000000000000e+03 1.232264137268066406e+01 2.074810218811035156e+01 -4.688013792037963867e-01 1.729884445667266846e-01 -8.874388039112091064e-02 9.901107847690582275e-02
3.828000000000000000e+03 1.215193367004394531e+01 2.018552589416503906e+01 -4.947534799575805664e-01 1.910716444253921509e-01 -9.110455214977264404e-02 7.037187367677688599e-02
3.829000000000000000e+03 1.066971778869628906e+01 1.726901817321777344e+01 -5.724490880966186523e-01 3.393812775611877441e-01 -6.992034614086151123e-02 -7.263800501823425293e-02
3.830000000000000000e+03 1.051643085479736328e+01 1.651437187194824219e+01 -6.053910851478576660e-01 3.608590066432952881e-01 -7.335962355136871338e-02 -1.014586687088012695e-01
3.831000000000000000e+03 1.017908859252929688e+01 1.697746086120605469e+01 -5.673498511314392090e-01 3.854742944240570068e-01 -5.456265807151794434e-02 -8.702834695577621460e-02
3.832000000000000000e+03 2.278519248962402344e+01 4.336736679077148438e+00 -7.114775478839874268e-02 -5.957613699138164520e-03 -2.313161082565784454e-02 -3.337435051798820496e-02
3.833000000000000000e+03 2.237296104431152344e+01 5.228995800018310547e+00 -2.255404740571975708e-01 3.110455721616744995e-02 -5.833077430725097656e-02 -1.258369237184524536e-01
3.834000000000000000e+03 2.296463775634765625e+01 5.061003684997558594e+00 -1.701679080724716187e-01 -4.258022084832191467e-02 -6.382443755865097046e-02 -1.304466873407363892e-01
3.835000000000000000e+03 2.181128120422363281e+01 5.367943763732910156e+00 -2.626007497310638428e-01 4.210860654711723328e-02 -6.614764779806137085e-02 -1.206197291612625122e-01
3.836000000000000000e+03 2.188846778869628906e+01 4.396835327148437500e+00 -2.059029787778854370e-01 1.505889371037483215e-02 -5.725322291254997253e-02 -3.099435009062290192e-02
3.837000000000000000e+03 2.347072982788085938e+01 4.829167842864990234e+00 -4.182424396276473999e-02 -6.484894454479217529e-02 -3.200195729732513428e-02 -5.577003955841064453e-02
3.838000000000000000e+03 2.183393478393554688e+01 4.918408393859863281e+00 -2.463442385196685791e-01 2.277538366615772247e-02 -6.707065552473068237e-02 -9.507108479738235474e-02
3.839000000000000000e+03 1.616006088256835938e+01 5.774148464202880859e+00 -1.615812182426452637e-01 7.396472990512847900e-02 -2.628494799137115479e-02 -3.475052118301391602e-02
3.840000000000000000e+03 1.581365013122558594e+01 5.646933555603027344e+00 -2.417501509189605713e-01 -7.556943595409393311e-02 -9.519587457180023193e-02 -2.688603661954402924e-02
3.841000000000000000e+03 1.514424705505371094e+01 4.567477703094482422e+00 -1.473702669143676758e+00 -1.129672974348068237e-01 -4.760009944438934326e-01 -2.160344086587429047e-02
3.842000000000000000e+03 1.594058322906494141e+01 4.807260036468505859e+00 -9.621639847755432129e-01 1.028533652424812317e-01 -2.577931880950927734e-01 -6.496610492467880249e-02
3.843000000000000000e+03 1.573093700408935547e+01 4.569030761718750000e+00 -1.251375555992126465e+00 9.752491116523742676e-02 -3.461551964282989502e-01 -4.449229221791028976e-03
3.844000000000000000e+03 1.596829795837402344e+01 5.811665058135986328e+00 -6.030768901109695435e-02 -9.412746876478195190e-02 -4.633054882287979126e-02 -1.170284226536750793e-01
3.845000000000000000e+03 1.797182083129882812e+01 5.740066528320312500e+00 -2.940486669540405273e-01 -5.212607607245445251e-02 -1.038524210453033447e-01 -7.981316745281219482e-02
3.846000000000000000e+03 1.736311531066894531e+01 5.421857357025146484e+00 -4.309049844741821289e-01 -7.238395512104034424e-02 -1.509866714477539062e-01 -8.088552206754684448e-02
3.847000000000000000e+03 1.677700042724609375e+01 5.747574329376220703e+00 -2.488071620464324951e-01 -8.027898520231246948e-02 -9.872584044933319092e-02 -8.197857439517974854e-02
3.848000000000000000e+03 1.697605895996093750e+01 5.738931655883789062e+00 -2.573888599872589111e-01 3.109350427985191345e-02 -6.788860261440277100e-02 -6.850653886795043945e-02
3.849000000000000000e+03 1.835842514038085938e+01 5.526977539062500000e+00 -3.452854156494140625e-01 1.430711522698402405e-02 -9.929349273443222046e-02 -5.804616957902908325e-02
3.850000000000000000e+03 1.519557094573974609e+01 5.824913024902343750e+00 1.373105049133300781e-01 -6.640159338712692261e-02 2.127267234027385712e-02 2.155855670571327209e-02
3.851000000000000000e+03 1.451971340179443359e+01 5.691943168640136719e+00 6.993970274925231934e-01 -6.769930943846702576e-03 2.077881246805191040e-01 5.695372447371482849e-02
3.852000000000000000e+03 1.414959430694580078e+01 4.676321029663085938e+00 -1.992436408996582031e+00 1.439193338155746460e-01 -5.545551180839538574e-01 -1.119384169578552246e-01
3.853000000000000000e+03 1.406312847137451172e+01 5.281231880187988281e+00 -5.275305733084678650e-02 2.460465207695960999e-02 -8.444520644843578339e-03 -1.638366095721721649e-02
3.854000000000000000e+03 1.393674087524414062e+01 4.679596424102783203e+00 -2.206335544586181641e+00 -1.691837012767791748e-01 -7.126557826995849609e-01 -1.260661333799362183e-01
3.855000000000000000e+03 1.315385055541992188e+01 5.143614768981933594e+00 1.240513205528259277e+00 -1.368806213140487671e-01 3.310897648334503174e-01 5.634940862655639648e-01
3.856000000000000000e+03 1.254815196990966797e+01 4.657299518585205078e+00 -5.600763797760009766e+00 7.703946828842163086e-01 -1.449110746383666992e+00 -9.881873130798339844e-01
3.857000000000000000e+03 1.204121589660644531e+01 4.693685531616210938e+00 7.739482402801513672e+00 1.014275074005126953e+00 2.626127243041992188e+00 1.915042281150817871e+00
3.858000000000000000e+03 1.217604160308837891e+01 4.607882976531982422e+00 -1.227414894104003906e+01 1.563743233680725098e+00 -3.213121652603149414e+00 -1.264246702194213867e-01
3.859000000000000000e+03 1.177164936065673828e+01 4.607654094696044922e+00 -1.190570926666259766e+01 1.650565266609191895e+00 -3.076543092727661133e+00 1.316248536109924316e+00
3.860000000000000000e+03 1.119381237030029297e+01 4.632994651794433594e+00 -7.751440048217773438e+00 -2.327219963073730469e+00 -3.023597955703735352e+00 -1.001622676849365234e+00
3.861000000000000000e+03 1.086434650421142578e+01 4.751682758331298828e+00 -2.665252208709716797e+00 -1.218110561370849609e+00 -1.165008783340454102e+00 -6.138414144515991211e-01
3.862000000000000000e+03 9.991584777832031250e+00 4.788983345031738281e+00 -1.376867771148681641e+00 -1.009037852287292480e+00 -7.157716751098632812e-01 3.066115379333496094e-01
3.863000000000000000e+03 9.177906036376953125e+00 5.039853572845458984e+00 -1.341350317001342773e+00 1.607288569211959839e-01 -3.541864454746246338e-01 -3.709905743598937988e-01
3.864000000000000000e+03 1.057009887695312500e+01 5.053246021270751953e+00 1.631005167961120605e+00 1.202188372611999512e+00 8.499580621719360352e-01 7.419565916061401367e-01
3.865000000000000000e+03 9.967123031616210938e+00 5.973031044006347656e+00 4.921304062008857727e-02 -3.076480329036712646e-01 -7.753049582242965698e-02 -2.576600909233093262e-01
3.866000000000000000e+03 9.387690544128417969e+00 6.048799991607666016e+00 3.740603327751159668e-01 2.064486891031265259e-01 1.741527020931243896e-01 -1.987551711499691010e-02
3.867000000000000000e+03 8.580166816711425781e+00 5.852465629577636719e+00 6.019832491874694824e-01 1.122842073440551758e+00 5.174475908279418945e-01 6.063278913497924805e-01
3.868000000000000000e+03 1.038601207733154297e+01 5.549104213714599609e+00 -7.519868612289428711e-01 8.380925655364990234e-02 -2.004532814025878906e-01 -8.927925676107406616e-02
3.869000000000000000e+03 1.037633228302001953e+01 5.927201747894287109e+00 7.280260324478149414e-01 -4.474858343601226807e-01 8.416206389665603638e-02 -2.400573492050170898e-01
3.870000000000000000e+03 1.178228664398193359e+01 4.151885032653808594e+00 9.750802040100097656e+00 5.631120502948760986e-02 2.942133903503417969e+00 -7.807232737541198730e-01
3.871000000000000000e+03 1.201347732543945312e+01 4.412954807281494141e+00 1.072712707519531250e+01 2.021515555679798126e-02 3.224202632904052734e+00 -6.362755894660949707e-01
3.872000000000000000e+03 1.141267204284667969e+01 4.456665039062500000e+00 1.126604938507080078e+01 5.864254757761955261e-02 3.397407531738281250e+00 -6.692564487457275391e-01
3.873000000000000000e+03 1.053464984893798828e+01 3.280487298965454102e+00 6.437402248382568359e+00 3.489541411399841309e-01 2.035906791687011719e+00 -1.546723723411560059e+00
3.874000000000000000e+03 1.100713825225830078e+01 3.426152706146240234e+00 6.811826705932617188e+00 2.504070997238159180e-01 2.118669986724853516e+00 -1.359603166580200195e+00
3.875000000000000000e+03 9.952403068542480469e+00 3.489192008972167969e+00 7.691819667816162109e+00 4.247967302799224854e-01 2.434984922409057617e+00 -1.784609913825988770e+00
3.876000000000000000e+03 1.027915000915527344e+01 3.578614711761474609e+00 8.138214111328125000e+00 3.456084430217742920e-01 2.545146703720092773e+00 -1.542734503746032715e+00
3.877000000000000000e+03 9.375098228454589844e+00 4.512846946716308594e+00 1.368148040771484375e+01 6.810028851032257080e-02 4.124874114990234375e+00 -9.277339577674865723e-01
3.878000000000000000e+03 9.929833412170410156e+00 3.260462284088134766e+00 6.459598064422607422e+00 5.629217624664306641e-01 2.106755971908569336e+00 -1.891769170761108398e+00
3.879000000000000000e+03 9.533149719238281250e+00 3.285603046417236328e+00 7.159437179565429688e+00 8.962238430976867676e-01 2.416698217391967773e+00 -1.950518369674682617e+00
3.880000000000000000e+03 9.145871162414550781e+00 3.256834745407104492e+00 6.270316600799560547e+00 1.443976759910583496e+00 2.314287900924682617e+00 -1.852323770523071289e+00
3.881000000000000000e+03 8.159632682800292969e+00 3.618273973464965820e+00 7.222988605499267578e+00 5.119404315948486328e+00 3.702718019485473633e+00 -2.201470136642456055e+00
3.882000000000000000e+03 7.960468769073486328e+00 3.595190048217773438e+00 6.592203140258789062e+00 5.579841613769531250e+00 3.651613473892211914e+00 -1.393003582954406738e+00
3.883000000000000000e+03 7.245788097381591797e+00 3.473473072052001953e+00 5.194703578948974609e+00 3.774154663085937500e+00 2.690657377243041992e+00 1.268002390861511230e+00
3.884000000000000000e+03 6.795026302337646484e+00 4.635333061218261719e+00 7.856288909912109375e+00 2.658172607421875000e+00 3.154338359832763672e+00 -1.927167177200317383e+00
3.885000000000000000e+03 7.027408599853515625e+00 5.761337280273437500e+00 1.691729903221130371e+00 4.944745540618896484e+00 1.990942597389221191e+00 -2.357807159423828125e+00
3.886000000000000000e+03 8.615753173828125000e+00 6.073342800140380859e+00 5.612868070602416992e-01 1.440080881118774414e+00 6.004103422164916992e-01 6.792166829109191895e-01
3.887000000000000000e+03 7.144802570343017578e+00 3.891866922378540039e+00 7.453666687011718750e+00 3.980304479598999023e+00 3.430191278457641602e+00 8.937584757804870605e-01
3.888000000000000000e+03 7.952810287475585938e+00 3.340550899505615234e+00 5.212768554687500000e+00 4.665222644805908203e+00 2.963397264480590820e+00 -8.387824296951293945e-01
3.889000000000000000e+03 9.128972053527832031e+00 3.432450294494628906e+00 7.451035022735595703e+00 1.538266539573669434e+00 2.696790456771850586e+00 -2.192972898483276367e+00
3.890000000000000000e+03 1.209813594818115234e+01 3.217297554016113281e+00 5.200521945953369141e+00 4.571810364723205566e-01 1.697310924530029297e+00 -1.277603268623352051e+00
3.891000000000000000e+03 1.234916687011718750e+01 3.797032594680786133e+00 7.850082874298095703e+00 1.772079616785049438e-01 2.408187150955200195e+00 -7.967961430549621582e-01
3.892000000000000000e+03 1.218157386779785156e+01 4.107395172119140625e+00 9.352138519287109375e+00 6.636257469654083252e-02 2.825550556182861328e+00 -7.342951297760009766e-01
3.893000000000000000e+03 1.252019882202148438e+01 3.489032983779907227e+00 6.273657321929931641e+00 3.420683145523071289e-01 1.984717726707458496e+00 -8.534550070762634277e-01
3.894000000000000000e+03 1.275181293487548828e+01 3.763648271560668945e+00 7.491533279418945312e+00 2.418384253978729248e-01 2.320011377334594727e+00 -6.145758032798767090e-01
3.895000000000000000e+03 1.311797904968261719e+01 3.441242456436157227e+00 5.591261386871337891e+00 4.128155708312988281e-01 1.801223158836364746e+00 -6.341133117675781250e-01
3.896000000000000000e+03 1.322668838500976562e+01 4.347429752349853516e+00 1.034170913696289062e+01 1.100026518106460571e-01 3.135513544082641602e+00 -4.757876396179199219e-01
3.897000000000000000e+03 1.348088741302490234e+01 3.139589786529541016e+00 3.746041536331176758e+00 4.483750462532043457e-01 1.258324980735778809e+00 -6.278364658355712891e-01
3.898000000000000000e+03 1.385774040222167969e+01 4.024142742156982422e+00 8.746991157531738281e+00 1.693115383386611938e-01 2.674890756607055664e+00 -2.112628817558288574e-01
3.899000000000000000e+03 1.428379535675048828e+01 3.103812217712402344e+00 2.724627971649169922e+00 -5.375248193740844727e-01 6.561309695243835449e-01 -4.614841639995574951e-01
3.900000000000000000e+03 1.446327781677246094e+01 4.335777282714843750e+00 1.135128784179687500e+01 1.523799449205398560e-01 3.451100349426269531e+00 -4.666463732719421387e-01
3.901000000000000000e+03 1.408787536621093750e+01 3.134442329406738281e+00 3.165751934051513672e+00 4.553942009806632996e-03 9.510917067527770996e-01 -6.799385547637939453e-01
3.902000000000000000e+03 1.505013465881347656e+01 3.069783449172973633e+00 8.216112256050109863e-01 -1.483659863471984863e+00 -1.986145973205566406e-01 -1.848459243774414062e+00
3.903000000000000000e+03 1.467367172241210938e+01 3.691938877105712891e+00 5.875033855438232422e+00 -6.370657086372375488e-01 1.571390509605407715e+00 -4.273597896099090576e-01
3.904000000000000000e+03 1.488700008392333984e+01 4.100317955017089844e+00 9.353111267089843750e+00 -4.332956075668334961e-01 2.675944805145263672e+00 -6.443526744842529297e-01
3.905000000000000000e+03 1.506117248535156250e+01 3.292469024658203125e+00 2.764042139053344727e+00 -2.030920028686523438e+00 2.199366241693496704e-01 -1.077667117118835449e+00
3.906000000000000000e+03 1.563660430908203125e+01 4.073592662811279297e+00 7.468068599700927734e+00 -8.769134283065795898e-01 1.977346658706665039e+00 -2.725969552993774414e+00
3.907000000000000000e+03 1.570060443878173828e+01 3.391194820404052734e+00 5.847331047058105469e+00 -4.607859611511230469e+00 3.718414306640625000e-01 -3.693469762802124023e+00
3.908000000000000000e+03 1.747788047790527344e+01 2.988172531127929688e+00 1.352995967864990234e+01 2.285744667053222656e+00 4.744711399078369141e+00 -5.721637725830078125e+00
3.909000000000000000e+03 1.778145599365234375e+01 3.321863651275634766e+00 7.425595283508300781e+00 1.216583609580993652e+00 2.592653751373291016e+00 -2.457463264465332031e+00
3.910000000000000000e+03 1.823818206787109375e+01 3.701144933700561523e+00 -7.793579697608947754e-01 3.727317452430725098e-01 -1.219878792762756348e-01 -2.959730029106140137e-01
3.911000000000000000e+03 1.813190841674804688e+01 4.013891220092773438e+00 -4.807002067565917969e+00 9.029658138751983643e-02 -1.415011644363403320e+00 3.822831064462661743e-02
3.912000000000000000e+03 1.766157722473144531e+01 2.971662044525146484e+00 1.135900211334228516e+01 1.456887960433959961e+00 3.844766855239868164e+00 -6.495477199554443359e+00
3.913000000000000000e+03 1.707578468322753906e+01 4.237474441528320312e+00 -5.986464023590087891e+00 3.165790438652038574e-01 -1.700965523719787598e+00 -5.550325512886047363e-01
3.914000000000000000e+03 1.731180953979492188e+01 3.237525463104248047e+00 1.044542312622070312e+01 3.761862039566040039e+00 4.262185573577880859e+00 -3.634205102920532227e+00
3.915000000000000000e+03 1.590273857116699219e+01 3.492482185363769531e+00 5.486986637115478516e+00 -2.898877859115600586e+00 7.764325737953186035e-01 -5.703464984893798828e+00
3.916000000000000000e+03 1.602182579040527344e+01 3.206980705261230469e+00 4.805194854736328125e+00 -5.753290280699729919e-02 1.424298524856567383e+00 -3.082008838653564453e+00
3.917000000000000000e+03 9.991398811340332031e+00 4.450184822082519531e+00 1.258431434631347656e+01 3.127757087349891663e-02 3.784677743911743164e+00 -8.662242293357849121e-01
3.918000000000000000e+03 1.020880126953125000e+01 4.428381919860839844e+00 1.231624317169189453e+01 1.354624778032302856e-01 3.735511541366577148e+00 -8.118953108787536621e-01
3.919000000000000000e+03 9.575849533081054688e+00 4.493034839630126953e+00 1.327261638641357422e+01 4.241257905960083008e-02 3.994508504867553711e+00 -9.157867431640625000e-01
3.920000000000000000e+03 8.711857795715332031e+00 3.973618745803833008e+00 1.165376377105712891e+01 1.949429273605346680e+00 4.080957889556884766e+00 -2.931793689727783203e+00
3.921000000000000000e+03 7.764363765716552734e+00 3.600995302200317383e+00 6.248042583465576172e+00 5.741392612457275391e+00 3.596830606460571289e+00 -4.827419817447662354e-01
3.922000000000000000e+03 6.868286132812500000e+00 5.653252124786376953e+00 2.393583059310913086e+00 4.565351963043212891e+00 2.087680578231811523e+00 -2.747631072998046875e+00
3.923000000000000000e+03 6.887248039245605469e+00 5.486374855041503906e+00 3.131599187850952148e+00 4.609408855438232422e+00 2.322302579879760742e+00 -3.019581794738769531e+00
3.924000000000000000e+03 1.041705417633056641e+01 4.779304504394531250e+00 -2.586842536926269531e+00 -4.066427797079086304e-02 -7.882519960403442383e-01 5.534416437149047852e-01
3.925000000000000000e+03 1.343208599090576172e+01 4.825619697570800781e+00 -1.393506407737731934e+00 -1.524187624454498291e-01 -4.637775421142578125e-01 -3.811385333538055420e-01
3.926000000000000000e+03 1.320153045654296875e+01 4.865326404571533203e+00 -1.509063243865966797e+00 3.699328899383544922e-01 -3.417391180992126465e-01 -5.971426367759704590e-01
3.927000000000000000e+03 1.711088943481445312e+01 4.544080734252929688e+00 -8.989151120185852051e-01 -4.963112622499465942e-02 -2.845638692378997803e-01 6.236487999558448792e-03
3.928000000000000000e+03 1.770216369628906250e+01 4.514860153198242188e+00 -8.052496910095214844e-01 4.782536253333091736e-02 -2.272273004055023193e-01 1.023363228887319565e-02
3.929000000000000000e+03 1.811279106140136719e+01 4.709779262542724609e+00 -6.804791688919067383e-01 -3.920351341366767883e-02 -2.159048020839691162e-01 -1.623914949595928192e-02
3.930000000000000000e+03 1.690458869934082031e+01 5.117562770843505859e+00 -6.049913167953491211e-01 5.742013454437255859e-02 -1.642713546752929688e-01 -6.912767142057418823e-02
3.931000000000000000e+03 1.667145729064941406e+01 4.739771366119384766e+00 -8.512597680091857910e-01 2.308306470513343811e-02 -2.484530061483383179e-01 -5.934971198439598083e-02
3.932000000000000000e+03 1.419455146789550781e+01 5.749517440795898438e+00 8.629140853881835938e-01 6.390704512596130371e-01 4.505953490734100342e-01 2.866814136505126953e-01
3.933000000000000000e+03 6.849956035614013672e+00 4.430759429931640625e+00 8.387189865112304688e+00 2.543792963027954102e+00 3.279294729232788086e+00 -9.659742116928100586e-01
3.934000000000000000e+03 1.706856346130371094e+01 3.690114974975585938e+00 3.242725372314453125e+00 2.810091018676757812e+00 1.815844893455505371e+00 -3.515256404876708984e+00
3.935000000000000000e+03 1.189412403106689453e+01 3.230843782424926758e+00 5.502902030944824219e+00 2.883704900741577148e-01 1.737381696701049805e+00 -1.317502260208129883e+00
3.936000000000000000e+03 8.579710006713867188e+00 3.355633020401000977e+00 6.493249893188476562e+00 3.095770597457885742e+00 2.876706123352050781e+00 -2.213853359222412109e+00
3.937000000000000000e+03 8.227591514587402344e+00 6.083944797515869141e+00 3.893615007400512695e-01 2.921189785003662109e+00 9.931653738021850586e-01 8.025098443031311035e-01
3.938000000000000000e+03 1.836608314514160156e+01 5.739012241363525391e+00 -3.288325667381286621e-01 -2.788188494741916656e-02 -1.070143356919288635e-01 -8.981908112764358521e-02
3.939000000000000000e+03 1.834059715270996094e+01 5.108866214752197266e+00 -5.044622421264648438e-01 1.130185741931200027e-02 -1.479481160640716553e-01 -5.407436564564704895e-02
3.940000000000000000e+03 1.443560695648193359e+01 5.867737770080566406e+00 7.235442399978637695e-01 -3.797591626644134521e-01 1.031355261802673340e-01 3.650949001312255859e-01
3.941000000000000000e+03 1.460734081268310547e+01 5.874036312103271484e+00 3.054544925689697266e-01 3.348216414451599121e-01 1.920828372240066528e-01 4.441301822662353516e-01
3.942000000000000000e+03 1.632242965698242188e+01 5.473160266876220703e+00 -3.791048526763916016e-01 6.722452491521835327e-02 -9.356410056352615356e-02 -8.618267625570297241e-02
3.943000000000000000e+03 1.757482337951660156e+01 5.420248508453369141e+00 -4.324122965335845947e-01 4.075384512543678284e-02 -1.174975335597991943e-01 -7.507861405611038208e-02
3.944000000000000000e+03 1.757585716247558594e+01 5.726633548736572266e+00 -2.916137278079986572e-01 -7.034751772880554199e-02 -1.085883677005767822e-01 -7.546377927064895630e-02
3.945000000000000000e+03 1.816990280151367188e+01 5.742041587829589844e+00 -3.030837178230285645e-01 2.250539511442184448e-02 -8.417349308729171753e-02 -5.665006488561630249e-02
3.946000000000000000e+03 1.300459671020507812e+01 4.682375907897949219e+00 -3.205209493637084961e+00 1.799964606761932373e-01 -9.075639247894287109e-01 2.004386782646179199e-01
3.947000000000000000e+03 1.157495117187500000e+01 4.618504524230957031e+00 -6.678996562957763672e+00 -2.105299472808837891e+00 -2.635288715362548828e+00 -5.764994025230407715e-01
3.948000000000000000e+03 8.037914276123046875e+00 6.078599929809570312e+00 2.139382511377334595e-01 3.419819355010986328e+00 1.090127229690551758e+00 5.598721504211425781e-01
3.949000000000000000e+03 6.548919200897216797e+00 4.850560665130615234e+00 6.328562259674072266e+00 2.314276695251464844e+00 2.592851638793945312e+00 -2.266510248184204102e+00
3.950000000000000000e+03 6.655051708221435547e+00 5.390232563018798828e+00 3.733899116516113281e+00 3.517033338546752930e+00 2.175279617309570312e+00 -2.838160991668701172e+00
3.951000000000000000e+03 6.745311260223388672e+00 5.538531780242919922e+00 3.200620889663696289e+00 3.868873119354248047e+00 2.120848178863525391e+00 -2.872603654861450195e+00
3.952000000000000000e+03 7.653152942657470703e+00 5.800758361816406250e+00 4.407423436641693115e-01 5.712719440460205078e+00 1.846038460731506348e+00 -4.824332892894744873e-01
3.953000000000000000e+03 1.561611557006835938e+01 3.067206859588623047e+00 -3.188023805618286133e+00 -8.623886108398437500e+00 -3.543572902679443359e+00 -2.031669855117797852e+00
3.954000000000000000e+03 1.485184097290039062e+01 3.087910652160644531e+00 1.606133937835693359e+00 -1.746630907058715820e+00 -4.214907437562942505e-02 -1.462082028388977051e+00
3.955000000000000000e+03 1.269591522216796875e+01 3.185586214065551758e+00 4.687468051910400391e+00 5.121802091598510742e-01 1.559894442558288574e+00 -9.201532006263732910e-01
3.956000000000000000e+03 1.272042560577392578e+01 3.474570751190185547e+00 6.043122291564941406e+00 3.999941945075988770e-01 1.932934880256652832e+00 -8.326247930526733398e-01
3.957000000000000000e+03 1.111334609985351562e+01 3.179398298263549805e+00 5.509727001190185547e+00 2.929116487503051758e-01 1.740791678428649902e+00 -1.415508151054382324e+00
3.958000000000000000e+03 1.032548999786376953e+01 3.283563852310180664e+00 6.538745880126953125e+00 4.421368837356567383e-01 2.094264745712280273e+00 -1.634708762168884277e+00
3.959000000000000000e+03 9.734615325927734375e+00 3.283139228820800781e+00 6.740520000457763672e+00 5.939040184020996094e-01 2.200327157974243164e+00 -1.952558398246765137e+00
3.960000000000000000e+03 9.321726799011230469e+00 3.463096141815185547e+00 7.931294918060302734e+00 1.155091881752014160e+00 2.725916147232055664e+00 -2.265830516815185547e+00
3.961000000000000000e+03 8.978858947753906250e+00 3.288895606994628906e+00 6.439234256744384766e+00 1.886305689811706543e+00 2.497662067413330078e+00 -1.980874896049499512e+00
3.962000000000000000e+03 8.154507637023925781e+00 3.344619750976562500e+00 5.698353290557861328e+00 4.300898551940917969e+00 2.999775648117065430e+00 -1.510112881660461426e+00
3.963000000000000000e+03 1.625675964355468750e+01 3.237935066223144531e+00 9.057386398315429688e+00 -1.889253854751586914e-01 2.660538434982299805e+00 -3.320842742919921875e+00
3.964000000000000000e+03 1.649079322814941406e+01 3.208213329315185547e+00 1.325053882598876953e+01 1.303746342658996582e+00 4.366285800933837891e+00 -3.811402320861816406e+00
3.965000000000000000e+03 1.822300720214843750e+01 2.943748474121093750e+00 7.510901451110839844e+00 3.068054437637329102e+00 3.173686742782592773e+00 -3.928649187088012695e+00
3.966000000000000000e+03 1.828815269470214844e+01 4.232831478118896484e+00 -8.001361846923828125e+00 -5.328172445297241211e-01 -2.560253620147705078e+00 1.916679441928863525e-01
3.967000000000000000e+03 1.824701118469238281e+01 3.501093626022338867e+00 2.143098115921020508e+00 5.474833846092224121e-01 8.071744441986083984e-01 -8.822165131568908691e-01
3.968000000000000000e+03 1.823081588745117188e+01 3.131625652313232422e+00 5.498498916625976562e+00 2.036096334457397461e+00 2.260378599166870117e+00 -2.400626659393310547e+00
3.969000000000000000e+03 1.769055747985839844e+01 4.214658737182617188e+00 -8.050619125366210938e+00 2.158198691904544830e-02 -2.408711194992065430e+00 2.481072098016738892e-01
3.970000000000000000e+03 1.425948715209960938e+01 4.333783626556396484e+00 1.112059402465820312e+01 -1.392300724983215332e-01 3.294409275054931641e+00 -4.201175272464752197e-01
3.971000000000000000e+03 1.281997299194335938e+01 4.368706703186035156e+00 1.033345222473144531e+01 6.122081354260444641e-02 3.118402004241943359e+00 -5.499276518821716309e-01
3.972000000000000000e+03 1.062554454803466797e+01 4.484526634216308594e+00 1.195217609405517578e+01 7.814034074544906616e-02 3.609094858169555664e+00 -6.350998878479003906e-01
3.973000000000000000e+03 8.981808662414550781e+00 4.560122489929199219e+00 1.472821712493896484e+01 7.691117934882640839e-03 4.420772552490234375e+00 -1.016051292419433594e+00
3.974000000000000000e+03 6.800351619720458984e+00 4.841669082641601562e+00 7.027007102966308594e+00 3.019791364669799805e+00 3.014039516448974609e+00 -2.708150863647460938e+00
3.975000000000000000e+03 7.295130729675292969e+00 3.764425277709960938e+00 6.781460762023925781e+00 4.632060050964355469e+00 3.424056291580200195e+00 8.830666542053222656e-01
3.976000000000000000e+03 8.552892684936523438e+00 3.802133083343505859e+00 9.697508811950683594e+00 3.171200037002563477e+00 3.860612630844116211e+00 -2.986630678176879883e+00
3.977000000000000000e+03 8.930650711059570312e+00 4.349739551544189453e+00 1.400611591339111328e+01 4.740883409976959229e-01 4.344061374664306641e+00 -1.767887592315673828e+00
3.978000000000000000e+03 8.990954399108886719e+00 4.778854846954345703e+00 -2.546076297760009766e+00 5.650331377983093262e-01 -5.943129658699035645e-01 -2.103232741355895996e-01
3.979000000000000000e+03 8.790478706359863281e+00 5.366769790649414062e+00 3.540797829627990723e-01 -1.062515825033187866e-01 7.434845715761184692e-02 -1.239481344819068909e-01
3.980000000000000000e+03 7.198722839355468750e+00 5.577116012573242188e+00 1.965838909149169922e+00 5.904263973236083984e+00 2.361030817031860352e+00 -2.571617841720581055e+00
3.981000000000000000e+03 9.194456100463867188e+00 4.791815280914306641e+00 -2.123296260833740234e+00 -5.701401829719543457e-01 -8.080309033393859863e-01 -1.618351489305496216e-01
3.982000000000000000e+03 9.668070793151855469e+00 5.072993278503417969e+00 -9.429312944412231445e-01 3.593963682651519775e-01 -1.750604808330535889e-01 1.355811506509780884e-01
3.983000000000000000e+03 1.105152320861816406e+01 4.668384552001953125e+00 -1.250758022069931030e-01 2.058009862899780273e+00 5.798802375793457031e-01 3.479963064193725586e+00
3.984000000000000000e+03 1.137971401214599609e+01 4.626308917999267578e+00 -5.745893001556396484e+00 2.203417062759399414e+00 -1.062742710113525391e+00 1.449496269226074219e+00
3.985000000000000000e+03 1.173450565338134766e+01 4.655617237091064453e+00 -1.749753713607788086e+00 -3.445885479450225830e-01 -6.283026337623596191e-01 1.315092206001281738e+00
3.986000000000000000e+03 1.198328495025634766e+01 4.612822532653808594e+00 -1.475218296051025391e+01 -1.128905892372131348e+00 -4.764326572418212891e+00 -7.834436297416687012e-01
3.987000000000000000e+03 1.234615707397460938e+01 4.616340160369873047e+00 -8.511621475219726562e+00 -1.206776261329650879e+00 -2.915519237518310547e+00 -8.809593319892883301e-01
3.988000000000000000e+03 1.336106109619140625e+01 4.628682613372802734e+00 -3.120080471038818359e+00 5.357273817062377930e-01 -7.753058671951293945e-01 -1.673471331596374512e-01
3.989000000000000000e+03 1.553373146057128906e+01 4.572581768035888672e+00 -1.322661757469177246e+00 -8.097226917743682861e-02 -4.210902154445648193e-01 2.349982503801584244e-03
3.990000000000000000e+03 1.809975814819335938e+01 4.487013339996337891e+00 -7.559779882431030273e-01 3.690614178776741028e-02 -2.157215625047683716e-01 1.323956903070211411e-02
3.991000000000000000e+03 1.829874229431152344e+01 4.475100517272949219e+00 -7.441233992576599121e-01 -4.839059337973594666e-02 -2.377541959285736084e-01 2.162164822220802307e-02
3.992000000000000000e+03 1.824289512634277344e+01 3.315731763839721680e+00 4.293028354644775391e+00 5.871554613113403320e-01 1.464055061340332031e+00 -1.798255443572998047e+00
3.993000000000000000e+03 1.826479721069335938e+01 3.886169672012329102e+00 -2.823964595794677734e+00 4.225606620311737061e-01 -7.204211950302124023e-01 7.085245251655578613e-01
3.994000000000000000e+03 1.784628486633300781e+01 2.960080146789550781e+00 9.414974212646484375e+00 2.367133378982543945e+00 3.534632444381713867e+00 -5.645480632781982422e+00
3.995000000000000000e+03 1.730476760864257812e+01 3.467879533767700195e+00 6.582767963409423828e+00 3.258752822875976562e+00 2.952456235885620117e+00 -3.120436668395996094e+00
3.996000000000000000e+03 1.749973678588867188e+01 3.222386360168457031e+00 1.097014617919921875e+01 3.186858654022216797e+00 4.247101306915283203e+00 -3.129810571670532227e+00
3.997000000000000000e+03 8.420355796813964844e+00 6.083944797515869141e+00 4.943351149559020996e-01 1.854720473289489746e+00 7.047166824340820312e-01 7.750772833824157715e-01
3.998000000000000000e+03 8.295716285705566406e+00 5.723545074462890625e+00 5.152263641357421875e-01 2.556643724441528320e+00 9.215610027313232422e-01 9.826193451881408691e-01
3.999000000000000000e+03 8.653273582458496094e+00 5.531661987304687500e+00 3.921814262866973877e-01 5.809021592140197754e-01 2.919250726699829102e-01 4.105381071567535400e-01
4.000000000000000000e+03 1.017014503479003906e+01 5.946512222290039062e+00 -1.398525685071945190e-01 -4.342633485794067383e-01 -1.722347736358642578e-01 -2.983334660530090332e-01
4.001000000000000000e+03 9.770204544067382812e+00 5.999708652496337891e+00 2.173819094896316528e-01 -1.092675626277923584e-01 3.243430331349372864e-02 -2.611416578292846680e-01
4.002000000000000000e+03 9.163321495056152344e+00 5.895856857299804688e+00 4.205929934978485107e-01 3.445306122303009033e-01 2.295370846986770630e-01 8.068998157978057861e-02
4.003000000000000000e+03 7.396034717559814453e+00 3.605602979660034180e+00 6.025800704956054688e+00 4.743811607360839844e+00 3.230883598327636719e+00 7.282711267471313477e-01
4.004000000000000000e+03 7.568918228149414062e+00 3.373754501342773438e+00 4.842536926269531250e+00 4.465661525726318359e+00 2.792459726333618164e+00 4.977080523967742920e-01
4.005000000000000000e+03 6.579651832580566406e+00 4.123288631439208984e+00 6.797881603240966797e+00 1.810789346694946289e+00 2.582601308822631836e+00 2.644667923450469971e-01
4.006000000000000000e+03 8.884533882141113281e+00 3.621862173080444336e+00 8.759227752685546875e+00 1.920470714569091797e+00 3.203909635543823242e+00 -2.466221094131469727e+00
4.007000000000000000e+03 9.177648544311523438e+00 4.535120964050292969e+00 1.414836311340332031e+01 1.020680144429206848e-01 4.275129318237304688e+00 -9.835408329963684082e-01
4.008000000000000000e+03 8.840081214904785156e+00 4.149744510650634766e+00 1.303681278228759766e+01 1.053566098213195801e+00 4.227113723754882812e+00 -2.499774456024169922e+00
4.009000000000000000e+03 8.895183563232421875e+00 5.187885284423828125e+00 -6.797716617584228516e-01 -5.464875698089599609e-02 -2.203261256217956543e-01 -4.116424918174743652e-01
4.010000000000000000e+03 7.838816165924072266e+00 5.821940422058105469e+00 2.611884176731109619e-01 4.908954143524169922e+00 1.551042795181274414e+00 2.266829013824462891e-01
4.011000000000000000e+03 8.477856636047363281e+00 5.654331684112548828e+00 1.056820154190063477e+00 1.354551672935485840e+00 7.234115600585937500e-01 8.909525275230407715e-01
4.012000000000000000e+03 8.388731956481933594e+00 5.888628959655761719e+00 6.925733685493469238e-01 2.109410524368286133e+00 8.405951857566833496e-01 9.182002544403076172e-01
4.013000000000000000e+03 8.028696060180664062e+00 5.824014663696289062e+00 4.880645275115966797e-01 4.031294822692871094e+00 1.355807900428771973e+00 8.025279641151428223e-01
4.014000000000000000e+03 8.213724136352539062e+00 5.861384868621826172e+00 5.601363778114318848e-01 2.844712495803833008e+00 1.021454691886901855e+00 9.068676829338073730e-01
4.015000000000000000e+03 6.935510158538818359e+00 5.235124111175537109e+00 4.656495094299316406e+00 4.556108951568603516e+00 2.763781309127807617e+00 -3.435618877410888672e+00
4.016000000000000000e+03 6.841113090515136719e+00 5.042011260986328125e+00 5.895959377288818359e+00 3.733672618865966797e+00 2.888889551162719727e+00 -3.237799406051635742e+00
4.017000000000000000e+03 6.531911849975585938e+00 4.273285865783691406e+00 7.064601421356201172e+00 1.620490789413452148e+00 2.605527639389038086e+00 -2.611529231071472168e-01
4.018000000000000000e+03 6.832609176635742188e+00 4.193548679351806641e+00 8.172572135925292969e+00 2.503159523010253906e+00 3.202719449996948242e+00 5.527739971876144409e-02
4.019000000000000000e+03 7.471723079681396484e+00 5.839993953704833984e+00 6.052398085594177246e-01 5.625723361968994141e+00 1.869288921356201172e+00 -1.097745537757873535e+00
4.020000000000000000e+03 6.536916255950927734e+00 4.444978237152099609e+00 7.091922760009765625e+00 1.615754961967468262e+00 2.612303256988525391e+00 -8.467306494712829590e-01
4.021000000000000000e+03 7.185119152069091797e+00 5.880569458007812500e+00 1.065325379371643066e+00 5.173324108123779297e+00 1.871594905853271484e+00 -1.849216818809509277e+00
4.022000000000000000e+03 6.675771236419677734e+00 3.981303691864013672e+00 6.574586868286132812e+00 1.921670675277709961e+00 2.548877239227294922e+00 7.068524360656738281e-01
4.023000000000000000e+03 6.583504199981689453e+00 5.052558422088623047e+00 5.543879032135009766e+00 2.756002426147460938e+00 2.489964485168457031e+00 -2.689311742782592773e+00
4.024000000000000000e+03 6.961181640625000000e+00 3.719909906387329102e+00 6.192368030548095703e+00 2.853023052215576172e+00 2.713617324829101562e+00 1.283552169799804688e+00
4.025000000000000000e+03 7.107965469360351562e+00 3.587201833724975586e+00 5.538720130920410156e+00 3.406220436096191406e+00 2.683482170104980469e+00 1.333341240882873535e+00
4.026000000000000000e+03 7.027928829193115234e+00 4.060490131378173828e+00 8.046757698059082031e+00 3.253649711608886719e+00 3.390122413635253906e+00 5.900001525878906250e-01
4.027000000000000000e+03 7.755941867828369141e+00 3.349499702453613281e+00 4.996640682220458984e+00 4.719476699829101562e+00 2.914835214614868164e+00 -2.063722014427185059e-01
4.028000000000000000e+03 7.847772598266601562e+00 6.073417186737060547e+00 2.471651732921600342e-01 4.214477539062500000e+00 1.338492870330810547e+00 2.319682240486145020e-01
4.029000000000000000e+03 1.498650074005126953e+01 5.829020977020263672e+00 3.586432635784149170e-01 1.598121076822280884e-01 1.555366069078445435e-01 1.171585023403167725e-01
4.030000000000000000e+03 1.549534034729003906e+01 5.411935329437255859e+00 -3.613163530826568604e-01 -5.275591742247343063e-03 -1.099775880575180054e-01 -1.312048286199569702e-01
4.031000000000000000e+03 1.478679561614990234e+01 5.844792842864990234e+00 3.974036276340484619e-01 7.868574932217597961e-03 1.215816587209701538e-01 2.312663793563842773e-01
4.032000000000000000e+03 1.575884437561035156e+01 5.001557826995849609e+00 -8.224613666534423828e-01 1.216814443469047546e-01 -2.102339863777160645e-01 -8.557712286710739136e-02
4.033000000000000000e+03 1.657585906982421875e+01 5.757022380828857422e+00 -2.210805565118789673e-01 3.900056332349777222e-02 -5.462399870157241821e-02 -6.020752340555191040e-02
4.034000000000000000e+03 1.717599487304687500e+01 5.732201099395751953e+00 -2.811389565467834473e-01 -7.403995096683502197e-02 -1.065536662936210632e-01 -7.434007525444030762e-02
4.035000000000000000e+03 1.469485092163085938e+01 5.593361377716064453e+00 2.426582425832748413e-01 1.448834091424942017e-01 1.162624955177307129e-01 6.026537343859672546e-02
4.036000000000000000e+03 1.540206336975097656e+01 5.829045772552490234e+00 1.223710700869560242e-01 1.370602548122406006e-01 7.782939821481704712e-02 5.634335428476333618e-02
4.037000000000000000e+03 1.637218284606933594e+01 5.765271186828613281e+00 -1.917072087526321411e-01 -9.043526649475097656e-02 -8.464273810386657715e-02 -8.131753653287887573e-02
4.038000000000000000e+03 1.167699146270751953e+01 3.249992132186889648e+00 5.835839271545410156e+00 3.273384869098663330e-01 1.848953366279602051e+00 -1.374428510665893555e+00
4.039000000000000000e+03 1.190833187103271484e+01 3.544103145599365234e+00 6.903807640075683594e+00 2.808957397937774658e-01 2.155411005020141602e+00 -1.103471636772155762e+00
4.040000000000000000e+03 8.793786048889160156e+00 3.329787492752075195e+00 6.511324405670166016e+00 2.341327905654907227e+00 2.655795812606811523e+00 -2.139029741287231445e+00
4.041000000000000000e+03 1.446196842193603516e+01 3.078801393508911133e+00 2.339885711669921875e+00 -8.480733036994934082e-01 4.475437104701995850e-01 -1.044844985008239746e+00
4.042000000000000000e+03 1.524248504638671875e+01 3.050415992736816406e+00 2.821761667728424072e-01 -2.841197967529296875e+00 -7.677065730094909668e-01 -2.161709547042846680e+00
4.043000000000000000e+03 1.229837989807128906e+01 3.205844879150390625e+00 5.032742500305175781e+00 4.489667415618896484e-01 1.644512772560119629e+00 -1.111549615859985352e+00
4.044000000000000000e+03 1.349636459350585938e+01 3.388402462005615234e+00 5.063940525054931641e+00 3.904177546501159668e-01 1.636307597160339355e+00 -6.020144820213317871e-01
4.045000000000000000e+03 1.387839412689208984e+01 3.129913806915283203e+00 3.388919830322265625e+00 2.346456795930862427e-01 1.087069630622863770e+00 -5.581936836242675781e-01
4.046000000000000000e+03 1.553215122222900391e+01 3.294636487960815430e+00 4.230481147766113281e+00 -4.718834400177001953e+00 -1.465059518814086914e-01 -1.527953028678894043e+00
4.047000000000000000e+03 1.465171623229980469e+01 3.090941429138183594e+00 2.040081739425659180e+00 -9.514053463935852051e-01 3.266028761863708496e-01 -1.130583882331848145e+00
4.048000000000000000e+03 1.387769985198974609e+01 3.379816770553588867e+00 4.770866870880126953e+00 9.849667549133300781e-02 1.460809111595153809e+00 -4.482228457927703857e-01
4.049000000000000000e+03 1.331046295166015625e+01 3.417439699172973633e+00 5.347425937652587891e+00 3.674800097942352295e-01 1.714471817016601562e+00 -5.150062441825866699e-01
4.050000000000000000e+03 1.146296405792236328e+01 3.231787681579589844e+00 5.939408302307128906e+00 1.682502776384353638e-01 1.832297563552856445e+00 -1.303879022598266602e+00
4.051000000000000000e+03 1.309090232849121094e+01 3.164276361465454102e+00 4.261674880981445312e+00 4.718418419361114502e-01 1.420055031776428223e+00 -8.270193338394165039e-01
4.052000000000000000e+03 1.081771373748779297e+01 3.500496387481689453e+00 7.311756134033203125e+00 2.661040127277374268e-01 2.273358106613159180e+00 -1.387539029121398926e+00
4.053000000000000000e+03 1.280871868133544922e+01 4.973000526428222656e+00 2.211178779602050781e+00 7.173769474029541016e-01 8.785667419433593750e-01 8.286052346229553223e-01
4.054000000000000000e+03 1.497147560119628906e+01 4.596053600311279297e+00 -1.477447271347045898e+00 1.583636999130249023e-01 -3.957250714302062988e-01 8.678016811609268188e-02
4.055000000000000000e+03 9.403470039367675781e+00 4.799235820770263672e+00 -1.917642831802368164e+00 3.800493776798248291e-01 -4.612780511379241943e-01 1.985116302967071533e-02
4.056000000000000000e+03 9.610460281372070312e+00 4.792603492736816406e+00 -1.756045103073120117e+00 -1.621041595935821533e-01 -5.754447579383850098e-01 -1.994765251874923706e-01
4.057000000000000000e+03 1.279468154907226562e+01 4.701754093170166016e+00 -4.038862228393554688e+00 -1.082850098609924316e+00 -1.536513686180114746e+00 -8.001201748847961426e-01
4.058000000000000000e+03 1.435853099822998047e+01 4.668636322021484375e+00 -1.813799858093261719e+00 -2.291496396064758301e-01 -6.128848195075988770e-01 -8.803318440914154053e-02
4.059000000000000000e+03 1.440610885620117188e+01 5.013537406921386719e+00 -8.511224389076232910e-01 1.754135787487030029e-01 -2.027126550674438477e-01 -1.218304112553596497e-01
4.060000000000000000e+03 1.372353935241699219e+01 4.668581485748291016e+00 -2.415101528167724609e+00 3.284327685832977295e-01 -6.260005831718444824e-01 -8.598197251558303833e-02
4.061000000000000000e+03 1.593008995056152344e+01 4.568441867828369141e+00 -1.175041198730468750e+00 -9.847617149353027344e-02 -3.820551931858062744e-01 -1.222063228487968445e-02
4.062000000000000000e+03 1.730973625183105469e+01 4.537754058837890625e+00 -8.658279776573181152e-01 5.336454883217811584e-02 -2.437390387058258057e-01 4.275064915418624878e-03
4.063000000000000000e+03 1.512494659423828125e+01 4.746598720550537109e+00 -1.233309030532836914e+00 7.959491759538650513e-02 -3.461142182350158691e-01 -7.814546674489974976e-02
4.064000000000000000e+03 1.478022098541259766e+01 4.635790824890136719e+00 -1.588368773460388184e+00 -1.895465105772018433e-01 -5.333746075630187988e-01 -6.609072536230087280e-02
4.065000000000000000e+03 1.456510162353515625e+01 4.651218414306640625e+00 -1.682542562484741211e+00 1.760400384664535522e-01 -4.519507586956024170e-01 -2.697868272662162781e-03
4.066000000000000000e+03 1.711697578430175781e+01 4.825170040130615234e+00 -7.492198944091796875e-01 6.384722888469696045e-02 -2.056118100881576538e-01 -4.553014412522315979e-02
4.067000000000000000e+03 9.892290115356445312e+00 4.992074966430664062e+00 -1.848428130149841309e+00 -9.183300137519836426e-01 -8.300274610519409180e-01 -1.286036614328622818e-02
4.068000000000000000e+03 1.101610755920410156e+01 4.479941368103027344e+00 1.166490745544433594e+01 6.609772890806198120e-02 3.519301652908325195e+00 -6.746252775192260742e-01
4.069000000000000000e+03 1.488665580749511719e+01 3.860189199447631836e+00 7.630417823791503906e+00 -4.016783535480499268e-01 2.168621778488159180e+00 -7.800316810607910156e-01
4.070000000000000000e+03 1.528671836853027344e+01 4.002067089080810547e+00 8.128296852111816406e+00 -4.326269626617431641e-01 2.308701038360595703e+00 -1.701636195182800293e+00
4.071000000000000000e+03 1.525915527343750000e+01 4.340211391448974609e+00 1.130201911926269531e+01 1.650052368640899658e-01 3.440107345581054688e+00 -8.854448795318603516e-01
4.072000000000000000e+03 1.586377334594726562e+01 4.283011436462402344e+00 7.019223213195800781e+00 -7.374623417854309082e-02 2.083642959594726562e+00 -1.789626121520996094e+00
4.073000000000000000e+03 1.042365360260009766e+01 4.449100971221923828e+00 1.212179279327392578e+01 1.032553240656852722e-01 3.667514324188232422e+00 -7.261218428611755371e-01
4.074000000000000000e+03 1.789611053466796875e+01 4.214791774749755859e+00 -8.188730239868164062e+00 1.340726464986801147e-01 -2.416397333145141602e+00 3.843409121036529541e-01
4.075000000000000000e+03 1.686148071289062500e+01 3.977240085601806641e+00 -4.454366862773895264e-01 1.316508769989013672e+00 2.613216042518615723e-01 -3.066621780395507812e+00
4.076000000000000000e+03 1.626931381225585938e+01 4.269273757934570312e+00 2.488879680633544922e+00 8.868062496185302734e-02 7.732680439949035645e-01 -1.825570106506347656e+00
4.077000000000000000e+03 1.384691333770751953e+01 4.331626892089843750e+00 1.067184543609619141e+01 -4.344250261783599854e-02 3.188520908355712891e+00 -4.197144210338592529e-01
4.078000000000000000e+03 1.727964973449707031e+01 4.230338096618652344e+00 -7.062123775482177734e+00 2.213397324085235596e-01 -2.052235126495361328e+00 -1.898984909057617188e-01
4.079000000000000000e+03 1.161310005187988281e+01 4.441440105438232422e+00 1.106698799133300781e+01 8.832831867039203644e-03 3.322746038436889648e+00 -6.713507175445556641e-01
4.080000000000000000e+03 1.241610240936279297e+01 4.389847278594970703e+00 1.048117351531982422e+01 2.830705232918262482e-02 3.152844190597534180e+00 -6.025405526161193848e-01
4.081000000000000000e+03 1.302278232574462891e+01 4.358119487762451172e+00 1.031078815460205078e+01 2.323037199676036835e-02 3.100205421447753906e+00 -5.370457768440246582e-01
4.082000000000000000e+03 1.363768768310546875e+01 4.332960605621337891e+00 1.051682662963867188e+01 1.247378811240196228e-01 3.192469358444213867e+00 -4.372753500938415527e-01
4.083000000000000000e+03 1.343091869354248047e+01 4.337581157684326172e+00 1.041300201416015625e+01 -3.678740561008453369e-02 3.112864494323730469e+00 -4.747596979141235352e-01
4.084000000000000000e+03 1.584810638427734375e+01 4.012118816375732422e+00 6.287068367004394531e+00 -4.433955252170562744e-01 1.753101944923400879e+00 -3.815569639205932617e+00
4.085000000000000000e+03 9.935565948486328125e+00 4.104749679565429688e+00 1.101190471649169922e+01 2.130326181650161743e-01 3.367480993270874023e+00 -1.244977235794067383e+00
4.086000000000000000e+03 1.628355598449707031e+01 4.003607273101806641e+00 3.340146541595458984e+00 3.929390311241149902e-01 1.119925737380981445e+00 -4.663666248321533203e+00
4.087000000000000000e+03 1.606788635253906250e+01 4.269886016845703125e+00 4.851520538330078125e+00 1.798596233129501343e-01 1.509414076805114746e+00 -1.866505146026611328e+00
4.088000000000000000e+03 1.221458435058593750e+01 4.401048183441162109e+00 1.059359169006347656e+01 6.135960668325424194e-02 3.196485280990600586e+00 -6.194579005241394043e-01
4.089000000000000000e+03 1.121312522888183594e+01 4.469646930694580078e+00 1.146638393402099609e+01 5.457507912069559097e-03 3.441552639007568359e+00 -6.715696454048156738e-01
4.090000000000000000e+03 1.449480247497558594e+01 4.075590610504150391e+00 9.213602066040039062e+00 -2.946307957172393799e-01 2.675691366195678711e+00 -2.456595897674560547e-01
4.091000000000000000e+03 1.793785095214843750e+01 3.950706720352172852e+00 -3.219542026519775391e+00 1.171320974826812744e-01 -9.307229518890380859e-01 1.354217231273651123e-01
4.092000000000000000e+03 1.646951484680175781e+01 4.268413066864013672e+00 -2.115270048379898071e-01 3.221007287502288818e-01 3.317211568355560303e-02 -1.655250787734985352e+00
4.093000000000000000e+03 1.727974128723144531e+01 3.964159011840820312e+00 -1.966655731201171875e+00 1.112900614738464355e+00 -2.561265230178833008e-01 -1.375296115875244141e+00
4.094000000000000000e+03 1.082110691070556641e+01 4.487455368041992188e+00 1.183278560638427734e+01 -3.551758080720901489e-02 3.539180278778076172e+00 -6.436946392059326172e-01
4.095000000000000000e+03 1.261785602569580078e+01 4.379251003265380859e+00 1.038919067382812500e+01 5.110295116901397705e-02 3.132088184356689453e+00 -5.882995128631591797e-01
4.096000000000000000e+03 1.697302627563476562e+01 3.326468944549560547e+00 1.068964290618896484e+01 4.333680629730224609e+00 4.506997108459472656e+00 -5.881640434265136719e+00
4.097000000000000000e+03 1.713718414306640625e+01 3.253263711929321289e+00 1.125012111663818359e+01 5.576710224151611328e+00 5.048049449920654297e+00 -5.108313083648681641e+00
4.098000000000000000e+03 1.710725593566894531e+01 3.037365674972534180e+00 1.915277862548828125e+01 5.873019218444824219e+00 7.507739543914794922e+00 -8.344739913940429688e+00
4.099000000000000000e+03 1.729464721679687500e+01 3.001362562179565430e+00 1.750254249572753906e+01 8.318322181701660156e+00 7.746259212493896484e+00 -6.865509986877441406e+00
4.100000000000000000e+03 1.816874885559082031e+01 5.525800704956054688e+00 -3.798553347587585449e-01 -3.828311339020729065e-02 -1.254415363073348999e-01 -7.850089669227600098e-02
4.101000000000000000e+03 1.813624382019042969e+01 4.922730922698974609e+00 -5.851067900657653809e-01 1.378917694091796875e-02 -1.713952720165252686e-01 -2.925855666399002075e-02
4.102000000000000000e+03 1.832566261291503906e+01 4.900312423706054688e+00 -5.914909839630126953e-01 -2.757968753576278687e-02 -1.857212036848068237e-01 -4.354690015316009521e-02
4.103000000000000000e+03 1.835146903991699219e+01 5.317157745361328125e+00 -4.624966382980346680e-01 -1.899348758161067963e-02 -1.444470435380935669e-01 -7.173963636159896851e-02
4.104000000000000000e+03 9.333436965942382812e+00 3.264972686767578125e+00 6.729493141174316406e+00 1.210734248161315918e+00 2.382068157196044922e+00 -1.865557432174682617e+00
4.105000000000000000e+03 8.869980812072753906e+00 5.657443046569824219e+00 7.770313024520874023e-01 1.875052601099014282e-01 2.893609702587127686e-01 1.900497972965240479e-01
4.106000000000000000e+03 1.062162876129150391e+01 4.783014774322509766e+00 -2.954205513000488281e+00 1.026865243911743164e+00 -5.782020688056945801e-01 5.040380731225013733e-02
4.107000000000000000e+03 1.631728363037109375e+01 5.202958106994628906e+00 -5.973604321479797363e-01 -8.013729751110076904e-02 -2.032493203878402710e-01 -9.123270213603973389e-02
4.108000000000000000e+03 1.783125305175781250e+01 3.601660966873168945e+00 2.299632072448730469e+00 9.281466603279113770e-01 9.683336019515991211e-01 -8.391569256782531738e-01
4.109000000000000000e+03 1.803331565856933594e+01 2.953656911849975586e+00 8.139164924621582031e+00 2.569735765457153320e+00 3.212670326232910156e+00 -4.543388843536376953e+00
4.110000000000000000e+03 9.347353935241699219e+00 3.655645370483398438e+00 9.100947380065917969e+00 8.768364191055297852e-01 2.993335247039794922e+00 -1.873251914978027344e+00
4.111000000000000000e+03 9.501235008239746094e+00 5.781710147857666016e+00 2.163552194833755493e-01 6.777689605951309204e-02 8.523963391780853271e-02 -9.949748218059539795e-02
4.112000000000000000e+03 9.011957168579101562e+00 6.075390338897705078e+00 4.810041785240173340e-01 6.263588070869445801e-01 3.322089016437530518e-01 3.400927484035491943e-01
4.113000000000000000e+03 9.005484580993652344e+00 5.900544643402099609e+00 6.514292955398559570e-01 6.988003849983215332e-02 2.163928002119064331e-01 2.148994505405426025e-01
4.114000000000000000e+03 1.492119503021240234e+01 5.564630031585693359e+00 -5.888684839010238647e-02 -1.168355122208595276e-01 -5.271670594811439514e-02 -5.177115648984909058e-02
4.115000000000000000e+03 1.509370326995849609e+01 5.159135341644287109e+00 -5.930153727531433105e-01 6.114300340414047241e-02 -1.595617085695266724e-01 -1.846091002225875854e-01
4.116000000000000000e+03 1.367752838134765625e+01 3.131214141845703125e+00 3.645031929016113281e+00 3.527140915393829346e-01 1.199323773384094238e+00 -7.081172466278076172e-01
4.117000000000000000e+03 1.258440017700195312e+01 4.075040340423583984e+00 9.048753738403320312e+00 1.039008051156997681e-01 2.745796442031860352e+00 -6.175712347030639648e-01
4.118000000000000000e+03 1.650346755981445312e+01 5.223320960998535156e+00 -5.577104687690734863e-01 5.940760672092437744e-02 -1.494908630847930908e-01 -9.090534597635269165e-02
4.119000000000000000e+03 1.462853908538818359e+01 4.954833030700683594e+00 -9.869992733001708984e-01 -2.409071624279022217e-01 -3.683719336986541748e-01 -1.991407573223114014e-01
4.120000000000000000e+03 9.420458793640136719e+00 5.082384586334228516e+00 -8.955540657043457031e-01 -4.932751953601837158e-01 -4.166487753391265869e-01 -3.824872374534606934e-01
4.121000000000000000e+03 1.534503269195556641e+01 4.791729450225830078e+00 -1.153704762458801270e+00 -9.201504290103912354e-02 -3.737159371376037598e-01 -6.832570582628250122e-02
4.122000000000000000e+03 1.364847946166992188e+01 4.988094806671142578e+00 -6.521874666213989258e-01 -3.366750478744506836e-01 -2.966587543487548828e-01 -1.848838478326797485e-01
4.123000000000000000e+03 1.614580917358398438e+01 4.840221405029296875e+00 -9.003413319587707520e-01 -1.028141006827354431e-01 -3.009466528892517090e-01 -6.528190523386001587e-02
4.124000000000000000e+03 1.635611915588378906e+01 4.845869064331054688e+00 -8.222329020500183105e-01 7.283860445022583008e-02 -2.248182892799377441e-01 -7.374255359172821045e-02
4.125000000000000000e+03 1.554974555969238281e+01 4.802241325378417969e+00 -1.049694299697875977e+00 1.260295808315277100e-01 -2.770994305610656738e-01 -9.509079903364181519e-02
4.126000000000000000e+03 1.181325149536132812e+01 4.426564693450927734e+00 1.088383483886718750e+01 7.337369024753570557e-02 3.287162542343139648e+00 -6.531405448913574219e-01
4.127000000000000000e+03 1.319663333892822266e+01 4.026609420776367188e+00 8.679370880126953125e+00 9.996381402015686035e-02 2.633800268173217773e+00 -4.509752690792083740e-01
4.128000000000000000e+03 1.455567359924316406e+01 3.851411342620849609e+00 7.490636348724365234e+00 -5.530489236116409302e-02 2.230599403381347656e+00 -3.407657146453857422e-01
4.129000000000000000e+03 1.504924678802490234e+01 3.810523271560668945e+00 6.895944595336914062e+00 -9.253523945808410645e-01 1.791177749633789062e+00 -1.164498567581176758e+00
4.130000000000000000e+03 1.640037727355957031e+01 3.822056293487548828e+00 3.823040246963500977e+00 1.020952582359313965e+00 1.453197836875915527e+00 -5.469182968139648438e+00
4.131000000000000000e+03 1.667064285278320312e+01 4.257769107818603516e+00 -2.605669021606445312e+00 3.933412432670593262e-01 -6.636983156204223633e-01 -1.207770228385925293e+00
4.132000000000000000e+03 9.644594192504882812e+00 3.886591196060180664e+00 1.020418453216552734e+01 4.027586281299591064e-01 3.182082891464233398e+00 -1.547549009323120117e+00
4.133000000000000000e+03 1.049998188018798828e+01 4.204463958740234375e+00 1.097306251525878906e+01 1.218157485127449036e-01 3.328463315963745117e+00 -1.119469046592712402e+00
4.134000000000000000e+03 1.792567634582519531e+01 3.427283048629760742e+00 4.090313434600830078e+00 6.681063771247863770e-01 1.427525877952575684e+00 -1.947521448135375977e+00
4.135000000000000000e+03 1.771463012695312500e+01 4.774643898010253906e+00 -6.992541551589965820e-01 -4.807660356163978577e-02 -2.241992354393005371e-01 -3.477299585938453674e-02
4.136000000000000000e+03 1.734482955932617188e+01 5.115929603576660156e+00 -5.809324383735656738e-01 4.934120178222656250e-02 -1.594773679971694946e-01 -6.108068302273750305e-02
4.137000000000000000e+03 1.816246414184570312e+01 5.123795509338378906e+00 -5.419252514839172363e-01 -2.408352680504322052e-02 -1.698026210069656372e-01 -6.642302870750427246e-02
4.138000000000000000e+03 1.691229820251464844e+01 3.102271080017089844e+00 1.820070075988769531e+01 2.348295927047729492e+00 6.164699077606201172e+00 -6.267065525054931641e+00
4.139000000000000000e+03 8.362879753112792969e+00 3.674008846282958984e+00 8.200071334838867188e+00 4.223712921142578125e+00 3.727135181427001953e+00 -2.728494644165039062e+00
4.140000000000000000e+03 1.674279403686523438e+01 5.448938369750976562e+00 -4.110565781593322754e-01 4.664314165711402893e-02 -1.093240305781364441e-01 -8.085756003856658936e-02
4.141000000000000000e+03 9.124250411987304688e+00 5.275113105773925781e+00 -3.121110796928405762e-01 -3.191035389900207520e-01 -1.893643885850906372e-01 -3.770913779735565186e-01
4.142000000000000000e+03 1.748415946960449219e+01 4.222712039947509766e+00 -7.707586288452148438e+00 1.636256873607635498e-01 -2.263188123703002930e+00 9.935306757688522339e-02
4.143000000000000000e+03 9.011746406555175781e+00 5.479570388793945312e+00 -1.886633187532424927e-01 -3.218913078308105469e-02 -6.625573337078094482e-02 -9.444780647754669189e-02
4.144000000000000000e+03 1.775532722473144531e+01 5.042907238006591797e+00 -5.779873132705688477e-01 2.895709685981273651e-02 -1.647090613842010498e-01 -3.488671034574508667e-02
4.145000000000000000e+03 9.578399658203125000e+00 5.467806816101074219e+00 -1.246758401393890381e-01 1.817437112331390381e-01 1.712036132812500000e-02 -7.707137614488601685e-02
4.146000000000000000e+03 1.238284683227539062e+01 4.090578556060791016e+00 9.175792694091796875e+00 1.197295933961868286e-01 2.788656711578369141e+00 -6.977223157882690430e-01
4.147000000000000000e+03 1.654311561584472656e+01 3.487525701522827148e+00 7.148427963256835938e+00 2.140738248825073242e+00 2.786749839782714844e+00 -5.539034366607666016e+00
4.148000000000000000e+03 1.629387092590332031e+01 3.569870471954345703e+00 5.715946197509765625e+00 8.936651349067687988e-01 1.982883334159851074e+00 -5.752647399902343750e+00
4.149000000000000000e+03 9.120195388793945312e+00 3.656644582748413086e+00 9.114193916320800781e+00 1.351685285568237305e+00 3.139763832092285156e+00 -2.244762182235717773e+00
4.150000000000000000e+03 1.580826759338378906e+01 3.122384071350097656e+00 -2.962362468242645264e-01 -5.035350799560546875e+00 -1.599476099014282227e+00 -3.839972496032714844e+00
4.151000000000000000e+03 1.073773097991943359e+01 3.243448972702026367e+00 6.110795497894287109e+00 3.015671372413635254e-01 1.923708796501159668e+00 -1.587930917739868164e+00
4.152000000000000000e+03 1.315722656250000000e+01 3.725418329238891602e+00 7.156339168548583984e+00 2.707164883613586426e-01 2.228116512298583984e+00 -4.290090203285217285e-01
4.153000000000000000e+03 1.278658294677734375e+01 4.059908866882324219e+00 8.918555259704589844e+00 1.170708835124969482e-01 2.710687875747680664e+00 -5.878192782402038574e-01
4.154000000000000000e+03 1.669016456604003906e+01 5.158557891845703125e+00 -5.991362333297729492e-01 -7.809386402368545532e-02 -2.031690329313278198e-01 -1.105892583727836609e-01
4.155000000000000000e+03 1.583906078338623047e+01 5.163272380828857422e+00 -6.654095053672790527e-01 -4.721958655864000320e-03 -2.010394483804702759e-01 -1.132937818765640259e-01
4.156000000000000000e+03 1.713041305541992188e+01 5.119439125061035156e+00 -5.917747020721435547e-01 -7.307791709899902344e-02 -1.994557976722717285e-01 -7.777997106313705444e-02
4.157000000000000000e+03 1.610806846618652344e+01 5.497231960296630859e+00 -3.396863043308258057e-01 -1.261654049158096313e-01 -1.397555172443389893e-01 -8.926704525947570801e-02
4.158000000000000000e+03 1.062282848358154297e+01 3.572885751724243164e+00 7.860723972320556641e+00 2.537018358707427979e-01 2.434327840805053711e+00 -1.470407605171203613e+00
4.159000000000000000e+03 1.126096916198730469e+01 3.813790798187255859e+00 8.583554267883300781e+00 1.394169628620147705e-01 2.616891384124755859e+00 -1.155354022979736328e+00
4.160000000000000000e+03 1.012132835388183594e+01 3.729756593704223633e+00 9.056564331054687500e+00 2.805594801902770996e-01 2.801137208938598633e+00 -1.433603525161743164e+00
4.161000000000000000e+03 1.748739624023437500e+01 3.959131956100463867e+00 -2.475866794586181641e+00 5.492395758628845215e-01 -5.779881477355957031e-01 -7.604293227195739746e-01
4.162000000000000000e+03 1.352347946166992188e+01 5.335009098052978516e+00 8.907872438430786133e-01 5.661128163337707520e-01 4.370700120925903320e-01 2.833160459995269775e-01
4.163000000000000000e+03 9.507850646972656250e+00 4.196537494659423828e+00 1.213831329345703125e+01 2.278853356838226318e-01 3.709859371185302734e+00 -1.366167783737182617e+00
4.164000000000000000e+03 1.557311153411865234e+01 5.042083740234375000e+00 -7.836728692054748535e-01 -1.444271653890609741e-01 -2.784300148487091064e-01 -1.101527512073516846e-01
4.165000000000000000e+03 1.092503643035888672e+01 3.746506690979003906e+00 8.519147872924804688e+00 1.354327648878097534e-01 2.596374273300170898e+00 -1.235419631004333496e+00
4.166000000000000000e+03 1.517012023925781250e+01 5.567547798156738281e+00 -4.110877588391304016e-02 1.200928464531898499e-01 2.369522117078304291e-02 -2.720412984490394592e-02
4.167000000000000000e+03 1.777336883544921875e+01 5.732224464416503906e+00 -3.043406009674072266e-01 3.596592321991920471e-02 -8.051240444183349609e-02 -6.915108859539031982e-02
4.168000000000000000e+03 1.353645610809326172e+01 3.628124237060546875e+00 6.432767391204833984e+00 2.288584858179092407e-01 1.998487710952758789e+00 -2.358075529336929321e-01
4.169000000000000000e+03 1.661254882812500000e+01 3.747126817703247070e+00 3.894613742828369141e+00 1.839438319206237793e+00 1.720215678215026855e+00 -5.139908790588378906e+00
4.170000000000000000e+03 1.214684486389160156e+01 3.815715551376342773e+00 8.023553848266601562e+00 2.037871927022933960e-01 2.468202114105224609e+00 -8.831964135169982910e-01
4.171000000000000000e+03 1.803392410278320312e+01 3.153582334518432617e+00 6.952548980712890625e+00 1.584899663925170898e+00 2.561234474182128906e+00 -3.659914016723632812e+00
4.172000000000000000e+03 1.119566440582275391e+01 4.237075328826904297e+00 1.050819206237792969e+01 7.653331756591796875e-02 3.175417661666870117e+00 -8.355336785316467285e-01
4.173000000000000000e+03 1.100798511505126953e+01 4.250046253204345703e+00 1.071084213256835938e+01 3.292720019817352295e-02 3.223130702972412109e+00 -8.414695858955383301e-01
4.174000000000000000e+03 1.749975776672363281e+01 3.466773986816406250e+00 5.486558437347412109e+00 2.107056856155395508e+00 2.278084516525268555e+00 -2.324571132659912109e+00
4.175000000000000000e+03 1.128076076507568359e+01 3.182286739349365234e+00 5.538004875183105469e+00 2.921844124794006348e-01 1.749056816101074219e+00 -1.315948367118835449e+00
4.176000000000000000e+03 1.145905494689941406e+01 3.672554969787597656e+00 7.699474811553955078e+00 2.188076078891754150e-01 2.375484704971313477e+00 -1.153498053550720215e+00
4.177000000000000000e+03 8.848115921020507812e+00 3.830105066299438477e+00 1.057602214813232422e+01 1.727542519569396973e+00 3.691069602966308594e+00 -2.593704938888549805e+00
4.178000000000000000e+03 1.509414768218994141e+01 4.947860240936279297e+00 -1.005194783210754395e+00 -1.388330906629562378e-01 -3.432083427906036377e-01 -1.114620417356491089e-01
4.179000000000000000e+03 1.605082130432128906e+01 3.682071447372436523e+00 5.249658107757568359e+00 -4.525810778141021729e-01 1.439123153686523438e+00 -6.082789897918701172e+00
4.180000000000000000e+03 9.668268203735351562e+00 3.662740468978881836e+00 8.836472511291503906e+00 5.752026438713073730e-01 2.823502540588378906e+00 -1.720579266548156738e+00
4.181000000000000000e+03 1.554766941070556641e+01 3.572871446609497070e+00 5.248867034912109375e+00 -2.934370040893554688e+00 6.943491101264953613e-01 -3.326010942459106445e+00
4.182000000000000000e+03 1.299034500122070312e+01 4.044256210327148438e+00 8.815794944763183594e+00 1.531143933534622192e-01 2.690672874450683594e+00 -4.711596071720123291e-01
4.183000000000000000e+03 1.799477958679199219e+01 5.151589393615722656e+00 -5.072947740554809570e-01 7.150805555284023285e-03 -1.500431895256042480e-01 -4.569982737302780151e-02
4.184000000000000000e+03 1.362938880920410156e+01 4.011854648590087891e+00 8.621193885803222656e+00 3.184403851628303528e-02 2.595911264419555664e+00 -2.752119600772857666e-01
4.185000000000000000e+03 1.453445434570312500e+01 5.325847625732421875e+00 -2.633106708526611328e-01 -1.320959925651550293e-01 -1.186220049858093262e-01 -1.445781290531158447e-01
4.186000000000000000e+03 9.576874732971191406e+00 6.024476051330566406e+00 1.851244419813156128e-01 -3.181628286838531494e-01 -3.991151601076126099e-02 -7.124510407447814941e-02
4.187000000000000000e+03 1.797628402709960938e+01 5.509153366088867188e+00 -3.870429694652557373e-01 2.669848874211311340e-02 -1.081033423542976379e-01 -7.265505939722061157e-02
4.188000000000000000e+03 1.012209415435791016e+01 5.596205711364746094e+00 1.794235706329345703e-01 -4.702303707599639893e-01 -8.724204450845718384e-02 -3.797162473201751709e-01
4.189000000000000000e+03 1.340777778625488281e+01 4.005009651184082031e+00 8.571249961853027344e+00 1.760355681180953979e-01 2.624185800552368164e+00 -3.137846291065216064e-01
4.190000000000000000e+03 1.211657142639160156e+01 3.521921396255493164e+00 6.685725688934326172e+00 2.424966245889663696e-01 2.078466653823852539e+00 -1.028819322586059570e+00
4.191000000000000000e+03 1.416780853271484375e+01 5.014385223388671875e+00 -7.165070176124572754e-01 -3.794879317283630371e-01 -3.287985026836395264e-01 -1.803226917982101440e-01
4.192000000000000000e+03 1.442371749877929688e+01 3.751681804656982422e+00 6.864336013793945312e+00 -3.982663154602050781e-01 1.939821004867553711e+00 -3.616017401218414307e-01
4.193000000000000000e+03 1.174008369445800781e+01 3.872563362121582031e+00 8.569916725158691406e+00 1.717370450496673584e-01 2.622496128082275391e+00 -9.650195240974426270e-01
4.194000000000000000e+03 1.582636547088623047e+01 3.741016864776611328e+00 6.058787822723388672e+00 -2.319301843643188477e+00 1.121845722198486328e+00 -4.448725700378417969e+00
4.195000000000000000e+03 1.607718467712402344e+01 3.980410099029541016e+00 4.788680076599121094e+00 -1.208736374974250793e-01 1.400341987609863281e+00 -4.586281776428222656e+00
4.196000000000000000e+03 1.694544982910156250e+01 5.430887222290039062e+00 -4.299829006195068359e-01 -7.849436253309249878e-02 -1.525431722402572632e-01 -9.465579688549041748e-02
4.197000000000000000e+03 1.384876632690429688e+01 3.782698631286621094e+00 7.372535705566406250e+00 7.997967302799224854e-02 2.235754489898681641e+00 -1.592074036598205566e-01
4.198000000000000000e+03 1.117935562133789062e+01 4.001245975494384766e+00 9.444700241088867188e+00 5.413678660988807678e-02 2.849651098251342773e+00 -1.010266900062561035e+00
4.199000000000000000e+03 1.295433139801025391e+01 3.746544122695922852e+00 7.308494091033935547e+00 2.473194599151611328e-01 2.266743898391723633e+00 -5.900946259498596191e-01
4.200000000000000000e+03 1.567998218536376953e+01 5.278226375579833984e+00 -4.988294243812561035e-01 -6.441285368055105209e-04 -1.498420685529708862e-01 -8.224005252122879028e-02
4.201000000000000000e+03 1.547377014160156250e+01 3.803897380828857422e+00 6.707354068756103516e+00 -2.221257925033569336e+00 1.345828771591186523e+00 -2.746785879135131836e+00
4.202000000000000000e+03 1.430863094329833984e+01 3.479980230331420898e+00 4.914829730987548828e+00 -4.012068808078765869e-01 1.354086875915527344e+00 -3.228818178176879883e-01
4.203000000000000000e+03 1.432578277587890625e+01 5.492925167083740234e+00 2.155835628509521484e-01 2.475255355238914490e-02 7.210083305835723877e-02 1.430943310260772705e-01
4.204000000000000000e+03 1.031813812255859375e+01 5.180505752563476562e+00 2.011326700448989868e-01 -7.410774230957031250e-01 -1.619834154844284058e-01 -7.882651686668395996e-01
4.205000000000000000e+03 1.817279434204101562e+01 5.320686340332031250e+00 -4.303669035434722900e-01 1.469475403428077698e-02 -1.247016414999961853e-01 -6.201750412583351135e-02
4.206000000000000000e+03 1.778040313720703125e+01 5.457327842712402344e+00 -4.059087932109832764e-01 -5.824639275670051575e-02 -1.392465531826019287e-01 -6.341647356748580933e-02
4.207000000000000000e+03 1.831070327758789062e+01 4.689279079437255859e+00 -6.492860317230224609e-01 9.572635404765605927e-03 -1.919140219688415527e-01 -7.871632464230060577e-03
4.208000000000000000e+03 1.737670135498046875e+01 5.727810859680175781e+00 -2.912257909774780273e-01 3.620827570557594299e-02 -7.650525122880935669e-02 -7.201662659645080566e-02
4.209000000000000000e+03 1.715328979492187500e+01 5.424271106719970703e+00 -4.315891861915588379e-01 4.008830711245536804e-02 -1.174502596259117126e-01 -7.748842984437942505e-02
4.210000000000000000e+03 1.791258430480957031e+01 4.738952636718750000e+00 -6.857469677925109863e-01 3.460076078772544861e-02 -1.953438669443130493e-01 -1.450427062809467316e-02
4.211000000000000000e+03 1.790028190612792969e+01 4.500633239746093750e+00 -7.800694108009338379e-01 -4.389757290482521057e-02 -2.471900880336761475e-01 8.350226096808910370e-03
4.212000000000000000e+03 1.752084732055664062e+01 4.804061412811279297e+00 -7.105735540390014648e-01 4.895729944109916687e-02 -1.984848827123641968e-01 -2.897226624190807343e-02
4.213000000000000000e+03 1.750618362426757812e+01 4.527724742889404297e+00 -8.337436318397521973e-01 -5.621816962957382202e-02 -2.669885456562042236e-01 4.980436060577630997e-03
4.214000000000000000e+03 1.689633750915527344e+01 4.816839218139648438e+00 -7.988464832305908203e-01 -6.528120487928390503e-02 -2.592383027076721191e-01 -4.032271727919578552e-02
4.215000000000000000e+03 1.691063880920410156e+01 4.544148445129394531e+00 -9.293426871299743652e-01 5.478554964065551758e-02 -2.623671293258666992e-01 9.326355531811714172e-03
4.216000000000000000e+03 1.671720314025878906e+01 4.529955387115478516e+00 -9.765149354934692383e-01 -8.089549094438552856e-02 -3.172231316566467285e-01 -8.155314251780509949e-03
4.217000000000000000e+03 1.653735923767089844e+01 4.548271179199218750e+00 -1.020154953002929688e+00 9.729948639869689941e-02 -2.768566310405731201e-01 2.514692954719066620e-02
4.218000000000000000e+03 1.655816268920898438e+01 4.922886371612548828e+00 -7.809166908264160156e-01 -1.922388561069965363e-02 -2.400421649217605591e-01 -3.427510336041450500e-02
4.219000000000000000e+03 9.896058082580566406e+00 5.657705307006835938e+00 5.697278305888175964e-02 -1.216429844498634338e-01 -1.940106227993965149e-02 -3.873404860496520996e-01
4.220000000000000000e+03 1.806014060974121094e+01 3.335258483886718750e+00 4.895325660705566406e+00 1.311523795127868652e+00 1.862054824829101562e+00 -1.776293873786926270e+00
4.221000000000000000e+03 1.806492233276367188e+01 3.500271320343017578e+00 2.675108671188354492e+00 7.329716086387634277e-01 1.022424101829528809e+00 -1.219768047332763672e+00
4.222000000000000000e+03 1.784851837158203125e+01 3.153993844985961914e+00 7.714952468872070312e+00 1.490359663963317871e+00 2.761593580245971680e+00 -4.171394348144531250e+00
4.223000000000000000e+03 1.829197883605957031e+01 4.051753997802734375e+00 -5.687318325042724609e+00 -5.581867694854736328e-01 -1.873651623725891113e+00 7.580464482307434082e-01
4.224000000000000000e+03 1.809417915344238281e+01 4.226356506347656250e+00 -8.036949157714843750e+00 8.278959244489669800e-02 -2.386247873306274414e+00 6.058279275894165039e-01
4.225000000000000000e+03 1.767990875244140625e+01 3.177455425262451172e+00 9.440866470336914062e+00 1.187228798866271973e+00 3.188428640365600586e+00 -3.938134431838989258e+00
4.226000000000000000e+03 1.770548629760742188e+01 3.942613363265991211e+00 -2.672320604324340820e+00 5.951058268547058105e-01 -6.231644153594970703e-01 -1.789478063583374023e-01
4.227000000000000000e+03 1.687252807617187500e+01 4.246385574340820312e+00 -4.495326995849609375e+00 1.776509582996368408e-01 -1.295302748680114746e+00 -8.757458925247192383e-01
4.228000000000000000e+03 1.646444892883300781e+01 4.028606891632080078e+00 1.723868608474731445e+00 8.922761082649230957e-01 7.848433852195739746e-01 -3.963216543197631836e+00
4.229000000000000000e+03 1.665616607666015625e+01 4.000172138214111328e+00 6.709570288658142090e-01 1.055595517158508301e+00 5.179657340049743652e-01 -3.776425838470458984e+00
4.230000000000000000e+03 1.677736663818359375e+01 3.423000097274780273e+00 8.855933189392089844e+00 3.102540016174316406e+00 3.587541818618774414e+00 -5.036637783050537109e+00
4.231000000000000000e+03 1.670841407775878906e+01 3.163683652877807617e+00 1.635686492919921875e+01 2.017936706542968750e+00 5.512440204620361328e+00 -5.147858142852783203e+00
4.232000000000000000e+03 1.566060638427734375e+01 4.305760383605957031e+00 8.948726654052734375e+00 -2.550135925412178040e-02 2.676967382431030273e+00 -1.558624267578125000e+00
4.233000000000000000e+03 1.545923042297363281e+01 4.329127788543701172e+00 1.045609951019287109e+01 -2.748250961303710938e-01 3.054382324218750000e+00 -1.136094450950622559e+00
4.234000000000000000e+03 1.506132984161376953e+01 4.339203357696533203e+00 1.164476585388183594e+01 -2.251099199056625366e-01 3.425896883010864258e+00 -7.333115935325622559e-01
4.235000000000000000e+03 1.486395645141601562e+01 4.337268829345703125e+00 1.169501304626464844e+01 1.455770283937454224e-01 3.552176952362060547e+00 -6.118718981742858887e-01
4.236000000000000000e+03 1.466430282592773438e+01 4.337876319885253906e+00 1.156159114837646484e+01 -1.803546249866485596e-01 3.414371013641357422e+00 -5.062625408172607422e-01
4.237000000000000000e+03 1.468995285034179688e+01 4.099003314971923828e+00 9.403359413146972656e+00 1.142408046871423721e-02 2.824434995651245117e+00 -4.547514319419860840e-01
4.238000000000000000e+03 1.428618526458740234e+01 4.057876586914062500e+00 8.993667602539062500e+00 1.312777251005172729e-01 2.737483739852905273e+00 -2.059978693723678589e-01
4.239000000000000000e+03 9.114500999450683594e+00 4.285813331604003906e+00 1.325564670562744141e+01 2.947079539299011230e-01 4.065106391906738281e+00 -1.558315277099609375e+00
4.240000000000000000e+03 9.305245399475097656e+00 4.234690189361572266e+00 1.265234088897705078e+01 2.872847914695739746e-01 3.881887674331665039e+00 -1.491315126419067383e+00
4.241000000000000000e+03 9.781225204467773438e+00 4.473188877105712891e+00 1.290840816497802734e+01 8.525417000055313110e-02 3.898098468780517578e+00 -8.794075846672058105e-01
4.242000000000000000e+03 8.961729049682617188e+00 4.990189552307128906e+00 -1.545728802680969238e+00 -4.753028154373168945e-01 -6.063094735145568848e-01 -4.213046729564666748e-01
4.243000000000000000e+03 9.801916122436523438e+00 4.769253730773925781e+00 -1.376622676849365234e+00 3.227871656417846680e-01 -3.161506354808807373e-01 -2.152837961912155151e-01
4.244000000000000000e+03 1.003019237518310547e+01 5.259184837341308594e+00 -1.404995024204254150e-01 1.735920906066894531e-01 9.927774779498577118e-03 5.951211228966712952e-02
4.245000000000000000e+03 1.020857810974121094e+01 4.813784122467041016e+00 -1.847734332084655762e+00 2.205647379159927368e-01 -4.881508648395538330e-01 7.560757398605346680e-01
4.246000000000000000e+03 1.538321685791015625e+01 3.232595682144165039e+00 8.225990533828735352e-01 -4.594888210296630859e+00 -1.131686687469482422e+00 -6.937165856361389160e-01
4.247000000000000000e+03 1.543047904968261719e+01 3.048566818237304688e+00 -1.574517726898193359e+00 -3.623113155364990234e+00 -1.559289216995239258e+00 -1.843353867530822754e+00
4.248000000000000000e+03 1.484582710266113281e+01 3.346938371658325195e+00 3.496788978576660156e+00 -1.026643514633178711e+00 7.410436868667602539e-01 -9.546968340873718262e-01
4.249000000000000000e+03 1.461703872680664062e+01 3.331679344177246094e+00 3.747609376907348633e+00 -1.004642128944396973e+00 8.228901624679565430e-01 -7.815355062484741211e-01
4.250000000000000000e+03 1.440406703948974609e+01 3.262431621551513672e+00 3.589181900024414062e+00 -2.298358529806137085e-01 1.007803797721862793e+00 -7.837125658988952637e-01
4.251000000000000000e+03 1.408228397369384766e+01 3.419087171554565430e+00 4.722600936889648438e+00 1.411882340908050537e-01 1.459136843681335449e+00 -3.353234529495239258e-01
4.252000000000000000e+03 1.368329429626464844e+01 3.370944261550903320e+00 4.790368080139160156e+00 3.027959465980529785e-01 1.527949213981628418e+00 -4.483699500560760498e-01
4.253000000000000000e+03 1.328622436523437500e+01 3.151906013488769531e+00 3.943120956420898438e+00 5.204126238822937012e-01 1.339060068130493164e+00 -8.443633913993835449e-01
4.254000000000000000e+03 1.292020893096923828e+01 3.459451913833618164e+00 5.853451728820800781e+00 3.982886075973510742e-01 1.875522136688232422e+00 -6.542974114418029785e-01
4.255000000000000000e+03 1.289388751983642578e+01 3.175411939620971680e+00 4.492311954498291016e+00 5.594413280487060547e-01 1.515526056289672852e+00 -9.293382167816162109e-01
4.256000000000000000e+03 1.249748611450195312e+01 3.195493698120117188e+00 4.813831329345703125e+00 5.099821090698242188e-01 1.597144126892089844e+00 -1.082932829856872559e+00
4.257000000000000000e+03 1.132312965393066406e+01 3.472043514251708984e+00 6.909484863281250000e+00 2.212076187133789062e-01 2.139207839965820312e+00 -1.286165833473205566e+00
4.258000000000000000e+03 1.117987537384033203e+01 3.330482244491577148e+00 6.370297431945800781e+00 2.170241475105285645e-01 1.976196408271789551e+00 -1.326513171195983887e+00
4.259000000000000000e+03 1.093176078796386719e+01 3.211970329284667969e+00 5.833543300628662109e+00 4.387491643428802490e-01 1.881687760353088379e+00 -1.500030279159545898e+00
4.260000000000000000e+03 1.405383205413818359e+01 4.332369804382324219e+00 1.087648105621337891e+01 1.300196051597595215e-01 3.301950216293334961e+00 -3.933848440647125244e-01
4.261000000000000000e+03 1.407338333129882812e+01 4.038857936859130859e+00 8.861470222473144531e+00 -1.192495152354240417e-01 2.622666120529174805e+00 -2.395958304405212402e-01
4.262000000000000000e+03 1.198095417022705078e+01 4.126920700073242188e+00 9.543458938598632812e+00 1.092306897044181824e-01 2.895807027816772461e+00 -7.678295373916625977e-01
4.263000000000000000e+03 1.158537673950195312e+01 4.183661937713623047e+00 9.967234611511230469e+00 1.207928359508514404e-01 3.026408195495605469e+00 -8.080757260322570801e-01
4.264000000000000000e+03 1.064183330535888672e+01 4.097268581390380859e+00 1.008885860443115234e+01 1.450141221284866333e-01 3.070161819458007812e+00 -1.125577688217163086e+00
4.265000000000000000e+03 1.039720630645751953e+01 3.989117622375488281e+00 1.000801849365234375e+01 1.438665688037872314e-01 3.045565366744995117e+00 -1.155732274055480957e+00
4.266000000000000000e+03 1.017440605163574219e+01 4.040233135223388672e+00 1.045036029815673828e+01 2.189771533012390137e-01 3.200801372528076172e+00 -1.206667780876159668e+00
4.267000000000000000e+03 9.718244552612304688e+00 4.161891460418701172e+00 1.162673568725585938e+01 1.743846982717514038e-01 3.540336132049560547e+00 -1.321010589599609375e+00
4.268000000000000000e+03 1.579303073883056641e+01 5.836773872375488281e+00 -1.767694368027150631e-03 9.057557582855224609e-02 2.664236538112163544e-02 -5.939338356256484985e-03
4.269000000000000000e+03 1.560161685943603516e+01 5.831678867340087891e+00 -4.826627299189567566e-02 -1.080711930990219116e-01 -4.690124094486236572e-02 -2.045279741287231445e-02
4.270000000000000000e+03 1.559743499755859375e+01 5.615045547485351562e+00 -1.671544313430786133e-01 1.254519522190093994e-01 -1.251074671745300293e-02 -8.899211883544921875e-02
4.271000000000000000e+03 1.539695072174072266e+01 5.597135543823242188e+00 -1.505301445722579956e-01 -1.598910242319107056e-01 -9.312634915113449097e-02 -9.974131733179092407e-02
4.272000000000000000e+03 1.387622833251953125e+01 5.543951988220214844e+00 7.275049090385437012e-01 -1.378036886453628540e-01 1.769103705883026123e-01 5.712060332298278809e-01
4.273000000000000000e+03 1.317977046966552734e+01 4.644199848175048828e+00 -3.319271564483642578e+00 -1.123299226164817810e-01 -1.029480457305908203e+00 6.596051901578903198e-02
4.274000000000000000e+03 1.353188037872314453e+01 4.632982254028320312e+00 -2.644102334976196289e+00 -5.797156095504760742e-01 -9.671453833580017090e-01 -7.275094836950302124e-02
4.275000000000000000e+03 1.249160671234130859e+01 4.822654724121093750e+00 3.075817346572875977e+00 4.081449210643768311e-01 1.045188665390014648e+00 1.765130281448364258e+00
4.276000000000000000e+03 1.226430988311767578e+01 4.699006080627441406e+00 1.387498736381530762e+00 5.239658355712890625e-01 5.734393596649169922e-01 2.758972812443971634e-03
4.277000000000000000e+03 1.392714023590087891e+01 5.018727302551269531e+00 -5.117628574371337891e-01 4.030650854110717773e-01 -3.260933235287666321e-02 -1.398382037878036499e-01
4.278000000000000000e+03 1.484864139556884766e+01 4.918886184692382812e+00 -1.018278837203979492e+00 1.496240794658660889e-01 -2.605964243412017822e-01 -9.880678355693817139e-02
4.279000000000000000e+03 1.533643150329589844e+01 4.573612689971923828e+00 -1.379603981971740723e+00 8.567084372043609619e-02 -3.881799578666687012e-01 1.547829341143369675e-02
4.280000000000000000e+03 1.613110160827636719e+01 4.571820735931396484e+00 -1.112138628959655762e+00 8.964445441961288452e-02 -3.067482411861419678e-01 6.303879432380199432e-03
4.281000000000000000e+03 1.634141921997070312e+01 4.576338768005371094e+00 -1.062633872032165527e+00 -8.793017268180847168e-02 -3.451691865921020508e-01 -9.912697598338127136e-03
4.282000000000000000e+03 9.202701568603515625e+00 5.636970520019531250e+00 4.560770392417907715e-01 5.503915250301361084e-02 1.533348560333251953e-01 -5.405053496360778809e-03
4.283000000000000000e+03 9.201486587524414062e+00 6.069460868835449219e+00 4.040363430976867676e-01 2.046889159828424454e-03 1.218249723315238953e-01 1.423386037349700928e-01
4.284000000000000000e+03 8.814803123474121094e+00 6.070114135742187500e+00 5.882387757301330566e-01 7.388893365859985352e-01 3.981384336948394775e-01 4.316025078296661377e-01
4.285000000000000000e+03 8.804008483886718750e+00 5.855163097381591797e+00 5.488031506538391113e-01 8.082464337348937988e-01 4.071148633956909180e-01 5.101566910743713379e-01
4.286000000000000000e+03 7.660869121551513672e+00 6.058602809906005859e+00 1.864748597145080566e-01 4.624206542968750000e+00 1.443204522132873535e+00 -2.704355418682098389e-01
4.287000000000000000e+03 7.485596179962158203e+00 6.040022850036621094e+00 3.277402222156524658e-01 5.024029731750488281e+00 1.605530977249145508e+00 -6.970814466476440430e-01
4.288000000000000000e+03 7.331254005432128906e+00 5.982744216918945312e+00 6.829636096954345703e-01 5.147469520568847656e+00 1.749130010604858398e+00 -1.359430432319641113e+00
4.289000000000000000e+03 7.359605789184570312e+00 5.690850257873535156e+00 1.015729308128356934e+00 6.044492244720458984e+00 2.118066549301147461e+00 -1.748059034347534180e+00
4.290000000000000000e+03 7.058593273162841797e+00 5.420115470886230469e+00 3.075111627578735352e+00 5.413614749908447266e+00 2.546617984771728516e+00 -3.167307615280151367e+00
4.291000000000000000e+03 6.609038829803466797e+00 5.234464168548583984e+00 4.727137088775634766e+00 3.141782522201538086e+00 2.360675811767578125e+00 -2.913266658782958984e+00
4.292000000000000000e+03 6.543579578399658203e+00 4.643816947937011719e+00 6.805860996246337891e+00 1.879359841346740723e+00 2.605566263198852539e+00 -1.524957656860351562e+00
4.293000000000000000e+03 6.721056461334228516e+00 4.344731330871582031e+00 7.791442394256591797e+00 2.146602869033813477e+00 2.981413602828979492e+00 -5.751389861106872559e-01
4.294000000000000000e+03 6.808466911315917969e+00 3.851771116256713867e+00 6.599810123443603516e+00 2.495440959930419922e+00 2.728575468063354492e+00 1.104974389076232910e+00
4.295000000000000000e+03 6.877083301544189453e+00 4.033226490020751953e+00 7.488367557525634766e+00 2.693677425384521484e+00 3.054613351821899414e+00 6.278309822082519531e-01
4.296000000000000000e+03 7.395210266113281250e+00 3.404314517974853516e+00 4.908067703247070312e+00 4.272267818450927734e+00 2.754100561141967773e+00 9.015212059020996094e-01
4.297000000000000000e+03 7.579017162322998047e+00 3.631516456604003906e+00 6.247468471527099609e+00 5.487998485565185547e+00 3.520640134811401367e+00 2.168561965227127075e-01
4.298000000000000000e+03 8.365177154541015625e+00 3.362876415252685547e+00 6.281361103057861328e+00 3.808252334594726562e+00 3.026884078979492188e+00 -2.092650651931762695e+00
4.299000000000000000e+03 8.688993453979492188e+00 3.645193099975585938e+00 8.699099540710449219e+00 2.740575790405273438e+00 3.431902647018432617e+00 -2.743819236755371094e+00
4.300000000000000000e+03 1.012370586395263672e+01 3.260869503021240234e+00 6.532661437988281250e+00 5.195949673652648926e-01 2.115676879882812500e+00 -1.720624923706054688e+00
4.301000000000000000e+03 1.011557674407958984e+01 3.503084421157836914e+00 7.579519271850585938e+00 3.462798297405242920e-01 2.377739667892456055e+00 -1.719932436943054199e+00
4.302000000000000000e+03 1.073618316650390625e+01 3.817703962326049805e+00 9.074624061584472656e+00 1.576422750949859619e-01 2.769679784774780273e+00 -1.161962747573852539e+00
4.303000000000000000e+03 1.125900459289550781e+01 4.694953441619873047e+00 -3.406280040740966797e+00 -7.172432541847229004e-02 -1.043401360511779785e+00 4.714159667491912842e-01
4.304000000000000000e+03 6.942705631256103516e+00 4.244598865509033203e+00 8.591278076171875000e+00 2.873599767684936523e+00 3.439463376998901367e+00 -1.186275556683540344e-01
4.305000000000000000e+03 9.007070541381835938e+00 4.028993606567382812e+00 1.182480144500732422e+01 1.028927564620971680e+00 3.856118440628051758e+00 -2.312124013900756836e+00
4.306000000000000000e+03 9.203329086303710938e+00 3.947184085845947266e+00 1.107344818115234375e+01 7.863537669181823730e-01 3.557940483093261719e+00 -2.032837390899658203e+00
4.307000000000000000e+03 9.429381370544433594e+00 3.905067205429077148e+00 1.049682903289794922e+01 5.868330001831054688e-01 3.325098752975463867e+00 -1.779932856559753418e+00
4.308000000000000000e+03 9.379747390747070312e+00 5.334534168243408203e+00 -6.326118707656860352e-01 -1.634780764579772949e-01 -2.388269752264022827e-01 -2.268180996179580688e-01
4.309000000000000000e+03 9.778174400329589844e+00 5.358325958251953125e+00 -3.735778927803039551e-01 -9.054120779037475586e-01 -3.836969733238220215e-01 -3.719919919967651367e-01
4.310000000000000000e+03 1.794518280029296875e+01 4.964601993560791016e+00 -6.051433682441711426e-01 -3.516345471143722534e-02 -1.920920461416244507e-01 -5.502815172076225281e-02
4.311000000000000000e+03 1.755573081970214844e+01 5.102957725524902344e+00 -5.686526298522949219e-01 -6.002559885382652283e-02 -1.886034756898880005e-01 -6.978887319564819336e-02
4.312000000000000000e+03 1.732358741760253906e+01 4.819993972778320312e+00 -7.218113541603088379e-01 -6.140539795160293579e-02 -2.349650263786315918e-01 -3.918212652206420898e-02
4.313000000000000000e+03 1.800352287292480469e+01 5.314126968383789062e+00 -4.633212983608245850e-01 -3.411445394158363342e-02 -1.492307186126708984e-01 -6.400758773088455200e-02
4.314000000000000000e+03 9.063187599182128906e+00 5.760473728179931641e+00 1.807066202163696289e-01 6.272081285715103149e-02 7.302822917699813843e-02 -1.544002443552017212e-02
4.315000000000000000e+03 1.711015701293945312e+01 3.452000617980957031e+00 7.164858818054199219e+00 3.266546726226806641e+00 3.129421710968017578e+00 -3.509951591491699219e+00
4.316000000000000000e+03 1.683818626403808594e+01 3.698200225830078125e+00 3.907128095626831055e+00 2.450824022293090820e+00 1.907385706901550293e+00 -4.576567173004150391e+00
4.317000000000000000e+03 1.556053447723388672e+01 3.911941766738891602e+00 6.986069202423095703e+00 -9.916425347328186035e-01 1.798328042030334473e+00 -3.069637298583984375e+00
4.318000000000000000e+03 1.541373157501220703e+01 3.457100391387939453e+00 4.824149608612060547e+00 -3.606826066970825195e+00 3.651970624923706055e-01 -2.500089645385742188e+00
4.319000000000000000e+03 1.523587608337402344e+01 3.229561567306518555e+00 9.063660502433776855e-01 -2.206739187240600586e+00 -3.901118934154510498e-01 -1.076586604118347168e+00
4.320000000000000000e+03 1.504365253448486328e+01 3.623426198959350586e+00 5.682212829589843750e+00 -1.193966507911682129e+00 1.346473932266235352e+00 -1.056046247482299805e+00
4.321000000000000000e+03 1.485883617401123047e+01 3.612308740615844727e+00 5.293670177459716797e+00 -1.147745370864868164e+00 1.243777513504028320e+00 -7.176818251609802246e-01
4.322000000000000000e+03 1.452897357940673828e+01 3.558073520660400391e+00 5.294484615325927734e+00 -2.130171805620193481e-01 1.524440169334411621e+00 -4.703008830547332764e-01
4.323000000000000000e+03 1.544622230529785156e+01 4.140206813812255859e+00 8.727425575256347656e+00 -1.298571377992630005e-01 2.579270362854003906e+00 -1.838350057601928711e+00
4.324000000000000000e+03 1.368924427032470703e+01 3.583196163177490234e+00 5.867177486419677734e+00 2.099512517452239990e-01 1.823138594627380371e+00 -2.905363142490386963e-01
4.325000000000000000e+03 1.413862895965576172e+01 3.792516946792602539e+00 7.257855415344238281e+00 1.670040637254714966e-01 2.227457761764526367e+00 -1.704433411359786987e-01
4.326000000000000000e+03 1.399988174438476562e+01 3.668581485748291016e+00 6.428097248077392578e+00 -7.125025987625122070e-02 1.907054066658020020e+00 -1.697373837232589722e-01
4.327000000000000000e+03 1.429453086853027344e+01 3.845880031585693359e+00 7.763267040252685547e+00 -5.089391022920608521e-02 2.313711881637573242e+00 -1.245214343070983887e-01
4.328000000000000000e+03 1.336105918884277344e+01 3.695139884948730469e+00 6.853378295898437500e+00 2.483482509851455688e-01 2.130517959594726562e+00 -4.084803462028503418e-01
4.329000000000000000e+03 1.231962585449218750e+01 3.504495859146118164e+00 6.434889793395996094e+00 3.448990881443023682e-01 2.033936500549316406e+00 -9.925614595413208008e-01
4.330000000000000000e+03 1.255018997192382812e+01 3.779884099960327148e+00 7.640389919281005859e+00 2.390530407428741455e-01 2.363832950592041016e+00 -7.586289644241333008e-01
4.331000000000000000e+03 1.168613147735595703e+01 3.578301191329956055e+00 7.200704574584960938e+00 1.759453862905502319e-01 2.212995052337646484e+00 -1.139705657958984375e+00
4.332000000000000000e+03 1.194334793090820312e+01 3.839064359664916992e+00 8.263553619384765625e+00 1.204380393028259277e-01 2.515197515487670898e+00 -9.287777543067932129e-01
4.333000000000000000e+03 1.153935432434082031e+01 3.926670551300048828e+00 8.937848091125488281e+00 9.266577661037445068e-02 2.709154129028320312e+00 -9.543338418006896973e-01
4.334000000000000000e+03 1.112328624725341797e+01 3.636431455612182617e+00 7.914929866790771484e+00 1.751086711883544922e-01 2.427011489868164062e+00 -1.207551956176757812e+00
4.335000000000000000e+03 1.135428905487060547e+01 3.991574525833129883e+00 9.250080108642578125e+00 1.277697086334228516e-01 2.813354969024658203e+00 -9.427968859672546387e-01
4.336000000000000000e+03 1.512651062011718750e+01 5.345677852630615234e+00 -4.577271938323974609e-01 -6.738150119781494141e-02 -1.575326174497604370e-01 -1.228217482566833496e-01
4.337000000000000000e+03 1.534653854370117188e+01 5.024816989898681641e+00 -7.973828315734863281e-01 1.372147053480148315e-01 -1.980504393577575684e-01 -1.233752220869064331e-01
4.338000000000000000e+03 1.515107154846191406e+01 3.940880537033081055e+00 7.908217430114746094e+00 -9.670450091361999512e-01 2.082351684570312500e+00 -1.267903327941894531e+00
4.339000000000000000e+03 1.507962322235107422e+01 4.123238086700439453e+00 9.433509826660156250e+00 -4.194230213761329651e-02 2.817470073699951172e+00 -8.754125237464904785e-01
4.340000000000000000e+03 6.782650947570800781e+00 5.315281867980957031e+00 4.259482383728027344e+00 3.970097780227661133e+00 2.468873977661132812e+00 -3.158074378967285156e+00
4.341000000000000000e+03 6.755185604095458984e+00 4.105165004730224609e+00 7.348554134368896484e+00 2.200845718383789062e+00 2.864820003509521484e+00 3.507383763790130615e-01
4.342000000000000000e+03 6.652100563049316406e+00 4.217061519622802734e+00 7.306105136871337891e+00 1.755554556846618652e+00 2.718497991561889648e+00 2.639364637434482574e-02
4.343000000000000000e+03 9.320534706115722656e+00 5.839214324951171875e+00 1.682769060134887695e-01 -2.532615363597869873e-01 -2.549539133906364441e-02 -1.047773584723472595e-01
4.344000000000000000e+03 1.526344585418701172e+01 4.154300212860107422e+00 9.454352378845214844e+00 -5.897401571273803711e-01 2.659383535385131836e+00 -1.238608717918395996e+00
4.345000000000000000e+03 1.785395050048828125e+01 5.243251323699951172e+00 -4.980041384696960449e-01 -9.126288350671529770e-04 -1.496750265359878540e-01 -9.062872081995010376e-02
4.346000000000000000e+03 1.800631332397460938e+01 3.699882507324218750e+00 1.081494912505149841e-01 5.293756127357482910e-01 1.912575215101242065e-01 -4.477384984493255615e-01
4.347000000000000000e+03 9.693715095520019531e+00 5.722592830657958984e+00 5.042695254087448120e-02 -6.619440913200378418e-01 -1.834551542997360229e-01 -2.565944790840148926e-01
4.348000000000000000e+03 1.574429225921630859e+01 4.796692848205566406e+00 -9.902098774909973145e-01 -1.227263584733009338e-01 -3.338808715343475342e-01 -6.074567511677742004e-02
4.349000000000000000e+03 1.611357498168945312e+01 5.104970455169677734e+00 -6.581562757492065430e-01 4.835610091686248779e-02 -1.829400509595870972e-01 -1.142131537199020386e-01
4.350000000000000000e+03 1.748656463623046875e+01 3.710106611251831055e+00 1.509196639060974121e+00 1.571783423423767090e+00 9.242939949035644531e-01 -1.405365109443664551e+00
4.351000000000000000e+03 1.472732353210449219e+01 5.213951587677001953e+00 -5.049605369567871094e-01 3.744393959641456604e-02 -1.402549892663955688e-01 -2.620718628168106079e-02
4.352000000000000000e+03 1.529321765899658203e+01 5.243597030639648438e+00 -5.517383813858032227e-01 -7.053375989198684692e-02 -1.866816431283950806e-01 -8.088088780641555786e-02
4.353000000000000000e+03 9.495642662048339844e+00 3.531058788299560547e+00 8.266199111938476562e+00 7.968053221702575684e-01 2.718901395797729492e+00 -1.913562417030334473e+00
4.354000000000000000e+03 1.707071495056152344e+01 3.966444253921508789e+00 -1.302794218063354492e+00 1.100096464157104492e+00 -6.080933660268783569e-02 -2.186146497726440430e+00
4.355000000000000000e+03 1.728580284118652344e+01 3.707109212875366211e+00 2.092556715011596680e+00 1.892955541610717773e+00 1.195653676986694336e+00 -2.258016586303710938e+00
4.356000000000000000e+03 1.600312995910644531e+01 5.298381805419921875e+00 -5.098063349723815918e-01 -2.540369331836700439e-02 -1.605630069971084595e-01 -1.375435888767242432e-01
4.357000000000000000e+03 1.588700485229492188e+01 5.458250522613525391e+00 -3.101468086242675781e-01 4.088458046317100525e-02 -8.077867329120635986e-02 -1.238110288977622986e-01
4.358000000000000000e+03 1.653779792785644531e+01 5.470513343811035156e+00 -3.946850895881652832e-01 -9.714148193597793579e-02 -1.475479751825332642e-01 -1.034244224429130554e-01
4.359000000000000000e+03 1.366056346893310547e+01 3.767836093902587891e+00 7.251275539398193359e+00 2.675657868385314941e-01 2.255652427673339844e+00 -2.572971880435943604e-01
4.360000000000000000e+03 1.138903427124023438e+01 4.216749668121337891e+00 1.023541355133056641e+01 1.855575665831565857e-02 3.076190710067749023e+00 -8.437107205390930176e-01
4.361000000000000000e+03 9.826236724853515625e+00 3.835641384124755859e+00 9.798891067504882812e+00 3.531104028224945068e-01 3.045600414276123047e+00 -1.416337132453918457e+00
4.362000000000000000e+03 9.393316268920898438e+00 5.553974151611328125e+00 -6.734379380941390991e-02 -4.917649030685424805e-01 -1.677326112985610962e-01 -4.893867075443267822e-01
4.363000000000000000e+03 1.562502479553222656e+01 3.748201370239257812e+00 6.269749164581298828e+00 -1.438221693038940430e+00 1.449458241462707520e+00 -3.556047439575195312e+00
4.364000000000000000e+03 1.526609802246093750e+01 3.806571006774902344e+00 6.532388210296630859e+00 -1.355805277824401855e+00 1.552974820137023926e+00 -1.944079518318176270e+00
4.365000000000000000e+03 1.529355525970458984e+01 3.358529090881347656e+00 4.104525566101074219e+00 -3.465810298919677734e+00 1.916146278381347656e-01 -8.507557511329650879e-01
4.366000000000000000e+03 1.514991188049316406e+01 3.464657545089721680e+00 3.968977928161621094e+00 -2.196652173995971680e+00 5.316977500915527344e-01 -1.235695481300354004e+00
4.367000000000000000e+03 1.528227043151855469e+01 3.580731868743896484e+00 5.598714351654052734e+00 -2.217492580413818359e+00 1.014366388320922852e+00 -1.773037314414978027e+00
4.368000000000000000e+03 1.057023811340332031e+01 3.908107280731201172e+00 9.462199211120605469e+00 1.646867394447326660e-01 2.888065814971923828e+00 -1.123726010322570801e+00
4.369000000000000000e+03 1.080536270141601562e+01 4.046236515045166016e+00 9.877395629882812500e+00 1.046658009290695190e-01 2.994618415832519531e+00 -1.065294027328491211e+00
4.370000000000000000e+03 1.065550327301025391e+01 4.270982742309570312e+00 1.128922939300537109e+01 -1.298689376562833786e-02 3.382872581481933594e+00 -9.365742802619934082e-01
4.371000000000000000e+03 1.044559478759765625e+01 3.725113868713378906e+00 8.708408355712890625e+00 2.335928976535797119e-01 2.682600259780883789e+00 -1.388345122337341309e+00
4.372000000000000000e+03 1.082676887512207031e+01 4.265961647033691406e+00 1.097021389007568359e+01 4.862261563539505005e-02 3.305650949478149414e+00 -8.975411653518676758e-01
4.373000000000000000e+03 1.099085712432861328e+01 4.001719474792480469e+00 9.626220703125000000e+00 1.360021233558654785e-01 2.928666830062866211e+00 -1.038000702857971191e+00
4.374000000000000000e+03 1.471203994750976562e+01 3.881412744522094727e+00 7.812007904052734375e+00 -6.963555812835693359e-01 2.134695768356323242e+00 -4.597724676132202148e-01
4.375000000000000000e+03 1.641622543334960938e+01 5.041770935058593750e+00 -7.423623204231262207e-01 -5.998287815600633621e-03 -2.245081812143325806e-01 -9.217040240764617920e-02
4.376000000000000000e+03 1.384963035583496094e+01 3.594878911972045898e+00 5.722514152526855469e+00 2.248204201459884644e-01 1.784200310707092285e+00 -3.130028247833251953e-01
4.377000000000000000e+03 1.539238739013671875e+01 3.689510583877563477e+00 6.365528106689453125e+00 -2.109043836593627930e+00 1.276945352554321289e+00 -2.119193077087402344e+00
4.378000000000000000e+03 1.516874122619628906e+01 3.705707311630249023e+00 6.244398593902587891e+00 -1.881173968315124512e+00 1.308967471122741699e+00 -1.332590222358703613e+00
4.379000000000000000e+03 1.768388748168945312e+01 3.496872186660766602e+00 4.616864681243896484e+00 1.622536540031433105e+00 1.871820330619812012e+00 -1.654143452644348145e+00
4.380000000000000000e+03 1.427785110473632812e+01 3.691162347793579102e+00 6.377906322479248047e+00 -1.472539156675338745e-01 1.869195699691772461e+00 -3.987263143062591553e-01
4.381000000000000000e+03 9.936297416687011719e+00 3.685895204544067383e+00 9.066848754882812500e+00 3.594540655612945557e-01 2.827890634536743164e+00 -1.491531968116760254e+00
4.382000000000000000e+03 9.799533843994140625e+00 3.524091482162475586e+00 8.235316276550292969e+00 5.460481047630310059e-01 2.634409427642822266e+00 -1.784664511680603027e+00
4.383000000000000000e+03 1.768411445617675781e+01 3.702825069427490234e+00 1.073867678642272949e+00 8.571557998657226562e-01 5.793070197105407715e-01 -1.136841535568237305e+00
4.384000000000000000e+03 1.592394447326660156e+01 5.016132354736328125e+00 -7.732127904891967773e-01 -1.101126745343208313e-01 -2.649976313114166260e-01 -8.206143975257873535e-02
4.385000000000000000e+03 1.541871166229248047e+01 3.993923187255859375e+00 7.817855834960937500e+00 -1.147369384765625000e+00 2.001146078109741211e+00 -2.124490976333618164e+00
4.386000000000000000e+03 1.535844898223876953e+01 3.893576383590698242e+00 7.153275966644287109e+00 -1.141512274742126465e+00 1.803529024124145508e+00 -2.149342298507690430e+00
4.387000000000000000e+03 1.490432453155517578e+01 5.342082500457763672e+00 -1.606991291046142578e-01 8.248670399188995361e-02 -2.346372604370117188e-02 -1.364314407110214233e-01
4.388000000000000000e+03 1.489575958251953125e+01 5.150550842285156250e+00 -8.086802959442138672e-01 -8.410651981830596924e-02 -2.678360342979431152e-01 -1.652502715587615967e-01
4.389000000000000000e+03 1.848302650451660156e+01 4.858270168304443359e+00 -5.543795824050903320e-01 -2.292660763487219810e-03 -1.670016795396804810e-01 -1.640301942825317383e-02
4.390000000000000000e+03 1.857216072082519531e+01 5.243333339691162109e+00 -4.719045460224151611e-01 3.833171445876359940e-03 -1.404214054346084595e-01 -6.529452651739120483e-02
4.391000000000000000e+03 1.876052665710449219e+01 5.667005062103271484e+00 -3.103837668895721436e-01 1.029473860398866236e-04 -9.308424592018127441e-02 -7.634325325489044189e-02
4.392000000000000000e+03 2.037884140014648438e+01 4.468024253845214844e+00 -4.467456936836242676e-01 1.921219634823501110e-03 -1.334473490715026855e-01 1.190672046504914761e-03
4.393000000000000000e+03 1.873807334899902344e+01 4.863396167755126953e+00 -5.321604609489440918e-01 6.616011261940002441e-03 -1.576633304357528687e-01 -1.663557626307010651e-02
4.394000000000000000e+03 1.846449661254882812e+01 4.703266143798828125e+00 -6.590234041213989258e-01 -2.424973063170909882e-02 -2.049819380044937134e-01 -1.330613065510988235e-02
4.395000000000000000e+03 1.917687606811523438e+01 5.270307540893554688e+00 -4.022353291511535645e-01 2.110858820378780365e-02 -1.143380254507064819e-01 -6.562197208404541016e-02
4.396000000000000000e+03 2.040502548217773438e+01 5.445389270782470703e+00 -3.069085478782653809e-01 3.220009803771972656e-02 -8.241253346204757690e-02 -8.564230054616928101e-02
4.397000000000000000e+03 2.105137443542480469e+01 4.424457073211669922e+00 -3.560782968997955322e-01 2.709663705900311470e-03 -1.060105860233306885e-01 -4.596083424985408783e-03
4.398000000000000000e+03 2.113009834289550781e+01 5.410802364349365234e+00 -2.804799973964691162e-01 3.076514787971973419e-02 -7.491445541381835938e-02 -1.081673651933670044e-01
4.399000000000000000e+03 1.882995033264160156e+01 5.154486179351806641e+00 -4.713273644447326660e-01 -1.793873682618141174e-02 -1.467798352241516113e-01 -5.169056355953216553e-02
4.400000000000000000e+03 1.862293624877929688e+01 5.437559127807617188e+00 -3.982931971549987793e-01 -1.919346489012241364e-02 -1.252460032701492310e-01 -6.212810426950454712e-02
4.401000000000000000e+03 1.940590667724609375e+01 4.614749908447265625e+00 -5.359573364257812500e-01 -8.434476330876350403e-03 -1.633175462484359741e-01 -6.186328246258199215e-04
4.402000000000000000e+03 2.046347808837890625e+01 4.941225528717041016e+00 -3.587523996829986572e-01 6.220640148967504501e-03 -1.057595238089561462e-01 -5.668484419584274292e-02
4.403000000000000000e+03 2.110532379150390625e+01 4.915454387664794922e+00 -3.012398779392242432e-01 2.286593802273273468e-02 -8.351218700408935547e-02 -7.530342042446136475e-02
4.404000000000000000e+03 1.994751167297363281e+01 4.792301654815673828e+00 -4.467644691467285156e-01 1.276895124465227127e-02 -1.301986575126647949e-01 -2.512349747121334076e-02
4.405000000000000000e+03 1.972264480590820312e+01 5.429081439971923828e+00 -3.535259366035461426e-01 -8.103745640255510807e-04 -1.063008978962898254e-01 -7.310803979635238647e-02
4.406000000000000000e+03 1.853635787963867188e+01 5.031879425048828125e+00 -5.206903219223022461e-01 -1.694050617516040802e-02 -1.612892597913742065e-01 -6.771738827228546143e-02
4.407000000000000000e+03 1.849060249328613281e+01 4.569109439849853516e+00 -6.977626681327819824e-01 -1.048270519822835922e-02 -2.124736011028289795e-01 -1.210421882569789886e-02
4.408000000000000000e+03 1.880062484741210938e+01 4.552131175994873047e+00 -6.314170360565185547e-01 2.173617482185363770e-02 -1.829042732715606689e-01 1.182056311517953873e-02
4.409000000000000000e+03 1.856456184387207031e+01 4.746593952178955078e+00 -6.152241826057434082e-01 -3.604803234338760376e-03 -1.856486946344375610e-01 -2.125427685678005219e-02
4.410000000000000000e+03 4.037366485595703125e+01 1.113951778411865234e+01 -8.199523687362670898e-01 -3.705950453877449036e-02 -2.571035623550415039e-01 1.261139959096908569e-01
4.411000000000000000e+03 3.962160873413085938e+01 1.131359195709228516e+01 -8.774745464324951172e-01 2.088818885385990143e-02 -2.569759190082550049e-01 2.013530880212783813e-01
4.412000000000000000e+03 4.275807952880859375e+01 1.133976268768310547e+01 -6.824002265930175781e-01 4.692503716796636581e-03 -2.033123224973678589e-01 -2.570957541465759277e-01
4.413000000000000000e+03 3.886851119995117188e+01 1.148583889007568359e+01 -8.405110239982604980e-01 -7.634942233562469482e-02 -2.750581204891204834e-01 2.256959378719329834e-01
4.414000000000000000e+03 4.112229919433593750e+01 1.096372222900390625e+01 -6.785541176795959473e-01 7.925932854413986206e-02 -1.797884255647659302e-01 6.623120605945587158e-02
4.415000000000000000e+03 4.054919052124023438e+01 1.186267280578613281e+01 -9.249889254570007324e-01 1.516256183385848999e-01 -2.320089787244796753e-01 6.103424727916717529e-02
4.416000000000000000e+03 4.185790634155273438e+01 1.078891849517822266e+01 -4.551422595977783203e-01 -8.978422731161117554e-03 -1.392362117767333984e-01 -3.705011680722236633e-02
4.417000000000000000e+03 4.253778457641601562e+01 1.062180137634277344e+01 -2.005109786987304688e-01 7.629246264696121216e-02 -3.726555407047271729e-02 -6.466870754957199097e-02
4.418000000000000000e+03 4.325923919677734375e+01 1.099616241455078125e+01 -2.728556096553802490e-01 -1.246896758675575256e-01 -1.192635819315910339e-01 -1.478071212768554688e-01
4.419000000000000000e+03 3.901419448852539062e+01 1.221245574951171875e+01 -9.164436459541320801e-01 6.350148469209671021e-02 -2.558826506137847900e-01 3.263593018054962158e-01
4.420000000000000000e+03 4.131274795532226562e+01 1.168514633178710938e+01 -8.456665277481079102e-01 1.113909333944320679e-01 -2.202826887369155884e-01 -4.722227901220321655e-02
4.421000000000000000e+03 4.206327819824218750e+01 1.150861167907714844e+01 -7.975422143936157227e-01 2.031877487897872925e-01 -1.783063262701034546e-01 -1.282752752304077148e-01
4.422000000000000000e+03 3.978221511840820312e+01 1.203847694396972656e+01 -9.502462148666381836e-01 4.594111442565917969e-02 -2.712915241718292236e-01 1.764036118984222412e-01
4.423000000000000000e+03 3.674169540405273438e+01 1.212182044982910156e+01 -8.419208973646163940e-02 -4.157888591289520264e-01 -1.499942839145660400e-01 2.955105900764465332e-01
4.424000000000000000e+03 3.698434829711914062e+01 1.262278556823730469e+01 -7.920492887496948242e-01 -1.740050166845321655e-01 -2.898162901401519775e-01 4.579086601734161377e-01
4.425000000000000000e+03 3.825864791870117188e+01 1.234777259826660156e+01 -9.037044048309326172e-01 -8.053444325923919678e-03 -2.735273540019989014e-01 4.648599624633789062e-01
4.426000000000000000e+03 3.804425811767578125e+01 1.163198184967041016e+01 -5.523580908775329590e-01 2.926999586634337902e-04 -1.656196266412734985e-01 2.735391259193420410e-01
4.427000000000000000e+03 3.756306838989257812e+01 1.246899890899658203e+01 -9.099035263061523438e-01 -1.125620007514953613e-01 -3.067396581172943115e-01 6.247422695159912109e-01
4.428000000000000000e+03 3.719634628295898438e+01 1.177657890319824219e+01 -1.411025375127792358e-01 -1.141185760498046875e-01 -7.656633853912353516e-02 1.502696126699447632e-01
4.429000000000000000e+03 3.663000488281250000e+01 1.268585968017578125e+01 -7.778190970420837402e-01 -6.070606708526611328e-01 -4.154639542102813721e-01 6.354651451110839844e-01
4.430000000000000000e+03 3.645061874389648438e+01 1.246910285949707031e+01 -2.662731409072875977e-01 -5.646365880966186523e-01 -2.492729127407073975e-01 3.830280601978302002e-01
4.431000000000000000e+03 3.871810150146484375e+01 1.072134113311767578e+01 1.588455028831958771e-02 1.490753609687089920e-02 9.237625636160373688e-03 -3.450728720054030418e-03
4.432000000000000000e+03 3.946144485473632812e+01 1.055411434173583984e+01 4.537144675850868225e-03 -8.398855105042457581e-03 -1.158513245172798634e-03 -5.917591974139213562e-03
4.433000000000000000e+03 4.214028167724609375e+01 9.757813453674316406e+00 -9.905579499900341034e-04 3.031617496162652969e-03 6.123178754933178425e-04 2.470200415700674057e-04
4.434000000000000000e+03 3.857750320434570312e+01 9.993584632873535156e+00 -1.071754284203052521e-02 -1.226404029875993729e-02 -6.894474849104881287e-03 -2.155510475859045982e-03
4.435000000000000000e+03 4.160499191284179688e+01 1.006451320648193359e+01 5.735548213124275208e-03 -8.691230905242264271e-04 1.459927530959248543e-03 -1.289171166718006134e-03
4.436000000000000000e+03 4.144534683227539062e+01 9.334435462951660156e+00 -1.956185884773731232e-02 -1.112355105578899384e-02 -9.205622598528862000e-03 3.088097786530852318e-03
4.437000000000000000e+03 4.092973709106445312e+01 1.022012138366699219e+01 7.240981212817132473e-04 -2.443882869556546211e-03 -5.159354186616837978e-04 -2.504984440747648478e-04
4.438000000000000000e+03 4.020204162597656250e+01 1.038670063018798828e+01 6.347516551613807678e-03 8.664194494485855103e-03 4.503513220697641373e-03 -1.356888446025550365e-03
4.439000000000000000e+03 4.077485275268554688e+01 9.490621566772460938e+00 1.983020687475800514e-03 1.939605548977851868e-02 6.413722876459360123e-03 -2.739336807280778885e-03
4.440000000000000000e+03 4.005191802978515625e+01 9.657777786254882812e+00 -4.333079792559146881e-03 -8.763835765421390533e-03 -3.929074853658676147e-03 -1.006731484085321426e-02
4.441000000000000000e+03 3.931608200073242188e+01 9.825769424438476562e+00 1.443632971495389938e-02 1.095666084438562393e-02 7.617897354066371918e-03 -1.258123782463371754e-03
4.442000000000000000e+03 1.463219356536865234e+01 1.208772420883178711e+00 -1.301873087882995605e+00 -2.582649469375610352e+00 -1.165356755256652832e+00 -1.992960333824157715e+00
4.443000000000000000e+03 1.413865852355957031e+01 3.089686632156372070e-01 -1.312061309814453125e+00 2.812231779098510742e-01 -3.092514276504516602e-01 -9.272654652595520020e-01
4.444000000000000000e+03 1.413591098785400391e+01 8.441513180732727051e-01 -1.151755928993225098e+00 -2.485612928867340088e-01 -4.200951755046844482e-01 -1.845987796783447266e+00
4.445000000000000000e+03 1.324289608001708984e+01 1.113969683647155762e+00 -2.243656158447265625e+00 2.447777241468429565e-01 -5.996635556221008301e-01 -1.947254300117492676e+00
4.446000000000000000e+03 1.484628582000732422e+01 5.796153545379638672e-01 -1.520662009716033936e-01 -8.833091259002685547e-01 -3.106125891208648682e-01 -3.659023642539978027e-01
4.447000000000000000e+03 1.338759136199951172e+01 2.497024983167648315e-01 -3.056143760681152344e+00 -1.487646251916885376e-01 -9.614725112915039062e-01 -7.073727846145629883e-01
4.448000000000000000e+03 1.422421169281005859e+01 1.250681281089782715e+00 -2.280001401901245117e+00 -9.564263820648193359e-01 -9.709283113479614258e-01 -2.488395214080810547e+00
4.449000000000000000e+03 1.355335903167724609e+01 8.086416125297546387e-01 -2.174232244491577148e+00 2.735644876956939697e-01 -5.702003240585327148e-01 -1.902650237083435059e+00
4.450000000000000000e+03 1.374464988708496094e+01 1.230049014091491699e+00 -1.936871170997619629e+00 5.465377569198608398e-01 -4.171000123023986816e-01 -2.216328144073486328e+00
4.451000000000000000e+03 1.038163661956787109e+01 3.719484806060791016e-01 -8.456140518188476562e+00 -4.261920601129531860e-02 -2.549627780914306641e+00 -1.368388384580612183e-01
4.452000000000000000e+03 1.112833786010742188e+01 3.352923989295959473e-01 -7.252136230468750000e+00 9.729889035224914551e-02 -2.146451234817504883e+00 -1.715236008167266846e-01
4.453000000000000000e+03 1.187404060363769531e+01 3.023687005043029785e-01 -5.989086627960205078e+00 5.791573971509933472e-02 -1.779351234436035156e+00 -3.040060400962829590e-01
4.454000000000000000e+03 1.187335777282714844e+01 1.043116807937622070e+00 -3.382083415985107422e+00 3.673076629638671875e-01 -9.044327139854431152e-01 -1.441169023513793945e+00
4.455000000000000000e+03 1.261872673034667969e+01 2.733090519905090332e-01 -4.473827838897705078e+00 2.709376513957977295e-01 -1.260867118835449219e+00 -5.840214490890502930e-01
4.456000000000000000e+03 1.261125278472900391e+01 1.014356493949890137e+00 -2.954063892364501953e+00 4.895797669887542725e-01 -7.393452525138854980e-01 -1.584000945091247559e+00
4.457000000000000000e+03 1.039453697204589844e+01 1.112098097801208496e+00 -4.376300811767578125e+00 1.097417771816253662e-01 -1.279967665672302246e+00 -1.125342726707458496e+00
4.458000000000000000e+03 1.113444709777832031e+01 1.075741291046142578e+00 -3.992249965667724609e+00 2.441234141588211060e-01 -1.124437928199768066e+00 -1.245929598808288574e+00
4.459000000000000000e+03 9.630092620849609375e+00 3.871766626834869385e-01 -9.346613883972167969e+00 7.264441810548305511e-03 -2.801805019378662109e+00 -1.804025173187255859e-01
4.460000000000000000e+03 8.873311996459960938e+00 3.829157054424285889e-01 -9.757813453674316406e+00 1.116818115115165710e-01 -2.893839359283447266e+00 -5.054801702499389648e-02
4.461000000000000000e+03 9.659543037414550781e+00 1.127176642417907715e+00 -4.832290649414062500e+00 2.087347805500030518e-01 -1.387066841125488281e+00 -7.822526097297668457e-01
4.462000000000000000e+03 8.116394042968750000e+00 3.805429935455322266e-01 -9.733262062072753906e+00 1.160418987274169922e-01 -2.885166168212890625e+00 1.917684823274612427e-01
4.463000000000000000e+03 7.359893321990966797e+00 3.795303106307983398e-01 -9.169998168945312500e+00 9.433454275131225586e-02 -2.722698926925659180e+00 4.168634116649627686e-01
4.464000000000000000e+03 5.846818923950195312e+00 3.768627941608428955e-01 -6.781227111816406250e+00 -6.915075238794088364e-03 -2.036442518234252930e+00 6.765870451927185059e-01
4.465000000000000000e+03 5.090894222259521484e+00 3.758743405342102051e-01 -5.317845821380615234e+00 2.166949026286602020e-02 -1.588852882385253906e+00 7.020334601402282715e-01
4.466000000000000000e+03 3.578844785690307617e+00 3.681378364562988281e-01 -2.673551797866821289e+00 -5.759413540363311768e-02 -8.193438053131103516e-01 5.183672904968261719e-01
4.467000000000000000e+03 2.823740482330322266e+00 3.614074587821960449e-01 -1.635236144065856934e+00 -2.283031865954399109e-02 -4.974199533462524414e-01 4.431006908416748047e-01
4.468000000000000000e+03 2.070010185241699219e+00 3.578820228576660156e-01 -8.084796667098999023e-01 -6.429144740104675293e-02 -2.618313431739807129e-01 3.270724713802337646e-01
4.469000000000000000e+03 2.362558364868164062e+00 1.097882032394409180e+00 -9.494357109069824219e-01 -2.337090224027633667e-01 -3.549434244632720947e-01 9.777604937553405762e-01
4.470000000000000000e+03 1.328641533851623535e+00 3.659696578979492188e-01 -2.827658057212829590e-01 -5.854624137282371521e-02 -1.023936122655868530e-01 1.912179291248321533e-01
4.471000000000000000e+03 1.647499442100524902e+00 1.105969667434692383e+00 -5.212257504463195801e-01 -3.196225464344024658e-01 -2.522544860839843750e-01 7.033282518386840820e-01
4.472000000000000000e+03 6.515968441963195801e-01 3.939118981361389160e-01 -6.297306716442108154e-02 -5.358630046248435974e-02 -3.496780991554260254e-02 7.167290151119232178e-02
4.473000000000000000e+03 3.488938808441162109e-01 9.570621848106384277e-01 -3.447169810533523560e-02 -1.781657338142395020e-01 -6.379123032093048096e-02 9.920305758714675903e-02
4.474000000000000000e+03 3.089978933334350586e+00 1.101407527923583984e+00 -1.448545455932617188e+00 -2.090496718883514404e-01 -4.972785413265228271e-01 1.241627097129821777e+00
4.475000000000000000e+03 3.818773269653320312e+00 1.108137845993041992e+00 -2.081473350524902344e+00 -1.685441285371780396e-01 -6.750052571296691895e-01 1.486020684242248535e+00
4.476000000000000000e+03 4.334977626800537109e+00 3.733766078948974609e-01 -3.896913766860961914e+00 -5.787079036235809326e-02 -1.186435341835021973e+00 6.437587141990661621e-01
4.477000000000000000e+03 6.007818222045898438e+00 1.116862773895263672e+00 -4.195042133331298828e+00 2.079364657402038574e-01 -1.196131706237792969e+00 1.791109085083007812e+00
4.478000000000000000e+03 6.603577613830566406e+00 3.785989880561828613e-01 -8.123126983642578125e+00 8.318617939949035645e-02 -2.411982059478759766e+00 6.084843277931213379e-01
4.479000000000000000e+03 8.198464393615722656e+00 1.120543003082275391e+00 -5.473243713378906250e+00 5.518259406089782715e-01 -1.476425409317016602e+00 2.216279953718185425e-01
4.480000000000000000e+03 8.929071426391601562e+00 1.122915744781494141e+00 -5.289827346801757812e+00 4.663926959037780762e-01 -1.447030425071716309e+00 -3.320226371288299561e-01
4.481000000000000000e+03 7.468273162841796875e+00 1.119530320167541504e+00 -5.341801643371582031e+00 5.865823030471801758e-01 -1.426565885543823242e+00 9.175596833229064941e-01
4.482000000000000000e+03 6.738267421722412109e+00 1.118598937988281250e+00 -4.903167724609375000e+00 3.505866229534149170e-01 -1.365774393081665039e+00 1.436625242233276367e+00
4.483000000000000000e+03 5.278203010559082031e+00 1.115874290466308594e+00 -3.368704080581665039e+00 -6.278816610574722290e-02 -1.029447674751281738e+00 1.835214495658874512e+00
4.484000000000000000e+03 4.548596382141113281e+00 1.113376617431640625e+00 -2.735229015350341797e+00 -1.863346844911575317e-01 -8.764690756797790527e-01 1.618922710418701172e+00
4.485000000000000000e+03 9.967645406723022461e-01 1.133911848068237305e+00 -2.348859161138534546e-01 -3.732444941997528076e-01 -1.824391186237335205e-01 4.235768318176269531e-01
4.486000000000000000e+03 7.947788715362548828e+00 -3.796155154705047607e-01 -7.896194234490394592e-03 -1.218440884258598089e-04 -2.405411563813686371e-03 -1.034533954225480556e-03
4.487000000000000000e+03 8.799200057983398438e+00 -1.121476769447326660e+00 -1.384974177926778793e-02 1.827007072279229760e-04 -4.100112244486808777e-03 -2.532513346523046494e-03
4.488000000000000000e+03 9.582886695861816406e+00 -3.863955438137054443e-01 -1.146624051034450531e-02 2.668152446858584881e-04 -3.359827678650617599e-03 -1.935509062604978681e-04
4.489000000000000000e+03 7.128690242767333984e+00 -3.785993754863739014e-01 -5.799830425530672073e-03 1.571021712152287364e-04 -1.692818477749824524e-03 -1.190373324789106846e-03
4.490000000000000000e+03 6.303002834320068359e+00 -3.777079284191131592e-01 -2.777034416794776917e-03 -1.936390908667817712e-04 -8.912020130082964897e-04 -1.016642665490508080e-03
4.491000000000000000e+03 5.439651966094970703e+00 -3.838033080101013184e-01 -9.964784840121865273e-04 2.973178561660461128e-05 -2.900240069720894098e-04 -9.418853442184627056e-04
4.492000000000000000e+03 4.550192832946777344e+00 -3.404171466827392578e-01 1.363073242828249931e-03 -1.237974065588787198e-04 3.717827785294502974e-04 -7.655405788682401180e-04
4.493000000000000000e+03 4.366222858428955078e+00 -8.724825382232666016e-01 4.506031109485775232e-04 3.744893183466047049e-04 2.475277287885546684e-04 2.359620557399466634e-04
4.494000000000000000e+03 2.784379720687866211e+00 -7.812200784683227539e-01 2.237549197161570191e-04 -9.011258371174335480e-04 -2.032112824963405728e-04 9.104414493776857853e-04
4.495000000000000000e+03 1.180937051773071289e+00 -3.614223301410675049e-01 9.890896035358309746e-04 7.584172417409718037e-04 5.242520710453391075e-04 6.260640802793204784e-04
4.496000000000000000e+03 4.100893437862396240e-01 -5.529974699020385742e-01 -1.535146293463185430e-04 -2.670785470400005579e-04 -1.261779543710872531e-04 -1.646312157390639186e-04
4.497000000000000000e+03 7.476370930671691895e-01 -1.101422309875488281e+00 4.982772516086697578e-04 1.558860414661467075e-03 6.171413115225732327e-04 1.508092507719993591e-03
4.498000000000000000e+03 9.583242416381835938e+00 -1.126395583152770996e+00 -1.800637505948543549e-02 1.736856298521161079e-03 -4.880855791270732880e-03 -2.088389825075864792e-03
4.499000000000000000e+03 8.014751434326171875e+00 -1.119615554809570312e+00 -1.349337212741374969e-02 5.033259512856602669e-04 -3.897013841196894646e-03 -3.136185230687260628e-03
4.500000000000000000e+03 7.228956699371337891e+00 -1.118599414825439453e+00 -9.630665183067321777e-03 3.084506024606525898e-04 -2.796664368361234665e-03 -3.626153804361820221e-03
4.501000000000000000e+03 6.436572551727294922e+00 -1.117707967758178711e+00 -8.564412593841552734e-03 -8.506394224241375923e-04 -2.824515569955110550e-03 -3.153400262817740440e-03
4.502000000000000000e+03 5.606524944305419922e+00 -1.123803257942199707e+00 -3.830472938716411591e-03 5.909439641982316971e-04 -9.718586807139217854e-04 -3.533911425620317459e-03
4.503000000000000000e+03 4.871310234069824219e+00 -1.221886396408081055e+00 -6.418578792363405228e-03 -3.195632947608828545e-03 -2.884263405576348305e-03 -3.181529464200139046e-03
4.504000000000000000e+03 4.215992450714111328e+00 -1.292065382003784180e+00 -2.292371354997158051e-03 6.303210975602269173e-04 -4.986150306649506092e-04 -2.360625891014933586e-03
4.505000000000000000e+03 3.483979225158691406e+00 -1.264481186866760254e+00 -2.159324707463383675e-03 -1.501513645052909851e-03 -1.098251552321016788e-03 -3.163738001603633165e-04
4.506000000000000000e+03 2.720374822616577148e+00 -1.259622693061828613e+00 1.068065408617258072e-03 -1.335656037554144859e-03 -8.027718286029994488e-05 -4.471218562684953213e-04
4.507000000000000000e+03 1.356143712997436523e+00 -1.203356504440307617e+00 -6.265466072363778949e-05 -1.667535863816738129e-03 -5.190571537241339684e-04 8.721951162442564964e-04
4.508000000000000000e+03 3.578934192657470703e+00 -7.873688340187072754e-01 9.856899268925189972e-04 -7.125232950784265995e-04 8.194998372346162796e-05 -1.369465957395732403e-03
4.509000000000000000e+03 3.694924592971801758e+00 -2.828876674175262451e-01 2.253844868391752243e-03 -3.892339009325951338e-04 5.593833047896623611e-04 -1.500423386460170150e-04
4.510000000000000000e+03 2.863981246948242188e+00 -2.815973162651062012e-01 2.906009554862976074e-03 3.437206323724240065e-04 9.749190649017691612e-04 1.987737487070262432e-04
4.511000000000000000e+03 1.994186639785766602e+00 -3.323911726474761963e-01 1.541803940199315548e-03 -5.924527649767696857e-04 2.848053700290620327e-04 2.685824874788522720e-04
4.512000000000000000e+03 1.979022502899169922e+00 -1.275412678718566895e+00 -1.418014755472540855e-03 1.120469183661043644e-03 -8.926366717787459493e-05 8.230824023485183716e-04
4.513000000000000000e+03 8.765540122985839844e+00 -3.814768195152282715e-01 -1.068670488893985748e-02 3.037079004570841789e-04 -3.114899154752492905e-03 -9.366853628307580948e-04
4.514000000000000000e+03 1.973226070404052734e+00 -8.478038311004638672e-01 2.230899175629019737e-03 8.656817954033613205e-04 9.289743029512465000e-04 1.350844540866091847e-04
4.515000000000000000e+03 1.112103080749511719e+01 -4.428110718727111816e-01 -1.248375046998262405e-02 1.365851261653006077e-03 -3.335369750857353210e-03 1.177804311737418175e-03
4.516000000000000000e+03 1.187371921539306641e+01 -4.752737879753112793e-01 -1.098572183400392532e-02 -6.651841686107218266e-04 -3.495271783322095871e-03 1.932573271915316582e-03
4.517000000000000000e+03 1.111492252349853516e+01 -1.183259963989257812e+00 -1.956466771662235260e-02 2.499019494280219078e-03 -5.119694396853446960e-03 6.140037439763545990e-04
4.518000000000000000e+03 1.262644767761230469e+01 -5.069373250007629395e-01 -8.567976765334606171e-03 -7.771634263917803764e-04 -2.803542185574769974e-03 6.746482686139643192e-04
4.519000000000000000e+03 1.035515594482421875e+01 -1.148333072662353516e+00 -1.730610989034175873e-02 4.847682430408895016e-04 -5.046402569860219955e-03 2.967411128338426352e-04
4.520000000000000000e+03 1.036805534362792969e+01 -4.081833958625793457e-01 -1.295944303274154663e-02 -1.702950394246727228e-04 -3.938921261578798294e-03 -1.672122743912041187e-04
4.521000000000000000e+03 1.263392257690429688e+01 -1.248021602630615234e+00 -1.567197404801845551e-02 1.201448030769824982e-03 -4.341158084571361542e-03 8.196509443223476410e-03
4.522000000000000000e+03 1.187440204620361328e+01 -1.216021895408630371e+00 -2.004954591393470764e-02 1.053273444995284081e-03 -5.698882043361663818e-03 2.991097746416926384e-03
4.523000000000000000e+03 3.787689590454101562e+01 1.088152790069580078e+01 1.074649300426244736e-02 -1.811678707599639893e-02 -2.211088314652442932e-03 -1.897159032523632050e-03
4.524000000000000000e+03 3.687048339843750000e+01 1.029800510406494141e+01 -1.460605300962924957e-03 -1.584526151418685913e-02 -5.191760137677192688e-03 -4.133429843932390213e-03
4.525000000000000000e+03 3.774330520629882812e+01 1.015336227416992188e+01 1.174711715430021286e-02 5.025994963943958282e-03 5.031933542340993881e-03 -2.271065488457679749e-03
4.526000000000000000e+03 3.632341003417968750e+01 1.056402301788330078e+01 2.093484997749328613e-02 -1.201765262521803379e-03 5.919925402849912643e-03 2.668657526373863220e-02
4.527000000000000000e+03 3.699481582641601562e+01 1.102758884429931641e+01 1.566525362432003021e-02 2.245872467756271362e-02 1.143719349056482315e-02 -1.705689937807619572e-03
4.528000000000000000e+03 1.483313274383544922e+01 -3.616165518760681152e-01 2.315124496817588806e-03 8.491578511893749237e-03 3.242010716348886490e-03 2.242319751530885696e-03
4.529000000000000000e+03 1.534506702423095703e+01 -8.866766691207885742e-01 -1.590529223904013634e-03 -5.948617588728666306e-03 -2.261744113638997078e-03 -3.562476718798279762e-03
4.530000000000000000e+03 1.413932895660400391e+01 -4.292643368244171143e-01 2.833196194842457771e-04 -6.725583691149950027e-03 -1.932679209858179092e-03 6.351585034281015396e-04
4.531000000000000000e+03 1.338562393188476562e+01 -4.926638007164001465e-01 -5.081704817712306976e-03 3.859594464302062988e-03 -3.666331176646053791e-04 3.424238879233598709e-03
4.532000000000000000e+03 1.341033267974853516e+01 -1.234521746635437012e+00 -1.117670256644487381e-02 -1.811754191294312477e-03 -3.896537004038691521e-03 2.133219037204980850e-03
4.533000000000000000e+03 1.419171237945556641e+01 -1.172296047210693359e+00 -1.327389758080244064e-02 -7.164188446040498093e-06 -3.984318580478429794e-03 5.268417764455080032e-03
4.534000000000000000e+03 1.491319084167480469e+01 -1.105822205543518066e+00 -6.183146033436059952e-03 -3.312727902084589005e-03 -2.848762087523937225e-03 2.393312519416213036e-03
4.535000000000000000e+03 7.997153282165527344e+00 4.713148593902587891e+00 -9.522078514099121094e+00 5.245474576950073242e-01 -2.699259281158447266e+00 2.185436725616455078e+00
4.536000000000000000e+03 7.993978023529052734e+00 4.732385635375976562e+00 -8.735918045043945312e+00 4.444089412689208984e+00 -1.287548780441284180e+00 3.779259204864501953e+00
4.537000000000000000e+03 7.987112522125244141e+00 4.750634670257568359e+00 -7.751492977142333984e+00 6.726435661315917969e+00 -3.075171411037445068e-01 3.522774696350097656e+00
4.538000000000000000e+03 7.976820945739746094e+00 4.767194747924804688e+00 -6.236262321472167969e+00 1.005789852142333984e+01 1.146490812301635742e+00 2.880620241165161133e+00
4.539000000000000000e+03 7.963498115539550781e+00 4.781430244445800781e+00 -4.514726161956787109e+00 1.327682399749755859e+01 2.628629207611083984e+00 1.929100155830383301e+00
4.540000000000000000e+03 7.947655677795410156e+00 4.792794704437255859e+00 -3.342091560363769531e+00 1.632780838012695312e+01 3.895715236663818359e+00 6.988818645477294922e-01
4.541000000000000000e+03 7.929901599884033203e+00 4.800852775573730469e+00 -1.287470817565917969e+00 1.928715324401855469e+01 5.399904727935791016e+00 -1.057663083076477051e+00
4.542000000000000000e+03 7.910916805267333984e+00 4.805294036865234375e+00 1.496364474296569824e-01 2.131985282897949219e+01 6.440846443176269531e+00 -3.286052227020263672e+00
4.543000000000000000e+03 7.891430377960205078e+00 4.805948734283447266e+00 2.784715890884399414e+00 2.262783050537109375e+01 7.623764038085937500e+00 -5.548082351684570312e+00
4.544000000000000000e+03 7.872189998626708984e+00 4.802791595458984375e+00 5.374475955963134766e+00 2.254063606262207031e+01 8.374533653259277344e+00 -7.871332645416259766e+00
4.545000000000000000e+03 7.853934764862060547e+00 4.795943737030029297e+00 8.705686569213867188e+00 2.169864845275878906e+01 9.121300697326660156e+00 -9.474063873291015625e+00
4.546000000000000000e+03 7.837365150451660156e+00 4.785668373107910156e+00 1.195008659362792969e+01 1.984164619445800781e+01 9.537519454956054688e+00 -1.041253280639648438e+01
4.547000000000000000e+03 7.823116779327392578e+00 4.772358894348144531e+00 1.503591060638427734e+01 1.790188598632812500e+01 9.881339073181152344e+00 -1.034448719024658203e+01
4.548000000000000000e+03 7.811737060546875000e+00 4.756526947021484375e+00 1.749436759948730469e+01 1.590136909484863281e+01 1.001872158050537109e+01 -9.492781639099121094e+00
4.549000000000000000e+03 7.803662300109863281e+00 4.738780498504638672e+00 1.915295791625976562e+01 1.449635982513427734e+01 1.009479522705078125e+01 -8.088669776916503906e+00
4.550000000000000000e+03 7.799202919006347656e+00 4.719799995422363281e+00 1.996888542175292969e+01 1.367915344238281250e+01 1.009441184997558594e+01 -6.449184894561767578e+00
4.551000000000000000e+03 7.798529624938964844e+00 4.700314044952392578e+00 2.006270408630371094e+01 1.354667663574218750e+01 1.008281421661376953e+01 -4.952322959899902344e+00
4.552000000000000000e+03 7.801668167114257812e+00 4.681071281433105469e+00 1.972838592529296875e+01 1.412174892425537109e+01 1.015504074096679688e+01 -3.740391254425048828e+00
4.553000000000000000e+03 7.808498859405517578e+00 4.662809371948242188e+00 1.910355758666992188e+01 1.496230220794677734e+01 1.021975803375244141e+01 -2.960854053497314453e+00
4.554000000000000000e+03 7.818758964538574219e+00 4.646229743957519531e+00 1.860114288330078125e+01 1.643597793579101562e+01 1.051113605499267578e+01 -2.683540821075439453e+00
4.555000000000000000e+03 7.832054615020751953e+00 4.631968975067138672e+00 1.804804992675781250e+01 1.795996093750000000e+01 1.080240249633789062e+01 -2.804128408432006836e+00
4.556000000000000000e+03 7.847875595092773438e+00 4.620573997497558594e+00 1.789129447937011719e+01 1.982664680480957031e+01 1.131538295745849609e+01 -3.501815080642700195e+00
4.557000000000000000e+03 7.865614414215087891e+00 4.612482547760009766e+00 1.792131042480468750e+01 2.158916854858398438e+01 1.185314369201660156e+01 -4.727987289428710938e+00
4.558000000000000000e+03 7.884590625762939453e+00 4.608005046844482422e+00 1.853180885314941406e+01 2.307300758361816406e+01 1.248144531250000000e+01 -6.538628101348876953e+00
4.559000000000000000e+03 7.904075622558593750e+00 4.607313156127929688e+00 1.986925315856933594e+01 2.387796783447265625e+01 1.312416648864746094e+01 -8.832025527954101562e+00
4.560000000000000000e+03 7.923321723937988281e+00 4.610433578491210938e+00 2.198981857299804688e+01 2.358500862121582031e+01 1.367244815826416016e+01 -1.130425357818603516e+01
4.561000000000000000e+03 7.941590309143066406e+00 4.617246627807617188e+00 2.512724113464355469e+01 2.208607101440429688e+01 1.416399383544921875e+01 -1.348764705657958984e+01
4.562000000000000000e+03 7.958179473876953125e+00 4.627490997314453125e+00 2.893512916564941406e+01 1.922527503967285156e+01 1.444812107086181641e+01 -1.495965290069580078e+01
4.563000000000000000e+03 7.972452640533447266e+00 4.640772819519042969e+00 3.295534896850585938e+01 1.545983982086181641e+01 1.452455615997314453e+01 -1.521079444885253906e+01
4.564000000000000000e+03 7.983862876892089844e+00 4.656582832336425781e+00 3.690603256225585938e+01 1.103383255004882812e+01 1.438195991516113281e+01 -1.395865726470947266e+01
4.565000000000000000e+03 7.991971492767333984e+00 4.674314498901367188e+00 3.970879364013671875e+01 6.676013469696044922e+00 1.391544246673583984e+01 -1.134046268463134766e+01
4.566000000000000000e+03 7.996467113494873047e+00 4.693286418914794922e+00 4.168099594116210938e+01 2.304928302764892578e+00 1.319577693939208984e+01 -6.288768291473388672e+00
