# el_label, x, y, sXX, sYY, sZZ, sXY
1.000000000000000000e+00 1.269907855987548828e+01 -1.501421779394149780e-01 -1.158569717407226562e+01 -2.557045936584472656e+00 -4.242823123931884766e+00 -3.242460250854492188e+00
2.000000000000000000e+00 1.250040245056152344e+01 -1.621954143047332764e-01 -4.466085433959960938e+00 9.672221541404724121e-01 -1.049659013748168945e+00 6.092835664749145508e-01
3.000000000000000000e+00 1.230172729492187500e+01 -1.742486655712127686e-01 -4.777850627899169922e+00 -4.550882279872894287e-01 -1.569881677627563477e+00 -1.662665754556655884e-01
4.000000000000000000e+00 1.210305118560791016e+01 -1.863019019365310669e-01 -4.353526592254638672e+00 2.388224452733993530e-01 -1.234411239624023438e+00 5.925726145505905151e-02
5.000000000000000000e+00 1.270829963684082031e+01 -2.078141123056411743e-01 6.134486198425292969e+00 -2.944800376892089844e+00 9.569057822227478027e-01 4.170724153518676758e-01
6.000000000000000000e+00 1.251577281951904297e+01 -2.583152949810028076e-01 -1.427057832479476929e-01 3.966942802071571350e-02 -3.091090917587280273e-02 4.107833206653594971e-01
7.000000000000000000e+00 1.232324504852294922e+01 -3.088164925575256348e-01 6.039070487022399902e-01 5.879374742507934570e-01 3.575533628463745117e-01 1.351153492927551270e+00
8.000000000000000000e+00 1.213071632385253906e+01 -3.593176901340484619e-01 -2.800376415252685547e-01 7.285324856638908386e-03 -8.182569593191146851e-02 6.474636197090148926e-01
9.000000000000000000e+00 1.272857284545898438e+01 -2.625872492790222168e-01 1.281906700134277344e+01 1.613312363624572754e+00 4.329713821411132812e+00 7.598842144012451172e+00
1.000000000000000000e+01 1.254956054687500000e+01 -3.496038615703582764e-01 6.705783843994140625e+00 8.576044440269470215e-01 2.269016504287719727e+00 4.010349273681640625e+00
1.100000000000000000e+01 1.237054824829101562e+01 -4.366204440593719482e-01 3.797881603240966797e+00 1.526031494140625000e+00 1.597173929214477539e+00 2.955109834671020508e+00
1.200000000000000000e+01 1.219153594970703125e+01 -5.236370563507080078e-01 3.219956398010253906e+00 1.341167807579040527e+00 1.368337273597717285e+00 2.918909549713134766e+00
1.300000000000000000e+01 1.275912189483642578e+01 -3.123655319213867188e-01 1.546501636505126953e+01 8.497550964355468750e+00 7.188770294189453125e+00 1.348856925964355469e+01
1.400000000000000000e+01 1.260047531127929688e+01 -4.325676858425140381e-01 8.952276229858398438e+00 4.995238304138183594e+00 4.184254646301269531e+00 8.331730842590332031e+00
1.500000000000000000e+01 1.244182872772216797e+01 -5.527698397636413574e-01 6.659438133239746094e+00 4.138679027557373047e+00 3.239435195922851562e+00 6.155786037445068359e+00
1.600000000000000000e+01 1.228318119049072266e+01 -6.729720234870910645e-01 4.919613838195800781e+00 3.411178588867187500e+00 2.499237775802612305e+00 5.000381946563720703e+00
1.700000000000000000e+01 1.279877662658691406e+01 -3.552441596984863281e-01 1.394404315948486328e+01 1.733610153198242188e+01 9.384043693542480469e+00 1.752913665771484375e+01
1.800000000000000000e+01 1.266656684875488281e+01 -5.040320754051208496e-01 9.339008331298828125e+00 1.110024833679199219e+01 6.131777286529541016e+00 1.164119529724121094e+01
1.900000000000000000e+01 1.253435707092285156e+01 -6.528199315071105957e-01 6.714445590972900391e+00 8.549008369445800781e+00 4.579036235809326172e+00 8.859494209289550781e+00
2.000000000000000000e+01 1.240214633941650391e+01 -8.016078472137451172e-01 5.562588214874267578e+00 7.285169601440429688e+00 3.854327201843261719e+00 7.271229743957519531e+00
2.100000000000000000e+01 1.284602069854736328e+01 -3.895822465419769287e-01 1.110902595520019531e+01 2.719268608093261719e+01 1.149051380157470703e+01 1.872540473937988281e+01
2.200000000000000000e+01 1.274530696868896484e+01 -5.612621903419494629e-01 7.409192562103271484e+00 1.801797676086425781e+01 7.628150939941406250e+00 1.315305900573730469e+01
2.300000000000000000e+01 1.264459228515625000e+01 -7.329421639442443848e-01 5.835329055786132812e+00 1.430518341064453125e+01 6.042153358459472656e+00 1.040303897857666016e+01
2.400000000000000000e+01 1.254387855529785156e+01 -9.046221375465393066e-01 4.412557601928710938e+00 1.203856945037841797e+01 4.935338020324707031e+00 8.570491790771484375e+00
2.500000000000000000e+01 1.289904594421386719e+01 -4.140657782554626465e-01 7.223710536956787109e+00 3.614087677001953125e+01 1.300937652587890625e+01 1.715546607971191406e+01
2.600000000000000000e+01 1.283368206024169922e+01 -6.020680665969848633e-01 5.449367523193359375e+00 2.538349723815917969e+01 9.249859809875488281e+00 1.256745243072509766e+01
2.700000000000000000e+01 1.276831722259521484e+01 -7.900704145431518555e-01 3.624150753021240234e+00 1.997611999511718750e+01 7.080081462860107422e+00 1.019821262359619141e+01
2.800000000000000000e+01 1.270295333862304688e+01 -9.780727028846740723e-01 3.109339714050292969e+00 1.721084785461425781e+01 6.096055984497070312e+00 8.555971145629882812e+00
2.900000000000000000e+01 1.295582294464111328e+01 -4.277578294277191162e-01 5.171899318695068359e+00 4.403107452392578125e+01 1.476089191436767578e+01 1.286152362823486328e+01
3.000000000000000000e+01 1.292831039428710938e+01 -6.248881816864013672e-01 2.923640012741088867e+00 3.123130798339843750e+01 1.024648475646972656e+01 1.028612327575683594e+01
3.100000000000000000e+01 1.290079689025878906e+01 -8.220185637474060059e-01 2.253799915313720703e+00 2.571700286865234375e+01 8.391241073608398438e+00 8.276273727416992188e+00
3.200000000000000000e+01 1.287328433990478516e+01 -1.019148945808410645e+00 1.039013624191284180e+00 2.152008056640625000e+01 6.767728328704833984e+00 6.879844188690185547e+00
3.300000000000000000e+01 1.301417922973632812e+01 -4.301345050334930420e-01 3.592549085617065430e+00 4.860987854003906250e+01 1.566072845458984375e+01 7.489823818206787109e+00
3.400000000000000000e+01 1.302556991577148438e+01 -6.288492679595947266e-01 2.667662620544433594e+00 3.634837722778320312e+01 1.170481109619140625e+01 6.292963981628417969e+00
3.500000000000000000e+01 1.303696155548095703e+01 -8.275640606880187988e-01 5.505865216255187988e-01 2.938841629028320312e+01 8.981700897216796875e+00 5.276604175567626953e+00
3.600000000000000000e+01 1.304835319519042969e+01 -1.026278853416442871e+00 4.184091389179229736e-01 2.577481460571289062e+01 7.857967376708984375e+00 4.073060989379882812e+00
3.700000000000000000e+01 1.307188129425048828e+01 -4.211047887802124023e-01 6.327840805053710938e+00 5.125393676757812500e+01 1.727453422546386719e+01 1.335250973701477051e+00
3.800000000000000000e+01 1.312174034118652344e+01 -6.137997508049011230e-01 1.892860770225524902e+00 3.858542251586914062e+01 1.214348506927490234e+01 2.078062534332275391e+00
3.900000000000000000e+01 1.317160034179687500e+01 -8.064946532249450684e-01 1.694499969482421875e+00 3.241355133056640625e+01 1.023241519927978516e+01 1.245509862899780273e+00
4.000000000000000000e+01 1.322146034240722656e+01 -9.991896152496337891e-01 -3.292227089405059814e-01 2.757621192932128906e+01 8.174097061157226562e+00 9.680960178375244141e-01
4.100000000000000000e+01 1.312672138214111328e+01 -4.010142087936401367e-01 8.013788223266601562e+00 5.045435333251953125e+01 1.754044151306152344e+01 -3.806461572647094727e+00
4.200000000000000000e+01 1.321314144134521484e+01 -5.803154706954956055e-01 5.508415699005126953e+00 3.967094421386718750e+01 1.355380725860595703e+01 -2.249207019805908203e+00
4.300000000000000000e+01 1.329956150054931641e+01 -7.596167325973510742e-01 1.552798986434936523e+00 3.279667663574218750e+01 1.030484294891357422e+01 -2.309623003005981445e+00
4.400000000000000000e+01 1.338598155975341797e+01 -9.389179944992065430e-01 2.175178527832031250e+00 2.883389472961425781e+01 9.302721977233886719e+00 -2.676540374755859375e+00
4.500000000000000000e+01 1.317660140991210938e+01 -3.706316053867340088e-01 1.448311138153076172e+01 4.887984848022460938e+01 1.900888824462890625e+01 -7.122079372406005859e+00
4.600000000000000000e+01 1.329627418518066406e+01 -5.296778082847595215e-01 6.936182975769042969e+00 3.815281677246093750e+01 1.352670001983642578e+01 -5.923783302307128906e+00
4.700000000000000000e+01 1.341594791412353516e+01 -6.887240409851074219e-01 6.032973766326904297e+00 3.233910751342773438e+01 1.151162433624267578e+01 -5.093992233276367188e+00
4.800000000000000000e+01 1.353562068939208984e+01 -8.477702140808105469e-01 2.320263862609863281e+00 2.766179084777832031e+01 8.994616508483886719e+00 -5.262751102447509766e+00
4.900000000000000000e+01 1.321961116790771484e+01 -3.311196863651275635e-01 1.816119384765625000e+01 4.514910125732421875e+01 1.899308776855468750e+01 -9.242336273193359375e+00
5.000000000000000000e+01 1.336795806884765625e+01 -4.638245701789855957e-01 1.239333438873291016e+01 3.639377975463867188e+01 1.463613510131835938e+01 -7.406970024108886719e+00
5.100000000000000000e+01 1.351630496978759766e+01 -5.965294837951660156e-01 7.721007347106933594e+00 3.007297897338867188e+01 1.133819580078125000e+01 -7.325612545013427734e+00
5.200000000000000000e+01 1.366465187072753906e+01 -7.292343974113464355e-01 7.126450061798095703e+00 2.622841453552246094e+01 1.000645923614501953e+01 -6.665746212005615234e+00
5.300000000000000000e+01 1.325410652160644531e+01 -2.839903831481933594e-01 2.370877265930175781e+01 4.232982254028320312e+01 1.981157875061035156e+01 -8.703310012817382812e+00
5.400000000000000000e+01 1.342545032501220703e+01 -3.852757513523101807e-01 1.552333831787109375e+01 3.344245147705078125e+01 1.468973636627197266e+01 -8.101609230041503906e+00
5.500000000000000000e+01 1.359679412841796875e+01 -4.865611195564270020e-01 1.219827556610107422e+01 2.780983924865722656e+01 1.200243473052978516e+01 -7.262028217315673828e+00
5.600000000000000000e+01 1.376813697814941406e+01 -5.878464579582214355e-01 8.594351768493652344e+00 2.417576217651367188e+01 9.831034660339355469e+00 -7.269749641418457031e+00
5.700000000000000000e+01 1.327876663208007812e+01 -2.310472130775451660e-01 2.711843299865722656e+01 4.002065658569335938e+01 2.014172554016113281e+01 -7.184550285339355469e+00
5.800000000000000000e+01 1.346655082702636719e+01 -2.970371544361114502e-01 1.936212730407714844e+01 3.058742713928222656e+01 1.498486709594726562e+01 -6.602965354919433594e+00
5.900000000000000000e+01 1.365433406829833984e+01 -3.630270659923553467e-01 1.443004226684570312e+01 2.623674964904785156e+01 1.220003795623779297e+01 -6.446364402770996094e+00
6.000000000000000000e+01 1.384211730957031250e+01 -4.290170073509216309e-01 1.199271106719970703e+01 2.125951385498046875e+01 9.975666999816894531e+00 -5.900620460510253906e+00
6.100000000000000000e+01 1.329264831542968750e+01 -1.743161976337432861e-01 2.937384605407714844e+01 3.739999008178710938e+01 2.003215026855468750e+01 -4.143299102783203125e+00
6.200000000000000000e+01 1.348968505859375000e+01 -2.024854272603988647e-01 2.134559822082519531e+01 3.016378784179687500e+01 1.545281600952148438e+01 -4.485556125640869141e+00
6.300000000000000000e+01 1.368672275543212891e+01 -2.306546717882156372e-01 1.657031440734863281e+01 2.352955627441406250e+01 1.202996158599853516e+01 -3.816165447235107422e+00
6.400000000000000000e+01 1.388376045227050781e+01 -2.588239312171936035e-01 1.302245140075683594e+01 2.164356040954589844e+01 1.039980316162109375e+01 -4.588869094848632812e+00
6.500000000000000000e+01 1.329521846771240234e+01 -1.159681901335716248e-01 3.035394859313964844e+01 3.838238906860351562e+01 2.062090110778808594e+01 -1.585824608802795410e+00
6.600000000000000000e+01 1.349397087097167969e+01 -1.052387729287147522e-01 2.182293701171875000e+01 2.842412757873535156e+01 1.507411956787109375e+01 -6.778039932250976562e-01
6.700000000000000000e+01 1.369272232055664062e+01 -9.450934827327728271e-02 1.690515708923339844e+01 2.486238670349121094e+01 1.253026294708251953e+01 -1.902131438255310059e+00
6.800000000000000000e+01 1.389147377014160156e+01 -8.377993851900100708e-02 1.301071262359619141e+01 1.975244331359863281e+01 9.828947067260742188e+00 -8.177598714828491211e-01
6.900000000000000000e+01 1.328638172149658203e+01 -5.823603272438049316e-02 2.862474822998046875e+01 3.832219696044921875e+01 2.008408355712890625e+01 2.433023929595947266e+00
7.000000000000000000e+01 1.347924137115478516e+01 -9.018510580062866211e-03 2.135321807861328125e+01 3.040075111389160156e+01 1.552619075775146484e+01 1.248607635498046875e+00
7.100000000000000000e+01 1.367210197448730469e+01 4.019900783896446228e-02 1.540273380279541016e+01 2.485716819763183594e+01 1.207797050476074219e+01 2.159155607223510742e+00
7.200000000000000000e+01 1.386496162414550781e+01 8.941652625799179077e-02 1.238274669647216797e+01 2.176755714416503906e+01 1.024509143829345703e+01 4.822350740432739258e-01
7.300000000000000000e+01 1.326647377014160156e+01 -3.329006023705005646e-03 2.712186241149902344e+01 4.089190292358398438e+01 2.040412902832031250e+01 3.979916572570800781e+00
7.400000000000000000e+01 1.344606208801269531e+01 8.249320089817047119e-02 1.779544448852539062e+01 3.213772964477539062e+01 1.497995185852050781e+01 4.410315513610839844e+00
7.500000000000000000e+01 1.362565040588378906e+01 1.683154106140136719e-01 1.423753166198730469e+01 2.695148086547851562e+01 1.235670375823974609e+01 3.128423213958740234e+00
7.600000000000000000e+01 1.380523872375488281e+01 2.541376054286956787e-01 9.687490463256835938e+00 2.370269584655761719e+01 1.001705551147460938e+01 4.046091556549072266e+00
7.700000000000000000e+01 1.323625755310058594e+01 4.665175080299377441e-02 2.198894691467285156e+01 4.386872863769531250e+01 1.975730323791503906e+01 5.874063491821289062e+00
7.800000000000000000e+01 1.339570140838623047e+01 1.657944619655609131e-01 1.556776714324951172e+01 3.478725814819335938e+01 1.510650730133056641e+01 4.602478981018066406e+00
7.900000000000000000e+01 1.355514526367187500e+01 2.849371731281280518e-01 9.927597045898437500e+00 2.964656257629394531e+01 1.187224769592285156e+01 4.703498840332031250e+00
8.000000000000000000e+01 1.371458911895751953e+01 4.040798842906951904e-01 8.773680686950683594e+00 2.526316070556640625e+01 1.021105289459228516e+01 3.984722614288330078e+00
8.100000000000000000e+01 1.319688892364501953e+01 8.979361504316329956e-02 1.871805953979492188e+01 4.690357589721679688e+01 1.968649101257324219e+01 5.186165332794189453e+00
8.200000000000000000e+01 1.333008766174316406e+01 2.376975715160369873e-01 1.026451110839843750e+01 3.787842178344726562e+01 1.444288063049316406e+01 4.134739875793457031e+00
8.300000000000000000e+01 1.346328544616699219e+01 3.856015205383300781e-01 8.224905014038085938e+00 3.146789169311523438e+01 1.190783977508544922e+01 3.731904268264770508e+00
8.400000000000000000e+01 1.359648323059082031e+01 5.335054993629455566e-01 4.188460826873779297e+00 2.817823410034179688e+01 9.710008621215820312e+00 3.670573949813842773e+00
8.500000000000000000e+01 1.314987468719482422e+01 1.244456619024276733e-01 1.283966732025146484e+01 5.026282119750976562e+01 1.893074607849121094e+01 2.820058345794677734e+00
8.600000000000000000e+01 1.325173091888427734e+01 2.954509854316711426e-01 7.856402873992919922e+00 3.939206314086914062e+01 1.417454051971435547e+01 1.898881673812866211e+00
8.700000000000000000e+01 1.335358619689941406e+01 4.664563238620758057e-01 3.987024784088134766e+00 3.361212539672851562e+01 1.127974414825439453e+01 1.262076020240783691e+00
8.800000000000000000e+01 1.345544052124023438e+01 6.374616622924804688e-01 3.654004812240600586e+00 2.876151275634765625e+01 9.724655151367187500e+00 2.381106376647949219e+00
8.900000000000000000e+01 1.309701442718505859e+01 1.492818593978881836e-01 9.495983123779296875e+00 5.150772476196289062e+01 1.830111122131347656e+01 -7.961820363998413086e-01
9.000000000000000000e+01 1.316362857818603516e+01 3.368446528911590576e-01 4.548557281494140625e+00 4.031024169921875000e+01 1.345763969421386719e+01 -2.353957891464233398e+00
9.100000000000000000e+01 1.323024368286132812e+01 5.244074463844299316e-01 2.597427606582641602e+00 3.358235168457031250e+01 1.085393333435058594e+01 -1.243953227996826172e+00
9.200000000000000000e+01 1.329685878753662109e+01 7.119702100753784180e-01 1.544870138168334961e+00 2.902476882934570312e+01 9.170891761779785156e+00 -1.937297701835632324e+00
9.300000000000000000e+01 1.304032897949218750e+01 1.633518040180206299e-01 7.055566310882568359e+00 5.132340621948242188e+01 1.751369094848632812e+01 -6.670934200286865234e+00
9.400000000000000000e+01 1.306915378570556641e+01 3.602945506572723389e-01 3.129095554351806641e+00 3.891135025024414062e+01 1.261213397979736328e+01 -6.127689838409423828e+00
9.500000000000000000e+01 1.309797954559326172e+01 5.572372674942016602e-01 2.062286138534545898e+00 3.195026397705078125e+01 1.020376491546630859e+01 -5.895606994628906250e+00
9.600000000000000000e+01 1.312680435180664062e+01 7.541800141334533691e-01 3.652713298797607422e-01 2.809498023986816406e+01 8.538075447082519531e+00 -4.402679443359375000e+00
9.700000000000000000e+01 1.298198986053466797e+01 1.661170423030853271e-01 6.092899799346923828e+00 4.811091232299804688e+01 1.626114463806152344e+01 -1.218665790557861328e+01
9.800000000000000000e+01 1.297192192077636719e+01 3.649032711982727051e-01 4.017586231231689453e+00 3.531412887573242188e+01 1.179951381683349609e+01 -1.067554855346679688e+01
9.900000000000000000e+01 1.296185493469238281e+01 5.636895298957824707e-01 1.587120413780212402e+00 2.923274040222167969e+01 9.245958328247070312e+00 -9.245517730712890625e+00
1.000000000000000000e+02 1.295178794860839844e+01 7.624757885932922363e-01 2.185485601425170898e+00 2.420020484924316406e+01 7.915707111358642578e+00 -8.139915466308593750e+00
1.010000000000000000e+02 1.292422962188720703e+01 1.574717909097671509e-01 8.361490249633789062e+00 4.231478118896484375e+01 1.520288181304931641e+01 -1.722285079956054688e+01
1.020000000000000000e+02 1.287565422058105469e+01 3.504945337772369385e-01 4.937056064605712891e+00 2.998921012878417969e+01 1.047787952423095703e+01 -1.408655548095703125e+01
1.030000000000000000e+02 1.282707881927490234e+01 5.435172915458679199e-01 3.835435628890991211e+00 2.408766365051269531e+01 8.376929283142089844e+00 -1.168437957763671875e+01
1.040000000000000000e+02 1.277850341796875000e+01 7.365400195121765137e-01 2.232955932617187500e+00 2.081772613525390625e+01 6.915204524993896484e+00 -1.109614372253417969e+01
1.050000000000000000e+02 1.286925601959228516e+01 1.377468705177307129e-01 1.121865081787109375e+01 3.367283248901367188e+01 1.346744537353515625e+01 -2.070425033569335938e+01
1.060000000000000000e+02 1.278403186798095703e+01 3.176196515560150146e-01 7.766600131988525391e+00 2.330322456359863281e+01 9.320947647094726562e+00 -1.534376239776611328e+01
1.070000000000000000e+02 1.269880867004394531e+01 4.974924325942993164e-01 5.300982475280761719e+00 1.832258224487304688e+01 7.087069034576416016e+00 -1.334028625488281250e+01
1.080000000000000000e+02 1.261358451843261719e+01 6.773652434349060059e-01 4.128644943237304688e+00 1.560234355926513672e+01 5.919296741485595703e+00 -1.116808795928955078e+01
1.090000000000000000e+02 1.281917476654052734e+01 1.076970919966697693e-01 1.527414894104003906e+01 2.431323242187500000e+01 1.187621402740478516e+01 -2.086679649353027344e+01
1.100000000000000000e+02 1.270056343078613281e+01 2.675366997718811035e-01 9.920010566711425781e+00 1.542338752746582031e+01 7.603019237518310547e+00 -1.520733261108398438e+01
1.110000000000000000e+02 1.258195304870605469e+01 4.273763000965118408e-01 7.049100399017333984e+00 1.262985134124755859e+01 5.903685092926025391e+00 -1.203365135192871094e+01
1.120000000000000000e+02 1.246334171295166016e+01 5.872159004211425781e-01 5.329902648925781250e+00 1.027228832244873047e+01 4.680657386779785156e+00 -1.126871109008789062e+01
1.130000000000000000e+02 1.277590179443359375e+01 6.847237795591354370e-02 1.826326560974121094e+01 1.345582199096679688e+01 9.515726089477539062e+00 -1.842957687377929688e+01
1.140000000000000000e+02 1.262844276428222656e+01 2.021621763706207275e-01 1.097481822967529297e+01 9.117550849914550781e+00 6.027710437774658203e+00 -1.209363365173339844e+01
1.150000000000000000e+02 1.248098278045654297e+01 3.358519673347473145e-01 7.742145061492919922e+00 6.675615310668945312e+00 4.325327873229980469e+00 -1.009905624389648438e+01
1.160000000000000000e+02 1.233352375030517578e+01 4.695417881011962891e-01 5.219457149505615234e+00 6.531114578247070312e+00 3.525171279907226562e+00 -8.494116783142089844e+00
1.170000000000000000e+02 1.274109363555908203e+01 2.157375961542129517e-02 1.845435714721679688e+01 5.484871387481689453e+00 7.181768417358398438e+00 -1.265821361541748047e+01
1.180000000000000000e+02 1.257042884826660156e+01 1.239978075027465820e-01 1.009818267822265625e+01 2.727029323577880859e+00 3.847563505172729492e+00 -7.836307048797607422e+00
1.190000000000000000e+02 1.239976310729980469e+01 2.264218628406524658e-01 5.897946834564208984e+00 3.893110275268554688e+00 2.937317132949829102e+00 -6.241347789764404297e+00
1.200000000000000000e+02 1.222909832000732422e+01 3.288459181785583496e-01 4.464097499847412109e+00 2.664522409439086914e+00 2.138585805892944336e+00 -6.241372585296630859e+00
1.210000000000000000e+02 1.271608257293701172e+01 -3.120408579707145691e-02 1.441693019866943359e+01 -2.612100124359130859e+00 3.541449069976806641e+00 -4.640783786773681641e+00
1.220000000000000000e+02 1.252874183654785156e+01 3.603473305702209473e-02 5.008234024047851562e+00 1.783209443092346191e+00 2.037432909011840820e+00 -2.905038356781005859e+00
1.230000000000000000e+02 1.234140205383300781e+01 1.032735481858253479e-01 3.429729938507080078e+00 8.181403875350952148e-01 1.274361133575439453e+00 -3.683952808380126953e+00
1.240000000000000000e+02 1.215406227111816406e+01 1.705123633146286011e-01 1.125183343887329102e+00 1.393318176269531250e+00 7.555504441261291504e-01 -2.621260166168212891e+00
1.250000000000000000e+02 1.270182323455810547e+01 -8.784150332212448120e-02 -2.222962230443954468e-01 -2.021722078323364258e+00 -6.732054948806762695e-01 2.140796899795532227e+00
1.260000000000000000e+02 1.250497722625732422e+01 -5.836095660924911499e-02 1.188981652259826660e+00 3.983514308929443359e-01 4.761999249458312988e-01 -1.406628847122192383e+00
1.270000000000000000e+02 1.230813217163085938e+01 -2.888041175901889801e-02 -1.528986096382141113e+00 3.987540304660797119e-01 -3.390696346759796143e-01 -2.711713016033172607e-01
1.280000000000000000e+02 1.211128616333007812e+01 6.001294241286814213e-04 -2.884150743484497070e+00 -3.748636543750762939e-01 -9.777042865753173828e-01 -4.281338751316070557e-01
1.290000000000000000e+02 9.409171104431152344e+00 -6.368238329887390137e-01 -1.598260998725891113e+00 -2.436394803225994110e-02 -4.867874979972839355e-01 -1.182710155844688416e-01
1.300000000000000000e+02 8.730575561523437500e+00 -1.212916970252990723e+00 -5.151258707046508789e-01 8.358675986528396606e-02 -1.294617354869842529e-01 -1.502597182989120483e-01
1.310000000000000000e+02 9.819673538208007812e+00 -7.822480797767639160e-01 -1.285497188568115234e+00 7.341574132442474365e-02 -3.636244535446166992e-01 -9.674250334501266479e-02
1.320000000000000000e+02 9.362687110900878906e+00 -1.183819890022277832e+00 -3.445287346839904785e-01 1.168912351131439209e-01 -6.829124689102172852e-02 -1.126676890999078751e-02
1.330000000000000000e+02 9.608439445495605469e+00 -1.603758931159973145e-01 -2.811073541641235352e+00 5.154841393232345581e-02 -8.278575539588928223e-01 -8.246909826993942261e-02
1.340000000000000000e+02 7.929244041442871094e+00 -6.562533378601074219e-01 -1.340074777603149414e+00 4.221356473863124847e-03 -4.007560312747955322e-01 -2.102499008178710938e-01
1.350000000000000000e+02 7.968088626861572266e+00 -2.286565154790878296e-01 -2.052625656127929688e+00 3.633533045649528503e-02 -6.048870682716369629e-01 -1.074609905481338501e-01
1.360000000000000000e+02 6.712129592895507812e+00 -6.868483424186706543e-01 -1.150288224220275879e+00 1.750387437641620636e-02 -3.398353159427642822e-01 -1.953286826610565186e-01
1.370000000000000000e+02 6.008192539215087891e+00 -4.147895872592926025e-01 -1.221814274787902832e+00 -2.256892621517181396e-02 -3.733149468898773193e-01 -1.413175612688064575e-01
1.380000000000000000e+02 5.190946578979492188e+00 -4.000715017318725586e-01 -9.363184571266174316e-01 5.415277089923620224e-03 -2.792709469795227051e-01 -1.072784364223480225e-01
1.390000000000000000e+02 4.323809623718261719e+00 -3.975145518779754639e-01 -7.057660222053527832e-01 -2.157277427613735199e-02 -2.182016372680664062e-01 -1.063517332077026367e-01
1.400000000000000000e+02 2.247299909591674805e+00 -7.255440950393676758e-01 -1.899636238813400269e-01 -1.114916987717151642e-02 -6.033383682370185852e-02 -1.338956207036972046e-01
1.410000000000000000e+02 1.118224740028381348e+00 -3.892954289913177490e-01 -5.203416198492050171e-02 -8.207127451896667480e-03 -1.807238720357418060e-02 -3.060024417936801910e-02
1.420000000000000000e+02 7.008973956108093262e-01 -1.129295468330383301e+00 -2.871635183691978455e-02 -5.577917769551277161e-02 -2.534865960478782654e-02 -5.966671928763389587e-02
1.430000000000000000e+02 3.955280780792236328e-01 -5.606660246849060059e-01 -3.817765275016427040e-03 -1.202629320323467255e-02 -4.753217566758394241e-03 -6.773194298148155212e-03
1.440000000000000000e+02 9.776029586791992188e+00 -1.170772194862365723e+00 -2.403266727924346924e-01 -8.174318820238113403e-03 -7.455029338598251343e-02 1.337264385074377060e-02
1.450000000000000000e+02 7.864572525024414062e+00 -1.187596797943115234e+00 -7.139775156974792480e-01 3.055208595469594002e-03 -2.132766842842102051e-01 -2.622649371623992920e-01
1.460000000000000000e+02 7.040992736816406250e+00 -1.222075223922729492e+00 -7.735974788665771484e-01 2.229288220405578613e-03 -2.314104586839675903e-01 -2.824307084083557129e-01
1.470000000000000000e+02 6.321391105651855469e+00 -1.227692246437072754e+00 -6.317214965820312500e-01 -2.083392255008220673e-02 -1.957666277885437012e-01 -2.393947988748550415e-01
1.480000000000000000e+02 5.582717418670654297e+00 -1.154789566993713379e+00 -5.629996657371520996e-01 -1.315058302134275436e-02 -1.728450804948806763e-01 -2.855494618415832520e-01
1.490000000000000000e+02 4.766829490661621094e+00 -1.140071511268615723e+00 -5.412347912788391113e-01 -2.638071961700916290e-02 -1.702846586704254150e-01 -2.726288735866546631e-01
1.500000000000000000e+02 3.901050567626953125e+00 -1.137514591217041016e+00 -3.905489146709442139e-01 -2.142627537250518799e-02 -1.235925629734992981e-01 -2.496567517518997192e-01
1.510000000000000000e+02 2.999785900115966797e+00 -1.183252215385437012e+00 -2.695590555667877197e-01 -2.738397195935249329e-02 -8.908291161060333252e-02 -2.391102910041809082e-01
1.520000000000000000e+02 2.145623683929443359e+00 -1.228909492492675781e+00 -1.543140709400177002e-01 -5.239974707365036011e-02 -6.201414391398429871e-02 -1.754556149244308472e-01
1.530000000000000000e+02 9.713213920593261719e+00 -3.938553035259246826e-01 -2.193698406219482422e+00 1.304225623607635498e-01 -6.189827919006347656e-01 -1.734323650598526001e-01
1.540000000000000000e+02 9.795337677001953125e+00 -5.891145467758178711e-01 -1.509407162666320801e+00 1.453284025192260742e-01 -4.092236161231994629e-01 -2.656829059123992920e-01
1.550000000000000000e+02 9.660148620605468750e+00 -1.387604475021362305e+00 5.237108841538429260e-02 1.022033989429473877e-01 4.637234658002853394e-02 1.295661628246307373e-01
1.560000000000000000e+02 9.812286376953125000e+00 -9.697806239128112793e-01 -4.691090881824493408e-01 6.687001138925552368e-02 -1.206717267632484436e-01 3.670030506327748299e-03
1.570000000000000000e+02 9.515228271484375000e+00 -8.956062793731689453e-01 -9.264580011367797852e-01 3.067829646170139313e-02 -2.687339186668395996e-01 -3.548057749867439270e-02
1.580000000000000000e+02 8.785646438598632812e+00 -2.145389914512634277e-01 -2.424049854278564453e+00 -3.495523706078529358e-02 -7.377015352249145508e-01 -9.713895618915557861e-02
1.590000000000000000e+02 7.297682762145996094e+00 -3.207923769950866699e-01 -1.592804551124572754e+00 -1.781485788524150848e-02 -4.831858277320861816e-01 -1.239538416266441345e-01
1.600000000000000000e+02 3.578698635101318359e+00 -3.051906526088714600e-01 -4.888686537742614746e-01 -1.607964374125003815e-02 -1.514844894409179688e-01 -6.077973917126655579e-02
1.610000000000000000e+02 2.181522846221923828e+00 -2.566345930099487305e-01 -1.868402957916259766e-01 1.018274761736392975e-02 -5.299726501107215881e-02 -4.300842806696891785e-02
1.620000000000000000e+02 1.681370139122009277e+00 -5.721496343612670898e-01 -1.135147213935852051e-01 -2.452955767512321472e-02 -4.141328483819961548e-02 -6.606222689151763916e-02
1.630000000000000000e+02 1.388441801071166992e+00 -1.191746234893798828e+00 -7.252854853868484497e-02 -6.650194525718688965e-02 -4.170914739370346069e-02 -1.208920329809188843e-01
1.640000000000000000e+02 8.780865669250488281e+00 -6.674559116363525391e-01 -1.478019833564758301e+00 -8.498764596879482269e-03 -4.459555745124816895e-01 -1.987633854150772095e-01
1.650000000000000000e+02 2.992407560348510742e+00 -6.572144627571105957e-01 -3.547785878181457520e-01 3.267521737143397331e-03 -1.054533198475837708e-01 -1.518403738737106323e-01
1.660000000000000000e+02 2.904407024383544922e+00 -2.339623123407363892e-01 -3.049910366535186768e-01 2.712805289775133133e-04 -9.141592681407928467e-02 -2.230309508740901947e-02
1.670000000000000000e+02 1.276713180541992188e+01 1.042703390121459961e+00 2.702873468399047852e+00 1.750606918334960938e+01 6.062682628631591797e+00 -8.909617424011230469e+00
1.680000000000000000e+02 1.255920410156250000e+01 1.278989791870117188e+00 3.065663099288940430e+00 1.340144252777099609e+01 4.940131664276123047e+00 -8.264183998107910156e+00
1.690000000000000000e+02 1.332798671722412109e+01 9.409298300743103027e-01 6.127026081085205078e-01 2.573043441772460938e+01 7.902940750122070312e+00 -6.957134008407592773e-01
1.700000000000000000e+02 1.388068008422851562e+01 5.447627902030944824e-01 4.281543731689453125e+00 2.349754524230957031e+01 8.333726882934570312e+00 4.621975421905517578e+00
1.710000000000000000e+02 1.408722972869873047e+01 -2.576574981212615967e-01 1.017285346984863281e+01 1.732861328125000000e+01 8.250440597534179688e+00 -3.201180219650268555e+00
1.720000000000000000e+02 1.428283977508544922e+01 -6.470804214477539062e-01 7.467193603515625000e+00 1.740162658691406250e+01 7.460646152496337891e+00 -6.644703865051269531e+00
1.730000000000000000e+02 1.396803379058837891e+01 -8.727547526359558105e-01 5.650438785552978516e+00 2.069098091125488281e+01 7.902425765991210938e+00 -6.684319972991943359e+00
1.740000000000000000e+02 1.352581405639648438e+01 -1.126550316810607910e+00 4.967632517218589783e-02 2.479828262329101562e+01 7.454387187957763672e+00 -3.148001432418823242e+00
1.750000000000000000e+02 1.214418315887451172e+01 -8.026944398880004883e-01 4.412981033325195312e+00 3.421267032623291016e+00 2.350274324417114258e+00 4.639776706695556641e+00
1.760000000000000000e+02 1.126551246643066406e+01 -1.731272488832473755e-01 -3.818593502044677734e+00 1.112292259931564331e-01 -1.112209320068359375e+00 1.847390979528427124e-01
1.770000000000000000e+02 1.010598945617675781e+01 -1.500645279884338379e-01 -3.158821344375610352e+00 -8.918892592191696167e-02 -9.744030833244323730e-01 3.434211388230323792e-02
1.780000000000000000e+02 1.413159751892089844e+01 2.674170732498168945e-01 6.692412376403808594e+00 1.925006103515625000e+01 7.782742023468017578e+00 1.625892281532287598e+00
1.790000000000000000e+02 1.314462757110595703e+01 9.769414067268371582e-01 1.478252172470092773e+00 2.344271087646484375e+01 7.476288795471191406e+00 -4.695746898651123047e+00
1.800000000000000000e+02 1.010345745086669922e+01 1.228777095675468445e-01 -1.263511657714843750e+01 -2.657190263271331787e-01 -3.870250463485717773e+00 2.964933514595031738e-01
1.810000000000000000e+02 1.195166873931884766e+01 2.327837944030761719e-01 -4.177107214927673340e-01 2.584847509860992432e-01 -4.776779189705848694e-02 -2.549705266952514648e+00
1.820000000000000000e+02 1.191209411621093750e+01 2.702873013913631439e-02 -4.085330009460449219e+00 4.532348513603210449e-01 -1.089628577232360840e+00 -2.677998840808868408e-01
1.830000000000000000e+02 1.360916805267333984e+01 8.076577782630920410e-01 1.572733998298645020e+00 2.594445991516113281e+01 8.255158424377441406e+00 2.223700523376464844e+00
1.840000000000000000e+02 1.172471523284912109e+01 -5.155675411224365234e-01 -1.401425898075103760e-01 6.977673619985580444e-02 -2.110975608229637146e-02 7.296214699745178223e-01
1.850000000000000000e+02 1.202047061920166016e+01 -6.287548542022705078e-01 2.768899679183959961e+00 1.061067104339599609e+00 1.148990035057067871e+00 2.495483398437500000e+00
1.860000000000000000e+02 1.229176235198974609e+01 -9.466587305068969727e-01 4.476856708526611328e+00 6.383339405059814453e+00 3.258058786392211914e+00 6.334270000457763672e+00
1.870000000000000000e+02 1.369775485992431641e+01 -1.318264126777648926e+00 1.096946001052856445e+00 2.173233604431152344e+01 6.848784446716308594e+00 -4.695776462554931641e+00
1.880000000000000000e+02 1.406086063385009766e+01 -6.176561117172241211e-01 6.999792575836181641e+00 1.838230895996093750e+01 7.614630222320556641e+00 -6.106484889984130859e+00
1.890000000000000000e+02 1.390846443176269531e+01 -6.838577985763549805e-01 7.957863807678222656e+00 2.224467468261718750e+01 9.060761451721191406e+00 -7.220034599304199219e+00
1.900000000000000000e+02 1.144215488433837891e+01 -1.463544487953186035e+00 2.665665626525878906e+00 2.665290832519531250e+00 1.599286913871765137e+00 2.780093908309936523e+00
1.910000000000000000e+02 1.029187202453613281e+01 -9.620015621185302734e-01 -3.193185627460479736e-01 2.476616948843002319e-01 -2.149705775082111359e-02 1.034626811742782593e-01
1.920000000000000000e+02 1.031813716888427734e+01 -1.678942739963531494e-01 -3.297908067703247070e+00 -9.847290813922882080e-03 -9.923265576362609863e-01 -4.094989225268363953e-02
1.930000000000000000e+02 1.006913948059082031e+01 -1.397629976272583008e+00 3.726152479648590088e-01 5.696920156478881836e-01 2.826921641826629639e-01 4.896655380725860596e-01
1.940000000000000000e+02 1.046474933624267578e+01 -1.413856387138366699e+00 9.421346187591552734e-01 7.451907396316528320e-01 5.061976313591003418e-01 8.375203609466552734e-01
1.950000000000000000e+02 1.026746940612792969e+01 -1.405261278152465820e+00 7.321506142616271973e-01 5.051670670509338379e-01 3.711953163146972656e-01 5.956603288650512695e-01
1.960000000000000000e+02 1.322080230712890625e+01 -1.487060904502868652e+00 -6.813259720802307129e-01 2.040477943420410156e+01 5.917036056518554688e+00 1.061415076255798340e+00
1.970000000000000000e+02 1.262668991088867188e+01 -1.466312289237976074e+00 1.460508108139038086e+00 1.414614391326904297e+01 4.681995391845703125e+00 5.755942344665527344e+00
1.980000000000000000e+02 1.264450073242187500e+01 -1.193575501441955566e+00 2.090200662612915039e+00 1.490528392791748047e+01 5.098645210266113281e+00 7.041747093200683594e+00
1.990000000000000000e+02 1.198576641082763672e+01 -1.194680690765380859e+00 3.613031864166259766e+00 4.571463584899902344e+00 2.455348730087280273e+00 4.563569545745849609e+00
2.000000000000000000e+02 1.141889572143554688e+01 -1.272128701210021973e+00 2.360716581344604492e+00 1.977579474449157715e+00 1.301488876342773438e+00 2.434569835662841797e+00
2.010000000000000000e+02 1.087766933441162109e+01 -1.189749836921691895e+00 1.185050725936889648e+00 7.898691296577453613e-01 5.924759507179260254e-01 1.070831775665283203e+00
2.020000000000000000e+02 1.379730510711669922e+01 9.835050702095031738e-01 3.049640178680419922e+00 2.128739547729492188e+01 7.301110267639160156e+00 4.378695011138916016e+00
2.030000000000000000e+02 1.013223552703857422e+01 1.385899782180786133e+00 -3.637159347534179688e+00 2.880567789077758789e+00 -2.269774228334426880e-01 -3.222351312637329102e+00
2.040000000000000000e+02 1.051356029510498047e+01 1.077358245849609375e+00 -3.339525461196899414e+00 2.020767211914062500e+00 -3.956274986267089844e-01 -4.314464569091796875e+00
2.050000000000000000e+02 1.031734275817871094e+01 1.128559947013854980e+00 -3.727351427078247070e+00 1.710044980049133301e+00 -6.051919460296630859e-01 -3.173949003219604492e+00
2.060000000000000000e+02 1.115211868286132812e+01 1.297971248626708984e+00 5.088329911231994629e-01 3.121587276458740234e+00 1.089126110076904297e+00 -6.969846248626708984e+00
2.070000000000000000e+02 1.407172203063964844e+01 -4.508999288082122803e-01 9.753138542175292969e+00 1.950178527832031250e+01 8.776476860046386719e+00 -5.959327697753906250e+00
2.080000000000000000e+02 1.341274356842041016e+01 -1.272282838821411133e+00 2.145824283361434937e-01 2.360358047485351562e+01 7.145448684692382812e+00 -1.433779239654541016e+00
2.090000000000000000e+02 1.245533657073974609e+01 -1.089359879493713379e+00 3.680959463119506836e+00 1.098059940338134766e+01 4.398467540740966797e+00 7.421567916870117188e+00
2.100000000000000000e+02 1.220682716369628906e+01 -1.081945419311523438e+00 4.240588188171386719e+00 6.633387088775634766e+00 3.262192487716674805e+00 5.987937927246093750e+00
2.110000000000000000e+02 1.190081787109375000e+01 -2.054426819086074829e-01 -4.056602478027343750e+00 -5.652407929301261902e-02 -1.233937978744506836e+00 -1.024478599429130554e-01
2.120000000000000000e+02 1.145950889587402344e+01 -2.251248806715011597e-01 -3.763439893722534180e+00 -8.871478587388992310e-02 -1.155646443367004395e+00 1.367058455944061279e-01
2.130000000000000000e+02 1.284765911102294922e+01 -1.234634876251220703e+00 8.906149268150329590e-01 1.932971954345703125e+01 6.066100120544433594e+00 5.697069644927978516e+00
2.140000000000000000e+02 1.404358577728271484e+01 -7.526672482490539551e-01 6.206825256347656250e+00 1.859889793395996094e+01 7.441717147827148438e+00 -7.225328445434570312e+00
2.150000000000000000e+02 1.367940616607666016e+01 -1.027462720870971680e+00 3.246158361434936523e+00 2.447051048278808594e+01 8.315000534057617188e+00 -5.689334869384765625e+00
2.160000000000000000e+02 1.427735519409179688e+01 4.165900945663452148e-01 4.530894756317138672e+00 1.668948745727539062e+01 6.366114616394042969e+00 2.330823183059692383e+00
2.170000000000000000e+02 1.406343555450439453e+01 -7.279065251350402832e-02 1.144643592834472656e+01 1.876809501647949219e+01 9.064359664916992188e+00 -2.001748085021972656e+00
2.180000000000000000e+02 1.229802703857421875e+01 1.147240996360778809e+00 3.751405477523803711e+00 9.509820938110351562e+00 3.978368043899536133e+00 -9.630588531494140625e+00
2.190000000000000000e+02 1.295417881011962891e+01 9.932194352149963379e-01 3.848170042037963867e-01 2.214146804809570312e+01 6.757885456085205078e+00 -7.201915740966796875e+00
2.200000000000000000e+02 1.201428794860839844e+01 4.382504224777221680e-01 1.986563801765441895e+00 2.722698450088500977e+00 1.412778615951538086e+00 -5.341492652893066406e+00
2.210000000000000000e+02 1.258456420898437500e+01 1.076265692710876465e+00 2.311241149902343750e+00 1.433303451538085938e+01 4.993282794952392578e+00 -1.061776542663574219e+01
2.220000000000000000e+02 1.200971698760986328e+01 1.191438794136047363e+00 2.738358974456787109e+00 6.848670482635498047e+00 2.876108884811401367e+00 -9.030896186828613281e+00
2.230000000000000000e+02 1.406591987609863281e+01 7.151089906692504883e-01 4.881103992462158203e+00 1.964865875244140625e+01 7.358929157257080078e+00 5.008693218231201172e+00
2.240000000000000000e+02 1.398718070983886719e+01 3.903338015079498291e-01 8.142539024353027344e+00 2.059696578979492188e+01 8.621850967407226562e+00 3.086401462554931641e+00
2.250000000000000000e+02 1.333962440490722656e+01 1.198898077011108398e+00 1.750149130821228027e+00 2.067656135559082031e+01 6.728013038635253906e+00 -2.320118904113769531e+00
2.260000000000000000e+02 1.304475688934326172e+01 -1.244667887687683105e+00 -2.893270552158355713e-01 2.209918594360351562e+01 6.542957782745361328e+00 3.473005533218383789e+00
2.270000000000000000e+02 1.355155754089355469e+01 -1.415637969970703125e+00 -2.830061316490173340e-02 2.110294723510742188e+01 6.322393894195556641e+00 -2.898055553436279297e+00
2.280000000000000000e+02 1.383978939056396484e+01 -9.515049457550048828e-01 2.368675470352172852e+00 2.271206665039062500e+01 7.524222373962402344e+00 -6.076100826263427734e+00
2.290000000000000000e+02 1.399238967895507812e+01 -1.098956346511840820e+00 4.165843963623046875e+00 1.959474372863769531e+01 7.128176212310791016e+00 -7.674275398254394531e+00
2.300000000000000000e+02 1.375164031982421875e+01 6.871340274810791016e-01 4.836403846740722656e+00 2.400759887695312500e+01 8.653201103210449219e+00 4.402445793151855469e+00
2.310000000000000000e+02 1.417817783355712891e+01 5.637680888175964355e-01 2.268142461776733398e+00 1.924154090881347656e+01 6.452904701232910156e+00 4.787726402282714844e+00
2.320000000000000000e+02 1.351253700256347656e+01 1.165824055671691895e+00 1.246220827102661133e+00 2.211311912536621094e+01 7.007802009582519531e+00 8.752012252807617188e-01
2.330000000000000000e+02 1.425840187072753906e+01 -1.826861202716827393e-01 8.850580215454101562e+00 1.563600540161132812e+01 7.345975875854492188e+00 -3.845398426055908203e+00
2.340000000000000000e+02 1.421656417846679688e+01 -8.143180012702941895e-01 5.587924003601074219e+00 1.811813735961914062e+01 7.111818790435791016e+00 -5.537294387817382812e+00
2.350000000000000000e+02 1.419718265533447266e+01 -1.286796387284994125e-02 8.747709274291992188e+00 1.696599006652832031e+01 7.714109897613525391e+00 -4.230729043483734131e-01
2.360000000000000000e+02 1.351057815551757812e+01 9.652865529060363770e-01 2.233211994171142578e+00 2.380229568481445312e+01 7.810652256011962891e+00 9.095357060432434082e-01
2.370000000000000000e+02 1.436744785308837891e+01 6.823498755693435669e-02 6.070204734802246094e+00 1.520863723754882812e+01 6.383652687072753906e+00 -1.881760597229003906e+00
2.380000000000000000e+02 1.323190021514892578e+01 -1.229068636894226074e+00 -2.233445942401885986e-01 2.430728149414062500e+01 7.225181102752685547e+00 6.162386536598205566e-01
2.390000000000000000e+02 1.411850452423095703e+01 -9.673090577125549316e-01 1.671727895736694336e+00 1.909683990478515625e+01 6.230570793151855469e+00 -7.540916442871093750e+00
2.400000000000000000e+02 1.296186161041259766e+01 1.247752070426940918e+00 2.782029867172241211e+00 1.727226448059082031e+01 6.016288757324218750e+00 -6.495180606842041016e+00
2.410000000000000000e+02 1.241908550262451172e+01 -1.465434789657592773e+00 2.168116331100463867e+00 1.102939605712890625e+01 3.959253549575805664e+00 5.934370994567871094e+00
2.420000000000000000e+02 1.125196743011474609e+01 -1.457012295722961426e+00 2.323764085769653320e+00 1.964107751846313477e+00 1.286361455917358398e+00 2.228623628616333008e+00
2.430000000000000000e+02 1.182397174835205078e+01 -1.453720211982727051e+00 2.996701955795288086e+00 4.437559127807617188e+00 2.230278253555297852e+00 4.150597572326660156e+00
2.440000000000000000e+02 1.201974010467529297e+01 -1.462150931358337402e+00 2.754971265792846680e+00 6.224370956420898438e+00 2.693802595138549805e+00 4.740701198577880859e+00
2.450000000000000000e+02 1.221866035461425781e+01 -1.475077509880065918e+00 2.683223485946655273e+00 8.257768630981445312e+00 3.282297611236572266e+00 5.460784435272216797e+00
2.460000000000000000e+02 1.168331909179687500e+01 -2.354518920183181763e-01 -3.821827173233032227e+00 -1.075167432427406311e-01 -1.178803205490112305e+00 2.209478989243507385e-02
2.470000000000000000e+02 1.066353797912597656e+01 -1.420246839523315430e+00 1.316941022872924805e+00 8.596613407135009766e-01 6.529806852340698242e-01 1.170490384101867676e+00
2.480000000000000000e+02 1.177674961090087891e+01 -1.178708910942077637e+00 3.279282331466674805e+00 3.075816631317138672e+00 1.906529664993286133e+00 3.679844856262207031e+00
2.490000000000000000e+02 1.283402347564697266e+01 -1.488905191421508789e+00 3.537385761737823486e-01 1.684057426452636719e+01 5.158293724060058594e+00 4.602570533752441406e+00
2.500000000000000000e+02 1.303230381011962891e+01 -1.496103525161743164e+00 -1.767770946025848389e-01 1.931472206115722656e+01 5.741383552551269531e+00 2.782931566238403320e+00
2.510000000000000000e+02 1.108010673522949219e+01 -1.634891778230667114e-01 -3.853562593460083008e+00 -4.574825242161750793e-02 -1.169793248176574707e+00 6.711552292108535767e-02
2.520000000000000000e+02 1.006690216064453125e+01 -5.496060848236083984e-01 -1.601709485054016113e+00 -1.171911135315895081e-01 -5.156701803207397461e-01 -1.819343566894531250e-01
2.530000000000000000e+02 1.086310291290283203e+01 -1.425522089004516602e+00 1.609744191169738770e+00 1.059936523437500000e+00 8.009042143821716309e-01 1.432400226593017578e+00
2.540000000000000000e+02 1.088883209228515625e+01 -1.509089767932891846e-01 -3.788459062576293945e+00 9.046090766787528992e-03 -1.133823871612548828e+00 1.004264429211616516e-01
2.550000000000000000e+02 1.070951366424560547e+01 -1.344456821680068970e-01 -3.700986385345458984e+00 3.827779553830623627e-03 -1.109147548675537109e+00 7.739923149347305298e-02
2.560000000000000000e+02 1.008490085601806641e+01 -3.642486035823822021e-01 -2.503035068511962891e+00 -1.895040273666381836e-01 -8.077617287635803223e-01 -1.595123261213302612e-01
2.570000000000000000e+02 1.021608734130859375e+01 -5.014628767967224121e-01 -1.945312023162841797e+00 1.119199581444263458e-02 -5.802360177040100098e-01 -9.278870373964309692e-02
2.580000000000000000e+02 1.011117172241210938e+01 3.402558267116546631e-01 -1.060640621185302734e+01 -4.562914073467254639e-01 -3.318809270858764648e+00 -8.676497340202331543e-01
2.590000000000000000e+02 1.150942325592041016e+01 5.976767838001251221e-02 -6.278645038604736328e+00 4.657956361770629883e-01 -1.743854880332946777e+00 -1.455117017030715942e-01
2.600000000000000000e+02 1.111110782623291016e+01 1.072281897068023682e-01 -8.332612037658691406e+00 4.182952344417572021e-01 -2.374294996261596680e+00 -1.086945682764053345e-01
2.610000000000000000e+02 1.158035278320312500e+01 1.284178256988525391e+00 1.945396780967712402e+00 4.439937114715576172e+00 1.915600180625915527e+00 -8.337729454040527344e+00
2.620000000000000000e+02 1.131120491027832031e+01 8.190495520830154419e-02 -7.368896007537841797e+00 -4.023106694221496582e-01 -2.331362009048461914e+00 -1.885000467300415039e-01
2.630000000000000000e+02 1.171042346954345703e+01 4.572870582342147827e-02 -5.211120605468750000e+00 -3.448889851570129395e-01 -1.666802883148193359e+00 -3.031778931617736816e-01
2.640000000000000000e+02 1.276563739776611328e+01 1.266973257064819336e+00 5.215914845466613770e-01 1.732819366455078125e+01 5.354935646057128906e+00 -8.727029800415039062e+00
2.650000000000000000e+02 1.139878082275390625e+01 9.890841245651245117e-01 5.294036269187927246e-01 2.676114320755004883e+00 9.616553783416748047e-01 -6.462485790252685547e+00
2.660000000000000000e+02 1.188587188720703125e+01 1.134145379066467285e+00 3.059875965118408203e+00 5.152768135070800781e+00 2.463793277740478516e+00 -8.791637420654296875e+00
2.670000000000000000e+02 1.178263282775878906e+01 1.306262493133544922e+00 2.468719482421875000e+00 5.128715991973876953e+00 2.279230594635009766e+00 -8.576658248901367188e+00
2.680000000000000000e+02 1.235228157043457031e+01 1.302287817001342773e+00 2.974080562591552734e+00 1.072252368927001953e+01 4.108981132507324219e+00 -1.010857009887695312e+01
2.690000000000000000e+02 1.012440872192382812e+01 1.168612718582153320e+00 -3.593229293823242188e+00 1.911886453628540039e+00 -5.044028759002685547e-01 -3.218302726745605469e+00
2.700000000000000000e+02 1.090555000305175781e+01 1.224688068032264709e-01 -9.185934066772460938e+00 -1.741999834775924683e-01 -2.808040380477905273e+00 1.754713244736194611e-02
2.710000000000000000e+02 1.215733337402343750e+01 1.331835508346557617e+00 2.945061683654785156e+00 8.069944381713867188e+00 3.304501771926879883e+00 -9.255795478820800781e+00
2.720000000000000000e+02 1.007602787017822266e+01 -1.183668375015258789e+00 3.866090252995491028e-02 3.140378892421722412e-01 1.058096364140510559e-01 1.418087929487228394e-01
2.730000000000000000e+02 1.008241558074951172e+01 -9.683646559715270996e-01 -5.608983635902404785e-01 6.509827822446823120e-02 -1.487400233745574951e-01 -1.055184192955493927e-02
2.740000000000000000e+02 1.011844730377197266e+01 7.744531035423278809e-01 -6.462183475494384766e+00 6.331902146339416504e-01 -1.748697876930236816e+00 -1.754044771194458008e+00
2.750000000000000000e+02 1.010505008697509766e+01 9.646239280700683594e-01 -5.813556671142578125e+00 1.785773277282714844e+00 -1.208335041999816895e+00 -2.218880176544189453e+00
2.760000000000000000e+02 1.050106811523437500e+01 1.214259117841720581e-01 -1.095654487609863281e+01 6.809152662754058838e-02 -3.266535997390747070e+00 1.417232900857925415e-01
2.770000000000000000e+02 1.105965328216552734e+01 -1.438693046569824219e+00 1.929175496101379395e+00 1.534374952316284180e+00 1.039065122604370117e+00 1.769312620162963867e+00
2.780000000000000000e+02 1.052119064331054688e+01 -1.535369157791137695e-01 -3.521752595901489258e+00 6.926830112934112549e-02 -1.035745263099670410e+00 -1.060521043837070465e-02
2.790000000000000000e+02 1.038640689849853516e+01 -4.255918264389038086e-01 -2.201694488525390625e+00 -7.851823233067989349e-03 -6.628639101982116699e-01 -1.120089739561080933e-01
2.800000000000000000e+02 1.073709678649902344e+01 1.326589226722717285e+00 -1.258857965469360352e+00 2.967392206192016602e+00 5.125602483749389648e-01 -6.051061153411865234e+00
2.810000000000000000e+02 1.070080089569091797e+01 1.272317022085189819e-01 -1.003058433532714844e+01 1.265285611152648926e-01 -2.971216678619384766e+00 -2.046074718236923218e-02
2.820000000000000000e+02 1.072160625457763672e+01 1.037382006645202637e+00 -2.426025629043579102e+00 1.477993726730346680e+00 -2.844096124172210693e-01 -3.936448812484741211e+00
2.830000000000000000e+02 1.053458690643310547e+01 1.345995187759399414e+00 -1.716403722763061523e+00 2.289175987243652344e+00 1.718316972255706787e-01 -4.534661769866943359e+00
2.840000000000000000e+02 1.045201587677001953e+01 7.913382053375244141e-01 -5.097621440887451172e+00 9.527608156204223633e-01 -1.243458151817321777e+00 -2.297355175018310547e+00
2.850000000000000000e+02 1.093945312500000000e+01 1.012098073959350586e+00 -1.872327327728271484e+00 1.992951512336730957e+00 3.618726134300231934e-02 -5.119184970855712891e+00
2.860000000000000000e+02 1.240773105621337891e+01 1.010307788848876953e+00 2.974703073501586914e+00 1.179796028137207031e+01 4.431798934936523438e+00 -9.484336853027343750e+00
2.870000000000000000e+02 1.027620983123779297e+01 -1.188498020172119141e+00 2.240473479032516479e-01 3.844383358955383301e-01 1.825457066297531128e-01 3.980779051780700684e-01
2.880000000000000000e+02 1.030332660675048828e+01 1.179732158780097961e-01 -1.176610374450683594e+01 1.637156009674072266e-01 -3.480716466903686523e+00 3.507977128028869629e-01
2.890000000000000000e+02 1.193515872955322266e+01 -4.256714582443237305e-01 -4.340591728687286377e-01 4.041258692741394043e-01 -8.979992009699344635e-03 8.742734789848327637e-01
2.900000000000000000e+02 1.234390830993652344e+01 -1.227181553840637207e+00 3.282759904861450195e+00 9.695711135864257812e+00 3.893541336059570312e+00 6.490464687347412109e+00
2.910000000000000000e+02 1.213690853118896484e+01 6.200772523880004883e-01 4.051919937133789062e+00 4.672138690948486328e+00 2.617217540740966797e+00 -8.113989830017089844e+00
2.920000000000000000e+02 1.251034927368164062e+01 8.438077569007873535e-01 3.809105634689331055e+00 1.327594566345214844e+01 5.125515460968017578e+00 -1.123183059692382812e+01
2.930000000000000000e+02 1.118445396423339844e+01 -1.006758451461791992e+00 1.240816831588745117e+00 8.315136432647705078e-01 6.216991543769836426e-01 1.200842380523681641e+00
2.940000000000000000e+02 1.108520030975341797e+01 -1.212611794471740723e+00 1.547657728195190430e+00 1.092817068099975586e+00 7.921424508094787598e-01 1.406128287315368652e+00
2.950000000000000000e+02 1.066798591613769531e+01 -1.203992962837219238e+00 7.974828481674194336e-01 5.377685427665710449e-01 4.005754292011260986e-01 7.904381752014160156e-01
2.960000000000000000e+02 1.131979084014892578e+01 -4.833340048789978027e-01 -1.424558281898498535e+00 6.020352244377136230e-02 -4.093064069747924805e-01 5.393613874912261963e-02
2.970000000000000000e+02 1.090694618225097656e+01 -4.681417644023895264e-01 -1.963326215744018555e+00 9.264905750751495361e-02 -5.612031221389770508e-01 -7.825262844562530518e-02
2.980000000000000000e+02 1.048185253143310547e+01 3.748758733272552490e-01 -8.247506141662597656e+00 5.739036202430725098e-01 -2.302080631256103516e+00 -9.186641573905944824e-01
2.990000000000000000e+02 1.193368530273437500e+01 7.915725708007812500e-01 2.283434391021728516e+00 4.304308414459228516e+00 1.976322889328002930e+00 -7.157919406890869141e+00
3.000000000000000000e+02 1.170587158203125000e+01 7.314198017120361328e-01 1.410560011863708496e+00 2.779936790466308594e+00 1.257148981094360352e+00 -6.251169204711914062e+00
3.010000000000000000e+02 1.143619155883789062e+01 7.030605673789978027e-01 -1.039215922355651855e+00 1.204100131988525391e+00 4.946524277329444885e-02 -4.263319492340087891e+00
3.020000000000000000e+02 1.117547798156738281e+01 6.938530802726745605e-01 -2.463471174240112305e+00 1.420789837837219238e+00 -3.128044009208679199e-01 -3.966669082641601562e+00
3.030000000000000000e+02 1.091683292388916016e+01 4.183006882667541504e-01 -6.052757263183593750e+00 6.898890733718872070e-01 -1.608860492706298828e+00 -1.863516449928283691e+00
3.040000000000000000e+02 1.133730125427246094e+01 -1.123271942138671875e+00 1.876020312309265137e+00 1.314862847328186035e+00 9.572649598121643066e-01 1.839430451393127441e+00
3.050000000000000000e+02 1.173511600494384766e+01 2.698562443256378174e-01 -2.059827804565429688e+00 8.609386682510375977e-01 -3.596667647361755371e-01 -2.214139938354492188e+00
3.060000000000000000e+02 1.092859935760498047e+01 7.144265770912170410e-01 -3.756436586380004883e+00 7.142725586891174316e-01 -9.126491546630859375e-01 -3.022254228591918945e+00
3.070000000000000000e+02 1.068589782714843750e+01 4.225645065307617188e-01 -7.317845821380615234e+00 1.958862841129302979e-01 -2.136587858200073242e+00 -1.171076059341430664e+00
3.080000000000000000e+02 1.185614013671875000e+01 -7.704832553863525391e-01 2.780530452728271484e+00 1.498451709747314453e+00 1.283694744110107422e+00 2.524016857147216797e+00
3.090000000000000000e+02 1.033388423919677734e+01 1.367066979408264160e+00 -2.191650629043579102e+00 2.865036964416503906e+00 2.020158916711807251e-01 -4.918469905853271484e+00
3.100000000000000000e+02 1.013047027587890625e+01 5.651496052742004395e-01 -7.699630737304687500e+00 3.785459399223327637e-01 -2.196325540542602539e+00 -7.079581618309020996e-01
3.110000000000000000e+02 1.035517692565917969e+01 5.416387915611267090e-01 -8.105959892272949219e+00 2.796926796436309814e-01 -2.347880125045776367e+00 -1.733904838562011719e+00
3.120000000000000000e+02 1.030441951751708984e+01 3.361242711544036865e-01 -9.723139762878417969e+00 3.916193172335624695e-02 -2.905193328857421875e+00 -5.261597633361816406e-01
3.130000000000000000e+02 1.115141105651855469e+01 3.965649306774139404e-01 -4.888283252716064453e+00 1.253324747085571289e-01 -1.428885221481323242e+00 -1.851454734802246094e+00
3.140000000000000000e+02 1.135535907745361328e+01 3.294356167316436768e-01 -4.449262619018554688e+00 6.440654397010803223e-01 -1.141559123992919922e+00 -1.716485500335693359e+00
3.150000000000000000e+02 1.153342056274414062e+01 2.781899571418762207e-01 -3.630332708358764648e+00 1.614446192979812622e-01 -1.040666460990905762e+00 -1.842013478279113770e+00
3.160000000000000000e+02 1.175060462951660156e+01 4.961812794208526611e-01 2.245646119117736816e-01 1.243711471557617188e+00 4.404828250408172607e-01 -4.269250392913818359e+00
3.170000000000000000e+02 1.232181453704833984e+01 7.507063150405883789e-01 4.016834259033203125e+00 9.039653778076171875e+00 3.916946411132812500e+00 -9.525195121765136719e+00
3.180000000000000000e+02 1.184401798248291016e+01 9.817589521408081055e-01 2.170924425125122070e+00 4.659543991088867188e+00 2.049140691757202148e+00 -7.897774219512939453e+00
3.190000000000000000e+02 1.008089733123779297e+01 -7.537077665328979492e-01 -9.999627470970153809e-01 1.209295243024826050e-01 -2.637099623680114746e-01 -1.652401536703109741e-01
3.200000000000000000e+02 1.027891731262207031e+01 -7.280200719833374023e-01 -1.009437203407287598e+00 -6.320368032902479172e-03 -3.047272562980651855e-01 -7.401060312986373901e-02
3.210000000000000000e+02 1.058806228637695312e+01 -3.697107434272766113e-01 -2.482720136642456055e+00 8.391775190830230713e-02 -7.196407318115234375e-01 -1.461349278688430786e-01
3.220000000000000000e+02 1.078425121307373047e+01 -2.943678796291351318e-01 -3.041671037673950195e+00 4.799182340502738953e-02 -8.981037735939025879e-01 -8.392142504453659058e-02
3.230000000000000000e+02 1.113154506683349609e+01 -3.453138768672943115e-01 -2.759772300720214844e+00 9.055916219949722290e-02 -8.007639646530151367e-01 5.787777155637741089e-02
3.240000000000000000e+02 1.047082233428955078e+01 -1.200551867485046387e+00 5.043111443519592285e-01 4.702216088771820068e-01 2.923598289489746094e-01 5.419569611549377441e-01
3.250000000000000000e+02 1.065500736236572266e+01 -1.005497217178344727e+00 3.003996312618255615e-01 3.720137774944305420e-01 2.017240226268768311e-01 4.504513740539550781e-01
3.260000000000000000e+02 1.163236999511718750e+01 -1.457740426063537598e+00 2.983327627182006836e+00 3.379381179809570312e+00 1.908812642097473145e+00 3.628330707550048828e+00
3.270000000000000000e+02 1.148695755004882812e+01 -1.009775876998901367e+00 1.972718477249145508e+00 1.327033162117004395e+00 9.899254441261291504e-01 1.978497028350830078e+00
3.280000000000000000e+02 1.094292163848876953e+01 1.310656785964965820e+00 -1.208095327019691467e-01 2.485077619552612305e+00 7.092804312705993652e-01 -5.927457809448242188e+00
3.290000000000000000e+02 1.116560745239257812e+01 9.948531985282897949e-01 -8.358013033866882324e-01 1.840322971343994141e+00 3.013564944267272949e-01 -5.215940952301025391e+00
3.300000000000000000e+02 1.136408329010009766e+01 1.289231538772583008e+00 9.233635663986206055e-01 3.462530612945556641e+00 1.315768241882324219e+00 -7.171958923339843750e+00
3.310000000000000000e+02 1.196887779235839844e+01 1.334328174591064453e+00 3.164622068405151367e+00 6.958173751831054688e+00 3.036838769912719727e+00 -9.653208732604980469e+00
3.320000000000000000e+02 1.315433883666992188e+01 1.228497743606567383e+00 4.832351803779602051e-01 2.097649002075195312e+01 6.437917709350585938e+00 -3.549041748046875000e+00
3.330000000000000000e+02 1.366140747070312500e+01 1.096090316772460938e+00 1.614299893379211426e+00 2.229976272583007812e+01 7.174218654632568359e+00 2.302958488464355469e+00
3.340000000000000000e+02 1.393638610839843750e+01 8.577790856361389160e-01 2.065576314926147461e+00 2.189183235168457031e+01 7.187222480773925781e+00 4.362344264984130859e+00
3.350000000000000000e+02 1.406294441223144531e+01 9.287051856517791748e-02 1.041036796569824219e+01 1.797008705139160156e+01 8.514136314392089844e+00 1.130454540252685547e+00
3.360000000000000000e+02 1.433163642883300781e+01 2.546408474445343018e-01 6.351615428924560547e+00 1.601776313781738281e+01 6.710813999176025391e+00 1.830760002136230469e+00
3.370000000000000000e+02 1.440908050537109375e+01 -1.114885509014129639e-01 7.659024715423583984e+00 1.211627674102783203e+01 5.932590484619140625e+00 -2.735903024673461914e+00
3.380000000000000000e+02 1.438592624664306641e+01 -2.817656695842742920e-01 8.801361083984375000e+00 1.379021549224853516e+01 6.777472972869873047e+00 -3.748212337493896484e+00
3.390000000000000000e+02 1.432913875579833984e+01 -4.640998840332031250e-01 6.928349494934082031e+00 1.353629970550537109e+01 6.139394760131835938e+00 -4.312718391418457031e+00
3.400000000000000000e+02 1.384842681884765625e+01 -1.213696479797363281e+00 6.858797669410705566e-01 2.048349380493164062e+01 6.350812435150146484e+00 -5.355864524841308594e+00
3.410000000000000000e+02 1.339662837982177734e+01 -1.471075296401977539e+00 -6.635402441024780273e-01 2.152169227600097656e+01 6.257445812225341797e+00 -6.591675877571105957e-01
3.420000000000000000e+02 1.202919673919677734e+01 -9.644005894660949707e-01 3.859172821044921875e+00 3.588154792785644531e+00 2.234198331832885742e+00 4.395567893981933594e+00
3.430000000000000000e+02 1.217521953582763672e+01 1.074552297592163086e+00 3.088984012603759766e+00 8.302533149719238281e+00 3.417455196380615234e+00 -9.105590820312500000e+00
3.440000000000000000e+02 1.268152141571044922e+01 9.081698656082153320e-01 2.520039796829223633e+00 1.742594528198242188e+01 5.983795642852783203e+00 -9.335247993469238281e+00
3.450000000000000000e+02 1.382084846496582031e+01 -8.120454549789428711e-01 5.083664894104003906e+00 2.301274871826171875e+01 8.428924560546875000e+00 -7.597037792205810547e+00
3.460000000000000000e+02 1.218202686309814453e+01 -1.248298645019531250e+00 3.394249439239501953e+00 7.211045742034912109e+00 3.181588411331176758e+00 5.643714427947998047e+00
3.470000000000000000e+02 1.026155853271484375e+01 8.992757797241210938e-01 -5.638316154479980469e+00 1.154252171516418457e+00 -1.345219135284423828e+00 -2.775201082229614258e+00
3.480000000000000000e+02 1.068949222564697266e+01 7.327980399131774902e-01 -4.904227733612060547e+00 9.935788512229919434e-01 -1.173194646835327148e+00 -3.125778436660766602e+00
3.490000000000000000e+02 1.167305850982666016e+01 -9.025322198867797852e-01 2.379478216171264648e+00 1.418260097503662109e+00 1.139321446418762207e+00 2.280084609985351562e+00
3.500000000000000000e+02 1.158544540405273438e+01 -1.224522948265075684e+00 2.724277496337890625e+00 2.252644062042236328e+00 1.493076443672180176e+00 2.869625091552734375e+00
3.510000000000000000e+02 1.151722621917724609e+01 -6.571552157402038574e-01 4.619397222995758057e-01 3.479819595813751221e-01 2.429765015840530396e-01 7.710407376289367676e-01
3.520000000000000000e+02 1.047742271423339844e+01 -6.584385037422180176e-01 -1.186911463737487793e+00 1.019625663757324219e-01 -3.254846632480621338e-01 -3.369386121630668640e-02
3.530000000000000000e+02 1.163561725616455078e+01 9.938306212425231934e-01 1.375455141067504883e+00 3.370572090148925781e+00 1.423808217048645020e+00 -6.953922748565673828e+00
3.540000000000000000e+02 1.202970409393310547e+01 1.070833563804626465e+00 3.054931640625000000e+00 6.715901851654052734e+00 2.931250095367431641e+00 -9.318849563598632812e+00
3.550000000000000000e+02 1.221895503997802734e+01 9.238031506538391113e-01 3.663395166397094727e+00 8.170749664306640625e+00 3.550243377685546875e+00 -9.933797836303710938e+00
3.560000000000000000e+02 1.215634822845458984e+01 1.196453809738159180e+00 3.181056737899780273e+00 8.276617050170898438e+00 3.437302112579345703e+00 -9.833321571350097656e+00
3.570000000000000000e+02 1.126298046112060547e+01 -1.269441008567810059e+00 2.005850553512573242e+00 1.606157898902893066e+00 1.083602547645568848e+00 1.901440382003784180e+00
3.580000000000000000e+02 1.048293018341064453e+01 -9.916318655014038086e-01 -4.708556085824966431e-02 2.358510643243789673e-01 5.662965029478073120e-02 2.957392334938049316e-01
3.590000000000000000e+02 1.058077144622802734e+01 -8.416590690612792969e-01 -3.885659277439117432e-01 2.094130367040634155e-01 -5.374587327241897583e-02 1.692523956298828125e-01
3.600000000000000000e+02 1.067947959899902344e+01 -5.658072829246520996e-01 -1.451806068420410156e+00 7.629351317882537842e-02 -4.126537740230560303e-01 -1.295627001672983170e-02
3.610000000000000000e+02 1.097371292114257812e+01 -6.733514666557312012e-01 -6.464166045188903809e-01 1.420259624719619751e-01 -1.513171941041946411e-01 1.452217400074005127e-01
3.620000000000000000e+02 1.084615325927734375e+01 -9.586976170539855957e-01 5.070363879203796387e-01 4.050957560539245605e-01 2.736396491527557373e-01 6.116557717323303223e-01
3.630000000000000000e+02 1.202526664733886719e+01 9.279680848121643066e-01 3.757392883300781250e+00 5.367118358612060547e+00 2.737353324890136719e+00 -8.642485618591308594e+00
3.640000000000000000e+02 1.117345619201660156e+01 -6.936593055725097656e-01 -1.061313301324844360e-01 2.786298692226409912e-01 5.174956098198890686e-02 4.769524037837982178e-01
3.650000000000000000e+02 1.134244918823242188e+01 -8.338698744773864746e-01 8.876413106918334961e-01 5.250468850135803223e-01 4.238064587116241455e-01 1.090422153472900391e+00
3.660000000000000000e+02 1.150190258026123047e+01 4.725345373153686523e-01 -1.709250450134277344e+00 1.200891733169555664e+00 -1.525076031684875488e-01 -3.548359155654907227e+00
3.670000000000000000e+02 1.076653766632080078e+01 -7.551810145378112793e-01 -6.580691933631896973e-01 1.306383162736892700e-01 -1.582292616367340088e-01 1.566560119390487671e-01
3.680000000000000000e+02 1.103937530517578125e+01 -8.629215359687805176e-01 4.871015548706054688e-01 4.874562621116638184e-01 2.923673391342163086e-01 7.165370583534240723e-01
3.690000000000000000e+02 1.835314369201660156e+01 3.088998317718505859e+00 3.079147100448608398e+00 -3.502933979034423828e+00 -1.271360367536544800e-01 1.421130061149597168e+00
3.700000000000000000e+02 1.854714584350585938e+01 6.829620838165283203e+00 -4.158614575862884521e-01 1.326565980911254883e+00 2.732113599777221680e-01 7.648522257804870605e-01
3.710000000000000000e+02 2.384214591979980469e+01 6.329181194305419922e+00 3.561192035675048828e+00 1.125560951232910156e+01 4.445040702819824219e+00 5.668226718902587891e+00
3.720000000000000000e+02 1.918964004516601562e+01 8.783685684204101562e+00 -1.213710308074951172e+00 2.834579944610595703e-01 -2.790757119655609131e-01 -7.960835695266723633e-01
3.730000000000000000e+02 1.945041847229003906e+01 2.051483154296875000e+00 -9.320147037506103516e-01 -2.838451147079467773e+00 -1.131139755249023438e+00 3.768752813339233398e+00
3.740000000000000000e+02 2.047838020324707031e+01 3.026730775833129883e+00 3.982853651046752930e+00 6.511141657829284668e-01 1.390190362930297852e+00 -1.412221789360046387e-01
3.750000000000000000e+02 2.293885040283203125e+01 4.438530445098876953e+00 3.613425731658935547e+00 1.990535354614257812e+01 7.055634021759033203e+00 2.923979759216308594e+00
3.760000000000000000e+02 2.144526481628417969e+01 7.392300605773925781e+00 6.456704735755920410e-01 6.586599349975585938e+00 2.169680833816528320e+00 1.550394058227539062e+00
3.770000000000000000e+02 2.344153785705566406e+01 1.197502040863037109e+01 4.669319629669189453e+00 8.945217132568359375e+00 4.084361076354980469e+00 6.013145923614501953e+00
3.780000000000000000e+02 2.474441146850585938e+01 1.357303905487060547e+01 5.312566280364990234e+00 1.755106163024902344e+01 6.859088420867919922e+00 8.952743530273437500e+00
3.790000000000000000e+02 2.600415420532226562e+01 -2.922309637069702148e+00 1.868019938468933105e+00 5.322802066802978516e+00 2.157246589660644531e+00 -3.255724012851715088e-01
3.800000000000000000e+02 2.542589378356933594e+01 -6.205964088439941406e+00 2.157476842403411865e-01 1.171256542205810547e+01 3.578493833541870117e+00 -1.320381045341491699e+00
3.810000000000000000e+02 2.559112930297851562e+01 -7.495831966400146484e+00 2.739037275314331055e+00 1.643971633911132812e+01 5.753625869750976562e+00 1.201146125793457031e+00
3.820000000000000000e+02 2.485983657836914062e+01 -9.413069725036621094e+00 5.376830101013183594e+00 1.069177818298339844e+01 4.820582389831542969e+00 4.629364490509033203e+00
3.830000000000000000e+02 2.368179702758789062e+01 -1.030449390411376953e+01 4.055740356445312500e+00 3.476440429687500000e+00 2.259654283523559570e+00 2.393821239471435547e+00
3.840000000000000000e+02 3.233350753784179688e+01 -9.239544868469238281e+00 3.555678725242614746e-01 9.919932484626770020e-01 4.042683243751525879e-01 -4.666217863559722900e-01
3.850000000000000000e+02 3.594409942626953125e+01 -1.358799839019775391e+01 -5.826171636581420898e-01 1.076472401618957520e-01 -1.424909830093383789e-01 1.145148184150457382e-02
3.860000000000000000e+02 3.406135177612304688e+01 -1.155177116394042969e+01 1.116180270910263062e-01 6.441828012466430664e-01 2.267402559518814087e-01 -4.062258303165435791e-01
3.870000000000000000e+02 2.105446243286132812e+01 -1.214900112152099609e+01 1.628785014152526855e+00 3.419305086135864258e+00 1.514427065849304199e+00 4.955014586448669434e-02
3.880000000000000000e+02 2.189077377319335938e+01 -8.619937896728515625e+00 1.044166207313537598e+00 9.197629094123840332e-01 5.891787409782409668e-01 -1.085141181945800781e+00
3.890000000000000000e+02 2.090653419494628906e+01 -9.386293411254882812e+00 1.947068095207214355e+00 2.091519117355346680e+00 1.211576104164123535e+00 -1.483160018920898438e+00
3.900000000000000000e+02 2.087531852722167969e+01 -7.765981197357177734e+00 1.601810932159423828e+00 1.672461867332458496e+00 9.822818040847778320e-01 -1.442369103431701660e+00
3.910000000000000000e+02 1.692371368408203125e+01 -3.984775543212890625e+00 3.240128278732299805e+00 5.403324604034423828e+00 2.593035936355590820e+00 -4.292312145233154297e+00
3.920000000000000000e+02 1.540858173370361328e+01 -2.194673776626586914e+00 3.975070238113403320e+00 1.091077804565429688e+01 4.465754508972167969e+00 -5.677045345306396484e+00
3.930000000000000000e+02 8.713403701782226562e+00 -1.855645179748535156e+00 2.345773875713348389e-01 2.019738703966140747e-01 1.309653818607330322e-01 6.894154101610183716e-02
3.940000000000000000e+02 3.791574478149414062e+00 -1.977764010429382324e+00 -1.749168187379837036e-01 -2.979207411408424377e-02 -6.141266599297523499e-02 -3.336589336395263672e-01
3.950000000000000000e+02 5.730335712432861328e-01 -1.076006317138671875e+01 1.630915561690926552e-03 -5.205869674682617188e-01 -1.556868106126785278e-01 7.077419012784957886e-02
3.960000000000000000e+02 1.725135445594787598e+00 -1.090594100952148438e+01 3.338141366839408875e-02 -6.774362176656723022e-02 -1.030866149812936783e-02 2.089172899723052979e-01
3.970000000000000000e+02 6.228820681571960449e-01 -1.777774620056152344e+01 5.848573520779609680e-03 4.978235960006713867e-01 1.511016488075256348e-01 8.385994285345077515e-02
3.980000000000000000e+02 7.853228569030761719e+00 -2.288592338562011719e+01 -1.570749878883361816e-01 2.234592914581298828e+00 6.232554316520690918e-01 4.145359098911285400e-01
3.990000000000000000e+02 1.546927833557128906e+01 -2.841726112365722656e+01 -2.793698012828826904e-01 3.147498607635498047e+00 8.604385852813720703e-01 1.822814047336578369e-01
4.000000000000000000e+02 2.356855964660644531e+01 -3.743943023681640625e+01 -2.137075513601303101e-01 3.440697193145751953e+00 9.680969119071960449e-01 -6.932131946086883545e-02
4.010000000000000000e+02 3.227763748168945312e+01 -3.775362014770507812e+01 -5.926584079861640930e-02 3.712588310241699219e+00 1.095996737480163574e+00 -1.068898886442184448e-01
4.020000000000000000e+02 2.787969589233398438e+01 -3.775548171997070312e+01 -1.533085703849792480e-01 3.611677408218383789e+00 1.037510633468627930e+00 -6.229647248983383179e-02
4.030000000000000000e+02 4.225535964965820312e+01 -4.043627166748046875e+01 1.295252293348312378e-01 4.057244777679443359e+00 1.256030917167663574e+00 -1.281654648482799530e-02
4.040000000000000000e+02 3.728814315795898438e+01 -4.079999542236328125e+01 3.671229258179664612e-02 3.853284120559692383e+00 1.166998982429504395e+00 -5.871886387467384338e-02
4.050000000000000000e+02 3.582596969604492188e+01 -3.411476898193359375e+01 7.296026684343814850e-03 3.804479837417602539e+00 1.143532752990722656e+00 -1.664384305477142334e-01
4.060000000000000000e+02 3.705162429809570312e+01 -2.102056694030761719e+01 4.880720376968383789e-01 3.036834001541137695e+00 1.057471752166748047e+00 2.497288733720779419e-01
4.070000000000000000e+02 3.793414306640625000e+01 -1.561816406250000000e+01 -2.104275703430175781e+00 -5.679793357849121094e-01 -8.016765117645263672e-01 4.656627476215362549e-01
4.080000000000000000e+02 3.692869949340820312e+01 -1.671634292602539062e+01 -1.162185147404670715e-01 7.620333433151245117e-01 1.937444508075714111e-01 -5.955287814140319824e-01
4.090000000000000000e+02 3.264504623413085938e+01 -1.790096282958984375e+01 -9.262749552726745605e-02 2.899278879165649414e+00 8.419954180717468262e-01 -1.099501848220825195e+00
4.100000000000000000e+02 2.427797317504882812e+01 -1.523634147644042969e+01 -3.846869245171546936e-02 5.047310352325439453e+00 1.502652406692504883e+00 1.878070272505283356e-02
4.110000000000000000e+02 2.230477905273437500e+01 -1.129898452758789062e+01 2.076559305191040039e+00 2.878003120422363281e+00 1.486368775367736816e+00 3.520494997501373291e-01
4.120000000000000000e+02 1.462742042541503906e+01 -4.533525109291076660e-01 6.788064956665039062e+00 1.230852508544921875e+01 5.728977203369140625e+00 -3.931602001190185547e+00
4.130000000000000000e+02 1.459154891967773438e+01 -2.562207281589508057e-01 7.610773563385009766e+00 1.094536495208740234e+01 5.566841602325439453e+00 -3.511748313903808594e+00
4.140000000000000000e+02 1.435778236389160156e+01 1.372205495834350586e+00 3.081110239028930664e+00 1.625583076477050781e+01 5.801082611083984375e+00 7.130666255950927734e+00
4.150000000000000000e+02 1.391276454925537109e+01 3.747153997421264648e+00 5.600906372070312500e+00 1.412627458572387695e+00 2.104060173034667969e+00 -1.091229557991027832e+00
4.160000000000000000e+02 9.013995170593261719e+00 2.550959825515747070e+00 1.034392952919006348e+00 5.046551704406738281e+00 1.824283480644226074e+00 -2.229428589344024658e-01
4.170000000000000000e+02 1.057855606079101562e+01 1.698329448699951172e+00 4.860252141952514648e-02 3.802854776382446289e+00 1.155437111854553223e+00 -6.556087970733642578e+00
4.180000000000000000e+02 8.904064178466796875e+00 1.832559347152709961e+00 -1.970977306365966797e+00 2.454725980758666992e+00 1.451245993375778198e-01 -4.168913662433624268e-01
4.190000000000000000e+02 4.573881626129150391e-01 6.374482631683349609e+00 5.341739952564239502e-02 -3.769818305969238281e+00 -1.114920258522033691e+00 1.567132584750652313e-02
4.200000000000000000e+02 1.159658193588256836e+00 2.163763284683227539e+00 -2.090188264846801758e-01 -9.628689885139465332e-01 -3.515663444995880127e-01 9.338710904121398926e-01
4.210000000000000000e+02 1.324338531494140625e+01 1.505305290222167969e+00 2.932959318161010742e+00 1.687806701660156250e+01 5.943307399749755859e+00 -3.667872190475463867e+00
4.220000000000000000e+02 1.544379901885986328e+01 4.828063964843750000e+00 -2.324650585651397705e-01 5.125680446624755859e+00 1.467964529991149902e+00 1.091854333877563477e+00
4.230000000000000000e+02 1.465000534057617188e+01 3.585064411163330078e+00 7.716769218444824219e+00 5.499454021453857422e+00 3.964867115020751953e+00 1.178752779960632324e+00
4.240000000000000000e+02 6.522583007812500000e+01 1.410615348815917969e+01 7.233802676200866699e-01 8.567400932312011719e+00 2.787234306335449219e+00 -3.116525173187255859e+00
4.250000000000000000e+02 6.565306854248046875e+01 1.285221576690673828e+01 3.408088445663452148e+00 1.459311771392822266e+01 5.400362014770507812e+00 -3.475748062133789062e+00
4.260000000000000000e+02 6.600682830810546875e+01 1.154345989227294922e+01 2.693648338317871094e+00 2.088372039794921875e+01 7.073210716247558594e+00 -8.744046092033386230e-01
4.270000000000000000e+02 6.647512817382812500e+01 7.361716270446777344e+00 -9.950091242790222168e-01 1.042300605773925781e+01 2.828398942947387695e+00 -1.019712686538696289e+00
4.280000000000000000e+02 6.589366149902343750e+01 1.015826034545898438e+01 1.202577233314514160e+00 1.841087341308593750e+01 5.884035110473632812e+00 2.377328395843505859e+00
4.290000000000000000e+02 7.154296112060546875e+01 9.260547637939453125e+00 -3.464914083480834961e+00 -3.682682216167449951e-01 -1.149954676628112793e+00 -9.055740237236022949e-01
4.300000000000000000e+02 7.238150787353515625e+01 1.018653488159179688e+01 -9.345849752426147461e-01 1.855472773313522339e-01 -2.247113138437271118e-01 -1.075771093368530273e+00
4.310000000000000000e+02 6.874602508544921875e+01 1.129382419586181641e+01 2.095985174179077148e+00 8.020508766174316406e+00 3.034948110580444336e+00 1.068144321441650391e+00
4.320000000000000000e+02 7.571974182128906250e+01 1.048917388916015625e+01 -8.097034096717834473e-01 9.122297286987304688e+00 2.493778228759765625e+00 -2.589522838592529297e+00
4.330000000000000000e+02 7.568062591552734375e+01 7.845006942749023438e+00 3.756627798080444336e+00 1.618331718444824219e+01 5.981983661651611328e+00 -5.204515457153320312e+00
4.340000000000000000e+02 7.767005920410156250e+01 6.417795181274414062e+00 1.024500131607055664e+00 1.054192829132080078e+01 3.469928503036499023e+00 -1.707876324653625488e+00
4.350000000000000000e+02 7.939377593994140625e+01 7.029414176940917969e+00 5.232976078987121582e-01 6.489108085632324219e+00 2.103721618652343750e+00 -3.004131019115447998e-01
4.360000000000000000e+02 7.579852294921875000e+01 3.377558946609497070e+00 3.843016028404235840e-01 1.104804229736328125e+01 3.429703235626220703e+00 5.511509180068969727e-01
4.370000000000000000e+02 7.938999176025390625e+01 2.778753995895385742e+00 1.237217634916305542e-01 1.249117183685302734e+01 3.784467935562133789e+00 -9.916197061538696289e-01
4.380000000000000000e+02 7.524256896972656250e+01 2.232564926147460938e+00 -2.953099727630615234e+00 3.716069459915161133e+00 2.288909107446670532e-01 -4.837471842765808105e-01
4.390000000000000000e+02 7.943508911132812500e+01 -1.846322417259216309e-02 -8.415170013904571533e-02 1.489952182769775391e+01 4.444611072540283203e+00 2.408761158585548401e-02
4.400000000000000000e+02 7.368865966796875000e+01 9.156551361083984375e-01 -6.461450576782226562e+00 -7.943431735038757324e-01 -2.176738023757934570e+00 -1.646100521087646484e+00
4.410000000000000000e+02 7.250054931640625000e+01 7.059213519096374512e-01 -4.648872852325439453e+00 7.955592274665832520e-01 -1.155994057655334473e+00 -2.460335254669189453e+00
4.420000000000000000e+02 6.972774505615234375e+01 -1.655635356903076172e+00 -3.514045715332031250e+00 5.224532604217529297e+00 5.131461024284362793e-01 -2.259099245071411133e+00
4.430000000000000000e+02 7.067575836181640625e+01 1.543229460716247559e+00 1.035892009735107422e+00 5.741672992706298828e+00 2.033269405364990234e+00 -4.084560394287109375e+00
4.440000000000000000e+02 6.869845581054687500e+01 3.156682014465332031e+00 3.261413574218750000e+00 1.326899051666259766e+01 4.959121227264404297e+00 -1.780783295631408691e+00
4.450000000000000000e+02 6.935387420654296875e+01 5.584939002990722656e+00 -8.554004877805709839e-02 1.448122024536132812e+01 4.318704128265380859e+00 7.420979142189025879e-01
4.460000000000000000e+02 6.920609283447265625e+01 4.314269065856933594e+00 2.152131319046020508e+00 1.792195129394531250e+01 6.022224903106689453e+00 -1.972454786300659180e+00
4.470000000000000000e+02 6.828527069091796875e+01 5.640900135040283203e+00 9.453361630439758301e-01 1.236602401733398438e+01 3.993408203125000000e+00 -2.552233695983886719e+00
4.480000000000000000e+02 6.601622772216796875e+01 8.744780540466308594e+00 1.167852878570556641e+00 1.400066852569580078e+01 4.550556182861328125e+00 1.360524415969848633e+00
4.490000000000000000e+02 6.498593902587890625e+01 8.223060607910156250e+00 1.491524934768676758e+00 1.043011379241943359e+01 3.576491594314575195e+00 3.087343215942382812e+00
4.500000000000000000e+02 6.506874084472656250e+01 5.093820571899414062e+00 -9.121172130107879639e-02 6.801307678222656250e+00 2.013028860092163086e+00 5.680443048477172852e-01
4.510000000000000000e+02 6.095068740844726562e+01 3.353365182876586914e+00 -2.443030834197998047e+00 9.857182204723358154e-02 -7.033377289772033691e-01 -8.407700061798095703e-01
4.520000000000000000e+02 5.882559967041015625e+01 1.709885120391845703e+00 -7.011044979095458984e+00 -1.601355671882629395e+00 -2.583720207214355469e+00 -3.326436519622802734e+00
4.530000000000000000e+02 5.989477920532226562e+01 2.501965522766113281e+00 -4.573937892913818359e+00 -8.147857189178466797e-01 -1.616616964340209961e+00 -2.158038377761840820e+00
4.540000000000000000e+02 5.575382232666015625e+01 9.075543284416198730e-01 -2.022858858108520508e+00 2.582895755767822266e+00 1.680110692977905273e-01 -4.842589378356933594e+00
4.550000000000000000e+02 5.370003509521484375e+01 2.015016555786132812e+00 3.723636627197265625e+00 1.681472206115722656e+01 6.161507606506347656e+00 -2.748692512512207031e+00
4.560000000000000000e+02 5.473798751831054688e+01 1.511347293853759766e+00 4.436116695404052734e+00 1.550006008148193359e+01 5.980853080749511719e+00 -6.504003524780273438e+00
4.570000000000000000e+02 5.008010482788085938e+01 7.444863796234130859e+00 -4.524161517620086670e-01 9.622606277465820312e+00 2.751057147979736328e+00 1.004221677780151367e+00
4.580000000000000000e+02 5.408076095581054688e+01 4.779243469238281250e+00 6.959011554718017578e-01 1.819948387145996094e+01 5.668615341186523438e+00 1.972367167472839355e+00
4.590000000000000000e+02 5.787502670288085938e+01 1.057228851318359375e+01 -1.047420382499694824e+00 -3.362960219383239746e-01 -4.151149094104766846e-01 -9.347807765007019043e-01
4.600000000000000000e+02 6.077539062500000000e+01 1.321353912353515625e+01 -2.393349170684814453e+00 -8.601038455963134766e-01 -9.760359525680541992e-01 -1.145662188529968262e+00
4.610000000000000000e+02 6.271041107177734375e+01 1.402371501922607422e+01 -2.502542495727539062e+00 -5.953301787376403809e-01 -9.293617606163024902e-01 -1.281376004219055176e+00
4.620000000000000000e+02 6.403929138183593750e+01 1.511992073059082031e+01 -3.602196276187896729e-01 4.872067451477050781e+00 1.353554248809814453e+00 -3.794020414352416992e+00
4.630000000000000000e+02 6.330401229858398438e+01 3.050213050842285156e+01 1.482949405908584595e-01 5.489408016204833984e+00 1.691310882568359375e+00 -1.787399686872959137e-02
4.640000000000000000e+02 6.227328491210937500e+01 4.074072265625000000e+01 1.226665079593658447e-02 5.550174713134765625e+00 1.668732404708862305e+00 1.506881439127027988e-03
4.650000000000000000e+02 5.740971755981445312e+01 4.077411270141601562e+01 -9.367026388645172119e-03 5.251827716827392578e+00 1.572738289833068848e+00 1.474460959434509277e-02
4.660000000000000000e+02 6.180974578857421875e+01 3.707606887817382812e+01 3.635000810027122498e-02 5.477189540863037109e+00 1.654061913490295410e+00 2.572092600166797638e-02
4.670000000000000000e+02 5.469733810424804688e+01 3.074174118041992188e+01 1.788105815649032593e-02 5.128821372985839844e+00 1.544010758399963379e+00 1.420674473047256470e-01
4.680000000000000000e+02 5.584654998779296875e+01 1.556653594970703125e+01 8.539809584617614746e-01 5.063036918640136719e+00 1.775105357170104980e+00 2.154440402984619141e+00
4.690000000000000000e+02 5.885740661621093750e+01 1.148229789733886719e+01 -1.611205458641052246e+00 -1.001535892486572266e+00 -7.838224172592163086e-01 -1.097369670867919922e+00
4.700000000000000000e+02 2.598558807373046875e+01 1.574045276641845703e+01 3.262104272842407227e+00 1.426623821258544922e+01 5.258502960205078125e+00 3.565157175064086914e+00
4.710000000000000000e+02 2.860090827941894531e+01 1.459930610656738281e+01 2.378760099411010742e+00 2.068089962005615234e+00 1.334055066108703613e+00 2.148637771606445312e+00
4.720000000000000000e+02 2.523101234436035156e+01 1.468127727508544922e+01 4.695730686187744141e+00 2.264482307434082031e+01 8.202165603637695312e+00 5.003778934478759766e+00
4.730000000000000000e+02 2.456394386291503906e+01 1.226763153076171875e+01 4.204752445220947266e+00 1.262592601776123047e+01 5.049203395843505859e+00 5.823099613189697266e+00
4.740000000000000000e+02 7.471985340118408203e+00 5.445167064666748047e+00 8.469654083251953125e+00 4.790123939514160156e+00 3.977933406829833984e+00 -2.755825281143188477e+00
4.750000000000000000e+02 1.071083927154541016e+01 7.859144687652587891e+00 1.132584452629089355e+00 8.909381866455078125e+00 3.012589931488037109e+00 3.628527641296386719e+00
4.760000000000000000e+02 1.077480888366699219e+01 9.756509780883789062e+00 -7.597891688346862793e-01 5.767109870910644531e+00 1.502196311950683594e+00 9.193404316902160645e-01
4.770000000000000000e+02 6.190603375434875488e-01 1.337740230560302734e+01 8.580305427312850952e-02 1.314961314201354980e+00 4.202293157577514648e-01 -5.133808851242065430e-01
4.780000000000000000e+02 1.576417088508605957e+00 8.926335334777832031e+00 3.693118989467620850e-01 -1.212499976158142090e+00 -2.529564201831817627e-01 -1.150536894798278809e+00
4.790000000000000000e+02 1.263073539733886719e+01 1.180295753479003906e+01 -1.423105478286743164e+00 1.905287981033325195e+00 1.446547508239746094e-01 2.127183228731155396e-01
4.800000000000000000e+02 1.280628395080566406e+01 1.367697429656982422e+01 -2.122251272201538086e+00 2.098037481307983398e+00 -7.264125160872936249e-03 2.145137637853622437e-03
4.810000000000000000e+02 7.235357761383056641e+00 2.487755966186523438e+01 -3.453183472156524658e-01 3.055154800415039062e+00 8.129509687423706055e-01 1.588507294654846191e-01
4.820000000000000000e+02 7.576078414916992188e+00 3.250405502319335938e+01 7.313790917396545410e-02 2.951728343963623047e+00 9.074599146842956543e-01 2.778908312320709229e-01
4.830000000000000000e+02 8.372909545898437500e+00 4.097461700439453125e+01 1.949030607938766479e-01 2.774218797683715820e+00 8.907365798950195312e-01 3.326036408543586731e-02
4.840000000000000000e+02 5.246985435485839844e+00 4.029817199707031250e+01 1.161150187253952026e-01 3.232607841491699219e+00 1.004616856575012207e+00 4.342135787010192871e-02
4.850000000000000000e+02 2.551281929016113281e+00 3.685355758666992188e+01 1.297486480325460434e-02 3.411187171936035156e+00 1.027248620986938477e+00 1.257931590080261230e-01
4.860000000000000000e+02 2.070600986480712891e+00 4.163448715209960938e+01 6.870768964290618896e-02 3.306803941726684570e+00 1.012653470039367676e+00 2.010749839246273041e-02
4.870000000000000000e+02 1.245586585998535156e+01 9.978897094726562500e+00 -8.508826792240142822e-02 1.454975724220275879e+00 4.109662473201751709e-01 9.323462247848510742e-01
4.880000000000000000e+02 1.551763248443603516e+01 1.277762317657470703e+01 -2.463260650634765625e+00 -6.215151548385620117e-01 -9.254327416419982910e-01 -1.333636045455932617e+00
4.890000000000000000e+02 1.702795028686523438e+01 1.533255672454833984e+01 -3.145293712615966797e+00 -2.140747457742691040e-01 -1.007810473442077637e+00 -1.011090040206909180e+00
4.900000000000000000e+02 1.682184410095214844e+01 2.366052818298339844e+01 -5.524775385856628418e-01 1.223980665206909180e+00 2.014509290456771851e-01 7.267053425312042236e-02
4.910000000000000000e+02 1.642806053161621094e+01 3.049251365661621094e+01 1.384992003440856934e-01 1.897170901298522949e+00 6.107010245323181152e-01 8.808697015047073364e-02
4.920000000000000000e+02 1.775508308410644531e+01 4.096286392211914062e+01 3.785587847232818604e-01 2.299198865890502930e+00 8.033273220062255859e-01 -2.661490254104137421e-02
4.930000000000000000e+02 2.025573348999023438e+01 1.566966724395751953e+01 -5.081011295318603516e+00 -1.104522585868835449e+00 -1.855660200119018555e+00 -2.118402719497680664e+00
4.940000000000000000e+02 2.279224586486816406e+01 1.701796722412109375e+01 -6.189549922943115234e+00 -1.173387408256530762e+00 -2.208881139755249023e+00 -1.842521667480468750e+00
4.950000000000000000e+02 2.246910285949707031e+01 2.151676559448242188e+01 -1.539361476898193359e+00 1.439505934715270996e+00 -2.995666675269603729e-02 -1.090693116188049316e+00
4.960000000000000000e+02 1.932471275329589844e+01 3.476413345336914062e+01 2.864497601985931396e-01 2.153293609619140625e+00 7.319229841232299805e-01 -8.855829387903213501e-02
4.970000000000000000e+02 2.259891700744628906e+01 4.099579238891601562e+01 3.191503286361694336e-01 2.424891948699951172e+00 8.232126832008361816e-01 -7.139780092984437943e-03
4.980000000000000000e+02 3.200118637084960938e+01 7.314766645431518555e-01 3.230866432189941406e+00 1.146659374237060547e+00 1.313257813453674316e+00 8.509346961975097656e+00
4.990000000000000000e+02 3.293074035644531250e+01 -7.613553404808044434e-01 -4.844170093536376953e+00 -4.498929500579833984e+00 -2.802929878234863281e+00 3.260310888290405273e+00
5.000000000000000000e+02 3.469265365600585938e+01 -2.015868425369262695e+00 -5.451417922973632812e+00 -2.161016941070556641e+00 -2.283730506896972656e+00 3.470492362976074219e+00
5.010000000000000000e+02 3.620657348632812500e+01 -1.450687766075134277e+00 -3.002853155136108398e+00 5.472166538238525391e+00 7.407940030097961426e-01 3.226336836814880371e-01
5.020000000000000000e+02 3.772158813476562500e+01 2.699910163879394531e+00 2.493704557418823242e+00 2.105638885498046875e+01 7.065028190612792969e+00 2.407163619995117188e+00
5.030000000000000000e+02 3.363045883178710938e+01 5.835064888000488281e+00 2.905328571796417236e-01 3.180006027221679688e+00 1.041161656379699707e+00 1.062505602836608887e+00
5.040000000000000000e+02 3.502801513671875000e+01 3.120669364929199219e+00 2.630324602127075195e+00 5.851698875427246094e+00 2.544606924057006836e+00 1.162471175193786621e+00
5.050000000000000000e+02 3.823483657836914062e+01 3.888650894165039062e+00 1.586680769920349121e+00 1.459996318817138672e+01 4.855993270874023438e+00 4.906425476074218750e+00
5.060000000000000000e+02 2.756764030456542969e+01 2.838421821594238281e+00 -8.642480850219726562e+00 -1.622539162635803223e+00 -3.079505920410156250e+00 -4.175376892089843750e+00
5.070000000000000000e+02 3.014248085021972656e+01 -1.114501118659973145e+00 6.760992050170898438e+00 1.749707412719726562e+01 7.277419567108154297e+00 7.070846080780029297e+00
5.080000000000000000e+02 4.040380859375000000e+01 -1.123858833312988281e+01 8.202116489410400391e-01 1.088619995117187500e+01 3.511923313140869141e+00 -2.383801221847534180e+00
5.090000000000000000e+02 3.984124374389648438e+01 -9.903746604919433594e+00 7.168998718261718750e-01 7.043760299682617188e+00 2.328197956085205078e+00 -2.009406805038452148e+00
5.100000000000000000e+02 4.091655731201171875e+01 -1.412370395660400391e+01 6.907188892364501953e-01 1.611983299255371094e+01 5.043165683746337891e+00 9.319176524877548218e-02
5.110000000000000000e+02 4.253817749023437500e+01 -1.934474754333496094e+01 -7.420070767402648926e-01 6.384838104248046875e+00 1.692849397659301758e+00 -6.305009722709655762e-01
5.120000000000000000e+02 4.076259613037109375e+01 -1.554268169403076172e+01 2.012725830078125000e+00 1.537627124786376953e+01 5.216699123382568359e+00 2.652362823486328125e+00
5.130000000000000000e+02 4.564337539672851562e+01 -2.299222946166992188e+01 -1.913997381925582886e-01 4.154942512512207031e+00 1.189062833786010742e+00 -8.753130435943603516e-01
5.140000000000000000e+02 4.286097335815429688e+01 -2.772062492370605469e+01 -6.479478627443313599e-02 4.086946487426757812e+00 1.206645607948303223e+00 -2.916620075702667236e-01
5.150000000000000000e+02 4.736428070068359375e+01 -4.042937088012695312e+01 1.809734851121902466e-01 4.244172096252441406e+00 1.327543616294860840e+00 -3.396990895271301270e-02
5.160000000000000000e+02 5.234599685668945312e+01 -4.074202346801757812e+01 2.063530832529067993e-01 4.576047897338867188e+00 1.434720277786254883e+00 1.499457564204931259e-02
5.170000000000000000e+02 5.223019027709960938e+01 -3.731910705566406250e+01 1.993959695100784302e-01 4.552433013916015625e+00 1.425548672676086426e+00 7.386991288512945175e-03
5.180000000000000000e+02 5.045433425903320312e+01 -3.088373184204101562e+01 2.729261219501495361e-01 4.212605476379394531e+00 1.345659494400024414e+00 -4.071786627173423767e-02
5.190000000000000000e+02 5.167518234252929688e+01 -2.330162048339843750e+01 6.644987463951110840e-01 3.043910980224609375e+00 1.112522959709167480e+00 1.503050774335861206e-01
5.200000000000000000e+02 5.300772094726562500e+01 -1.853825950622558594e+01 -1.886745095252990723e+00 -8.468537330627441406e-01 -8.200796842575073242e-01 1.031793594360351562e+00
5.210000000000000000e+02 5.105411148071289062e+01 -1.646590805053710938e+01 -9.303542375564575195e-01 -4.205775856971740723e-01 -4.052795469760894775e-01 5.247980952262878418e-01
5.220000000000000000e+02 5.201593017578125000e+01 -1.749905586242675781e+01 -1.248763322830200195e+00 -5.508579611778259277e-01 -5.398864150047302246e-01 9.726548194885253906e-01
5.230000000000000000e+02 4.827444458007812500e+01 -1.527173709869384766e+01 4.189386218786239624e-02 1.247072577476501465e+00 3.866899311542510986e-01 -5.726177692413330078e-01
5.240000000000000000e+02 4.912971496582031250e+01 -1.441909027099609375e+01 -3.302927911281585693e-01 -3.172466903924942017e-02 -1.086052358150482178e-01 1.382525712251663208e-01
5.250000000000000000e+02 4.730176925659179688e+01 -1.226686573028564453e+01 2.595273405313491821e-02 1.124847650527954102e+00 3.452401161193847656e-01 -3.379121422767639160e-01
5.260000000000000000e+02 3.846292877197265625e+01 -7.489545345306396484e+00 8.066686987876892090e-01 2.975124835968017578e+00 1.134538054466247559e+00 -1.498332977294921875e+00
5.270000000000000000e+02 4.220926666259765625e+01 -7.544763565063476562e+00 7.081937789916992188e-01 8.461013793945312500e+00 2.750762224197387695e+00 6.337282061576843262e-01
5.280000000000000000e+02 4.455818939208984375e+01 -5.350090980529785156e+00 1.707565903663635254e+00 1.707231140136718750e+01 5.633963108062744141e+00 1.301282048225402832e+00
5.290000000000000000e+02 3.806925964355468750e+01 -4.615017414093017578e+00 -1.081281423568725586e+00 3.238478183746337891e+00 6.471590399742126465e-01 -1.631504416465759277e+00
5.300000000000000000e+02 4.068526458740234375e+01 -3.615776062011718750e+00 2.346616387367248535e-01 3.572384834289550781e+00 1.142113924026489258e+00 -2.237136363983154297e+00
5.310000000000000000e+02 3.967932891845703125e+01 -5.184952259063720703e+00 5.631055831909179688e-01 3.520034790039062500e+00 1.224942088127136230e+00 -1.691130161285400391e+00
5.320000000000000000e+02 3.772135925292968750e+01 -6.347366809844970703e+00 9.976252913475036621e-01 2.336337566375732422e+00 1.000188827514648438e+00 -1.326493978500366211e+00
5.330000000000000000e+02 3.583487701416015625e+01 -4.077302813529968262e-01 -1.008431911468505859e+00 5.829155445098876953e+00 1.446217060089111328e+00 3.511657714843750000e-01
5.340000000000000000e+02 3.906567764282226562e+01 -1.648524665832519531e+01 -1.513711065053939819e-01 2.522996962070465088e-01 3.027858026325702667e-02 2.066631078720092773e+00
5.350000000000000000e+02 3.175225448608398438e+01 -7.942237377166748047e+00 1.757683306932449341e-01 1.068966865539550781e+00 3.734205663204193115e-01 -5.121783018112182617e-01
5.360000000000000000e+02 2.803290367126464844e+01 -7.574273109436035156e+00 1.796386361122131348e+00 7.596524715423583984e+00 2.817873239517211914e+00 6.488516330718994141e-01
5.370000000000000000e+02 3.017379188537597656e+01 -4.276731014251708984e+00 6.451775431632995605e-01 8.073776245117187500e+00 2.615686178207397461e+00 2.790587842464447021e-01
5.380000000000000000e+02 2.560156440734863281e+01 -5.058144092559814453e+00 1.043697953224182129e+00 8.298177719116210938e+00 2.802562713623046875e+00 -9.093533158302307129e-01
5.390000000000000000e+02 2.990510368347167969e+01 -2.326951503753662109e+00 1.058325886726379395e+00 1.403313350677490234e+01 4.527437686920166016e+00 2.980742931365966797e+00
5.400000000000000000e+02 3.051422119140625000e+01 2.910070866346359253e-02 7.107660770416259766e+00 1.209873962402343750e+01 5.761919975280761719e+00 5.902902603149414062e+00
5.410000000000000000e+02 4.609295654296875000e+01 -1.886081457138061523e+00 -2.799453735351562500e+00 5.261270523071289062e+00 7.385450005531311035e-01 5.968161106109619141e+00
5.420000000000000000e+02 4.401307678222656250e+01 2.324581861495971680e+00 -1.235704421997070312e+00 2.308405637741088867e-01 -3.014591634273529053e-01 -1.948607116937637329e-01
5.430000000000000000e+02 4.479278945922851562e+01 -4.148617744445800781e+00 3.197831630706787109e+00 1.605957794189453125e+01 5.777222633361816406e+00 4.714630603790283203e+00
5.440000000000000000e+02 4.192158508300781250e+01 4.423773884773254395e-01 -6.602978706359863281e+00 -8.394189476966857910e-01 -2.232719421386718750e+00 -2.845859766006469727e+00
5.450000000000000000e+02 4.629351043701171875e+01 -3.064506053924560547e+00 -6.681883931159973145e-01 3.116050243377685547e+00 7.343585491180419922e-01 4.020495414733886719e+00
5.460000000000000000e+02 4.822085571289062500e+01 -1.223304390907287598e+00 -8.745276927947998047e-01 5.166378021240234375e-01 -1.073669642210006714e-01 3.263121128082275391e+00
5.470000000000000000e+02 5.157986068725585938e+01 -3.890950679779052734e+00 -5.088962554931640625e+00 2.914214611053466797e+00 -6.524243354797363281e-01 -1.335739493370056152e-01
5.480000000000000000e+02 5.628402709960937500e+01 -7.813547849655151367e-01 -1.484147071838378906e+00 3.138260841369628906e+00 4.962341487407684326e-01 -5.561103343963623047e+00
5.490000000000000000e+02 5.476033782958984375e+01 -1.043254375457763672e+01 8.782780170440673828e-01 6.937850475311279297e+00 2.344838619232177734e+00 -2.410334825515747070e+00
5.500000000000000000e+02 5.632919311523437500e+01 -1.134642887115478516e+01 4.552417397499084473e-01 8.969594001770019531e+00 2.827450752258300781e+00 -8.100656867027282715e-01
5.510000000000000000e+02 6.444264984130859375e+01 -1.090806198120117188e+01 4.775705635547637939e-01 4.570190429687500000e+00 1.514328360557556152e+00 -1.347914934158325195e+00
5.520000000000000000e+02 6.713571166992187500e+01 -1.415494346618652344e+01 -1.444242954254150391e+00 -1.631481349468231201e-01 -4.822173118591308594e-01 8.132973313331604004e-01
5.530000000000000000e+02 6.612201690673828125e+01 -1.318662166595458984e+01 -8.158835172653198242e-01 7.684072256088256836e-01 -1.424289215356111526e-02 2.049186527729034424e-01
5.540000000000000000e+02 5.569330978393554688e+01 -1.315302658081054688e+01 4.221273958683013916e-01 1.179498958587646484e+01 3.665135145187377930e+00 -2.024129152297973633e+00
5.550000000000000000e+02 5.626459884643554688e+01 -1.721746253967285156e+01 1.647493720054626465e+00 1.529426479339599609e+01 5.082527637481689453e+00 1.643459558486938477e+00
5.560000000000000000e+02 4.659175872802734375e+01 1.555288219451904297e+01 -4.873515069484710693e-01 3.913195133209228516e-01 -2.880959399044513702e-02 -1.178975403308868408e-01
5.570000000000000000e+02 4.612583541870117188e+01 1.442550468444824219e+01 -7.066356539726257324e-01 -2.309110313653945923e-01 -2.812640070915222168e-01 -3.964497447013854980e-01
5.580000000000000000e+02 5.087295532226562500e+01 1.136105728149414062e+01 1.700769662857055664e+00 1.917140579223632812e+01 6.261652469635009766e+00 1.816758275032043457e+00
5.590000000000000000e+02 5.084325790405273438e+01 1.263559246063232422e+01 1.008411288261413574e+00 2.082017517089843750e+01 6.548576354980468750e+00 -5.401194691658020020e-01
5.600000000000000000e+02 5.125965118408203125e+01 1.013579940795898438e+01 1.289423465728759766e+00 1.522840881347656250e+01 4.955349445343017578e+00 1.056700229644775391e+00
5.610000000000000000e+02 4.681613159179687500e+01 3.410304784774780273e+00 4.912064671516418457e-01 1.701095104217529297e+00 6.576904654502868652e-01 1.214494347572326660e+00
5.620000000000000000e+02 5.270996475219726562e+01 3.502676486968994141e+00 3.913684606552124023e+00 1.196431541442871094e+01 4.763400077819824219e+00 -1.102742433547973633e+00
5.630000000000000000e+02 5.394679260253906250e+01 3.392116785049438477e+00 3.154941082000732422e+00 2.259545326232910156e+01 7.725118160247802734e+00 -2.074663400650024414e+00
5.640000000000000000e+02 4.758428573608398438e+01 -3.063186883926391602e+00 -6.236766815185546875e+00 -1.542614579200744629e+00 -2.333814382553100586e+00 2.461376667022705078e+00
5.650000000000000000e+02 3.946853256225585938e+01 6.230717658996582031e+00 2.117117047309875488e-01 7.180509090423583984e+00 2.217666149139404297e+00 2.313091516494750977e+00
5.660000000000000000e+02 3.979964065551757812e+01 8.961102485656738281e+00 -3.876823186874389648e-01 6.208667278289794922e+00 1.746295452117919922e+00 4.074734151363372803e-01
5.670000000000000000e+02 4.013401031494140625e+01 7.356115818023681641e+00 -2.968778014183044434e-01 3.588798284530639648e+00 9.875761270523071289e-01 4.099618494510650635e-01
5.680000000000000000e+02 3.883295440673828125e+01 5.078600406646728516e+00 1.320129990577697754e+00 1.065798854827880859e+01 3.593435764312744141e+00 3.562670230865478516e+00
5.690000000000000000e+02 3.665256881713867188e+01 1.016011524200439453e+01 2.993798494338989258e+00 1.795319366455078125e+01 6.284097671508789062e+00 6.129455566406250000e+00
5.700000000000000000e+02 3.910149765014648438e+01 1.237386131286621094e+01 3.418929100036621094e+00 8.480839729309082031e+00 3.569930791854858398e+00 3.191618919372558594e+00
5.710000000000000000e+02 4.250462341308593750e+01 1.061168575286865234e+01 -4.108450710773468018e-01 -8.641566038131713867e-01 -3.825004994869232178e-01 -7.620313763618469238e-01
5.720000000000000000e+02 4.525295639038085938e+01 1.352053070068359375e+01 -4.767862856388092041e-01 -3.231805562973022461e-01 -2.399900555610656738e-01 -2.420635968446731567e-01
5.730000000000000000e+02 4.367166137695312500e+01 1.626847076416015625e+01 6.736897826194763184e-01 2.291930437088012695e+00 8.896861076354980469e-01 1.480790257453918457e+00
5.740000000000000000e+02 4.462544631958007812e+01 2.525986099243164062e+01 9.841794520616531372e-02 4.337633609771728516e+00 1.330815434455871582e+00 9.088737517595291138e-02
5.750000000000000000e+02 4.254417037963867188e+01 4.037437820434570312e+01 -8.829867839813232422e-02 4.208830833435058594e+00 1.236159682273864746e+00 1.182023552246391773e-03
5.760000000000000000e+02 3.731792449951171875e+01 4.037024307250976562e+01 -4.305141046643257141e-02 3.757876873016357422e+00 1.114447593688964844e+00 -4.619182646274566650e-02
5.770000000000000000e+02 4.352802276611328125e+01 3.649563217163085938e+01 -9.907884895801544189e-02 4.251674175262451172e+00 1.245778679847717285e+00 2.968573942780494690e-03
5.780000000000000000e+02 3.739012908935546875e+01 3.140078926086425781e+01 -1.953276544809341431e-01 3.833170890808105469e+00 1.091352939605712891e+00 -2.205871045589447021e-02
5.790000000000000000e+02 3.718346023559570312e+01 2.004554748535156250e+01 -9.071853756904602051e-01 5.177704811096191406e+00 1.281155824661254883e+00 5.870353803038597107e-02
5.800000000000000000e+02 2.640338325500488281e+01 1.759553909301757812e+01 -3.167870283126831055e+00 8.393396377563476562e+00 1.567657828330993652e+00 2.510138750076293945e+00
5.810000000000000000e+02 3.497203445434570312e+01 1.785660362243652344e+01 -2.345712184906005859e-01 3.392311573028564453e+00 9.473220705986022949e-01 -1.114297151565551758e+00
5.820000000000000000e+02 3.578964996337890625e+01 1.444795322418212891e+01 1.858048141002655029e-01 4.332298755645751953e+00 1.355431079864501953e+00 -3.115392923355102539e+00
5.830000000000000000e+02 3.782937622070312500e+01 1.503505802154541016e+01 -1.946211218833923340e+00 9.786802291870117188e+00 2.352177381515502930e+00 2.119868040084838867e+00
5.840000000000000000e+02 4.790382385253906250e+01 1.560879898071289062e+01 -2.568538486957550049e-01 -1.025009155273437500e-01 -1.078064292669296265e-01 -1.010977387428283691e+00
5.850000000000000000e+02 2.704013633728027344e+01 1.914550423622131348e+00 -5.692628860473632812e+00 -1.041014790534973145e+00 -2.020093202590942383e+00 -3.091915369033813477e+00
5.860000000000000000e+02 2.433007049560546875e+01 1.851315736770629883e+00 1.141872853040695190e-01 4.437081336975097656e+00 1.365380644798278809e+00 -5.458636283874511719e+00
5.870000000000000000e+02 2.583544921875000000e+01 4.171914458274841309e-01 8.015561699867248535e-01 3.277159631252288818e-01 3.387816548347473145e-01 -3.784391403198242188e+00
5.880000000000000000e+02 2.301077461242675781e+01 -2.132754087448120117e+00 1.001925826072692871e+00 3.416974782943725586e+00 1.325670242309570312e+00 -1.560511350631713867e+00
5.890000000000000000e+02 2.153090286254882812e+01 2.368526458740234375e+00 1.183378458023071289e+00 6.289055824279785156e+00 2.241730213165283203e+00 8.279713988304138184e-01
5.900000000000000000e+02 2.119857788085937500e+01 -1.532725095748901367e-01 -2.060350418090820312e+00 6.331388354301452637e-01 -4.281634688377380371e-01 2.010997533798217773e+00
5.910000000000000000e+02 2.693546676635742188e+01 1.159420871734619141e+01 -3.954093530774116516e-02 4.861261844635009766e+00 1.446516275405883789e+00 9.398931264877319336e-01
5.920000000000000000e+02 3.105676269531250000e+01 1.307216262817382812e+01 -2.360048532485961914e+00 -1.709006786346435547e+00 -1.220716595649719238e+00 -1.757833003997802734e+00
5.930000000000000000e+02 3.475908660888671875e+01 1.545491981506347656e+01 -6.750631928443908691e-01 1.882509946823120117e+00 3.622340261936187744e-01 -1.743253707885742188e+00
5.940000000000000000e+02 6.198835372924804688e+01 4.339020729064941406e+00 -6.520383358001708984e-01 1.203426241874694824e+00 1.654163897037506104e-01 2.456792145967483521e-01
5.950000000000000000e+02 6.150886535644531250e+01 8.999636173248291016e-01 -4.264698505401611328e+00 4.466022968292236328e+00 6.039724871516227722e-02 1.564959645271301270e+00
5.960000000000000000e+02 6.328967285156250000e+01 -3.689339399337768555e+00 4.189027786254882812e+00 1.617286300659179688e+01 6.108567237854003906e+00 3.642610788345336914e+00
5.970000000000000000e+02 6.401607513427734375e+01 -2.563816547393798828e+00 -1.215885877609252930e+00 9.170032501220703125e+00 2.386244058609008789e+00 5.098191738128662109e+00
5.980000000000000000e+02 5.812213897705078125e+01 -7.585806846618652344e+00 2.679096162319183350e-01 7.084401607513427734e+00 2.205693483352661133e+00 2.729460597038269043e-01
5.990000000000000000e+02 5.689667892456054688e+01 2.325982302427291870e-01 -4.401631355285644531e+00 -3.084147721529006958e-02 -1.329741835594177246e+00 -3.800055027008056641e+00
6.000000000000000000e+02 5.774738693237304688e+01 1.036045551300048828e+00 -8.223866462707519531e+00 -1.669103264808654785e+00 -2.967890977859497070e+00 -3.258786916732788086e+00
6.010000000000000000e+02 6.983756256103515625e+01 -4.515239238739013672e+00 -1.854038357734680176e+00 2.909471511840820312e+00 3.166299462318420410e-01 -8.903423547744750977e-01
6.020000000000000000e+02 6.904114532470703125e+01 -5.366318225860595703e+00 -7.075437903404235840e-01 1.070125102996826172e+00 1.087743863463401794e-01 -1.195353344082832336e-01
6.030000000000000000e+02 7.238517761230468750e+01 -1.041609668731689453e+01 7.173318862915039062e-01 1.295277500152587891e+01 4.101032257080078125e+00 -8.651934862136840820e-01
6.040000000000000000e+02 7.938256072998046875e+01 -1.118783760070800781e+01 8.795506507158279419e-02 6.880742549896240234e+00 2.090609312057495117e+00 2.858536541461944580e-01
6.050000000000000000e+02 7.234212493896484375e+01 -1.310376358032226562e+01 5.324935317039489746e-01 1.509497833251953125e+01 4.688241481781005859e+00 1.055054306983947754e+00
6.060000000000000000e+02 7.218718719482421875e+01 -1.447231388092041016e+01 2.304164409637451172e+00 1.476463794708251953e+01 5.120640754699707031e+00 2.881968736648559570e+00
6.070000000000000000e+02 7.089030456542968750e+01 -1.626407623291015625e+01 3.617527782917022705e-01 5.281590461730957031e+00 1.693002939224243164e+00 3.796549558639526367e+00
6.080000000000000000e+02 7.209996795654296875e+01 -1.608287239074707031e+01 8.535593152046203613e-01 1.064575576782226562e+01 3.449794530868530273e+00 2.456581354141235352e+00
6.090000000000000000e+02 7.808331298828125000e+01 -2.368945121765136719e+01 -2.331323362886905670e-02 7.313079357147216797e+00 2.186929941177368164e+00 1.297245621681213379e-01
6.100000000000000000e+02 7.936815643310546875e+01 -2.229759025573730469e+01 -1.903656870126724243e-02 7.567409992218017578e+00 2.264512062072753906e+00 3.944414202123880386e-03
6.110000000000000000e+02 7.474630737304687500e+01 -1.501856803894042969e+01 8.251593708992004395e-01 9.569316864013671875e+00 3.118342638015747070e+00 8.324366062879562378e-02
6.120000000000000000e+02 7.942600250244140625e+01 -1.258362388610839844e+01 3.183589875698089600e-02 6.383721351623535156e+00 1.924667239189147949e+00 1.413746327161788940e-01
6.130000000000000000e+02 7.284513854980468750e+01 -9.130600929260253906e+00 1.309871315956115723e+00 1.055955410003662109e+01 3.560827493667602539e+00 -4.726201295852661133e-01
6.140000000000000000e+02 7.823433685302734375e+01 -2.776204347610473633e+00 -1.148509383201599121e-01 1.126425266265869141e+01 3.344820499420166016e+00 1.136239171028137207e+00
6.150000000000000000e+02 7.930422210693359375e+01 -5.589159488677978516e+00 -2.309185825288295746e-02 1.107825756072998047e+01 3.316549539566040039e+00 6.366142630577087402e-01
6.160000000000000000e+02 6.807366180419921875e+01 -1.509640884399414062e+01 -2.050883531570434570e+00 -8.772067427635192871e-01 -8.784270882606506348e-01 1.534012794494628906e+00
6.170000000000000000e+02 6.671405792236328125e+01 -1.809967041015625000e+01 3.023989498615264893e-01 2.572561979293823242e+00 8.624883294105529785e-01 -6.011236906051635742e-01
6.180000000000000000e+02 6.606012725830078125e+01 -1.513828659057617188e+01 -8.871680498123168945e-01 1.935304522514343262e+00 3.144409358501434326e-01 -2.835423052310943604e-01
6.190000000000000000e+02 5.531035995483398438e+01 -1.916619491577148438e+01 5.070987343788146973e-01 6.763549804687500000e+00 2.181194543838500977e+00 3.311974525451660156e+00
6.200000000000000000e+02 6.386058044433593750e+01 -9.654300689697265625e+00 6.454232931137084961e-01 7.966774940490722656e+00 2.583659410476684570e+00 -1.654496431350708008e+00
6.210000000000000000e+02 6.017981719970703125e+01 -9.197865486145019531e+00 5.421714186668395996e-01 8.125261306762695312e+00 2.600229978561401367e+00 1.311039924621582031e+00
6.220000000000000000e+02 6.232358551025390625e+01 -4.778451919555664062e+00 1.818637609481811523e+00 1.271294689178466797e+01 4.359475135803222656e+00 2.203913927078247070e+00
6.230000000000000000e+02 5.846884250640869141e+00 1.949233293533325195e+00 -1.815731167793273926e+00 -3.161696493625640869e-01 -6.395702362060546875e-01 2.340977191925048828e+00
6.240000000000000000e+02 1.864410161972045898e+00 -1.780322265625000000e+01 -2.181321941316127777e-02 7.799407839775085449e-01 2.274382710456848145e-01 2.343428730964660645e-01
6.250000000000000000e+02 6.793887019157409668e-01 -2.342818832397460938e+01 5.974155385047197342e-03 1.137812614440917969e+00 3.431360423564910889e-01 6.132699921727180481e-02
6.260000000000000000e+02 5.685901641845703125e+00 -3.141410255432128906e+01 -7.234279066324234009e-02 2.081039428710937500e+00 6.026090383529663086e-01 1.743740886449813843e-01
6.270000000000000000e+02 1.795352172851562500e+01 -4.051414108276367188e+01 -2.217714637517929077e-01 3.111881256103515625e+00 8.670329451560974121e-01 -6.620011758059263229e-03
6.280000000000000000e+02 2.279338455200195312e+01 -4.082968521118164062e+01 -2.111558616161346436e-01 3.403986215591430664e+00 9.578490853309631348e-01 7.253845687955617905e-04
6.290000000000000000e+02 6.927727460861206055e-01 -2.484557723999023438e+01 -1.267811842262744904e-02 1.258689999580383301e+00 3.738035857677459717e-01 5.515476688742637634e-02
6.300000000000000000e+02 7.317602038383483887e-01 -3.053377723693847656e+01 -9.853061288595199585e-03 1.615004301071166992e+00 4.815453588962554932e-01 3.530469164252281189e-02
6.310000000000000000e+02 9.148940086364746094e+00 -3.719805145263671875e+01 -1.122232750058174133e-01 2.434144020080566406e+00 6.965762376785278320e-01 9.859307110309600830e-02
6.320000000000000000e+02 7.632362246513366699e-01 -3.195273971557617188e+01 8.179536089301109314e-03 1.679088354110717773e+00 5.061804056167602539e-01 3.199029713869094849e-02
6.330000000000000000e+02 7.677236795425415039e-01 -3.730791091918945312e+01 8.139239624142646790e-03 1.848808884620666504e+00 5.570844411849975586e-01 2.067356929183006287e-02
6.340000000000000000e+02 2.619915485382080078e+00 -3.793222808837890625e+01 -2.834984334185719490e-03 1.935751676559448242e+00 5.798749923706054688e-01 5.720872059464454651e-02
6.350000000000000000e+02 6.216132354736328125e+01 -4.056642532348632812e+01 1.458722054958343506e-01 5.344423770904541016e+00 1.647088885307312012e+00 1.609090529382228851e-02
6.360000000000000000e+02 5.719880294799804688e+01 -4.063012695312500000e+01 1.746507436037063599e-01 4.947094440460205078e+00 1.536523461341857910e+00 6.652662064880132675e-03
6.370000000000000000e+02 5.965309906005859375e+01 -2.976217079162597656e+01 2.260422892868518829e-02 5.311390399932861328e+00 1.600198388099670410e+00 -3.627820871770381927e-03
6.380000000000000000e+02 5.516370010375976562e+01 -2.203649902343750000e+01 1.799520850181579590e-01 5.860608100891113281e+00 1.812168002128601074e+00 2.175358295440673828e+00
6.390000000000000000e+02 6.212961196899414062e+01 -3.670147323608398438e+01 1.478346139192581177e-01 5.373480319976806641e+00 1.656394481658935547e+00 2.352058701217174530e-02
6.400000000000000000e+02 6.679898834228515625e+01 -3.090926742553710938e+01 2.953682839870452881e-01 5.566339969635009766e+00 1.758512496948242188e+00 3.480076044797897339e-02
6.410000000000000000e+02 6.414843750000000000e+01 -2.016051292419433594e+01 4.929847717285156250e-01 4.734727382659912109e+00 1.568313717842102051e+00 -1.192183732986450195e+00
6.420000000000000000e+02 6.694834899902343750e+01 -2.620728683471679688e+01 4.397195577621459961e-01 5.207680225372314453e+00 1.694219946861267090e+00 -7.422160357236862183e-02
6.430000000000000000e+02 6.705690002441406250e+01 -4.067678833007812500e+01 1.174071654677391052e-01 5.734428882598876953e+00 1.755550861358642578e+00 5.635544657707214355e-03
6.440000000000000000e+02 6.871817016601562500e+01 -3.633713912963867188e+01 1.192081868648529053e-01 5.825781345367431641e+00 1.783496737480163574e+00 2.325222268700599670e-02
6.450000000000000000e+02 7.200049591064453125e+01 -3.090833473205566406e+01 2.285902053117752075e-01 6.072170734405517578e+00 1.890228271484375000e+00 1.987681984901428223e-01
6.460000000000000000e+02 7.009355926513671875e+01 -2.123255538940429688e+01 7.266659140586853027e-01 4.691008567810058594e+00 1.625302314758300781e+00 1.097016453742980957e+00
6.470000000000000000e+02 7.297083282470703125e+01 -2.477418899536132812e+01 3.522728383541107178e-02 6.192943572998046875e+00 1.868451237678527832e+00 5.329081416130065918e-01
6.480000000000000000e+02 7.796186065673828125e+01 -4.163932418823242188e+01 3.440879285335540771e-02 6.583833217620849609e+00 1.985472679138183594e+00 9.767563082277774811e-03
6.490000000000000000e+02 7.799120330810546875e+01 -3.696660614013671875e+01 3.085959143936634064e-02 6.612988471984863281e+00 1.993154406547546387e+00 4.248904809355735779e-02
6.500000000000000000e+02 7.791621398925781250e+01 -3.063732528686523438e+01 5.684776988346129656e-05 6.798483371734619141e+00 2.039561986923217773e+00 1.129640787839889526e-01
6.510000000000000000e+02 7.934300994873046875e+01 -2.647645378112792969e+01 -7.773410994559526443e-03 7.270514011383056641e+00 2.178822278976440430e+00 6.219013035297393799e-02
6.520000000000000000e+02 7.814137268066406250e+01 2.777860164642333984e+00 -8.497684001922607422e-01 1.194159317016601562e+01 3.327547311782836914e+00 -2.158809900283813477e+00
6.530000000000000000e+02 7.939043426513671875e+01 1.673371887207031250e+01 8.399525657296180725e-03 6.877603530883789062e+00 2.065800905227661133e+00 -1.183664575219154358e-01
6.540000000000000000e+02 7.331781768798828125e+01 2.265508651733398438e+01 8.072701841592788696e-02 6.427069664001464844e+00 1.952339053153991699e+00 -4.154171794652938843e-02
6.550000000000000000e+02 6.441853332519531250e+01 1.604602050781250000e+01 2.632541656494140625e-01 4.964154243469238281e+00 1.568222522735595703e+00 -2.514306783676147461e+00
6.560000000000000000e+02 7.903739166259765625e+01 3.739371871948242188e+01 -1.122601702809333801e-02 6.563227176666259766e+00 1.965600371360778809e+00 -1.162706781178712845e-02
6.570000000000000000e+02 7.934685516357421875e+01 2.922920799255371094e+01 4.033848643302917480e-03 6.572078227996826172e+00 1.972833514213562012e+00 4.213477484881877899e-03
6.580000000000000000e+02 7.933074951171875000e+01 2.368480873107910156e+01 2.323610894381999969e-02 6.514570236206054688e+00 1.961341857910156250e+00 9.011648595333099365e-03
6.590000000000000000e+02 7.818779754638671875e+01 1.951300811767578125e+01 7.009352743625640869e-02 6.570913791656494141e+00 1.992302179336547852e+00 -8.037752658128738403e-02
6.600000000000000000e+02 7.934696960449218750e+01 3.198563003540039062e+01 4.659286234527826309e-03 6.580596446990966797e+00 1.975576758384704590e+00 2.993319882079958916e-03
6.610000000000000000e+02 7.252023315429687500e+01 3.633200836181640625e+01 -1.902687014080584049e-03 6.187445163726806641e+00 1.855662822723388672e+00 -1.559478975832462311e-02
6.620000000000000000e+02 7.178032684326171875e+01 3.815115356445312500e+01 1.093520317226648331e-02 6.143526554107666016e+00 1.846338510513305664e+00 -9.034138172864913940e-03
6.630000000000000000e+02 7.176381683349609375e+01 2.461560440063476562e+01 3.251952677965164185e-02 6.321461677551269531e+00 1.906194448471069336e+00 -1.072291135787963867e-01
6.640000000000000000e+02 5.253168106079101562e+01 4.084518814086914062e+01 -5.033122003078460693e-02 4.970513343811035156e+00 1.476054668426513672e+00 1.264551747590303421e-02
6.650000000000000000e+02 5.202166748046875000e+01 3.174617767333984375e+01 -2.394096739590167999e-02 4.943166255950927734e+00 1.475767612457275391e+00 1.253952831029891968e-01
6.660000000000000000e+02 4.904998397827148438e+01 2.229529190063476562e+01 2.230823598802089691e-02 5.084299564361572266e+00 1.531982421875000000e+00 -2.528624236583709717e-01
6.670000000000000000e+02 5.065096282958984375e+01 1.394453239440917969e+01 3.099179983139038086e+00 1.800836372375488281e+01 6.332262992858886719e+00 -3.129457235336303711e+00
6.680000000000000000e+02 5.053164291381835938e+01 1.551247310638427734e+01 1.569593667984008789e+00 1.187401771545410156e+01 4.033083438873291016e+00 -2.316174507141113281e+00
6.690000000000000000e+02 3.227777099609375000e+01 4.077003097534179688e+01 4.737655445933341980e-02 3.235298871994018555e+00 9.848026633262634277e-01 -1.796171255409717560e-02
6.700000000000000000e+02 2.958626365661621094e+01 3.055354118347167969e+01 -2.615444958209991455e-01 3.124954462051391602e+00 8.590229749679565430e-01 -3.356969952583312988e-01
6.710000000000000000e+02 3.207456207275390625e+01 2.195476913452148438e+01 -4.033520221710205078e-01 3.407275676727294922e+00 9.011771082878112793e-01 3.056316971778869629e-01
6.720000000000000000e+02 3.085518836975097656e+01 1.623508834838867188e+01 9.211009740829467773e-01 6.991114616394042969e-01 4.860637187957763672e-01 1.491808414459228516e+00
6.730000000000000000e+02 3.351630783081054688e+01 1.450109863281250000e+01 -2.088038682937622070e+00 -3.682643473148345947e-01 -7.368909120559692383e-01 -1.265036702156066895e+00
6.740000000000000000e+02 8.106453418731689453e-01 3.454927825927734375e+01 -1.580089144408702850e-02 3.649450063705444336e+00 1.090094804763793945e+00 4.944210872054100037e-02
6.750000000000000000e+02 2.084709882736206055e+00 3.001016998291015625e+01 -2.766156010329723358e-02 3.773521423339843750e+00 1.123757958412170410e+00 1.634334623813629150e-01
6.760000000000000000e+02 8.271663665771484375e+00 3.030779838562011719e+01 3.133533755317330360e-03 2.861863613128662109e+00 8.594990968704223633e-01 3.141546249389648438e-01
6.770000000000000000e+02 6.500637531280517578e-01 2.751525306701660156e+01 3.117002360522747040e-02 4.217305660247802734e+00 1.274542808532714844e+00 4.528736323118209839e-02
6.780000000000000000e+02 1.919265270233154297e+00 2.587254524230957031e+01 6.805142853409051895e-03 4.018279552459716797e+00 1.207525372505187988e+00 1.060688272118568420e-01
6.790000000000000000e+02 8.712195396423339844e+00 2.355110359191894531e+01 -6.091750264167785645e-01 2.896710634231567383e+00 6.862607002258300781e-01 1.480636447668075562e-01
6.800000000000000000e+02 6.487371921539306641e-01 2.047291564941406250e+01 -9.504000097513198853e-02 4.289659023284912109e+00 1.258385777473449707e+00 -8.110111951828002930e-02
6.810000000000000000e+02 1.939422011375427246e+00 1.883790397644042969e+01 -2.257112115621566772e-01 3.716218709945678711e+00 1.047152280807495117e+00 -4.282803535461425781e-01
6.820000000000000000e+02 7.664544677734375000e+01 2.355399703979492188e+01 2.383264154195785522e-02 6.482539176940917969e+00 1.951911568641662598e+00 1.456547249108552933e-02
6.830000000000000000e+02 2.900254440307617188e+01 -4.931009769439697266e+00 3.574579954147338867e-01 8.393027305603027344e+00 2.625145435333251953e+00 2.152556419372558594e+00
6.840000000000000000e+02 6.984865188598632812e+00 -1.885063362121582031e+01 -1.132572591304779053e-01 2.037223339080810547e+00 5.771898031234741211e-01 5.082525610923767090e-01
6.850000000000000000e+02 6.645427703857421875e+00 -1.646364021301269531e+01 -8.054969459772109985e-02 1.899355411529541016e+00 5.456417202949523926e-01 5.614382624626159668e-01
6.860000000000000000e+02 6.701864719390869141e+00 -1.155162048339843750e+01 1.026440709829330444e-01 1.742109537124633789e+00 5.534260869026184082e-01 6.729211807250976562e-01
6.870000000000000000e+02 1.031801033020019531e+01 -1.650296568870544434e+00 1.046708106994628906e+00 8.796009421348571777e-01 5.778927206993103027e-01 1.045759797096252441e+00
6.880000000000000000e+02 1.927558517456054688e+01 -7.479720592498779297e+00 1.501312255859375000e+00 2.858967304229736328e+00 1.308083891868591309e+00 -2.042631626129150391e+00
6.890000000000000000e+02 1.870143508911132812e+01 -1.362347793579101562e+01 6.653409600257873535e-01 3.772878408432006836e+00 1.331465840339660645e+00 -1.861183494329452515e-01
6.900000000000000000e+02 2.450525474548339844e+01 -2.054468917846679688e+01 -4.215648174285888672e-01 4.359850883483886719e+00 1.181485891342163086e+00 -3.511763215065002441e-01
6.910000000000000000e+02 3.163727378845214844e+01 -2.845833587646484375e+01 -4.166126251220703125e-02 3.650868654251098633e+00 1.082762241363525391e+00 -3.143866360187530518e-01
6.920000000000000000e+02 3.508057785034179688e+01 -3.100766372680664062e+01 -5.843322142027318478e-04 3.783761501312255859e+00 1.134953141212463379e+00 -1.846129298210144043e-01
6.930000000000000000e+02 6.613364219665527344e+00 -1.281416225433349609e+01 -2.870002062991261482e-03 1.774609565734863281e+00 5.315218567848205566e-01 6.447558403015136719e-01
6.940000000000000000e+02 5.602230072021484375e+01 1.438107967376708984e+01 1.051516413688659668e+00 4.424775123596191406e+00 1.642887473106384277e+00 2.120500802993774414e+00
6.950000000000000000e+02 6.389580917358398438e+01 1.394976043701171875e+01 3.762189447879791260e-01 2.875505447387695312e+00 9.755173325538635254e-01 -2.712702751159667969e+00
6.960000000000000000e+02 5.599721908569335938e+01 1.062493228912353516e+01 -1.844743937253952026e-01 4.044865608215332031e+00 1.158117413520812988e+00 5.938152074813842773e-01
6.970000000000000000e+02 3.388243484497070312e+01 1.676581764221191406e+01 3.119874894618988037e-01 1.634095907211303711e+00 5.838250517845153809e-01 -1.168484687805175781e+00
6.980000000000000000e+02 4.546186828613281250e+01 1.622780799865722656e+01 5.557696223258972168e-01 1.199836730957031250e+00 5.266819000244140625e-01 6.780465245246887207e-01
6.990000000000000000e+02 5.422661590576171875e+01 2.249583244323730469e+01 -8.773214183747768402e-03 5.590507030487060547e+00 1.674520134925842285e+00 6.078765392303466797e-01
7.000000000000000000e+02 6.540782928466796875e+01 2.587569236755371094e+01 2.137931138277053833e-01 5.601096153259277344e+00 1.744466900825500488e+00 -2.374436408281326294e-01
7.010000000000000000e+02 3.698920059204101562e+01 2.367484664916992188e+01 -4.110876023769378662e-01 4.132217884063720703e+00 1.116339087486267090e+00 4.515132680535316467e-02
7.020000000000000000e+02 4.373387527465820312e+01 2.147693634033203125e+01 3.722000718116760254e-01 3.807630300521850586e+00 1.253949165344238281e+00 5.352008938789367676e-01
7.030000000000000000e+02 1.551400566101074219e+01 2.267800903320312500e+01 -9.221410155296325684e-01 1.485576629638671875e+00 1.690306663513183594e-01 3.213383853435516357e-01
7.040000000000000000e+02 1.903714942932128906e+01 1.498455333709716797e+01 -4.191984176635742188e+00 -9.710639119148254395e-01 -1.548914432525634766e+00 -2.011088132858276367e+00
7.050000000000000000e+02 2.134237098693847656e+01 1.047010517120361328e+01 6.652727127075195312e-01 2.756275892257690430e+00 1.026464581489562988e+00 1.684412360191345215e+00
7.060000000000000000e+02 5.256718444824218750e+01 -6.738138198852539062e+00 -1.014454811811447144e-01 2.249529123306274414e+00 6.444250941276550293e-01 -7.170375585556030273e-01
7.070000000000000000e+02 1.686459922790527344e+01 -1.598023128509521484e+01 3.823762014508247375e-02 3.802393674850463867e+00 1.152189373970031738e+00 3.818768635392189026e-02
7.080000000000000000e+02 1.568860912322998047e+01 -2.186691856384277344e+01 -2.505845427513122559e-01 3.419789791107177734e+00 9.507615566253662109e-01 2.466586083173751831e-01
7.090000000000000000e+02 2.240606498718261719e+01 -3.013978385925292969e+01 -2.950702011585235596e-01 3.583093643188476562e+00 9.864070415496826172e-01 -9.301414340734481812e-02
7.100000000000000000e+02 3.206225204467773438e+01 -3.453442382812500000e+01 -6.533431261777877808e-02 3.729492425918579102e+00 1.099247455596923828e+00 -1.451374888420104980e-01
7.110000000000000000e+02 2.357798576354980469e+01 -1.379551601409912109e+01 3.879300653934478760e-01 5.451809406280517578e+00 1.751921772956848145e+00 8.044497370719909668e-01
7.120000000000000000e+02 2.927277755737304688e+01 -2.463965797424316406e+01 -1.335559636354446411e-01 3.701900482177734375e+00 1.070503354072570801e+00 -5.484319329261779785e-01
7.130000000000000000e+02 3.319453430175781250e+01 -2.275569915771484375e+01 1.876885741949081421e-01 3.283764839172363281e+00 1.041436076164245605e+00 -5.259840488433837891e-01
7.140000000000000000e+02 3.688089370727539062e+01 -2.539015579223632812e+01 7.101176679134368896e-02 3.680168628692626953e+00 1.125354170799255371e+00 -1.155813187360763550e-01
7.150000000000000000e+02 5.003398895263671875e+01 -2.198538589477539062e+01 4.893776178359985352e-01 2.704906225204467773e+00 9.582851529121398926e-01 -5.870974659919738770e-01
7.160000000000000000e+02 4.228749084472656250e+01 -2.319906234741210938e+01 -4.847649931907653809e-01 4.591792583465576172e+00 1.232108235359191895e+00 -1.897943019866943359e-01
7.170000000000000000e+02 6.411675930023193359e+00 -2.644327163696289062e+01 -9.566355496644973755e-02 2.091368913650512695e+00 5.987116098403930664e-01 2.989764511585235596e-01
7.180000000000000000e+02 1.876440620422363281e+01 -2.307158660888671875e+01 -3.371898233890533447e-01 3.719052076339721680e+00 1.014558672904968262e+00 9.874194860458374023e-02
7.190000000000000000e+02 2.165710067749023438e+01 -2.460168647766113281e+01 -3.797497451305389404e-01 3.866731166839599609e+00 1.046094417572021484e+00 -9.141491353511810303e-02
7.200000000000000000e+02 4.928619003295898438e+01 -3.325072479248046875e+01 2.243861556053161621e-01 4.259625434875488281e+00 1.345203518867492676e+00 -4.577239975333213806e-02
7.210000000000000000e+02 4.429874038696289062e+01 -2.987111282348632812e+01 6.836783140897750854e-02 4.095832824707031250e+00 1.249260187149047852e+00 -2.758344113826751709e-01
7.220000000000000000e+02 5.849224090576171875e+01 -2.470998191833496094e+01 -2.150812596082687378e-01 6.115396022796630859e+00 1.770094513893127441e+00 1.594326943159103394e-01
7.230000000000000000e+02 7.199536800384521484e+00 -3.309337234497070312e+01 -8.211903274059295654e-02 2.253525733947753906e+00 6.514220237731933594e-01 1.614751070737838745e-01
7.240000000000000000e+02 1.499588394165039062e+01 -3.234896469116210938e+01 -2.383244037628173828e-01 2.996831178665161133e+00 8.275520801544189453e-01 1.343521624803543091e-01
7.250000000000000000e+02 1.949099922180175781e+01 -3.669329452514648438e+01 -2.316578477621078491e-01 3.241331577301025391e+00 9.029021263122558594e-01 1.785833574831485748e-02
7.260000000000000000e+02 5.736282348632812500e+01 -2.904793167114257812e+01 1.829303614795207977e-02 5.244357585906982422e+00 1.578795194625854492e+00 1.960341781377792358e-01
7.270000000000000000e+02 6.484457397460937500e+01 -3.235097503662109375e+01 1.547105908393859863e-01 5.507391929626464844e+00 1.698630690574645996e+00 -3.012644313275814056e-02
7.280000000000000000e+02 7.339427947998046875e+01 -3.164717292785644531e+01 9.184970706701278687e-02 6.242916107177734375e+00 1.900429725646972656e+00 1.804732382297515869e-01
7.290000000000000000e+02 7.932560729980468750e+01 -3.342337799072265625e+01 2.443317323923110962e-02 6.805833816528320312e+00 2.049080133438110352e+00 2.050149440765380859e-02
7.300000000000000000e+02 5.618336868286132812e+01 3.369465255737304688e+01 2.798486873507499695e-02 5.143566131591796875e+00 1.551465392112731934e+00 9.498325735330581665e-02
7.310000000000000000e+02 6.216706848144531250e+01 3.351303100585937500e+01 9.396297484636306763e-02 5.480798721313476562e+00 1.672428488731384277e+00 5.470289848744869232e-03
7.320000000000000000e+02 4.449634933471679688e+01 2.903583717346191406e+01 -3.756656870245933533e-02 4.466376781463623047e+00 1.328642964363098145e+00 3.645955026149749756e-02
7.330000000000000000e+02 2.840516471862792969e+01 2.418547248840332031e+01 -9.571950435638427734e-01 3.742321968078613281e+00 8.355380892753601074e-01 -1.922839730978012085e-01
7.340000000000000000e+02 2.285403442382812500e+01 3.182431602478027344e+01 7.617308199405670166e-02 2.277148008346557617e+00 7.059963345527648926e-01 -3.261479735374450684e-01
7.350000000000000000e+02 1.309980106353759766e+01 2.893704986572265625e+01 2.047376520931720734e-02 2.081882238388061523e+00 6.307067871093750000e-01 2.785685658454895020e-01
7.360000000000000000e+02 7.264726257324218750e+01 3.157723808288574219e+01 -1.029464136809110641e-02 6.237123966217041016e+00 1.868048787117004395e+00 -1.845174282789230347e-02
7.370000000000000000e+02 2.616786193847656250e+01 3.112258529663085938e+01 -1.378819346427917480e-01 2.659987688064575195e+00 7.566317319869995117e-01 -3.650816679000854492e-01
7.380000000000000000e+02 2.207101440429687500e+01 -1.153473734855651855e+00 -1.538736939430236816e+00 2.029467344284057617e+00 1.472191065549850464e-01 -1.013499021530151367e+00
7.390000000000000000e+02 2.461195373535156250e+01 -4.389205932617187500e+00 1.866646170616149902e+00 6.709980010986328125e+00 2.572987794876098633e+00 -1.710462450981140137e+00
7.400000000000000000e+02 2.292755317687988281e+01 -9.333091735839843750e+00 3.115643024444580078e+00 6.666580438613891602e-01 1.134690284729003906e+00 -1.308034453541040421e-02
7.410000000000000000e+02 1.791590499877929688e+01 -4.978625297546386719e+00 2.666710138320922852e+00 4.181738853454589844e+00 2.054534673690795898e+00 -3.142473697662353516e+00
7.420000000000000000e+02 6.274213027954101562e+01 5.450364112854003906e+00 2.941550016403198242e-01 1.643073678016662598e+00 5.811685919761657715e-01 1.076557517051696777e+00
7.430000000000000000e+02 5.455957794189453125e+01 6.122771263122558594e+00 1.277213335037231445e+00 1.259645652770996094e+01 4.162100791931152344e+00 2.232180833816528320e+00
7.440000000000000000e+02 5.527751159667968750e+01 7.314683437347412109e+00 1.028069630265235901e-01 6.577870845794677734e+00 2.004203319549560547e+00 1.978014349937438965e+00
7.450000000000000000e+02 5.596590042114257812e+01 8.503533363342285156e+00 -3.142154812812805176e-01 2.972750425338745117e+00 7.975604534149169922e-01 3.054733872413635254e-01
7.460000000000000000e+02 5.983856964111328125e+01 1.235017299652099609e+01 -1.831225395202636719e+00 -8.340690135955810547e-01 -7.995883226394653320e-01 -1.276891350746154785e+00
7.470000000000000000e+02 2.287252998352050781e+01 5.646368503570556641e+00 3.310698509216308594e+00 1.420163440704345703e+01 5.253699779510498047e+00 3.963900327682495117e+00
7.480000000000000000e+02 2.028040695190429688e+01 9.620520591735839844e+00 -7.276834249496459961e-01 1.116461753845214844e+00 1.166334822773933411e-01 4.018748104572296143e-01
7.490000000000000000e+02 1.807936096191406250e+01 7.985699176788330078e+00 -1.512398004531860352e+00 -9.048780202865600586e-01 -7.251827716827392578e-01 -9.160747528076171875e-01
7.500000000000000000e+02 1.697783279418945312e+01 7.215829849243164062e+00 -2.956988573074340820e+00 -6.265094876289367676e-01 -1.075049400329589844e+00 -1.157483816146850586e+00
7.510000000000000000e+02 1.481123638153076172e+01 5.711621284484863281e+00 -9.959020614624023438e+00 -1.702916979789733887e+00 -3.498581171035766602e+00 -4.590437412261962891e+00
7.520000000000000000e+02 1.153613662719726562e+01 8.950751304626464844e+00 1.015916347503662109e+00 4.820984363555908203e+00 1.751070261001586914e+00 1.629263281822204590e+00
7.530000000000000000e+02 1.444793796539306641e+01 1.189199066162109375e+01 -1.554421186447143555e+00 -3.378799259662628174e-01 -5.676903128623962402e-01 -7.205556035041809082e-01
7.540000000000000000e+02 1.665823936462402344e+01 1.356442165374755859e+01 -3.193905115127563477e+00 -8.809524178504943848e-01 -1.222457289695739746e+00 -1.572167634963989258e+00
7.550000000000000000e+02 1.618373489379882812e+01 1.638107490539550781e+01 -2.786366462707519531e+00 5.961214900016784668e-01 -6.570734977722167969e-01 -2.831229567527770996e-01
7.560000000000000000e+02 2.150852775573730469e+01 1.631301879882812500e+01 -5.715860843658447266e+00 -9.388408660888671875e-01 -1.996410489082336426e+00 -2.426850080490112305e+00
7.570000000000000000e+02 3.751257324218750000e+01 -8.954306840896606445e-01 -3.929665327072143555e+00 1.205120754241943359e+01 2.436462640762329102e+00 -1.912499308586120605e+00
7.580000000000000000e+02 3.743133163452148438e+01 -3.502552032470703125e+00 -3.092144966125488281e+00 4.657200336456298828e+00 4.695166349411010742e-01 -1.443136930465698242e+00
7.590000000000000000e+02 3.700247192382812500e+01 -5.203509330749511719e+00 -4.308848679065704346e-01 2.003123998641967773e+00 4.716717004776000977e-01 -1.054443359375000000e+00
7.600000000000000000e+02 3.918801116943359375e+01 -8.659049034118652344e+00 8.798311352729797363e-01 4.503953456878662109e+00 1.615135312080383301e+00 -1.580036520957946777e+00
7.610000000000000000e+02 4.203289413452148438e+01 -1.414274883270263672e+01 1.837708473205566406e+00 1.133069038391113281e+01 3.950519561767578125e+00 2.642900943756103516e-01
7.620000000000000000e+02 3.499628829956054688e+01 -1.257270336151123047e+01 1.766390725970268250e-02 3.973787724971771240e-01 1.245127990841865540e-01 -1.053670272231101990e-01
7.630000000000000000e+02 3.311513519287109375e+01 -1.047317790985107422e+01 3.532175123691558838e-01 8.295537233352661133e-01 3.548313677310943604e-01 -5.372487306594848633e-01
7.640000000000000000e+02 3.119838714599609375e+01 -6.692123413085937500e+00 3.535989224910736084e-01 2.019984245300292969e+00 7.120749354362487793e-01 -2.339228838682174683e-01
7.650000000000000000e+02 3.066027641296386719e+01 -5.460339069366455078e+00 -1.350900530815124512e-01 3.842194318771362305e+00 1.112131237983703613e+00 -5.787020921707153320e-01
7.660000000000000000e+02 2.944894599914550781e+01 -3.374177932739257812e+00 1.557583332061767578e+00 1.061260986328125000e+01 3.651058197021484375e+00 1.594835877418518066e+00
7.670000000000000000e+02 4.880977630615234375e+01 -2.598302841186523438e+00 -5.201520442962646484e+00 -7.766845226287841797e-01 -1.793461561203002930e+00 2.490185499191284180e+00
7.680000000000000000e+02 5.409819030761718750e+01 -9.150663375854492188e+00 9.392041563987731934e-01 4.935030460357666016e+00 1.762270331382751465e+00 -1.875123858451843262e+00
7.690000000000000000e+02 5.529981613159179688e+01 -1.177418804168701172e+01 1.089918851852416992e+00 9.656703948974609375e+00 3.223986864089965820e+00 -2.215426683425903320e+00
7.700000000000000000e+02 5.614013671875000000e+01 -1.591093635559082031e+01 2.467548288404941559e-02 1.447624492645263672e+01 4.350275993347167969e+00 -4.709497094154357910e-01
7.710000000000000000e+02 4.818641662597656250e+01 -1.337145996093750000e+01 -1.052573546767234802e-01 3.463568091392517090e-01 7.232983410358428955e-02 3.385488234926015139e-04
7.720000000000000000e+02 4.649811935424804688e+01 -1.109400367736816406e+01 2.636435031890869141e-01 2.825147390365600586e+00 9.266372323036193848e-01 -8.468422889709472656e-01
7.730000000000000000e+02 4.401779556274414062e+01 -6.680172443389892578e+00 1.128373742103576660e+00 1.251768016815185547e+01 4.093816280364990234e+00 2.446572333574295044e-01
7.740000000000000000e+02 5.006165695190429688e+01 9.351740837097167969e+00 1.555888056755065918e+00 1.231011104583740234e+01 4.159799575805664062e+00 3.057411670684814453e+00
7.750000000000000000e+02 4.838928604125976562e+01 7.363967895507812500e+00 6.464989781379699707e-01 2.963717460632324219e+00 1.083064913749694824e+00 9.503221511840820312e-01
7.760000000000000000e+02 5.149251937866210938e+01 5.663849353790283203e+00 1.263728499412536621e+00 1.023974037170410156e+01 3.451040744781494141e+00 -1.300352334976196289e+00
7.770000000000000000e+02 4.493280792236328125e+01 3.296185493469238281e+00 -1.209949553012847900e-01 6.803742647171020508e-01 1.678137928247451782e-01 2.032603025436401367e-01
7.780000000000000000e+02 4.304270553588867188e+01 1.325715065002441406e+00 -4.167549610137939453e+00 -2.642315030097961426e-01 -1.329534411430358887e+00 -1.397601962089538574e+00
7.790000000000000000e+02 3.653873825073242188e+01 8.814886093139648438e+00 1.490224003791809082e+00 1.319618606567382812e+01 4.405923366546630859e+00 3.670516252517700195e+00
7.800000000000000000e+02 4.165156936645507812e+01 9.560809135437011719e+00 -7.024953961372375488e-01 -5.025426745414733887e-01 -3.615114092826843262e-01 -7.658847570419311523e-01
7.810000000000000000e+02 4.340422439575195312e+01 1.161419391632080078e+01 -3.484595417976379395e-01 -7.539557814598083496e-01 -3.307245969772338867e-01 -4.424528479576110840e-01
7.820000000000000000e+02 2.985183525085449219e+01 4.266820430755615234e+00 -3.850891828536987305e+00 -5.397679209709167480e-01 -1.317197918891906738e+00 -1.860642433166503906e+00
7.830000000000000000e+02 2.870206451416015625e+01 3.469485282897949219e+00 -6.878167152404785156e+00 -1.516108632087707520e+00 -2.518282651901245117e+00 -2.889039754867553711e+00
7.840000000000000000e+02 2.574234962463378906e+01 1.877064824104309082e+00 -6.001412391662597656e+00 -1.881258368492126465e+00 -2.364801168441772461e+00 -3.469557046890258789e+00
7.850000000000000000e+02 2.340264320373535156e+01 9.337901115417480469e+00 -2.611874341964721680e+00 8.514263153076171875e+00 1.770716667175292969e+00 2.775987863540649414e+00
7.860000000000000000e+02 2.281947135925292969e+01 1.014668750762939453e+01 -1.665730029344558716e-01 8.078355789184570312e+00 2.373534917831420898e+00 4.410735607147216797e+00
7.870000000000000000e+02 2.577244567871093750e+01 8.306683540344238281e+00 9.133136868476867676e-01 4.377025127410888672e+00 1.587101578712463379e+00 1.888623595237731934e+00
7.880000000000000000e+02 2.781276893615722656e+01 1.014881801605224609e+01 -2.208348512649536133e+00 -1.149324104189872742e-01 -6.969842910766601562e-01 -2.103318452835083008e+00
7.890000000000000000e+02 2.985958290100097656e+01 1.219360160827636719e+01 -2.367746353149414062e+00 -1.632342696189880371e+00 -1.200026750564575195e+00 -2.141069412231445312e+00
7.900000000000000000e+02 7.001961517333984375e+01 -6.326175212860107422e+00 1.814911365509033203e-01 2.333136081695556641e+00 7.543881535530090332e-01 -1.048966884613037109e+00
7.910000000000000000e+02 7.175378417968750000e+01 -8.349754333496093750e+00 1.192975878715515137e+00 8.714886665344238281e+00 2.972358942031860352e+00 -2.167824268341064453e+00
7.920000000000000000e+02 6.518697357177734375e+01 -1.210112094879150391e+01 -3.064215183258056641e-01 1.986639857292175293e+00 5.040655136108398438e-01 -5.459501147270202637e-01
7.930000000000000000e+02 6.347687911987304688e+01 -8.348258018493652344e+00 5.347530245780944824e-01 1.071897888183593750e+01 3.376119613647460938e+00 -1.147776246070861816e+00
7.940000000000000000e+02 6.297706985473632812e+01 -5.803929805755615234e+00 7.785477638244628906e-01 1.450546932220458984e+01 4.585205078125000000e+00 6.995521783828735352e-01
7.950000000000000000e+02 6.966666412353515625e+01 7.873220920562744141e+00 -1.247814536094665527e+00 7.171444892883300781e+00 1.777089118957519531e+00 1.194373331964015961e-02
7.960000000000000000e+02 1.009654903411865234e+01 1.779583215713500977e+00 -7.314037084579467773e-01 4.358711719512939453e+00 1.088192343711853027e+00 -5.291454315185546875e+00
7.970000000000000000e+02 8.150890350341796875e+00 1.851021647453308105e+00 -2.348572254180908203e+00 1.751970887184143066e+00 -1.789804548025131226e-01 1.267859697341918945e+00
7.980000000000000000e+02 7.523501396179199219e+00 2.641365528106689453e+00 5.368846058845520020e-01 1.831282973289489746e+00 7.104502916336059570e-01 1.396229386329650879e+00
7.990000000000000000e+02 5.064950942993164062e+00 1.981192231178283691e+00 -1.356763482093811035e+00 -9.675712883472442627e-02 -4.360561966896057129e-01 2.264105558395385742e+00
8.000000000000000000e+02 2.099202156066894531e+00 4.661650180816650391e+00 6.563710570335388184e-01 -1.589501976966857910e+00 -2.799392938613891602e-01 8.963406085968017578e-01
8.010000000000000000e+02 4.280682563781738281e+00 2.013551235198974609e+00 -1.158844828605651855e+00 -4.396730363368988037e-01 -4.795553684234619141e-01 2.292869806289672852e+00
8.020000000000000000e+02 3.498755693435668945e+00 2.048680305480957031e+00 -9.074393510818481445e-01 -3.803313672542572021e-01 -3.863312304019927979e-01 1.966255307197570801e+00
8.030000000000000000e+02 1.938391208648681641e+00 2.127569675445556641e+00 -3.906644582748413086e-01 -7.516425848007202148e-01 -3.426921069622039795e-01 1.306308865547180176e+00
8.040000000000000000e+02 1.154453182220458984e+01 1.806727290153503418e+00 3.315767288208007812e+00 5.339370250701904297e+00 2.596541166305541992e+00 -9.481371879577636719e+00
8.050000000000000000e+02 1.233967971801757812e+01 1.590231418609619141e+00 2.848487138748168945e+00 9.989287376403808594e+00 3.851332426071166992e+00 -9.294750213623046875e+00
8.060000000000000000e+02 1.226256847381591797e+01 2.140341043472290039e+00 3.302157878875732422e+00 8.832594871520996094e+00 3.640425920486450195e+00 -1.026976108551025391e+01
8.070000000000000000e+02 1.358719635009765625e+01 1.358867049217224121e+00 1.659559249877929688e+00 2.035532569885253906e+01 6.604465484619140625e+00 7.923004031181335449e-01
8.080000000000000000e+02 1.393898963928222656e+01 1.230124235153198242e+00 2.891806364059448242e+00 1.894642066955566406e+01 6.551467895507812500e+00 3.362472772598266602e+00
8.090000000000000000e+02 1.375980949401855469e+01 1.285802721977233887e+00 2.110289335250854492e+00 2.032332992553710938e+01 6.730085849761962891e+00 2.741207122802734375e+00
8.100000000000000000e+02 1.410281467437744141e+01 1.118197798728942871e+00 3.644118785858154297e+00 1.799752616882324219e+01 6.492493629455566406e+00 5.440536022186279297e+00
8.110000000000000000e+02 1.437445354461669922e+01 8.060248494148254395e-01 3.576065301895141602e+00 1.717176246643066406e+01 6.224348545074462891e+00 5.432006359100341797e+00
8.120000000000000000e+02 1.450764465332031250e+01 6.372544169425964355e-01 4.454099833965301514e-01 1.628558540344238281e+01 5.019298553466796875e+00 3.710901498794555664e+00
8.130000000000000000e+02 9.529137611389160156e+00 -1.888338923454284668e+00 7.354981303215026855e-01 4.942960739135742188e-01 3.689382672309875488e-01 4.962495565414428711e-01
8.140000000000000000e+02 7.081685066223144531e+00 -1.860229134559631348e+00 -1.923343241214752197e-01 6.426355335861444473e-03 -5.577239021658897400e-02 -2.312609702348709106e-01
8.150000000000000000e+02 7.899008274078369141e+00 -1.850534796714782715e+00 -3.346463292837142944e-02 1.173089444637298584e-01 2.515329234302043915e-02 -1.179670691490173340e-01
8.160000000000000000e+02 6.262543678283691406e+00 -1.878735661506652832e+00 -2.580327093601226807e-01 9.004238992929458618e-03 -7.470854371786117554e-02 -2.965640425682067871e-01
8.170000000000000000e+02 4.616482257843017578e+00 -1.938270926475524902e+00 -1.941878050565719604e-01 -2.908178232610225677e-02 -6.698087602853775024e-02 -3.277516663074493408e-01
8.180000000000000000e+02 2.962643146514892578e+00 -2.022738218307495117e+00 -1.403766423463821411e-01 -6.283184885978698730e-02 -6.096255034208297729e-02 -3.032677769660949707e-01
8.190000000000000000e+02 3.113132953643798828e+00 -3.040798187255859375e+00 2.449984103441238403e-02 -8.046656101942062378e-02 -1.679001748561859131e-02 -3.137730956077575684e-01
8.200000000000000000e+02 2.124380350112915039e+00 -2.079376697540283203e+00 -8.572755008935928345e-02 -1.161465793848037720e-01 -6.056223809719085693e-02 -2.559944689273834229e-01
8.210000000000000000e+02 1.279676318168640137e+00 -2.143035650253295898e+00 -3.192519769072532654e-02 -1.632426679134368896e-01 -5.855035781860351562e-02 -1.706642955541610718e-01
8.220000000000000000e+02 4.281977415084838867e-01 -2.190475463867187500e+00 -9.947052225470542908e-03 -1.825342923402786255e-01 -5.774440243840217590e-02 -6.005452200770378113e-02
8.230000000000000000e+02 2.020304203033447266e+00 -4.161218261718750000e+01 -3.846887871623039246e-02 1.940178394317626953e+00 5.705128312110900879e-01 1.105576939880847931e-02
8.240000000000000000e+02 6.059654712677001953e+00 -3.729267501831054688e+01 -4.906238242983818054e-02 2.204636573791503906e+00 6.466722488403320312e-01 6.969968229532241821e-02
8.250000000000000000e+02 9.637708663940429688e-01 -3.866085433959960938e+01 -3.383638104423880577e-03 1.884352803230285645e+00 5.642907619476318359e-01 2.135202474892139435e-02
8.260000000000000000e+02 6.543309688568115234e-01 -3.479451751708984375e+01 6.175959482789039612e-03 1.770122885704040527e+00 5.328896641731262207e-01 1.285611279308795929e-02
8.270000000000000000e+02 7.992236018180847168e-01 -3.341505050659179688e+01 -1.674634963274002075e-02 1.733493804931640625e+00 5.150242447853088379e-01 2.657464891672134399e-02
8.280000000000000000e+02 7.117475271224975586e-01 -2.911428833007812500e+01 7.432793732732534409e-03 1.543463587760925293e+00 4.652689099311828613e-01 3.607477620244026184e-02
8.290000000000000000e+02 7.076237201690673828e-01 -2.769340896606445312e+01 -1.455904264003038406e-02 1.461701631546020508e+00 4.341427981853485107e-01 4.488234594464302063e-02
8.300000000000000000e+02 7.019286155700683594e-01 -2.626926040649414062e+01 8.245967328548431396e-03 1.365787625312805176e+00 4.122100770473480225e-01 4.971804097294807434e-02
8.310000000000000000e+02 6.646329164505004883e-01 -2.201385307312011719e+01 -1.094526331871747971e-02 1.001519918441772461e+00 2.971723973751068115e-01 6.714820116758346558e-02
8.320000000000000000e+02 6.509090662002563477e-01 -2.059974670410156250e+01 5.121700000017881393e-03 8.501344919204711914e-01 2.565768659114837646e-01 7.277105003595352173e-02
8.330000000000000000e+02 1.956008911132812500e+00 -2.060788726806640625e+01 -2.425308898091316223e-02 1.074901938438415527e+00 3.151946365833282471e-01 2.051862031221389771e-01
8.340000000000000000e+02 6.112667322158813477e-01 -1.637003707885742188e+01 -9.627083316445350647e-03 2.992877364158630371e-01 8.689819276332855225e-02 8.878310769796371460e-02
8.350000000000000000e+02 5.995582938194274902e-01 -1.496313953399658203e+01 7.518769707530736923e-03 8.998899161815643311e-02 2.925232797861099243e-02 9.014049172401428223e-02
8.360000000000000000e+02 5.883754491806030273e-01 -1.355861854553222656e+01 -6.264876574277877808e-03 -1.236832439899444580e-01 -3.898443654179573059e-02 8.940930664539337158e-02
8.370000000000000000e+02 1.767258763313293457e+00 -1.363631439208984375e+01 9.923103265464305878e-03 2.656489014625549316e-01 8.267160505056381226e-02 2.488532066345214844e-01
8.380000000000000000e+02 5.797671079635620117e-01 -9.362935066223144531e+00 1.298721041530370712e-02 -6.657687425613403320e-01 -1.958344578742980957e-01 5.092609301209449768e-02
8.390000000000000000e+02 6.087157130241394043e-01 -7.956479549407958984e+00 1.730604842305183411e-02 -7.350603342056274414e-01 -2.153262943029403687e-01 1.369324605911970139e-02
8.400000000000000000e+02 4.122072219848632812e+00 -3.876109600067138672e+00 2.179605960845947266e-01 1.247999724000692368e-02 6.913217902183532715e-02 -2.380296438932418823e-01
8.410000000000000000e+02 7.171239471435546875e+01 -4.081363296508789062e+01 7.336735725402832031e-02 6.124791145324707031e+00 1.859447479248046875e+00 2.292019873857498169e-02
8.420000000000000000e+02 3.244133758544921875e+01 -4.093942642211914062e+01 -6.644605845212936401e-02 3.738960266113281250e+00 1.101754307746887207e+00 -4.843918606638908386e-03
8.430000000000000000e+02 1.299985218048095703e+01 -4.049169921875000000e+01 -1.698852479457855225e-01 2.765845060348510742e+00 7.787879705429077148e-01 4.216310754418373108e-02
8.440000000000000000e+02 7.841938781738281250e+01 4.018421554565429688e+01 -1.723080500960350037e-02 6.524742126464843750e+00 1.952253341674804688e+00 -2.579987794160842896e-02
8.450000000000000000e+02 7.799349212646484375e+01 4.172597885131835938e+01 3.766768053174018860e-02 6.508868694305419922e+00 1.963960886001586914e+00 -1.048170030117034912e-02
8.460000000000000000e+02 7.864064788818359375e+01 3.874007797241210938e+01 6.562105263583362103e-04 6.544431209564208984e+00 1.963526129722595215e+00 -1.532803382724523544e-02
8.470000000000000000e+02 7.670169067382812500e+01 3.785164642333984375e+01 -3.028376959264278412e-02 6.428230762481689453e+00 1.919384121894836426e+00 2.984500024467706680e-03
8.480000000000000000e+02 7.927177429199218750e+01 3.470441055297851562e+01 -7.294072420336306095e-04 6.580852985382080078e+00 1.974037051200866699e+00 -2.832034835591912270e-03
8.490000000000000000e+02 7.780225372314453125e+01 3.440589904785156250e+01 -6.004481110721826553e-03 6.506775379180908203e+00 1.950231313705444336e+00 8.076894097030162811e-03
8.500000000000000000e+02 7.931855010986328125e+01 3.335162734985351562e+01 -4.665258806198835373e-03 6.584901332855224609e+00 1.974070906639099121e+00 2.322987653315067291e-03
8.510000000000000000e+02 7.935602569580078125e+01 3.060880279541015625e+01 -5.004034843295812607e-03 6.578105449676513672e+00 1.971930384635925293e+00 2.922158222645521164e-03
8.520000000000000000e+02 7.801477813720703125e+01 2.916863250732421875e+01 -1.122792065143585205e-02 6.514071464538574219e+00 1.950852990150451660e+00 1.122551504522562027e-02
8.530000000000000000e+02 7.931613922119140625e+01 2.646676254272460938e+01 1.300646457821130753e-02 6.548480510711669922e+00 1.968446135520935059e+00 5.730810109525918961e-03
8.540000000000000000e+02 7.641141510009765625e+01 2.642043495178222656e+01 6.094311829656362534e-03 6.465724945068359375e+00 1.941545844078063965e+00 2.790293423458933830e-03
8.550000000000000000e+02 7.931702423095703125e+01 2.507723999023437500e+01 -1.972829364240169525e-02 6.535243034362792969e+00 1.954654455184936523e+00 1.250913739204406738e-02
8.560000000000000000e+02 7.937018585205078125e+01 2.089885330200195312e+01 2.961622923612594604e-02 6.508859634399414062e+00 1.961542725563049316e+00 -6.308709736913442612e-03
8.570000000000000000e+02 7.939017486572265625e+01 1.951391792297363281e+01 -1.039383746683597565e-02 6.553735733032226562e+00 1.963002562522888184e+00 -2.815597876906394958e-02
8.580000000000000000e+02 7.812062835693359375e+01 2.087108802795410156e+01 1.748635806143283844e-02 6.539248466491699219e+00 1.967020511627197266e+00 -2.981544658541679382e-02
8.590000000000000000e+02 7.939883422851562500e+01 1.812785530090332031e+01 3.964154422283172607e-02 6.660233974456787109e+00 2.009962558746337891e+00 -6.294590234756469727e-02
8.600000000000000000e+02 7.934599304199218750e+01 1.391322040557861328e+01 -6.742879748344421387e-02 7.541086673736572266e+00 2.242097377777099609e+00 -1.378379613161087036e-01
8.610000000000000000e+02 7.805539703369140625e+01 1.239791870117187500e+01 -2.951046824455261230e-01 7.859357357025146484e+00 2.269275665283203125e+00 -3.040028512477874756e-01
8.620000000000000000e+02 7.451516723632812500e+01 9.949181556701660156e+00 -2.416422367095947266e-01 5.246143817901611328e+00 1.501350522041320801e+00 -3.234839916229248047e+00
8.630000000000000000e+02 7.940296173095703125e+01 1.109638881683349609e+01 -1.374510675668716431e-01 7.718874454498291016e+00 2.274426937103271484e+00 9.894920140504837036e-02
8.640000000000000000e+02 7.822785949707031250e+01 7.388989448547363281e+00 1.372389078140258789e+00 9.964678764343261719e+00 3.401120424270629883e+00 -5.380262136459350586e-01
8.650000000000000000e+02 7.936741638183593750e+01 5.603489875793457031e+00 1.999626755714416504e-01 7.850223541259765625e+00 2.415055990219116211e+00 -1.013460636138916016e+00
8.660000000000000000e+02 7.711808013916015625e+01 4.365005970001220703e+00 7.858788371086120605e-01 1.274870014190673828e+01 4.060373783111572266e+00 -2.157600164413452148e+00
8.670000000000000000e+02 7.940876007080078125e+01 4.180736064910888672e+00 -1.620015949010848999e-01 1.023533153533935547e+01 3.021998882293701172e+00 -1.045511484146118164e+00
8.680000000000000000e+02 7.389503479003906250e+01 -4.509800076484680176e-01 -7.664631605148315430e-01 2.182327270507812500e+00 4.247592389583587646e-01 -1.556948423385620117e-01
8.690000000000000000e+02 7.943849182128906250e+01 -1.405282139778137207e+00 -1.193127334117889404e-01 1.447843170166015625e+01 4.307735443115234375e+00 2.812848985195159912e-01
8.700000000000000000e+02 7.833292388916015625e+01 -1.419658422470092773e+00 -3.760814070701599121e-01 1.213911628723144531e+01 3.528910636901855469e+00 9.050593376159667969e-01
8.710000000000000000e+02 7.933179473876953125e+01 -4.198013305664062500e+00 -1.178161241114139557e-02 1.227953910827636719e+01 3.680327415466308594e+00 6.013646125793457031e-01
8.720000000000000000e+02 7.935505676269531250e+01 -8.376845359802246094e+00 4.661184176802635193e-02 8.645957946777343750e+00 2.607770919799804688e+00 5.201764106750488281e-01
8.730000000000000000e+02 7.808805084228515625e+01 -8.420519828796386719e+00 1.561843007802963257e-01 8.857605934143066406e+00 2.704137086868286133e+00 1.319215416908264160e+00
8.740000000000000000e+02 7.943909454345703125e+01 -1.534562778472900391e+01 -3.388035297393798828e-02 6.400361537933349609e+00 1.909944415092468262e+00 -1.155864074826240540e-01
8.750000000000000000e+02 7.826704406738281250e+01 -1.671644401550292969e+01 -3.415723145008087158e-02 7.290475845336914062e+00 2.176895618438720703e+00 -3.743421137332916260e-01
8.760000000000000000e+02 7.940811157226562500e+01 -1.811294174194335938e+01 -4.631428048014640808e-02 7.066877841949462891e+00 2.106168985366821289e+00 -1.587853282690048218e-01
8.770000000000000000e+02 7.935906982421875000e+01 -2.369333839416503906e+01 -1.367157883942127228e-02 7.510248184204101562e+00 2.248973131179809570e+00 3.996666520833969116e-02
8.780000000000000000e+02 7.935138702392578125e+01 -2.508577537536621094e+01 4.190838953945785761e-04 7.401685714721679688e+00 2.220631361007690430e+00 5.432142689824104309e-02
8.790000000000000000e+02 7.932057189941406250e+01 -2.925916862487792969e+01 -9.081105701625347137e-03 7.032249450683593750e+00 2.106950521469116211e+00 4.839615151286125183e-02
8.800000000000000000e+02 7.930850219726562500e+01 -3.204374694824218750e+01 -1.150216255336999893e-02 6.862725257873535156e+00 2.055366992950439453e+00 3.393890708684921265e-02
8.810000000000000000e+02 7.937194061279296875e+01 -3.612539291381835938e+01 3.244767710566520691e-02 6.711670398712158203e+00 2.023235321044921875e+00 1.299050357192754745e-02
8.820000000000000000e+02 7.927760314941406250e+01 -3.743733978271484375e+01 -2.939127571880817413e-02 6.669330596923828125e+00 1.991981863975524902e+00 2.246654778718948364e-02
8.830000000000000000e+02 7.904115295410156250e+01 -3.873266220092773438e+01 1.603031344711780548e-02 6.631353855133056641e+00 1.994215250015258789e+00 2.119972184300422668e-02
8.840000000000000000e+02 7.865898895263671875e+01 -4.007987594604492188e+01 -1.393891312181949615e-02 6.597363471984863281e+00 1.975027322769165039e+00 2.846125140786170959e-02
8.850000000000000000e+02 9.348370552062988281e+00 3.571236038208007812e+01 1.832100600004196167e-01 2.762959480285644531e+00 8.838508725166320801e-01 2.287803292274475098e-01
8.860000000000000000e+02 2.742953681945800781e+01 4.094342422485351562e+01 1.857288181781768799e-01 2.775707960128784180e+00 8.884310126304626465e-01 -7.430154085159301758e-02
8.870000000000000000e+02 4.762931823730468750e+01 4.075770568847656250e+01 -7.862506061792373657e-02 4.604829311370849609e+00 1.357861280441284180e+00 6.224772892892360687e-03
8.880000000000000000e+02 6.715774536132812500e+01 4.072798919677734375e+01 1.605831645429134369e-02 5.847183704376220703e+00 1.758972644805908203e+00 1.176317106001079082e-03
8.890000000000000000e+02 3.854497075080871582e-01 2.193646430969238281e+00 -4.298232868313789368e-02 -1.038740873336791992e+00 -3.245169520378112793e-01 3.089038431644439697e-01
8.900000000000000000e+02 2.784806013107299805e+00 3.264518976211547852e+00 2.971160411834716797e-01 -9.433314204216003418e-01 -1.938646137714385986e-01 1.666998863220214844e+00
8.910000000000000000e+02 6.363816738128662109e+00 4.561310291290283203e+00 5.392326354980468750e+00 1.549972295761108398e+00 2.082689523696899414e+00 2.052946239709854126e-01
8.920000000000000000e+02 5.201771855354309082e-01 9.167607307434082031e+00 -1.592376455664634705e-02 -2.464499950408935547e+00 -7.441270947456359863e-01 -3.774294555187225342e-01
8.930000000000000000e+02 5.898061394691467285e-01 1.196360874176025391e+01 -1.202141493558883667e-01 1.374921202659606934e-01 5.183389410376548767e-03 -5.060270428657531738e-01
8.940000000000000000e+02 1.798474311828613281e+00 1.164375495910644531e+01 -2.394177764654159546e-02 7.602328062057495117e-01 2.208873182535171509e-01 -1.494199633598327637e+00
8.950000000000000000e+02 6.381320953369140625e-01 1.621450805664062500e+01 6.045105680823326111e-02 3.085593700408935547e+00 9.438134431838989258e-01 -3.366237878799438477e-01
8.960000000000000000e+02 6.468661427497863770e-01 2.189051437377929688e+01 3.978081420063972473e-02 4.403495311737060547e+00 1.332982897758483887e+00 -4.287607967853546143e-02
8.970000000000000000e+02 6.433941721916198730e-01 2.329993629455566406e+01 -6.492458283901214600e-02 4.438100337982177734e+00 1.311952710151672363e+00 1.449980074539780617e-03
8.980000000000000000e+02 1.934289455413818359e+00 2.310488128662109375e+01 -1.828079856932163239e-02 4.057073593139648438e+00 1.211637854576110840e+00 -5.449320655316114426e-03
8.990000000000000000e+02 6.413310766220092773e-01 2.470458030700683594e+01 3.385890275239944458e-02 4.401143074035644531e+00 1.330500602722167969e+00 1.848156005144119263e-02
9.000000000000000000e+02 6.694142818450927734e-01 2.891984939575195312e+01 -3.615844622254371643e-02 4.096358299255371094e+00 1.218060016632080078e+00 6.405594944953918457e-02
9.010000000000000000e+02 7.001034617424011230e-01 3.033044242858886719e+01 3.325070440769195557e-02 3.970451354980468750e+00 1.201110601425170898e+00 5.334741622209548950e-02
9.020000000000000000e+02 3.426144838333129883e+00 2.965751266479492188e+01 2.307318150997161865e-02 3.552989482879638672e+00 1.072818875312805176e+00 2.255330383777618408e-01
9.030000000000000000e+02 7.385960817337036133e-01 3.174069976806640625e+01 -3.263838589191436768e-02 3.853360414505004883e+00 1.146216630935668945e+00 6.498205661773681641e-02
9.040000000000000000e+02 8.402082920074462891e-01 3.594025421142578125e+01 6.134518422186374664e-03 3.555700302124023438e+00 1.068550467491149902e+00 5.484608933329582214e-02
9.050000000000000000e+02 8.952059745788574219e-01 3.732224273681640625e+01 -2.012879587709903717e-03 3.470532655715942383e+00 1.040555953979492188e+00 5.142699182033538818e-02
9.060000000000000000e+02 1.065866589546203613e+00 3.868197631835937500e+01 8.709646761417388916e-03 3.396351814270019531e+00 1.021518349647521973e+00 4.557275027036666870e-02
9.070000000000000000e+02 1.419429421424865723e+00 4.006053924560546875e+01 -1.842945441603660583e-02 3.334338188171386719e+00 9.947726130485534668e-01 5.673851445317268372e-02
9.080000000000000000e+02 1.281946754455566406e+01 -1.786056399345397949e+00 3.384757041931152344e-02 1.507400131225585938e+01 4.532354831695556641e+00 3.602163314819335938e+00
9.090000000000000000e+02 1.417410659790039062e+01 -1.784094810485839844e+00 1.591884493827819824e+00 1.555582237243652344e+01 5.144311904907226562e+00 -5.393965244293212891e+00
9.100000000000000000e+02 1.342601108551025391e+01 1.439947962760925293e+00 2.606257915496826172e+00 1.839167213439941406e+01 6.299378871917724609e+00 -1.220268849283456802e-02
9.110000000000000000e+02 1.419563198089599609e+01 -1.324728608131408691e+00 1.641291499137878418e+00 1.710750007629394531e+01 5.624637603759765625e+00 -6.469977378845214844e+00
9.120000000000000000e+02 1.449302196502685547e+01 -9.705896377563476562e-01 1.553826570510864258e+00 1.429833793640136719e+01 4.755649089813232422e+00 -7.596323490142822266e+00
9.130000000000000000e+02 1.494467544555664062e+01 1.294761896133422852e+00 -8.160260319709777832e-01 1.342651081085205078e+01 3.783145427703857422e+00 3.444561243057250977e+00
9.140000000000000000e+02 1.458507633209228516e+01 4.013787209987640381e-01 1.411140561103820801e+00 1.278951740264892578e+01 4.260197162628173828e+00 7.735608220100402832e-01
9.150000000000000000e+02 1.461435890197753906e+01 -7.028021216392517090e-01 3.611198186874389648e+00 1.203149414062500000e+01 4.692807674407958984e+00 -5.137519836425781250e+00
9.160000000000000000e+02 1.488050746917724609e+01 4.278579354286193848e-01 5.939461588859558105e-01 5.879525661468505859e+00 1.942041516304016113e+00 -5.068385004997253418e-01
9.170000000000000000e+02 1.457733249664306641e+01 -6.502629071474075317e-02 7.828411579132080078e+00 1.224195194244384766e+01 6.021109104156494141e+00 -3.122651100158691406e+00
9.180000000000000000e+02 1.411980342864990234e+01 1.809065937995910645e+00 5.824623584747314453e+00 1.393263626098632812e+01 5.927177906036376953e+00 5.484456539154052734e+00
9.190000000000000000e+02 1.460581207275390625e+01 -1.458683371543884277e+00 2.278976202011108398e+00 1.315685558319091797e+01 4.630749702453613281e+00 -6.375417709350585938e+00
9.200000000000000000e+02 1.505590724945068359e+01 -8.680369257926940918e-01 -1.409823745489120483e-01 8.310009956359863281e+00 2.450708389282226562e+00 -4.997343063354492188e+00
9.210000000000000000e+02 7.915961742401123047e+00 -2.558161973953247070e+00 4.948509335517883301e-01 2.563892304897308350e-01 2.253720462322235107e-01 8.932039141654968262e-02
9.220000000000000000e+02 1.241956520080566406e+01 -1.750852465629577637e+00 1.534802794456481934e+00 1.113095664978027344e+01 3.799727678298950195e+00 5.037988185882568359e+00
9.230000000000000000e+02 1.205886173248291016e+01 -1.723717927932739258e+00 2.563271522521972656e+00 7.166861534118652344e+00 2.919039964675903320e+00 4.816783428192138672e+00
9.240000000000000000e+02 1.186004638671875000e+01 -1.797955274581909180e+00 2.448850631713867188e+00 5.967542648315429688e+00 2.524917840957641602e+00 4.264585971832275391e+00
9.250000000000000000e+02 1.099837303161621094e+01 -1.662440419197082520e+00 1.995302796363830566e+00 1.676769018173217773e+00 1.101621627807617188e+00 1.918515324592590332e+00
9.260000000000000000e+02 1.042941856384277344e+01 -1.578840255737304688e+00 1.189120411872863770e+00 9.736769795417785645e-01 6.488392353057861328e-01 1.002941370010375977e+00
9.270000000000000000e+02 1.261704540252685547e+01 -1.770057797431945801e+00 6.785172820091247559e-01 1.290486526489257812e+01 4.075015068054199219e+00 4.317892551422119141e+00
9.280000000000000000e+02 1.028151321411132812e+01 -1.559916615486145020e+00 8.901223540306091309e-01 6.087635755538940430e-01 4.496657848358154297e-01 7.414824962615966797e-01
9.290000000000000000e+02 1.303015613555908203e+01 -1.812171101570129395e+00 -4.957972764968872070e-01 1.624462318420410156e+01 4.724647998809814453e+00 2.331179380416870117e+00
9.300000000000000000e+02 1.076183795928955078e+01 2.506973028182983398e+00 2.945539951324462891e+00 6.048082351684570312e+00 2.698086738586425781e+00 -8.877090454101562500e+00
9.310000000000000000e+02 1.256880283355712891e+01 1.634561538696289062e+00 2.869846105575561523e+00 1.157212066650390625e+01 4.332590103149414062e+00 -9.135051727294921875e+00
9.320000000000000000e+02 1.137720584869384766e+01 1.591217875480651855e+00 1.824197411537170410e+00 4.693012237548828125e+00 1.955162882804870605e+00 -8.599421501159667969e+00
9.330000000000000000e+02 1.113731765747070312e+01 2.404337167739868164e+00 2.980699062347412109e+00 6.273397445678710938e+00 2.776228904724121094e+00 -8.819213867187500000e+00
9.340000000000000000e+02 1.213398170471191406e+01 1.568953394889831543e+00 3.020408868789672852e+00 8.397743225097656250e+00 3.425445556640625000e+00 -9.958542823791503906e+00
9.350000000000000000e+02 1.093295097351074219e+01 2.021095752716064453e+00 1.253973126411437988e+00 4.992601394653320312e+00 1.873972296714782715e+00 -8.389346122741699219e+00
9.360000000000000000e+02 1.117944622039794922e+01 1.607089757919311523e+00 1.228706598281860352e+00 4.134502887725830078e+00 1.608962893486022949e+00 -7.715642452239990234e+00
9.370000000000000000e+02 1.180065250396728516e+01 1.789144396781921387e+00 3.375666856765747070e+00 6.200439453125000000e+00 2.872831821441650391e+00 -9.337366104125976562e+00
9.380000000000000000e+02 1.291684913635253906e+01 2.185320138931274414e+00 3.947586774826049805e+00 1.031324958801269531e+01 4.278251171112060547e+00 -7.576128005981445312e+00
9.390000000000000000e+02 1.304794025421142578e+01 1.578304409980773926e+00 1.816622138023376465e+00 1.656139755249023438e+01 5.513406276702880859e+00 -4.543135166168212891e+00
9.400000000000000000e+02 9.615090370178222656e+00 1.807872414588928223e+00 -2.335508584976196289e+00 3.722835063934326172e+00 4.161979258060455322e-01 -2.293165922164916992e+00
9.410000000000000000e+02 1.035300254821777344e+01 1.742843270301818848e+00 -5.505146384239196777e-01 3.712756872177124023e+00 9.486726522445678711e-01 -5.381783485412597656e+00
9.420000000000000000e+02 5.533929824829101562e+00 4.655719757080078125e+00 3.914971113204956055e+00 -1.421898901462554932e-01 1.131834387779235840e+00 5.453162193298339844e-01
9.430000000000000000e+02 6.772010803222656250e+00 2.743090391159057617e+00 1.063989758491516113e+00 3.313239216804504395e-01 4.185940921306610107e-01 1.985471606254577637e+00
9.440000000000000000e+02 7.387372970581054688e+00 1.878584027290344238e+00 -1.826433181762695312e+00 4.150088727474212646e-01 -4.234272837638854980e-01 1.883122444152832031e+00
9.450000000000000000e+02 6.621156692504882812e+00 1.914325237274169922e+00 -2.198352336883544922e+00 4.803581535816192627e-01 -5.153982639312744141e-01 2.087149143218994141e+00
9.460000000000000000e+02 6.174942970275878906e+00 3.707268476486206055e+00 3.133768558502197266e+00 3.552480340003967285e-01 1.046705007553100586e+00 1.645154833793640137e+00
9.470000000000000000e+02 9.039898872375488281e+00 3.263491868972778320e+00 5.047315120697021484e+00 4.956423282623291016e+00 3.001121520996093750e+00 -8.898209929466247559e-01
9.480000000000000000e+02 1.499800205230712891e+00 7.567271232604980469e+00 2.772094011306762695e-01 -1.974192380905151367e+00 -5.090948939323425293e-01 -5.303826332092285156e-01
9.490000000000000000e+02 3.732032537460327148e+00 4.209446430206298828e+00 1.487383484840393066e+00 -6.619897484779357910e-01 2.476181387901306152e-01 1.281781077384948730e+00
9.500000000000000000e+02 1.186951041221618652e+00 3.496008634567260742e+00 1.059312596917152405e-01 -1.765812754631042480e+00 -4.979644417762756348e-01 9.627820849418640137e-01
9.510000000000000000e+02 2.718429088592529297e+00 2.087626218795776367e+00 -6.701793074607849121e-01 -6.515324711799621582e-01 -3.965135216712951660e-01 1.749401926994323730e+00
9.520000000000000000e+02 6.342264175415039062e+00 -2.638602495193481445e+00 1.705669015645980835e-01 5.910021439194679260e-02 6.890013068914413452e-02 -2.011625915765762329e-01
9.530000000000000000e+02 5.545444488525390625e+00 -2.709397315979003906e+00 1.015452817082405090e-01 3.453309088945388794e-02 4.082351177930831909e-02 -2.709458768367767334e-01
9.540000000000000000e+02 7.132655620574951172e+00 -2.587172985076904297e+00 3.019655346870422363e-01 1.422913074493408203e-01 1.332770586013793945e-01 -8.529854565858840942e-02
9.550000000000000000e+02 5.441037654876708984e+00 -1.904769062995910645e+00 -2.556905448436737061e-01 1.804946572519838810e-03 -7.616568356752395630e-02 -3.011028170585632324e-01
9.560000000000000000e+02 3.929413557052612305e+00 -2.923522710800170898e+00 3.353749960660934448e-02 -3.868050873279571533e-02 -1.542902551591396332e-03 -3.178317248821258545e-01
9.570000000000000000e+02 1.740073680877685547e+00 -9.559860229492187500e+00 4.213752597570419312e-02 -1.931380629539489746e-01 -4.530016332864761353e-02 1.550913900136947632e-01
9.580000000000000000e+02 6.861985921859741211e-01 -6.502576351165771484e+00 2.567348256707191467e-02 -7.000491619110107422e-01 -2.023126929998397827e-01 -3.569757938385009766e-02
9.590000000000000000e+02 3.317696332931518555e+00 -4.014410018920898438e+00 1.637923419475555420e-01 -6.681646406650543213e-02 2.909276261925697327e-02 -2.461795359849929810e-01
9.600000000000000000e+02 4.825915396213531494e-01 -3.575120210647583008e+00 -5.070339539088308811e-04 -4.045756459236145020e-01 -1.215248033404350281e-01 -7.659690082073211670e-02
9.610000000000000000e+02 3.063620948791503906e+01 -8.308432579040527344e+00 6.875467300415039062e-01 3.209369182586669922e+00 1.169074773788452148e+00 -5.706001520156860352e-01
9.620000000000000000e+02 2.589868354797363281e+01 -9.011158943176269531e+00 4.030140876770019531e+00 1.281338214874267578e+01 5.053057193756103516e+00 1.772853970527648926e+00
9.630000000000000000e+02 4.025336837768554688e+01 -1.705552101135253906e+01 1.061238169670104980e+00 7.941863536834716797e+00 2.700930595397949219e+00 3.231079578399658203e+00
9.640000000000000000e+02 4.079923248291015625e+01 -1.265569686889648438e+01 9.582831263542175293e-01 1.456081962585449219e+01 4.655730724334716797e+00 -1.590848445892333984e+00
9.650000000000000000e+02 2.393582153320312500e+01 1.971017074584960938e+01 -2.344902992248535156e+00 1.971359968185424805e+00 -1.120628789067268372e-01 -1.849647521972656250e+00
9.660000000000000000e+02 2.504076957702636719e+01 1.657880973815917969e+01 -2.695644617080688477e+00 1.029381275177001953e+01 2.279450416564941406e+00 -9.922124147415161133e-01
9.670000000000000000e+02 6.654261016845703125e+01 1.471929454803466797e+01 -6.121557354927062988e-01 1.137330150604248047e+01 3.228343725204467773e+00 -5.798723697662353516e-01
9.680000000000000000e+02 7.102263641357421875e+01 -1.797233772277832031e+01 -7.054449319839477539e-01 5.806018352508544922e+00 1.530171990394592285e+00 3.002143144607543945e+00
9.690000000000000000e+02 6.897505950927734375e+01 -1.591740894317626953e+01 -3.139519453048706055e+00 -1.118712067604064941e+00 -1.277469515800476074e+00 1.422555565834045410e+00
9.700000000000000000e+02 1.038283729553222656e+01 4.871464729309082031e+00 1.689776611328125000e+01 2.340465545654296875e+01 1.209072685241699219e+01 -1.191146469116210938e+01
9.710000000000000000e+02 9.343525886535644531e+00 5.860858440399169922e+00 1.024146556854248047e+01 1.846198272705078125e+01 8.611034393310546875e+00 -6.977113246917724609e+00
9.720000000000000000e+02 1.520324420928955078e+01 2.471247673034667969e+00 1.360981750488281250e+01 2.017431831359863281e+01 1.013524055480957031e+01 1.308853530883789062e+01
9.730000000000000000e+02 1.646087837219238281e+01 5.551586627960205078e+00 -2.876786947250366211e+00 2.946354389190673828e+00 2.087021991610527039e-02 3.344333171844482422e+00
9.740000000000000000e+02 5.164828872680664062e+01 -5.654155254364013672e+00 -1.814231991767883301e+00 5.490828156471252441e-01 -3.795447647571563721e-01 4.807560443878173828e-01
9.750000000000000000e+02 4.811210250854492188e+01 1.808504867553710938e+01 1.198230862617492676e+00 4.011156558990478516e+00 1.562816262245178223e+00 -1.862254738807678223e+00
9.760000000000000000e+02 4.918835067749023438e+01 1.564042186737060547e+01 2.149567842483520508e+00 5.221408843994140625e+00 2.211292982101440430e+00 -3.702667236328125000e+00
9.770000000000000000e+02 3.870655441284179688e+01 -1.584381610155105591e-01 -4.622280895709991455e-01 7.459298610687255859e+00 2.099121093750000000e+00 -5.936460018157958984e+00
9.780000000000000000e+02 3.791670989990234375e+01 7.155212163925170898e-01 5.738942623138427734e+00 1.982796669006347656e+01 7.670072555541992188e+00 -5.060480594635009766e+00
9.790000000000000000e+02 5.200649261474609375e+01 1.433064937591552734e+01 2.113990306854248047e+00 1.130645847320556641e+01 4.026134490966796875e+00 1.244646310806274414e+00
9.800000000000000000e+02 4.283680725097656250e+01 1.523185253143310547e+01 5.920303463935852051e-01 2.436818122863769531e+00 9.086545705795288086e-01 2.208015441894531250e+00
9.810000000000000000e+02 6.880961608886718750e+01 7.325742244720458984e+00 -9.114664196968078613e-01 1.135461044311523438e+01 3.132943153381347656e+00 -1.498498678207397461e+00
9.820000000000000000e+02 6.707737731933593750e+01 -3.454961061477661133e+00 -4.655903339385986328e+00 -1.259135603904724121e+00 -1.774511694908142090e+00 2.618928194046020508e+00
9.830000000000000000e+02 4.072269058227539062e+01 -2.613535225391387939e-01 -7.105456829071044922e+00 -1.648365378379821777e+00 -2.626146554946899414e+00 -4.325372219085693359e+00
9.840000000000000000e+02 3.947375869750976562e+01 -1.057468771934509277e+00 -3.594876050949096680e+00 2.429105520248413086e+00 -3.497312068939208984e-01 -5.273221492767333984e+00
9.850000000000000000e+02 7.133360290527343750e+01 4.026896059513092041e-01 -2.176216602325439453e+00 4.290601730346679688e+00 6.343155503273010254e-01 -3.379535436630249023e+00
9.860000000000000000e+02 6.804829406738281250e+01 -4.424038410186767578e+00 -2.194759845733642578e+00 -9.622988104820251465e-02 -6.872969269752502441e-01 9.664813280105590820e-01
9.870000000000000000e+02 2.959668350219726562e+01 1.406025528907775879e+00 -6.937203407287597656e-01 6.340991020202636719e+00 1.694181203842163086e+00 1.849044442176818848e+00
9.880000000000000000e+02 2.701638031005859375e+01 -5.253720283508300781e+00 5.050706267356872559e-01 9.726391792297363281e+00 3.069438695907592773e+00 1.716309785842895508e+00
9.890000000000000000e+02 7.656837463378906250e+01 7.030084133148193359e+00 3.085795164108276367e+00 1.629587745666503906e+01 5.814501762390136719e+00 -2.306216239929199219e+00
9.900000000000000000e+02 7.947984313964843750e+01 9.740588188171386719e+00 3.756057098507881165e-02 7.313242435455322266e+00 2.205240964889526367e+00 2.392752468585968018e-01
9.910000000000000000e+02 5.325082397460937500e+01 9.593218803405761719e+00 -2.757625281810760498e-01 1.161958408355712891e+01 3.403146505355834961e+00 -4.980224967002868652e-01
9.920000000000000000e+02 5.546781921386718750e+01 1.174843311309814453e+01 5.770838856697082520e-01 5.236622333526611328e+00 1.744111776351928711e+00 8.625518083572387695e-01
9.930000000000000000e+02 6.202716064453125000e+01 1.591001224517822266e+01 1.262094974517822266e+00 1.104076147079467773e+00 7.098513245582580566e-01 -9.248384237289428711e-01
9.940000000000000000e+02 6.146536636352539062e+01 1.447024822235107422e+01 -1.357849597930908203e+00 -3.667248487472534180e-01 -5.173723101615905762e-01 -7.174458503723144531e-01
9.950000000000000000e+02 6.353099822998046875e+01 1.643639755249023438e+01 3.403418362140655518e-01 4.099257469177246094e+00 1.331879734992980957e+00 -2.167320251464843750e+00
9.960000000000000000e+02 7.335596466064453125e+01 9.621665954589843750e+00 -1.958527207374572754e+00 1.206428527832031250e+00 -2.256296128034591675e-01 -2.201441764831542969e+00
9.970000000000000000e+02 7.498209381103515625e+01 8.801426887512207031e+00 2.121244668960571289e+00 7.653339862823486328e+00 2.932375431060791016e+00 -4.614682674407958984e+00
9.980000000000000000e+02 6.397211837768554688e+01 4.450088024139404297e+00 -2.447243630886077881e-01 4.505187034606933594e+00 1.278138875961303711e+00 1.516158461570739746e+00
9.990000000000000000e+02 6.981859588623046875e+01 2.453279733657836914e+00 3.720346689224243164e+00 1.236766147613525391e+01 4.826402187347412109e+00 -4.713173389434814453e+00
1.000000000000000000e+03 3.261605453491210938e+01 5.092697143554687500e+00 -2.059659212827682495e-01 1.405573606491088867e+00 3.598822951316833496e-01 9.127128124237060547e-01
1.001000000000000000e+03 7.491292572021484375e+01 1.025363802909851074e+00 -3.946551322937011719e+00 2.892544031143188477e+00 -3.162022531032562256e-01 -3.222534656524658203e-01
1.002000000000000000e+03 4.759555053710937500e+01 4.543723583221435547e+00 8.833231329917907715e-01 1.968263149261474609e+00 8.554759025573730469e-01 1.247238636016845703e+00
1.003000000000000000e+03 7.060063934326171875e+01 8.468029975891113281e+00 -1.665637850761413574e+00 2.279564380645751953e+00 1.841780096292495728e-01 -5.033438205718994141e-01
1.004000000000000000e+03 4.923259353637695312e+01 8.371700286865234375e+00 6.990314722061157227e-01 5.473027229309082031e+00 1.851617693901062012e+00 2.338770389556884766e+00
1.005000000000000000e+03 5.522622680664062500e+01 -6.566762924194335938e+00 -7.287060618400573730e-01 5.142896175384521484e+00 1.324257016181945801e+00 -1.138912320137023926e+00
1.006000000000000000e+03 5.872465133666992188e+01 1.222119033336639404e-01 -3.069683074951171875e+00 6.638568639755249023e-01 -7.217478752136230469e-01 -1.096831440925598145e+00
1.007000000000000000e+03 7.688391876220703125e+01 9.484614372253417969e+00 -2.678439021110534668e-01 9.954010009765625000e+00 2.905849695205688477e+00 -6.372287273406982422e-01
1.008000000000000000e+03 7.935378265380859375e+01 1.249693489074707031e+01 -9.922522120177745819e-03 7.748235702514648438e+00 2.321494102478027344e+00 -5.252357199788093567e-02
1.009000000000000000e+03 5.201627349853515625e+01 8.973174095153808594e+00 -5.452027320861816406e-01 1.184288787841796875e+01 3.389305591583251953e+00 -9.552978873252868652e-01
1.010000000000000000e+03 4.396427154541015625e+01 5.996216535568237305e-01 -3.775405645370483398e+00 2.721149921417236328e+00 -3.162767291069030762e-01 7.178032994270324707e-01
1.011000000000000000e+03 7.612117767333984375e+01 -2.731330096721649170e-01 -2.121538639068603516e+00 7.353868484497070312e+00 1.569698929786682129e+00 8.293519616127014160e-01
1.012000000000000000e+03 4.754185867309570312e+01 6.348302841186523438e+00 3.711092174053192139e-01 1.151352643966674805e+00 4.567385613918304443e-01 7.617158293724060059e-01
1.013000000000000000e+03 4.666773986816406250e+01 5.346564769744873047e+00 5.635888576507568359e-01 7.839234471321105957e-01 4.042536914348602295e-01 4.089974462985992432e-01
1.014000000000000000e+03 5.894812011718750000e+01 1.309983634948730469e+01 -9.627151489257812500e-01 2.917563021183013916e-01 -2.012876570224761963e-01 4.405321553349494934e-02
1.015000000000000000e+03 5.684130859375000000e+01 9.614458084106445312e+00 -8.274825215339660645e-01 8.905258178710937500e-01 1.891298219561576843e-02 -2.596023380756378174e-01
1.016000000000000000e+03 4.433357620239257812e+01 1.257574653625488281e+01 -2.387436777353286743e-01 -4.347516596317291260e-01 -2.020485997200012207e-01 -3.303435444831848145e-01
1.017000000000000000e+03 6.173661804199218750e+01 2.590729236602783203e+00 -3.145893573760986328e+00 2.664702653884887695e+00 -1.443572640419006348e-01 4.761236310005187988e-01
1.018000000000000000e+03 6.282503890991210938e+01 3.570775270462036133e+00 -1.414005279541015625e+00 2.941090583801269531e+00 4.581255912780761719e-01 1.196076154708862305e+00
1.019000000000000000e+03 6.553437805175781250e+01 4.005667209625244141e+00 7.379431724548339844e-01 5.916801452636718750e+00 1.996423363685607910e+00 8.737580776214599609e-01
1.020000000000000000e+03 4.085217285156250000e+01 8.472030639648437500e+00 -5.876845121383666992e-01 7.204285264015197754e-01 3.982321172952651978e-02 -4.212854504585266113e-01
1.021000000000000000e+03 6.738912963867187500e+01 1.145899677276611328e+01 3.539497613906860352e+00 1.115140056610107422e+01 4.407269477844238281e+00 4.246687889099121094e-01
1.022000000000000000e+03 6.733449554443359375e+01 1.006804084777832031e+01 1.711272954940795898e+00 1.284270381927490234e+01 4.366192817687988281e+00 -9.804100990295410156e-01
1.023000000000000000e+03 4.579941940307617188e+01 4.324374198913574219e+00 1.544051617383956909e-01 4.634769558906555176e-01 1.853646337985992432e-01 5.860029458999633789e-01
1.024000000000000000e+03 5.243178558349609375e+01 1.184170055389404297e+01 2.007310152053833008e+00 1.192189788818359375e+01 4.178762435913085938e+00 9.290751069784164429e-03
1.025000000000000000e+03 4.589437103271484375e+01 2.282805442810058594e+00 -6.422729492187500000e-01 1.616830229759216309e+00 2.923671603202819824e-01 1.324555277824401855e+00
1.026000000000000000e+03 3.603099060058593750e+01 5.873637199401855469e+00 -5.691301226615905762e-01 9.408679008483886719e+00 2.651864767074584961e+00 1.132726669311523438e+00
1.027000000000000000e+03 5.352685546875000000e+01 6.873224735260009766e+00 -7.316822409629821777e-01 1.202066135406494141e+01 3.386693716049194336e+00 -4.734302461147308350e-01
1.028000000000000000e+03 3.885446929931640625e+01 9.549105644226074219e+00 1.305207014083862305e+00 9.012090682983398438e+00 3.095189332962036133e+00 1.312919259071350098e-01
1.029000000000000000e+03 4.315048217773437500e+01 1.337322902679443359e+01 7.545797228813171387e-01 7.962515354156494141e-01 4.652493894100189209e-01 1.147207617759704590e+00
1.030000000000000000e+03 5.480246353149414062e+01 8.865020751953125000e+00 -9.920673966407775879e-01 7.618780612945556641e+00 1.988013982772827148e+00 5.802715420722961426e-01
1.031000000000000000e+03 4.237528991699218750e+01 -7.377184629440307617e-01 -4.018476486206054688e+00 2.283557176589965820e+00 -5.204757452011108398e-01 -4.952783584594726562e-01
1.032000000000000000e+03 4.357072448730468750e+01 -1.945701122283935547e+00 -1.321280837059020996e+00 6.730355739593505859e+00 1.622722506523132324e+00 8.443003296852111816e-01
1.033000000000000000e+03 4.144026184082031250e+01 1.123065567016601562e+01 1.082459092140197754e+00 1.568859934806823730e+00 7.953957319259643555e-01 1.036913752555847168e+00
1.034000000000000000e+03 5.098244857788085938e+01 8.253928184509277344e+00 -1.501643657684326172e+00 1.219102096557617188e+01 3.206813097000122070e+00 -4.547294974327087402e-01
1.035000000000000000e+03 3.808987045288085938e+01 7.738119125366210938e+00 -1.198262214660644531e+00 1.171795654296875000e+01 3.155908346176147461e+00 8.339695930480957031e-01
1.036000000000000000e+03 3.572372055053710938e+01 7.041234016418457031e+00 -1.605950593948364258e+00 1.021618461608886719e+01 2.583070278167724609e+00 1.786437988281250000e+00
1.037000000000000000e+03 4.400000381469726562e+01 1.438637924194335938e+01 4.562807381153106689e-01 1.065097928047180176e+00 4.564135968685150146e-01 1.024039745330810547e+00
1.038000000000000000e+03 4.839428329467773438e+01 5.562348365783691406e+00 9.386732578277587891e-01 3.394577741622924805e+00 1.299975275993347168e+00 1.009542346000671387e+00
1.039000000000000000e+03 4.921460723876953125e+01 6.536709308624267578e+00 4.006882309913635254e-01 5.305316925048828125e+00 1.711801528930664062e+00 1.193471193313598633e+00
1.040000000000000000e+03 4.477770996093750000e+01 1.533734226226806641e+01 2.737595438957214355e-01 1.280729174613952637e+00 4.663466215133666992e-01 1.182918429374694824e+00
1.041000000000000000e+03 3.530556106567382812e+01 8.428893089294433594e+00 2.095017194747924805e+00 8.005784034729003906e+00 3.030240297317504883e+00 3.993908405303955078e+00
1.042000000000000000e+03 3.786795425415039062e+01 8.923635482788085938e+00 -1.091401338577270508e+00 1.352854919433593750e+01 3.731144428253173828e+00 1.254483461380004883e+00
1.043000000000000000e+03 5.966444015502929688e+01 8.971952795982360840e-01 -5.224344730377197266e+00 1.546537995338439941e+00 -1.103341937065124512e+00 -3.320248425006866455e-01
1.044000000000000000e+03 6.068598937988281250e+01 1.718450784683227539e+00 -4.384532451629638672e+00 1.960855126380920410e+00 -7.271031141281127930e-01 -1.004884988069534302e-01
1.045000000000000000e+03 6.417910003662109375e+01 7.320803642272949219e+00 1.068455934524536133e+00 4.383406162261962891e+00 1.635558724403381348e+00 2.231331348419189453e+00
1.046000000000000000e+03 6.366721725463867188e+01 5.535250663757324219e+00 2.156331688165664673e-01 3.403043985366821289e+00 1.085603117942810059e+00 1.197539567947387695e+00
1.047000000000000000e+03 5.813683319091796875e+01 1.221193981170654297e+01 -6.288235187530517578e-01 6.622840762138366699e-01 1.003817003220319748e-02 4.786105081439018250e-02
1.048000000000000000e+03 5.714905166625976562e+01 1.141581726074218750e+01 -3.336295485496520996e-01 1.252104878425598145e+00 2.755425870418548584e-01 3.063822984695434570e-01
1.049000000000000000e+03 5.418567276000976562e+01 1.121386241912841797e+01 6.866367459297180176e-01 8.139694213867187500e+00 2.647899389266967773e+00 5.449978709220886230e-01
1.050000000000000000e+03 6.556662750244140625e+01 6.856398582458496094e+00 -8.505172133445739746e-01 9.680072784423828125e+00 2.648866653442382812e+00 2.438544109463691711e-02
1.051000000000000000e+03 6.337415313720703125e+01 6.437261104583740234e+00 1.007557392120361328e+00 2.856864929199218750e+00 1.159326672554016113e+00 1.386652946472167969e+00
1.052000000000000000e+03 5.646912002563476562e+01 -2.080920600891113281e+01 -1.259875059127807617e+00 7.910224914550781250e+00 1.995105028152465820e+00 1.050963044166564941e+00
1.053000000000000000e+03 5.676185226440429688e+01 -1.848962211608886719e+01 2.462933301925659180e+00 1.162548828125000000e+01 4.226526260375976562e+00 8.968092799186706543e-01
1.054000000000000000e+03 6.790133666992187500e+01 -2.741124391555786133e+00 -5.141729831695556641e+00 2.091217279434204102e+00 -9.151537418365478516e-01 4.223644733428955078e-01
1.055000000000000000e+03 7.320086669921875000e+01 1.089521217346191406e+01 1.630530714988708496e+00 3.043455123901367188e+00 1.402195811271667480e+00 -2.599413633346557617e+00
1.056000000000000000e+03 6.958687591552734375e+01 1.267999553680419922e+01 2.257847309112548828e+00 6.743657112121582031e+00 2.700451374053955078e+00 1.666344642639160156e+00
1.057000000000000000e+03 7.831655120849609375e+01 -7.744489610195159912e-02 -7.591851353645324707e-01 1.232738208770751953e+01 3.470459222793579102e+00 -5.457817018032073975e-02
1.058000000000000000e+03 1.204287815093994141e+01 4.270011425018310547e+00 5.349096298217773438e+00 1.148385524749755859e+00 1.949244618415832520e+00 -8.744896888732910156e+00
1.059000000000000000e+03 1.084884262084960938e+01 3.973994255065917969e+00 1.033338069915771484e+01 1.403116703033447266e+01 7.309363842010498047e+00 -1.143213844299316406e+01
1.060000000000000000e+03 1.008615303039550781e+01 6.739625453948974609e+00 2.548803329467773438e+00 2.205393981933593750e+01 7.380822658538818359e+00 -4.478336870670318604e-01
1.061000000000000000e+03 6.794678497314453125e+01 2.089429140090942383e+00 8.620223402976989746e-01 7.783725738525390625e+00 2.593724489212036133e+00 7.849874496459960938e-01
1.062000000000000000e+03 6.971320343017578125e+01 6.791710376739501953e+00 1.463389098644256592e-01 9.078613281250000000e+00 2.767485618591308594e+00 4.278836548328399658e-01
1.063000000000000000e+03 6.895936584472656250e+01 8.912637710571289062e+00 -1.153867125511169434e+00 9.191528320312500000e+00 2.411298513412475586e+00 -9.369700551033020020e-01
1.064000000000000000e+03 7.613211059570312500e+01 5.945608139038085938e+00 8.005053400993347168e-01 1.796801757812500000e+01 5.630557060241699219e+00 -1.678542494773864746e+00
1.065000000000000000e+03 7.603208923339843750e+01 4.676879405975341797e+00 3.225506544113159180e-01 1.518444919586181641e+01 4.652100086212158203e+00 -1.490243524312973022e-01
1.066000000000000000e+03 7.824298095703125000e+01 5.492098331451416016e+00 1.075954675674438477e+00 1.062148761749267578e+01 3.509232759475708008e+00 -1.446449279785156250e+00
1.067000000000000000e+03 6.610016632080078125e+01 -2.522147655487060547e+00 -7.098111152648925781e+00 -2.196057796478271484e+00 -2.788250684738159180e+00 3.859427213668823242e+00
1.068000000000000000e+03 6.027527236938476562e+01 -4.827908039093017578e+00 1.528585910797119141e+00 7.383183956146240234e+00 2.673531055450439453e+00 7.045151591300964355e-01
1.069000000000000000e+03 2.291145896911621094e+01 -3.006911873817443848e-01 -1.483296155929565430e+00 5.077906131744384766e+00 1.078382968902587891e+00 -1.268146276473999023e+00
1.070000000000000000e+03 2.393348884582519531e+01 -3.221864700317382812e+00 9.737765192985534668e-01 3.757257699966430664e+00 1.419310212135314941e+00 -2.425513267517089844e+00
1.071000000000000000e+03 6.954270172119140625e+01 -1.694243621826171875e+01 -6.871362328529357910e-01 1.772082895040512085e-01 -1.529783904552459717e-01 1.817101001739501953e+00
1.072000000000000000e+03 7.587753295898437500e+01 -1.655250358581542969e+01 4.411114752292633057e-02 8.473114967346191406e+00 2.555167913436889648e+00 -3.557761311531066895e-01
1.073000000000000000e+03 2.575704002380371094e+01 1.335050010681152344e+01 3.769612073898315430e+00 1.302894973754882812e+01 5.039568424224853516e+00 1.661406755447387695e+00
1.074000000000000000e+03 2.689535140991210938e+01 1.490763664245605469e+01 4.425086975097656250e+00 7.014852046966552734e+00 3.431981563568115234e+00 3.906923532485961914e+00
1.075000000000000000e+03 3.575371170043945312e+01 -1.765881156921386719e+01 6.911692619323730469e-01 1.645323753356933594e+00 7.009478807449340820e-01 -4.472083449363708496e-01
1.076000000000000000e+03 3.945157623291015625e+01 -1.884401512145996094e+01 -8.980961889028549194e-02 3.586413621902465820e+00 1.048981189727783203e+00 1.694718003273010254e+00
1.077000000000000000e+03 1.590131664276123047e+01 6.438941955566406250e+00 -6.578691482543945312e+00 -9.205585122108459473e-01 -2.249775171279907227e+00 -2.518421411514282227e+00
1.078000000000000000e+03 1.698740196228027344e+01 3.679548740386962891e+00 1.442634201049804688e+01 1.849878072738647461e+00 4.882865905761718750e+00 5.208880424499511719e+00
1.079000000000000000e+03 5.765393447875976562e+01 -1.663033866882324219e+01 1.833962678909301758e+00 9.755426406860351562e+00 3.476816654205322266e+00 4.716683924198150635e-01
1.080000000000000000e+03 2.478232192993164062e+01 1.074921703338623047e+01 -1.503899693489074707e+00 9.152954101562500000e+00 2.294716119766235352e+00 2.658360481262207031e+00
1.081000000000000000e+03 2.612595748901367188e+01 1.417018795013427734e+01 5.193569660186767578e+00 9.673336982727050781e+00 4.460072040557861328e+00 2.808353424072265625e+00
1.082000000000000000e+03 7.095182037353515625e+01 -7.318536758422851562e+00 8.768734335899353027e-01 4.577304840087890625e+00 1.636253476142883301e+00 -1.911682486534118652e+00
1.083000000000000000e+03 2.845353889465332031e+01 -3.989151716232299805e+00 1.156862378120422363e+00 8.041701316833496094e+00 2.759569168090820312e+00 2.608336210250854492e+00
1.084000000000000000e+03 4.584667205810546875e+01 -9.852160453796386719e+00 4.256879389286041260e-01 5.651262283325195312e+00 1.823085069656372070e+00 -1.167818307876586914e+00
1.085000000000000000e+03 7.237434387207031250e+01 -1.173512840270996094e+01 3.647184371948242188e-01 1.390273094177246094e+01 4.280234813690185547e+00 1.480430513620376587e-01
1.086000000000000000e+03 7.935935211181640625e+01 -9.781252861022949219e+00 4.257652536034584045e-02 7.641490459442138672e+00 2.305220127105712891e+00 4.248380362987518311e-01
1.087000000000000000e+03 2.860897254943847656e+01 -1.980290889739990234e+00 5.082053184509277344e+00 7.590077877044677734e+00 3.801639318466186523e+00 4.107025146484375000e+00
1.088000000000000000e+03 6.282740020751953125e+01 -1.009333419799804688e+01 7.761245220899581909e-02 8.072175025939941406e+00 2.444936275482177734e+00 1.542681604623794556e-01
1.089000000000000000e+03 6.337248611450195312e+01 -1.134710884094238281e+01 -4.515066146850585938e-01 6.375277042388916016e+00 1.777131080627441406e+00 -1.403460055589675903e-01
1.090000000000000000e+03 2.429361915588378906e+01 1.790031051635742188e+01 -4.021318912506103516e+00 2.725382804870605469e+00 -3.887808322906494141e-01 -2.565857648849487305e+00
1.091000000000000000e+03 2.078757858276367188e+01 1.747056007385253906e+01 -4.659296035766601562e+00 -3.871146142482757568e-01 -1.513923168182373047e+00 -6.962959170341491699e-01
1.092000000000000000e+03 6.511238861083984375e+01 -1.420643901824951172e+01 -8.795952796936035156e-01 2.900646924972534180e+00 6.063154935836791992e-01 -5.384770631790161133e-01
1.093000000000000000e+03 3.007629394531250000e+01 -1.106884765625000000e+01 6.979033946990966797e-01 3.840759515762329102e+00 1.361598849296569824e+00 -1.577462196350097656e+00
1.094000000000000000e+03 3.123650360107421875e+01 -1.088022422790527344e+01 6.685444712638854980e-01 2.623724460601806641e+00 9.876806735992431641e-01 -1.110347867012023926e+00
1.095000000000000000e+03 6.321528625488281250e+01 -7.041882514953613281e+00 2.452298551797866821e-01 1.247482395172119141e+01 3.816016197204589844e+00 -5.984067916870117188e-01
1.096000000000000000e+03 6.209825897216796875e+01 -7.607904911041259766e+00 6.196813583374023438e-01 1.066216468811035156e+01 3.384553909301757812e+00 9.634590148925781250e-01
1.097000000000000000e+03 1.084719276428222656e+01 1.165845394134521484e+01 -1.768401980400085449e+00 4.510178565979003906e+00 8.225328922271728516e-01 -4.928965121507644653e-02
1.098000000000000000e+03 1.444435214996337891e+01 4.362499713897705078e+00 5.679828643798828125e+00 2.625787973403930664e+00 2.491684913635253906e+00 -1.030668020248413086e+00
1.099000000000000000e+03 6.166468048095703125e+01 -6.575181484222412109e+00 1.160831570625305176e+00 9.647067070007324219e+00 3.242369651794433594e+00 1.817823290824890137e+00
1.100000000000000000e+03 7.813530731201171875e+01 -1.129774188995361328e+01 2.474317401647567749e-01 7.758297443389892578e+00 2.401718854904174805e+00 7.658169865608215332e-01
1.101000000000000000e+03 6.926516723632812500e+01 -6.919994354248046875e-01 -3.431379795074462891e+00 6.840265274047851562e+00 1.022665619850158691e+00 -1.867813229560852051e+00
1.102000000000000000e+03 7.365583801269531250e+01 -1.335474681854248047e+01 1.917515397071838379e+00 1.136563396453857422e+01 3.984944820404052734e+00 1.433950781822204590e+00
1.103000000000000000e+03 7.525872802734375000e+01 -2.815651178359985352e+00 -7.496874332427978516e-01 6.725207328796386719e+00 1.792655944824218750e+00 9.302577376365661621e-01
1.104000000000000000e+03 7.328044128417968750e+01 -3.236038684844970703e+00 -9.319572448730468750e-01 5.190831661224365234e+00 1.277662277221679688e+00 -6.988186240196228027e-01
1.105000000000000000e+03 3.692421722412109375e+01 -1.459568595886230469e+01 -5.553833842277526855e-01 -1.381589565426111221e-02 -1.707597970962524414e-01 5.719726085662841797e-01
1.106000000000000000e+03 3.496192932128906250e+01 -1.447302341461181641e+01 -2.327717542648315430e-01 1.080240726470947266e+00 2.542406916618347168e-01 -4.439459741115570068e-01
1.107000000000000000e+03 1.586074256896972656e+01 1.454525566101074219e+01 -2.789171457290649414e+00 1.165048331022262573e-01 -8.018000125885009766e-01 -7.592947483062744141e-01
1.108000000000000000e+03 1.784215164184570312e+01 1.427785301208496094e+01 -3.620659351348876953e+00 -8.541762828826904297e-01 -1.342450737953186035e+00 -1.754901766777038574e+00
1.109000000000000000e+03 1.343025588989257812e+01 1.095504570007324219e+01 -7.026341557502746582e-01 7.604320049285888672e-01 1.733935996890068054e-02 -2.338712364435195923e-01
1.110000000000000000e+03 3.435736846923828125e+01 -7.155781388282775879e-01 -2.701569557189941406e+00 -9.815943241119384766e-01 -1.104949116706848145e+00 3.337803125381469727e+00
1.111000000000000000e+03 3.546503829956054688e+01 -3.028212308883666992e+00 -3.296786308288574219e+00 -8.506572842597961426e-01 -1.244233012199401855e+00 2.218529462814331055e+00
1.112000000000000000e+03 9.921944618225097656e+00 8.728041648864746094e+00 -1.011961102485656738e+00 1.165629768371582031e+01 3.193300962448120117e+00 -2.810811996459960938e-01
1.113000000000000000e+03 1.823056221008300781e+01 1.609056282043457031e+01 -3.642274141311645508e+00 -2.361793518066406250e-01 -1.163536071777343750e+00 -9.912400245666503906e-01
1.114000000000000000e+03 3.625941848754882812e+01 -4.086209297180175781e+00 -1.832197785377502441e+00 1.123065233230590820e+00 -2.127397507429122925e-01 7.207072973251342773e-01
1.115000000000000000e+03 2.239949607849121094e+01 1.127955150604248047e+01 2.471307754516601562e+00 4.000339984893798828e+00 1.941494345664978027e+00 3.574368238449096680e+00
1.116000000000000000e+03 2.680172538757324219e+01 9.220563888549804688e+00 -1.444540739059448242e+00 1.174473643302917480e+00 -8.102010935544967651e-02 5.111796855926513672e-01
1.117000000000000000e+03 4.485183715820312500e+01 -7.441107273101806641e+00 7.155700922012329102e-01 1.179001140594482422e+01 3.751674413681030273e+00 -1.370571494102478027e+00
1.118000000000000000e+03 4.020996856689453125e+01 -7.951672077178955078e+00 4.822337031364440918e-01 6.238773822784423828e+00 2.016302347183227539e+00 -7.825714945793151855e-01
1.119000000000000000e+03 2.246522712707519531e+01 8.385569572448730469e+00 -2.310590595006942749e-01 8.176640510559082031e+00 2.383674383163452148e+00 2.474820613861083984e+00
1.120000000000000000e+03 1.737920188903808594e+01 1.717234230041503906e+01 -2.778339385986328125e+00 2.149235755205154419e-01 -7.690247297286987305e-01 -4.166262447834014893e-01
1.121000000000000000e+03 1.959446907043457031e+01 4.222762107849121094e+00 6.978844642639160156e+00 -1.272378683090209961e+00 1.711939811706542969e+00 2.108329772949218750e+00
1.122000000000000000e+03 1.167557239532470703e+01 1.079487800598144531e+01 -1.163516044616699219e+00 4.193742752075195312e+00 9.090679287910461426e-01 5.285399556159973145e-01
1.123000000000000000e+03 2.966041564941406250e+01 -5.940413951873779297e+00 2.321514934301376343e-01 6.640825748443603516e+00 2.061893224716186523e+00 6.482350826263427734e-01
1.124000000000000000e+03 1.948633766174316406e+01 1.686509132385253906e+01 -3.741715908050537109e+00 -3.197833597660064697e-01 -1.218449831008911133e+00 -1.046034574508666992e+00
1.125000000000000000e+03 1.364654254913330078e+01 1.277202510833740234e+01 -1.999730944633483887e+00 1.400736808776855469e+00 -1.796982288360595703e-01 -2.754867970943450928e-01
1.126000000000000000e+03 2.476581954956054688e+01 7.343135833740234375e+00 2.144409179687500000e+00 6.861430168151855469e+00 2.701751708984375000e+00 4.453537464141845703e+00
1.127000000000000000e+03 1.972313690185546875e+01 7.609021186828613281e+00 5.894202589988708496e-01 1.995418548583984375e+00 7.754516005516052246e-01 1.166246652603149414e+00
1.128000000000000000e+03 2.083248329162597656e+01 8.483363151550292969e+00 1.166644841432571411e-01 3.923541069030761719e+00 1.212061643600463867e+00 9.980478882789611816e-01
1.129000000000000000e+03 4.194118881225585938e+01 -1.241802501678466797e+01 9.444007277488708496e-01 1.091872692108154297e+01 3.558938264846801758e+00 -3.916840255260467529e-02
1.130000000000000000e+03 4.345244216918945312e+01 -5.095990657806396484e+00 3.445490121841430664e+00 9.045219421386718750e+00 3.747212886810302734e+00 1.396082043647766113e+00
1.131000000000000000e+03 4.448510360717773438e+01 -9.391503334045410156e+00 -3.420185148715972900e-01 9.131944656372070312e+00 2.636977672576904297e+00 1.406043488532304764e-02
1.132000000000000000e+03 4.401456069946289062e+01 -8.516643524169921875e+00 -4.870066642761230469e-01 9.692979812622070312e+00 2.761791944503784180e+00 6.443172693252563477e-01
1.133000000000000000e+03 3.812034606933593750e+01 -1.835558414459228516e+00 -3.262120962142944336e+00 8.290913581848144531e+00 1.508637905120849609e+00 -4.869015693664550781e+00
1.134000000000000000e+03 3.106985473632812500e+01 -9.620170593261718750e+00 7.068637013435363770e-01 2.506186008453369141e+00 9.639149308204650879e-01 -1.166866898536682129e+00
1.135000000000000000e+03 3.592789077758789062e+01 -1.555528068542480469e+01 -1.037803173065185547e+00 1.151764273643493652e+00 3.418831154704093933e-02 -2.668917179107666016e-01
1.136000000000000000e+03 3.939013671875000000e+01 -6.839236259460449219e+00 1.234497785568237305e+00 3.984367609024047852e+00 1.565659642219543457e+00 -1.188959836959838867e+00
1.137000000000000000e+03 3.312693405151367188e+01 -1.235543537139892578e+01 2.502535879611968994e-01 1.364247560501098633e+00 4.843503534793853760e-01 -7.632514834403991699e-01
1.138000000000000000e+03 3.401421356201171875e+01 -1.341780185699462891e+01 -2.273187488317489624e-01 1.346339702606201172e+00 3.357062935829162598e-01 -6.225316524505615234e-01
1.139000000000000000e+03 3.397338104248046875e+01 -1.532327938079833984e+01 -4.463591575622558594e-01 2.001938104629516602e+00 4.666736423969268799e-01 -7.767892479896545410e-01
1.140000000000000000e+03 1.364536666870117188e+01 1.898939728736877441e+00 7.170886039733886719e+00 1.189360809326171875e+01 5.719348430633544922e+00 5.736993551254272461e-01
1.141000000000000000e+03 2.171877670288085938e+01 4.518490791320800781e+00 6.257801055908203125e+00 7.993329524993896484e+00 4.275339126586914062e+00 -5.531049966812133789e-01
1.142000000000000000e+03 1.991754913330078125e+01 -6.813537120819091797e+00 1.590313315391540527e+00 2.189413070678710938e+00 1.133917927742004395e+00 -1.910482883453369141e+00
1.143000000000000000e+03 1.715834426879882812e+01 -6.873496532440185547e+00 7.619764208793640137e-01 5.120246410369873047e+00 1.764666914939880371e+00 -2.283831119537353516e+00
1.144000000000000000e+03 1.609902763366699219e+01 -4.614960670471191406e+00 1.576206564903259277e+00 7.543361663818359375e+00 2.735870599746704102e+00 -3.299543857574462891e+00
1.145000000000000000e+03 1.604723930358886719e+01 -2.938882112503051758e+00 4.122658252716064453e+00 9.394260406494140625e+00 4.055075645446777344e+00 -5.481349945068359375e+00
1.146000000000000000e+03 2.583074569702148438e+01 -3.977594614028930664e+00 1.373289108276367188e+00 6.675770759582519531e+00 2.414717912673950195e+00 3.219408392906188965e-01
1.147000000000000000e+03 2.036761474609375000e+01 9.309562444686889648e-01 -3.832254409790039062e+00 -2.427233934402465820e+00 -1.877846479415893555e+00 2.716894388198852539e+00
1.148000000000000000e+03 2.291984939575195312e+01 2.139889955520629883e+00 3.307198762893676758e+00 1.416664791107177734e+01 5.242154121398925781e+00 -3.143375635147094727e+00
1.149000000000000000e+03 2.509099006652832031e+01 -2.334780693054199219e+00 1.693196535110473633e+00 5.026655197143554688e+00 2.015955686569213867e+00 -1.560545325279235840e+00
1.150000000000000000e+03 2.375163650512695312e+01 6.897424459457397461e-01 -4.011192798614501953e+00 7.342532634735107422e+00 9.994019865989685059e-01 -5.203619480133056641e+00
1.151000000000000000e+03 1.895209693908691406e+01 -5.880033969879150391e+00 2.126278638839721680e+00 2.706972837448120117e+00 1.449975371360778809e+00 -2.410474777221679688e+00
1.152000000000000000e+03 1.828652954101562500e+01 -9.475783348083496094e+00 9.496318697929382324e-01 3.780068874359130859e+00 1.418910264968872070e+00 -1.474346876144409180e+00
1.153000000000000000e+03 2.263138961791992188e+01 1.211019039154052734e+00 -2.493083477020263672e+00 9.206607818603515625e+00 2.014057397842407227e+00 -1.400257349014282227e+00
1.154000000000000000e+03 1.840216255187988281e+01 -6.635513782501220703e+00 1.439489006996154785e+00 3.787613868713378906e+00 1.568130850791931152e+00 -2.475955724716186523e+00
1.155000000000000000e+03 1.742538261413574219e+01 -5.939753532409667969e+00 1.549318671226501465e+00 4.788434028625488281e+00 1.901325821876525879e+00 -2.712841033935546875e+00
1.156000000000000000e+03 2.290859222412109375e+01 3.222315311431884766e+00 4.413790702819824219e+00 2.092691421508789062e+01 7.602211475372314453e+00 -3.996407985687255859e+00
1.157000000000000000e+03 3.676655197143554688e+01 1.362013339996337891e+01 2.480319738388061523e+00 1.519901371002197266e+01 5.303800106048583984e+00 -2.843668222427368164e+00
1.158000000000000000e+03 3.781951141357421875e+01 1.287070369720458984e+01 3.494669914245605469e+00 1.627131652832031250e+01 5.929796218872070312e+00 1.421325922012329102e+00
1.159000000000000000e+03 4.964020538330078125e+01 -3.739696025848388672e+00 -7.457372665405273438e+00 -1.488873481750488281e+00 -2.683873891830444336e+00 2.860269308090209961e+00
1.160000000000000000e+03 5.066719436645507812e+01 -4.635872364044189453e+00 -4.479841709136962891e+00 -7.549993991851806641e-01 -1.570452332496643066e+00 2.192913770675659180e+00
1.161000000000000000e+03 4.485601806640625000e+01 -7.583864927291870117e-01 -3.038989305496215820e+00 5.281025886535644531e+00 6.726110577583312988e-01 3.563075542449951172e+00
1.162000000000000000e+03 7.795848846435546875e+01 -2.923649024963378906e+01 4.498254507780075073e-02 6.876519680023193359e+00 2.076450586318969727e+00 1.380649954080581665e-01
1.163000000000000000e+03 7.933269500732421875e+01 -2.786716842651367188e+01 1.499308552592992783e-02 7.143382549285888672e+00 2.147512674331665039e+00 5.447014793753623962e-02
1.164000000000000000e+03 7.793228912353515625e+01 3.314064025878906250e+01 2.912542084231972694e-03 6.502193927764892578e+00 1.951531887054443359e+00 7.032358553260564804e-04
1.165000000000000000e+03 7.919442749023437500e+01 3.605076980590820312e+01 2.078298013657331467e-03 6.577349662780761719e+00 1.973828434944152832e+00 -6.225340766832232475e-04
1.166000000000000000e+03 7.737713623046875000e+01 -3.793576049804687500e+01 -1.538438256829977036e-02 6.567975997924804688e+00 1.965777397155761719e+00 4.847203940153121948e-02
1.167000000000000000e+03 7.935813903808593750e+01 -3.478483200073242188e+01 -2.717838808894157410e-02 6.754943370819091797e+00 2.018329381942749023e+00 2.552546560764312744e-02
1.168000000000000000e+03 7.937958526611328125e+01 -2.089990806579589844e+01 -3.414823487401008606e-02 7.520281314849853516e+00 2.245840072631835938e+00 -5.535639822483062744e-02
1.169000000000000000e+03 7.805741119384765625e+01 -2.508098602294921875e+01 -4.121758788824081421e-02 7.187702655792236328e+00 2.143945455551147461e+00 1.741576045751571655e-01
1.170000000000000000e+03 7.802980804443359375e+01 -2.646581268310546875e+01 3.410207480192184448e-02 7.074656009674072266e+00 2.132627487182617188e+00 1.674773693084716797e-01
1.171000000000000000e+03 7.789337158203125000e+01 -3.204176330566406250e+01 3.441265597939491272e-02 6.746539592742919922e+00 2.034285783767700195e+00 9.160949289798736572e-02
1.172000000000000000e+03 7.930976867675781250e+01 -3.065282630920410156e+01 1.736547611653804779e-02 6.939896583557128906e+00 2.087178707122802734e+00 3.984824195504188538e-02
1.173000000000000000e+03 7.642462158203125000e+01 -3.350914382934570312e+01 4.548082873225212097e-02 6.570140361785888672e+00 1.984686255455017090e+00 1.040697693824768066e-01
1.174000000000000000e+03 7.647653198242187500e+01 -3.903732681274414062e+01 1.958061568439006805e-02 6.554017543792724609e+00 1.972079396247863770e+00 3.048847056925296783e-02
1.175000000000000000e+03 7.813288116455078125e+01 1.536335277557373047e+01 7.029598951339721680e-02 6.968947887420654297e+00 2.111773014068603516e+00 -4.378182888031005859e-01
1.176000000000000000e+03 7.936723327636718750e+01 1.532864570617675781e+01 3.653031960129737854e-02 7.202982425689697266e+00 2.171853780746459961e+00 -1.693825572729110718e-01
1.177000000000000000e+03 7.934941864013671875e+01 2.229059028625488281e+01 -1.921508833765983582e-02 6.506024837493896484e+00 1.946042895317077637e+00 4.594310186803340912e-03
1.178000000000000000e+03 7.802333068847656250e+01 3.184136581420898438e+01 -5.571122746914625168e-03 6.516471385955810547e+00 1.953270077705383301e+00 3.355070715770125389e-03
1.179000000000000000e+03 7.795080566406250000e+01 2.782140731811523438e+01 6.198065355420112610e-03 6.514678001403808594e+00 1.956262826919555664e+00 5.589595064520835876e-03
1.180000000000000000e+03 7.932897949218750000e+01 2.785011672973632812e+01 -9.224993176758289337e-03 6.562476634979248047e+00 1.965975522994995117e+00 9.477116167545318604e-03
1.181000000000000000e+03 7.792570495605468750e+01 2.505026245117187500e+01 1.364506967365741730e-02 6.505313396453857422e+00 1.955687522888183594e+00 1.443231571465730667e-02
1.182000000000000000e+03 7.798851776123046875e+01 2.365510749816894531e+01 -1.099613495171070099e-02 6.518892765045166016e+00 1.952368974685668945e+00 1.790539175271987915e-02
1.183000000000000000e+03 7.822377777099609375e+01 1.815810585021972656e+01 6.439308822154998779e-02 6.657335758209228516e+00 2.016518592834472656e+00 -1.694077253341674805e-01
1.184000000000000000e+03 7.820347595214843750e+01 1.677915573120117188e+01 1.259345412254333496e-01 6.771844863891601562e+00 2.069333791732788086e+00 -2.930402159690856934e-01
1.185000000000000000e+03 7.672821044921875000e+01 1.229957962036132812e+01 -4.210870862007141113e-01 7.708542823791503906e+00 2.186236619949340820e+00 -1.094750881195068359e+00
1.186000000000000000e+03 7.643112182617187500e+01 8.593389511108398438e+00 2.644334733486175537e-01 1.182600116729736328e+01 3.627130270004272461e+00 -7.654543220996856689e-02
1.187000000000000000e+03 7.949573516845703125e+01 8.404501914978027344e+00 -9.845586866140365601e-02 6.478118896484375000e+00 1.913898944854736328e+00 3.326999843120574951e-01
1.188000000000000000e+03 7.940164184570312500e+01 1.375095725059509277e+00 -4.445519745349884033e-01 1.423680019378662109e+01 4.137674331665039062e+00 -6.360991597175598145e-01
1.189000000000000000e+03 7.640556335449218750e+01 1.843171358108520508e+00 -2.876630306243896484e+00 1.029074573516845703e+01 2.224234580993652344e+00 -8.033440709114074707e-01
1.190000000000000000e+03 7.939293670654296875e+01 -1.950419044494628906e+01 -4.524415358901023865e-03 7.355245113372802734e+00 2.205216169357299805e+00 -9.982658177614212036e-02
1.191000000000000000e+03 7.811184692382812500e+01 -2.228772544860839844e+01 -1.164434179663658142e-01 7.407815456390380859e+00 2.187411546707153320e+00 4.672818258404731750e-02
1.192000000000000000e+03 7.493293762207031250e+01 -1.370501136779785156e+01 1.331255435943603516e+00 9.357607841491699219e+00 3.206658840179443359e+00 2.968201041221618652e-01
1.193000000000000000e+03 7.944410705566406250e+01 -1.396741676330566406e+01 1.028876081109046936e-01 6.227087974548339844e+00 1.898992657661437988e+00 -2.318384684622287750e-02
1.194000000000000000e+03 7.543871307373046875e+01 -7.088760852813720703e+00 -7.147961109876632690e-02 8.311826705932617188e+00 2.472104072570800781e+00 1.770709753036499023e+00
1.195000000000000000e+03 7.933131408691406250e+01 -6.980540752410888672e+00 4.556747898459434509e-02 9.836494445800781250e+00 2.964618682861328125e+00 6.176909208297729492e-01
1.196000000000000000e+03 7.477684783935546875e+01 3.840358352661132812e+01 5.211728275753557682e-04 6.329542636871337891e+00 1.899019122123718262e+00 3.680888796225190163e-03
1.197000000000000000e+03 7.445150756835937500e+01 3.663560867309570312e+01 -1.167898904532194138e-02 6.296165943145751953e+00 1.885346055030822754e+00 -1.236503198742866516e-02
1.198000000000000000e+03 7.817379760742187500e+01 1.091239643096923828e+01 -2.991203069686889648e-01 8.220402717590332031e+00 2.376384735107421875e+00 5.038539320230484009e-02
1.199000000000000000e+03 7.724869537353515625e+01 5.530941009521484375e+00 1.533155679702758789e+00 1.246263885498046875e+01 4.198738574981689453e+00 -2.691771745681762695e+00
1.200000000000000000e+03 7.824971008300781250e+01 4.197268486022949219e+00 1.040841415524482727e-01 1.058797359466552734e+01 3.207617282867431641e+00 -2.959141969680786133e+00
1.201000000000000000e+03 7.689638519287109375e+01 3.001731634140014648e+00 -1.332159399986267090e+00 1.081429672241210938e+01 2.844640970230102539e+00 -2.434871196746826172e+00
1.202000000000000000e+03 7.500749969482421875e+01 -3.226366639137268066e-01 -2.629178524017333984e+00 4.488726615905761719e+00 5.578644275665283203e-01 1.066462874412536621e+00
1.203000000000000000e+03 7.480683135986328125e+01 -3.789304971694946289e+00 -3.284272253513336182e-01 6.718017578125000000e+00 1.916877150535583496e+00 5.748199820518493652e-01
1.204000000000000000e+03 7.940061950683593750e+01 -2.799535751342773438e+00 -6.682609021663665771e-02 1.348843097686767578e+01 4.026481628417968750e+00 5.107386708259582520e-01
1.205000000000000000e+03 7.784354400634765625e+01 -5.628871440887451172e+00 5.028001219034194946e-02 9.732624053955078125e+00 2.934871196746826172e+00 1.510096073150634766e+00
1.206000000000000000e+03 7.794429016113281250e+01 -4.181982040405273438e+00 -1.468735784292221069e-01 1.027846527099609375e+01 3.039477348327636719e+00 1.434569835662841797e+00
1.207000000000000000e+03 7.480252838134765625e+01 -1.192284202575683594e+01 1.291523694992065430e+00 9.807681083679199219e+00 3.329761266708374023e+00 1.258648395538330078e+00
1.208000000000000000e+03 7.806938934326171875e+01 -9.838358879089355469e+00 2.477001845836639404e-01 8.247246742248535156e+00 2.548484086990356445e+00 1.033948898315429688e+00
1.209000000000000000e+03 7.370462036132812500e+01 -1.197930145263671875e+01 9.708470702171325684e-01 1.166966152191162109e+01 3.792152643203735352e+00 5.799045562744140625e-01
1.210000000000000000e+03 7.556932067871093750e+01 -1.143237781524658203e+01 1.092889547348022461e+00 9.110260009765625000e+00 3.060945034027099609e+00 9.305074214935302734e-01
1.211000000000000000e+03 7.708912658691406250e+01 -1.665931701660156250e+01 1.566730588674545288e-01 7.799023628234863281e+00 2.386708974838256836e+00 -3.574284315109252930e-01
1.212000000000000000e+03 7.942454528808593750e+01 -1.672669982910156250e+01 5.848980695009231567e-02 6.711935043334960938e+00 2.031127452850341797e+00 -1.446268111467361450e-01
1.213000000000000000e+03 7.818006896972656250e+01 -1.947893142700195312e+01 -1.492791175842285156e-01 7.478763580322265625e+00 2.198845386505126953e+00 -2.485112696886062622e-01
1.214000000000000000e+03 7.822072601318359375e+01 -1.808941078186035156e+01 -6.871032994240522385e-03 7.406867504119873047e+00 2.219998836517333984e+00 -3.112532198429107666e-01
1.215000000000000000e+03 5.105283355712890625e+01 -1.838630104064941406e+01 -1.152785778045654297e+00 7.702151536941528320e-01 -1.147712022066116333e-01 -1.316341757774353027e-01
1.216000000000000000e+03 5.405046081542968750e+01 -2.003822517395019531e+01 -2.878515794873237610e-02 1.141844749450683594e+00 3.339178860187530518e-01 2.112993478775024414e+00
1.217000000000000000e+03 4.323534011840820312e+01 -7.985104084014892578e+00 3.206773102283477783e-01 9.247753143310546875e+00 2.870529174804687500e+00 1.045435190200805664e+00
1.218000000000000000e+03 5.337279510498046875e+01 -7.914521694183349609e+00 5.536434054374694824e-01 3.507982492446899414e+00 1.218487739562988281e+00 -1.572240352630615234e+00
1.219000000000000000e+03 5.251302719116210938e+01 -4.957881927490234375e+00 -3.092529773712158203e+00 3.298368692398071289e+00 6.175165623426437378e-02 -3.020744919776916504e-01
1.220000000000000000e+03 4.566015625000000000e+01 -1.184203052520751953e+01 3.426295705139636993e-03 5.005556106567382812e+00 1.502694845199584961e+00 -4.318270385265350342e-01
1.221000000000000000e+03 5.596511840820312500e+01 -1.453973484039306641e+01 7.859373092651367188e-01 1.375361824035644531e+01 4.361866950988769531e+00 -1.057088732719421387e+00
1.222000000000000000e+03 6.027342987060546875e+01 -8.105824470520019531e+00 5.575104355812072754e-01 8.345935821533203125e+00 2.671033859252929688e+00 1.402548909187316895e+00
1.223000000000000000e+03 4.533893966674804688e+01 -8.600779533386230469e+00 2.745117843151092529e-01 7.665140628814697266e+00 2.381895780563354492e+00 -1.867020368576049805e+00
1.224000000000000000e+03 4.495849990844726562e+01 -1.059671688079833984e+01 -1.112160757184028625e-01 6.710102558135986328e+00 1.979665994644165039e+00 -2.993637323379516602e-01
1.225000000000000000e+03 5.675794219970703125e+01 -1.276949691772460938e+01 7.710126638412475586e-01 1.058774852752685547e+01 3.407628297805786133e+00 -3.346646726131439209e-01
1.226000000000000000e+03 4.719711685180664062e+01 -1.675515651702880859e+00 -2.253811657428741455e-01 1.174338459968566895e+00 2.846871912479400635e-01 5.748996734619140625e+00
1.227000000000000000e+03 5.734108734130859375e+01 -1.545815658569335938e+01 1.195553064346313477e+00 1.199162197113037109e+01 3.956152439117431641e+00 5.877669453620910645e-01
1.228000000000000000e+03 4.087732696533203125e+01 -9.293672561645507812e+00 1.613701581954956055e-01 8.199078559875488281e+00 2.508134603500366211e+00 -5.068797469139099121e-01
1.229000000000000000e+03 5.009483337402343750e+01 -1.544222736358642578e+01 -4.684719145298004150e-01 -1.727882176637649536e-01 -1.923780441284179688e-01 3.785380721092224121e-01
1.230000000000000000e+03 5.428321456909179688e+01 -7.271739482879638672e+00 -1.946347951889038086e-01 4.595963954925537109e+00 1.320398807525634766e+00 -1.046252131462097168e+00
1.231000000000000000e+03 5.016127777099609375e+01 -1.732184791564941406e+01 -5.912819504737854004e-01 7.280826568603515625e-01 4.104020074009895325e-02 -9.510999917984008789e-02
1.232000000000000000e+03 4.731554031372070312e+01 -1.422019767761230469e+01 2.362456172704696655e-01 2.015206098556518555e+00 6.754355430603027344e-01 -7.106227874755859375e-01
1.233000000000000000e+03 4.923600387573242188e+01 -1.629574203491210938e+01 -4.192291200160980225e-01 9.208605885505676270e-01 1.504894345998764038e-01 -3.432545363903045654e-01
1.234000000000000000e+03 4.643773651123046875e+01 -1.307622623443603516e+01 2.047613859176635742e-01 3.032602787017822266e+00 9.712092876434326172e-01 -7.290304303169250488e-01
1.235000000000000000e+03 5.508558273315429688e+01 -8.539022445678710938e+00 1.958353519439697266e-01 5.779178142547607422e+00 1.792504072189331055e+00 -1.305566191673278809e+00
1.236000000000000000e+03 5.578001403808593750e+01 -9.910066604614257812e+00 4.581076800823211670e-01 7.480216026306152344e+00 2.381497144699096680e+00 -8.521957993507385254e-01
1.237000000000000000e+03 5.005788040161132812e+01 -1.918325805664062500e+01 -1.858997195959091187e-01 1.584148526191711426e+00 4.194746315479278564e-01 -8.630342483520507812e-01
1.238000000000000000e+03 5.342246246337890625e+01 -6.082409381866455078e+00 -1.392327785491943359e+00 3.630907535552978516e+00 6.715738773345947266e-01 -8.455553054809570312e-01
1.239000000000000000e+03 2.084779548645019531e+01 5.202152252197265625e+00 5.201923370361328125e+00 4.165816307067871094e+00 2.810321807861328125e+00 6.845870018005371094e-01
1.240000000000000000e+03 1.308140039443969727e+00 -4.003474426269531250e+01 1.482983771711587906e-02 1.924396276473999023e+00 5.817677974700927734e-01 3.390988335013389587e-02
1.241000000000000000e+03 7.779167294502258301e-01 3.314780426025390625e+01 3.098108991980552673e-02 3.739034414291381836e+00 1.131004691123962402e+00 5.507246777415275574e-02
1.242000000000000000e+03 2.898470163345336914e+00 3.795817565917968750e+01 2.793490327894687653e-02 3.347768306732177734e+00 1.012710928916931152e+00 1.245710700750350952e-01
1.243000000000000000e+03 6.418671607971191406e-01 2.611153793334960938e+01 -4.469835385680198669e-02 4.325338840484619141e+00 1.284192204475402832e+00 4.464593157172203064e-02
1.244000000000000000e+03 1.991320490837097168e+00 2.862069129943847656e+01 2.329007536172866821e-02 3.863363981246948242e+00 1.165996193885803223e+00 1.482780426740646362e-01
1.245000000000000000e+03 5.854384303092956543e-01 -3.603012847900390625e+01 -5.567909684032201767e-03 1.810529708862304688e+00 5.414885282516479492e-01 1.444598753005266190e-02
1.246000000000000000e+03 2.355382680892944336e+00 -3.342110443115234375e+01 -3.568026470020413399e-03 1.831835985183715820e+00 5.484803915023803711e-01 7.251047343015670776e-02
1.247000000000000000e+03 3.273665904998779297e+00 2.832470130920410156e+01 -5.043284595012664795e-02 3.651206254959106445e+00 1.080232024192810059e+00 2.090701460838317871e-01
1.248000000000000000e+03 3.178741216659545898e+00 2.569561576843261719e+01 -1.107941418886184692e-01 3.760106325149536133e+00 1.094793677330017090e+00 1.298769414424896240e-01
1.249000000000000000e+03 2.208972215652465820e+00 3.140310287475585938e+01 3.533440083265304565e-02 3.660567045211791992e+00 1.108770489692687988e+00 1.579234153032302856e-01
1.250000000000000000e+03 2.342990875244140625e+00 3.279505538940429688e+01 -1.503670960664749146e-02 3.590442180633544922e+00 1.072621703147888184e+00 1.528399139642715454e-01
1.251000000000000000e+03 5.276639938354492188e+00 3.748633575439453125e+01 3.272483870387077332e-02 3.296897649765014648e+00 9.988867640495300293e-01 1.266506314277648926e-01
1.252000000000000000e+03 3.775144338607788086e+00 3.902411651611328125e+01 3.279697895050048828e-02 3.269536256790161133e+00 9.907000064849853516e-01 1.206035465002059937e-01
1.253000000000000000e+03 2.126809835433959961e+00 -2.918815803527832031e+01 -2.417547069489955902e-02 1.671752214431762695e+00 4.942730069160461426e-01 1.120189204812049866e-01
1.254000000000000000e+03 2.112455129623413086e+00 -2.631158447265625000e+01 -2.419983223080635071e-02 1.518789887428283691e+00 4.483770430088043213e-01 1.398043483495712280e-01
1.255000000000000000e+03 1.828221559524536133e+00 -1.641097450256347656e+01 -1.426414237357676029e-03 6.160008311271667480e-01 1.843723207712173462e-01 2.454262822866439819e-01
1.256000000000000000e+03 4.936608970165252686e-01 7.773472309112548828e+00 1.225446015596389771e-01 -3.371308088302612305e+00 -9.746289849281311035e-01 -2.591626346111297607e-01
1.257000000000000000e+03 1.930271148681640625e+00 1.740614891052246094e+01 -1.107035651803016663e-01 3.377416372299194336e+00 9.800138473510742188e-01 -6.280679702758789062e-01
1.258000000000000000e+03 6.323428153991699219e-01 1.479574871063232422e+01 -1.472899168729782104e-01 2.302374362945556641e+00 6.465253829956054688e-01 -3.908085823059082031e-01
1.259000000000000000e+03 2.220430850982666016e+00 -3.668592071533203125e+01 -7.126772776246070862e-03 1.889625310897827148e+00 5.647495985031127930e-01 5.518667399883270264e-02
1.260000000000000000e+03 6.464316844940185547e-01 1.905267715454101562e+01 4.856829345226287842e-02 4.048768997192382812e+00 1.229201197624206543e+00 -1.573688238859176636e-01
1.261000000000000000e+03 1.947933435440063477e+00 2.027716827392578125e+01 -6.240282952785491943e-02 3.892192125320434570e+00 1.148936748504638672e+00 -2.357699275016784668e-01
1.262000000000000000e+03 4.957845211029052734e+00 -4.007299423217773438e+01 -3.965242579579353333e-02 2.101840019226074219e+00 6.186562776565551758e-01 1.999350450932979584e-02
1.263000000000000000e+03 3.345127344131469727e+00 -3.898972320556640625e+01 -5.701095331460237503e-03 1.946873307228088379e+00 5.823516845703125000e-01 4.337650164961814880e-02
1.264000000000000000e+03 3.702797412872314453e+00 -3.593680953979492188e+01 -5.932934582233428955e-03 1.986908555030822754e+00 5.942927002906799316e-01 5.232661217451095581e-02
1.265000000000000000e+03 1.651895761489868164e+00 -3.546307754516601562e+01 7.192200049757957458e-03 1.841485857963562012e+00 5.546033978462219238e-01 4.926241189241409302e-02
1.266000000000000000e+03 2.327191352844238281e+00 -3.201797103881835938e+01 -2.534127980470657349e-02 1.789336919784545898e+00 5.291987061500549316e-01 7.882611453533172607e-02
1.267000000000000000e+03 2.130885839462280273e+00 -2.776373291015625000e+01 -4.441049415618181229e-03 1.596232414245605469e+00 4.775373935699462891e-01 1.230759844183921814e-01
1.268000000000000000e+03 3.531801700592041016e+00 -2.632484436035156250e+01 -2.415014430880546570e-02 1.682015061378479004e+00 4.973594844341278076e-01 2.160346806049346924e-01
1.269000000000000000e+03 2.004102468490600586e+00 -2.202094268798828125e+01 -7.152781821787357330e-03 1.204536914825439453e+00 3.592152595520019531e-01 1.888954490423202515e-01
1.270000000000000000e+03 2.087618350982666016e+00 -2.486474418640136719e+01 -5.810850299894809723e-03 1.423945546150207520e+00 4.254404306411743164e-01 1.578350961208343506e-01
1.271000000000000000e+03 3.180274963378906250e+00 -1.917763900756835938e+01 -4.599458351731300354e-02 1.198547124862670898e+00 3.457657396793365479e-01 3.335230052471160889e-01
1.272000000000000000e+03 6.361398696899414062e-01 -1.918737030029296875e+01 -1.058896910399198532e-02 6.821827888488769531e-01 2.014781385660171509e-01 7.925157994031906128e-02
1.273000000000000000e+03 1.907440185546875000e+00 -1.920115661621093750e+01 -5.972239188849925995e-03 9.328292012214660645e-01 2.780570983886718750e-01 2.194414138793945312e-01
1.274000000000000000e+03 1.740963459014892578e+00 -1.226384162902832031e+01 5.225012078881263733e-03 9.384486824274063110e-02 2.972096391022205353e-02 2.338527590036392212e-01
1.275000000000000000e+03 5.781152248382568359e-01 -1.215781974792480469e+01 9.550486691296100616e-03 -3.325832784175872803e-01 -9.690983593463897705e-02 8.385109901428222656e-02
1.276000000000000000e+03 2.008185863494873047e+00 -6.843140125274658203e+00 9.819217026233673096e-02 -2.740061581134796143e-01 -5.274419486522674561e-02 -1.704260893166065216e-02
1.277000000000000000e+03 2.274999618530273438e+00 -3.200781106948852539e+00 1.634146273136138916e-02 -1.716822683811187744e-01 -4.660224169492721558e-02 -2.843925654888153076e-01
1.278000000000000000e+03 1.408447027206420898e+00 -3.418099880218505859e+00 3.599329385906457901e-03 -3.035696446895599365e-01 -8.999109268188476562e-02 -2.084659636020660400e-01
1.279000000000000000e+03 6.329072713851928711e-01 -5.012861728668212891e+00 7.452946621924638748e-03 -5.995821356773376465e-01 -1.776387542486190796e-01 -6.677449494600296021e-02
1.280000000000000000e+03 4.204307198524475098e-01 4.975527763366699219e+00 8.133937418460845947e-02 -3.400236845016479492e+00 -9.956692457199096680e-01 2.248053252696990967e-01
1.281000000000000000e+03 2.923949480056762695e+00 4.443366050720214844e+00 1.048240900039672852e+00 -1.297838807106018066e+00 -7.487936317920684814e-02 1.268640160560607910e+00
1.282000000000000000e+03 1.668647170066833496e+00 1.026599979400634766e+01 4.400207474827766418e-02 -2.099720239639282227e-01 -4.979098588228225708e-02 -1.386327981948852539e+00
1.283000000000000000e+03 5.502397418022155762e-01 1.056145381927490234e+01 1.278309226036071777e-01 -1.174215912818908691e+00 -3.139154911041259766e-01 -5.597489476203918457e-01
1.284000000000000000e+03 1.875666379928588867e+00 1.308508396148681641e+01 -2.168461531400680542e-01 1.650571346282958984e+00 4.301175475120544434e-01 -1.329304456710815430e+00
1.285000000000000000e+03 1.907061219215393066e+00 1.453441524505615234e+01 -1.158973351120948792e-01 2.370872020721435547e+00 6.764923930168151855e-01 -1.151617646217346191e+00
1.286000000000000000e+03 6.424339413642883301e-01 1.763302993774414062e+01 -1.333058625459671021e-01 3.666413545608520508e+00 1.059932231903076172e+00 -2.164686620235443115e-01
1.287000000000000000e+03 1.923832416534423828e+00 2.448797988891601562e+01 -8.969645947217941284e-02 4.068256855010986328e+00 1.193568110466003418e+00 5.056513100862503052e-02
1.288000000000000000e+03 2.972230911254882812e+01 1.538541507720947266e+01 1.820115327835083008e+00 1.112267017364501953e+00 8.797146677970886230e-01 1.985508084297180176e+00
1.289000000000000000e+03 3.956629180908203125e+01 1.065568828582763672e+01 1.752311348915100098e+00 6.797621250152587891e+00 2.564979791641235352e+00 1.583613872528076172e+00
1.290000000000000000e+03 3.710870742797851562e+01 1.142576026916503906e+01 3.728674888610839844e+00 2.333916282653808594e+01 8.120350837707519531e+00 2.882365465164184570e+00
1.291000000000000000e+03 2.919433975219726562e+01 1.338283443450927734e+01 6.981438994407653809e-01 1.738777309656143188e-01 2.616064846515655518e-01 9.628134220838546753e-02
1.292000000000000000e+03 3.226231002807617188e+01 1.386689758300781250e+01 -2.767238855361938477e+00 -1.060247063636779785e+00 -1.148245811462402344e+00 -1.339054107666015625e+00
1.293000000000000000e+03 2.724320030212402344e+01 6.222477555274963379e-01 3.344306647777557373e-01 4.723065197467803955e-01 2.420211434364318848e-01 -3.905666470527648926e-01
1.294000000000000000e+03 2.221038436889648438e+01 6.555980682373046875e+00 2.299840688705444336e+00 9.079442977905273438e+00 3.413784980773925781e+00 1.399006843566894531e+00
1.295000000000000000e+03 2.186689186096191406e+01 9.362228393554687500e+00 -8.895611763000488281e-01 5.802003860473632812e+00 1.473732829093933105e+00 2.411038875579833984e+00
1.296000000000000000e+03 3.055527496337890625e+01 3.269627332687377930e+00 -2.939244270324707031e+00 2.020344495773315430e+00 -2.756699025630950928e-01 1.683128118515014648e+00
1.297000000000000000e+03 3.422065353393554688e+01 7.671319007873535156e+00 5.853073000907897949e-01 2.559701204299926758e+00 9.435025453567504883e-01 1.452827811241149902e+00
1.298000000000000000e+03 3.686354064941406250e+01 7.374280452728271484e+00 -2.256591081619262695e+00 1.156258487701416016e+01 2.791798114776611328e+00 1.406346917152404785e+00
1.299000000000000000e+03 3.790845108032226562e+01 5.695507526397705078e+00 -1.122272729873657227e+00 1.135635852813720703e+01 3.070225715637207031e+00 1.989750385284423828e+00
1.300000000000000000e+03 2.877975082397460938e+01 1.118120765686035156e+01 -2.557035923004150391e+00 -2.324583530426025391e+00 -1.464485883712768555e+00 -2.042011022567749023e+00
1.301000000000000000e+03 3.323124694824218750e+01 4.207432270050048828e+00 8.944175839424133301e-01 2.812313795089721680e+00 1.112019419670104980e+00 1.889815211296081543e+00
1.302000000000000000e+03 3.202070617675781250e+01 6.041285991668701172e+00 -7.983466386795043945e-01 6.504213903099298477e-03 -2.375527173280715942e-01 -4.889235198497772217e-01
1.303000000000000000e+03 3.734157562255859375e+01 4.485729694366455078e+00 1.818106323480606079e-01 1.386654376983642578e+01 4.214506149291992188e+00 1.350402355194091797e+00
1.304000000000000000e+03 2.796935462951660156e+01 1.284852981567382812e+01 7.847813963890075684e-01 1.838130712509155273e+00 7.868736386299133301e-01 9.812440872192382812e-01
1.305000000000000000e+03 3.094530487060546875e+01 5.154405117034912109e+00 -2.051130056381225586e+00 -5.240942835807800293e-01 -7.725673317909240723e-01 -6.944040656089782715e-01
1.306000000000000000e+03 3.149087333679199219e+01 2.354801893234252930e+00 5.549227595329284668e-01 2.582029342651367188e+00 9.410856366157531738e-01 4.414836883544921875e+00
1.307000000000000000e+03 2.627239036560058594e+01 1.011876678466796875e+01 -1.945387959480285645e+00 5.487504482269287109e+00 1.062634944915771484e+00 7.126326560974121094e-01
1.308000000000000000e+03 3.174523925781250000e+01 -3.382537961006164551e-01 4.291786193847656250e+00 1.462096333503723145e+00 1.726164817810058594e+00 6.153371810913085938e+00
1.309000000000000000e+03 3.304836654663085938e+01 6.000444293022155762e-01 6.190505027770996094e+00 -1.745165705680847168e+00 1.333601713180541992e+00 6.014487743377685547e+00
1.310000000000000000e+03 1.223373317718505859e+01 -1.717236995697021484e+00 2.131928205490112305e+00 9.029582023620605469e+00 3.348453044891357422e+00 5.046094417572021484e+00
1.311000000000000000e+03 1.116843128204345703e+01 -1.721516013145446777e+00 2.180019617080688477e+00 2.389067411422729492e+00 1.370726108551025391e+00 2.385395050048828125e+00
1.312000000000000000e+03 1.059847640991210938e+01 -1.636626243591308594e+00 1.536309123039245605e+00 1.168884277343750000e+00 8.115580081939697266e-01 1.409413456916809082e+00
1.313000000000000000e+03 1.161693096160888672e+01 -1.831997394561767578e+00 2.482987642288208008e+00 4.562159061431884766e+00 2.113543987274169922e+00 3.597175359725952148e+00
1.314000000000000000e+03 1.137203121185302734e+01 -1.786082744598388672e+00 2.450963973999023438e+00 3.200876951217651367e+00 1.695552229881286621e+00 2.976239204406738281e+00
1.315000000000000000e+03 1.115666294097900391e+01 -2.197388648986816406e+00 2.098400115966796875e+00 3.209580183029174805e+00 1.592394113540649414e+00 2.673349618911743164e+00
1.316000000000000000e+03 1.094458198547363281e+01 -2.004615545272827148e+00 2.027619361877441406e+00 2.244518518447875977e+00 1.281641364097595215e+00 2.119315385818481445e+00
1.317000000000000000e+03 1.079108810424804688e+01 1.656918168067932129e+00 7.756906747817993164e-01 3.220000743865966797e+00 1.198707461357116699e+00 -6.442298889160156250e+00
1.318000000000000000e+03 1.193633651733398438e+01 1.560283303260803223e+00 2.626865148544311523e+00 7.005020141601562500e+00 2.889565706253051758e+00 -9.355514526367187500e+00
1.319000000000000000e+03 1.175112915039062500e+01 1.546476483345031738e+00 2.482973575592041016e+00 5.583306789398193359e+00 2.419884204864501953e+00 -9.383608818054199219e+00
1.320000000000000000e+03 1.069364833831787109e+01 2.109309196472167969e+00 1.343113303184509277e+00 4.740812301635742188e+00 1.825177669525146484e+00 -7.235548973083496094e+00
1.321000000000000000e+03 1.176174354553222656e+01 2.420032501220703125e+00 4.748881816864013672e+00 6.248598098754882812e+00 3.299243927001953125e+00 -1.066576385498046875e+01
1.322000000000000000e+03 1.197488403320312500e+01 2.031157970428466797e+00 2.695472717285156250e+00 7.557553291320800781e+00 3.075907707214355469e+00 -9.904254913330078125e+00
1.323000000000000000e+03 1.220407295227050781e+01 2.620726346969604492e+00 4.438015937805175781e+00 6.886745452880859375e+00 3.397428512573242188e+00 -8.821760177612304688e+00
1.324000000000000000e+03 1.268010330200195312e+01 -2.318602323532104492e+00 3.694385588169097900e-01 1.144626426696777344e+01 3.544710874557495117e+00 2.870174646377563477e+00
1.325000000000000000e+03 1.320759296417236328e+01 -2.286176919937133789e+00 -3.884401619434356689e-01 1.477180862426757812e+01 4.315010547637939453e+00 6.702926158905029297e-01
1.326000000000000000e+03 1.269160175323486328e+01 2.565468549728393555e+00 2.977250337600708008e+00 8.970973014831542969e+00 3.584466934204101562e+00 -8.346934318542480469e+00
1.327000000000000000e+03 1.434719562530517578e+01 -1.162510871887207031e+00 4.051880359649658203e+00 1.563118267059326172e+01 5.904919147491455078e+00 -7.853102684020996094e+00
1.328000000000000000e+03 1.388302707672119141e+01 -1.594730377197265625e+00 6.322869062423706055e-01 1.774931907653808594e+01 5.514482021331787109e+00 -4.510838508605957031e+00
1.329000000000000000e+03 1.287707996368408203e+01 3.208614826202392578e+00 9.171139717102050781e+00 3.030762434005737305e+00 3.660570859909057617e+00 -8.463893890380859375e+00
1.330000000000000000e+03 1.509558963775634766e+01 -1.415026038885116577e-01 3.151500940322875977e+00 3.785469055175781250e+00 2.081090927124023438e+00 -8.601559996604919434e-01
1.331000000000000000e+03 1.459521865844726562e+01 1.130529046058654785e+00 2.052834033966064453e+00 1.589620113372802734e+01 5.384710311889648438e+00 6.738214015960693359e+00
1.332000000000000000e+03 1.369962596893310547e+01 -1.707669615745544434e+00 -8.515334129333496094e-02 1.877111434936523438e+01 5.605788230895996094e+00 -3.347803592681884766e+00
1.333000000000000000e+03 1.442653274536132812e+01 -1.660077929496765137e+00 2.527047872543334961e+00 1.489870929718017578e+01 5.227727413177490234e+00 -6.746982574462890625e+00
1.334000000000000000e+03 8.261089324951171875e+00 2.560700416564941406e+00 1.591936826705932617e+00 2.104534864425659180e+00 1.108941555023193359e+00 5.200979709625244141e-01
1.335000000000000000e+03 5.351292133331298828e+00 3.828589439392089844e+00 2.730429172515869141e+00 1.412058323621749878e-01 8.614904880523681641e-01 1.499107480049133301e+00
1.336000000000000000e+03 3.580229043960571289e+00 3.141353368759155273e+00 4.377731680870056152e-01 -8.920878171920776367e-01 -1.362943947315216064e-01 2.027080059051513672e+00
1.337000000000000000e+03 4.379328727722167969e+00 3.028101682662963867e+00 6.065136194229125977e-01 -3.728947937488555908e-01 7.008565217256546021e-02 2.097545623779296875e+00
1.338000000000000000e+03 5.186327934265136719e+00 2.928429841995239258e+00 6.774376034736633301e-01 -3.981513082981109619e-01 8.378589153289794922e-02 2.355517387390136719e+00
1.339000000000000000e+03 5.989770412445068359e+00 2.838756322860717773e+00 8.993993997573852539e-01 3.612369596958160400e-01 3.781909048557281494e-01 2.079000711441040039e+00
1.340000000000000000e+03 7.728925704956054688e+00 3.417013168334960938e+00 4.282948017120361328e+00 1.805689573287963867e+00 1.826591253280639648e+00 6.924089789390563965e-01
1.341000000000000000e+03 8.719678878784179688e+00 3.811351060867309570e+00 7.196052551269531250e+00 5.674928665161132812e+00 3.861294269561767578e+00 -1.882396697998046875e+00
1.342000000000000000e+03 1.986428737640380859e+00 3.388106822967529297e+00 1.527402400970458984e-01 -1.394612431526184082e+00 -3.725616335868835449e-01 1.473166823387145996e+00
1.343000000000000000e+03 4.908979892730712891e+00 -3.635216951370239258e+00 2.876574099063873291e-01 7.256737351417541504e-02 1.080674305558204651e-01 -2.043612152338027954e-01
1.344000000000000000e+03 4.315340042114257812e+00 -7.818501472473144531e+00 2.909024357795715332e-01 4.738572537899017334e-01 2.294279187917709351e-01 2.810158729553222656e-01
1.345000000000000000e+03 6.444266796112060547e+00 -3.402851581573486328e+00 4.830640852451324463e-01 2.023155242204666138e-01 2.056138813495635986e-01 -4.115267843008041382e-02
1.346000000000000000e+03 7.199260234832763672e+00 -3.327567815780639648e+00 6.328370571136474609e-01 3.177773654460906982e-01 2.851843237876892090e-01 1.153833493590354919e-01
1.347000000000000000e+03 4.737565040588378906e+00 -2.805224180221557617e+00 4.500908032059669495e-02 1.243451423943042755e-02 1.723307743668556213e-02 -3.058444857597351074e-01
1.348000000000000000e+03 5.682940006256103516e+00 -3.497845172882080078e+00 3.594353497028350830e-01 1.161828786134719849e-01 1.426854580640792847e-01 -1.459058672189712524e-01
1.349000000000000000e+03 1.732815742492675781e+00 -4.703007221221923828e+00 5.854969471693038940e-02 -3.274601101875305176e-01 -8.067312091588973999e-02 -1.889078617095947266e-01
1.350000000000000000e+03 3.939813673496246338e-01 3.582530021667480469e+00 3.719895612448453903e-03 -2.331311225891113281e+00 -6.982774138450622559e-01 3.845597505569458008e-01
1.351000000000000000e+03 7.279749298095703125e+01 -6.536795496940612793e-01 -1.297682762145996094e+00 1.797496080398559570e+00 1.499440073966979980e-01 -2.913835763931274414e+00
1.352000000000000000e+03 2.712016677856445312e+01 1.664078140258789062e+01 -3.819710612297058105e-01 6.207803249359130859e+00 1.747749686241149902e+00 4.294002056121826172e+00
1.353000000000000000e+03 2.755126190185546875e+01 1.396169662475585938e+01 3.060147523880004883e+00 4.725381374359130859e+00 2.335658550262451172e+00 1.956458568572998047e+00
1.354000000000000000e+03 1.562109184265136719e+01 3.695539951324462891e+00 1.453052902221679688e+01 1.145937633514404297e+01 7.796971797943115234e+00 6.463948249816894531e+00
1.355000000000000000e+03 2.637057113647460938e+01 -1.056061363220214844e+01 1.290280699729919434e+00 7.709643840789794922e+00 2.699977397918701172e+00 -3.761616349220275879e-01
1.356000000000000000e+03 2.979121589660644531e+01 -9.813742637634277344e+00 1.127519130706787109e+00 4.450821399688720703e+00 1.673502087593078613e+00 -9.992430210113525391e-01
1.357000000000000000e+03 4.759921646118164062e+01 -1.562262326478958130e-02 -5.013180971145629883e-01 2.314610004425048828e+00 5.439876317977905273e-01 4.421584606170654297e+00
1.358000000000000000e+03 7.337722778320312500e+01 -1.624885940551757812e+01 7.874968647956848145e-02 1.006057357788085938e+01 3.041796922683715820e+00 3.425399363040924072e-01
1.359000000000000000e+03 4.146064758300781250e+01 -1.740158081054687500e+01 -3.600342571735382080e-01 8.763757705688476562e+00 2.521116971969604492e+00 9.327021241188049316e-02
1.360000000000000000e+03 4.431475067138671875e+01 -1.452881813049316406e+01 8.193030953407287598e-01 6.229555130004882812e+00 2.114657402038574219e+00 -1.049027919769287109e+00
1.361000000000000000e+03 6.698178863525390625e+01 1.348711299896240234e+01 1.072485208511352539e+00 1.152315998077392578e+01 3.778693437576293945e+00 1.589005351066589355e+00
1.362000000000000000e+03 5.190062332153320312e+01 1.572147655487060547e+01 5.060027241706848145e-01 1.080520248413085938e+01 3.393361568450927734e+00 1.042336583137512207e+00
1.363000000000000000e+03 5.434082794189453125e+01 3.673733472824096680e-01 -4.345769405364990234e+00 1.167187786102294922e+01 2.197832584381103516e+00 -2.904954671859741211e+00
1.364000000000000000e+03 3.615341949462890625e+01 6.497604250907897949e-01 3.626904010772705078e+00 6.130983829498291016e+00 2.927366256713867188e+00 1.537314534187316895e+00
1.365000000000000000e+03 5.250823211669921875e+01 2.200744152069091797e+00 3.077711343765258789e+00 1.106167411804199219e+01 4.241815567016601562e+00 4.567481279373168945e-01
1.366000000000000000e+03 5.067314529418945312e+01 1.721355819702148438e+01 -1.039688587188720703e+00 7.837361812591552734e+00 2.039301872253417969e+00 -1.011584401130676270e+00
1.367000000000000000e+03 4.629295730590820312e+01 1.682351493835449219e+01 8.238943219184875488e-01 1.066029071807861328e+00 5.669770240783691406e-01 4.753982126712799072e-01
1.368000000000000000e+03 3.678012847900390625e+01 -2.444376468658447266e+00 -4.971053600311279297e+00 5.890130043029785156e+00 2.757228612899780273e-01 3.194825351238250732e-01
1.369000000000000000e+03 3.868850708007812500e+01 -5.743530750274658203e+00 4.277295768260955811e-01 3.041986227035522461e+00 1.040914773941040039e+00 -1.640102505683898926e+00
1.370000000000000000e+03 4.363229370117187500e+01 -6.486058235168457031e-01 -4.620215415954589844e+00 3.751328706741333008e+00 -2.606660127639770508e-01 9.872643351554870605e-01
1.371000000000000000e+03 4.492555618286132812e+01 -3.049976348876953125e+00 2.035820722579956055e+00 1.068244266510009766e+01 3.815479040145874023e+00 3.710862636566162109e+00
1.372000000000000000e+03 5.250353622436523438e+01 6.119521617889404297e+00 -3.822581171989440918e-01 1.276863002777099609e+01 3.715911626815795898e+00 -1.240065336227416992e+00
1.373000000000000000e+03 5.084979248046875000e+01 6.528994083404541016e+00 -4.515946209430694580e-01 1.009787368774414062e+01 2.893883705139160156e+00 -7.596396803855895996e-01
1.374000000000000000e+03 5.434875488281250000e+01 7.834087371826171875e+00 -1.304477334022521973e+00 1.001249217987060547e+01 2.612404584884643555e+00 3.274341821670532227e-01
1.375000000000000000e+03 1.012949275970458984e+01 2.348785400390625000e+00 5.146942138671875000e-01 5.453225135803222656e+00 1.790375828742980957e+00 -6.447661399841308594e+00
1.376000000000000000e+03 7.218697357177734375e+01 -1.780658531188964844e+01 -1.707982540130615234e+00 7.288331985473632812e+00 1.674104809761047363e+00 2.032891750335693359e+00
1.377000000000000000e+03 6.807378387451171875e+01 -1.764395523071289062e+01 3.960298001766204834e-01 1.408554315567016602e+00 5.413752198219299316e-01 1.641588658094406128e-02
1.378000000000000000e+03 6.973365783691406250e+01 -1.835140800476074219e+01 1.070312261581420898e+00 3.243656873703002930e+00 1.294190764427185059e+00 2.421250581741333008e+00
1.379000000000000000e+03 5.838097381591796875e+01 1.462800025939941406e+01 6.300149559974670410e-01 1.538428664207458496e+00 6.505330801010131836e-01 1.301515221595764160e+00
1.380000000000000000e+03 5.808760452270507812e+01 1.360230064392089844e+01 -1.586159616708755493e-01 1.730900645256042480e+00 4.716854095458984375e-01 1.089015245437622070e+00
1.381000000000000000e+03 6.505017852783203125e+01 -1.519333243370056152e+00 -4.590902805328369141e+00 1.795683622360229492e+00 -8.385658264160156250e-01 5.021274566650390625e+00
1.382000000000000000e+03 6.456312561035156250e+01 3.481545925140380859e+00 -9.428940415382385254e-01 5.258124828338623047e+00 1.294569253921508789e+00 1.853973627090454102e+00
1.383000000000000000e+03 6.414234161376953125e+01 -3.258483409881591797e-01 -2.986311197280883789e+00 6.083668708801269531e+00 9.292072057723999023e-01 5.227277755737304688e+00
1.384000000000000000e+03 6.206020355224609375e+01 -1.472150087356567383e+00 -2.152155876159667969e+00 7.085607051849365234e+00 1.480035424232482910e+00 1.319669961929321289e+00
1.385000000000000000e+03 3.858724594116210938e+01 6.784626483917236328e+00 -1.573825836181640625e+00 1.023838615417480469e+01 2.599368095397949219e+00 1.089248776435852051e+00
1.386000000000000000e+03 3.919293594360351562e+01 7.799879074096679688e+00 -7.797820568084716797e-01 7.959855556488037109e+00 2.154021978378295898e+00 6.743777990341186523e-01
1.387000000000000000e+03 1.946889495849609375e+01 1.892204666137695312e+01 -2.309933185577392578e+00 -4.252189304679632187e-03 -6.942556500434875488e-01 -2.645020782947540283e-01
1.388000000000000000e+03 7.027342987060546875e+01 -1.745081096887588501e-01 -2.707836627960205078e+00 6.358145713806152344e+00 1.095092773437500000e+00 -3.548644304275512695e+00
1.389000000000000000e+03 6.879236602783203125e+01 -3.697540283203125000e+00 -3.403412580490112305e+00 2.358142614364624023e+00 -3.135809898376464844e-01 1.292008757591247559e-01
1.390000000000000000e+03 1.502100372314453125e+01 1.553933906555175781e+01 -2.493352174758911133e+00 8.072038888931274414e-01 -5.058444738388061523e-01 -2.403982579708099365e-01
1.391000000000000000e+03 3.017801284790039062e+01 -7.084203243255615234e+00 3.165949285030364990e-01 4.180590152740478516e+00 1.349155545234680176e+00 -4.377806484699249268e-01
1.392000000000000000e+03 5.819893646240234375e+01 -1.767242622375488281e+01 1.222166299819946289e+00 8.892965316772460938e+00 3.034539461135864258e+00 -3.427688181400299072e-01
1.393000000000000000e+03 3.161691474914550781e+01 4.221151351928710938e+00 -8.906307220458984375e-01 1.253662705421447754e+00 1.089095845818519592e-01 1.117009520530700684e+00
1.394000000000000000e+03 3.436961364746093750e+01 1.946190237998962402e+00 5.022869110107421875e+00 2.139026403427124023e+00 2.148568630218505859e+00 2.875808477401733398e+00
1.395000000000000000e+03 7.284510803222656250e+01 -7.228002071380615234e+00 -2.083931267261505127e-01 7.798955440521240234e+00 2.277168750762939453e+00 5.185401439666748047e-01
1.396000000000000000e+03 7.094029235839843750e+01 -5.356993675231933594e+00 -8.479855656623840332e-01 4.258947372436523438e+00 1.023288488388061523e+00 -1.023438215255737305e+00
1.397000000000000000e+03 4.198137664794921875e+01 1.413639545440673828e+01 1.385354995727539062e+00 2.940467357635498047e+00 1.297746658325195312e+00 2.344508886337280273e+00
1.398000000000000000e+03 1.741062927246093750e+01 6.249792098999023438e+00 -1.029847383499145508e+00 -1.585854589939117432e-01 -3.565298616886138916e-01 1.087493181228637695e+00
1.399000000000000000e+03 1.789786338806152344e+01 -7.375385761260986328e+00 1.061843276023864746e+00 4.258344650268554688e+00 1.596056342124938965e+00 -2.219694375991821289e+00
1.400000000000000000e+03 2.160737419128417969e+01 3.411755561828613281e+00 6.175494194030761719e+00 5.846998691558837891e+00 3.606747865676879883e+00 5.251085162162780762e-01
1.401000000000000000e+03 1.859826850891113281e+01 -8.104947090148925781e+00 9.131019711494445801e-01 3.722144603729248047e+00 1.390573978424072266e+00 -1.926487803459167480e+00
1.402000000000000000e+03 4.062625503540039062e+01 1.011370754241943359e+01 9.264195561408996582e-01 3.027472257614135742e+00 1.186167597770690918e+00 5.050482749938964844e-01
1.403000000000000000e+03 3.088466262817382812e+01 -1.361183261871337891e+01 -6.044829264283180237e-02 3.414616823196411133e+00 1.006250500679016113e+00 -1.426054239273071289e+00
1.404000000000000000e+03 7.572225189208984375e+01 -2.077081871032714844e+01 -3.623827695846557617e-01 7.589906215667724609e+00 2.168256998062133789e+00 2.727074623107910156e-01
1.405000000000000000e+03 7.799730682373046875e+01 -2.784864807128906250e+01 -9.284039027988910675e-03 6.972255229949951172e+00 2.088891506195068359e+00 1.609353274106979370e-01
1.406000000000000000e+03 7.517395782470703125e+01 -3.761262893676757812e+01 2.031344361603260040e-02 6.406452178955078125e+00 1.928029775619506836e+00 1.281769666820764542e-02
1.407000000000000000e+03 7.490545654296875000e+01 -3.197798919677734375e+01 1.139023527503013611e-01 6.416133403778076172e+00 1.959010720252990723e+00 1.853315234184265137e-01
1.408000000000000000e+03 7.714968109130859375e+01 -3.613058090209960938e+01 3.244559746235609055e-03 6.562177181243896484e+00 1.969626426696777344e+00 6.741029769182205200e-02
1.409000000000000000e+03 7.602161407470703125e+01 1.702787017822265625e+01 3.565709888935089111e-01 6.434767723083496094e+00 2.037401676177978516e+00 -3.697528541088104248e-01
1.410000000000000000e+03 7.708760833740234375e+01 1.687037849426269531e+01 2.134978324174880981e-01 6.622448921203613281e+00 2.050784111022949219e+00 -3.730328381061553955e-01
1.411000000000000000e+03 7.764616394042968750e+01 3.565577316284179688e+01 -6.439005024731159210e-03 6.494034290313720703e+00 1.946278572082519531e+00 -6.197929847985506058e-03
1.412000000000000000e+03 7.650076293945312500e+01 3.286447143554687500e+01 -5.602525547146797180e-03 6.442989826202392578e+00 1.931216239929199219e+00 1.760921208187937737e-03
1.413000000000000000e+03 7.687356567382812500e+01 -2.225121116638183594e+01 -1.412193924188613892e-01 7.339986324310302734e+00 2.159630060195922852e+00 1.779582798480987549e-01
1.414000000000000000e+03 7.659925842285156250e+01 -2.917613220214843750e+01 1.587940379977226257e-02 6.705304622650146484e+00 2.016355276107788086e+00 2.039853036403656006e-01
1.415000000000000000e+03 7.666117858886718750e+01 -2.779912948608398438e+01 8.739998191595077515e-02 6.773889064788818359e+00 2.058386802673339844e+00 2.419783920049667358e-01
1.416000000000000000e+03 7.804380035400390625e+01 -3.474223709106445312e+01 2.665566466748714447e-02 6.669001579284667969e+00 2.008697271347045898e+00 5.104143172502517700e-02
1.417000000000000000e+03 7.671804809570312500e+01 -2.642875289916992188e+01 -2.608224563300609589e-02 6.874608516693115234e+00 2.054557800292968750e+00 2.710818052291870117e-01
1.418000000000000000e+03 7.682387542724609375e+01 -2.365897369384765625e+01 -1.404087841510772705e-01 7.122582435607910156e+00 2.094652175903320312e+00 2.624115645885467529e-01
1.419000000000000000e+03 7.558425903320312500e+01 -2.360402488708496094e+01 -1.704499311745166779e-02 6.934457302093505859e+00 2.075223684310913086e+00 3.965563178062438965e-01
1.420000000000000000e+03 7.641780853271484375e+01 -3.204442977905273438e+01 2.977312915027141571e-02 6.573103904724121094e+00 1.980863094329833984e+00 1.314511895179748535e-01
1.421000000000000000e+03 7.792918395996093750e+01 -3.342120361328125000e+01 -1.651634578593075275e-03 6.694280147552490234e+00 2.007788419723510742e+00 8.069765567779541016e-02
1.422000000000000000e+03 7.667111206054687500e+01 -3.490796661376953125e+01 1.640017889440059662e-02 6.563161373138427734e+00 1.973868489265441895e+00 8.719472587108612061e-02
1.423000000000000000e+03 7.496566009521484375e+01 -4.028786468505859375e+01 3.252533823251724243e-02 6.368325233459472656e+00 1.920255184173583984e+00 5.783938337117433548e-03
1.424000000000000000e+03 7.805588531494140625e+01 2.225914955139160156e+01 3.342612087726593018e-02 6.513578414916992188e+00 1.964101433753967285e+00 3.744359361007809639e-03
1.425000000000000000e+03 7.688244628906250000e+01 2.078495407104492188e+01 8.697554469108581543e-02 6.518138408660888672e+00 1.981534123420715332e+00 -5.089453607797622681e-02
1.426000000000000000e+03 7.532577514648437500e+01 2.327361488342285156e+01 3.004065528512001038e-02 6.498179912567138672e+00 1.958466172218322754e+00 -2.257319912314414978e-02
1.427000000000000000e+03 7.679051971435546875e+01 2.217572975158691406e+01 3.769780695438385010e-02 6.513463497161865234e+00 1.965348482131958008e+00 -1.050699781626462936e-02
1.428000000000000000e+03 7.804955291748046875e+01 1.389384078979492188e+01 -6.821367144584655762e-02 7.363737106323242188e+00 2.188657045364379883e+00 -5.245290398597717285e-01
1.429000000000000000e+03 7.675864410400390625e+01 1.394735240936279297e+01 7.287520915269851685e-02 6.932123661041259766e+00 2.101499557495117188e+00 -9.051577448844909668e-01
1.430000000000000000e+03 7.697711944580078125e+01 1.548565292358398438e+01 2.367033660411834717e-01 6.680223464965820312e+00 2.075078010559082031e+00 -5.701785683631896973e-01
1.431000000000000000e+03 7.647200775146484375e+01 2.495872879028320312e+01 -1.659803465008735657e-02 6.495673656463623047e+00 1.943722724914550781e+00 1.724861375987529755e-02
1.432000000000000000e+03 7.791123962402343750e+01 2.644750976562500000e+01 -1.694660820066928864e-02 6.515560150146484375e+00 1.949584007263183594e+00 2.396264672279357910e-02
1.433000000000000000e+03 7.542580413818359375e+01 1.190891456604003906e+01 -2.557478547096252441e-01 6.853400707244873047e+00 1.979295849800109863e+00 -2.051717042922973633e+00
1.434000000000000000e+03 7.814409637451171875e+01 -2.088113403320312500e+01 -9.010472893714904785e-02 7.494546413421630859e+00 2.221332550048828125e+00 -6.897235661745071411e-02
1.435000000000000000e+03 7.692190551757812500e+01 -2.083464622497558594e+01 -3.131031394004821777e-01 7.506224632263183594e+00 2.157936334609985352e+00 8.836128748953342438e-03
1.436000000000000000e+03 7.805072784423828125e+01 3.051003837585449219e+01 3.249187720939517021e-03 6.515998840332031250e+00 1.955774426460266113e+00 4.867791198194026947e-03
1.437000000000000000e+03 7.663050842285156250e+01 2.914562225341796875e+01 1.374674960970878601e-03 6.466487884521484375e+00 1.940358877182006836e+00 -2.633641706779599190e-03
1.438000000000000000e+03 7.595839691162109375e+01 9.367688179016113281e+00 -1.194765686988830566e+00 1.174577331542968750e+01 3.165302276611328125e+00 -1.579606056213378906e+00
1.439000000000000000e+03 7.844474029541015625e+01 9.634407043457031250e+00 -3.157033026218414307e-01 8.365880966186523438e+00 2.415053367614746094e+00 4.430126249790191650e-01
1.440000000000000000e+03 7.799913787841796875e+01 -7.049474239349365234e+00 4.950556531548500061e-02 9.340276718139648438e+00 2.816934585571289062e+00 1.387778520584106445e+00
1.441000000000000000e+03 7.608972930908203125e+01 3.660221099853515625e+01 3.727328497916460037e-03 6.387505531311035156e+00 1.917369961738586426e+00 -2.648916095495223999e-03
1.442000000000000000e+03 7.742007446289062500e+01 3.685560989379882812e+01 -3.320643445476889610e-03 6.496791362762451172e+00 1.948041319847106934e+00 9.635956026613712311e-03
1.443000000000000000e+03 7.722038269042968750e+01 7.989695549011230469e+00 1.783818721771240234e+00 1.066607570648193359e+01 3.734968185424804688e+00 -4.877384305000305176e-01
1.444000000000000000e+03 7.619027709960937500e+01 -1.489214181900024414e+00 -1.064254403114318848e+00 7.515738487243652344e+00 1.935445189476013184e+00 1.385742783546447754e+00
1.445000000000000000e+03 7.528956604003906250e+01 -1.007519912719726562e+01 9.502500891685485840e-01 9.431280136108398438e+00 3.114459037780761719e+00 1.277670860290527344e+00
1.446000000000000000e+03 7.629340362548828125e+01 -1.069303321838378906e+01 5.520098209381103516e-01 8.715332984924316406e+00 2.780202865600585938e+00 1.276743054389953613e+00
1.447000000000000000e+03 7.831343078613281250e+01 -1.536316776275634766e+01 1.935472935438156128e-01 7.133474349975585938e+00 2.198106527328491211e+00 -2.419015020132064819e-01
1.448000000000000000e+03 7.611531829833984375e+01 -1.400436210632324219e+01 7.134050726890563965e-01 8.620180130004882812e+00 2.800075531005859375e+00 1.812999993562698364e-01
1.449000000000000000e+03 7.771602630615234375e+01 9.010081291198730469e+00 -3.272792696952819824e-01 1.000365257263183594e+01 2.902911901473999023e+00 3.245684504508972168e-01
1.450000000000000000e+03 7.817902374267578125e+01 1.314103364944458008e+00 -9.756462574005126953e-01 1.208128929138183594e+01 3.331692695617675781e+00 -9.505639672279357910e-01
1.451000000000000000e+03 7.607465362548828125e+01 8.663436770439147949e-01 -3.023215770721435547e+00 8.186524391174316406e+00 1.548992633819580078e+00 7.680976986885070801e-01
1.452000000000000000e+03 7.833964538574218750e+01 -1.402969741821289062e+01 1.276276856660842896e-01 7.164758682250976562e+00 2.187715768814086914e+00 -1.377402152866125107e-02
1.453000000000000000e+03 7.830095672607421875e+01 -1.269281005859375000e+01 3.506247401237487793e-01 7.279342651367187500e+00 2.288990259170532227e+00 2.771049439907073975e-01
1.454000000000000000e+03 7.611262512207031250e+01 3.531975173950195312e+01 -9.450539946556091309e-03 6.402127742767333984e+00 1.917803168296813965e+00 8.057999424636363983e-03
1.455000000000000000e+03 7.446866607666015625e+01 3.506687545776367188e+01 2.868588489945977926e-04 6.302129745483398438e+00 1.890724897384643555e+00 -1.690277643501758575e-02
1.456000000000000000e+03 7.668627929687500000e+01 3.166500663757324219e+01 3.169737756252288818e-03 6.441696643829345703e+00 1.933459877967834473e+00 -1.344170537777245045e-03
1.457000000000000000e+03 7.702063751220703125e+01 1.946911621093750000e+01 1.108703389763832092e-01 6.546907424926757812e+00 1.997333407402038574e+00 -1.142902672290802002e-01
1.458000000000000000e+03 7.560337829589843750e+01 -4.793773651123046875e+00 -2.988269925117492676e-01 8.010935783386230469e+00 2.313632488250732422e+00 1.424429893493652344e+00
1.459000000000000000e+03 7.667213439941406250e+01 -7.265583515167236328e+00 1.352462768554687500e-01 9.110906600952148438e+00 2.773845911026000977e+00 1.762355446815490723e+00
1.460000000000000000e+03 7.673592376708984375e+01 -3.762030601501464844e+00 -1.476888805627822876e-01 8.973030090332031250e+00 2.647602319717407227e+00 1.362305402755737305e+00
1.461000000000000000e+03 7.686254882812500000e+01 -9.677932739257812500e+00 5.284075736999511719e-01 8.782314300537109375e+00 2.793216466903686523e+00 1.419870376586914062e+00
1.462000000000000000e+03 7.483726501464843750e+01 -1.099301242828369141e+01 8.111317157745361328e-01 1.006168937683105469e+01 3.261846303939819336e+00 1.186531662940979004e+00
1.463000000000000000e+03 7.697006988525390625e+01 -1.942284202575683594e+01 -2.124471515417098999e-01 7.725152969360351562e+00 2.253811597824096680e+00 -1.556317508220672607e-01
1.464000000000000000e+03 3.791454315185546875e+01 9.980725288391113281e+00 1.680037379264831543e+00 1.433387565612792969e+01 4.804173946380615234e+00 1.588076502084732056e-01
1.465000000000000000e+03 5.704577636718750000e+01 -7.015295982360839844e+00 1.675915271043777466e-01 6.114678382873535156e+00 1.884680986404418945e+00 -3.585134744644165039e-01
1.466000000000000000e+03 4.971320343017578125e+01 -2.091750907897949219e+01 1.894368380308151245e-01 2.372176170349121094e+00 7.684839367866516113e-01 -8.138659596443176270e-01
1.467000000000000000e+03 5.027827835083007812e+01 2.250003516674041748e-01 -1.745975017547607422e-01 4.533518314361572266e+00 1.307676196098327637e+00 1.737776279449462891e+00
1.468000000000000000e+03 4.787428665161132812e+01 2.794716358184814453e+00 8.467176556587219238e-01 2.674900531768798828e+00 1.056485414505004883e+00 1.982450604438781738e+00
1.469000000000000000e+03 7.201467895507812500e+01 -6.279830932617187500e+00 -7.082821726799011230e-01 6.585263729095458984e+00 1.763094425201416016e+00 -7.327234745025634766e-01
1.470000000000000000e+03 4.030712509155273438e+01 1.182407855987548828e+01 2.505909204483032227e+00 4.813149929046630859e+00 2.195717811584472656e+00 1.716215252876281738e+00
1.471000000000000000e+03 4.228462600708007812e+01 1.232046413421630859e+01 1.233318448066711426e+00 1.063575387001037598e+00 6.890681385993957520e-01 9.940428137779235840e-01
1.472000000000000000e+03 1.858043289184570312e+01 1.797396469116210938e+01 -2.966409921646118164e+00 1.429360508918762207e-01 -8.470421433448791504e-01 -3.302209377288818359e-01
1.473000000000000000e+03 2.164351844787597656e+01 -1.031348133087158203e+01 2.674624204635620117e+00 2.436527490615844727e+00 1.533345580101013184e+00 -2.284062206745147705e-01
1.474000000000000000e+03 2.010622787475585938e+01 -8.422908782958984375e+00 1.097251176834106445e+00 2.558647871017456055e+00 1.096769690513610840e+00 -1.629249930381774902e+00
1.475000000000000000e+03 4.114218139648437500e+01 -6.891828060150146484e+00 1.133440375328063965e+00 6.591847419738769531e+00 2.317586421966552734e+00 2.353796921670436859e-02
1.476000000000000000e+03 4.183808135986328125e+01 -5.525965690612792969e+00 1.932786345481872559e+00 6.150995254516601562e+00 2.425134420394897461e+00 -1.405646502971649170e-01
1.477000000000000000e+03 2.735319519042968750e+01 -1.869755625724792480e+00 3.752749204635620117e+00 4.554639339447021484e+00 2.492216587066650391e+00 5.851766467094421387e-01
1.478000000000000000e+03 2.532962083816528320e+00 3.555130386352539062e+01 -2.652781549841165543e-03 3.448231220245361328e+00 1.033673524856567383e+00 1.157595515251159668e-01
1.479000000000000000e+03 6.801081180572509766e+00 3.815408706665039062e+01 1.197456344962120056e-01 2.901708126068115234e+00 9.064361453056335449e-01 6.332943588495254517e-02
1.480000000000000000e+03 5.457438468933105469e+00 3.184144401550292969e+01 2.158970199525356293e-02 3.225969552993774414e+00 9.742677211761474609e-01 2.716675698757171631e-01
1.481000000000000000e+03 3.651611328125000000e+00 3.100922393798828125e+01 -9.391897358000278473e-03 3.489098548889160156e+00 1.043911933898925781e+00 2.324937134981155396e-01
1.482000000000000000e+03 1.937546253204345703e+00 2.724736404418945312e+01 -5.279453098773956299e-02 3.958836317062377930e+00 1.171812534332275391e+00 1.347530782222747803e-01
1.483000000000000000e+03 3.205317497253417969e+00 2.434947204589843750e+01 -8.069311082363128662e-02 3.769424915313720703e+00 1.106619477272033691e+00 8.341928571462631226e-02
1.484000000000000000e+03 2.459270715713500977e+00 3.418388366699218750e+01 4.385554790496826172e-02 3.488042831420898438e+00 1.059569478034973145e+00 1.546067297458648682e-01
1.485000000000000000e+03 4.171864509582519531e+00 3.378802871704101562e+01 1.110073179006576538e-02 3.337475776672363281e+00 1.004572987556457520e+00 2.027061134576797485e-01
1.486000000000000000e+03 3.914386272430419922e+00 3.237508392333984375e+01 5.588826537132263184e-02 3.366923093795776367e+00 1.026843428611755371e+00 2.280768305063247681e-01
1.487000000000000000e+03 2.833657979965209961e+00 -3.467515182495117188e+01 -1.965044625103473663e-02 1.924999594688415527e+00 5.716047286987304688e-01 6.942982971668243408e-02
1.488000000000000000e+03 3.922430038452148438e+00 -3.363258361816406250e+01 -2.971115522086620331e-02 1.981942057609558105e+00 5.856692790985107422e-01 1.202495843172073364e-01
1.489000000000000000e+03 2.192814826965332031e+00 -3.059717559814453125e+01 -1.183967251563444734e-04 1.744065046310424805e+00 5.231840014457702637e-01 9.331598877906799316e-02
1.490000000000000000e+03 3.507294178009033203e+00 -2.926971626281738281e+01 -1.979279704391956329e-02 1.806503415107727051e+00 5.360131859779357910e-01 1.640948057174682617e-01
1.491000000000000000e+03 4.963808536529541016e+00 -2.777231979370117188e+01 -5.058226361870765686e-02 1.915962696075439453e+00 5.596141219139099121e-01 2.383003681898117065e-01
1.492000000000000000e+03 1.945520758628845215e+00 2.170603370666503906e+01 -1.470921635627746582e-01 4.025526046752929688e+00 1.163530230522155762e+00 -1.199542060494422913e-01
1.493000000000000000e+03 2.891548395156860352e+00 -1.105781173706054688e+01 5.017780140042304993e-02 3.624390661716461182e-01 1.237850636243820190e-01 3.298868536949157715e-01
1.494000000000000000e+03 3.155284643173217773e+00 1.279813003540039062e+01 -3.064522743225097656e-01 2.266322612762451172e+00 5.879611372947692871e-01 -2.019098281860351562e+00
1.495000000000000000e+03 3.098179817199707031e+00 -1.780053138732910156e+01 -2.112147212028503418e-02 1.068227171897888184e+00 3.141317069530487061e-01 3.516547381877899170e-01
1.496000000000000000e+03 1.795521974563598633e+00 -1.502071571350097656e+01 -1.217005588114261627e-02 4.429593980312347412e-01 1.292368024587631226e-01 2.508576512336730957e-01
1.497000000000000000e+03 3.231450319290161133e+00 1.868623352050781250e+01 -3.294265568256378174e-01 3.541581153869628906e+00 9.636464118957519531e-01 -6.005313992500305176e-01
1.498000000000000000e+03 2.917061328887939453e+00 -1.236553192138671875e+01 3.404434025287628174e-02 4.995593428611755371e-01 1.600811034440994263e-01 3.662132620811462402e-01
1.499000000000000000e+03 1.815916538238525391e+00 -8.211404800415039062e+00 7.351724803447723389e-02 -2.743151485919952393e-01 -6.023937463760375977e-02 9.005256742238998413e-02
1.500000000000000000e+03 5.122609615325927734e+00 -4.370794296264648438e+00 4.157086014747619629e-01 1.669143885374069214e-01 1.747868955135345459e-01 -7.799738645553588867e-02
1.501000000000000000e+03 2.565925359725952148e+00 7.302297115325927734e+00 1.062006115913391113e+00 -8.002828955650329590e-01 7.851696759462356567e-02 -9.896968603134155273e-01
1.502000000000000000e+03 1.375618934631347656e+00 6.199128627777099609e+00 4.773019254207611084e-01 -2.366425514221191406e+00 -5.667370557785034180e-01 4.079068545252084732e-03
1.503000000000000000e+03 1.921558260917663574e+00 1.597423362731933594e+01 -2.887375056743621826e-01 2.981856822967529297e+00 8.079357743263244629e-01 -8.737467527389526367e-01
1.504000000000000000e+03 3.219913005828857422e+00 1.723543548583984375e+01 -4.980823397636413574e-01 3.405954599380493164e+00 8.723616600036621094e-01 -9.485905766487121582e-01
1.505000000000000000e+03 2.657424926757812500e+00 8.663230895996093750e+00 6.151328682899475098e-01 -1.060133650898933411e-01 1.527358591556549072e-01 -1.550702691078186035e+00
1.506000000000000000e+03 3.216357946395874023e+00 -7.366631507873535156e+00 2.283384948968887329e-01 1.217534020543098450e-01 1.050275713205337524e-01 1.129046976566314697e-01
1.507000000000000000e+03 2.510126113891601562e+00 -5.709279537200927734e+00 1.442882865667343140e-01 -1.802361607551574707e-01 -1.078436058014631271e-02 -1.040820181369781494e-01
1.508000000000000000e+03 3.596752405166625977e+00 -2.785583496093750000e+01 -4.594510048627853394e-02 1.763158202171325684e+00 5.151639580726623535e-01 1.929227858781814575e-01
1.509000000000000000e+03 3.273544311523437500e+00 -2.057267189025878906e+01 -2.975106053054332733e-02 1.319855451583862305e+00 3.870313167572021484e-01 3.101647794246673584e-01
1.510000000000000000e+03 2.898032188415527344e+00 -9.787093162536621094e+00 1.090058162808418274e-01 2.348565310239791870e-01 1.031587049365043640e-01 2.818801403045654297e-01
1.511000000000000000e+03 2.988429307937622070e+00 -8.544517517089843750e+00 1.408923417329788208e-01 1.528419107198715210e-01 8.812027424573898315e-02 1.994252055883407593e-01
1.512000000000000000e+03 2.986344814300537109e+00 -1.506841564178466797e+01 -4.686367698013782501e-03 7.955222725868225098e-01 2.372507601976394653e-01 3.799059689044952393e-01
1.513000000000000000e+03 2.051130533218383789e+00 -2.343785476684570312e+01 -2.481149882078170776e-02 1.319400548934936523e+00 3.883767127990722656e-01 1.718588769435882568e-01
1.514000000000000000e+03 3.369453907012939453e+00 -2.198479080200195312e+01 -4.855069890618324280e-02 1.427722692489624023e+00 4.137516021728515625e-01 2.873967587947845459e-01
1.515000000000000000e+03 4.069150447845458984e+00 -3.746199798583984375e+01 -1.102269534021615982e-02 1.972778797149658203e+00 5.885268449783325195e-01 4.458341002464294434e-02
1.516000000000000000e+03 3.256000041961669922e+00 2.159845352172851562e+01 -1.799553185701370239e-01 3.729879140853881836e+00 1.064977169036865234e+00 -1.534435600042343140e-01
1.517000000000000000e+03 5.488384723663330078e+00 -3.490666198730468750e+01 -6.391558051109313965e-02 2.128883123397827148e+00 6.194902062416076660e-01 1.097007766366004944e-01
1.518000000000000000e+03 4.915001392364501953e+00 -2.335733032226562500e+01 -8.188574761152267456e-02 1.755161404609680176e+00 5.019826889038085938e-01 3.312008678913116455e-01
1.519000000000000000e+03 2.950190544128417969e+00 -1.370764732360839844e+01 -2.779240952804684639e-03 6.505168080329895020e-01 1.943212747573852539e-01 3.792854249477386475e-01
1.520000000000000000e+03 3.079466819763183594e+00 1.122078418731689453e+01 -1.576013863086700439e-01 1.620997667312622070e+00 4.390188753604888916e-01 -2.104478597640991211e+00
1.521000000000000000e+03 8.339607238769531250e+00 1.063647556304931641e+01 -1.178405165672302246e+00 6.611284255981445312e+00 1.629863619804382324e+00 -2.106829404830932617e+00
1.522000000000000000e+03 3.193138122558593750e+00 1.431072902679443359e+01 -5.384740829467773438e-01 2.818689584732055664e+00 6.840646266937255859e-01 -1.619186282157897949e+00
1.523000000000000000e+03 3.251347780227661133e+00 2.015142822265625000e+01 -3.422676324844360352e-01 3.691480636596679688e+00 1.004763960838317871e+00 -3.867115974426269531e-01
1.524000000000000000e+03 3.237087011337280273e+00 2.298989486694335938e+01 -2.035313993692398071e-01 3.782383918762207031e+00 1.073655724525451660e+00 -5.212039500474929810e-02
1.525000000000000000e+03 2.374486923217773438e+01 1.051690196990966797e+01 -1.024805665016174316e+00 9.850871086120605469e+00 2.647819757461547852e+00 3.939775466918945312e+00
1.526000000000000000e+03 2.148507118225097656e+01 1.371441841125488281e+00 -2.175790816545486450e-01 5.437726020812988281e+00 1.566044092178344727e+00 1.335267066955566406e+00
1.527000000000000000e+03 4.281439208984375000e+01 -9.159054756164550781e+00 -2.713787555694580078e-01 9.222644805908203125e+00 2.685379743576049805e+00 7.882194519042968750e-01
1.528000000000000000e+03 1.178803443908691406e+01 1.267942905426025391e+01 -2.116075038909912109e+00 3.654564857482910156e+00 4.615469276905059814e-01 8.389004319906234741e-02
1.529000000000000000e+03 1.748253631591796875e+01 5.090741634368896484e+00 1.888265967369079590e+00 1.409722447395324707e+00 9.893965125083923340e-01 5.758190155029296875e+00
1.530000000000000000e+03 4.481679916381835938e+01 1.464089393615722656e+00 -2.751220226287841797e+00 2.172710895538330078e+00 -1.735527962446212769e-01 9.718099236488342285e-01
1.531000000000000000e+03 4.786857604980468750e+01 1.696401476860046387e+00 1.654296964406967163e-01 2.439639329910278320e+00 7.815207242965698242e-01 2.559503555297851562e+00
1.532000000000000000e+03 7.072080993652343750e+01 -1.254895448684692383e+00 -2.957828521728515625e+00 5.229918479919433594e+00 6.816269159317016602e-01 -3.211254596710205078e+00
1.533000000000000000e+03 1.765548515319824219e+01 1.904374885559082031e+01 -1.893614053726196289e+00 4.805060029029846191e-01 -4.239324033260345459e-01 -3.860110417008399963e-02
1.534000000000000000e+03 3.694446945190429688e+01 6.082622051239013672e+00 -1.309661149978637695e+00 1.204757308959960938e+01 3.221373558044433594e+00 1.026603460311889648e+00
1.535000000000000000e+03 3.467547225952148438e+01 6.480639934539794922e+00 -1.159559562802314758e-01 6.048565864562988281e+00 1.779782891273498535e+00 2.355365276336669922e+00
1.536000000000000000e+03 5.278065872192382812e+01 1.070217037200927734e+01 8.197982907295227051e-01 1.175722599029541016e+01 3.773107290267944336e+00 -4.620628952980041504e-01
1.537000000000000000e+03 5.069947814941406250e+01 -2.851818799972534180e+00 -4.186473846435546875e+00 2.501331090927124023e+00 -5.055427551269531250e-01 -1.893370896577835083e-01
1.538000000000000000e+03 4.676755905151367188e+01 -5.573312640190124512e-01 -2.118517875671386719e+00 3.448825836181640625e+00 3.990924060344696045e-01 4.055188179016113281e+00
1.539000000000000000e+03 4.130916213989257812e+01 -1.402127742767333984e+00 -1.702403068542480469e+00 9.525377154350280762e-01 -2.249596118927001953e-01 -2.207346916198730469e+00
1.540000000000000000e+03 4.227509689331054688e+01 -1.960142731666564941e+00 -1.222312569618225098e+00 3.389956474304199219e+00 6.502931714057922363e-01 -1.592221021652221680e+00
1.541000000000000000e+03 3.334611129760742188e+01 2.517812252044677734e+00 2.656334161758422852e+00 2.852833032608032227e+00 1.652750134468078613e+00 3.855820655822753906e+00
1.542000000000000000e+03 2.606323051452636719e+01 -8.351891636848449707e-01 1.998173594474792480e+00 2.824354887008666992e+00 1.446758627891540527e+00 -1.940308570861816406e+00
1.543000000000000000e+03 2.484539222717285156e+01 -1.201594352722167969e+00 8.618263155221939087e-02 3.600291013717651367e+00 1.105942130088806152e+00 -3.121599197387695312e+00
1.544000000000000000e+03 4.838556671142578125e+01 -1.715923881530761719e+01 -1.471829265356063843e-01 1.917640566825866699e+00 5.311372876167297363e-01 -9.063004255294799805e-01
1.545000000000000000e+03 4.925576400756835938e+01 -1.815640068054199219e+01 -5.144497156143188477e-01 1.787747859954833984e+00 3.819894194602966309e-01 -7.952145338058471680e-01
1.546000000000000000e+03 4.591173171997070312e+01 -7.916913628578186035e-01 -2.406485080718994141e+00 3.747027635574340820e+00 4.021627604961395264e-01 3.812755107879638672e+00
1.547000000000000000e+03 5.824458312988281250e+01 -1.375159549713134766e+01 8.063225746154785156e-01 9.887548446655273438e+00 3.208161115646362305e+00 5.655001401901245117e-01
1.548000000000000000e+03 5.249562072753906250e+01 -3.167361974716186523e+00 -3.944075584411621094e+00 4.952977180480957031e+00 3.026705384254455566e-01 -1.780467033386230469e+00
1.549000000000000000e+03 2.791238212585449219e+01 1.170259857177734375e+01 -3.916099667549133301e-01 1.908859133720397949e+00 4.551747739315032959e-01 -5.164895057678222656e-01
1.550000000000000000e+03 3.040300369262695312e+01 1.421587944030761719e+01 -6.596111506223678589e-02 -6.016298532485961914e-01 -2.002772986888885498e-01 2.240044772624969482e-01
1.551000000000000000e+03 2.170246887207031250e+01 -1.331859874725341797e+01 1.056915879249572754e+00 3.946315765380859375e+00 1.500969529151916504e+00 2.782141864299774170e-01
1.552000000000000000e+03 4.426752567291259766e+00 1.258520412445068359e+01 -6.714001893997192383e-01 3.185303211212158203e+00 7.541708946228027344e-01 -2.285143852233886719e+00
1.553000000000000000e+03 1.544272804260253906e+01 -3.669096231460571289e+00 1.802036166191101074e+00 9.000282287597656250e+00 3.240695714950561523e+00 -3.401023626327514648e+00
1.554000000000000000e+03 1.520741271972656250e+01 -5.025786399841308594e+00 5.678269863128662109e-01 7.841339111328125000e+00 2.522749662399291992e+00 -1.966102957725524902e+00
1.555000000000000000e+03 4.144247055053710938e+01 -1.079502296447753906e+01 -5.077457800507545471e-02 1.019505882263183594e+01 3.043285131454467773e+00 -8.987011760473251343e-02
1.556000000000000000e+03 2.946739959716796875e+01 -8.575567245483398438e+00 1.096720814704895020e+00 4.877010822296142578e+00 1.792119503021240234e+00 -7.759172916412353516e-01
1.557000000000000000e+03 4.504230880737304688e+01 4.323241710662841797e-01 -3.112047910690307617e+00 3.104247808456420898e+00 -2.340064151212573051e-03 1.843935132026672363e+00
1.558000000000000000e+03 6.072087097167968750e+01 -7.279985904693603516e+00 1.247325539588928223e+00 8.467907905578613281e+00 2.914570093154907227e+00 1.035963892936706543e+00
1.559000000000000000e+03 2.789782524108886719e+01 -6.523623943328857422e+00 1.929705619812011719e+00 7.570415973663330078e+00 2.850036382675170898e+00 1.458908915519714355e+00
1.560000000000000000e+03 5.688144683837890625e+01 -9.373847961425781250e+00 2.430496811866760254e-01 7.429738998413085938e+00 2.301836490631103516e+00 -1.533658802509307861e-01
1.561000000000000000e+03 4.191032791137695312e+01 -8.946430206298828125e+00 -1.521330624818801880e-01 8.885574340820312500e+00 2.620032310485839844e+00 4.741590023040771484e-01
1.562000000000000000e+03 6.318183517456054688e+01 -1.584657382965087891e+01 -3.067576289176940918e-01 4.981165409088134766e+00 1.402322292327880859e+00 -9.907369613647460938e-01
1.563000000000000000e+03 5.849094009399414062e+01 -1.502382183074951172e+01 1.096769809722900391e+00 9.067053794860839844e+00 3.049147129058837891e+00 3.000786900520324707e-01
1.564000000000000000e+03 2.589681434631347656e+01 1.118310356140136719e+01 -2.003390491008758545e-01 8.428724288940429688e+00 2.468515634536743164e+00 1.974383234977722168e+00
1.565000000000000000e+03 6.103149032592773438e+01 -5.699684143066406250e+00 1.854090213775634766e+00 8.244210243225097656e+00 3.029490232467651367e+00 9.613371491432189941e-01
1.566000000000000000e+03 2.912845993041992188e+01 -7.408500671386718750e+00 1.065555930137634277e+00 6.097370147705078125e+00 2.148877859115600586e+00 4.082574546337127686e-01
1.567000000000000000e+03 6.127393341064453125e+01 -9.245899200439453125e+00 2.644670009613037109e-01 8.726969718933105469e+00 2.697431087493896484e+00 1.278848290443420410e+00
1.568000000000000000e+03 5.707830047607421875e+01 -1.415089225769042969e+01 5.882799029350280762e-01 1.115651130676269531e+01 3.523437500000000000e+00 -3.078469634056091309e-01
1.569000000000000000e+03 4.544557571411132812e+01 -1.395601177215576172e+01 6.700938344001770020e-01 4.901918411254882812e+00 1.671603679656982422e+00 -8.136253356933593750e-01
1.570000000000000000e+03 3.085421943664550781e+01 1.209133505821228027e+00 -6.846677660942077637e-01 5.102118968963623047e+00 1.325235366821289062e+00 5.797402381896972656e+00
1.571000000000000000e+03 5.272864151000976562e+01 7.901502609252929688e+00 -1.543161511421203613e+00 1.224435806274414062e+01 3.210358858108520508e+00 -9.475904703140258789e-01
1.572000000000000000e+03 4.013685989379882812e+01 -2.232891082763671875e+00 -1.297738909721374512e+00 2.420781612396240234e+00 3.369127810001373291e-01 -4.413890361785888672e+00
1.573000000000000000e+03 6.796206665039062500e+01 -9.598257392644882202e-02 -2.800089597702026367e+00 5.706861972808837891e+00 8.720317482948303223e-01 1.255038082599639893e-01
1.574000000000000000e+03 6.970042419433593750e+01 7.756794095039367676e-01 -2.433016538619995117e+00 9.462065696716308594e+00 2.108714818954467773e+00 -2.762362480163574219e+00
1.575000000000000000e+03 6.534568023681640625e+01 6.096482276916503906e-01 -1.667095661163330078e+00 3.796201944351196289e+00 6.387318372726440430e-01 3.799053430557250977e+00
1.576000000000000000e+03 4.182129669189453125e+01 -1.576055240631103516e+01 1.825804471969604492e+00 1.006685447692871094e+01 3.567797660827636719e+00 -9.541063010692596436e-02
1.577000000000000000e+03 7.378205871582031250e+01 -1.073713970184326172e+01 1.257047176361083984e+00 1.044366264343261719e+01 3.510212898254394531e+00 6.455912590026855469e-01
1.578000000000000000e+03 1.472651100158691406e+01 1.369323348999023438e+01 -2.366992235183715820e+00 4.085313677787780762e-01 -5.875383019447326660e-01 -4.688962996006011963e-01
1.579000000000000000e+03 4.310294342041015625e+01 -1.210731792449951172e+01 5.028233528137207031e-01 8.921439170837402344e+00 2.827278852462768555e+00 3.693775236606597900e-01
1.580000000000000000e+03 5.789295578002929688e+01 -1.237020587921142578e+01 3.760475516319274902e-01 9.309226036071777344e+00 2.905582189559936523e+00 3.183614313602447510e-01
1.581000000000000000e+03 5.563964462280273438e+01 -1.797528743743896484e+00 -2.880436897277832031e+00 6.194629192352294922e+00 9.942577481269836426e-01 -4.961799144744873047e+00
1.582000000000000000e+03 6.707382202148437500e+01 -1.669825196266174316e+00 -3.717527389526367188e+00 2.312052249908447266e+00 -4.216425716876983643e-01 5.777058005332946777e-01
1.583000000000000000e+03 5.872693252563476562e+01 -1.609109687805175781e+01 1.217772126197814941e+00 9.402727127075195312e+00 3.186149597167968750e+00 -2.294606566429138184e-01
1.584000000000000000e+03 6.404183197021484375e+01 -1.368618106842041016e+01 -6.760993599891662598e-01 4.558663368225097656e+00 1.164769172668457031e+00 -5.364066362380981445e-01
1.585000000000000000e+03 6.520388031005859375e+01 -1.718680381774902344e+01 6.088365241885185242e-02 3.372587203979492188e+00 1.030041217803955078e+00 -1.077960610389709473e+00
1.586000000000000000e+03 9.127544403076171875e+00 7.796730518341064453e+00 1.641311168670654297e+00 1.135597133636474609e+01 3.899184703826904297e+00 -4.918935298919677734e+00
1.587000000000000000e+03 2.314123535156250000e+01 7.459518432617187500e+00 -3.637925386428833008e-01 9.288619041442871094e+00 2.677447795867919922e+00 2.916394233703613281e+00
1.588000000000000000e+03 2.187383270263671875e+01 1.824081802368164062e+01 -3.013329982757568359e+00 -3.067650794982910156e-01 -9.960285425186157227e-01 -8.997080922126770020e-01
1.589000000000000000e+03 5.079262924194335938e+01 -2.030634689331054688e+01 3.492896854877471924e-01 1.679124832153320312e+00 6.085243821144104004e-01 -4.519855082035064697e-01
1.590000000000000000e+03 4.233437728881835938e+01 -1.014186286926269531e+01 6.048180907964706421e-02 9.353253364562988281e+00 2.824120521545410156e+00 4.296751916408538818e-01
1.591000000000000000e+03 6.695014190673828125e+01 6.225148677825927734e+00 1.211591809988021851e-01 1.068892002105712891e+01 3.243023872375488281e+00 -1.339805603027343750e+00
1.592000000000000000e+03 3.226755142211914062e+01 -1.131448936462402344e+01 4.145375192165374756e-01 1.839110970497131348e+00 6.760945320129394531e-01 -1.006009340286254883e+00
1.593000000000000000e+03 5.613039398193359375e+01 -7.872074604034423828e+00 -3.422483801841735840e-02 6.338794708251953125e+00 1.891371011734008789e+00 -4.506499767303466797e-01
1.594000000000000000e+03 5.881621170043945312e+01 -1.467819929122924805e+00 -1.464329838752746582e+00 2.912437677383422852e+00 4.344323575496673584e-01 -1.462028861045837402e+00
1.595000000000000000e+03 3.653715896606445312e+01 5.068544387817382812e+00 -4.690640270709991455e-01 1.074195384979248047e+01 3.081866741180419922e+00 4.010248482227325439e-01
1.596000000000000000e+03 4.473953628540039062e+01 -1.263476943969726562e+01 3.941007554531097412e-01 6.213773727416992188e+00 1.982362389564514160e+00 -3.066009879112243652e-01
1.597000000000000000e+03 4.323418045043945312e+01 -1.076471424102783203e+01 -1.517368406057357788e-01 9.099663734436035156e+00 2.684378147125244141e+00 6.231620311737060547e-01
1.598000000000000000e+03 6.242567062377929688e+01 -8.817276000976562500e+00 4.397709667682647705e-01 9.348270416259765625e+00 2.936412572860717773e+00 2.761258780956268311e-01
1.599000000000000000e+03 2.184750556945800781e+01 5.582163810729980469e+00 2.738571882247924805e+00 1.036278533935546875e+01 3.930407285690307617e+00 8.610873222351074219e-01
1.600000000000000000e+03 2.926310920715332031e+01 3.372295498847961426e-01 2.022280454635620117e+00 6.857447147369384766e+00 2.663918256759643555e+00 1.501275062561035156e+00
1.601000000000000000e+03 3.158988189697265625e+01 1.505015850067138672e+01 7.866252213716506958e-02 -4.955609440803527832e-01 -1.250695288181304932e-01 2.081604450941085815e-01
1.602000000000000000e+03 2.927537536621093750e+01 1.848156929016113281e+01 -1.123181805014610291e-01 3.368056535720825195e+00 9.767214655876159668e-01 1.963206648826599121e+00
1.603000000000000000e+03 6.222089385986328125e+01 -2.992301464080810547e+00 4.084431231021881104e-01 8.538120269775390625e+00 2.683969020843505859e+00 -1.193638890981674194e-01
1.604000000000000000e+03 6.739757537841796875e+01 7.729195594787597656e+00 -2.010265439748764038e-01 1.221854877471923828e+01 3.605256795883178711e+00 -1.516261458396911621e+00
1.605000000000000000e+03 6.977763366699218750e+01 9.567740440368652344e+00 -1.175999402999877930e+00 6.488497734069824219e+00 1.593749523162841797e+00 8.177658915519714355e-01
1.606000000000000000e+03 6.393106842041015625e+01 -1.256494426727294922e+01 -7.983644604682922363e-01 4.881113052368164062e+00 1.224824547767639160e+00 -4.241399765014648438e-01
1.607000000000000000e+03 2.680487060546875000e+01 -6.378878116607666016e+00 1.711126089096069336e+00 1.054447555541992188e+01 3.676680564880371094e+00 2.549790859222412109e+00
1.608000000000000000e+03 2.839682769775390625e+01 -3.021965265274047852e+00 1.906991362571716309e+00 9.026412010192871094e+00 3.280020952224731445e+00 2.795357227325439453e+00
1.609000000000000000e+03 2.718851089477539062e+01 -4.116106986999511719e+00 1.099294781684875488e+00 8.120723724365234375e+00 2.766005754470825195e+00 1.818594932556152344e+00
1.610000000000000000e+03 4.364270019531250000e+01 -9.579271316528320312e+00 -4.577074944972991943e-02 8.646837234497070312e+00 2.580319881439208984e+00 5.821785330772399902e-01
1.611000000000000000e+03 6.809590911865234375e+01 4.652964115142822266e+00 2.188881397247314453e+00 1.055185508728027344e+01 3.822221040725708008e+00 -1.960038542747497559e+00
1.612000000000000000e+03 1.363587570190429688e+01 2.904145240783691406e+00 5.847484111785888672e+00 4.503945350646972656e+00 3.105428934097290039e+00 -2.165203809738159180e+00
1.613000000000000000e+03 5.333869552612304688e+01 1.470252227783203125e+01 1.431611299514770508e+00 9.027066230773925781e+00 3.137603044509887695e+00 1.974234700202941895e+00
1.614000000000000000e+03 5.220083236694335938e+01 1.304778575897216797e+01 3.169726610183715820e+00 1.244226360321044922e+01 4.683597087860107422e+00 4.941397309303283691e-01
1.615000000000000000e+03 4.737670898437500000e+01 1.717102241516113281e+01 2.100190639495849609e+00 1.947913408279418945e+00 1.214431285858154297e+00 -1.119797468185424805e+00
1.616000000000000000e+03 4.262538146972656250e+01 1.720892143249511719e+01 3.618985414505004883e-01 3.297453165054321289e+00 1.097805500030517578e+00 1.994455933570861816e+00
1.617000000000000000e+03 2.814426422119140625e+01 -5.631027698516845703e+00 1.159918069839477539e+00 7.754711151123046875e+00 2.674388885498046875e+00 2.409518957138061523e+00
1.618000000000000000e+03 4.856519317626953125e+01 3.814060211181640625e+00 1.128498792648315430e+00 3.595107793807983398e+00 1.417081952095031738e+00 1.306054830551147461e+00
1.619000000000000000e+03 1.922900772094726562e+01 -9.020520210266113281e+00 1.225464105606079102e+00 3.158994197845458984e+00 1.315337538719177246e+00 -1.842606902122497559e+00
1.620000000000000000e+03 1.982311439514160156e+01 -1.004145240783691406e+01 1.603820919990539551e+00 2.944358348846435547e+00 1.364453792572021484e+00 -1.112797141075134277e+00
1.621000000000000000e+03 7.369161224365234375e+01 -7.938771724700927734e+00 2.066081613302230835e-01 8.491637229919433594e+00 2.609473705291748047e+00 9.673735499382019043e-01
1.622000000000000000e+03 7.418557739257812500e+01 -9.593776702880859375e+00 7.445158362388610840e-01 9.868461608886718750e+00 3.183893203735351562e+00 1.079163789749145508e+00
1.623000000000000000e+03 3.034394836425781250e+01 1.963768196105957031e+01 -2.779172360897064209e-01 3.338175535202026367e+00 9.180774688720703125e-01 1.113104343414306641e+00
1.624000000000000000e+03 4.994395828247070312e+01 -1.737954616546630859e+00 -2.492615222930908203e+00 1.693265318870544434e+00 -2.398049384355545044e-01 1.293933510780334473e+00
1.625000000000000000e+03 8.303339958190917969e+00 7.028525352478027344e+00 4.405905723571777344e+00 7.129047870635986328e+00 3.460486173629760742e+00 -4.521443843841552734e+00
1.626000000000000000e+03 2.845466995239257812e+01 1.023399591445922852e+00 -1.907812058925628662e-01 1.602233767509460449e+00 4.234357476234436035e-01 -6.576834917068481445e-01
1.627000000000000000e+03 2.617283821105957031e+01 -1.919669747352600098e+00 2.313597440719604492e+00 3.717535972595214844e+00 1.809340000152587891e+00 -4.245237410068511963e-01
1.628000000000000000e+03 7.152056884765625000e+01 1.115581130981445312e+01 1.927740931510925293e+00 2.061685085296630859e+00 1.196827769279479980e+00 7.248037308454513550e-02
1.629000000000000000e+03 7.288657379150390625e+01 1.698697662353515625e+01 7.387323379516601562e-01 6.142869949340820312e+00 2.064480543136596680e+00 -1.766952686011791229e-02
1.630000000000000000e+03 3.662100601196289062e+01 -1.912795066833496094e+01 3.584733307361602783e-01 2.194745063781738281e+00 7.659655213356018066e-01 1.652742028236389160e-01
1.631000000000000000e+03 3.804127120971679688e+01 -1.797094917297363281e+01 1.270587444305419922e+00 2.094259738922119141e+00 1.009454131126403809e+00 8.856752514839172363e-01
1.632000000000000000e+03 7.692446136474609375e+01 1.074798107147216797e+01 -8.190361857414245605e-01 9.128322601318359375e+00 2.492785930633544922e+00 -5.470623373985290527e-01
1.633000000000000000e+03 6.466320800781250000e+01 6.207023620605468750e+00 1.054732799530029297e-01 7.058422565460205078e+00 2.149168729782104492e+00 1.657435178756713867e+00
1.634000000000000000e+03 6.603827667236328125e+01 1.605053710937500000e+01 -5.296347141265869141e-01 7.711058616638183594e+00 2.154427289962768555e+00 -1.781532764434814453e+00
1.635000000000000000e+03 5.792160415649414062e+01 -6.532093286514282227e-01 -2.158107042312622070e+00 6.207234859466552734e-01 -4.612150490283966064e-01 -2.739984750747680664e+00
1.636000000000000000e+03 5.531499099731445312e+01 -1.343185007572174072e-01 -3.146841287612915039e+00 8.312555313110351562e+00 1.549714207649230957e+00 -6.928446769714355469e+00
1.637000000000000000e+03 4.355734252929687500e+01 -3.104137659072875977e+00 5.380944013595581055e-01 7.888816356658935547e+00 2.528073310852050781e+00 -1.741329431533813477e-01
1.638000000000000000e+03 3.841644287109375000e+01 1.110971832275390625e+01 4.107557296752929688e+00 1.055696964263916016e+01 4.399357795715332031e+00 1.003275513648986816e+00
1.639000000000000000e+03 7.290136718750000000e+01 1.205510330200195312e+01 1.216514825820922852e+00 3.558382987976074219e+00 1.432469367980957031e+00 -1.381479263305664062e+00
1.640000000000000000e+03 6.866378021240234375e+01 1.239604759216308594e+01 2.705882549285888672e+00 8.192267417907714844e+00 3.269444942474365234e+00 1.457187891006469727e+00
1.641000000000000000e+03 7.425223541259765625e+01 1.129005432128906250e+01 9.316229075193405151e-02 4.878714084625244141e+00 1.491562962532043457e+00 -2.810091257095336914e+00
1.642000000000000000e+03 6.196193313598632812e+01 -1.438043022155761719e+01 -3.507003486156463623e-01 6.749053955078125000e+00 1.919506072998046875e+00 -2.005901485681533813e-01
1.643000000000000000e+03 7.173803710937500000e+01 -9.103720784187316895e-01 -2.981603622436523438e+00 3.515632390975952148e+00 1.602086424827575684e-01 -3.629426717758178711e+00
1.644000000000000000e+03 6.772341156005859375e+01 -1.666294288635253906e+01 -3.868868350982666016e-01 1.336073279380798340e+00 2.847559452056884766e-01 -3.204968571662902832e-01
1.645000000000000000e+03 3.704637527465820312e+01 1.627572774887084961e+00 5.362195491790771484e+00 1.713023185729980469e+01 6.747728347778320312e+00 -1.678798794746398926e+00
1.646000000000000000e+03 3.669989395141601562e+01 3.416721343994140625e+00 2.343701362609863281e+00 1.188798141479492188e+01 4.269504547119140625e+00 -5.542797446250915527e-01
1.647000000000000000e+03 6.129993438720703125e+01 -2.278181314468383789e+00 -1.298064708709716797e+00 7.243424415588378906e+00 1.783607840538024902e+00 6.835563182830810547e-01
1.648000000000000000e+03 6.272519683837890625e+01 1.705704689025878906e+01 9.132537841796875000e-01 3.171175479888916016e+00 1.225328803062438965e+00 -1.781706094741821289e+00
1.649000000000000000e+03 6.306159591674804688e+01 1.538182449340820312e+01 1.301234006881713867e+00 1.842135310173034668e+00 9.430108070373535156e-01 -2.906684160232543945e+00
1.650000000000000000e+03 3.685166931152343750e+01 1.583220767974853516e+01 -1.953009843826293945e+00 9.520426750183105469e+00 2.270225048065185547e+00 -1.535444021224975586e+00
1.651000000000000000e+03 1.348247718811035156e+01 -1.797119855880737305e+00 -5.281492471694946289e-01 1.786101913452148438e+01 5.199860572814941406e+00 -1.165304422378540039e+00
1.652000000000000000e+03 1.326170253753662109e+01 -1.849017262458801270e+00 -5.724094510078430176e-01 1.734202384948730469e+01 5.030884265899658203e+00 4.878052473068237305e-01
1.653000000000000000e+03 1.199388408660888672e+01 -2.109473466873168945e+00 1.714838624000549316e+00 7.168642520904541016e+00 2.665044307708740234e+00 4.161254405975341797e+00
1.654000000000000000e+03 1.220539188385009766e+01 -2.351235866546630859e+00 1.023384094238281250e+00 8.916857719421386719e+00 2.982072591781616211e+00 3.542793750762939453e+00
1.655000000000000000e+03 1.011712932586669922e+01 -1.898472666740417480e+00 1.321781039237976074e+00 8.392858505249023438e-01 6.483200788497924805e-01 9.607499241828918457e-01
1.656000000000000000e+03 7.941022872924804688e+00 -3.278061389923095703e+00 8.527519106864929199e-01 5.167174935340881348e-01 4.108408093452453613e-01 3.479527533054351807e-01
1.657000000000000000e+03 1.083114337921142578e+01 -1.835190653800964355e+00 2.014612436294555664e+00 1.532918095588684082e+00 1.064259171485900879e+00 1.860970497131347656e+00
1.658000000000000000e+03 8.685726165771484375e+00 -2.564093828201293945e+00 8.266413807868957520e-01 4.739580452442169189e-01 3.901798427104949951e-01 3.772975802421569824e-01
1.659000000000000000e+03 1.407183265686035156e+01 -2.850089550018310547e+00 8.565148115158081055e-01 1.249541568756103516e+01 4.005578994750976562e+00 -2.492662668228149414e+00
1.660000000000000000e+03 1.325198936462402344e+01 -3.124011278152465820e+00 1.103868335485458374e-01 1.129030704498291016e+01 3.420207977294921875e+00 4.022710323333740234e-01
1.661000000000000000e+03 1.006816005706787109e+01 2.924201965332031250e+00 2.895661592483520508e+00 9.562775611877441406e+00 3.737531185150146484e+00 -5.983986854553222656e+00
1.662000000000000000e+03 1.258226490020751953e+01 2.116030454635620117e+00 3.949430465698242188e+00 9.545421600341796875e+00 4.048455715179443359e+00 -8.622303962707519531e+00
1.663000000000000000e+03 1.208390426635742188e+01 3.281105518341064453e+00 6.810561656951904297e+00 5.825236320495605469e+00 3.790739536285400391e+00 -1.305128479003906250e+01
1.664000000000000000e+03 1.479644680023193359e+01 -2.162569314241409302e-01 6.288454532623291016e+00 1.117454433441162109e+01 5.238899707794189453e+00 -2.283909320831298828e+00
1.665000000000000000e+03 9.655282974243164062e+00 2.455771923065185547e+00 5.812085270881652832e-01 8.491707801818847656e+00 2.721874713897705078e+00 -3.261919021606445312e+00
1.666000000000000000e+03 1.443126392364501953e+01 2.593699932098388672e+00 9.398633956909179688e+00 9.130443572998046875e+00 5.558723449707031250e+00 4.549306392669677734e+00
1.667000000000000000e+03 6.979844093322753906e+00 3.581718206405639648e+00 3.418660640716552734e+00 1.887137055397033691e+00 1.591739296913146973e+00 9.621006846427917480e-01
1.668000000000000000e+03 4.285884857177734375e+00 7.685716629028320312e+00 2.082194328308105469e+00 1.248613238334655762e+00 9.992423057556152344e-01 -2.187807321548461914e+00
1.669000000000000000e+03 8.063848495483398438e+00 4.208674907684326172e+00 5.717377662658691406e+00 4.984844207763671875e+00 3.210666418075561523e+00 -6.531144976615905762e-01
1.670000000000000000e+03 5.036511898040771484e+00 5.592662334442138672e+00 3.689019918441772461e+00 -1.886785626411437988e-01 1.050102472305297852e+00 -3.300460875034332275e-01
1.671000000000000000e+03 4.535270214080810547e+00 3.994877099990844727e+00 2.032027482986450195e+00 -7.276403307914733887e-01 3.913161456584930420e-01 1.568633079528808594e+00
1.672000000000000000e+03 8.559170722961425781e+00 5.073796749114990234e+00 1.034701538085937500e+01 5.844749927520751953e+00 4.857529640197753906e+00 -2.513203382492065430e+00
1.673000000000000000e+03 1.261480212211608887e+00 4.839162826538085938e+00 2.393701523542404175e-01 -2.356320142745971680e+00 -6.350850462913513184e-01 7.307389974594116211e-01
1.674000000000000000e+03 5.827256679534912109e+00 -4.274625301361083984e+00 5.344545245170593262e-01 2.631558477878570557e-01 2.392831146717071533e-01 1.434080302715301514e-02
1.675000000000000000e+03 6.557252407073974609e+00 -4.178809642791748047e+00 6.583192944526672363e-01 3.935400247573852539e-01 3.155577778816223145e-01 1.492210626602172852e-01
1.676000000000000000e+03 4.025874614715576172e+00 -5.393213272094726562e+00 3.075473010540008545e-01 9.646711498498916626e-02 1.212043240666389465e-01 -6.641625612974166870e-02
1.677000000000000000e+03 2.554404735565185547e+00 -4.205595493316650391e+00 9.704685211181640625e-02 -1.557491719722747803e-01 -1.761069521307945251e-02 -2.377891391515731812e-01
1.678000000000000000e+03 9.813701629638671875e+00 3.597556114196777344e+00 4.802167415618896484e+00 1.486279773712158203e+01 5.899489402770996094e+00 -3.132049560546875000e+00
1.679000000000000000e+03 9.385373115539550781e+00 4.345658302307128906e+00 7.662531852722167969e+00 1.049754333496093750e+01 5.448022365570068359e+00 -5.269165635108947754e-01
1.680000000000000000e+03 6.161508178710937500e+01 -1.057455921173095703e+01 -1.111958548426628113e-01 8.088603019714355469e+00 2.393222093582153320e+00 9.743551611900329590e-01
1.681000000000000000e+03 6.347145080566406250e+01 -1.452259063720703125e+01 -7.383843064308166504e-01 4.937577247619628906e+00 1.259757876396179199e+00 -5.268375277519226074e-01
1.682000000000000000e+03 2.722685432434082031e+01 1.936736106872558594e+01 -1.910079002380371094e+00 4.785471916198730469e+00 8.626178503036499023e-01 1.251075029373168945e+00
1.683000000000000000e+03 2.789398956298828125e+01 1.567254734039306641e+01 3.103168010711669922e+00 5.213022232055664062e+00 2.494857072830200195e+00 3.754484891891479492e+00
1.684000000000000000e+03 6.771274566650390625e+01 1.261480903625488281e+01 2.648745298385620117e+00 9.786192893981933594e+00 3.730481386184692383e+00 1.719245433807373047e+00
1.685000000000000000e+03 6.294161987304687500e+01 -1.981609702110290527e+00 -3.819421768188476562e+00 9.873800277709960938e+00 1.816313624382019043e+00 1.954045653343200684e+00
1.686000000000000000e+03 5.194343948364257812e+01 1.715266227722167969e+01 -3.054091930389404297e-01 9.268310546875000000e+00 2.688870429992675781e+00 4.201036691665649414e-01
1.687000000000000000e+03 1.482372093200683594e+01 -2.407250165939331055e+00 3.211309194564819336e+00 1.153952312469482422e+01 4.425249576568603516e+00 -5.223251342773437500e+00
1.688000000000000000e+03 4.842637634277343750e+01 1.954207801818847656e+01 1.523761451244354248e-01 4.801853179931640625e+00 1.486268877983093262e+00 -9.040615558624267578e-01
1.689000000000000000e+03 4.853341674804687500e+01 5.726056098937988281e-01 1.168920248746871948e-01 2.625655174255371094e+00 8.227642178535461426e-01 3.138004064559936523e+00
1.690000000000000000e+03 5.370433044433593750e+01 8.574077606201171875e+00 -1.288609981536865234e+00 1.083598899841308594e+01 2.864213705062866211e+00 -7.818844914436340332e-01
1.691000000000000000e+03 5.177129364013671875e+01 7.212539672851562500e+00 -6.899930834770202637e-01 1.126771354675292969e+01 3.173316001892089844e+00 -9.321799278259277344e-01
1.692000000000000000e+03 3.979508972167968750e+01 1.562741088867187500e+01 -4.660540521144866943e-01 6.951881885528564453e+00 1.945748329162597656e+00 2.417793512344360352e+00
1.693000000000000000e+03 3.878472518920898438e+01 1.634543800354003906e+01 -5.603163838386535645e-01 6.924297809600830078e+00 1.909194469451904297e+00 1.154772281646728516e+00
1.694000000000000000e+03 3.873530960083007812e+01 -2.894975185394287109e+00 -2.611228227615356445e+00 4.713688850402832031e+00 6.307381987571716309e-01 -3.721929550170898438e+00
1.695000000000000000e+03 1.641527557373046875e+01 -5.732381343841552734e+00 1.054226040840148926e+00 6.107463359832763672e+00 2.148506879806518555e+00 -2.748333692550659180e+00
1.696000000000000000e+03 4.635472488403320312e+01 -1.517756080627441406e+01 4.141131043434143066e-01 3.463504791259765625e+00 1.163285374641418457e+00 -1.217786073684692383e+00
1.697000000000000000e+03 1.083488559722900391e+01 3.109932422637939453e+00 2.247845411300659180e+00 8.745839118957519531e+00 3.298105478286743164e+00 -9.455627441406250000e+00
1.698000000000000000e+03 4.024775314331054688e+01 -6.076970100402832031e+00 1.124809145927429199e+00 4.811010360717773438e+00 1.780745863914489746e+00 -8.891694545745849609e-01
1.699000000000000000e+03 2.586703681945800781e+01 1.877307319641113281e+01 -3.068769454956054688e+00 8.014312744140625000e+00 1.483663082122802734e+00 -2.665306329727172852e-01
1.700000000000000000e+03 2.236849021911621094e+01 1.971014785766601562e+01 -1.522110342979431152e+00 7.820561528205871582e-01 -2.220162451267242432e-01 -1.535475850105285645e+00
1.701000000000000000e+03 5.507495498657226562e+01 -2.831517934799194336e+00 -2.705855131149291992e+00 5.841434478759765625e+00 9.406737685203552246e-01 -3.254058837890625000e+00
1.702000000000000000e+03 5.312915420532226562e+01 -2.369910240173339844e+00 -4.143644809722900391e+00 6.234002113342285156e+00 6.271071434020996094e-01 -1.964825749397277832e+00
1.703000000000000000e+03 6.052021408081054688e+01 9.384193271398544312e-02 -3.246179103851318359e+00 3.405372142791748047e+00 4.775792360305786133e-02 5.781033039093017578e-01
1.704000000000000000e+03 5.962121200561523438e+01 -6.977179050445556641e-01 -2.679142475128173828e+00 3.032364845275878906e+00 1.059667542576789856e-01 -5.333876013755798340e-01
1.705000000000000000e+03 2.533391189575195312e+01 -1.098011779785156250e+01 1.477528065443038940e-01 8.020498275756835938e+00 2.450475454330444336e+00 4.479284584522247314e-01
1.706000000000000000e+03 2.745593452453613281e+01 -1.027106475830078125e+01 1.876116514205932617e+00 7.817827701568603516e+00 2.908183336257934570e+00 -8.123821020126342773e-01
1.707000000000000000e+03 6.460609912872314453e+00 5.425485134124755859e+00 5.483381271362304688e+00 1.366450071334838867e+00 2.054949522018432617e+00 -9.682985544204711914e-01
1.708000000000000000e+03 6.803298187255859375e+01 1.408841419219970703e+01 1.045287966728210449e+00 8.835534095764160156e+00 2.964246511459350586e+00 9.412091970443725586e-01
1.709000000000000000e+03 6.733341979980468750e+01 1.673381233215332031e+01 -5.701045393943786621e-01 8.248008728027343750e+00 2.303371429443359375e+00 -3.662351965904235840e-01
1.710000000000000000e+03 5.433636856079101562e+01 -5.377007484436035156e+00 -1.908128261566162109e+00 4.978014945983886719e+00 9.209660291671752930e-01 -1.286875724792480469e+00
1.711000000000000000e+03 7.237773132324218750e+01 -2.191998672485351562e+01 1.642590165138244629e-01 6.172325611114501953e+00 1.900975346565246582e+00 1.067071795463562012e+00
1.712000000000000000e+03 7.576614379882812500e+01 -1.934915351867675781e+01 -5.220891833305358887e-01 7.885313034057617188e+00 2.208967208862304688e+00 1.272210647584870458e-04
1.713000000000000000e+03 4.216745758056640625e+01 -3.301387071609497070e+00 9.530111551284790039e-01 4.949839115142822266e+00 1.770855069160461426e+00 -1.246225357055664062e+00
1.714000000000000000e+03 4.956523513793945312e+01 3.033214330673217773e+00 1.674523115158081055e+00 4.427308082580566406e+00 1.830549359321594238e+00 1.472266435623168945e+00
1.715000000000000000e+03 3.254463958740234375e+01 1.601813435554504395e+00 2.397597074508666992e+00 1.611918568611145020e+00 1.202854752540588379e+00 4.809426784515380859e+00
1.716000000000000000e+03 3.963720321655273438e+01 1.765204620361328125e+01 -8.195012211799621582e-01 5.877133369445800781e+00 1.517289638519287109e+00 1.700408101081848145e+00
1.717000000000000000e+03 4.174974060058593750e+01 1.607799339294433594e+01 4.110310673713684082e-01 4.097499847412109375e+00 1.352559208869934082e+00 2.186784029006958008e+00
1.718000000000000000e+03 7.716909790039062500e+01 -1.533308124542236328e+01 1.938076168298721313e-01 7.870116710662841797e+00 2.419177293777465820e+00 -2.695059180259704590e-01
1.719000000000000000e+03 7.348477172851562500e+01 -1.476401901245117188e+01 1.675247192382812500e+00 1.015386295318603516e+01 3.548732995986938477e+00 4.737454652786254883e-01
1.720000000000000000e+03 7.724194335937500000e+01 -1.406667137145996094e+01 5.777094364166259766e-01 7.761731624603271484e+00 2.501832246780395508e+00 2.081799786537885666e-03
1.721000000000000000e+03 6.230297851562500000e+01 -1.944951057434082031e+01 2.994405627250671387e-01 5.642793178558349609e+00 1.782670140266418457e+00 -1.456231832504272461e+00
1.722000000000000000e+03 6.419080352783203125e+01 -1.516640758514404297e+01 -4.786753356456756592e-01 4.394696235656738281e+00 1.174806237220764160e+00 -7.268543839454650879e-01
1.723000000000000000e+03 1.650584411621093750e+01 1.827383041381835938e+01 -2.315178871154785156e+00 8.165090680122375488e-01 -4.496009349822998047e-01 1.021370217204093933e-01
1.724000000000000000e+03 3.525850296020507812e+01 1.320317149162292480e+00 3.767424583435058594e+00 4.816640377044677734e+00 2.575219392776489258e+00 1.329269289970397949e+00
1.725000000000000000e+03 2.756555175781250000e+01 1.835043907165527344e+01 -8.695682883262634277e-01 5.243237495422363281e+00 1.312100648880004883e+00 1.802551031112670898e+00
1.726000000000000000e+03 4.742182540893554688e+01 -1.617502021789550781e+01 -2.829843200743198395e-02 2.591320991516113281e+00 7.689067125320434570e-01 -1.071348547935485840e+00
1.727000000000000000e+03 4.682402038574218750e+01 1.146678924560546875e+00 -1.195009350776672363e+00 2.925590038299560547e+00 5.191742181777954102e-01 2.643480300903320312e+00
1.728000000000000000e+03 3.578308868408203125e+01 4.195080757141113281e+00 1.659009814262390137e+00 8.497695922851562500e+00 3.047011613845825195e+00 6.775775551795959473e-01
1.729000000000000000e+03 3.240654754638671875e+01 3.330892562866210938e+00 2.408115863800048828e-01 2.059842109680175781e+00 6.901961565017700195e-01 2.646770715713500977e+00
1.730000000000000000e+03 2.418559455871582031e+01 -1.163061523437500000e+01 1.309380292892456055e+00 6.789708137512207031e+00 2.429726600646972656e+00 2.081311225891113281e+00
1.731000000000000000e+03 2.723725700378417969e+01 -1.311793422698974609e+01 1.312973536550998688e-02 5.857263088226318359e+00 1.761117815971374512e+00 -9.094358682632446289e-01
1.732000000000000000e+03 1.741267395019531250e+01 -8.009048461914062500e+00 5.088730454444885254e-01 4.684695720672607422e+00 1.558070659637451172e+00 -1.801780819892883301e+00
1.733000000000000000e+03 1.790454292297363281e+01 -8.595600128173828125e+00 7.584525942802429199e-01 4.094746589660644531e+00 1.455959677696228027e+00 -1.870501041412353516e+00
1.734000000000000000e+03 6.748793792724609375e+01 1.124816060066223145e+00 -1.227747321128845215e+00 7.321680068969726562e+00 1.828179717063903809e+00 6.533620953559875488e-01
1.735000000000000000e+03 6.894796752929687500e+01 1.530259251594543457e+00 -1.149976849555969238e+00 9.459572792053222656e+00 2.492878675460815430e+00 -1.209582313895225525e-01
1.736000000000000000e+03 4.607355880737304688e+01 2.225367426872253418e-01 -1.829517364501953125e+00 3.399427652359008789e+00 4.709730744361877441e-01 3.731709003448486328e+00
1.737000000000000000e+03 3.447941589355468750e+01 -1.838268089294433594e+01 1.112378612160682678e-01 2.310542106628417969e+00 7.265340089797973633e-01 -6.925675272941589355e-01
1.738000000000000000e+03 3.487813949584960938e+01 -1.642998886108398438e+01 -2.810539603233337402e-01 1.714460372924804688e+00 4.300219416618347168e-01 -1.072706460952758789e+00
1.739000000000000000e+03 5.464087677001953125e+01 1.004568290710449219e+01 -2.285911440849304199e-01 7.247860908508300781e+00 2.105780839920043945e+00 2.844869494438171387e-01
1.740000000000000000e+03 2.293153381347656250e+01 -1.246262741088867188e+01 1.742244005203247070e+00 3.960963010787963867e+00 1.710962057113647461e+00 1.170654177665710449e+00
1.741000000000000000e+03 7.699316406250000000e+01 -1.164881515502929688e+01 7.180252671241760254e-01 8.361425399780273438e+00 2.723834991455078125e+00 8.758694529533386230e-01
1.742000000000000000e+03 7.723336029052734375e+01 -1.285320568084716797e+01 4.810560643672943115e-01 8.001091003417968750e+00 2.544644117355346680e+00 4.502548575401306152e-01
1.743000000000000000e+03 7.589381408691406250e+01 -9.077011108398437500e+00 5.274478197097778320e-01 8.790488243103027344e+00 2.795380830764770508e+00 1.622355341911315918e+00
1.744000000000000000e+03 7.486943817138671875e+01 -8.409287452697753906e+00 6.800119876861572266e-01 9.166947364807128906e+00 2.954087972640991211e+00 1.327430009841918945e+00
1.745000000000000000e+03 7.634448242187500000e+01 -6.017283916473388672e+00 -4.628220945596694946e-02 8.864306449890136719e+00 2.645407199859619141e+00 1.604400515556335449e+00
1.746000000000000000e+03 7.566173553466796875e+01 -2.219517707824707031e+01 -3.312259316444396973e-01 7.152276992797851562e+00 2.046315431594848633e+00 4.018665850162506104e-01
1.747000000000000000e+03 7.463563537597656250e+01 -1.640799522399902344e+01 3.140659332275390625e-01 9.017235755920410156e+00 2.799390554428100586e+00 1.382496207952499390e-02
1.748000000000000000e+03 7.276245117187500000e+01 3.485752105712890625e+01 9.041552431881427765e-03 6.211184501647949219e+00 1.866067767143249512e+00 -2.689353004097938538e-02
1.749000000000000000e+03 7.541706848144531250e+01 3.144678306579589844e+01 -1.708498108200728893e-03 6.395903110504150391e+00 1.918258428573608398e+00 4.901665728539228439e-03
1.750000000000000000e+03 7.719537353515625000e+01 -2.649485826492309570e+00 -2.189148366451263428e-01 9.576190948486328125e+00 2.807182788848876953e+00 1.579062342643737793e+00
1.751000000000000000e+03 7.409884643554687500e+01 -1.721904993057250977e+00 -1.184368729591369629e+00 4.430814266204833984e+00 9.739337563514709473e-01 -5.260606408119201660e-01
1.752000000000000000e+03 7.581002044677734375e+01 -1.793777656555175781e+01 -1.867804378271102905e-01 8.250499725341796875e+00 2.419115781784057617e+00 -1.585918366909027100e-01
1.753000000000000000e+03 7.702295684814453125e+01 -1.802741050720214844e+01 -1.984082758426666260e-01 7.805428504943847656e+00 2.282106161117553711e+00 -3.907184600830078125e-01
1.754000000000000000e+03 7.590558624267578125e+01 1.574501991271972656e+01 4.046035110950469971e-01 6.430249691009521484e+00 2.050456047058105469e+00 -5.896823406219482422e-01
1.755000000000000000e+03 7.381324768066406250e+01 1.245149993896484375e+01 1.030637860298156738e+00 4.897068023681640625e+00 1.778311848640441895e+00 -1.651916623115539551e+00
1.756000000000000000e+03 7.526020050048828125e+01 -2.908324813842773438e+01 1.432450264692306519e-01 6.503805160522460938e+00 1.994114995002746582e+00 2.704213857650756836e-01
1.757000000000000000e+03 7.435816955566406250e+01 -2.352484703063964844e+01 -1.941077411174774170e-01 6.671425342559814453e+00 1.943195223808288574e+00 5.647017359733581543e-01
1.758000000000000000e+03 7.411543273925781250e+01 1.416314601898193359e+01 1.154550790786743164e+00 5.389385700225830078e+00 1.963180899620056152e+00 -8.299779891967773438e-01
1.759000000000000000e+03 7.561323547363281250e+01 2.205019950866699219e+01 5.942556262016296387e-02 6.497286796569824219e+00 1.967013716697692871e+00 -9.800095111131668091e-03
1.760000000000000000e+03 7.711433410644531250e+01 1.818966293334960938e+01 1.909222155809402466e-01 6.558647155761718750e+00 2.024870872497558594e+00 -2.220440059900283813e-01
1.761000000000000000e+03 7.609440612792968750e+01 1.821431159973144531e+01 2.706302702426910400e-01 6.470629215240478516e+00 2.022377967834472656e+00 -2.404122501611709595e-01
1.762000000000000000e+03 7.560630035400390625e+01 2.060429763793945312e+01 1.385801881551742554e-01 6.488452434539794922e+00 1.988109827041625977e+00 -4.493683949112892151e-02
1.763000000000000000e+03 7.497676849365234375e+01 1.726301002502441406e+01 4.528078734874725342e-01 6.306370735168457031e+00 2.027753591537475586e+00 -2.718658745288848877e-01
1.764000000000000000e+03 7.549876403808593750e+01 -2.498960494995117188e+01 -8.399032056331634521e-02 6.765528202056884766e+00 2.004461288452148438e+00 3.896097242832183838e-01
1.765000000000000000e+03 7.677295684814453125e+01 -2.504984474182128906e+01 3.007558733224868774e-02 6.986808300018310547e+00 2.105065107345581055e+00 2.693289518356323242e-01
1.766000000000000000e+03 7.540042877197265625e+01 -2.636363601684570312e+01 1.208247840404510498e-01 6.638893127441406250e+00 2.027915477752685547e+00 3.537234961986541748e-01
1.767000000000000000e+03 7.492482757568359375e+01 2.470075607299804688e+01 1.712312363088130951e-02 6.431137084960937500e+00 1.934478044509887695e+00 -7.437468972057104111e-03
1.768000000000000000e+03 7.647592163085937500e+01 2.783088493347167969e+01 -2.121622115373611450e-02 6.463450431823730469e+00 1.932670235633850098e+00 1.715834811329841614e-02
1.769000000000000000e+03 7.484172821044921875e+01 2.798100662231445312e+01 6.815224420279264450e-03 6.393134593963623047e+00 1.919985055923461914e+00 -2.457773312926292419e-02
1.770000000000000000e+03 7.673339843750000000e+01 3.041495704650878906e+01 -1.155472081154584885e-02 6.455659389495849609e+00 1.933231353759765625e+00 3.398229600861668587e-03
1.771000000000000000e+03 7.520323181152343750e+01 2.929547500610351562e+01 -2.958717197179794312e-02 6.378201484680175781e+00 1.904584288597106934e+00 3.565131686627864838e-03
1.772000000000000000e+03 7.394438171386718750e+01 -2.902603149414062500e+01 9.894207119941711426e-02 6.323308467864990234e+00 1.926675200462341309e+00 2.606496512889862061e-01
1.773000000000000000e+03 7.398460388183593750e+01 -3.641810607910156250e+01 9.386795014142990112e-02 6.300879001617431641e+00 1.918424010276794434e+00 9.604365378618240356e-02
1.774000000000000000e+03 7.459825134277343750e+01 3.360582733154296875e+01 1.515796058811247349e-03 6.331044673919677734e+00 1.899768114089965820e+00 -6.096374243497848511e-03
1.775000000000000000e+03 7.548057556152343750e+01 3.036805725097656250e+01 1.175632607191801071e-02 6.396509170532226562e+00 1.922479629516601562e+00 -1.889193430542945862e-02
1.776000000000000000e+03 7.651077270507812500e+01 -3.058861351013183594e+01 7.976853102445602417e-02 6.635184764862060547e+00 2.014485836029052734e+00 1.794842332601547241e-01
1.777000000000000000e+03 7.531089782714843750e+01 -2.772786331176757812e+01 2.915272302925586700e-02 6.576872825622558594e+00 1.981807708740234375e+00 2.998794913291931152e-01
1.778000000000000000e+03 7.474301910400390625e+01 -3.368847656250000000e+01 6.873302161693572998e-02 6.357103347778320312e+00 1.927750945091247559e+00 1.164769083261489868e-01
1.779000000000000000e+03 3.411583328247070312e+01 4.746755123138427734e+00 6.912750005722045898e-01 4.591904640197753906e+00 1.584953904151916504e+00 1.503678083419799805e+00
1.780000000000000000e+03 1.552430534362792969e+01 -5.949440479278564453e+00 4.172707498073577881e-01 7.057966709136962891e+00 2.242571353912353516e+00 -1.866125226020812988e+00
1.781000000000000000e+03 1.676025199890136719e+01 -7.551702499389648438e+00 5.605239272117614746e-01 5.008953094482421875e+00 1.670843005180358887e+00 -1.869557738304138184e+00
1.782000000000000000e+03 4.832334899902343750e+01 -1.899944877624511719e+01 -4.902017489075660706e-02 2.501568317413330078e+00 7.357644438743591309e-01 -1.249133706092834473e+00
1.783000000000000000e+03 1.730005264282226562e+01 -9.714958190917968750e+00 4.882102012634277344e-01 4.259840488433837891e+00 1.424415230751037598e+00 -1.321155071258544922e+00
1.784000000000000000e+03 4.929461669921875000e+01 4.787120819091796875e+00 1.161178588867187500e+00 4.722272872924804688e+00 1.765035390853881836e+00 1.110412478446960449e+00
1.785000000000000000e+03 3.033678054809570312e+00 -1.643397331237792969e+01 -3.350250795483589172e-02 9.359091520309448242e-01 2.707220017910003662e-01 3.665583133697509766e-01
1.786000000000000000e+03 4.173750400543212891e+00 -1.511576080322265625e+01 -3.803939372301101685e-02 1.149745821952819824e+00 3.335119187831878662e-01 4.738735854625701904e-01
1.787000000000000000e+03 4.561669349670410156e+00 2.298642921447753906e+01 -2.610047161579132080e-01 3.534750461578369141e+00 9.821237325668334961e-01 1.962771639227867126e-03
1.788000000000000000e+03 5.930968761444091797e+00 2.164565277099609375e+01 -5.553552508354187012e-01 3.364300966262817383e+00 8.426837325096130371e-01 -1.259592622518539429e-01
1.789000000000000000e+03 4.512780189514160156e+00 1.861464500427246094e+01 -6.751586198806762695e-01 3.558176517486572266e+00 8.649053573608398438e-01 -7.257207632064819336e-01
1.790000000000000000e+03 4.558859825134277344e+00 2.010254478454589844e+01 -4.774456322193145752e-01 3.523296594619750977e+00 9.137552976608276367e-01 -3.951894640922546387e-01
1.791000000000000000e+03 3.215108156204223633e+00 1.578327083587646484e+01 -4.242393374443054199e-01 3.074525833129882812e+00 7.950859069824218750e-01 -1.262430667877197266e+00
1.792000000000000000e+03 5.902145862579345703e+00 1.560049819946289062e+01 -1.221930027008056641e+00 3.731850862503051758e+00 7.529762387275695801e-01 -1.437386751174926758e+00
1.793000000000000000e+03 4.483144760131835938e+00 1.414926815032958984e+01 -7.779092192649841309e-01 3.212611913681030273e+00 7.304108142852783203e-01 -1.899643898010253906e+00
1.794000000000000000e+03 4.416803359985351562e+00 2.561145591735839844e+01 -1.148079708218574524e-01 3.513024806976318359e+00 1.019464969635009766e+00 1.814552992582321167e-01
1.795000000000000000e+03 4.422739982604980469e+00 2.684157562255859375e+01 -1.094062030315399170e-01 3.494299173355102539e+00 1.015467882156372070e+00 2.076487690210342407e-01
1.796000000000000000e+03 3.195240736007690430e+00 2.701681900024414062e+01 -1.330000068992376328e-02 3.702539682388305664e+00 1.106771945953369141e+00 1.908951103687286377e-01
1.797000000000000000e+03 4.699603080749511719e+00 2.927443313598632812e+01 -3.614761307835578918e-02 3.380127906799316406e+00 1.003194093704223633e+00 2.668557763099670410e-01
1.798000000000000000e+03 4.233055591583251953e+00 -1.644244766235351562e+01 -3.136372938752174377e-02 1.253258705139160156e+00 3.665685057640075684e-01 4.603075981140136719e-01
1.799000000000000000e+03 4.605281352996826172e+00 -2.048734283447265625e+01 -8.022882789373397827e-02 1.576242804527282715e+00 4.488041996955871582e-01 3.943524062633514404e-01
1.800000000000000000e+03 6.565915584564208984e+00 -2.487842369079589844e+01 -1.173379421234130859e-01 2.073401927947998047e+00 5.868192315101623535e-01 3.492244780063629150e-01
1.801000000000000000e+03 3.456228256225585938e+00 -2.341233825683593750e+01 -3.107806295156478882e-02 1.527637481689453125e+00 4.489678442478179932e-01 2.647400498390197754e-01
1.802000000000000000e+03 4.764510154724121094e+00 -2.189979934692382812e+01 -6.367750465869903564e-02 1.677233695983886719e+00 4.840668737888336182e-01 3.639492690563201904e-01
1.803000000000000000e+03 5.923733234405517578e+00 2.311114692687988281e+01 -4.326595962047576904e-01 3.341208696365356445e+00 8.725647330284118652e-01 -1.294062938541173935e-02
1.804000000000000000e+03 4.494280338287353516e+00 2.432634353637695312e+01 -2.243309020996093750e-01 3.532571554183959961e+00 9.924721717834472656e-01 6.525653600692749023e-02
1.805000000000000000e+03 5.433793544769287109e+00 -1.644698905944824219e+01 -7.839392870664596558e-02 1.584952831268310547e+00 4.519676566123962402e-01 5.257086753845214844e-01
1.806000000000000000e+03 4.327921390533447266e+00 -1.776724624633789062e+01 -6.455072015523910522e-02 1.365799665451049805e+00 3.903746902942657471e-01 4.410485327243804932e-01
1.807000000000000000e+03 3.508184432983398438e+00 -2.485544586181640625e+01 -4.712967202067375183e-02 1.609559297561645508e+00 4.687288999557495117e-01 2.368789911270141602e-01
1.808000000000000000e+03 4.981491565704345703e+00 -2.484157371520996094e+01 -5.948036909103393555e-02 1.818645358085632324e+00 5.277494788169860840e-01 3.022781312465667725e-01
1.809000000000000000e+03 2.803896188735961914e+00 9.873175621032714844e+00 3.788012564182281494e-01 8.470775485038757324e-01 3.677636384963989258e-01 -2.126273155212402344e+00
1.810000000000000000e+03 9.138929367065429688e+00 9.681282043457031250e+00 -9.382446408271789551e-01 7.805465221405029297e+00 2.060166120529174805e+00 -2.614205121994018555e+00
1.811000000000000000e+03 3.584144830703735352e+00 -3.054415893554687500e+01 -4.479291290044784546e-02 1.867223739624023438e+00 5.467292666435241699e-01 1.449553817510604858e-01
1.812000000000000000e+03 5.572532653808593750e+00 -2.897548675537109375e+01 -7.461251318454742432e-02 2.012867450714111328e+00 5.814764499664306641e-01 2.173846662044525146e-01
1.813000000000000000e+03 4.046329498291015625e+00 -1.000546836853027344e+01 1.455765217542648315e-01 6.554096341133117676e-01 2.402958422899246216e-01 4.047365784645080566e-01
1.814000000000000000e+03 4.139369487762451172e+00 -1.378625965118408203e+01 8.459590375423431396e-03 1.036938548088073730e+00 3.136194348335266113e-01 4.899049103260040283e-01
1.815000000000000000e+03 6.343247413635253906e+00 2.993300628662109375e+01 -1.929768733680248260e-02 3.144676208496093750e+00 9.376135468482971191e-01 3.039010465145111084e-01
1.816000000000000000e+03 6.903673648834228516e+00 3.643363189697265625e+01 1.836804151535034180e-01 2.865217924118041992e+00 9.146694540977478027e-01 1.709608286619186401e-01
1.817000000000000000e+03 4.036473751068115234e+00 3.678584289550781250e+01 2.147852070629596710e-02 3.236626148223876953e+00 9.774314165115356445e-01 1.323906928300857544e-01
1.818000000000000000e+03 3.624151229858398438e+00 8.922223091125488281e+00 8.535931706428527832e-01 8.637385368347167969e-01 5.151995420455932617e-01 -2.234985113143920898e+00
1.819000000000000000e+03 4.663778781890869141e+00 -2.995363235473632812e+01 -4.793582111597061157e-02 1.949014186859130859e+00 5.703235268592834473e-01 1.934067904949188232e-01
1.820000000000000000e+03 4.057596206665039062e+00 -3.205550384521484375e+01 -2.867252752184867859e-02 1.953522086143493652e+00 5.774548649787902832e-01 1.311042010784149170e-01
1.821000000000000000e+03 4.085553169250488281e+00 -1.120159626007080078e+01 9.496573358774185181e-02 7.782176136970520020e-01 2.619550228118896484e-01 4.580521583557128906e-01
1.822000000000000000e+03 5.038659572601318359e+00 3.053579902648925781e+01 3.883780911564826965e-02 3.257235050201416016e+00 9.888218641281127930e-01 2.752095162868499756e-01
1.823000000000000000e+03 5.913765907287597656e+00 3.326012420654296875e+01 8.946844935417175293e-02 3.077298402786254883e+00 9.500300288200378418e-01 2.660305500030517578e-01
1.824000000000000000e+03 4.350275993347167969e+00 3.528229141235351562e+01 8.038029074668884277e-02 3.258433580398559570e+00 1.001644134521484375e+00 2.079943567514419556e-01
1.825000000000000000e+03 4.563879966735839844e+00 9.436856269836425781e+00 8.658310174942016602e-01 2.519196748733520508e+00 1.015508294105529785e+00 -2.872738361358642578e+00
1.826000000000000000e+03 4.509150981903076172e+00 -4.673922538757324219e+00 3.479443192481994629e-01 1.199055686593055725e-01 1.403549611568450928e-01 -1.092970296740531921e-01
1.827000000000000000e+03 3.152818918228149414e+00 -4.879177570343017578e+00 1.982046365737915039e-01 -7.852278649806976318e-02 3.590455651283264160e-02 -1.707700937986373901e-01
1.828000000000000000e+03 3.591859579086303711e+00 -6.332151889801025391e+00 2.607930600643157959e-01 9.203849732875823975e-02 1.058494672179222107e-01 3.141792863607406616e-02
1.829000000000000000e+03 1.690735054016113281e+01 2.021561813354492188e+01 -1.599722266197204590e+00 9.073911905288696289e-01 -2.076993286609649658e-01 1.927053481340408325e-01
1.830000000000000000e+03 1.091321086883544922e+01 1.359366226196289062e+01 -2.185339689254760742e+00 3.803061008453369141e+00 4.853163957595825195e-01 -2.905332148075103760e-01
1.831000000000000000e+03 9.970944404602050781e+00 1.064174938201904297e+01 -1.947775602340698242e+00 7.362991809844970703e+00 1.624564886093139648e+00 -4.389286339282989502e-01
1.832000000000000000e+03 8.338130950927734375e+00 8.837425231933593750e+00 6.491378545761108398e-01 7.619802474975585938e+00 2.480682134628295898e+00 -3.036618947982788086e+00
1.833000000000000000e+03 6.943565368652343750e+01 -3.021437883377075195e+00 -3.781148672103881836e+00 3.825279951095581055e+00 1.323940046131610870e-02 -1.226376056671142578e+00
1.834000000000000000e+03 7.106546783447265625e+01 -2.375977277755737305e+00 -2.833084106445312500e+00 4.410725593566894531e+00 4.732924699783325195e-01 -2.628139972686767578e+00
1.835000000000000000e+03 6.133232879638671875e+01 -3.936902523040771484e+00 2.825564384460449219e+00 7.777915477752685547e+00 3.181044101715087891e+00 1.016063928604125977e+00
1.836000000000000000e+03 5.658958816528320312e+01 1.232554626464843750e+01 2.115345746278762817e-01 3.142610073089599609e+00 1.006243348121643066e+00 1.286097288131713867e+00
1.837000000000000000e+03 5.508768844604492188e+01 1.284256458282470703e+01 1.055714011192321777e+00 5.822611331939697266e+00 2.063497543334960938e+00 1.702072858810424805e+00
1.838000000000000000e+03 5.081100463867187500e+01 5.021955490112304688e+00 1.251642823219299316e+00 8.350251197814941406e+00 2.880568027496337891e+00 -2.754362821578979492e-01
1.839000000000000000e+03 2.686054992675781250e+01 -7.574528694152832031e+00 3.433517932891845703e+00 8.686932563781738281e+00 3.636135101318359375e+00 1.599418759346008301e+00
1.840000000000000000e+03 2.877350807189941406e+01 -6.386152744293212891e+00 7.286022305488586426e-01 7.222984790802001953e+00 2.385476112365722656e+00 1.323503375053405762e+00
1.841000000000000000e+03 1.893133544921875000e+01 5.520985603332519531e+00 4.624588966369628906e+00 2.618225514888763428e-01 1.465923428535461426e+00 3.823809146881103516e+00
1.842000000000000000e+03 4.486023712158203125e+01 -1.937617421150207520e+00 -3.329237461090087891e+00 6.932041645050048828e+00 1.080841302871704102e+00 3.043761491775512695e+00
1.843000000000000000e+03 3.995655441284179688e+01 1.365682125091552734e+01 2.315955400466918945e+00 6.869249820709228516e+00 2.755561590194702148e+00 3.135399818420410156e+00
1.844000000000000000e+03 4.112267684936523438e+01 1.299807453155517578e+01 1.977484583854675293e+00 3.259232282638549805e+00 1.571015119552612305e+00 2.506176233291625977e+00
1.845000000000000000e+03 5.924039840698242188e+01 -1.686413002014160156e+01 1.380771279335021973e+00 8.680388450622558594e+00 3.018347978591918945e+00 -3.530688583850860596e-01
1.846000000000000000e+03 2.741328048706054688e+01 -6.569980382919311523e-01 3.093021631240844727e+00 2.806272506713867188e+00 1.769788265228271484e+00 -3.621643483638763428e-01
1.847000000000000000e+03 2.411976814270019531e+01 8.477355957031250000e+00 -4.915930628776550293e-01 9.106615066528320312e+00 2.584506750106811523e+00 3.230558395385742188e+00
1.848000000000000000e+03 5.751461410522460938e+01 1.288780117034912109e+01 -9.743861854076385498e-02 1.738446831703186035e+00 4.923024475574493408e-01 7.994053363800048828e-01
1.849000000000000000e+03 2.386234474182128906e+01 2.138210105895996094e+01 -1.314744830131530762e+00 2.160770654678344727e+00 2.538077533245086670e-01 -1.288024067878723145e+00
1.850000000000000000e+03 4.289429855346679688e+01 -6.204486846923828125e+00 2.084391117095947266e+00 9.223385810852050781e+00 3.392333030700683594e+00 1.345082759857177734e+00
1.851000000000000000e+03 4.260937118530273438e+01 -4.490980148315429688e+00 1.911885499954223633e+00 6.643064022064208984e+00 2.566484689712524414e+00 -2.903826832771301270e-01
1.852000000000000000e+03 7.183547973632812500e+01 -4.403496265411376953e+00 -1.679106354713439941e+00 5.277531147003173828e+00 1.079527378082275391e+00 -1.084193468093872070e+00
1.853000000000000000e+03 7.305351257324218750e+01 -1.943442344665527344e+00 -1.335406184196472168e+00 4.029980182647705078e+00 8.083722591400146484e-01 -1.031466960906982422e+00
1.854000000000000000e+03 3.928034210205078125e+01 -4.054323673248291016e+00 -8.010534644126892090e-01 3.648655176162719727e+00 8.542805314064025879e-01 -2.801402568817138672e+00
1.855000000000000000e+03 7.060388183593750000e+01 1.039051437377929688e+01 6.553138494491577148e-01 3.999158143997192383e+00 1.396341562271118164e+00 1.370346426963806152e+00
1.856000000000000000e+03 2.065526962280273438e+01 1.862826347351074219e+01 -2.161408424377441406e+00 -1.860037893056869507e-01 -7.042236328125000000e-01 -6.825804710388183594e-01
1.857000000000000000e+03 5.734266662597656250e+01 -5.139813423156738281e+00 8.711409755051136017e-03 5.341924667358398438e+00 1.605190873146057129e+00 -1.384898781776428223e+00
1.858000000000000000e+03 4.938095855712890625e+01 1.747774696350097656e+01 -3.310833573341369629e-01 6.078621387481689453e+00 1.724261403083801270e+00 -2.136951923370361328e+00
1.859000000000000000e+03 4.454341506958007812e+01 1.723913955688476562e+01 6.183693408966064453e-01 2.193707704544067383e+00 8.436231017112731934e-01 1.404117822647094727e+00
1.860000000000000000e+03 5.029061126708984375e+01 4.037956237792968750e+00 1.740836143493652344e+00 6.568848609924316406e+00 2.492905378341674805e+00 3.013001680374145508e-01
1.861000000000000000e+03 3.884651947021484375e+01 1.431575107574462891e+01 6.306636929512023926e-01 7.889501094818115234e+00 2.556049346923828125e+00 3.166469097137451172e+00
1.862000000000000000e+03 2.828216171264648438e+01 -8.769371032714843750e+00 2.004482984542846680e+00 6.695115089416503906e+00 2.609879493713378906e+00 -2.557691186666488647e-02
1.863000000000000000e+03 5.165257263183593750e+01 -2.142228126525878906e+00 -3.837646961212158203e+00 4.644535064697265625e+00 2.420664131641387939e-01 -5.635982155799865723e-01
1.864000000000000000e+03 5.102099990844726562e+01 -9.428727030754089355e-01 -2.109869241714477539e+00 4.942560672760009766e+00 8.498075008392333984e-01 4.519577622413635254e-01
1.865000000000000000e+03 7.189665985107421875e+01 1.222727012634277344e+01 1.781269311904907227e+00 3.070834159851074219e+00 1.455631017684936523e+00 -3.752424120903015137e-01
1.866000000000000000e+03 6.742979431152343750e+01 3.687925577163696289e+00 1.925490021705627441e+00 8.375127792358398438e+00 3.090185165405273438e+00 1.576272398233413696e-02
1.867000000000000000e+03 6.740939331054687500e+01 5.264003753662109375e+00 1.110414266586303711e+00 9.173293113708496094e+00 3.085112333297729492e+00 -1.266771912574768066e+00
1.868000000000000000e+03 9.973274230957031250e+00 1.257569217681884766e+01 -2.320353984832763672e+00 5.422598838806152344e+00 9.306735396385192871e-01 -5.531750321388244629e-01
1.869000000000000000e+03 3.601119232177734375e+01 2.385183334350585938e+00 5.063227176666259766e+00 7.773249626159667969e+00 3.850943088531494141e+00 5.665950179100036621e-01
1.870000000000000000e+03 6.885987091064453125e+01 1.619689166545867920e-01 -2.508221149444580078e+00 6.508117675781250000e+00 1.199968814849853516e+00 -8.843080997467041016e-01
1.871000000000000000e+03 1.389187622070312500e+01 1.463489627838134766e+01 -2.431245088577270508e+00 1.619030475616455078e+00 -2.436643540859222412e-01 -1.021374017000198364e-01
1.872000000000000000e+03 1.195082378387451172e+01 1.460396289825439453e+01 -2.377919197082519531e+00 3.172167062759399414e+00 2.382743656635284424e-01 2.436473779380321503e-02
1.873000000000000000e+03 6.269385147094726562e+01 -1.287758255004882812e+01 -5.750184655189514160e-01 6.611055850982666016e+00 1.810811281204223633e+00 -3.694601356983184814e-02
1.874000000000000000e+03 6.655133819580078125e+01 -1.695050048828125000e+01 4.411228001117706299e-02 2.102442979812622070e+00 6.439666152000427246e-01 -6.448677182197570801e-01
1.875000000000000000e+03 6.486100769042968750e+01 -1.604023742675781250e+01 -6.304455399513244629e-01 3.703497171401977539e+00 9.219154715538024902e-01 -9.540420174598693848e-01
1.876000000000000000e+03 3.302540969848632812e+01 1.794778633117675781e+01 4.377633035182952881e-01 1.964883089065551758e+00 7.207939028739929199e-01 2.616284787654876709e-02
1.877000000000000000e+03 3.275028991699218750e+01 1.585468769073486328e+01 4.089518189430236816e-01 2.508197426795959473e-01 1.979314684867858887e-01 -2.048901319503784180e-01
1.878000000000000000e+03 5.667299270629882812e+01 -2.366638374328613281e+01 -4.984206557273864746e-01 5.699462890625000000e+00 1.560312628746032715e+00 4.781551659107208252e-01
1.879000000000000000e+03 5.778538131713867188e+01 -2.211747360229492188e+01 -1.573089957237243652e-01 6.835550308227539062e+00 2.003472566604614258e+00 3.710979819297790527e-01
1.880000000000000000e+03 6.877766418457031250e+01 -2.135473251342773438e+00 -3.906532287597656250e+00 4.227538108825683594e+00 9.630180150270462036e-02 -1.186838269233703613e+00
1.881000000000000000e+03 2.894855880737304688e+01 -1.131634235382080078e+01 7.912760972976684570e-01 5.450241565704345703e+00 1.872455239295959473e+00 -1.373127341270446777e+00
1.882000000000000000e+03 6.009078598022460938e+01 1.547432327270507812e+01 7.397578954696655273e-01 1.047134518623352051e+00 5.360677242279052734e-01 5.327596664428710938e-01
1.883000000000000000e+03 5.721506118774414062e+01 -1.505368471145629883e+00 -1.670668721199035645e+00 2.346580743789672852e+00 2.027736008167266846e-01 -3.842996597290039062e+00
1.884000000000000000e+03 6.841206359863281250e+01 1.321693706512451172e+01 1.674226880073547363e+00 8.833601951599121094e+00 3.152348518371582031e+00 1.795900464057922363e+00
1.885000000000000000e+03 4.902863693237304688e+01 -1.998089790344238281e+01 1.199681088328361511e-01 2.341120004653930664e+00 7.383264899253845215e-01 -1.061648488044738770e+00
1.886000000000000000e+03 7.553918457031250000e+01 4.049668884277343750e+01 1.860308577306568623e-03 6.385562896728515625e+00 1.916226983070373535e+00 2.673234231770038605e-02
1.887000000000000000e+03 5.343447494506835938e+01 -4.226656913757324219e+00 -3.414679527282714844e+00 4.791646480560302734e+00 4.130901098251342773e-01 -1.538480401039123535e+00
1.888000000000000000e+03 5.956913375854492188e+01 1.413451385498046875e+01 -5.282430052757263184e-01 7.998481988906860352e-01 8.148155361413955688e-02 5.955026745796203613e-01
1.889000000000000000e+03 5.712341308593750000e+01 1.594166183471679688e+01 9.998581409454345703e-01 3.604820013046264648e+00 1.381403446197509766e+00 1.978397846221923828e+00
1.890000000000000000e+03 5.741761398315429688e+01 -1.092905807495117188e+01 4.030577540397644043e-01 8.780583381652832031e+00 2.755092382431030273e+00 4.522114396095275879e-01
1.891000000000000000e+03 5.808518981933593750e+01 -9.066393852233886719e+00 4.189257621765136719e-01 7.633043766021728516e+00 2.415590763092041016e+00 8.142678737640380859e-01
1.892000000000000000e+03 1.970842170715332031e+01 2.006056976318359375e+01 -1.514035582542419434e+00 3.715878725051879883e-01 -3.427343368530273438e-01 -4.770838320255279541e-01
1.893000000000000000e+03 3.589547348022460938e+01 1.676444435119628906e+01 -3.353625535964965820e-01 5.138617038726806641e+00 1.440976262092590332e+00 -2.254822254180908203e+00
1.894000000000000000e+03 2.899230766296386719e+01 1.649978637695312500e+01 8.666688799858093262e-01 2.902872323989868164e+00 1.130862355232238770e+00 3.277763128280639648e+00
1.895000000000000000e+03 6.035779190063476562e+01 -1.128522872924804688e+01 1.527900248765945435e-02 8.246092796325683594e+00 2.478411674499511719e+00 1.069107651710510254e+00
1.896000000000000000e+03 5.994905853271484375e+01 -6.620217323303222656e+00 8.080850243568420410e-01 7.850917816162109375e+00 2.597700834274291992e+00 1.095467209815979004e+00
1.897000000000000000e+03 5.962980270385742188e+01 -1.478386688232421875e+01 7.825052738189697266e-01 8.531826972961425781e+00 2.794299602508544922e+00 1.182996258139610291e-01
1.898000000000000000e+03 7.119277477264404297e+00 1.347713851928710938e+01 -1.559051871299743652e+00 4.454763412475585938e+00 8.687133789062500000e-01 -2.011087417602539062e+00
1.899000000000000000e+03 6.113441848754882812e+01 -8.082674026489257812e+00 9.646720886230468750e-01 8.609568595886230469e+00 2.872272253036499023e+00 1.402847290039062500e+00
1.900000000000000000e+03 5.930854415893554688e+01 -7.756546497344970703e+00 8.831257224082946777e-01 7.369430541992187500e+00 2.475766897201538086e+00 1.069221973419189453e+00
1.901000000000000000e+03 1.532368946075439453e+01 1.744434738159179688e+01 -2.221655130386352539e+00 1.013216137886047363e+00 -3.625317215919494629e-01 3.206889703869819641e-02
1.902000000000000000e+03 2.931008148193359375e+01 -1.260728168487548828e+01 1.846162043511867523e-02 4.661021232604980469e+00 1.403844833374023438e+00 -1.523114800453186035e+00
1.903000000000000000e+03 5.911573028564453125e+01 -1.195857620239257812e+01 3.274942338466644287e-01 8.687509536743164062e+00 2.704501152038574219e+00 9.912174940109252930e-01
1.904000000000000000e+03 4.374824905395507812e+01 -1.333989906311035156e+01 1.348740339279174805e+00 7.801110744476318359e+00 2.744955301284790039e+00 1.553203095681965351e-03
1.905000000000000000e+03 5.915151596069335938e+01 -5.705439090728759766e+00 1.143357396125793457e+00 6.262424468994140625e+00 2.221734523773193359e+00 1.056152656674385071e-01
1.906000000000000000e+03 2.042280960083007812e+01 -1.108157825469970703e+01 1.519046783447265625e+00 2.951706409454345703e+00 1.341225981712341309e+00 -6.661603450775146484e-01
1.907000000000000000e+03 2.381057357788085938e+01 -1.059998869895935059e+00 -1.604110240936279297e+00 4.701284408569335938e+00 9.291522502899169922e-01 -2.747725963592529297e+00
1.908000000000000000e+03 4.316887283325195312e+01 -1.440369319915771484e+01 1.566293239593505859e+00 8.263642311096191406e+00 2.948980808258056641e+00 -3.886371850967407227e-01
1.909000000000000000e+03 4.429049682617187500e+01 -1.604957771301269531e+01 7.911256551742553711e-01 6.032846450805664062e+00 2.047191619873046875e+00 -1.225456595420837402e+00
1.910000000000000000e+03 2.518470764160156250e+01 9.401878356933593750e+00 -1.923505783081054688e+00 7.456192016601562500e+00 1.659805893898010254e+00 2.966835021972656250e+00
1.911000000000000000e+03 5.324266815185546875e+01 -1.479631185531616211e+00 -3.113201618194580078e+00 6.990299224853515625e+00 1.163129329681396484e+00 -2.360778093338012695e+00
1.912000000000000000e+03 6.132992553710937500e+01 -7.048241496086120605e-01 -3.214828014373779297e+00 6.046460151672363281e+00 8.494896292686462402e-01 1.168644428253173828e+00
1.913000000000000000e+03 4.407227706909179688e+01 -1.145505523681640625e+01 -2.755654230713844299e-02 7.895098209381103516e+00 2.360262632369995117e+00 2.210548818111419678e-01
1.914000000000000000e+03 4.875442886352539062e+01 2.199029684066772461e+00 1.064811348915100098e+00 3.437089920043945312e+00 1.350570321083068848e+00 2.065547704696655273e+00
1.915000000000000000e+03 1.985481643676757812e+01 -1.290908050537109375e+01 9.542272686958312988e-01 3.579946041107177734e+00 1.360252022743225098e+00 -2.528745830059051514e-01
1.916000000000000000e+03 7.411940002441406250e+01 -6.729997634887695312e+00 -1.664130389690399170e-01 8.157691955566406250e+00 2.397383689880371094e+00 8.828310966491699219e-01
1.917000000000000000e+03 3.503921127319335938e+01 -1.972415733337402344e+01 4.878254532814025879e-01 2.650350332260131836e+00 9.414527416229248047e-01 -5.222475528717041016e-01
1.918000000000000000e+03 6.255163955688476562e+01 1.733891129493713379e+00 -2.891309976577758789e+00 4.176240921020507812e+00 3.854791820049285889e-01 2.119225025177001953e+00
1.919000000000000000e+03 6.337694931030273438e+01 7.916796207427978516e-01 -3.525915384292602539e+00 5.733393669128417969e+00 6.622436046600341797e-01 3.399702787399291992e+00
1.920000000000000000e+03 5.332647705078125000e+01 6.873342394828796387e-01 -9.298954606056213379e-01 1.071884918212890625e+01 2.936686277389526367e+00 -5.905217528343200684e-01
1.921000000000000000e+03 5.146310043334960938e+01 3.605653285980224609e+00 2.642499923706054688e+00 8.683947563171386719e+00 3.397934198379516602e+00 -6.159364432096481323e-02
1.922000000000000000e+03 5.354410934448242188e+01 1.350049591064453125e+01 1.914220094680786133e+00 8.349125862121582031e+00 3.079003572463989258e+00 1.700695157051086426e+00
1.923000000000000000e+03 5.622422027587890625e+01 1.330618381500244141e+01 5.968095064163208008e-01 4.206188201904296875e+00 1.440899252891540527e+00 1.471538543701171875e+00
1.924000000000000000e+03 3.195586204528808594e+01 1.707638740539550781e+01 7.289849519729614258e-01 1.232667565345764160e+00 5.884957313537597656e-01 3.129519224166870117e-01
1.925000000000000000e+03 2.836264228820800781e+01 1.928260612487792969e+01 -1.412149786949157715e+00 5.231912612915039062e+00 1.145928859710693359e+00 1.590426921844482422e+00
1.926000000000000000e+03 2.028892898559570312e+01 6.403741836547851562e+00 2.833672285079956055e+00 3.231378316879272461e+00 1.819515228271484375e+00 5.838737487792968750e-01
1.927000000000000000e+03 7.203852844238281250e+01 -2.153588771820068359e+00 -1.479342818260192871e+00 3.947303533554077148e+00 7.403882145881652832e-01 -2.299940824508666992e+00
1.928000000000000000e+03 4.103143310546875000e+01 -1.918647193908691406e+01 -7.313070297241210938e-01 6.801666259765625000e+00 1.821107745170593262e+00 9.750913977622985840e-01
1.929000000000000000e+03 1.445321750640869141e+01 -5.474871635437011719e+00 9.360338747501373291e-02 7.755562782287597656e+00 2.354749679565429688e+00 -1.094945669174194336e+00
1.930000000000000000e+03 9.438714027404785156e+00 -2.628114223480224609e+00 1.287139296531677246e+00 9.506137371063232422e-01 6.713259220123291016e-01 8.958666920661926270e-01
1.931000000000000000e+03 1.145747375488281250e+01 2.910578727722167969e+00 2.876687049865722656e+00 7.774590015411376953e+00 3.195383071899414062e+00 -1.166834735870361328e+01
1.932000000000000000e+03 1.281507492065429688e+01 -2.824321031570434570e+00 -8.487364649772644043e-02 1.093747997283935547e+01 3.255781888961791992e+00 1.566146731376647949e+00
1.933000000000000000e+03 8.657830238342285156e+00 -3.267885684967041016e+00 1.120478034019470215e+00 8.318666219711303711e-01 5.857033729553222656e-01 7.006844282150268555e-01
1.934000000000000000e+03 1.354621410369873047e+01 -2.562726020812988281e+00 -3.377692997455596924e-01 1.366175365447998047e+01 3.997195243835449219e+00 -1.016087651252746582e+00
1.935000000000000000e+03 1.295711421966552734e+01 -2.442321777343750000e+00 -1.025040298700332642e-01 1.276839923858642578e+01 3.799768686294555664e+00 1.496849536895751953e+00
1.936000000000000000e+03 1.483304977416992188e+01 -4.230811595916748047e+00 7.371300458908081055e-01 8.974341392517089844e+00 2.913441419601440430e+00 -2.212653636932373047e+00
1.937000000000000000e+03 5.008764266967773438e+00 6.774253845214843750e+00 3.358416557312011719e+00 6.443268656730651855e-01 1.200823068618774414e+00 -1.665531158447265625e+00
1.938000000000000000e+03 3.983216285705566406e+00 5.215875148773193359e+00 2.258472204208374023e+00 -7.560187578201293945e-01 4.507360160350799561e-01 5.328416228294372559e-01
1.939000000000000000e+03 4.753090381622314453e+00 4.867813110351562500e+00 2.918577671051025391e+00 1.532343327999114990e-01 9.215435981750488281e-01 3.775023221969604492e-01
1.940000000000000000e+03 5.518662452697753906e+00 6.053040504455566406e+00 3.933918476104736328e+00 1.475679636001586914e+00 1.622879385948181152e+00 -1.317117214202880859e+00
1.941000000000000000e+03 7.231961250305175781e+00 4.457438945770263672e+00 6.185266017913818359e+00 2.180492162704467773e+00 2.509727478027343750e+00 2.829005420207977295e-01
1.942000000000000000e+03 6.682687282562255859e+00 7.653202533721923828e+00 2.743334293365478516e+00 4.254295349121093750e+00 2.099288940429687500e+00 -3.704020977020263672e+00
1.943000000000000000e+03 7.284732818603515625e+00 -4.082783699035644531e+00 8.227031230926513672e-01 5.885505080223083496e-01 4.233760833740234375e-01 3.454144895076751709e-01
1.944000000000000000e+03 4.990338802337646484e+00 -5.869424819946289062e+00 4.707505702972412109e-01 3.960775434970855713e-01 2.600484192371368408e-01 1.543120145797729492e-01
1.945000000000000000e+03 5.916787624359130859e+00 -5.075598716735839844e+00 5.901528000831604004e-01 4.477694630622863770e-01 3.113766908645629883e-01 1.814187616109848022e-01
1.946000000000000000e+03 6.673506259918212891e+00 -4.976594448089599609e+00 7.379968762397766113e-01 6.604705452919006348e-01 4.195402264595031738e-01 3.555174469947814941e-01
1.947000000000000000e+03 8.664572715759277344e+00 -3.967165946960449219e+00 1.143052697181701660e+00 1.247016072273254395e+00 7.170206308364868164e-01 9.097929596900939941e-01
1.948000000000000000e+03 4.353660583496093750e+00 1.095553970336914062e+01 -1.802978664636611938e-01 2.612056493759155273e+00 7.295275926589965820e-01 -2.745359897613525391e+00
1.949000000000000000e+03 7.539643287658691406e+00 8.162289619445800781e+00 1.992289662361145020e+00 6.974050998687744141e+00 2.689902067184448242e+00 -4.122347354888916016e+00
1.950000000000000000e+03 8.200024604797363281e+00 1.253125953674316406e+01 -1.896155238151550293e+00 5.485662460327148438e+00 1.076852083206176758e+00 -1.603863358497619629e+00
1.951000000000000000e+03 6.822252750396728516e+00 1.071729183197021484e+01 -4.607721567153930664e-01 4.997965812683105469e+00 1.361158132553100586e+00 -2.847631216049194336e+00
1.952000000000000000e+03 8.469413757324218750e+00 1.676366615295410156e+01 -1.816774845123291016e+00 3.866343498229980469e+00 6.148706078529357910e-01 -5.893607139587402344e-01
1.953000000000000000e+03 1.002873992919921875e+01 1.456317901611328125e+01 -2.326573133468627930e+00 4.314444541931152344e+00 5.963613986968994141e-01 -4.503849148750305176e-01
1.954000000000000000e+03 5.219310379028320312e+01 8.454977869987487793e-01 3.261082768440246582e-01 9.118883132934570312e+00 2.833497524261474609e+00 5.199189186096191406e-01
1.955000000000000000e+03 6.830276489257812500e+01 7.394754290580749512e-01 -1.294987678527832031e+00 6.949942588806152344e+00 1.696486473083496094e+00 -8.857648819684982300e-02
1.956000000000000000e+03 6.817303466796875000e+01 -1.106097459793090820e+00 -3.262175321578979492e+00 4.220078468322753906e+00 2.873708903789520264e-01 -1.699473857879638672e-01
1.957000000000000000e+03 5.882839202880859375e+01 -3.032488822937011719e+00 -2.650175988674163818e-01 4.546659469604492188e+00 1.284492492675781250e+00 -1.489521265029907227e+00
1.958000000000000000e+03 6.869237518310546875e+01 1.002764987945556641e+01 6.628705263137817383e-01 8.548480987548828125e+00 2.763405323028564453e+00 3.851001262664794922e-01
1.959000000000000000e+03 6.995785522460937500e+01 1.156810092926025391e+01 1.751778960227966309e+00 5.663135051727294922e+00 2.224474191665649414e+00 9.984411001205444336e-01
1.960000000000000000e+03 4.075407409667968750e+01 -5.015707969665527344e+00 1.105166912078857422e+00 4.933536052703857422e+00 1.811610937118530273e+00 -1.251595616340637207e+00
1.961000000000000000e+03 1.564783382415771484e+01 -6.937813758850097656e+00 2.215131968259811401e-01 6.000299453735351562e+00 1.866543769836425781e+00 -1.675797224044799805e+00
1.962000000000000000e+03 1.642288017272949219e+01 -6.804361820220947266e+00 5.719177722930908203e-01 5.555669307708740234e+00 1.838276147842407227e+00 -1.902578949928283691e+00
1.963000000000000000e+03 6.693360900878906250e+01 -1.935075378417968750e+01 8.191961050033569336e-01 3.148175716400146484e+00 1.190211534500122070e+00 -4.181596934795379639e-01
1.964000000000000000e+03 1.473408508300781250e+01 -3.120712995529174805e+00 1.402172684669494629e+00 1.055246257781982422e+01 3.586390733718872070e+00 -3.324598789215087891e+00
1.965000000000000000e+03 4.073394012451171875e+01 -2.110059547424316406e+01 -5.180725455284118652e-01 4.717100620269775391e+00 1.259708404541015625e+00 6.205354332923889160e-01
1.966000000000000000e+03 3.421842956542968750e+01 7.379484176635742188e-01 3.618662595748901367e+00 5.190813541412353516e-01 1.241323232650756836e+00 2.428997278213500977e+00
1.967000000000000000e+03 2.824777221679687500e+01 1.749558258056640625e+01 -5.525825619697570801e-01 5.595247745513916016e+00 1.512799501419067383e+00 2.650615215301513672e+00
1.968000000000000000e+03 4.274992370605468750e+01 -1.758855819702148438e+01 -3.221041988581418991e-03 7.468650341033935547e+00 2.239628791809082031e+00 -8.170902729034423828e-01
1.969000000000000000e+03 4.556732177734375000e+01 -1.640431594848632812e+01 2.337376475334167480e-01 4.692878723144531250e+00 1.477984905242919922e+00 -1.465798735618591309e+00
1.970000000000000000e+03 6.298333740234375000e+01 -9.323236942291259766e-01 -3.963518619537353516e+00 8.704393386840820312e+00 1.422262310981750488e+00 3.518927097320556641e+00
1.971000000000000000e+03 4.924322128295898438e+01 -5.652734637260437012e-01 -9.669677615165710449e-01 1.649195551872253418e+00 2.046683579683303833e-01 2.466148853302001953e+00
1.972000000000000000e+03 2.287349700927734375e+00 5.957900047302246094e+00 9.202482700347900391e-01 -1.601073741912841797e+00 -2.042476534843444824e-01 2.498455345630645752e-01
1.973000000000000000e+03 7.111726379394531250e+01 -1.948386001586914062e+01 1.433288156986236572e-01 5.219278812408447266e+00 1.608782291412353516e+00 1.671444296836853027e+00
1.974000000000000000e+03 7.458711242675781250e+01 -1.784668350219726562e+01 -5.380061864852905273e-01 8.614348411560058594e+00 2.422902584075927734e+00 5.249987542629241943e-02
1.975000000000000000e+03 2.709264564514160156e+01 -8.902480125427246094e+00 2.890686273574829102e+00 8.353761672973632812e+00 3.373334407806396484e+00 -3.128661811351776123e-01
1.976000000000000000e+03 6.111072158813476562e+01 -1.239309501647949219e+01 -2.366118133068084717e-01 7.819333553314208984e+00 2.274816513061523438e+00 7.127063870429992676e-01
1.977000000000000000e+03 6.220715332031250000e+01 -1.179056739807128906e+01 -4.397715330123901367e-01 7.383350372314453125e+00 2.083073616027832031e+00 4.813469350337982178e-01
1.978000000000000000e+03 5.109095764160156250e+01 1.210553526878356934e+00 1.181239724159240723e+00 6.301091670989990234e+00 2.244699478149414062e+00 1.215293407440185547e+00
1.979000000000000000e+03 6.833007049560546875e+01 -1.886938095092773438e+01 7.849912047386169434e-01 1.905987977981567383e+00 8.072937726974487305e-01 4.253804087638854980e-01
1.980000000000000000e+03 6.988388824462890625e+01 -1.980613708496093750e+01 1.612641364336013794e-01 4.366895198822021484e+00 1.358447790145874023e+00 1.437604665756225586e+00
1.981000000000000000e+03 2.681144905090332031e+01 -1.191548633575439453e+01 7.123085856437683105e-02 7.149025440216064453e+00 2.166076898574829102e+00 -3.410839736461639404e-01
1.982000000000000000e+03 7.514603424072265625e+01 -1.578973770141601562e+00 -3.548797369003295898e-01 5.436062335968017578e+00 1.524354815483093262e+00 6.043288111686706543e-01
1.983000000000000000e+03 7.206487274169921875e+01 1.345340633392333984e+01 1.962432146072387695e+00 4.605680465698242188e+00 1.970433712005615234e+00 8.159565180540084839e-02
1.984000000000000000e+03 7.559012603759765625e+01 1.436292076110839844e+01 3.994552195072174072e-01 6.328872203826904297e+00 2.018498182296752930e+00 -1.030083537101745605e+00
1.985000000000000000e+03 7.479004669189453125e+01 1.322023010253906250e+01 5.581920146942138672e-01 5.738256454467773438e+00 1.888934612274169922e+00 -1.520635843276977539e+00
1.986000000000000000e+03 6.703176116943359375e+01 2.712195515632629395e-01 -2.037416934967041016e+00 4.776031017303466797e+00 8.215842843055725098e-01 1.358039855957031250e+00
1.987000000000000000e+03 5.169658279418945312e+01 4.732785224914550781e+00 1.866240382194519043e+00 9.672669410705566406e+00 3.461673021316528320e+00 -9.921010136604309082e-01
1.988000000000000000e+03 7.200756072998046875e+01 1.794241905212402344e+01 5.322791934013366699e-01 6.307263851165771484e+00 2.051862955093383789e+00 2.020544707775115967e-01
1.989000000000000000e+03 6.774890899658203125e+01 1.525242137908935547e+01 2.723824679851531982e-01 8.616799354553222656e+00 2.666754722595214844e+00 7.899550795555114746e-01
1.990000000000000000e+03 3.691543197631835938e+01 1.794515037536621094e+01 -1.490677952766418457e+00 6.455922126770019531e+00 1.489573240280151367e+00 -3.426079154014587402e-01
1.991000000000000000e+03 7.504352569580078125e+01 3.243581390380859375e+01 -7.716807071119546890e-03 6.338642597198486328e+00 1.899277806282043457e+00 -1.444492489099502563e-02
1.992000000000000000e+03 7.302078247070312500e+01 2.804380798339843750e+01 -2.910843491554260254e-02 6.319514751434326172e+00 1.887121915817260742e+00 -2.520996145904064178e-02
1.993000000000000000e+03 7.513742828369140625e+01 -3.047495079040527344e+01 5.387433245778083801e-02 6.460128784179687500e+00 1.954200863838195801e+00 1.985622346401214600e-01
1.994000000000000000e+03 7.222351074218750000e+01 -3.369437456130981445e+00 -1.570349931716918945e+00 5.213121414184570312e+00 1.092831492424011230e+00 -1.062300324440002441e+00
1.995000000000000000e+03 7.411956024169921875e+01 -5.444167613983154297e+00 -5.065680742263793945e-01 7.318652629852294922e+00 2.043625354766845703e+00 7.941818833351135254e-01
1.996000000000000000e+03 7.454473114013671875e+01 2.228837966918945312e+01 3.366654366254806519e-02 6.459073543548583984e+00 1.947821974754333496e+00 2.963388105854392052e-03
1.997000000000000000e+03 6.536016845703125000e+01 1.845092964172363281e+01 2.981985732913017273e-02 5.858410835266113281e+00 1.766469120979309082e+00 -1.315631985664367676e+00
1.998000000000000000e+03 6.080578613281250000e+01 -1.471519279479980469e+01 9.908855706453323364e-02 7.365074634552001953e+00 2.239248991012573242e+00 1.296249870210886002e-02
1.999000000000000000e+03 7.492591094970703125e+01 1.606818962097167969e+01 6.500180959701538086e-01 6.118222713470458984e+00 2.030472278594970703e+00 -4.949387609958648682e-01
2.000000000000000000e+03 7.448542785644531250e+01 -2.212566184997558594e+01 -9.839709103107452393e-02 6.935982704162597656e+00 2.051275730133056641e+00 6.103054285049438477e-01
2.001000000000000000e+03 7.587667083740234375e+01 1.929972839355468750e+01 2.223584502935409546e-01 6.444376468658447266e+00 2.000020503997802734e+00 -1.096695587038993835e-01
2.002000000000000000e+03 7.597944641113281250e+01 -1.522432041168212891e+01 6.672851443290710449e-01 8.394410133361816406e+00 2.718508720397949219e+00 -1.605988144874572754e-01
2.003000000000000000e+03 7.373475646972656250e+01 -4.357757091522216797e+00 -8.773605227470397949e-01 6.403057098388671875e+00 1.657709002494812012e+00 4.093712568283081055e-01
2.004000000000000000e+03 7.457649230957031250e+01 -1.928471755981445312e+01 -6.311886310577392578e-01 8.147660255432128906e+00 2.254941463470458984e+00 4.792466163635253906e-01
2.005000000000000000e+03 7.013772583007812500e+01 1.501733970642089844e+01 1.283102035522460938e+00 6.587465286254882812e+00 2.361170291900634766e+00 1.037286996841430664e+00
2.006000000000000000e+03 7.423352813720703125e+01 -2.489553451538085938e+01 1.530010551214218140e-01 6.485611438751220703e+00 1.991583824157714844e+00 5.077405571937561035e-01
2.007000000000000000e+03 7.329615020751953125e+01 2.451259422302246094e+01 -2.617262676358222961e-02 6.418714523315429688e+00 1.917762637138366699e+00 -3.317176923155784607e-02
2.008000000000000000e+03 7.481238555908203125e+01 2.638396453857421875e+01 -3.095259144902229309e-02 6.426381111145019531e+00 1.918628573417663574e+00 -3.207729896530508995e-03
2.009000000000000000e+03 7.431610107421875000e+01 3.011145782470703125e+01 -2.280601859092712402e-02 6.373811721801757812e+00 1.905301690101623535e+00 -8.674847777001559734e-04
2.010000000000000000e+03 7.407608795166015625e+01 -2.625759124755859375e+01 2.955341339111328125e-02 6.396488666534423828e+00 1.927812576293945312e+00 3.995280265808105469e-01
2.011000000000000000e+03 7.467805480957031250e+01 1.499240875244140625e+01 8.082347512245178223e-01 5.780761241912841797e+00 1.976698756217956543e+00 -7.891129255294799805e-01
2.012000000000000000e+03 1.567370700836181641e+01 1.941800117492675781e+01 -1.632241725921630859e+00 1.081294655799865723e+00 -1.652841120958328247e-01 1.949089169502258301e-01
2.013000000000000000e+03 7.316060638427734375e+01 2.632274246215820312e+01 1.494142692536115646e-02 6.331087112426757812e+00 1.903808593750000000e+00 -4.873935878276824951e-02
2.014000000000000000e+03 7.455607604980468750e+01 -2.070788383483886719e+01 -6.367449760437011719e-01 7.304941654205322266e+00 2.000458955764770508e+00 6.951898336410522461e-01
2.015000000000000000e+03 7.386756134033203125e+01 -3.025541496276855469e+01 1.846642792224884033e-01 6.297104835510253906e+00 1.944530725479125977e+00 2.453724741935729980e-01
2.016000000000000000e+03 7.210981750488281250e+01 -3.548639297485351562e+01 7.852160185575485229e-02 6.112523555755615234e+00 1.857313632965087891e+00 9.229808300733566284e-02
2.017000000000000000e+03 7.433441925048828125e+01 2.064250755310058594e+01 1.889345049858093262e-01 6.448524951934814453e+00 1.991237878799438477e+00 -4.303617030382156372e-02
2.018000000000000000e+03 7.514653778076171875e+01 1.852707099914550781e+01 3.489251732826232910e-01 6.396909713745117188e+00 2.023750543594360352e+00 -1.891076415777206421e-01
2.019000000000000000e+03 7.388827514648437500e+01 -2.767345237731933594e+01 2.086687088012695312e-01 6.320056915283203125e+00 1.958617687225341797e+00 3.618784248828887939e-01
2.020000000000000000e+03 1.714021682739257812e+01 -8.739269256591796875e+00 5.906112194061279297e-01 4.457508087158203125e+00 1.514435768127441406e+00 -1.502304673194885254e+00
2.021000000000000000e+03 1.632056236267089844e+01 -8.352056503295898438e+00 2.330254018306732178e-01 5.065092086791992188e+00 1.589435338973999023e+00 -1.419837236404418945e+00
2.022000000000000000e+03 1.636500167846679688e+01 -1.006090068817138672e+01 2.766849398612976074e-01 4.518608093261718750e+00 1.438587903976440430e+00 -9.273154139518737793e-01
2.023000000000000000e+03 6.925238132476806641e+00 3.114978218078613281e+01 6.244944036006927490e-02 2.957551956176757812e+00 9.060004353523254395e-01 3.107700049877166748e-01
2.024000000000000000e+03 5.361159801483154297e+00 -1.129523658752441406e+01 9.759535640478134155e-02 1.247691035270690918e+00 4.035859107971191406e-01 5.727843046188354492e-01
2.025000000000000000e+03 6.011951923370361328e+00 -9.663702964782714844e+00 2.563137710094451904e-01 1.336494088172912598e+00 4.778423309326171875e-01 6.146240830421447754e-01
2.026000000000000000e+03 4.509070873260498047e+00 2.804498481750488281e+01 -2.008222043514251709e-02 3.427865505218505859e+00 1.022334933280944824e+00 2.572481632232666016e-01
2.027000000000000000e+03 5.852270126342773438e+00 2.886542701721191406e+01 -1.192715018987655640e-02 3.169482231140136719e+00 9.472665190696716309e-01 2.888703048229217529e-01
2.028000000000000000e+03 4.957162380218505859e+00 -2.632082557678222656e+01 -7.133506983518600464e-02 1.867576122283935547e+00 5.388723015785217285e-01 2.649669945240020752e-01
2.029000000000000000e+03 6.163373947143554688e+00 -2.174304389953613281e+01 -1.210380643606185913e-01 1.919987678527832031e+00 5.396848917007446289e-01 4.207295775413513184e-01
2.030000000000000000e+03 5.825733661651611328e+00 2.447443008422851562e+01 -2.676195204257965088e-01 3.320663452148437500e+00 9.159132242202758789e-01 1.590844094753265381e-01
2.031000000000000000e+03 5.362528324127197266e+00 -1.517563724517822266e+01 -3.352460637688636780e-02 1.495596289634704590e+00 4.386214911937713623e-01 5.486987829208374023e-01
2.032000000000000000e+03 5.555790901184082031e+00 -1.770794677734375000e+01 -6.886361539363861084e-02 1.661559343338012695e+00 4.778087139129638672e-01 5.003557205200195312e-01
2.033000000000000000e+03 7.519680786132812500e+01 -3.536204528808593750e+01 3.127818182110786438e-02 6.400322914123535156e+00 1.929480314254760742e+00 8.737868070602416992e-02
2.034000000000000000e+03 4.085828018188476562e+01 1.488688659667968750e+01 5.165669918060302734e-01 4.661320686340332031e+00 1.553366303443908691e+00 3.142452955245971680e+00
2.035000000000000000e+03 4.455906391143798828e+00 -1.911126327514648438e+01 -5.322572588920593262e-02 1.471567511558532715e+00 4.255025386810302734e-01 4.182800054550170898e-01
2.036000000000000000e+03 5.827469825744628906e+00 1.401302433013916016e+01 -1.260573267936706543e+00 4.030230522155761719e+00 8.308972716331481934e-01 -1.911219716072082520e+00
2.037000000000000000e+03 4.503116607666015625e+00 1.714105224609375000e+01 -7.450318336486816406e-01 3.474763393402099609e+00 8.189194202423095703e-01 -1.040806651115417480e+00
2.038000000000000000e+03 7.858776569366455078e+00 1.797741699218750000e+01 -1.405378937721252441e+00 3.553503990173339844e+00 6.444374918937683105e-01 -6.544871330261230469e-01
2.039000000000000000e+03 5.655949592590332031e+00 2.672799491882324219e+01 -9.384288638830184937e-02 3.242158889770507812e+00 9.444947838783264160e-01 2.600905597209930420e-01
2.040000000000000000e+03 5.747858524322509766e+00 1.715179443359375000e+01 -1.113335490226745605e+00 3.682760477066040039e+00 7.708274722099304199e-01 -1.056243896484375000e+00
2.041000000000000000e+03 4.526340961456298828e+00 1.565541076660156250e+01 -8.671138882637023926e-01 3.492455959320068359e+00 7.876026034355163574e-01 -1.509137868881225586e+00
2.042000000000000000e+03 4.583053588867187500e+00 2.157978439331054688e+01 -4.231834113597869873e-01 3.564550876617431641e+00 9.424102306365966797e-01 -2.223658263683319092e-01
2.043000000000000000e+03 4.115667819976806641e+00 -1.247054100036621094e+01 3.260825946927070618e-02 9.146421551704406738e-01 2.841751277446746826e-01 4.809131026268005371e-01
2.044000000000000000e+03 5.346498966217041016e+00 -1.259842109680175781e+01 4.506546258926391602e-02 1.350336313247680664e+00 4.186205565929412842e-01 5.829479694366455078e-01
2.045000000000000000e+03 9.216776847839355469e+00 -2.897959899902343750e+01 -1.670383363962173462e-01 2.474516868591308594e+00 6.922435760498046875e-01 2.849300205707550049e-01
2.046000000000000000e+03 6.251960372924804688e+01 1.936099624633789062e+01 9.245305061340332031e-01 3.785946846008300781e+00 1.413143157958984375e+00 -8.881617784500122070e-01
2.047000000000000000e+03 6.085853195190429688e+01 1.676720046997070312e+01 1.039215803146362305e+00 1.511735439300537109e+00 7.652853727340698242e-01 -5.260777845978736877e-02
2.048000000000000000e+03 5.935086250305175781e+00 -2.034467124938964844e+01 -9.437350928783416748e-02 1.837803959846496582e+00 5.230291485786437988e-01 4.509299397468566895e-01
2.049000000000000000e+03 5.726771831512451172e+00 -1.900283050537109375e+01 -1.022147536277770996e-01 1.750058770179748535e+00 4.943532049655914307e-01 4.785830676555633545e-01
2.050000000000000000e+03 5.728516101837158203e+00 2.781579971313476562e+01 -9.039273113012313843e-02 3.238630056381225586e+00 9.444711804389953613e-01 2.492781579494476318e-01
2.051000000000000000e+03 2.580202484130859375e+01 -1.239053153991699219e+01 6.350727677345275879e-01 6.582950592041015625e+00 2.165406942367553711e+00 4.216192364692687988e-01
2.052000000000000000e+03 2.785656356811523438e+01 -1.158645534515380859e+01 2.326582372188568115e-01 6.231174945831298828e+00 1.939149975776672363e+00 -1.300768733024597168e+00
2.053000000000000000e+03 2.553380012512207031e+01 2.027408599853515625e+01 -2.659182786941528320e+00 4.070819854736328125e+00 4.234911799430847168e-01 -1.603148341178894043e+00
2.054000000000000000e+03 2.094973182678222656e+01 1.999423027038574219e+01 -1.838963270187377930e+00 1.455970555543899536e-01 -5.080098509788513184e-01 -6.691521406173706055e-01
2.055000000000000000e+03 9.123326301574707031e+00 1.157421875000000000e+01 -1.827826619148254395e+00 5.856088638305664062e+00 1.208478569984436035e+00 -1.694404602050781250e+00
2.056000000000000000e+03 6.198522567749023438e+00 -2.785981750488281250e+01 -8.965319395065307617e-02 2.082689046859741211e+00 5.979107022285461426e-01 2.638807594776153564e-01
2.057000000000000000e+03 6.199961185455322266e+00 1.004933738708496094e+01 1.723050698637962341e-02 4.797851085662841797e+00 1.444524407386779785e+00 -3.383587598800659180e+00
2.058000000000000000e+03 4.678623676300048828e+00 -6.829790115356445312e+00 4.028030335903167725e-01 4.521050155162811279e-01 2.564724087715148926e-01 2.286270409822463989e-01
2.059000000000000000e+03 4.099088191986083984e+00 -8.875687599182128906e+00 2.366330176591873169e-01 5.528621673583984375e-01 2.368485480546951294e-01 3.404133319854736328e-01
2.060000000000000000e+03 5.340415954589843750e+00 -1.388972949981689453e+01 -2.794458344578742981e-02 1.426024913787841797e+00 4.194240868091583252e-01 5.611797571182250977e-01
2.061000000000000000e+03 1.416685199737548828e+01 1.654344558715820312e+01 -2.397538423538208008e+00 1.682141423225402832e+00 -2.146190851926803589e-01 1.131056994199752808e-01
2.062000000000000000e+03 1.030950260162353516e+01 1.655941390991210938e+01 -2.132673501968383789e+00 3.594814777374267578e+00 4.386423826217651367e-01 -1.707926988601684570e-01
2.063000000000000000e+03 5.321170330047607422e+00 -8.253872871398925781e+00 3.679178655147552490e-01 8.334969878196716309e-01 3.604244589805603027e-01 4.554080367088317871e-01
2.064000000000000000e+03 5.614283084869384766e+00 -7.367390155792236328e+00 4.613400101661682129e-01 8.193697333335876465e-01 3.842129111289978027e-01 4.217268228530883789e-01
2.065000000000000000e+03 3.576462268829345703e+00 6.782181739807128906e+00 1.858538389205932617e+00 -3.857698738574981689e-01 4.418305456638336182e-01 -8.069230914115905762e-01
2.066000000000000000e+03 6.037445545196533203e+00 8.651168823242187500e+00 1.654783487319946289e+00 4.182706356048583984e+00 1.751246929168701172e+00 -3.534736871719360352e+00
2.067000000000000000e+03 4.391719818115234375e+00 6.105717658996582031e+00 2.766314268112182617e+00 4.542002677917480469e-01 9.661543965339660645e-01 -8.343623280525207520e-01
2.068000000000000000e+03 6.352999210357666016e+00 3.484269332885742188e+01 7.458106428384780884e-02 3.066685914993286133e+00 9.423800706863403320e-01 2.031755000352859497e-01
2.069000000000000000e+03 5.033283996582031250e+01 2.061697483062744141e+00 1.667419910430908203e+00 5.530555725097656250e+00 2.159392595291137695e+00 1.344772934913635254e+00
2.070000000000000000e+03 4.730473327636718750e+01 -1.981184387207031250e+01 -4.075518622994422913e-02 3.529186964035034180e+00 1.046529531478881836e+00 -1.334745168685913086e+00
2.071000000000000000e+03 4.755820846557617188e+01 -1.804116058349609375e+01 -2.087029963731765747e-01 3.010654687881469727e+00 8.405855298042297363e-01 -1.299301505088806152e+00
2.072000000000000000e+03 4.599933242797851562e+01 -1.818067359924316406e+01 -2.035674825310707092e-02 4.196741104125976562e+00 1.252915263175964355e+00 -1.643517732620239258e+00
2.073000000000000000e+03 5.859374237060546875e+01 1.602731513977050781e+01 7.876802682876586914e-01 2.298157691955566406e+00 9.257513880729675293e-01 1.235265135765075684e+00
2.074000000000000000e+03 4.975109100341796875e+01 1.906403732299804688e+01 1.554260849952697754e-01 5.661744117736816406e+00 1.745151162147521973e+00 -8.317379355430603027e-01
2.075000000000000000e+03 9.041357040405273438e+00 1.355893421173095703e+01 -2.091207027435302734e+00 4.734426498413085938e+00 7.929657697677612305e-01 -1.249635219573974609e+00
2.076000000000000000e+03 6.046204757690429688e+01 -3.112791776657104492e+00 1.157900169491767883e-01 6.203923225402832031e+00 1.895913958549499512e+00 -5.543927550315856934e-01
2.077000000000000000e+03 1.868375205993652344e+01 -1.057645034790039062e+01 9.102287888526916504e-01 3.582744121551513672e+00 1.347891926765441895e+00 -1.162526369094848633e+00
2.078000000000000000e+03 1.920270156860351562e+01 -1.175331783294677734e+01 1.141816973686218262e+00 3.527687788009643555e+00 1.400851488113403320e+00 -6.127730607986450195e-01
2.079000000000000000e+03 1.867623519897460938e+01 1.973837852478027344e+01 -1.848692297935485840e+00 3.365005850791931152e-01 -4.536575376987457275e-01 -7.429455220699310303e-02
2.080000000000000000e+03 1.815708351135253906e+01 2.090655708312988281e+01 -1.209234118461608887e+00 6.366032361984252930e-01 -1.717892587184906006e-01 -9.052509814500808716e-02
2.081000000000000000e+03 2.991970825195312500e+01 -1.512601089477539062e+01 -3.096952736377716064e-01 4.021863460540771484e+00 1.113650441169738770e+00 -1.384728550910949707e+00
2.082000000000000000e+03 3.210286331176757812e+01 -1.312147617340087891e+01 6.919344514608383179e-02 2.599728822708129883e+00 8.006767034530639648e-01 -1.167980790138244629e+00
2.083000000000000000e+03 5.411430740356445312e+01 -2.554593563079833984e+00 -3.205870389938354492e+00 6.137772083282470703e+00 8.795705437660217285e-01 -3.186212778091430664e+00
2.084000000000000000e+03 5.448404312133789062e+01 1.910285758972167969e+01 -7.470752578228712082e-03 6.191680908203125000e+00 1.855262994766235352e+00 1.496940970420837402e+00
2.085000000000000000e+03 5.212771987915039062e+01 -4.937818944454193115e-01 -2.302459955215454102e+00 7.207746505737304688e+00 1.471585988998413086e+00 -1.429713964462280273e-01
2.086000000000000000e+03 5.482970809936523438e+01 -1.087686181068420410e+00 -3.232596635818481445e+00 7.107378005981445312e+00 1.162434458732604980e+00 -3.988888740539550781e+00
2.087000000000000000e+03 5.407753753662109375e+01 -6.244443655014038086e-01 -2.712184190750122070e+00 8.592677116394042969e+00 1.764147877693176270e+00 -3.827291250228881836e+00
2.088000000000000000e+03 5.906020736694335938e+01 -1.863995170593261719e+01 1.648266673088073730e+00 8.279632568359375000e+00 2.978369951248168945e+00 -9.114138484001159668e-01
2.089000000000000000e+03 5.381968688964843750e+01 1.234567928314208984e+01 1.770897984504699707e+00 8.591797828674316406e+00 3.108808755874633789e+00 7.505840063095092773e-01
2.090000000000000000e+03 5.920449447631835938e+01 -9.000479698181152344e+00 3.468659818172454834e-01 7.945173740386962891e+00 2.487612009048461914e+00 1.003313660621643066e+00
2.091000000000000000e+03 5.718990325927734375e+01 1.466608238220214844e+01 5.692557096481323242e-01 3.231609821319580078e+00 1.140259623527526855e+00 1.673888683319091797e+00
2.092000000000000000e+03 4.402159881591796875e+01 -1.766399574279785156e+01 -5.749826133251190186e-02 6.181089878082275391e+00 1.837077498435974121e+00 -1.566227078437805176e+00
2.093000000000000000e+03 4.682183837890625000e+01 1.852267074584960938e+01 8.595591187477111816e-01 2.911353826522827148e+00 1.131273865699768066e+00 -2.975054681301116943e-01
2.094000000000000000e+03 4.352956771850585938e+01 1.827347564697265625e+01 7.843726277351379395e-01 2.974717378616333008e+00 1.127727031707763672e+00 1.271856427192687988e+00
2.095000000000000000e+03 1.446809196472167969e+01 1.851983642578125000e+01 -2.018209934234619141e+00 1.637949109077453613e+00 -1.140782162547111511e-01 3.116291463375091553e-01
2.096000000000000000e+03 3.525152587890625000e+01 -2.131685829162597656e+01 3.460204601287841797e-01 2.862809896469116211e+00 9.626491069793701172e-01 -2.968802452087402344e-01
2.097000000000000000e+03 3.895266342163085938e+01 -2.091182708740234375e+01 2.695476412773132324e-01 3.923031330108642578e+00 1.257773637771606445e+00 6.573714613914489746e-01
2.098000000000000000e+03 5.888736724853515625e+01 -2.080182838439941406e+01 -3.710417747497558594e-01 7.742467403411865234e+00 2.211427688598632812e+00 -3.821697235107421875e-01
2.099000000000000000e+03 5.774835968017578125e+01 -1.971991539001464844e+01 -3.883472084999084473e-01 8.270953178405761719e+00 2.364781856536865234e+00 -5.697298049926757812e-01
2.100000000000000000e+03 5.191631317138671875e+01 -1.955655097961425781e+01 -1.116070076823234558e-01 9.027110934257507324e-01 2.373312264680862427e-01 -1.241477653384208679e-01
2.101000000000000000e+03 2.860079765319824219e+01 -1.003446769714355469e+01 1.477684497833251953e+00 5.649964809417724609e+00 2.138294696807861328e+00 -1.282022237777709961e+00
2.102000000000000000e+03 4.793206024169921875e+01 -2.090193748474121094e+01 7.633929699659347534e-02 3.147779226303100586e+00 9.672355651855468750e-01 -1.168028116226196289e+00
2.103000000000000000e+03 3.170508193969726562e+01 2.029683685302734375e+01 7.060335576534271240e-02 3.101546525955200195e+00 9.516450166702270508e-01 5.610424280166625977e-01
2.104000000000000000e+03 3.115112304687500000e+01 1.829327392578125000e+01 5.257714390754699707e-01 2.115942001342773438e+00 7.925140261650085449e-01 1.234354496002197266e+00
2.105000000000000000e+03 5.964528274536132812e+01 -2.282518386840820312e+00 -6.588259935379028320e-01 4.498140335083007812e+00 1.151794314384460449e+00 -6.795589923858642578e-01
2.106000000000000000e+03 5.482417297363281250e+01 1.395677947998046875e+01 1.195516705513000488e+00 6.588317394256591797e+00 2.335150241851806641e+00 1.850299477577209473e+00
2.107000000000000000e+03 6.545441436767578125e+01 2.826951265335083008e+00 -1.362119168043136597e-01 5.517982482910156250e+00 1.614531159400939941e+00 2.141091108322143555e+00
2.108000000000000000e+03 6.452684783935546875e+01 1.699304461479187012e+00 -1.439969420433044434e+00 5.405221462249755859e+00 1.189575672149658203e+00 3.366880655288696289e+00
2.109000000000000000e+03 1.806585311889648438e+01 -1.249261093139648438e+01 6.043627858161926270e-01 3.760523557662963867e+00 1.309465885162353516e+00 -5.531914234161376953e-01
2.110000000000000000e+03 1.950183296203613281e+01 2.138175010681152344e+01 -1.223287582397460938e+00 5.810306072235107422e-01 -1.926770806312561035e-01 -2.339110225439071655e-01
2.111000000000000000e+03 6.655905914306640625e+01 4.542782306671142578e+00 6.819584965705871582e-01 8.670895576477050781e+00 2.805855989456176758e+00 -3.468140065670013428e-01
2.112000000000000000e+03 4.152906036376953125e+01 1.815920829772949219e+01 4.228698834776878357e-02 4.323272228240966797e+00 1.309667706489562988e+00 1.690665245056152344e+00
2.113000000000000000e+03 3.782014846801757812e+01 1.707819175720214844e+01 -1.129124402999877930e+00 6.476276874542236328e+00 1.604145765304565430e+00 9.290369153022766113e-01
2.114000000000000000e+03 6.582768917083740234e+00 1.229925632476806641e+01 -1.252444863319396973e+00 4.757669925689697266e+00 1.051567554473876953e+00 -2.294339895248413086e+00
2.115000000000000000e+03 6.284821987152099609e+00 6.318571567535400391e+00 5.320504188537597656e+00 1.808505654335021973e+00 2.138702869415283203e+00 -2.446017265319824219e+00
2.116000000000000000e+03 5.850604248046875000e+01 -4.626897811889648438e+00 5.914881825447082520e-01 5.420269012451171875e+00 1.803527116775512695e+00 -7.329291701316833496e-01
2.117000000000000000e+03 5.721690750122070312e+01 1.365267848968505859e+01 6.169332265853881836e-01 2.494778156280517578e+00 9.335134625434875488e-01 1.682429552078247070e+00
2.118000000000000000e+03 2.822794723510742188e+01 -1.286579704284667969e+01 6.724297255277633667e-02 5.696808338165283203e+00 1.729215383529663086e+00 -9.600991010665893555e-01
2.119000000000000000e+03 3.042746734619140625e+01 -1.232712459564208984e+01 3.693007230758666992e-01 3.730668783187866211e+00 1.229990839958190918e+00 -1.394934296607971191e+00
2.120000000000000000e+03 5.317528533935546875e+01 -4.766868650913238525e-01 -3.548295021057128906e+00 9.540713310241699219e+00 1.797725558280944824e+00 -2.100980997085571289e+00
2.121000000000000000e+03 5.800112152099609375e+01 -3.684266328811645508e+00 2.909721136093139648e-01 4.343052864074707031e+00 1.390207529067993164e+00 -1.761868834495544434e+00
2.122000000000000000e+03 5.621274948120117188e+01 -5.764203548431396484e+00 -8.454249501228332520e-01 5.743439197540283203e+00 1.469404220581054688e+00 -1.216210722923278809e+00
2.123000000000000000e+03 3.377495193481445312e+01 -1.720870780944824219e+01 1.979077607393264771e-01 2.286985874176025391e+00 7.454680800437927246e-01 -9.709706306457519531e-01
2.124000000000000000e+03 3.367496109008789062e+01 -2.009027481079101562e+01 2.069341987371444702e-01 2.765832424163818359e+00 8.918299674987792969e-01 -6.629896163940429688e-01
2.125000000000000000e+03 5.854219436645507812e+01 -1.054966449737548828e+01 1.632824242115020752e-01 8.386214256286621094e+00 2.564849138259887695e+00 7.597953081130981445e-01
2.126000000000000000e+03 5.947783660888671875e+01 -1.342348098754882812e+01 3.240563571453094482e-01 8.397707939147949219e+00 2.616529226303100586e+00 6.052205562591552734e-01
2.127000000000000000e+03 5.437860870361328125e+01 -3.599497795104980469e+00 -3.205455303192138672e+00 5.862057209014892578e+00 7.969805002212524414e-01 -2.696352481842041016e+00
2.128000000000000000e+03 7.192787933349609375e+01 4.086369705200195312e+01 8.325865492224693298e-03 6.156393527984619141e+00 1.849415898323059082e+00 -5.711638368666172028e-03
2.129000000000000000e+03 3.403463745117187500e+01 3.638766288757324219e+00 2.018854856491088867e+00 4.278945922851562500e+00 1.889340162277221680e+00 1.991566181182861328e+00
2.130000000000000000e+03 6.372651290893554688e+01 -1.759882736206054688e+01 3.210085332393646240e-01 4.882563114166259766e+00 1.561071395874023438e+00 -1.112421751022338867e+00
2.131000000000000000e+03 6.128438568115234375e+01 -2.241710090637207031e+01 -1.280122399330139160e-01 6.189465999603271484e+00 1.818436145782470703e+00 -9.114954471588134766e-01
2.132000000000000000e+03 1.039922332763671875e+01 -2.341024398803710938e+00 1.624232172966003418e+00 1.641170620918273926e+00 9.796208143234252930e-01 1.629849910736083984e+00
2.133000000000000000e+03 1.138001441955566406e+01 -2.803768873214721680e+00 1.642899870872497559e+00 4.863396167755126953e+00 1.951888799667358398e+00 2.880286931991577148e+00
2.134000000000000000e+03 9.336989402770996094e+00 -3.313069105148315430e+00 1.314785361289978027e+00 1.408774852752685547e+00 8.170680999755859375e-01 1.128937602043151855e+00
2.135000000000000000e+03 1.419858264923095703e+01 -2.267571926116943359e+00 7.460301518440246582e-01 1.380460548400878906e+01 4.365190505981445312e+00 -3.991580724716186523e+00
2.136000000000000000e+03 7.990675926208496094e+00 -4.007433891296386719e+00 9.976305961608886719e-01 8.387336730957031250e-01 5.509092807769775391e-01 6.034300923347473145e-01
2.137000000000000000e+03 5.669393539428710938e+00 5.390450000762939453e+00 4.465079784393310547e+00 1.102518677711486816e+00 1.670279502868652344e+00 -8.473745584487915039e-01
2.138000000000000000e+03 7.293659210205078125e+00 6.564128875732421875e+00 5.684453487396240234e+00 5.691954135894775391e+00 3.412922382354736328e+00 -3.994843482971191406e+00
2.139000000000000000e+03 7.399225711822509766e+00 -4.846836090087890625e+00 8.751965165138244629e-01 8.915596604347229004e-01 5.300268530845642090e-01 5.560817718505859375e-01
2.140000000000000000e+03 8.722180366516113281e+00 -4.656520366668701172e+00 1.091406822204589844e+00 1.594598531723022461e+00 8.058016300201416016e-01 1.044854760169982910e+00
2.141000000000000000e+03 5.969691753387451172e+00 -5.968022823333740234e+00 6.149661540985107422e-01 6.788098216056823730e-01 3.881327807903289795e-01 3.526659011840820312e-01
2.142000000000000000e+03 5.160068035125732422e+00 -5.048211574554443359e+00 4.819449782371520996e-01 2.877388000488281250e-01 2.309051305055618286e-01 4.948559030890464783e-02
2.143000000000000000e+03 6.826179027557373047e+00 -5.795663833618164062e+00 7.334759831428527832e-01 9.394964575767517090e-01 5.018917322158813477e-01 5.307974815368652344e-01
2.144000000000000000e+03 8.082664489746093750e+00 -4.734224796295166016e+00 9.921090602874755859e-01 1.218297004699707031e+00 6.631218194961547852e-01 7.920864224433898926e-01
2.145000000000000000e+03 1.386407852172851562e+01 -5.960103511810302734e+00 -1.060302257537841797e-01 7.037288665771484375e+00 2.079377412796020508e+00 -2.722552418708801270e-01
2.146000000000000000e+03 1.439655017852783203e+01 -3.724652290344238281e+00 7.249521017074584961e-01 1.011532306671142578e+01 3.252082586288452148e+00 -2.091599225997924805e+00
2.147000000000000000e+03 1.418810367584228516e+01 -4.312120914459228516e+00 1.867661476135253906e-01 8.979192733764648438e+00 2.749787569046020508e+00 -1.128639578819274902e+00
2.148000000000000000e+03 5.282402038574218750e+01 4.841500759124755859e+00 2.049120664596557617e+00 1.345875358581542969e+01 4.652362346649169922e+00 -1.742509722709655762e+00
2.149000000000000000e+03 1.477408599853515625e+01 -6.207733631134033203e+00 1.003433540463447571e-01 6.877817630767822266e+00 2.093448400497436523e+00 -1.132594108581542969e+00
2.150000000000000000e+03 7.094440460205078125e+01 1.214720630645751953e+01 1.832247257232666016e+00 4.423473358154296875e+00 1.876716256141662598e+00 1.018912792205810547e+00
2.151000000000000000e+03 7.287391662597656250e+01 1.533626174926757812e+01 1.219562888145446777e+00 5.647481441497802734e+00 2.060113430023193359e+00 -1.069331318140029907e-01
2.152000000000000000e+03 1.731503868103027344e+01 -1.167488574981689453e+01 5.261792540550231934e-01 3.980592250823974609e+00 1.352031469345092773e+00 -6.679127216339111328e-01
2.153000000000000000e+03 8.029835700988769531e+00 1.463480472564697266e+01 -1.915771842002868652e+00 4.477334022521972656e+00 7.684686779975891113e-01 -1.193196654319763184e+00
2.154000000000000000e+03 1.304580211639404297e+01 1.558990097045898438e+01 -2.234912872314453125e+00 2.044885635375976562e+00 -5.700819566845893860e-02 2.560044080018997192e-02
2.155000000000000000e+03 6.616858673095703125e+01 -5.678109526634216309e-01 -2.289542436599731445e+00 2.510243892669677734e+00 6.621043384075164795e-02 2.543858528137207031e+00
2.156000000000000000e+03 5.410947799682617188e+01 -1.533674478530883789e+00 -4.081875801086425781e+00 7.931252956390380859e+00 1.154813051223754883e+00 -3.478187084197998047e+00
2.157000000000000000e+03 6.046090316772460938e+01 -1.496837258338928223e+00 -1.618002772331237793e+00 4.830595493316650391e+00 9.637777805328369141e-01 2.461593411862850189e-02
2.158000000000000000e+03 6.532528686523437500e+01 -1.845531082153320312e+01 4.375907778739929199e-01 3.626195669174194336e+00 1.219135999679565430e+00 -1.046143651008605957e+00
2.159000000000000000e+03 2.903753089904785156e+01 2.079649353027343750e+01 -9.408600926399230957e-01 3.839167833328247070e+00 8.694922924041748047e-01 7.505746483802795410e-01
2.160000000000000000e+03 2.722159767150878906e+01 2.092798614501953125e+01 -1.833392024040222168e+00 5.067901134490966797e+00 9.703527688980102539e-01 3.291438221931457520e-01
2.161000000000000000e+03 5.801652145385742188e+01 1.966442871093750000e+01 8.643710613250732422e-01 4.007950782775878906e+00 1.461696505546569824e+00 1.162060379981994629e+00
2.162000000000000000e+03 4.946068954467773438e+01 1.255741000175476074e+00 1.004881978034973145e+00 3.323794603347778320e+00 1.298602938652038574e+00 2.224014282226562500e+00
2.163000000000000000e+03 5.807062149047851562e+01 -2.237288236618041992e+00 -6.427419185638427734e-01 2.992789983749389648e+00 7.050144076347351074e-01 -2.286823034286499023e+00
2.164000000000000000e+03 5.740368270874023438e+01 -3.017957687377929688e+00 -8.663532137870788574e-01 4.050844192504882812e+00 9.553473591804504395e-01 -3.025976896286010742e+00
2.165000000000000000e+03 3.602457427978515625e+01 1.899070358276367188e+01 -5.125829577445983887e-01 4.628239154815673828e+00 1.234696865081787109e+00 -8.718163371086120605e-01
2.166000000000000000e+03 3.403031539916992188e+01 1.896477127075195312e+01 1.398414969444274902e-01 2.949286460876464844e+00 9.267383813858032227e-01 -5.073453783988952637e-01
2.167000000000000000e+03 3.164868593215942383e+00 5.616611480712890625e+00 1.546040654182434082e+00 -8.319095969200134277e-01 2.142393141984939575e-01 1.770401298999786377e-01
2.168000000000000000e+03 6.654190826416015625e+01 2.006278228759765625e+01 2.155472990125417709e-03 6.147193431854248047e+00 1.844804763793945312e+00 -7.577928304672241211e-01
2.169000000000000000e+03 5.975983619689941406e+00 1.151347351074218750e+01 -7.516198158264160156e-01 4.288038730621337891e+00 1.060925602912902832e+00 -2.810801029205322266e+00
2.170000000000000000e+03 5.134211730957031250e+01 2.381918907165527344e+00 2.469271659851074219e+00 7.550368785858154297e+00 3.005892038345336914e+00 4.613612592220306396e-01
2.171000000000000000e+03 6.360751342773437500e+01 -1.663153839111328125e+01 -5.458675697445869446e-02 4.969432830810546875e+00 1.474453806877136230e+00 -1.111039519309997559e+00
2.172000000000000000e+03 6.022376632690429688e+01 -1.749248695373535156e+01 5.653662681579589844e-01 7.133685111999511719e+00 2.309715509414672852e+00 -7.383759021759033203e-01
2.173000000000000000e+03 7.110573577880859375e+01 1.412312984466552734e+01 1.628228187561035156e+00 5.312073707580566406e+00 2.082090616226196289e+00 6.838259696960449219e-01
2.174000000000000000e+03 4.068793106079101562e+01 1.691011238098144531e+01 -6.367138028144836426e-02 4.838675022125244141e+00 1.432501077651977539e+00 2.130303382873535156e+00
2.175000000000000000e+03 7.341095733642578125e+01 -1.926274490356445312e+01 -1.111003279685974121e+00 7.501348018646240234e+00 1.917103409767150879e+00 1.256604671478271484e+00
2.176000000000000000e+03 7.226881408691406250e+01 -1.931542015075683594e+01 -1.529002636671066284e-01 6.738364696502685547e+00 1.975639343261718750e+00 1.868882656097412109e+00
2.177000000000000000e+03 7.337068939208984375e+01 -1.778778457641601562e+01 -7.009947896003723145e-01 9.065270423889160156e+00 2.509282827377319336e+00 9.109681844711303711e-01
2.178000000000000000e+03 7.112774658203125000e+01 -2.758589935302734375e+01 2.482195943593978882e-01 5.869001865386962891e+00 1.835166454315185547e+00 3.221557140350341797e-01
2.179000000000000000e+03 7.108621215820312500e+01 -3.247113037109375000e+01 1.376320272684097290e-01 5.979071617126464844e+00 1.835011124610900879e+00 1.318625807762145996e-01
2.180000000000000000e+03 5.763773441314697266e+00 1.861248970031738281e+01 -8.792674541473388672e-01 3.495264053344726562e+00 7.847990393638610840e-01 -6.491613984107971191e-01
2.181000000000000000e+03 7.306256103515625000e+01 1.310215473175048828e+01 1.521967887878417969e+00 4.322756290435791016e+00 1.753417134284973145e+00 -1.072299718856811523e+00
2.182000000000000000e+03 2.723779106140136719e+01 -2.989797830581665039e+00 2.847435712814331055e+00 6.441091060638427734e+00 2.786558151245117188e+00 2.376489162445068359e+00
2.183000000000000000e+03 1.102233695983886719e+01 2.901395988464355469e+01 -4.586071893572807312e-02 2.468670129776000977e+00 7.268428206443786621e-01 2.638378143310546875e-01
2.184000000000000000e+03 9.078606605529785156e+00 3.156121826171875000e+01 1.147324293851852417e-01 2.637238025665283203e+00 8.255911469459533691e-01 2.960181832313537598e-01
2.185000000000000000e+03 7.287525939941406250e+01 -3.342344284057617188e+01 1.469663083553314209e-01 6.206589698791503906e+00 1.906066894531250000e+00 1.567684262990951538e-01
2.186000000000000000e+03 1.488330459594726562e+01 2.058953285217285156e+01 -1.457437515258789062e+00 1.561683535575866699e+00 3.127381205558776855e-02 3.816064298152923584e-01
2.187000000000000000e+03 7.725286865234375000e+01 -1.430430769920349121e+00 -8.363236784934997559e-01 9.858801841735839844e+00 2.706743478775024414e+00 1.045772194862365723e+00
2.188000000000000000e+03 7.722035217285156250e+01 -1.849612146615982056e-01 -1.480206251144409180e+00 1.041429901123046875e+01 2.680227994918823242e+00 5.706676244735717773e-01
2.189000000000000000e+03 7.395579528808593750e+01 1.544352912902832031e+01 1.025147557258605957e+00 5.725146293640136719e+00 2.025088071823120117e+00 -3.680836558341979980e-01
2.190000000000000000e+03 7.355045318603515625e+01 1.478712272644042969e+01 1.070467591285705566e+00 5.523996353149414062e+00 1.978339195251464844e+00 -4.698966741561889648e-01
2.191000000000000000e+03 7.310947418212890625e+01 -2.341705131530761719e+01 2.062339186668395996e-01 6.271580219268798828e+00 1.943344235420227051e+00 7.370457053184509277e-01
2.192000000000000000e+03 1.261409854888916016e+01 2.046258354187011719e+01 -1.440439224243164062e+00 2.301255464553833008e+00 2.582448720932006836e-01 2.934504747390747070e-01
2.193000000000000000e+03 7.045386505126953125e+01 2.437978744506835938e+01 -3.200022503733634949e-03 6.287823200225830078e+00 1.885386943817138672e+00 -1.465234905481338501e-01
2.194000000000000000e+03 1.409635734558105469e+01 -9.036580085754394531e+00 -1.911164522171020508e-01 5.108417034149169922e+00 1.475190162658691406e+00 -3.193754553794860840e-01
2.195000000000000000e+03 7.430594635009765625e+01 -2.878169298171997070e+00 -6.084282994270324707e-01 5.577013492584228516e+00 1.490575551986694336e+00 3.550751805305480957e-01
2.196000000000000000e+03 7.286306762695312500e+01 -5.155525684356689453e+00 -7.901205420494079590e-01 6.533383846282958984e+00 1.722978949546813965e+00 3.262622281908988953e-02
2.197000000000000000e+03 7.343404388427734375e+01 -2.066665267944335938e+01 -1.341880112886428833e-01 6.967066764831542969e+00 2.049863576889038086e+00 1.014794468879699707e+00
2.198000000000000000e+03 7.690900325775146484e+00 -9.557059288024902344e+00 2.696221172809600830e-01 2.021166563034057617e+00 6.872366070747375488e-01 7.979774475097656250e-01
2.199000000000000000e+03 7.275137329101562500e+01 -2.605019187927246094e+01 2.946895360946655273e-01 6.101590633392333984e+00 1.918884158134460449e+00 4.643388092517852783e-01
2.200000000000000000e+03 8.575457572937011719e+00 2.029689407348632812e+01 -1.141363859176635742e+00 3.200314521789550781e+00 6.176851987838745117e-01 -1.763025671243667603e-01
2.201000000000000000e+03 7.401075744628906250e+01 1.893662834167480469e+01 3.477082550525665283e-01 6.366985797882080078e+00 2.014408111572265625e+00 -3.813366219401359558e-02
2.202000000000000000e+03 7.273187255859375000e+01 1.933945655822753906e+01 3.410787880420684814e-01 6.423696517944335938e+00 2.029432535171508789e+00 2.408403903245925903e-02
2.203000000000000000e+03 7.149277496337890625e+01 2.616996383666992188e+01 -2.588899619877338409e-02 6.290036678314208984e+00 1.879244327545166016e+00 -7.569669932126998901e-02
2.204000000000000000e+03 6.285004138946533203e+00 -8.675430297851562500e+00 3.566330373287200928e-01 1.359568953514099121e+00 5.148606300354003906e-01 6.298393607139587402e-01
2.205000000000000000e+03 5.107080936431884766e+00 -9.159742355346679688e+00 2.636577785015106201e-01 8.903700113296508789e-01 3.462083339691162109e-01 4.888603985309600830e-01
2.206000000000000000e+03 8.179009437561035156e+00 -1.864597702026367188e+01 -1.604492068290710449e-01 2.292586326599121094e+00 6.396411657333374023e-01 5.133456587791442871e-01
2.207000000000000000e+03 6.784924983978271484e+00 -1.763340377807617188e+01 -1.202687472105026245e-01 1.966208696365356445e+00 5.537819862365722656e-01 5.421013236045837402e-01
2.208000000000000000e+03 5.619533538818359375e+00 2.566259574890136719e+01 -2.147394269704818726e-01 3.298321008682250977e+00 9.250745177268981934e-01 1.828343570232391357e-01
2.209000000000000000e+03 7.923680305480957031e+00 -2.680415916442871094e+01 -1.359881758689880371e-01 2.288420677185058594e+00 6.457297801971435547e-01 3.234029114246368408e-01
2.210000000000000000e+03 8.210162162780761719e+00 -2.522182273864746094e+01 -1.465150564908981323e-01 2.329246282577514648e+00 6.548193693161010742e-01 3.570287227630615234e-01
2.211000000000000000e+03 7.265582561492919922e+00 1.595469570159912109e+01 -1.587464570999145508e+00 4.022117614746093750e+00 7.303959131240844727e-01 -1.257404208183288574e+00
2.212000000000000000e+03 6.972837924957275391e+00 1.860284614562988281e+01 -1.192068338394165039e+00 3.566972017288208008e+00 7.124710679054260254e-01 -5.904007554054260254e-01
2.213000000000000000e+03 5.462183380126953125e+01 1.510926818847656250e+01 1.217313647270202637e+00 6.459816932678222656e+00 2.303139209747314453e+00 2.196387529373168945e+00
2.214000000000000000e+03 7.224256992340087891e+00 2.011474800109863281e+01 -9.470289349555969238e-01 3.310627222061157227e+00 7.090795040130615234e-01 -2.712109386920928955e-01
2.215000000000000000e+03 5.875066280364990234e+00 2.011538314819335938e+01 -7.536697387695312500e-01 3.477318286895751953e+00 8.170946240425109863e-01 -4.235874116420745850e-01
2.216000000000000000e+03 8.578872680664062500e+00 2.824295616149902344e+01 -1.026633381843566895e-01 2.812301158905029297e+00 8.128913640975952148e-01 3.412551283836364746e-01
2.217000000000000000e+03 6.729389190673828125e+00 2.817823600769042969e+01 -9.690438210964202881e-02 3.122822046279907227e+00 9.077753424644470215e-01 3.169641494750976562e-01
2.218000000000000000e+03 5.588064670562744141e+00 1.256644058227539062e+01 -9.410667419433593750e-01 3.697294235229492188e+00 8.268682360649108887e-01 -2.550102472305297852e+00
2.219000000000000000e+03 5.430981159210205078e+00 1.070003986358642578e+01 -1.035232916474342346e-01 3.718907356262207031e+00 1.084615230560302734e+00 -2.878940105438232422e+00
2.220000000000000000e+03 4.401659393310546875e+01 -1.935352134704589844e+01 -3.966880440711975098e-01 5.846000194549560547e+00 1.634793639183044434e+00 -1.147651195526123047e+00
2.221000000000000000e+03 4.513389587402343750e+01 -1.774436950683593750e+01 1.681405156850814819e-01 5.132137775421142578e+00 1.590083479881286621e+00 -1.434473872184753418e+00
2.222000000000000000e+03 4.299334335327148438e+01 -1.594710159301757812e+01 1.032278895378112793e+00 8.220762252807617188e+00 2.775912284851074219e+00 -1.109137773513793945e+00
2.223000000000000000e+03 5.953432846069335938e+01 -3.917047262191772461e+00 1.376013875007629395e+00 5.317974090576171875e+00 2.008196353912353516e+00 -5.104326605796813965e-01
2.224000000000000000e+03 5.496510505676269531e+00 9.651598930358886719e+00 4.877265393733978271e-01 3.355807781219482422e+00 1.153060317039489746e+00 -3.144707202911376953e+00
2.225000000000000000e+03 7.589339256286621094e+00 9.821168899536132812e+00 -3.209571540355682373e-01 6.365471363067626953e+00 1.813354253768920898e+00 -3.456284999847412109e+00
2.226000000000000000e+03 6.896245574951171875e+01 1.433130455017089844e+01 1.273439645767211914e+00 7.717243671417236328e+00 2.697205066680908203e+00 1.509698629379272461e+00
2.227000000000000000e+03 5.246411132812500000e+01 -1.623085737228393555e+00 -3.589513778686523438e+00 6.430776119232177734e+00 8.523787260055541992e-01 -1.678551077842712402e+00
2.228000000000000000e+03 3.511117553710937500e+01 5.244624614715576172e+00 -7.604664564132690430e-02 7.597290515899658203e+00 2.256373167037963867e+00 9.684125185012817383e-01
2.229000000000000000e+03 5.547225952148437500e+01 1.684184074401855469e+01 7.892966866493225098e-01 5.396884441375732422e+00 1.855854392051696777e+00 2.146254301071166992e+00
2.230000000000000000e+03 6.748941040039062500e+01 -2.227103996276855469e+01 9.095591902732849121e-01 4.313313484191894531e+00 1.566861867904663086e+00 1.215036287903785706e-01
2.231000000000000000e+03 6.064109039306640625e+01 -1.340579605102539062e+01 1.418623328208923340e-01 7.999068260192871094e+00 2.442279338836669922e+00 5.212970376014709473e-01
2.232000000000000000e+03 7.489137649536132812e+00 1.154056835174560547e+01 -1.280441045761108398e+00 5.307258605957031250e+00 1.208045244216918945e+00 -2.622840404510498047e+00
2.233000000000000000e+03 2.424143981933593750e+01 2.284220123291015625e+01 -1.353228926658630371e+00 2.415657281875610352e+00 3.187285065650939941e-01 -9.877760410308837891e-01
2.234000000000000000e+03 2.097309684753417969e+01 2.158261299133300781e+01 -9.223400950431823730e-01 8.128213882446289062e-01 -3.285561129450798035e-02 -8.289738297462463379e-01
2.235000000000000000e+03 4.451914596557617188e+01 1.936125755310058594e+01 6.636185050010681152e-01 3.215894699096679688e+00 1.163854002952575684e+00 6.521545052528381348e-01
2.236000000000000000e+03 4.326724624633789062e+01 2.027929306030273438e+01 4.246731102466583252e-01 3.692448139190673828e+00 1.235136389732360840e+00 8.956921696662902832e-01
2.237000000000000000e+03 2.048653793334960938e+01 -1.412741756439208984e+01 8.140813708305358887e-01 3.845791578292846680e+00 1.397961854934692383e+00 1.566666513681411743e-01
2.238000000000000000e+03 1.673196983337402344e+01 -1.098426342010498047e+01 3.274202346801757812e-01 4.189065456390380859e+00 1.354945778846740723e+00 -8.712940812110900879e-01
2.239000000000000000e+03 6.007892608642578125e+01 -1.957417297363281250e+01 2.270555943250656128e-01 7.045149326324462891e+00 2.181661367416381836e+00 -1.314485549926757812e+00
2.240000000000000000e+03 3.865098571777343750e+01 1.822139167785644531e+01 -8.654102683067321777e-01 5.938114643096923828e+00 1.521811246871948242e+00 6.101619601249694824e-01
2.241000000000000000e+03 4.239326858520507812e+01 1.928971672058105469e+01 2.351560443639755249e-01 3.856504440307617188e+00 1.227498173713684082e+00 1.257570147514343262e+00
2.242000000000000000e+03 1.907816505432128906e+01 2.290349197387695312e+01 -6.258453130722045898e-01 8.940941095352172852e-01 8.047464489936828613e-02 -2.892965674400329590e-01
2.243000000000000000e+03 1.758279800415039062e+01 2.223593521118164062e+01 -9.900606870651245117e-01 1.002170324325561523e+00 3.632898442447185516e-03 1.036034747958183289e-01
2.244000000000000000e+03 4.688965988159179688e+01 2.005563926696777344e+01 8.743059635162353516e-01 3.647826194763183594e+00 1.356639623641967773e+00 -5.284225940704345703e-01
2.245000000000000000e+03 4.822990798950195312e+01 -2.312547302246093750e+01 2.315418422222137451e-01 3.477870702743530273e+00 1.112823724746704102e+00 -8.119961023330688477e-01
2.246000000000000000e+03 6.842508697509765625e+01 3.379811859130859375e+01 3.898784518241882324e-02 5.935790538787841797e+00 1.792433500289916992e+00 -5.323697626590728760e-02
2.247000000000000000e+03 3.008489227294921875e+01 1.740140724182128906e+01 6.271519660949707031e-01 2.602834701538085938e+00 9.689959883689880371e-01 1.769610285758972168e+00
2.248000000000000000e+03 3.220101547241210938e+01 1.903298950195312500e+01 2.212494760751724243e-01 2.564781188964843750e+00 8.358091711997985840e-01 3.603857457637786865e-01
2.249000000000000000e+03 6.840512275695800781e+00 9.160263061523437500e+00 7.609709501266479492e-01 4.999569416046142578e+00 1.728162050247192383e+00 -3.470358371734619141e+00
2.250000000000000000e+03 3.215332412719726562e+01 -1.516765213012695312e+01 -2.338100373744964600e-01 2.857312679290771484e+00 7.870508432388305664e-01 -1.216410040855407715e+00
2.251000000000000000e+03 3.198187637329101562e+01 -1.686722373962402344e+01 -2.583026513457298279e-02 3.062593698501586914e+00 9.110290408134460449e-01 -1.207978367805480957e+00
2.252000000000000000e+03 3.696529388427734375e+01 -2.317278671264648438e+01 1.675594598054885864e-01 3.603168010711669922e+00 1.131218194961547852e+00 1.238390132784843445e-01
2.253000000000000000e+03 5.922760009765625000e+01 -2.308854484558105469e+01 -5.274215340614318848e-01 6.504768848419189453e+00 1.793204188346862793e+00 -4.170630276203155518e-01
2.254000000000000000e+03 7.566435337066650391e+00 -2.840233612060546875e+01 -1.284730136394500732e-01 2.268149137496948242e+00 6.419028043746948242e-01 2.687314450740814209e-01
2.255000000000000000e+03 6.847496032714843750e+00 -2.997558975219726562e+01 -9.294826537370681763e-02 2.200352430343627930e+00 6.322212815284729004e-01 2.197854518890380859e-01
2.256000000000000000e+03 5.799987411499023438e+01 -6.331661224365234375e+00 3.408025503158569336e-01 6.344738960266113281e+00 2.005662441253662109e+00 8.518560230731964111e-02
2.257000000000000000e+03 6.164834594726562500e+01 -1.330411720275878906e+01 -1.827974021434783936e-01 7.103055000305175781e+00 2.076077461242675781e+00 3.025674819946289062e-01
2.258000000000000000e+03 5.656533432006835938e+01 -2.461387872695922852e+00 -1.165274739265441895e+00 4.045890331268310547e+00 8.641847372055053711e-01 -3.952401161193847656e+00
2.259000000000000000e+03 3.879171752929687500e+01 -2.512372589111328125e+01 -3.139530867338180542e-02 4.017361640930175781e+00 1.195789933204650879e+00 3.964263945817947388e-02
2.260000000000000000e+03 7.337131500244140625e+01 -2.203508949279785156e+01 -3.869719505310058594e-01 6.599027156829833984e+00 1.863616585731506348e+00 8.410181403160095215e-01
2.261000000000000000e+03 5.137567520141601562e+01 2.013915443420410156e+01 -3.500561118125915527e-01 6.156164169311523438e+00 1.741832494735717773e+00 9.199960529804229736e-02
2.262000000000000000e+03 4.691505432128906250e+01 -2.218632125854492188e+01 1.536662597209215164e-02 3.799244642257690430e+00 1.144383430480957031e+00 -1.245888710021972656e+00
2.263000000000000000e+03 5.167287445068359375e+01 -2.519911956787109375e+01 5.607746839523315430e-01 3.288014173507690430e+00 1.154636621475219727e+00 1.082615256309509277e-01
2.264000000000000000e+03 7.076910400390625000e+01 1.863316345214843750e+01 2.763806581497192383e-01 6.677223205566406250e+00 2.086081266403198242e+00 1.606475114822387695e-01
2.265000000000000000e+03 7.077117156982421875e+01 2.961463928222656250e+01 -8.686405606567859650e-03 6.152730941772460938e+00 1.843213319778442383e+00 -5.455263704061508179e-02
2.266000000000000000e+03 1.011753940582275391e+01 -2.823072671890258789e+00 1.595950126647949219e+00 1.816276192665100098e+00 1.023667931556701660e+00 1.566934704780578613e+00
2.267000000000000000e+03 1.331945610046386719e+01 -4.601894855499267578e+00 -8.727345615625381470e-02 8.345370292663574219e+00 2.477429151535034180e+00 2.597170472145080566e-01
2.268000000000000000e+03 1.357417869567871094e+01 -4.021398067474365234e+00 5.095266178250312805e-02 9.569252967834472656e+00 2.886061668395996094e+00 -2.448539435863494873e-01
2.269000000000000000e+03 1.239605140686035156e+01 -3.007496595382690430e+00 5.420435667037963867e-01 9.043262481689453125e+00 2.875591754913330078e+00 2.342631340026855469e+00
2.270000000000000000e+03 9.299445152282714844e+00 -3.972634553909301758e+00 1.269215703010559082e+00 1.742307424545288086e+00 9.034569263458251953e-01 1.234053611755371094e+00
2.271000000000000000e+03 1.090329360961914062e+01 -2.610438823699951172e+00 1.865490078926086426e+00 3.181469678878784180e+00 1.514087915420532227e+00 2.431654453277587891e+00
2.272000000000000000e+03 1.222765445709228516e+01 -4.104163169860839844e+00 3.220133483409881592e-01 7.180655479431152344e+00 2.250800609588623047e+00 1.655357241630554199e+00
2.273000000000000000e+03 1.382005119323730469e+01 -3.427122354507446289e+00 1.675124615430831909e-01 1.077336597442626953e+01 3.282263517379760742e+00 -1.160816669464111328e+00
2.274000000000000000e+03 7.565232276916503906e+00 -5.607735157012939453e+00 8.391523361206054688e-01 1.239338159561157227e+00 6.235471367835998535e-01 7.250577211380004883e-01
2.275000000000000000e+03 8.839629173278808594e+00 -5.327944755554199219e+00 9.672437906265258789e-01 1.985460281372070312e+00 8.858112096786499023e-01 1.140756249427795410e+00
2.276000000000000000e+03 5.801655769348144531e+00 7.234405517578125000e+00 3.611996650695800781e+00 2.910542964935302734e+00 1.956761956214904785e+00 -3.194108963012695312e+00
2.277000000000000000e+03 1.391431045532226562e+01 -4.951660156250000000e+00 1.912750117480754852e-02 8.307031631469726562e+00 2.497847795486450195e+00 -5.887180566787719727e-01
2.278000000000000000e+03 7.101468086242675781e+00 -6.638522148132324219e+00 6.709639430046081543e-01 1.273002505302429199e+00 5.831899046897888184e-01 6.844633817672729492e-01
2.279000000000000000e+03 6.257606983184814453e+00 -6.875844478607177734e+00 5.584817528724670410e-01 9.670058488845825195e-01 4.576462805271148682e-01 5.074055790901184082e-01
2.280000000000000000e+03 1.340957164764404297e+01 -6.405981063842773438e+00 -1.360975950956344604e-01 6.492537021636962891e+00 1.906931877136230469e+00 6.155820563435554504e-02
2.281000000000000000e+03 1.416036128997802734e+01 -6.477788448333740234e+00 -1.217587366700172424e-01 6.867486476898193359e+00 2.023718357086181641e+00 -5.613825321197509766e-01
2.282000000000000000e+03 1.552855300903320312e+01 -7.904567718505859375e+00 1.362028270959854126e-01 5.503563880920410156e+00 1.691929936408996582e+00 -1.177924752235412598e+00
2.283000000000000000e+03 5.601975250244140625e+01 -3.572585105895996094e+00 -1.778108239173889160e+00 5.502187728881835938e+00 1.117223858833312988e+00 -3.240669250488281250e+00
2.284000000000000000e+03 1.481350231170654297e+01 -7.735033512115478516e+00 -1.102844998240470886e-01 5.895602703094482422e+00 1.735595464706420898e+00 -9.369294047355651855e-01
2.285000000000000000e+03 1.583150863647460938e+01 -9.218926429748535156e+00 1.498704552650451660e-01 4.807581901550292969e+00 1.487235784530639648e+00 -1.023850321769714355e+00
2.286000000000000000e+03 6.084001922607421875e+01 -1.612551307678222656e+01 7.709179520606994629e-01 7.256335258483886719e+00 2.408175945281982422e+00 -5.576795339584350586e-01
2.287000000000000000e+03 7.244589996337890625e+01 1.447571468353271484e+01 1.380952954292297363e+00 5.209496974945068359e+00 1.977135062217712402e+00 -7.730696350336074829e-02
2.288000000000000000e+03 7.389213562011718750e+01 1.741489219665527344e+01 6.232189536094665527e-01 6.141092300415039062e+00 2.029293298721313477e+00 -1.278556734323501587e-01
2.289000000000000000e+03 1.761383438110351562e+01 -1.077374458312988281e+01 6.867020726203918457e-01 3.956084012985229492e+00 1.392835855484008789e+00 -9.624974131584167480e-01
2.290000000000000000e+03 1.623065567016601562e+01 2.143939018249511719e+01 -1.055895686149597168e+00 1.096623897552490234e+00 1.221848186105489731e-02 1.648046672344207764e-01
2.291000000000000000e+03 1.317959213256835938e+01 2.162691116333007812e+01 -1.085225224494934082e+00 1.872191667556762695e+00 2.360899299383163452e-01 4.414296746253967285e-01
2.292000000000000000e+03 5.372539520263671875e+01 -2.520699691772460938e+01 4.571685492992401123e-01 4.215940475463867188e+00 1.401932716369628906e+00 8.753051757812500000e-01
2.293000000000000000e+03 4.992140197753906250e+01 -2.341415596008300781e+01 4.810692369937896729e-01 2.864334821701049805e+00 1.003621220588684082e+00 -4.762966930866241455e-01
2.294000000000000000e+03 1.361021804809570312e+01 1.959147644042968750e+01 -1.501733064651489258e+00 1.780545353889465332e+00 8.364371210336685181e-02 2.787847816944122314e-01
2.295000000000000000e+03 7.161300659179687500e+01 1.512921714782714844e+01 1.458949089050292969e+00 5.708169937133789062e+00 2.150135517120361328e+00 4.006943404674530029e-01
2.296000000000000000e+03 9.187910079956054688e+00 1.560872650146484375e+01 -1.989820003509521484e+00 3.923187732696533203e+00 5.800102949142456055e-01 -7.555381655693054199e-01
2.297000000000000000e+03 6.572175502777099609e+00 -1.405632972717285156e+01 -3.372618928551673889e-02 1.816621422767639160e+00 5.348685383796691895e-01 6.226487159729003906e-01
2.298000000000000000e+03 6.837791442871093750e+01 1.884176254272460938e+01 -2.068189829587936401e-01 7.088844299316406250e+00 2.064607620239257812e+00 -2.334813326597213745e-01
2.299000000000000000e+03 6.899234008789062500e+01 1.545918846130371094e+01 5.060308575630187988e-01 7.691527366638183594e+00 2.459267377853393555e+00 7.990732789039611816e-01
2.300000000000000000e+03 1.332027912139892578e+01 1.754304695129394531e+01 -1.987527728080749512e+00 1.930518150329589844e+00 -1.710287295281887054e-02 1.507342904806137085e-01
2.301000000000000000e+03 8.617710113525390625e+00 2.192120170593261719e+01 -8.128901720046997070e-01 2.973732233047485352e+00 6.482526063919067383e-01 8.037932962179183960e-02
2.302000000000000000e+03 7.057411670684814453e+00 -1.039241695404052734e+01 1.849302351474761963e-01 1.814403295516967773e+00 5.998000502586364746e-01 7.209555506706237793e-01
2.303000000000000000e+03 7.136339187622070312e+00 -8.765953063964843750e+00 3.758431077003479004e-01 1.692669630050659180e+00 6.205537915229797363e-01 7.507940530776977539e-01
2.304000000000000000e+03 7.125076293945312500e+01 -2.086519622802734375e+01 2.016449160873889923e-02 5.657842159271240234e+00 1.703402042388916016e+00 1.437747001647949219e+00
2.305000000000000000e+03 7.315224456787109375e+01 2.094467544555664062e+01 1.108436435461044312e-01 6.467264175415039062e+00 1.973432421684265137e+00 -9.089135564863681793e-03
2.306000000000000000e+03 7.208246612548828125e+01 2.245750617980957031e+01 2.662356197834014893e-02 6.463947296142578125e+00 1.947171211242675781e+00 -5.888668447732925415e-02
2.307000000000000000e+03 7.311163902282714844e+00 2.333309364318847656e+01 -5.017643570899963379e-01 3.088873624801635742e+00 7.761327624320983887e-01 1.236524283885955811e-01
2.308000000000000000e+03 8.778540611267089844e+00 2.523781394958496094e+01 -3.577517271041870117e-01 2.765608072280883789e+00 7.223568558692932129e-01 3.066457211971282959e-01
2.309000000000000000e+03 7.204113006591796875e+01 -2.300652503967285156e+01 -4.693925380706787109e-02 5.988934040069580078e+00 1.782598495483398438e+00 7.862892746925354004e-01
2.310000000000000000e+03 7.179356384277343750e+01 -2.522564888000488281e+01 1.897111833095550537e-01 5.920013904571533203e+00 1.832917571067810059e+00 5.203689932823181152e-01
2.311000000000000000e+03 8.035256385803222656e+00 -1.756406593322753906e+01 -1.272362470626831055e-01 2.270766258239746094e+00 6.430590152740478516e-01 5.385274291038513184e-01
2.312000000000000000e+03 6.855593109130859375e+01 -2.026170349121093750e+01 1.105590939521789551e+00 3.559505701065063477e+00 1.399528980255126953e+00 8.976642489433288574e-01
2.313000000000000000e+03 7.340740203857421875e+01 1.601808929443359375e+01 8.885831236839294434e-01 5.842389106750488281e+00 2.019291639328002930e+00 -1.351365894079208374e-01
2.314000000000000000e+03 1.430877017974853516e+01 2.178780364990234375e+01 -1.014506220817565918e+00 1.655983686447143555e+00 1.924432516098022461e-01 2.672141492366790771e-01
2.315000000000000000e+03 6.461950778961181641e+00 -2.326438713073730469e+01 -1.046982929110527039e-01 2.018769979476928711e+00 5.742214918136596680e-01 3.872300088405609131e-01
2.316000000000000000e+03 5.206867218017578125e+01 1.845350837707519531e+01 -8.670818209648132324e-01 7.456769943237304688e+00 1.976906418800354004e+00 2.634303867816925049e-01
2.317000000000000000e+03 9.231792449951171875e+00 -1.135754680633544922e+01 -1.240883674472570419e-02 2.788205623626708984e+00 8.327390551567077637e-01 7.351296544075012207e-01
2.318000000000000000e+03 7.507352828979492188e+00 2.916335296630859375e+01 -1.093529257923364639e-02 2.865329027175903320e+00 8.563181757926940918e-01 3.208765089511871338e-01
2.319000000000000000e+03 6.917472839355468750e+01 1.352623081207275391e+01 1.821158409118652344e+00 7.443153858184814453e+00 2.779293775558471680e+00 1.382344245910644531e+00
2.320000000000000000e+03 2.640941047668457031e+01 -1.368303585052490234e+01 -3.538603782653808594e-01 5.907300472259521484e+00 1.666032075881958008e+00 -5.831224918365478516e-01
2.321000000000000000e+03 2.474021148681640625e+01 -1.303448200225830078e+01 1.907205432653427124e-01 5.885986328125000000e+00 1.823011994361877441e+00 2.474915981292724609e-01
2.322000000000000000e+03 7.263484477996826172e+00 -2.014345932006835938e+01 -1.464268565177917480e-01 2.098910808563232422e+00 5.857451558113098145e-01 4.773289859294891357e-01
2.323000000000000000e+03 7.285990905761718750e+01 -2.960924911499023438e+01 1.465642452239990234e-01 6.150268554687500000e+00 1.889049887657165527e+00 2.695570886135101318e-01
2.324000000000000000e+03 6.841551208496093750e+01 -2.964641380310058594e+01 2.738901674747467041e-01 5.607872486114501953e+00 1.764528870582580566e+00 6.837282329797744751e-02
2.325000000000000000e+03 7.133617401123046875e+01 1.680350303649902344e+01 7.854655981063842773e-01 6.250529766082763672e+00 2.110798597335815430e+00 2.564212977886199951e-01
2.326000000000000000e+03 2.515484046936035156e+01 2.177697944641113281e+01 -1.538641571998596191e+00 3.261434793472290039e+00 5.168379545211791992e-01 -1.062847256660461426e+00
2.327000000000000000e+03 6.139028167724609375e+01 -1.834560585021972656e+01 9.583784937858581543e-01 6.445394039154052734e+00 2.221131801605224609e+00 -1.112307429313659668e+00
2.328000000000000000e+03 2.268540191650390625e+01 2.347079277038574219e+01 -6.413173079490661621e-01 1.798534512519836426e+00 3.471651673316955566e-01 -8.971337676048278809e-01
2.329000000000000000e+03 7.111603546142578125e+01 2.782749176025390625e+01 2.220771834254264832e-02 6.175560474395751953e+00 1.859330534934997559e+00 -9.700320661067962646e-02
2.330000000000000000e+03 5.979502105712890625e+01 2.003649520874023438e+01 1.075172543525695801e+00 3.675395727157592773e+00 1.425170540809631348e+00 3.994732797145843506e-01
2.331000000000000000e+03 2.963774108886718750e+01 -1.388081836700439453e+01 -2.358999289572238922e-02 4.409231185913085938e+00 1.315692424774169922e+00 -1.267295718193054199e+00
2.332000000000000000e+03 3.789314270019531250e+01 1.895393753051757812e+01 -6.708917617797851562e-01 5.205389499664306641e+00 1.360349297523498535e+00 2.747690975666046143e-01
2.333000000000000000e+03 1.475446510314941406e+01 -9.310807228088378906e+00 -2.412229776382446289e-02 4.931051731109619141e+00 1.472078800201416016e+00 -5.968648791313171387e-01
2.334000000000000000e+03 1.546816825866699219e+01 -1.057423019409179688e+01 3.288899362087249756e-02 4.504856586456298828e+00 1.361323595046997070e+00 -6.130928993225097656e-01
2.335000000000000000e+03 7.190287780761718750e+01 -2.869314765930175781e+01 2.864446341991424561e-01 6.008692264556884766e+00 1.888540983200073242e+00 2.604192197322845459e-01
2.336000000000000000e+03 2.734829521179199219e+01 -1.426906681060791016e+01 -2.800969481468200684e-01 5.623030662536621094e+00 1.602880120277404785e+00 -6.103050112724304199e-01
2.337000000000000000e+03 1.704462432861328125e+01 -1.322521972656250000e+01 3.553667962551116943e-01 3.908006906509399414e+00 1.279012084007263184e+00 -2.727577388286590576e-01
2.338000000000000000e+03 4.675820159912109375e+01 -1.889749336242675781e+01 -4.225210472941398621e-02 3.671306371688842773e+00 1.088716268539428711e+00 -1.622309207916259766e+00
2.339000000000000000e+03 4.556874847412109375e+01 1.812421035766601562e+01 1.357194304466247559e+00 2.266246557235717773e+00 1.087032318115234375e+00 2.407972663640975952e-01
2.340000000000000000e+03 4.526484298706054688e+01 2.075624656677246094e+01 6.377941370010375977e-01 3.527587890625000000e+00 1.249614596366882324e+00 3.347956836223602295e-01
2.341000000000000000e+03 6.717970275878906250e+01 -2.075407981872558594e+01 8.981504440307617188e-01 3.492257356643676758e+00 1.317122340202331543e+00 -2.121748626232147217e-01
2.342000000000000000e+03 1.033675956726074219e+01 -2.438727569580078125e+01 -1.990334093570709229e-01 2.619011878967285156e+00 7.259935140609741211e-01 3.792027235031127930e-01
2.343000000000000000e+03 5.095476150512695312e+01 1.871000480651855469e+01 -3.333040177822113037e-01 7.009930610656738281e+00 2.002987861633300781e+00 -7.888350486755371094e-01
2.344000000000000000e+03 5.442002868652343750e+01 1.625528717041015625e+01 6.867448687553405762e-01 6.970395088195800781e+00 2.297142028808593750e+00 2.291938066482543945e+00
2.345000000000000000e+03 5.583329391479492188e+01 -2.574793624877929688e+01 -7.076976448297500610e-02 5.318567276000976562e+00 1.574339151382446289e+00 6.085183024406433105e-01
2.346000000000000000e+03 6.007269287109375000e+01 -2.170316314697265625e+01 6.926391273736953735e-02 6.470182895660400391e+00 1.961834073066711426e+00 -7.801650762557983398e-01
2.347000000000000000e+03 6.718965053558349609e+00 2.616753387451171875e+01 -2.117547541856765747e-01 3.150079011917114258e+00 8.814972639083862305e-01 2.636822462081909180e-01
2.348000000000000000e+03 3.300072860717773438e+01 -1.613712501525878906e+01 -2.167754322290420532e-01 2.514786958694458008e+00 6.894034743309020996e-01 -1.270895600318908691e+00
2.349000000000000000e+03 3.298193359375000000e+01 -1.426127338409423828e+01 -5.581815540790557861e-02 2.134677886962890625e+00 6.236578822135925293e-01 -1.074611783027648926e+00
2.350000000000000000e+03 3.253658294677734375e+01 -2.063979530334472656e+01 1.312628835439682007e-01 3.231676101684570312e+00 1.008881688117980957e+00 -8.401062488555908203e-01
2.351000000000000000e+03 7.000495910644531250e+01 -3.429079818725585938e+01 1.775132715702056885e-01 5.950627326965332031e+00 1.838442206382751465e+00 1.094633191823959351e-01
2.352000000000000000e+03 6.774559020996093750e+01 2.046842575073242188e+01 -9.649813175201416016e-02 6.377480983734130859e+00 1.884294867515563965e+00 -5.993573665618896484e-01
2.353000000000000000e+03 4.564099121093750000e+01 -2.134355163574218750e+01 -2.211752831935882568e-01 4.497151374816894531e+00 1.282792925834655762e+00 -1.177993655204772949e+00
2.354000000000000000e+03 4.577161788940429688e+01 -2.485139274597167969e+01 -8.151378482580184937e-02 4.271820068359375000e+00 1.257091999053955078e+00 -6.589552164077758789e-01
2.355000000000000000e+03 9.937871932983398438e+00 3.290861511230468750e+01 1.055820658802986145e-01 2.734758615493774414e+00 8.521022200584411621e-01 2.675157189369201660e-01
2.356000000000000000e+03 8.335200309753417969e+00 3.400329208374023438e+01 1.575207561254501343e-01 2.735983371734619141e+00 8.680512309074401855e-01 2.767119407653808594e-01
2.357000000000000000e+03 7.608370780944824219e+00 2.722138786315917969e+01 -1.348760873079299927e-01 2.895939111709594727e+00 8.283188939094543457e-01 3.008706271648406982e-01
2.358000000000000000e+03 7.051770782470703125e+01 -2.616135406494140625e+01 4.241735339164733887e-01 5.618686676025390625e+00 1.812857985496520996e+00 3.730609118938446045e-01
2.359000000000000000e+03 7.277326202392578125e+01 2.978914642333984375e+01 8.119028992950916290e-03 6.252725124359130859e+00 1.878253221511840820e+00 -4.994600266218185425e-02
2.360000000000000000e+03 6.866635894775390625e+01 2.931169700622558594e+01 6.082381680607795715e-02 5.947730064392089844e+00 1.802566170692443848e+00 -1.209357678890228271e-01
2.361000000000000000e+03 7.245623016357421875e+01 -2.741502380371093750e+01 1.594391614198684692e-01 6.068125724792480469e+00 1.868269443511962891e+00 3.473746776580810547e-01
2.362000000000000000e+03 5.675665664672851562e+01 1.749763298034667969e+01 7.624602913856506348e-01 4.432890892028808594e+00 1.558605432510375977e+00 1.936491012573242188e+00
2.363000000000000000e+03 2.082916641235351562e+01 2.346000671386718750e+01 -7.400444149971008301e-01 1.271126031875610352e+00 1.593244820833206177e-01 -5.897247195243835449e-01
2.364000000000000000e+03 1.574929141998291016e+01 2.508297729492187500e+01 -4.216204285621643066e-01 1.658071875572204590e+00 3.709354102611541748e-01 1.986777037382125854e-01
2.365000000000000000e+03 8.955125808715820312e+00 2.692760276794433594e+01 -2.149308025836944580e-01 2.770755052566528320e+00 7.667472958564758301e-01 2.654503881931304932e-01
2.366000000000000000e+03 7.270175170898437500e+01 3.330507278442382812e+01 6.682277191430330276e-03 6.237639427185058594e+00 1.873296499252319336e+00 -4.485482722520828247e-02
2.367000000000000000e+03 7.057471466064453125e+01 3.152072525024414062e+01 2.123762294650077820e-02 6.101771354675292969e+00 1.836902618408203125e+00 -6.927214562892913818e-02
2.368000000000000000e+03 9.606768608093261719e+00 -3.405770874023437500e+01 -1.262336522340774536e-01 2.492597818374633789e+00 7.099092602729797363e-01 1.438041776418685913e-01
2.369000000000000000e+03 1.188050651550292969e+01 -3.137846183776855469e+01 -1.952330470085144043e-01 2.725720405578613281e+00 7.591462135314941406e-01 2.072120457887649536e-01
2.370000000000000000e+03 1.833164596557617188e+01 2.456972885131835938e+01 -4.729323983192443848e-01 1.290795922279357910e+00 2.453590631484985352e-01 -1.202527359127998352e-01
2.371000000000000000e+03 5.010697555541992188e+01 2.055396270751953125e+01 -2.122017294168472290e-01 5.779886245727539062e+00 1.670305371284484863e+00 -5.385584831237792969e-01
2.372000000000000000e+03 7.115757751464843750e+01 3.521673965454101562e+01 1.755820401012897491e-02 6.153100490570068359e+00 1.851197719573974609e+00 -3.106018342077732086e-02
2.373000000000000000e+03 1.187233924865722656e+01 -2.921367406845092773e+00 1.107279300689697266e+00 6.826899051666259766e+00 2.380253553390502930e+00 2.955667257308959961e+00
2.374000000000000000e+03 1.069996166229248047e+01 -3.076431512832641602e+00 1.658450007438659668e+00 3.124835014343261719e+00 1.434985518455505371e+00 2.217967510223388672e+00
2.375000000000000000e+03 9.966566085815429688e+00 -3.426147460937500000e+00 1.457166314125061035e+00 2.116626739501953125e+00 1.072137951850891113e+00 1.568898797035217285e+00
2.376000000000000000e+03 1.298550987243652344e+01 -3.731680154800415039e+00 -4.143326729536056519e-02 9.262911796569824219e+00 2.766443490982055664e+00 9.107485413551330566e-01
2.377000000000000000e+03 1.341778469085693359e+01 -5.535039901733398438e+00 -7.961267977952957153e-02 7.172836303710937500e+00 2.127967119216918945e+00 1.407366096973419189e-01
2.378000000000000000e+03 1.124234390258789062e+01 -3.271396636962890625e+00 1.372563481330871582e+00 4.753885746002197266e+00 1.837934851646423340e+00 2.570048332214355469e+00
2.379000000000000000e+03 1.370148754119873047e+01 -6.876673221588134766e+00 -1.617939621210098267e-01 6.284738540649414062e+00 1.836883306503295898e+00 -7.209884375333786011e-02
2.380000000000000000e+03 1.237452316284179688e+01 -3.546318054199218750e+00 4.141115248203277588e-01 8.196621894836425781e+00 2.583220005035400391e+00 1.995737195014953613e+00
2.381000000000000000e+03 1.045492362976074219e+01 -4.114068031311035156e+00 1.223835229873657227e+00 3.338696241378784180e+00 1.368759393692016602e+00 1.866424083709716797e+00
2.382000000000000000e+03 8.231046676635742188e+00 -5.447923660278320312e+00 9.247903227806091309e-01 1.564159750938415527e+00 7.466850280761718750e-01 9.255030155181884766e-01
2.383000000000000000e+03 7.576708316802978516e+00 -7.378379344940185547e+00 5.599193572998046875e-01 1.661990880966186523e+00 6.665730476379394531e-01 7.992349863052368164e-01
2.384000000000000000e+03 7.858945846557617188e+00 -1.433394336700439453e+01 -9.645916521549224854e-02 2.211581707000732422e+00 6.345368027687072754e-01 6.368018984794616699e-01
2.385000000000000000e+03 8.217649459838867188e+00 -1.097161865234375000e+01 9.687340259552001953e-02 2.385332584381103516e+00 7.446618080139160156e-01 7.537530660629272461e-01
2.386000000000000000e+03 1.201345920562744141e+01 -6.027482986450195312e+00 1.699718683958053589e-01 5.589099407196044922e+00 1.727721333503723145e+00 1.054124712944030762e+00
2.387000000000000000e+03 1.460290622711181641e+01 -9.930520057678222656e+00 -9.842536598443984985e-02 4.743822097778320312e+00 1.393619060516357422e+00 -4.361295104026794434e-01
2.388000000000000000e+03 6.368634033203125000e+01 -2.740223121643066406e+01 2.004711478948593140e-01 5.432825565338134766e+00 1.689989089965820312e+00 -2.628462314605712891e-01
2.389000000000000000e+03 6.068507385253906250e+01 -2.375706481933593750e+01 2.301033586263656616e-02 5.985635280609130859e+00 1.802593708038330078e+00 -4.509848654270172119e-01
2.390000000000000000e+03 6.982470703125000000e+01 -2.852337837219238281e+01 3.693496286869049072e-01 5.690625667572021484e+00 1.817992568016052246e+00 2.177805453538894653e-01
2.391000000000000000e+03 7.039537048339843750e+01 2.256238555908203125e+01 -8.978813886642456055e-03 6.472365379333496094e+00 1.939015984535217285e+00 -1.509593576192855835e-01
2.392000000000000000e+03 6.649650573730468750e+01 2.879433059692382812e+01 1.068457365036010742e-01 5.757833957672119141e+00 1.759403944015502930e+00 -1.180083900690078735e-01
2.393000000000000000e+03 6.968820190429687500e+01 2.159825706481933594e+01 -4.546944517642259598e-03 6.421099662780761719e+00 1.924965858459472656e+00 -1.191807240247726440e-01
2.394000000000000000e+03 7.071560668945312500e+01 1.594087982177734375e+01 8.403785228729248047e-01 6.418034076690673828e+00 2.177523612976074219e+00 7.152054309844970703e-01
2.395000000000000000e+03 7.157434844970703125e+01 1.993854141235351562e+01 1.533646285533905029e-01 6.472219944000244141e+00 1.987675428390502930e+00 6.498777866363525391e-02
2.396000000000000000e+03 7.027155303955078125e+01 1.717511367797851562e+01 4.248998761177062988e-01 6.787529468536376953e+00 2.163728713989257812e+00 4.476641714572906494e-01
2.397000000000000000e+03 1.110918235778808594e+01 1.556208705902099609e+01 -2.161411523818969727e+00 3.218020439147949219e+00 3.169826865196228027e-01 -1.961212605237960815e-01
2.398000000000000000e+03 1.118765735626220703e+01 2.219855117797851562e+01 -9.776660203933715820e-01 2.461274623870849609e+00 4.450825750827789307e-01 3.192513287067413330e-01
2.399000000000000000e+03 1.068410491943359375e+01 2.709780502319335938e+01 -1.737831383943557739e-01 2.394505500793457031e+00 6.662166714668273926e-01 3.584471344947814941e-01
2.400000000000000000e+03 1.011274242401123047e+01 2.365941047668457031e+01 -6.345707774162292480e-01 2.584697484970092773e+00 5.850380063056945801e-01 2.953911423683166504e-01
2.401000000000000000e+03 9.566862106323242188e+00 1.762329292297363281e+01 -1.753014326095581055e+00 3.384819746017456055e+00 4.895416498184204102e-01 -3.686477541923522949e-01
2.402000000000000000e+03 1.221240520477294922e+01 1.655181121826171875e+01 -2.265408277511596680e+00 2.777625560760498047e+00 1.536651551723480225e-01 1.400747597217559814e-01
2.403000000000000000e+03 8.572518348693847656e+00 -7.705859184265136719e+00 4.646813869476318359e-01 2.352834463119506836e+00 8.452547788619995117e-01 9.703428745269775391e-01
2.404000000000000000e+03 7.151540279388427734e+00 -7.951101303100585938e+00 4.562311768531799316e-01 1.536179542541503906e+00 5.977232456207275391e-01 7.137808203697204590e-01
2.405000000000000000e+03 2.705912971496582031e+01 2.632920837402343750e+01 -6.959968209266662598e-01 2.880358457565307617e+00 6.553085446357727051e-01 -5.437282919883728027e-01
2.406000000000000000e+03 7.234516143798828125e+01 -2.068694305419921875e+01 -4.166420698165893555e-01 6.307294845581054688e+00 1.767195820808410645e+00 1.168181300163269043e+00
2.407000000000000000e+03 7.981506347656250000e+00 -1.196984481811523438e+01 1.842259243130683899e-02 2.287930011749267578e+00 6.919057965278625488e-01 7.099667787551879883e-01
2.408000000000000000e+03 1.338367366790771484e+01 -8.016198158264160156e+00 -1.975939720869064331e-01 5.435778141021728516e+00 1.571455240249633789e+00 1.294412068091332912e-03
2.409000000000000000e+03 6.889274120330810547e+00 1.732373237609863281e+01 -1.302986383438110352e+00 3.660899400711059570e+00 7.073739171028137207e-01 -8.534060120582580566e-01
2.410000000000000000e+03 1.064697265625000000e+01 1.846768951416015625e+01 -1.773541212081909180e+00 3.102321386337280273e+00 3.986340463161468506e-01 3.475117683410644531e-02
2.411000000000000000e+03 8.894989013671875000e+00 1.883018112182617188e+01 -1.484870314598083496e+00 3.364700078964233398e+00 5.639489293098449707e-01 -2.122183591127395630e-01
2.412000000000000000e+03 3.109956932067871094e+01 -1.483692550659179688e+01 -6.829693913459777832e-02 3.413824081420898438e+00 1.003658175468444824e+00 -1.233637928962707520e+00
2.413000000000000000e+03 2.849135780334472656e+01 -1.412989521026611328e+01 -2.476358711719512939e-01 4.844618797302246094e+00 1.379094839096069336e+00 -1.288569092750549316e+00
2.414000000000000000e+03 2.875184249877929688e+01 -1.543907165527343750e+01 -3.243362307548522949e-01 4.666998386383056641e+00 1.302798748016357422e+00 -1.077472686767578125e+00
2.415000000000000000e+03 1.045006275177001953e+01 -2.103494071960449219e+01 -1.983810961246490479e-01 2.714303016662597656e+00 7.547765970230102539e-01 4.455265402793884277e-01
2.416000000000000000e+03 8.610253334045410156e+00 -1.986623001098632812e+01 -1.570066809654235840e-01 2.362378835678100586e+00 6.616116762161254883e-01 4.867265820503234863e-01
2.417000000000000000e+03 7.279481887817382812e+00 2.176064109802246094e+01 -7.397944331169128418e-01 3.222396135330200195e+00 7.447804808616638184e-01 -9.137688577175140381e-02
2.418000000000000000e+03 6.918918609619140625e+01 2.739926719665527344e+01 2.027344144880771637e-02 6.070462226867675781e+00 1.827220678329467773e+00 -1.298568695783615112e-01
2.419000000000000000e+03 6.525860595703125000e+01 2.011495590209960938e+01 2.361274063587188721e-01 5.608213424682617188e+00 1.753302216529846191e+00 -9.498217105865478516e-01
2.420000000000000000e+03 6.688937377929687500e+01 1.843271827697753906e+01 -2.434006333351135254e-01 6.818982601165771484e+00 1.972674608230590820e+00 -9.323240518569946289e-01
2.421000000000000000e+03 6.887109375000000000e+01 1.707797813415527344e+01 1.701232492923736572e-01 7.231318473815917969e+00 2.220432519912719727e+00 3.557718098163604736e-01
2.422000000000000000e+03 6.386456680297851562e+01 1.870099449157714844e+01 4.981894195079803467e-01 4.672894001007080078e+00 1.551325082778930664e+00 -1.433940172195434570e+00
2.423000000000000000e+03 5.251668930053710938e+01 1.956151199340820312e+01 -3.718381226062774658e-01 6.736173152923583984e+00 1.909300565719604492e+00 3.177954852581024170e-01
2.424000000000000000e+03 9.121838569641113281e+00 -2.262271881103515625e+01 -1.768057644367218018e-01 2.460714101791381836e+00 6.851724982261657715e-01 4.389516413211822510e-01
2.425000000000000000e+03 7.045443725585937500e+01 -2.261611557006835938e+01 2.492090314626693726e-01 5.329426288604736328e+00 1.673590660095214844e+00 8.181362748146057129e-01
2.426000000000000000e+03 3.903506851196289062e+01 1.947329139709472656e+01 -7.807555198669433594e-01 5.348859310150146484e+00 1.370431065559387207e+00 9.183660149574279785e-01
2.427000000000000000e+03 3.624530792236328125e+01 2.127679061889648438e+01 -4.531260132789611816e-01 4.277213573455810547e+00 1.147226333618164062e+00 -1.672005802392959595e-01
2.428000000000000000e+03 3.503363800048828125e+01 2.012629127502441406e+01 -3.249844610691070557e-01 3.856276512145996094e+00 1.059387564659118652e+00 -4.176026284694671631e-01
2.429000000000000000e+03 1.367564487457275391e+01 3.141420173645019531e+01 1.443133205175399780e-01 2.229644775390625000e+00 7.121874690055847168e-01 2.029668390750885010e-01
2.430000000000000000e+03 5.188702011108398438e+01 2.163474273681640625e+01 -1.975165754556655884e-01 5.841369152069091797e+00 1.693155765533447266e+00 5.778426304459571838e-02
2.431000000000000000e+03 5.321688079833984375e+01 1.597708225250244141e+01 8.247938752174377441e-01 8.309689521789550781e+00 2.740345001220703125e+00 1.821269273757934570e+00
2.432000000000000000e+03 5.322448348999023438e+01 1.729164886474609375e+01 1.860362291336059570e-02 7.769843578338623047e+00 2.336534023284912109e+00 1.605632185935974121e+00
2.433000000000000000e+03 7.210016632080078125e+01 2.119951438903808594e+01 1.350555717945098877e-01 6.466627597808837891e+00 1.980504989624023438e+00 -3.471282124519348145e-02
2.434000000000000000e+03 6.887351226806640625e+01 2.089476966857910156e+01 -1.046215072274208069e-01 6.576867103576660156e+00 1.941673636436462402e+00 -2.963706552982330322e-01
2.435000000000000000e+03 4.238599777221679688e+01 -2.120688819885253906e+01 -7.119129896163940430e-01 5.744755268096923828e+00 1.509852647781372070e+00 -1.723799109458923340e-01
2.436000000000000000e+03 4.611993789672851562e+01 -1.990982437133789062e+01 -2.018594145774841309e-01 4.284396648406982422e+00 1.224761128425598145e+00 -1.521422505378723145e+00
2.437000000000000000e+03 7.109218597412109375e+01 -2.391898727416992188e+01 4.542839825153350830e-01 5.579715728759765625e+00 1.810199975967407227e+00 6.271637082099914551e-01
2.438000000000000000e+03 7.147108459472656250e+01 -2.209168243408203125e+01 3.427859842777252197e-01 5.557230472564697266e+00 1.770004987716674805e+00 9.477591514587402344e-01
2.439000000000000000e+03 4.007044982910156250e+01 2.193679237365722656e+01 -3.743764758110046387e-01 4.590020179748535156e+00 1.264693140983581543e+00 5.622105598449707031e-01
2.440000000000000000e+03 4.032495498657226562e+01 1.909131813049316406e+01 -3.181618452072143555e-01 4.760576725006103516e+00 1.332724452018737793e+00 1.117240071296691895e+00
2.441000000000000000e+03 2.536835098266601562e+01 2.442117691040039062e+01 -7.862250804901123047e-01 2.796191930770874023e+00 6.029900908470153809e-01 -7.409130334854125977e-01
2.442000000000000000e+03 6.959041595458984375e+01 -3.118171501159667969e+01 2.729573547840118408e-01 5.815002918243408203e+00 1.826388120651245117e+00 1.369444429874420166e-01
2.443000000000000000e+03 7.079804229736328125e+01 -2.983837890625000000e+01 2.017915844917297363e-01 5.892569541931152344e+00 1.828308343887329102e+00 1.967748701572418213e-01
2.444000000000000000e+03 2.305629158020019531e+01 -1.602817535400390625e+01 -3.337678313255310059e-02 4.849164009094238281e+00 1.444736123085021973e+00 2.423409670591354370e-01
2.445000000000000000e+03 3.883435058593750000e+01 -2.307907104492187500e+01 -6.170658767223358154e-02 3.877477169036865234e+00 1.144731163978576660e+00 1.666337847709655762e-01
2.446000000000000000e+03 5.619717025756835938e+01 1.948407173156738281e+01 5.461940765380859375e-01 5.059491634368896484e+00 1.681705713272094727e+00 1.451647043228149414e+00
2.447000000000000000e+03 3.301303100585937500e+01 1.992317390441894531e+01 3.530049324035644531e-02 2.912046909332275391e+00 8.842042088508605957e-01 8.012361824512481689e-02
2.448000000000000000e+03 5.992205810546875000e+01 -2.735088539123535156e+01 -6.077445298433303833e-02 5.665924072265625000e+00 1.681544899940490723e+00 -6.627842783927917480e-02
2.449000000000000000e+03 3.089912605285644531e+01 -1.752256965637207031e+01 -2.356586903333663940e-01 3.522843837738037109e+00 9.861555099487304688e-01 -1.190870404243469238e+00
2.450000000000000000e+03 3.157711219787597656e+01 -1.852317237854003906e+01 1.647443883121013641e-02 3.293929815292358398e+00 9.931212663650512695e-01 -1.088271498680114746e+00
2.451000000000000000e+03 2.148426437377929688e+01 2.674066925048828125e+01 -2.200286835432052612e-01 1.908972740173339844e+00 5.066832304000854492e-01 -5.276108384132385254e-01
2.452000000000000000e+03 2.546324348449707031e+01 -1.448920631408691406e+01 -4.781692847609519958e-02 5.665894985198974609e+00 1.685423374176025391e+00 6.741371750831604004e-02
2.453000000000000000e+03 2.236446189880371094e+01 -1.462396621704101562e+01 6.489442586898803711e-01 4.286948204040527344e+00 1.480767726898193359e+00 4.840505421161651611e-01
2.454000000000000000e+03 6.924011993408203125e+01 -2.322375297546386719e+01 7.174372076988220215e-01 4.906332969665527344e+00 1.687131166458129883e+00 5.270092487335205078e-01
2.455000000000000000e+03 1.642072677612304688e+01 -1.235916805267333984e+01 2.412796765565872192e-01 4.005470752716064453e+00 1.274025082588195801e+00 -4.608786702156066895e-01
2.456000000000000000e+03 1.252027320861816406e+01 2.688173484802246094e+01 -2.115426659584045410e-01 2.195452451705932617e+00 5.951728820800781250e-01 2.885245382785797119e-01
2.457000000000000000e+03 5.315456390380859375e+01 1.857781219482421875e+01 -4.363054931163787842e-01 7.481772422790527344e+00 2.113640069961547852e+00 1.042035818099975586e+00
2.458000000000000000e+03 5.453021621704101562e+01 1.745419502258300781e+01 4.465610682964324951e-01 6.503883838653564453e+00 2.085133552551269531e+00 1.946612358093261719e+00
2.459000000000000000e+03 1.265125274658203125e+01 2.328307342529296875e+01 -7.438322305679321289e-01 1.991384863853454590e+00 3.742657899856567383e-01 3.931895196437835693e-01
2.460000000000000000e+03 4.226811218261718750e+01 -2.542298126220703125e+01 -1.490599662065505981e-01 4.376061916351318359e+00 1.268100500106811523e+00 -2.638665437698364258e-01
2.461000000000000000e+03 4.402434921264648438e+01 -2.120070838928222656e+01 -5.580752491950988770e-01 5.043778896331787109e+00 1.345711112022399902e+00 -9.857038259506225586e-01
2.462000000000000000e+03 2.620801162719726562e+01 -1.609111595153808594e+01 -4.492535889148712158e-01 5.128698825836181641e+00 1.403833627700805664e+00 -5.913800597190856934e-01
2.463000000000000000e+03 8.365865707397460938e+00 -3.093655204772949219e+01 -1.344373375177383423e-01 2.398899316787719727e+00 6.793385744094848633e-01 2.075707316398620605e-01
2.464000000000000000e+03 5.039683151245117188e+01 2.208560371398925781e+01 -8.861513435840606689e-02 5.333026409149169922e+00 1.573323369026184082e+00 -8.601151406764984131e-02
2.465000000000000000e+03 1.542236804962158203e+01 -1.514204597473144531e+01 -3.320071473717689514e-02 3.761441946029663086e+00 1.118472337722778320e+00 5.696512013673782349e-02
2.466000000000000000e+03 1.984940338134765625e+01 -1.622664833068847656e+01 2.768315672874450684e-01 3.975762844085693359e+00 1.275778293609619141e+00 1.458591669797897339e-01
2.467000000000000000e+03 8.953014373779296875e+00 -2.124940872192382812e+01 -1.835158169269561768e-01 2.431502819061279297e+00 6.743960976600646973e-01 4.648840427398681641e-01
2.468000000000000000e+03 7.539311885833740234e+00 -2.149322319030761719e+01 -1.366631090641021729e-01 2.156080722808837891e+00 6.058252453804016113e-01 4.473800957202911377e-01
2.469000000000000000e+03 6.981137847900390625e+01 2.573264884948730469e+01 3.647289797663688660e-02 6.126090049743652344e+00 1.848768830299377441e+00 -1.685050278902053833e-01
2.470000000000000000e+03 2.749138259887695312e+01 -1.567251777648925781e+01 -3.290614485740661621e-01 4.898043632507324219e+00 1.370694756507873535e+00 -8.648037910461425781e-01
2.471000000000000000e+03 6.577993011474609375e+01 -2.123113059997558594e+01 7.730820178985595703e-01 4.236897468566894531e+00 1.502993822097778320e+00 -6.393212080001831055e-01
2.472000000000000000e+03 6.553445434570312500e+01 -1.976678276062011719e+01 7.026534080505371094e-01 3.771354198455810547e+00 1.342202186584472656e+00 -8.835903406143188477e-01
2.473000000000000000e+03 3.003032302856445312e+01 2.265528678894042969e+01 -7.995310425758361816e-01 3.677018165588378906e+00 8.632461428642272949e-01 2.723662257194519043e-01
2.474000000000000000e+03 2.669303131103515625e+01 2.277124214172363281e+01 -1.541588425636291504e+00 3.454338312149047852e+00 5.738250017166137695e-01 -6.094506978988647461e-01
2.475000000000000000e+03 1.165463256835937500e+01 -3.934792757034301758e+00 7.980507612228393555e-01 5.995422363281250000e+00 2.038042068481445312e+00 2.212984323501586914e+00
2.476000000000000000e+03 1.055065536499023438e+01 -3.581452608108520508e+00 1.436851143836975098e+00 3.239928245544433594e+00 1.403033852577209473e+00 2.054529190063476562e+00
2.477000000000000000e+03 1.110444641113281250e+01 -3.745671272277832031e+00 1.183648467063903809e+00 4.517028331756591797e+00 1.710203051567077637e+00 2.261965274810791016e+00
2.478000000000000000e+03 1.041680717468261719e+01 -4.663432121276855469e+00 1.028921127319335938e+00 3.523875713348388672e+00 1.365839004516601562e+00 1.756776690483093262e+00
2.479000000000000000e+03 9.894656181335449219e+00 -4.026467323303222656e+00 1.306473374366760254e+00 2.477191209793090820e+00 1.135099411010742188e+00 1.600178360939025879e+00
2.480000000000000000e+03 1.134574127197265625e+01 -4.766777992248535156e+00 7.007359266281127930e-01 4.997475147247314453e+00 1.709463357925415039e+00 1.765479087829589844e+00
2.481000000000000000e+03 1.304062652587890625e+01 -6.096903324127197266e+00 -4.859542101621627808e-02 6.490461826324462891e+00 1.932559967041015625e+00 4.338216781616210938e-01
2.482000000000000000e+03 1.295352840423583984e+01 -5.133327007293701172e+00 9.541167877614498138e-03 7.311594963073730469e+00 2.196340799331665039e+00 5.986455082893371582e-01
2.483000000000000000e+03 7.817264080047607422e+00 -6.352198600769042969e+00 7.549472451210021973e-01 1.586935043334960938e+00 7.025647163391113281e-01 8.494195342063903809e-01
2.484000000000000000e+03 7.701793670654296875e+00 -8.408780097961425781e+00 4.338661134243011475e-01 1.959149003028869629e+00 7.179045081138610840e-01 8.604081273078918457e-01
2.485000000000000000e+03 1.479743957519531250e+01 -1.222462654113769531e+01 -2.560816146433353424e-02 4.110884189605712891e+00 1.225582838058471680e+00 -1.870553642511367798e-01
2.486000000000000000e+03 1.608736610412597656e+01 -1.379260635375976562e+01 1.548853665590286255e-01 3.866010427474975586e+00 1.206268787384033203e+00 -1.778406202793121338e-01
2.487000000000000000e+03 1.413768291473388672e+01 -7.803668498992919922e+00 -1.709290593862533569e-01 5.841187477111816406e+00 1.701077461242675781e+00 -3.484767675399780273e-01
2.488000000000000000e+03 1.252089977264404297e+01 -7.583677291870117188e+00 -9.496522694826126099e-02 5.200558185577392578e+00 1.531677842140197754e+00 4.978365302085876465e-01
2.489000000000000000e+03 6.883380126953125000e+01 -2.172692298889160156e+01 5.910924077033996582e-01 4.402735233306884766e+00 1.498148322105407715e+00 5.350837707519531250e-01
2.490000000000000000e+03 3.079608345031738281e+01 -1.937536811828613281e+01 -1.161291152238845825e-01 3.580619573593139648e+00 1.039347171783447266e+00 -9.660968184471130371e-01
2.491000000000000000e+03 3.031424903869628906e+01 -1.635459327697753906e+01 -1.985187232494354248e-01 3.781012058258056641e+00 1.074748039245605469e+00 -1.199988245964050293e+00
2.492000000000000000e+03 1.420879364013671875e+01 -1.137196826934814453e+01 -7.342308014631271362e-02 4.317687034606933594e+00 1.273279190063476562e+00 -1.241925507783889771e-01
2.493000000000000000e+03 1.927800750732421875e+01 -1.486299800872802734e+01 4.304261207580566406e-01 3.881358146667480469e+00 1.293535351753234863e+00 -4.275888577103614807e-02
2.494000000000000000e+03 2.449161529541015625e+01 -1.901990127563476562e+01 -3.679998815059661865e-01 4.525177478790283203e+00 1.247153401374816895e+00 -2.420249730348587036e-01
2.495000000000000000e+03 7.912922382354736328e+00 -1.312484264373779297e+01 -2.760189026594161987e-02 2.236498117446899414e+00 6.626688241958618164e-01 6.725988388061523438e-01
2.496000000000000000e+03 9.960117340087890625e+00 -9.759486198425292969e+00 5.203652009367942810e-02 3.194036245346069336e+00 9.738218188285827637e-01 7.990430593490600586e-01
2.497000000000000000e+03 1.372927761077880859e+01 -1.278402137756347656e+01 -6.133253872394561768e-02 3.907235383987426758e+00 1.153770804405212402e+00 8.907052874565124512e-02
2.498000000000000000e+03 1.582304573059082031e+01 -1.151667213439941406e+01 1.810684055089950562e-01 4.272058486938476562e+00 1.335938096046447754e+00 -5.037385225296020508e-01
2.499000000000000000e+03 6.980921173095703125e+01 -2.470377731323242188e+01 3.849760890007019043e-01 5.367768764495849609e+00 1.725823402404785156e+00 4.015563726425170898e-01
2.500000000000000000e+03 9.162189483642578125e+00 -1.223179912567138672e+01 -2.605688944458961487e-02 2.733222246170043945e+00 8.121496438980102539e-01 6.800593733787536621e-01
2.501000000000000000e+03 6.168486404418945312e+01 1.800831222534179688e+01 1.214937686920166016e+00 2.965748786926269531e+00 1.254205942153930664e+00 -7.344822883605957031e-01
2.502000000000000000e+03 1.166230869293212891e+01 1.940152359008789062e+01 -1.519194841384887695e+00 2.441568136215209961e+00 2.767120003700256348e-01 1.908813416957855225e-01
2.503000000000000000e+03 2.748656654357910156e+01 -1.905573844909667969e+01 -3.850055038928985596e-01 4.352147579193115234e+00 1.190142512321472168e+00 -7.883415222167968750e-01
2.504000000000000000e+03 6.974212646484375000e+01 1.404556560516357422e+01 1.366562962532043457e+00 7.001590728759765625e+00 2.510446071624755859e+00 1.382626533508300781e+00
2.505000000000000000e+03 6.375051879882812500e+01 1.746361541748046875e+01 6.847233176231384277e-01 4.216185092926025391e+00 1.470272541046142578e+00 -1.699195146560668945e+00
2.506000000000000000e+03 6.505720520019531250e+01 1.704175186157226562e+01 -1.644478291273117065e-01 6.105079174041748047e+00 1.782189369201660156e+00 -1.957854866981506348e+00
2.507000000000000000e+03 9.922171592712402344e+00 -1.943877029418945312e+01 -2.004726678133010864e-01 2.659290075302124023e+00 7.376452088356018066e-01 4.892051219940185547e-01
2.508000000000000000e+03 7.892453670501708984e+00 -1.647883224487304688e+01 -1.401731371879577637e-01 2.257449388504028320e+00 6.351829171180725098e-01 5.713577866554260254e-01
2.509000000000000000e+03 1.249444961547851562e+01 1.850694274902343750e+01 -1.913477182388305664e+00 2.479495525360107422e+00 1.698055267333984375e-01 2.692586481571197510e-01
2.510000000000000000e+03 1.159021472930908203e+01 2.116686248779296875e+01 -1.117294311523437500e+00 2.379411220550537109e+00 3.786350488662719727e-01 2.326960861682891846e-01
2.511000000000000000e+03 8.862966537475585938e+00 -1.599178791046142578e+01 -1.459445208311080933e-01 2.511394500732421875e+00 7.096350193023681641e-01 5.767501592636108398e-01
2.512000000000000000e+03 7.744903564453125000e+00 -1.542885303497314453e+01 -8.854270726442337036e-02 2.192929267883300781e+00 6.313160061836242676e-01 6.111037135124206543e-01
2.513000000000000000e+03 9.829245567321777344e+00 2.059143066406250000e+01 -1.196549057960510254e+00 2.868541002273559570e+00 5.015975832939147949e-01 1.063582822680473328e-01
2.514000000000000000e+03 3.517861557006835938e+01 2.260079383850097656e+01 -3.629488348960876465e-01 3.941543817520141602e+00 1.073578476905822754e+00 -4.817361384630203247e-02
2.515000000000000000e+03 3.381256103515625000e+01 2.124907302856445312e+01 -1.244360581040382385e-01 3.423457860946655273e+00 9.897065162658691406e-01 -5.973107740283012390e-02
2.516000000000000000e+03 6.906399536132812500e+01 -2.703374862670898438e+01 3.622244596481323242e-01 5.486914634704589844e+00 1.754741668701171875e+00 1.638745814561843872e-01
2.517000000000000000e+03 8.258108139038085938e+00 -8.943589210510253906e+00 3.202252089977264404e-01 2.298635244369506836e+00 7.856581211090087891e-01 8.866586089134216309e-01
2.518000000000000000e+03 6.255038070678710938e+01 -1.729047584533691406e+01 2.586385011672973633e-01 5.462594509124755859e+00 1.716369867324829102e+00 -1.012768268585205078e+00
2.519000000000000000e+03 1.050063037872314453e+01 3.052125740051269531e+01 5.179066583514213562e-02 2.544721364974975586e+00 7.789536118507385254e-01 3.220312893390655518e-01
2.520000000000000000e+03 6.380407333374023438e+01 2.017195701599121094e+01 5.202369689941406250e-01 4.912888526916503906e+00 1.629937767982482910e+00 -8.573372364044189453e-01
2.521000000000000000e+03 6.017668151855468750e+01 1.818564605712890625e+01 1.281633019447326660e+00 2.601075172424316406e+00 1.164812445640563965e+00 3.903906345367431641e-01
2.522000000000000000e+03 1.366887092590332031e+01 2.271924018859863281e+01 -8.971857428550720215e-01 1.939677715301513672e+00 3.127475976943969727e-01 3.123610615730285645e-01
2.523000000000000000e+03 6.726736450195312500e+01 2.672770118713378906e+01 1.195379048585891724e-01 5.814194679260253906e+00 1.780119776725769043e+00 -2.230372428894042969e-01
2.524000000000000000e+03 7.124981689453125000e+01 2.171863937377929688e+01 6.725170463323593140e-02 6.396278858184814453e+00 1.939059257507324219e+00 -3.884280472993850708e-02
2.525000000000000000e+03 1.806848526000976562e+01 -1.550362491607666016e+01 2.686588168144226074e-01 3.834529161453247070e+00 1.230956315994262695e+00 1.570069976150989532e-02
2.526000000000000000e+03 1.649405479431152344e+01 -1.478428268432617188e+01 1.635910868644714355e-01 3.840668201446533203e+00 1.201277852058410645e+00 -4.944391176104545593e-02
2.527000000000000000e+03 1.758628082275390625e+01 -1.427515792846679688e+01 3.147073090076446533e-01 3.824036836624145508e+00 1.241623282432556152e+00 -1.866831481456756592e-01
2.528000000000000000e+03 6.648114013671875000e+01 -2.448426437377929688e+01 6.485219597816467285e-01 4.906818866729736328e+00 1.666602253913879395e+00 -1.581904739141464233e-01
2.529000000000000000e+03 6.252081298828125000e+01 -2.295123863220214844e+01 3.722361326217651367e-01 5.377076148986816406e+00 1.724793672561645508e+00 -8.389911055564880371e-01
2.530000000000000000e+03 5.845509719848632812e+01 1.778757858276367188e+01 1.115956187248229980e+00 3.249190330505371094e+00 1.309543967247009277e+00 1.248980045318603516e+00
2.531000000000000000e+03 6.380524444580078125e+01 -1.881728172302246094e+01 5.687205195426940918e-01 4.639325618743896484e+00 1.562413811683654785e+00 -1.255720853805541992e+00
2.532000000000000000e+03 6.197751998901367188e+01 -2.129906845092773438e+01 3.233435153961181641e-01 5.697887420654296875e+00 1.806369304656982422e+00 -1.206765413284301758e+00
2.533000000000000000e+03 2.499508666992187500e+01 -1.678077125549316406e+01 -3.095268905162811279e-01 5.002074241638183594e+00 1.407764196395874023e+00 -1.385726332664489746e-01
2.534000000000000000e+03 4.119441604614257812e+01 2.043822860717773438e+01 -8.585317432880401611e-02 4.324088573455810547e+00 1.271470546722412109e+00 1.036689877510070801e+00
2.535000000000000000e+03 6.608898925781250000e+01 -2.281618690490722656e+01 7.103322148323059082e-01 4.499028682708740234e+00 1.562808275222778320e+00 -4.057471752166748047e-01
2.536000000000000000e+03 6.289393234252929688e+01 -2.056880950927734375e+01 5.188466310501098633e-01 5.277390003204345703e+00 1.738870978355407715e+00 -1.102861404418945312e+00
2.537000000000000000e+03 1.935521507263183594e+01 2.965060615539550781e+01 6.409304589033126831e-02 1.923627734184265137e+00 5.963162183761596680e-01 -1.941742599010467529e-01
2.538000000000000000e+03 1.458318042755126953e+01 2.380559539794921875e+01 -5.955059528350830078e-01 1.625130534172058105e+00 3.088873922824859619e-01 3.071275651454925537e-01
2.539000000000000000e+03 1.038415622711181641e+01 2.531154632568359375e+01 -4.214149415493011475e-01 2.546913385391235352e+00 6.376495361328125000e-01 2.819285690784454346e-01
2.540000000000000000e+03 3.136260604858398438e+01 -1.588350391387939453e+01 -3.080855309963226318e-01 3.362612009048461914e+00 9.163579344749450684e-01 -1.353991031646728516e+00
2.541000000000000000e+03 4.875231552124023438e+01 2.096859550476074219e+01 3.146249651908874512e-01 4.806783199310302734e+00 1.536422371864318848e+00 -5.611287951469421387e-01
2.542000000000000000e+03 1.724590873718261719e+01 2.647385025024414062e+01 -1.529700160026550293e-01 1.545906305313110352e+00 4.178808927536010742e-01 -1.288908906280994415e-02
2.543000000000000000e+03 2.893417549133300781e+01 -2.022455024719238281e+01 -2.392044663429260254e-01 3.980747461318969727e+00 1.122462868690490723e+00 -8.251659274101257324e-01
2.544000000000000000e+03 3.199542045593261719e+01 -1.953613471984863281e+01 8.250165847130119801e-04 3.138154506683349609e+00 9.416939020156860352e-01 -9.340791106224060059e-01
2.545000000000000000e+03 2.111970329284667969e+01 -1.545119667053222656e+01 3.490549325942993164e-01 4.216710090637207031e+00 1.369729518890380859e+00 1.742153763771057129e-01
2.546000000000000000e+03 2.178836441040039062e+01 -1.687382698059082031e+01 1.078969910740852356e-01 4.277549266815185547e+00 1.315633893013000488e+00 1.723128408193588257e-01
2.547000000000000000e+03 5.351317214965820312e+01 -2.294654846191406250e+01 5.111060142517089844e-01 3.063641309738159180e+00 1.072424173355102539e+00 9.942133426666259766e-01
2.548000000000000000e+03 5.335596847534179688e+01 -2.746075248718261719e+01 2.392491400241851807e-01 4.380177497863769531e+00 1.385827898979187012e+00 3.243876993656158447e-01
2.549000000000000000e+03 6.927159118652343750e+01 2.349878692626953125e+01 1.431205309927463531e-03 6.176409244537353516e+00 1.853352189064025879e+00 -2.510913908481597900e-01
2.550000000000000000e+03 1.219127845764160156e+01 2.208732795715332031e+01 -1.068655133247375488e+00 2.319054841995239258e+00 3.751198947429656982e-01 2.881785631179809570e-01
2.551000000000000000e+03 1.098998355865478516e+01 -2.671520233154296875e+01 -2.236732393503189087e-01 2.699454784393310547e+00 7.427344918251037598e-01 3.066235184669494629e-01
2.552000000000000000e+03 5.343935012817382812e+01 2.071472549438476562e+01 -2.268260270357131958e-01 5.972905635833740234e+00 1.723823904991149902e+00 7.623099088668823242e-01
2.553000000000000000e+03 6.842457580566406250e+01 -2.546472930908203125e+01 5.801713466644287109e-01 5.198321342468261719e+00 1.733547925949096680e+00 1.959926038980484009e-01
2.554000000000000000e+03 6.815753936767578125e+01 2.488034248352050781e+01 5.634934827685356140e-02 6.043998241424560547e+00 1.830104351043701172e+00 -2.545671761035919189e-01
2.555000000000000000e+03 6.820573425292968750e+01 -3.273640441894531250e+01 1.712473779916763306e-01 5.703066349029541016e+00 1.762294054031372070e+00 3.963890671730041504e-02
2.556000000000000000e+03 3.859809875488281250e+01 2.091239166259765625e+01 -4.988429248332977295e-01 4.641767978668212891e+00 1.242877483367919922e+00 4.678091406822204590e-01
2.557000000000000000e+03 9.508145332336425781e+00 2.934773254394531250e+01 7.885893806815147400e-03 2.576743125915527344e+00 7.753887176513671875e-01 3.334257304668426514e-01
2.558000000000000000e+03 3.504286575317382812e+01 -2.319048690795898438e+01 2.999844849109649658e-01 3.217653989791870117e+00 1.055291533470153809e+00 -2.246447950601577759e-01
2.559000000000000000e+03 4.059360885620117188e+01 -2.314442062377929688e+01 -1.665724664926528931e-01 4.522162437438964844e+00 1.306676864624023438e+00 7.291788607835769653e-02
2.560000000000000000e+03 3.938920593261718750e+01 -2.692398071289062500e+01 -2.023464441299438477e-02 3.981881618499755859e+00 1.188494086265563965e+00 -1.774057894945144653e-01
2.561000000000000000e+03 1.008557128906250000e+01 -3.161794853210449219e+01 -1.663974523544311523e-01 2.532906532287597656e+00 7.099527120590209961e-01 2.246022373437881470e-01
2.562000000000000000e+03 1.085030460357666016e+01 -2.981611061096191406e+01 -1.981644779443740845e-01 2.642798900604248047e+00 7.333903312683105469e-01 2.442556470632553101e-01
2.563000000000000000e+03 1.097805500030517578e+01 -4.223402023315429688e+00 1.052248001098632812e+00 4.425606727600097656e+00 1.643356442451477051e+00 2.069566488265991211e+00
2.564000000000000000e+03 9.400898933410644531e+00 -5.244382858276367188e+00 9.751406311988830566e-01 2.426452398300170898e+00 1.020477890968322754e+00 1.327053785324096680e+00
2.565000000000000000e+03 1.178597831726074219e+01 -3.428987264633178711e+00 9.143347144126892090e-01 6.420127868652343750e+00 2.200338840484619141e+00 2.494737148284912109e+00
2.566000000000000000e+03 1.256841373443603516e+01 -4.760718822479248047e+00 6.688708066940307617e-02 7.230391502380371094e+00 2.189183712005615234e+00 1.118867993354797363e+00
2.567000000000000000e+03 1.251764011383056641e+01 -6.019096851348876953e+00 -3.847588971257209778e-02 6.152716159820556641e+00 1.834272027015686035e+00 7.842619419097900391e-01
2.568000000000000000e+03 1.246293735504150391e+01 -5.462599277496337891e+00 1.154123917222023010e-01 6.416923999786376953e+00 1.959700942039489746e+00 9.611131548881530762e-01
2.569000000000000000e+03 8.449480056762695312e+00 -6.142446517944335938e+00 8.024188280105590820e-01 1.939838886260986328e+00 8.226773142814636230e-01 1.022790193557739258e+00
2.570000000000000000e+03 9.320378303527832031e+00 -4.618849277496337891e+00 1.136868953704833984e+00 2.124435186386108398e+00 9.783912897109985352e-01 1.319219350814819336e+00
2.571000000000000000e+03 1.043476676940917969e+01 -5.213578224182128906e+00 8.058640956878662109e-01 3.669868707656860352e+00 1.342719912528991699e+00 1.598619937896728516e+00
2.572000000000000000e+03 1.145858955383300781e+01 -4.370901584625244141e+00 6.778717637062072754e-01 5.447313785552978516e+00 1.837555766105651855e+00 1.914516925811767578e+00
2.573000000000000000e+03 8.623350143432617188e+00 -8.336710929870605469e+00 4.093848466873168945e-01 2.459295988082885742e+00 8.606042265892028809e-01 9.761774539947509766e-01
2.574000000000000000e+03 1.314731311798095703e+01 -7.276371955871582031e+00 -1.420456022024154663e-01 5.807047843933105469e+00 1.699500679969787598e+00 2.375003993511199951e-01
2.575000000000000000e+03 1.391213035583496094e+01 -9.861436843872070312e+00 -1.048601493239402771e-01 4.663556098937988281e+00 1.367608785629272461e+00 -1.353358328342437744e-01
2.576000000000000000e+03 8.087849617004394531e+00 -7.959714889526367188e+00 4.415341913700103760e-01 2.086267471313476562e+00 7.583405375480651855e-01 8.874800801277160645e-01
2.577000000000000000e+03 8.622339248657226562e+00 -1.013694572448730469e+01 1.141497343778610229e-01 2.521456241607666016e+00 7.906818389892578125e-01 8.122563362121582031e-01
2.578000000000000000e+03 1.508413314819335938e+01 -1.404854011535644531e+01 2.713561989367008209e-02 3.856441736221313477e+00 1.165073275566101074e+00 -2.262469381093978882e-03
2.579000000000000000e+03 1.549281024932861328e+01 -1.304692459106445312e+01 8.924853801727294922e-02 3.989622354507446289e+00 1.223661303520202637e+00 -1.572280526161193848e-01
2.580000000000000000e+03 1.984269142150878906e+01 -2.026143646240234375e+01 -2.624609470367431641e-01 4.000346183776855469e+00 1.121365547180175781e+00 8.285181224346160889e-02
2.581000000000000000e+03 6.204279708862304688e+01 -2.412574768066406250e+01 5.193952843546867371e-02 5.646603584289550781e+00 1.709563016891479492e+00 -7.373710274696350098e-01
2.582000000000000000e+03 6.537167358398437500e+01 -2.688921737670898438e+01 4.279145300388336182e-01 5.238484382629394531e+00 1.699919700622558594e+00 -1.917216032743453979e-01
2.583000000000000000e+03 1.000150680541992188e+01 1.943963432312011719e+01 -1.431266784667968750e+00 2.984744071960449219e+00 4.660431742668151855e-01 -6.744111329317092896e-02
2.584000000000000000e+03 6.303668212890625000e+01 -2.177411842346191406e+01 2.602256238460540771e-01 5.392432689666748047e+00 1.695797443389892578e+00 -1.047007560729980469e+00
2.585000000000000000e+03 6.106513214111328125e+01 -2.048319244384765625e+01 1.917957216501235962e-01 6.660644054412841797e+00 2.055732011795043945e+00 -1.015405058860778809e+00
2.586000000000000000e+03 1.566964435577392578e+01 -1.755350685119628906e+01 -1.270152777433395386e-01 3.647197961807250977e+00 1.056054830551147461e+00 1.875347793102264404e-01
2.587000000000000000e+03 9.123613357543945312e+00 -1.811422729492187500e+01 -1.602369397878646851e-01 2.504310846328735352e+00 7.032221555709838867e-01 5.265884995460510254e-01
2.588000000000000000e+03 1.427779674530029297e+01 -1.719029426574707031e+01 -1.489207893610000610e-01 3.466692447662353516e+00 9.953315258026123047e-01 2.571651041507720947e-01
2.589000000000000000e+03 9.213092803955078125e+00 -1.477565860748291016e+01 -1.222376003861427307e-01 2.638771057128906250e+00 7.549600005149841309e-01 5.859113335609436035e-01
2.590000000000000000e+03 1.911477088928222656e+01 -1.848300743103027344e+01 -4.710712283849716187e-02 3.925992965698242188e+00 1.163665771484375000e+00 1.383983492851257324e-01
2.591000000000000000e+03 1.854113578796386719e+01 -1.690808677673339844e+01 4.630777984857559204e-02 3.929895639419555664e+00 1.192860960960388184e+00 7.859434932470321655e-02
2.592000000000000000e+03 6.722424316406250000e+01 2.213039016723632812e+01 7.640004158020019531e-02 6.013521194458007812e+00 1.826976418495178223e+00 -4.619502127170562744e-01
2.593000000000000000e+03 2.686060714721679688e+01 -1.770553779602050781e+01 -3.666178882122039795e-01 4.571867465972900391e+00 1.261574864387512207e+00 -6.682557463645935059e-01
2.594000000000000000e+03 2.983406448364257812e+01 -1.822407150268554688e+01 -2.302234917879104614e-01 3.881272554397583008e+00 1.095314741134643555e+00 -1.060564398765563965e+00
2.595000000000000000e+03 1.082815837860107422e+01 2.025649642944335938e+01 -1.395645380020141602e+00 2.794772148132324219e+00 4.197380840778350830e-01 1.754876226186752319e-01
2.596000000000000000e+03 6.463149261474609375e+01 -2.333550262451171875e+01 5.345808863639831543e-01 4.941046714782714844e+00 1.642688274383544922e+00 -6.548875570297241211e-01
2.597000000000000000e+03 6.436437225341796875e+01 -2.167301559448242188e+01 5.983536243438720703e-01 4.736694812774658203e+00 1.600514531135559082e+00 -8.565524220466613770e-01
2.598000000000000000e+03 6.199506378173828125e+01 2.375233840942382812e+01 5.963989496231079102e-01 4.843494415283203125e+00 1.631968021392822266e+00 -9.601100534200668335e-02
2.599000000000000000e+03 4.397296905517578125e+01 -2.309782600402832031e+01 -3.967810571193695068e-01 4.806646823883056641e+00 1.322959661483764648e+00 -6.065541505813598633e-01
2.600000000000000000e+03 5.610258483886718750e+01 2.170895576477050781e+01 2.221828997135162354e-01 5.129337310791015625e+00 1.605456113815307617e+00 9.919415712356567383e-01
2.601000000000000000e+03 6.756039428710937500e+01 -2.795127677917480469e+01 4.295776486396789551e-01 5.415129184722900391e+00 1.753412008285522461e+00 5.744037777185440063e-02
2.602000000000000000e+03 9.963343620300292969e+00 2.205317497253417969e+01 -9.325088262557983398e-01 2.784099340438842773e+00 5.554771423339843750e-01 1.203840076923370361e-01
2.603000000000000000e+03 1.929566764831542969e+01 2.725596427917480469e+01 -8.991888165473937988e-02 1.644368290901184082e+00 4.663348197937011719e-01 -1.730366349220275879e-01
2.604000000000000000e+03 2.353128051757812500e+01 2.566028785705566406e+01 -6.399379372596740723e-01 2.099609851837158203e+00 4.379015862941741943e-01 -6.848211884498596191e-01
2.605000000000000000e+03 2.228690910339355469e+01 -2.106069564819335938e+01 -3.769656121730804443e-01 4.200660705566406250e+00 1.147108554840087891e+00 -1.090953275561332703e-01
2.606000000000000000e+03 2.377773666381835938e+01 -1.750187873840332031e+01 -2.159286737442016602e-01 4.626081466674804688e+00 1.323045849800109863e+00 -1.340742260217666626e-01
2.607000000000000000e+03 2.569867515563964844e+01 -1.842084884643554688e+01 -4.045016169548034668e-01 4.578104496002197266e+00 1.252080917358398438e+00 -5.483825206756591797e-01
2.608000000000000000e+03 4.786800765991210938e+01 2.282734489440917969e+01 2.389259040355682373e-01 4.641689300537109375e+00 1.464184522628784180e+00 -3.031805753707885742e-01
2.609000000000000000e+03 4.654291152954101562e+01 2.391198730468750000e+01 1.957208216190338135e-01 4.385907649993896484e+00 1.374488472938537598e+00 6.031605973839759827e-02
2.610000000000000000e+03 1.192817211151123047e+01 2.514331817626953125e+01 -4.348144233226776123e-01 2.170204401016235352e+00 5.206169486045837402e-01 3.660452961921691895e-01
2.611000000000000000e+03 1.144796943664550781e+01 2.359872245788574219e+01 -7.031529545783996582e-01 2.400259256362915039e+00 5.091318488121032715e-01 2.818774282932281494e-01
2.612000000000000000e+03 6.350244522094726562e+01 -2.550551033020019531e+01 3.250296413898468018e-01 5.272811412811279297e+00 1.679352402687072754e+00 -4.991497099399566650e-01
2.613000000000000000e+03 2.226934242248535156e+01 2.908800697326660156e+01 -8.898248523473739624e-02 2.016390085220336914e+00 5.782222747802734375e-01 -3.927952051162719727e-01
2.614000000000000000e+03 2.011167144775390625e+01 2.532654380798339844e+01 -3.568178415298461914e-01 1.422008514404296875e+00 3.195571899414062500e-01 -3.554900288581848145e-01
2.615000000000000000e+03 4.970716857910156250e+01 -2.518680191040039062e+01 4.887340962886810303e-01 3.519593000411987305e+00 1.202498078346252441e+00 -2.576502859592437744e-01
2.616000000000000000e+03 5.528474807739257812e+01 -2.813537788391113281e+01 1.361379176378250122e-01 4.708176612854003906e+00 1.453294277191162109e+00 3.469362258911132812e-01
2.617000000000000000e+03 6.192562866210937500e+01 -2.565065956115722656e+01 8.096610009670257568e-02 5.653078079223632812e+00 1.720213294029235840e+00 -3.805866241455078125e-01
2.618000000000000000e+03 1.166086006164550781e+01 -1.383475208282470703e+01 -1.744664013385772705e-01 3.357332229614257812e+00 9.548597931861877441e-01 4.136390388011932373e-01
2.619000000000000000e+03 4.173309707641601562e+01 2.312031745910644531e+01 1.613465137779712677e-02 4.129890918731689453e+00 1.243807673454284668e+00 5.138744115829467773e-01
2.620000000000000000e+03 4.954589843750000000e+01 -2.713625907897949219e+01 3.609477877616882324e-01 3.673922300338745117e+00 1.210461020469665527e+00 -2.563160061836242676e-01
2.621000000000000000e+03 4.768240737915039062e+01 -2.508660125732421875e+01 2.175047546625137329e-01 3.614558219909667969e+00 1.149618864059448242e+00 -6.659157276153564453e-01
2.622000000000000000e+03 2.499999618530273438e+01 2.810122489929199219e+01 -2.849540412425994873e-01 2.584703683853149414e+00 6.899248957633972168e-01 -5.267240405082702637e-01
2.623000000000000000e+03 3.265939712524414062e+01 2.365240669250488281e+01 -4.482439458370208740e-01 3.667062282562255859e+00 9.656454920768737793e-01 -2.469387836754322052e-02
2.624000000000000000e+03 6.474981689453125000e+01 2.291937828063964844e+01 3.324257135391235352e-01 5.418219566345214844e+00 1.725193619728088379e+00 -4.694612026214599609e-01
2.625000000000000000e+03 6.146012115478515625e+01 2.087897109985351562e+01 9.863023757934570312e-01 4.001436233520507812e+00 1.496321558952331543e+00 -1.890389770269393921e-01
2.626000000000000000e+03 1.173082256317138672e+01 -4.689086914062500000e+00 5.125713348388671875e-01 5.877430438995361328e+00 1.917000532150268555e+00 1.703693628311157227e+00
2.627000000000000000e+03 1.293889617919921875e+01 -6.672997474670410156e+00 -1.448296755552291870e-01 5.933089733123779297e+00 1.736477971076965332e+00 4.607203900814056396e-01
2.628000000000000000e+03 1.225063323974609375e+01 -5.024445533752441406e+00 2.153241038322448730e-01 6.465243816375732422e+00 2.004170417785644531e+00 1.174218058586120605e+00
2.629000000000000000e+03 9.884599685668945312e+00 -4.623404026031494141e+00 1.118693232536315918e+00 2.737519979476928711e+00 1.156863927841186523e+00 1.545608758926391602e+00
2.630000000000000000e+03 9.025354385375976562e+00 -5.975857257843017578e+00 8.247127532958984375e-01 2.316599130630493164e+00 9.423936009407043457e-01 1.167335748672485352e+00
2.631000000000000000e+03 1.278712463378906250e+01 -4.300088405609130859e+00 1.453630775213241577e-01 8.024019241333007812e+00 2.450814723968505859e+00 1.025486826896667480e+00
2.632000000000000000e+03 1.214801025390625000e+01 -4.600979804992675781e+00 3.420645296573638916e-01 6.654043674468994141e+00 2.098832607269287109e+00 1.531649708747863770e+00
2.633000000000000000e+03 1.001847839355468750e+01 -5.729486465454101562e+00 7.605269551277160645e-01 3.188766002655029297e+00 1.184787869453430176e+00 1.426943302154541016e+00
2.634000000000000000e+03 9.024365425109863281e+00 -9.392301559448242188e+00 2.138668000698089600e-01 2.670101404190063477e+00 8.651905059814453125e-01 8.703043460845947266e-01
2.635000000000000000e+03 8.175734519958496094e+00 -7.048042774200439453e+00 6.243843436241149902e-01 1.974687099456787109e+00 7.797214388847351074e-01 9.357457756996154785e-01
2.636000000000000000e+03 1.253540420532226562e+01 -8.842013359069824219e+00 -1.782439202070236206e-01 4.756327152252197266e+00 1.373425006866455078e+00 3.752928674221038818e-01
2.637000000000000000e+03 1.091615676879882812e+01 -5.236416339874267578e+00 7.031397819519042969e-01 4.289858341217041016e+00 1.497899532318115234e+00 1.632085442543029785e+00
2.638000000000000000e+03 1.090852737426757812e+01 -4.718382358551025391e+00 8.217629790306091309e-01 4.322580337524414062e+00 1.543303012847900391e+00 1.796876788139343262e+00
2.639000000000000000e+03 1.332314205169677734e+01 -8.897791862487792969e+00 -1.407489180564880371e-01 5.011755943298339844e+00 1.461302042007446289e+00 5.200717970728874207e-02
2.640000000000000000e+03 1.078725242614746094e+01 -8.826020240783691406e+00 7.318011671304702759e-02 3.714568376541137695e+00 1.136324524879455566e+00 8.262714743614196777e-01
2.641000000000000000e+03 1.388697242736816406e+01 -1.066153049468994141e+01 -1.687117666006088257e-01 4.445914745330810547e+00 1.283160924911499023e+00 -1.115032956004142761e-01
2.642000000000000000e+03 9.248911857604980469e+00 -1.338758659362792969e+01 -1.102531701326370239e-01 2.717419624328613281e+00 7.821499109268188477e-01 6.260539293289184570e-01
2.643000000000000000e+03 1.005263233184814453e+01 -7.485834598541259766e+00 3.400599360466003418e-01 3.393626928329467773e+00 1.120106101036071777e+00 1.129636526107788086e+00
2.644000000000000000e+03 1.235053062438964844e+01 -1.218345737457275391e+01 -1.314761787652969360e-01 3.781129360198974609e+00 1.094895958900451660e+00 3.170503377914428711e-01
2.645000000000000000e+03 1.391361236572265625e+01 -1.403111934661865234e+01 -9.478137642145156860e-02 3.759748458862304688e+00 1.099490165710449219e+00 1.203743070363998413e-01
2.646000000000000000e+03 1.766341972351074219e+01 -1.911959075927734375e+01 -1.699374914169311523e-01 3.805694580078125000e+00 1.090727210044860840e+00 1.521638482809066772e-01
2.647000000000000000e+03 5.143624877929687500e+01 -2.718285179138183594e+01 5.008947253227233887e-01 3.942810058593750000e+00 1.333111405372619629e+00 2.304534316062927246e-01
2.648000000000000000e+03 1.108792304992675781e+01 -7.268671989440917969e+00 1.877671927213668823e-01 4.249957084655761719e+00 1.331317305564880371e+00 1.040813922882080078e+00
2.649000000000000000e+03 1.008240318298339844e+01 -6.935420036315917969e+00 4.623456597328186035e-01 3.401366472244262695e+00 1.159113645553588867e+00 1.203114151954650879e+00
2.650000000000000000e+03 2.253257369995117188e+01 -1.835364913940429688e+01 -2.500239908695220947e-01 4.462469577789306641e+00 1.263733744621276855e+00 4.932155366986989975e-03
2.651000000000000000e+03 2.656788063049316406e+01 -1.975411987304687500e+01 -3.928295373916625977e-01 4.361999034881591797e+00 1.190750837326049805e+00 -5.716249346733093262e-01
2.652000000000000000e+03 6.582263183593750000e+01 2.139597892761230469e+01 1.890020072460174561e-01 5.613428115844726562e+00 1.740729093551635742e+00 -6.904662251472473145e-01
2.653000000000000000e+03 6.328364562988281250e+01 -2.390865325927734375e+01 2.861318886280059814e-01 5.346341133117675781e+00 1.689741849899291992e+00 -6.315998435020446777e-01
2.654000000000000000e+03 6.500914001464843750e+01 -2.505561637878417969e+01 4.300600290298461914e-01 5.117250442504882812e+00 1.664193034172058105e+00 -3.694430291652679443e-01
2.655000000000000000e+03 1.364211940765380859e+01 -1.536119842529296875e+01 -1.078820675611495972e-01 3.561273574829101562e+00 1.036017417907714844e+00 2.340651154518127441e-01
2.656000000000000000e+03 1.121459197998046875e+01 -1.881896018981933594e+01 -1.879819780588150024e-01 2.936983585357666016e+00 8.247004747390747070e-01 4.520630538463592529e-01
2.657000000000000000e+03 5.666585540771484375e+01 2.377709770202636719e+01 3.084348142147064209e-01 5.104597568511962891e+00 1.623909711837768555e+00 5.285094380378723145e-01
2.658000000000000000e+03 5.004345703125000000e+01 2.589748382568359375e+01 -7.096933573484420776e-02 4.963508605957031250e+00 1.467761874198913574e+00 9.478939324617385864e-02
2.659000000000000000e+03 1.052901935577392578e+01 -1.498544883728027344e+01 -1.756794005632400513e-01 2.959864139556884766e+00 8.352554440498352051e-01 5.125601291656494141e-01
2.660000000000000000e+03 2.803961181640625000e+01 -1.723118209838867188e+01 -4.053893983364105225e-01 4.543273925781250000e+00 1.241365313529968262e+00 -9.134103059768676758e-01
2.661000000000000000e+03 6.024662399291992188e+01 -2.537553787231445312e+01 -1.623551845550537109e-01 5.752167701721191406e+00 1.676943778991699219e+00 -3.742312192916870117e-01
2.662000000000000000e+03 5.914521789550781250e+01 2.170813179016113281e+01 8.239366412162780762e-01 4.330941677093505859e+00 1.546463608741760254e+00 5.553252696990966797e-01
2.663000000000000000e+03 5.776070785522460938e+01 2.141534042358398438e+01 7.011088132858276367e-01 4.607734203338623047e+00 1.592652797698974609e+00 8.692285418510437012e-01
2.664000000000000000e+03 4.796986389160156250e+01 2.511114883422851562e+01 6.794255971908569336e-02 4.771993637084960938e+00 1.451980829238891602e+00 -6.665182858705520630e-02
2.665000000000000000e+03 4.731127929687500000e+01 2.155807685852050781e+01 3.016045093536376953e-01 4.367634773254394531e+00 1.400771856307983398e+00 -1.778371781110763550e-01
2.666000000000000000e+03 1.571711349487304688e+01 -1.619505500793457031e+01 2.165913116186857224e-03 3.687241077423095703e+00 1.106822133064270020e+00 1.159758791327476501e-01
2.667000000000000000e+03 5.789657974243164062e+01 -2.669822883605957031e+01 -1.548119336366653442e-01 5.436038970947265625e+00 1.584368109703063965e+00 1.521515697240829468e-01
2.668000000000000000e+03 4.479967498779296875e+01 -2.652473068237304688e+01 7.900293916463851929e-03 4.136163234710693359e+00 1.243219017982482910e+00 -4.831639528274536133e-01
2.669000000000000000e+03 3.608423614501953125e+01 2.534762954711914062e+01 -3.669340610504150391e-01 4.046202182769775391e+00 1.103780508041381836e+00 -2.032506465911865234e-02
2.670000000000000000e+03 3.107099914550781250e+01 2.424573326110839844e+01 -5.330894589424133301e-01 3.500459432601928711e+00 8.902109861373901367e-01 1.189885847270488739e-02
2.671000000000000000e+03 5.444650268554687500e+01 -3.039050102233886719e+01 1.995812654495239258e-01 4.719134330749511719e+00 1.475614786148071289e+00 1.957236677408218384e-01
2.672000000000000000e+03 2.378817367553710938e+01 -2.402782630920410156e+01 -3.372783362865447998e-01 3.955120563507080078e+00 1.085352659225463867e+00 -2.763541936874389648e-01
2.673000000000000000e+03 1.002123737335205078e+01 -1.722639656066894531e+01 -1.817617267370223999e-01 2.735707044601440430e+00 7.661835551261901855e-01 5.070340633392333984e-01
2.674000000000000000e+03 1.163166046142578125e+01 -1.485724925994873047e+01 -1.602401435375213623e-01 3.257836818695068359e+00 9.292789697647094727e-01 4.419618248939514160e-01
2.675000000000000000e+03 1.335895824432373047e+01 2.465033531188964844e+01 -5.174357891082763672e-01 2.016277074813842773e+00 4.496523439884185791e-01 2.867964208126068115e-01
2.676000000000000000e+03 6.404145050048828125e+01 -2.965583229064941406e+01 2.481716275215148926e-01 5.390977859497070312e+00 1.691744923591613770e+00 -1.074946969747543335e-01
2.677000000000000000e+03 3.001353454589843750e+01 2.546068572998046875e+01 -6.805853247642517090e-01 3.347129821777343750e+00 7.999633550643920898e-01 -1.349356919527053833e-01
2.678000000000000000e+03 1.183133506774902344e+01 -5.141256809234619141e+00 3.391425013542175293e-01 5.852946758270263672e+00 1.857626676559448242e+00 1.425089478492736816e+00
2.679000000000000000e+03 9.929450988769531250e+00 -5.201108932495117188e+00 9.300773143768310547e-01 3.009182929992675781e+00 1.181778073310852051e+00 1.500055313110351562e+00
2.680000000000000000e+03 1.146161746978759766e+01 -5.685365676879882812e+00 3.643223345279693604e-01 5.041820526123046875e+00 1.621842861175537109e+00 1.374963045120239258e+00
2.681000000000000000e+03 1.267396640777587891e+01 -8.138570785522460938e+00 -1.152964979410171509e-01 5.095556735992431641e+00 1.494078040122985840e+00 4.125196337699890137e-01
2.682000000000000000e+03 1.206659793853759766e+01 -7.185276985168457031e+00 -1.389202196151018143e-02 5.097799777984619141e+00 1.525172352790832520e+00 7.469708919525146484e-01
2.683000000000000000e+03 1.189574813842773438e+01 -6.440879344940185547e+00 1.018494665622711182e-01 5.242495536804199219e+00 1.603303432464599609e+00 1.009019255638122559e+00
2.684000000000000000e+03 8.748212814331054688e+00 -6.806557178497314453e+00 6.463677287101745605e-01 2.277012109756469727e+00 8.770139813423156738e-01 1.055019497871398926e+00
2.685000000000000000e+03 9.553549766540527344e+00 -5.840148925781250000e+00 7.990440726280212402e-01 2.790988445281982422e+00 1.077009797096252441e+00 1.323548793792724609e+00
2.686000000000000000e+03 1.138271617889404297e+01 -5.215543270111083984e+00 5.178762674331665039e-01 4.986859798431396484e+00 1.651420831680297852e+00 1.595204710960388184e+00
2.687000000000000000e+03 9.127305030822753906e+00 -7.468593120574951172e+00 4.752884805202484131e-01 2.679300546646118164e+00 9.463766813278198242e-01 1.067145347595214844e+00
2.688000000000000000e+03 1.140487289428710938e+01 -9.338226318359375000e+00 -6.212476640939712524e-02 4.025406360626220703e+00 1.188984513282775879e+00 6.507222056388854980e-01
2.689000000000000000e+03 1.312311267852783203e+01 -9.808843612670898438e+00 -2.196813821792602539e-01 4.589748382568359375e+00 1.311020016670227051e+00 1.095499396324157715e-01
2.690000000000000000e+03 9.325222015380859375e+00 -8.655258178710937500e+00 2.706118524074554443e-01 2.846632480621337891e+00 9.351732730865478516e-01 9.339022636413574219e-01
2.691000000000000000e+03 1.300890541076660156e+01 -1.077451801300048828e+01 -1.243943870067596436e-01 4.252667903900146484e+00 1.238481998443603516e+00 1.661875545978546143e-01
2.692000000000000000e+03 9.601869583129882812e+00 -1.057842350006103516e+01 4.857951775193214417e-02 2.952958822250366211e+00 9.004615545272827148e-01 7.627815604209899902e-01
2.693000000000000000e+03 1.052736377716064453e+01 -1.361987113952636719e+01 -1.278138905763626099e-01 3.060635328292846680e+00 8.798463940620422363e-01 5.571509003639221191e-01
2.694000000000000000e+03 1.184694862365722656e+01 -1.290704631805419922e+01 -1.498720645904541016e-01 3.504772424697875977e+00 1.006470084190368652e+00 4.275439083576202393e-01
2.695000000000000000e+03 1.325220298767089844e+01 -1.175689983367919922e+01 -1.533585786819458008e-01 4.043069362640380859e+00 1.166913270950317383e+00 1.065409034490585327e-01
2.696000000000000000e+03 5.274571990966796875e+01 -2.102486419677734375e+01 7.598777413368225098e-01 2.037971019744873047e+00 8.393546342849731445e-01 6.759380102157592773e-01
2.697000000000000000e+03 1.002665996551513672e+01 -1.189082813262939453e+01 -6.477295607328414917e-02 3.053313970565795898e+00 8.965622782707214355e-01 6.358190178871154785e-01
2.698000000000000000e+03 2.867025566101074219e+01 -1.874330902099609375e+01 -3.134391605854034424e-01 4.063977241516113281e+00 1.125161409378051758e+00 -9.287251830101013184e-01
2.699000000000000000e+03 1.272446632385253906e+01 -1.299996852874755859e+01 -1.508659869432449341e-01 3.712466239929199219e+00 1.068480134010314941e+00 2.360999286174774170e-01
2.700000000000000000e+03 1.714861297607421875e+01 -1.744985580444335938e+01 -9.124690666794776917e-03 3.745378017425537109e+00 1.120875954627990723e+00 1.369036585092544556e-01
2.701000000000000000e+03 1.469252777099609375e+01 -1.589754295349121094e+01 -7.883359491825103760e-02 3.648580074310302734e+00 1.070923924446105957e+00 1.723446249961853027e-01
2.702000000000000000e+03 5.816776657104492188e+01 2.289153861999511719e+01 4.677284061908721924e-01 4.796616554260253906e+00 1.579303503036499023e+00 6.043325662612915039e-01
2.703000000000000000e+03 4.886736679077148438e+01 2.359834098815917969e+01 4.551712796092033386e-02 4.834856033325195312e+00 1.464111924171447754e+00 -5.180970206856727600e-02
2.704000000000000000e+03 6.308454132080078125e+01 2.188994789123535156e+01 5.844955444335937500e-01 4.814529418945312500e+00 1.619707465171813965e+00 -5.625711083412170410e-01
2.705000000000000000e+03 4.756734848022460938e+01 -2.925111770629882812e+01 2.026577442884445190e-01 4.005809783935546875e+00 1.262540221214294434e+00 -2.250095903873443604e-01
2.706000000000000000e+03 5.284408569335937500e+01 -2.944902992248535156e+01 3.204861879348754883e-01 4.308063983917236328e+00 1.388565063476562500e+00 1.590460687875747681e-01
2.707000000000000000e+03 6.187458801269531250e+01 -2.758677482604980469e+01 1.001840829849243164e-01 5.433044910430908203e+00 1.659968614578247070e+00 -2.728508710861206055e-01
2.708000000000000000e+03 5.042142868041992188e+01 2.380298233032226562e+01 -2.958347089588642120e-02 5.253835201263427734e+00 1.567275404930114746e+00 -3.783236816525459290e-02
2.709000000000000000e+03 3.323488235473632812e+01 2.514114379882812500e+01 -4.166153967380523682e-01 3.659608364105224609e+00 9.728978872299194336e-01 -4.554178565740585327e-02
2.710000000000000000e+03 1.155127906799316406e+01 -6.831846714019775391e+00 1.657669693231582642e-01 4.779367446899414062e+00 1.483540415763854980e+00 1.024508714675903320e+00
2.711000000000000000e+03 9.796407699584960938e+00 -6.388322353363037109e+00 6.280651688575744629e-01 3.138339042663574219e+00 1.129921317100524902e+00 1.270002484321594238e+00
2.712000000000000000e+03 1.194442367553710938e+01 -5.583942890167236328e+00 1.993118077516555786e-01 5.682880878448486328e+00 1.764657855033874512e+00 1.213487029075622559e+00
2.713000000000000000e+03 1.212849044799804688e+01 -8.024801254272460938e+00 -7.717569917440414429e-02 4.776592731475830078e+00 1.409825086593627930e+00 6.233222484588623047e-01
2.714000000000000000e+03 1.115112876892089844e+01 -6.362030506134033203e+00 3.337846994400024414e-01 4.492188930511474609e+00 1.447792172431945801e+00 1.261335253715515137e+00
2.715000000000000000e+03 1.123467254638671875e+01 -8.250034332275390625e+00 2.857889235019683838e-02 4.175146579742431641e+00 1.261117696762084961e+00 7.990374565124511719e-01
2.716000000000000000e+03 9.592350006103515625e+00 -7.125358104705810547e+00 4.913126826286315918e-01 2.977665901184082031e+00 1.040693521499633789e+00 1.139693975448608398e+00
2.717000000000000000e+03 9.664644241333007812e+00 -8.014657974243164062e+00 3.352008759975433350e-01 3.098950624465942383e+00 1.030245423316955566e+00 1.027747511863708496e+00
2.718000000000000000e+03 1.258963012695312500e+01 -1.497176551818847656e+01 -1.582909971475601196e-01 3.473605155944824219e+00 9.945942163467407227e-01 3.209381699562072754e-01
2.719000000000000000e+03 1.274322223663330078e+01 -1.396253871917724609e+01 -1.430366635322570801e-01 3.597982406616210938e+00 1.036483764648437500e+00 3.019236922264099121e-01
2.720000000000000000e+03 1.152028560638427734e+01 -1.156378555297851562e+01 -1.124325245618820190e-01 3.655169248580932617e+00 1.062821030616760254e+00 4.670681953430175781e-01
2.721000000000000000e+03 1.226902770996093750e+01 -9.669425964355468750e+00 -1.225418597459793091e-01 4.367490291595458984e+00 1.273484468460083008e+00 3.940861523151397705e-01
2.722000000000000000e+03 1.198331069946289062e+01 -1.061461734771728516e+01 -1.600089818239212036e-01 4.008694648742675781e+00 1.154605746269226074e+00 4.082014858722686768e-01
2.723000000000000000e+03 1.306480026245117188e+01 -1.658963203430175781e+01 -1.647270917892456055e-01 3.376255035400390625e+00 9.634584188461303711e-01 3.409172892570495605e-01
2.724000000000000000e+03 1.715563392639160156e+01 3.322438430786132812e+01 2.504054605960845947e-01 2.179760694503784180e+00 7.290498614311218262e-01 -2.092721685767173767e-02
2.725000000000000000e+03 1.544929790496826172e+01 2.810270309448242188e+01 -2.210096083581447601e-02 1.914360761642456055e+00 5.676779150962829590e-01 1.443499177694320679e-01
2.726000000000000000e+03 1.377244186401367188e+01 -1.865717506408691406e+01 -1.995746046304702759e-01 3.334380865097045898e+00 9.404419064521789551e-01 3.373846411705017090e-01
2.727000000000000000e+03 1.062467384338378906e+01 -2.276269531250000000e+01 -2.189590781927108765e-01 2.684754133224487305e+00 7.397385239601135254e-01 4.131033122539520264e-01
2.728000000000000000e+03 2.337224388122558594e+01 -1.973676872253417969e+01 -2.999685406684875488e-01 4.329105854034423828e+00 1.208741188049316406e+00 -1.630699187517166138e-01
2.729000000000000000e+03 1.111112213134765625e+01 -1.644489097595214844e+01 -1.702390611171722412e-01 2.999633789062500000e+00 8.488184213638305664e-01 4.880778193473815918e-01
2.730000000000000000e+03 1.207500457763671875e+01 -1.580237102508544922e+01 -1.670825481414794922e-01 3.257160186767578125e+00 9.270233511924743652e-01 3.905338644981384277e-01
2.731000000000000000e+03 1.230440044403076172e+01 -1.782230377197265625e+01 -2.025453001260757446e-01 3.138849258422851562e+00 8.808912038803100586e-01 3.884457647800445557e-01
2.732000000000000000e+03 2.124431419372558594e+01 -1.934888267517089844e+01 -1.721424311399459839e-01 4.127539634704589844e+00 1.186619162559509277e+00 4.470142349600791931e-02
2.733000000000000000e+03 2.075264167785644531e+01 -2.228764724731445312e+01 -3.077317774295806885e-01 3.923800230026245117e+00 1.084820508956909180e+00 -3.652485460042953491e-02
2.734000000000000000e+03 4.877039718627929688e+01 2.817834663391113281e+01 -5.268344189971685410e-03 4.835446834564208984e+00 1.449053525924682617e+00 4.110744968056678772e-02
2.735000000000000000e+03 6.049221038818359375e+01 2.263953399658203125e+01 7.195445299148559570e-01 4.501623153686523438e+00 1.566350340843200684e+00 1.651308238506317139e-01
2.736000000000000000e+03 5.480769348144531250e+01 2.474939918518066406e+01 7.156572490930557251e-02 5.159227371215820312e+00 1.569237828254699707e+00 4.869429469108581543e-01
2.737000000000000000e+03 5.655463409423828125e+01 -3.164731788635253906e+01 1.287836134433746338e-01 4.856600284576416016e+00 1.495615124702453613e+00 1.275366842746734619e-01
2.738000000000000000e+03 1.046673488616943359e+01 -5.761264801025390625e+00 6.604170799255371094e-01 3.747814655303955078e+00 1.322469472885131836e+00 1.459109544754028320e+00
2.739000000000000000e+03 1.063074588775634766e+01 -6.697232723236083984e+00 4.121137857437133789e-01 3.875156402587890625e+00 1.286181092262268066e+00 1.236183166503906250e+00
2.740000000000000000e+03 1.065618038177490234e+01 -7.812107086181640625e+00 2.260148227214813232e-01 3.759330749511718750e+00 1.195603609085083008e+00 1.012214899063110352e+00
2.741000000000000000e+03 1.159906291961669922e+01 -6.127759456634521484e+00 2.559908926486968994e-01 5.025374889373779297e+00 1.584409713745117188e+00 1.226805090904235840e+00
2.742000000000000000e+03 1.029502868652343750e+01 -8.376585006713867188e+00 1.608712077140808105e-01 3.492246627807617188e+00 1.095935344696044922e+00 9.625955224037170410e-01
2.743000000000000000e+03 1.183205699920654297e+01 -8.626424789428710938e+00 -4.787935689091682434e-02 4.458381652832031250e+00 1.323150753974914551e+00 6.407867670059204102e-01
2.744000000000000000e+03 1.162911987304687500e+01 -7.692483425140380859e+00 3.638558089733123779e-02 4.550141811370849609e+00 1.375958323478698730e+00 7.966333627700805664e-01
2.745000000000000000e+03 1.096518802642822266e+01 -1.016713809967041016e+01 -3.786293789744377136e-02 3.650145292282104492e+00 1.083684682846069336e+00 6.665927171707153320e-01
2.746000000000000000e+03 1.055184268951416016e+01 -1.104746150970458984e+01 -7.594052702188491821e-02 3.365394830703735352e+00 9.868362545967102051e-01 6.350815296173095703e-01
2.747000000000000000e+03 1.088768959045410156e+01 -1.250035285949707031e+01 -1.253794729709625244e-01 3.273071289062500000e+00 9.443075656890869141e-01 5.419906377792358398e-01
2.748000000000000000e+03 1.202717113494873047e+01 -2.071787452697753906e+01 -2.407133281230926514e-01 2.997055530548095703e+00 8.269026875495910645e-01 4.013559222221374512e-01
2.749000000000000000e+03 1.530730152130126953e+01 -1.896524429321289062e+01 -1.638089716434478760e-01 3.505150079727172852e+00 1.002402305603027344e+00 2.286498844623565674e-01
2.750000000000000000e+03 1.833893394470214844e+01 -2.094286155700683594e+01 -2.240503877401351929e-01 3.777311086654663086e+00 1.065978169441223145e+00 1.340524852275848389e-01
2.751000000000000000e+03 4.574668884277343750e+01 2.239647483825683594e+01 4.409644305706024170e-01 4.066827774047851562e+00 1.352337718009948730e+00 -9.188556671142578125e-02
2.752000000000000000e+03 2.372924232482910156e+01 -2.213255882263183594e+01 -3.667397201061248779e-01 4.095572948455810547e+00 1.118650078773498535e+00 -2.375059872865676880e-01
2.753000000000000000e+03 1.208759212493896484e+01 -2.508398818969726562e+01 -2.406619340181350708e-01 2.879057645797729492e+00 7.915186882019042969e-01 3.381823003292083740e-01
2.754000000000000000e+03 1.241708564758300781e+01 -2.296316337585449219e+01 -2.363462150096893311e-01 2.973988294601440430e+00 8.212926387786865234e-01 3.496275842189788818e-01
2.755000000000000000e+03 1.427877426147460938e+01 2.622770690917968750e+01 -2.560442388057708740e-01 1.795307040214538574e+00 4.617788195610046387e-01 2.850571274757385254e-01
2.756000000000000000e+03 5.925971221923828125e+01 2.423764801025390625e+01 5.085732936859130859e-01 4.877671718597412109e+00 1.615873575210571289e+00 3.445934057235717773e-01
2.757000000000000000e+03 5.767608261108398438e+01 2.566858863830566406e+01 2.614515721797943115e-01 5.027418136596679688e+00 1.586660861968994141e+00 3.668682277202606201e-01
2.758000000000000000e+03 1.367331314086914062e+01 -2.048758125305175781e+01 -2.146619558334350586e-01 3.211148738861083984e+00 8.989459872245788574e-01 3.430100679397583008e-01
2.759000000000000000e+03 1.516454887390136719e+01 -2.034901237487792969e+01 -2.347219437360763550e-01 3.421990871429443359e+00 9.561806917190551758e-01 2.594443857669830322e-01
2.760000000000000000e+03 2.047826576232910156e+01 -1.772062492370605469e+01 -5.018536373972892761e-02 4.166147232055664062e+00 1.234788537025451660e+00 1.076853424310684204e-01
2.761000000000000000e+03 9.536308288574218750e+00 -2.722069358825683594e+01 -1.705560982227325439e-01 2.518390178680419922e+00 7.043501734733581543e-01 3.081608414649963379e-01
2.762000000000000000e+03 1.687623786926269531e+01 -2.302093124389648438e+01 -3.037271201610565186e-01 3.529153108596801758e+00 9.676278233528137207e-01 1.666943877935409546e-01
2.763000000000000000e+03 2.241893577575683594e+01 -2.720810317993164062e+01 -3.205703496932983398e-01 3.713334798812866211e+00 1.017829418182373047e+00 -1.500683426856994629e-01
2.764000000000000000e+03 6.069871520996093750e+01 2.562846565246582031e+01 4.078130722045898438e-01 5.009129047393798828e+00 1.625082612037658691e+00 1.053474619984626770e-01
2.765000000000000000e+03 4.645316696166992188e+01 2.690974807739257812e+01 -9.191190823912620544e-03 4.545794963836669922e+00 1.360981106758117676e+00 7.703293114900588989e-02
2.766000000000000000e+03 1.096158409118652344e+01 -5.792744159698486328e+00 5.106860399246215820e-01 4.293271064758300781e+00 1.441187024116516113e+00 1.450366377830505371e+00
2.767000000000000000e+03 1.026329708099365234e+01 -6.170651912689208984e+00 5.851141810417175293e-01 3.561102151870727539e+00 1.243864893913269043e+00 1.382656455039978027e+00
2.768000000000000000e+03 1.561617374420166016e+01 -2.469672203063964844e+01 -2.811426222324371338e-01 3.304144144058227539e+00 9.069004654884338379e-01 2.312875688076019287e-01
2.769000000000000000e+03 1.424616909027099609e+01 -2.267798423767089844e+01 -2.843757271766662598e-01 3.203209877014160156e+00 8.756502270698547363e-01 3.014150261878967285e-01
2.770000000000000000e+03 1.692237663269042969e+01 -2.133859252929687500e+01 -2.585768401622772217e-01 3.651839733123779297e+00 1.017978787422180176e+00 1.841979473829269409e-01
2.771000000000000000e+03 1.387754440307617188e+01 -2.646525573730468750e+01 -2.774771153926849365e-01 3.041101932525634766e+00 8.290874958038330078e-01 2.493572980165481567e-01
2.772000000000000000e+03 5.269682312011718750e+01 -3.142438888549804688e+01 1.883674860000610352e-01 4.460336208343505859e+00 1.394611120223999023e+00 1.091244891285896301e-01
2.773000000000000000e+03 1.124633789062500000e+01 3.410383224487304688e+01 1.966422796249389648e-01 2.459207057952880859e+00 7.967548370361328125e-01 1.643973141908645630e-01
2.774000000000000000e+03 4.408708572387695312e+01 -2.495055198669433594e+01 -2.149869054555892944e-01 4.253223419189453125e+00 1.211470961570739746e+00 -5.035738945007324219e-01
2.775000000000000000e+03 2.525723457336425781e+01 -2.297001457214355469e+01 -3.618603944778442383e-01 4.044215679168701172e+00 1.104706525802612305e+00 -3.950164020061492920e-01
2.776000000000000000e+03 6.617337799072265625e+01 -3.715522003173828125e+01 1.439874172210693359e-01 5.647402763366699219e+00 1.737417101860046387e+00 2.580235525965690613e-02
2.777000000000000000e+03 7.126384735107421875e+01 -3.784062576293945312e+01 1.109180897474288940e-01 6.084576606750488281e+00 1.858648419380187988e+00 7.138665765523910522e-02
2.778000000000000000e+03 3.562262344360351562e+01 2.885084533691406250e+01 -2.692814767360687256e-01 3.816673994064331055e+00 1.064217805862426758e+00 -1.212445870041847229e-01
2.779000000000000000e+03 3.202319717407226562e+01 2.756853294372558594e+01 -3.592608571052551270e-01 3.453730344772338867e+00 9.283408522605895996e-01 -1.823177784681320190e-01
2.780000000000000000e+03 4.767528915405273438e+01 -2.716640472412109375e+01 2.770981192588806152e-01 3.989834070205688477e+00 1.280079603195190430e+00 -3.942761719226837158e-01
2.781000000000000000e+03 6.590003204345703125e+01 -2.886975479125976562e+01 2.726660966873168945e-01 5.433713436126708984e+00 1.711913824081420898e+00 -9.961260110139846802e-02
2.782000000000000000e+03 6.659674835205078125e+01 -3.450858306884765625e+01 2.080448120832443237e-01 5.635467052459716797e+00 1.753053665161132812e+00 6.191928312182426453e-02
2.783000000000000000e+03 6.936499786376953125e+01 3.639193344116210938e+01 2.034878171980381012e-02 5.970149040222167969e+00 1.797149300575256348e+00 -1.216517854481935501e-02
2.784000000000000000e+03 6.588346862792968750e+01 3.118558120727539062e+01 1.031943634152412415e-01 5.699674129486083984e+00 1.740860581398010254e+00 -7.813300937414169312e-02
2.785000000000000000e+03 5.330965042114257812e+01 2.819231033325195312e+01 4.150541499257087708e-03 5.055428981781005859e+00 1.517873764038085938e+00 2.156041264533996582e-01
2.786000000000000000e+03 5.251105499267578125e+01 2.572839164733886719e+01 -4.583005607128143311e-02 5.261434555053710938e+00 1.564681291580200195e+00 1.992482095956802368e-01
2.787000000000000000e+03 3.457982254028320312e+01 -2.543047523498535156e+01 1.204192042350769043e-01 3.559277772903442383e+00 1.103909134864807129e+00 -2.233064174652099609e-01
2.788000000000000000e+03 6.437001037597656250e+01 2.801811027526855469e+01 2.188218683004379272e-01 5.486849784851074219e+00 1.711701512336730957e+00 -1.303094029426574707e-01
2.789000000000000000e+03 5.910488510131835938e+01 2.748649597167968750e+01 2.555007934570312500e-01 5.160094738006591797e+00 1.624678611755371094e+00 2.044839411973953247e-01
2.790000000000000000e+03 5.573109817504882812e+01 2.698484992980957031e+01 1.092768758535385132e-01 5.185004234313964844e+00 1.588284373283386230e+00 2.901692092418670654e-01
2.791000000000000000e+03 5.577405166625976562e+01 -3.442237091064453125e+01 1.464546918869018555e-01 4.845038890838623047e+00 1.497448086738586426e+00 8.689958602190017700e-02
2.792000000000000000e+03 6.194775390625000000e+01 -3.001082611083984375e+01 8.671313524246215820e-02 5.473824977874755859e+00 1.668161511421203613e+00 -8.456262201070785522e-02
2.793000000000000000e+03 4.238406372070312500e+01 2.137320137023925781e+01 9.949377924203872681e-02 4.131636619567871094e+00 1.269339203834533691e+00 7.593340277671813965e-01
2.794000000000000000e+03 4.381438827514648438e+01 2.326305389404296875e+01 1.761056482791900635e-01 4.122828960418701172e+00 1.289680361747741699e+00 3.910794854164123535e-01
2.795000000000000000e+03 2.298072433471679688e+01 3.482872009277343750e+01 1.911285966634750366e-01 2.375719070434570312e+00 7.700543403625488281e-01 -1.854405403137207031e-01
2.796000000000000000e+03 1.981259155273437500e+01 3.218091583251953125e+01 1.963656246662139893e-01 2.010413408279418945e+00 6.620337367057800293e-01 -1.326248794794082642e-01
2.797000000000000000e+03 6.241529846191406250e+01 2.694514083862304688e+01 3.252213895320892334e-01 5.257862091064453125e+00 1.674925088882446289e+00 -3.219472989439964294e-02
2.798000000000000000e+03 1.244889163970947266e+01 -3.372941970825195312e+01 -2.071931362152099609e-01 2.767480134963989258e+00 7.680861353874206543e-01 1.550265550613403320e-01
2.799000000000000000e+03 1.369511985778808594e+01 -3.011962127685546875e+01 -2.544763684272766113e-01 2.925732374191284180e+00 8.013768196105957031e-01 1.912485957145690918e-01
2.800000000000000000e+03 7.377703857421875000e+01 -3.813876342773437500e+01 5.699798092246055603e-02 6.245132923126220703e+00 1.890639185905456543e+00 5.078909918665885925e-02
2.801000000000000000e+03 2.759918403625488281e+01 -2.186984062194824219e+01 -2.775848805904388428e-01 4.002485752105712891e+00 1.117470145225524902e+00 -6.584039926528930664e-01
2.802000000000000000e+03 3.020528793334960938e+01 -2.063353538513183594e+01 -1.212687194347381592e-01 3.636244058609008789e+00 1.054492592811584473e+00 -8.971475362777709961e-01
2.803000000000000000e+03 4.024517822265625000e+01 2.514916801452636719e+01 -2.199455052614212036e-01 4.312999725341796875e+00 1.227916240692138672e+00 2.306177020072937012e-01
2.804000000000000000e+03 3.874651336669921875e+01 2.347600746154785156e+01 -3.642923831939697266e-01 4.312313556671142578e+00 1.184406399726867676e+00 3.428571224212646484e-01
2.805000000000000000e+03 6.645379638671875000e+01 2.393037605285644531e+01 1.611126661300659180e-01 5.744573593139648438e+00 1.771705865859985352e+00 -3.943102657794952393e-01
2.806000000000000000e+03 8.250306129455566406e+00 -4.070732879638671875e+01 -8.856623619794845581e-02 2.361966609954833984e+00 6.820201277732849121e-01 2.098318561911582947e-02
2.807000000000000000e+03 6.834225463867187500e+01 3.145483398437500000e+01 3.221808373928070068e-02 5.924608707427978516e+00 1.787047982215881348e+00 -4.886363446712493896e-02
2.808000000000000000e+03 1.145859432220458984e+01 3.198956871032714844e+01 1.868966817855834961e-01 2.330152750015258789e+00 7.551147937774658203e-01 2.446467876434326172e-01
2.809000000000000000e+03 9.596559524536132812e+00 3.804162979125976562e+01 2.344858944416046143e-01 2.683288335800170898e+00 8.753322958946228027e-01 1.821259856224060059e-01
2.810000000000000000e+03 3.719656753540039062e+01 -2.771568870544433594e+01 2.475007623434066772e-02 3.829444885253906250e+00 1.156258463859558105e+00 -1.245391219854354858e-01
2.811000000000000000e+03 3.803620147705078125e+01 -3.026700401306152344e+01 1.159346010535955429e-02 3.855751752853393555e+00 1.160203576087951660e+00 -1.981736272573471069e-01
2.812000000000000000e+03 4.599252700805664062e+01 -2.805207252502441406e+01 1.210611760616302490e-01 3.991719007492065430e+00 1.233834028244018555e+00 -3.293235003948211670e-01
2.813000000000000000e+03 4.101222991943359375e+01 -3.656327056884765625e+01 9.331419318914413452e-02 3.966008424758911133e+00 1.217796802520751953e+00 -1.161045879125595093e-01
2.814000000000000000e+03 3.666000747680664062e+01 -3.741039657592773438e+01 1.770876906812191010e-02 3.870241403579711914e+00 1.166385054588317871e+00 -8.067372441291809082e-02
2.815000000000000000e+03 6.622512817382812500e+01 3.720734405517578125e+01 3.487928584218025208e-02 5.813868045806884766e+00 1.754624247550964355e+00 -1.604415290057659149e-02
2.816000000000000000e+03 5.715432357788085938e+01 3.717276763916015625e+01 1.551735564135015011e-03 5.264296054840087891e+00 1.579754352569580078e+00 3.930842131376266479e-02
2.817000000000000000e+03 1.294017791748046875e+01 4.094659805297851562e+01 3.236542642116546631e-01 2.490206003189086914e+00 8.441580533981323242e-01 5.036539584398269653e-02
2.818000000000000000e+03 1.832479286193847656e+01 3.776969146728515625e+01 3.503853380680084229e-01 2.264347314834594727e+00 7.844197750091552734e-01 6.647187750786542892e-03
2.819000000000000000e+03 2.280120277404785156e+01 3.793034744262695312e+01 2.858447432518005371e-01 2.404956340789794922e+00 8.072403669357299805e-01 -1.357662528753280640e-01
2.820000000000000000e+03 4.438706207275390625e+01 -3.452672576904296875e+01 1.369280219078063965e-01 4.118020057678222656e+00 1.276484370231628418e+00 -1.248242035508155823e-01
2.821000000000000000e+03 3.608642196655273438e+01 3.639018630981445312e+01 -9.070464223623275757e-02 3.664769172668457031e+00 1.072219371795654297e+00 -7.247237116098403931e-02
2.822000000000000000e+03 1.659932327270507812e+01 -3.486030578613281250e+01 -2.569667100906372070e-01 3.095857858657836914e+00 8.516674041748046875e-01 5.399776622653007507e-02
2.823000000000000000e+03 1.310999679565429688e+01 -3.678609085083007812e+01 -1.733977496623992920e-01 2.795237541198730469e+00 7.865519523620605469e-01 8.262310922145843506e-02
2.824000000000000000e+03 5.860932159423828125e+01 -3.558200073242187500e+01 1.385974884033203125e-01 5.032426357269287109e+00 1.551307201385498047e+00 4.882180318236351013e-02
2.825000000000000000e+03 5.620953750610351562e+01 -3.730132675170898438e+01 2.007804363965988159e-01 4.891934394836425781e+00 1.527814388275146484e+00 3.928131982684135437e-02
2.826000000000000000e+03 4.945148849487304688e+01 -2.926262664794921875e+01 3.629585206508636475e-01 4.109993457794189453e+00 1.341885566711425781e+00 -4.399841651320457458e-02
2.827000000000000000e+03 6.223087692260742188e+01 -3.306620407104492188e+01 1.404365897178649902e-01 5.378935337066650391e+00 1.655811667442321777e+00 -2.318619517609477043e-03
2.828000000000000000e+03 2.941582679748535156e+01 2.758944129943847656e+01 -4.620026648044586182e-01 3.322398900985717773e+00 8.581188917160034180e-01 -3.050894439220428467e-01
2.829000000000000000e+03 5.241625976562500000e+01 3.445112228393554688e+01 -5.105982720851898193e-02 5.013616085052490234e+00 1.488766908645629883e+00 6.984864920377731323e-02
2.830000000000000000e+03 1.882538604736328125e+01 -3.207467651367187500e+01 -2.763415575027465820e-01 3.344170093536376953e+00 9.203485250473022461e-01 2.514167316257953644e-02
2.831000000000000000e+03 4.694539260864257812e+01 3.056986045837402344e+01 -6.417994946241378784e-02 4.584923744201660156e+00 1.356223106384277344e+00 5.976835638284683228e-02
2.832000000000000000e+03 4.233874893188476562e+01 2.709440612792968750e+01 -6.352296471595764160e-02 4.224611759185791016e+00 1.248326539993286133e+00 1.985654383897781372e-01
2.833000000000000000e+03 1.939678001403808594e+01 -2.538885688781738281e+01 -3.255422711372375488e-01 3.632193088531494141e+00 9.919952750205993652e-01 2.578533440828323364e-02
2.834000000000000000e+03 2.530958747863769531e+01 -3.077663040161132812e+01 -2.374892383813858032e-01 3.633478641510009766e+00 1.018796801567077637e+00 -1.989244967699050903e-01
2.835000000000000000e+03 6.364170074462890625e+01 2.486699867248535156e+01 3.727325201034545898e-01 5.225520610809326172e+00 1.679475903511047363e+00 -2.629049718379974365e-01
2.836000000000000000e+03 5.912972259521484375e+01 3.176770210266113281e+01 9.300611913204193115e-02 5.301020622253417969e+00 1.618208050727844238e+00 1.046406701207160950e-01
2.837000000000000000e+03 5.090768814086914062e+01 2.962657546997070312e+01 -6.560380011796951294e-02 4.962833404541015625e+00 1.469168901443481445e+00 1.141264140605926514e-01
2.838000000000000000e+03 3.800964736938476562e+01 2.712274742126464844e+01 -2.671888470649719238e-01 4.011905193328857422e+00 1.123414874076843262e+00 8.656759560108184814e-02
2.839000000000000000e+03 3.234542846679687500e+01 -2.460236167907714844e+01 6.562887132167816162e-02 3.448096036911010742e+00 1.054117441177368164e+00 -4.553940594196319580e-01
2.840000000000000000e+03 3.044398689270019531e+01 -2.316080856323242188e+01 -5.711065232753753662e-02 3.632466316223144531e+00 1.072606682777404785e+00 -6.496033072471618652e-01
2.841000000000000000e+03 6.563216400146484375e+01 3.396805572509765625e+01 5.091553181409835815e-02 5.717360019683837891e+00 1.730482697486877441e+00 -1.482686679810285568e-02
2.842000000000000000e+03 3.157668304443359375e+01 -2.176360130310058594e+01 2.678465656936168671e-02 3.382730007171630859e+00 1.022854328155517578e+00 -7.291435003280639648e-01
2.843000000000000000e+03 3.452910232543945312e+01 -2.808622741699218750e+01 3.866737335920333862e-02 3.669106960296630859e+00 1.112332344055175781e+00 -2.546547651290893555e-01
2.844000000000000000e+03 3.087610054016113281e+01 -2.609946060180664062e+01 3.589303232729434967e-03 3.625859498977661133e+00 1.088834643363952637e+00 -4.383729100227355957e-01
2.845000000000000000e+03 1.402262592315673828e+01 3.436827850341796875e+01 2.783614099025726318e-01 2.241741657257080078e+00 7.560309171676635742e-01 1.681518554687500000e-01
2.846000000000000000e+03 3.420958328247070312e+01 3.295875549316406250e+01 -1.634108871221542358e-01 3.570675611495971680e+00 1.022179365158081055e+00 -1.805856078863143921e-01
2.847000000000000000e+03 4.060485458374023438e+01 -2.903870582580566406e+01 -2.037743851542472839e-02 4.040856361389160156e+00 1.206143617630004883e+00 -1.838789880275726318e-01
2.848000000000000000e+03 2.462187957763671875e+01 -2.641696357727050781e+01 -3.216562271118164062e-01 3.795903205871582031e+00 1.042273998260498047e+00 -2.612419128417968750e-01
2.849000000000000000e+03 2.670347404479980469e+01 -2.601332473754882812e+01 -2.468134015798568726e-01 3.826617717742919922e+00 1.073941349983215332e+00 -3.978406190872192383e-01
2.850000000000000000e+03 4.212813568115234375e+01 -3.170075607299804688e+01 8.081998676061630249e-02 3.967888355255126953e+00 1.214612483978271484e+00 -2.122400403022766113e-01
2.851000000000000000e+03 1.855676269531250000e+01 -2.855375099182128906e+01 -3.149728477001190186e-01 3.436194658279418945e+00 9.363664984703063965e-01 5.471937730908393860e-02
2.852000000000000000e+03 3.164855575561523438e+01 2.569428253173828125e+01 -5.171696543693542480e-01 3.594874382019042969e+00 9.233114123344421387e-01 -1.763845384120941162e-01
2.853000000000000000e+03 2.450957298278808594e+01 -3.406481933593750000e+01 -2.249586582183837891e-01 3.530486345291137695e+00 9.916582703590393066e-01 -9.097376465797424316e-02
2.854000000000000000e+03 3.928575134277343750e+01 -3.319704818725585938e+01 4.580920934677124023e-02 3.949179887771606445e+00 1.198496699333190918e+00 -1.421186178922653198e-01
2.855000000000000000e+03 4.643940734863281250e+01 -3.173566055297851562e+01 2.291496694087982178e-01 4.067430973052978516e+00 1.288974285125732422e+00 -1.564758867025375366e-01
2.856000000000000000e+03 4.528447341918945312e+01 3.329501342773437500e+01 -7.985998690128326416e-02 4.505913734436035156e+00 1.327816128730773926e+00 6.844541057944297791e-03
2.857000000000000000e+03 4.807831954956054688e+01 3.739368057250976562e+01 -8.734419196844100952e-02 4.693927764892578125e+00 1.381975054740905762e+00 2.069692872464656830e-02
2.858000000000000000e+03 3.980742263793945312e+01 3.431101226806640625e+01 -1.221268102526664734e-01 4.081997871398925781e+00 1.187961339950561523e+00 -5.153122916817665100e-02
2.859000000000000000e+03 2.011827659606933594e+01 -2.966811561584472656e+01 -3.212392032146453857e-01 3.488907098770141602e+00 9.503003358840942383e-01 -2.948775701224803925e-02
2.860000000000000000e+03 5.931176376342773438e+01 -3.256609344482421875e+01 9.877463430166244507e-02 5.260337352752685547e+00 1.607733607292175293e+00 2.827934175729751587e-02
2.861000000000000000e+03 1.372011566162109375e+01 3.768217468261718750e+01 3.153349757194519043e-01 2.382094860076904297e+00 8.092289566993713379e-01 6.143654510378837585e-02
2.862000000000000000e+03 2.885808372497558594e+01 -2.641908454895019531e+01 -1.392510384321212769e-01 3.715047597885131836e+00 1.072739005088806152e+00 -4.027643203735351562e-01
2.863000000000000000e+03 2.920597076416015625e+01 -2.170550346374511719e+01 -1.973265409469604492e-01 3.744400501251220703e+00 1.064122200012207031e+00 -7.260029911994934082e-01
2.864000000000000000e+03 4.000167465209960938e+01 2.932958602905273438e+01 -1.839876025915145874e-01 4.192973613739013672e+00 1.202695846557617188e+00 2.702094987034797668e-02
2.865000000000000000e+03 3.282495880126953125e+01 3.001230239868164062e+01 -2.807513177394866943e-01 3.511203050613403320e+00 9.691355228424072266e-01 -1.470830142498016357e-01
2.866000000000000000e+03 2.619688034057617188e+01 -2.812597656250000000e+01 -2.275952845811843872e-01 3.714835166931152344e+00 1.046171903610229492e+00 -2.578010261058807373e-01
2.867000000000000000e+03 5.713890838623046875e+01 2.926944923400878906e+01 1.213895678520202637e-01 5.120481967926025391e+00 1.572561502456665039e+00 1.952679455280303955e-01
2.868000000000000000e+03 6.097193145751953125e+01 2.921306228637695312e+01 2.123106569051742554e-01 5.287153720855712891e+00 1.649839282035827637e+00 5.258299782872200012e-02
2.869000000000000000e+03 4.873731613159179688e+01 3.432556915283203125e+01 -7.654013484716415405e-02 4.673352718353271484e+00 1.379043817520141602e+00 5.534343421459197998e-02
2.870000000000000000e+03 2.881836891174316406e+01 -2.863269424438476562e+01 -1.558249592781066895e-01 3.704051494598388672e+00 1.064467906951904297e+00 -3.354202508926391602e-01
2.871000000000000000e+03 3.056502723693847656e+01 3.390611267089843750e+01 -7.158541679382324219e-02 3.139827728271484375e+00 9.204726815223693848e-01 -2.115961462259292603e-01
2.872000000000000000e+03 2.820928764343261719e+01 -3.450385665893554688e+01 -1.486741900444030762e-01 3.624087095260620117e+00 1.042623877525329590e+00 -1.610333919525146484e-01
2.873000000000000000e+03 2.129925918579101562e+01 -3.328065872192382812e+01 -2.681227028369903564e-01 3.426196098327636719e+00 9.474220275878906250e-01 -5.680269375443458557e-02
2.874000000000000000e+03 5.255575942993164062e+01 -3.406729888916015625e+01 2.392834424972534180e-01 4.512044906616210938e+00 1.425398468971252441e+00 4.714690521359443665e-02
2.875000000000000000e+03 4.795269775390625000e+01 -3.657107543945312500e+01 2.201253324747085571e-01 4.230031490325927734e+00 1.335047125816345215e+00 -3.637786954641342163e-02
2.876000000000000000e+03 4.234149551391601562e+01 3.152315521240234375e+01 -1.069418564438819885e-01 4.230014801025390625e+00 1.236921906471252441e+00 4.882363975048065186e-02
2.877000000000000000e+03 1.699455070495605469e+01 -3.038707160949707031e+01 -3.000584840774536133e-01 3.235089302062988281e+00 8.805092573165893555e-01 8.170901983976364136e-02
2.878000000000000000e+03 2.678091430664062500e+01 3.448299789428710938e+01 7.198412716388702393e-02 2.727874040603637695e+00 8.399574756622314453e-01 -2.646471560001373291e-01
2.879000000000000000e+03 2.719483184814453125e+01 3.775747680664062500e+01 1.453548371791839600e-01 2.759336709976196289e+00 8.714074492454528809e-01 -1.256113350391387939e-01
2.880000000000000000e+03 3.157775306701660156e+01 3.730959701538085938e+01 2.141895331442356110e-02 3.204076290130615234e+00 9.676485657691955566e-01 -1.461424976587295532e-01
2.881000000000000000e+03 2.761148452758789062e+01 -4.094670867919921875e+01 -1.486350744962692261e-01 3.580299854278564453e+00 1.029499411582946777e+00 -4.441164061427116394e-02
2.882000000000000000e+03 5.256405258178710938e+01 3.755815124511718750e+01 -4.250175505876541138e-02 4.930311203002929688e+00 1.466342806816101074e+00 4.803881049156188965e-02
2.883000000000000000e+03 2.854535293579101562e+01 -3.137744712829589844e+01 -1.447627991437911987e-01 3.662799596786499023e+00 1.055410981178283691e+00 -2.245445400476455688e-01
2.884000000000000000e+03 3.186067581176757812e+01 -3.140472412109375000e+01 -4.912906885147094727e-02 3.690215826034545898e+00 1.092326045036315918e+00 -2.381089329719543457e-01
2.885000000000000000e+03 3.371165847778320312e+01 -2.128476333618164062e+01 2.657381296157836914e-01 3.039725542068481445e+00 9.916391372680664062e-01 -5.584373474121093750e-01
2.886000000000000000e+03 1.098188018798828125e+01 1.608688235282897949e+00 4.939811229705810547e-01 3.833273410797119141e+00 1.298176407814025879e+00 -7.275532245635986328e+00
2.887000000000000000e+03 1.113075065612792969e+01 1.861688852310180664e+00 2.388155698776245117e+00 4.439477920532226562e+00 2.048290014266967773e+00 -8.247055053710937500e+00
2.888000000000000000e+03 1.156187152862548828e+01 1.556543946266174316e+00 2.168379783630371094e+00 5.079836368560791016e+00 2.174464941024780273e+00 -8.691383361816406250e+00
2.889000000000000000e+03 1.220175170898437500e+01 1.829486966133117676e+00 3.794767141342163086e+00 8.440686225891113281e+00 3.670635938644409180e+00 -9.320376396179199219e+00
2.890000000000000000e+03 1.283146286010742188e+01 1.639331698417663574e+00 3.771058320999145508e+00 1.339870738983154297e+01 5.150929927825927734e+00 -6.450894355773925781e+00
2.891000000000000000e+03 1.337377357482910156e+01 2.193933010101318359e+00 6.948829174041748047e+00 1.025764751434326172e+01 5.161942958831787109e+00 -3.712390661239624023e+00
2.892000000000000000e+03 1.424291801452636719e+01 9.654879570007324219e-01 2.175992012023925781e+00 1.805441474914550781e+01 6.069122314453125000e+00 5.342990398406982422e+00
2.893000000000000000e+03 1.457400131225585938e+01 1.204336360096931458e-01 2.755001783370971680e+00 1.013081073760986328e+01 3.865743875503540039e+00 -1.803298354148864746e+00
2.894000000000000000e+03 1.482976818084716797e+01 -1.250920653343200684e+00 4.559947013854980469e+00 1.206390571594238281e+01 4.987155914306640625e+00 -7.731826782226562500e+00
2.895000000000000000e+03 1.403324127197265625e+01 -1.449381351470947266e+00 1.810912132263183594e+00 1.820869064331054688e+01 6.005880832672119141e+00 -6.753857135772705078e+00
2.896000000000000000e+03 1.373449707031250000e+01 -2.107277870178222656e+00 -7.672520726919174194e-02 1.636559486389160156e+01 4.886660575866699219e+00 -2.543770790100097656e+00
2.897000000000000000e+03 1.298952198028564453e+01 -2.141208171844482422e+00 -2.623793184757232666e-01 1.473449230194091797e+01 4.341633796691894531e+00 2.069540262222290039e+00
2.898000000000000000e+03 1.278238105773925781e+01 -2.082669258117675781e+00 1.159582138061523438e-01 1.352764320373535156e+01 4.093080520629882812e+00 2.753480672836303711e+00
2.899000000000000000e+03 1.258069610595703125e+01 -2.080485343933105469e+00 6.852725744247436523e-01 1.175638866424560547e+01 3.732498168945312500e+00 3.771713018417358398e+00
2.900000000000000000e+03 1.236347293853759766e+01 -2.050304174423217773e+00 9.590667486190795898e-01 1.022332572937011719e+01 3.354717731475830078e+00 4.047839164733886719e+00
2.901000000000000000e+03 1.216351699829101562e+01 -1.923660039901733398e+00 1.837113738059997559e+00 8.329196929931640625e+00 3.049893379211425781e+00 4.446033954620361328e+00
2.902000000000000000e+03 1.189624786376953125e+01 -2.435607910156250000e+00 1.556509375572204590e+00 7.060989379882812500e+00 2.585249662399291992e+00 3.459611415863037109e+00
2.903000000000000000e+03 1.151767158508300781e+01 -2.330794811248779297e+00 1.933003664016723633e+00 4.956512928009033203e+00 2.066854953765869141e+00 3.282587289810180664e+00
2.904000000000000000e+03 1.080693626403808594e+01 -1.655004024505615234e+00 1.822359800338745117e+00 1.332473874092102051e+00 9.464501142501831055e-01 1.708291649818420410e+00
2.905000000000000000e+03 1.065076732635498047e+01 -2.027506113052368164e+00 1.962470293045043945e+00 1.728296637535095215e+00 1.107230067253112793e+00 1.727917075157165527e+00
2.906000000000000000e+03 1.015196895599365234e+01 -1.584517121315002441e+00 7.848380804061889648e-01 5.730884671211242676e-01 4.073779582977294922e-01 7.619770765304565430e-01
2.907000000000000000e+03 6.701001739501953125e+01 -1.593275260925292969e+01 -1.540703535079956055e+00 1.629560589790344238e+00 2.665708772838115692e-02 -4.428408443927764893e-01
2.908000000000000000e+03 2.882469940185546875e+01 -7.887760996818542480e-01 5.431402683258056641e+00 4.665606021881103516e+00 3.029102563858032227e+00 2.109271526336669922e+00
2.909000000000000000e+03 4.363253402709960938e+01 -4.134863853454589844e+00 2.999685525894165039e+00 8.388422966003417969e+00 3.416432619094848633e+00 6.124261021614074707e-02
2.910000000000000000e+03 3.311211395263671875e+01 6.881024837493896484e+00 -4.090609848499298096e-01 7.568164467811584473e-01 1.043266355991363525e-01 2.116346657276153564e-01
2.911000000000000000e+03 1.546123886108398438e+01 -1.463019251823425293e+00 2.344891309738159180e+00 1.001172542572021484e+01 3.706984996795654297e+00 -5.346174716949462891e+00
2.912000000000000000e+03 1.388392829895019531e+01 1.479506373405456543e+00 1.629053592681884766e+00 1.875658035278320312e+01 6.115690231323242188e+00 2.669548749923706055e+00
2.913000000000000000e+03 1.374902057647705078e+01 5.049380779266357422e+00 -8.255454063415527344e+00 -2.911199092864990234e+00 -3.349995851516723633e+00 -6.279645442962646484e+00
2.914000000000000000e+03 1.310183143615722656e+01 4.177776813507080078e+00 3.255476653575897217e-01 -3.309317588806152344e+00 -8.951309919357299805e-01 -4.721193790435791016e+00
2.915000000000000000e+03 2.573391723632812500e+01 1.232820224761962891e+01 1.277007460594177246e+00 1.057248020172119141e+01 3.554846286773681641e+00 2.794439554214477539e+00
2.916000000000000000e+03 1.041709899902343750e+01 -1.813018441200256348e+00 1.688470363616943359e+00 1.194329619407653809e+00 8.648399710655212402e-01 1.257241845130920410e+00
2.917000000000000000e+03 6.500874328613281250e+01 1.530169296264648438e+01 -9.622206687927246094e-01 6.935658454895019531e+00 1.792031288146972656e+00 -2.711001634597778320e+00
2.918000000000000000e+03 7.853299713134765625e+01 8.545272827148437500e+00 2.942353952676057816e-03 8.385348320007324219e+00 2.516487121582031250e+00 7.457033991813659668e-01
2.919000000000000000e+03 2.204636764526367188e+01 4.637814164161682129e-01 -5.170990943908691406e+00 5.157889842987060547e+00 -3.930300939828157425e-03 -1.222312331199645996e+00
2.920000000000000000e+03 5.002524185180664062e+01 5.722483158111572266e+00 8.050678968429565430e-01 7.429823875427246094e+00 2.470467567443847656e+00 2.788940966129302979e-01
2.921000000000000000e+03 6.815111541748046875e+01 8.303565025329589844e+00 -1.010419487953186035e+00 1.121886348724365234e+01 3.062533140182495117e+00 -1.413931250572204590e+00
2.922000000000000000e+03 6.723065185546875000e+01 8.812926292419433594e+00 -7.232944965362548828e-01 1.272989940643310547e+01 3.601981639862060547e+00 -8.444825410842895508e-01
2.923000000000000000e+03 2.932194709777832031e+01 2.516223192214965820e+00 -3.790029764175415039e+00 2.658131361007690430e+00 -3.395694792270660400e-01 5.992339849472045898e-01
2.924000000000000000e+03 5.136503219604492188e+01 -2.164892578125000000e+01 4.797051250934600830e-01 2.109594583511352539e+00 7.767899632453918457e-01 -6.039788201451301575e-02
2.925000000000000000e+03 2.813050651550292969e+01 2.026539325714111328e+00 -2.929347276687622070e+00 8.057700395584106445e-01 -6.370731592178344727e-01 -1.233962059020996094e+00
2.926000000000000000e+03 2.724893379211425781e+01 1.081047058105468750e+01 -1.793965816497802734e+00 2.390707254409790039e+00 1.790224164724349976e-01 -2.224142290651798248e-02
2.927000000000000000e+03 2.682741165161132812e+01 1.256364154815673828e+01 1.803402066230773926e+00 6.632322311401367188e+00 2.530717372894287109e+00 8.072349429130554199e-01
2.928000000000000000e+03 1.363555049896240234e+01 1.565815448760986328e+00 1.675813078880310059e+00 1.841100120544433594e+01 6.026044368743896484e+00 2.039685249328613281e+00
2.929000000000000000e+03 1.473717975616455078e+01 -1.826365113258361816e+00 2.181413888931274414e+00 1.277379131317138672e+01 4.486561775207519531e+00 -6.861191749572753906e+00
2.930000000000000000e+03 1.473017406463623047e+01 6.580334901809692383e-02 3.427839040756225586e+00 9.099800109863281250e+00 3.758291721343994141e+00 -1.009606599807739258e+00
2.931000000000000000e+03 3.694513702392578125e+01 -1.392478588968515396e-02 -5.074673891067504883e-01 1.015852546691894531e+01 2.895317554473876953e+00 1.630381107330322266e+00
2.932000000000000000e+03 1.509136199951171875e+01 -1.679203391075134277e+00 2.722405672073364258e+00 1.064653015136718750e+01 4.010680675506591797e+00 -6.294367790222167969e+00
2.933000000000000000e+03 1.328970241546630859e+01 1.791600465774536133e+00 1.360679984092712402e+00 1.597681522369384766e+01 5.201248645782470703e+00 -4.144034385681152344e+00
2.934000000000000000e+03 1.140372943878173828e+01 2.111841917037963867e+00 1.943692803382873535e+00 6.295926094055175781e+00 2.471885681152343750e+00 -9.691493034362792969e+00
2.935000000000000000e+03 1.045653152465820312e+01 2.247192621231079102e+00 1.200487971305847168e+00 5.425584793090820312e+00 1.987821936607360840e+00 -7.363402843475341797e+00
2.936000000000000000e+03 7.626885986328125000e+01 3.406085205078125000e+01 2.404285827651619911e-03 6.408452987670898438e+00 1.923257231712341309e+00 -7.024023681879043579e-03
2.937000000000000000e+03 6.793791198730468750e+01 6.703203678131103516e+00 -1.109811663627624512e+00 1.164423084259033203e+01 3.160325765609741211e+00 -1.949871182441711426e+00
2.938000000000000000e+03 7.818125915527343750e+01 -3.594729995727539062e+01 -1.843562908470630646e-02 6.652925014495849609e+00 1.990346789360046387e+00 5.044131726026535034e-02
2.939000000000000000e+03 2.663148498535156250e+01 1.348550701141357422e+01 3.179544925689697266e+00 6.650052547454833984e+00 2.948879241943359375e+00 2.555442333221435547e+00
2.940000000000000000e+03 6.603430938720703125e+01 5.674474716186523438e+00 3.199650645256042480e-01 8.012434005737304688e+00 2.499719858169555664e+00 -7.034386694431304932e-02
2.941000000000000000e+03 2.460294151306152344e+01 -1.038035899400711060e-01 1.068749353289604187e-01 4.563464641571044922e+00 1.401101827621459961e+00 -5.004742145538330078e+00
2.942000000000000000e+03 7.623408508300781250e+01 -2.739863634109497070e+00 -2.071309387683868408e-01 7.831441402435302734e+00 2.287293195724487305e+00 1.174782752990722656e+00
2.943000000000000000e+03 5.173681259155273438e+00 8.219165802001953125e+00 1.817413926124572754e+00 2.229684114456176758e+00 1.214129447937011719e+00 -2.871279478073120117e+00
2.944000000000000000e+03 7.707386016845703125e+01 1.038750290870666504e+00 -2.026364326477050781e+00 1.054899215698242188e+01 2.556788444519042969e+00 -8.764344453811645508e-01
2.945000000000000000e+03 7.016024780273437500e+01 -2.605482101440429688e+00 -3.190255165100097656e+00 4.660300731658935547e+00 4.410136342048645020e-01 -2.241647720336914062e+00
2.946000000000000000e+03 5.968448638916015625e+01 -1.593174362182617188e+01 8.243998289108276367e-01 7.814144134521484375e+00 2.591563224792480469e+00 3.796084597706794739e-02
2.947000000000000000e+03 5.529327011108398438e+01 -4.594906330108642578e+00 -1.785322070121765137e+00 5.239373207092285156e+00 1.036215424537658691e+00 -2.014133214950561523e+00
2.948000000000000000e+03 7.065073394775390625e+01 3.343879699707031250e+01 7.736131548881530762e-03 6.083956718444824219e+00 1.827507734298706055e+00 -1.662893407046794891e-02
2.949000000000000000e+03 6.649765014648437500e+01 1.203010559082031250e+00 -1.082734823226928711e+00 5.349689483642578125e+00 1.280086398124694824e+00 2.145548820495605469e+00
2.950000000000000000e+03 6.230495452880859375e+01 3.493477776646614075e-02 -3.416781187057495117e+00 5.710042476654052734e+00 6.879783868789672852e-01 2.532514095306396484e+00
2.951000000000000000e+03 4.664916229248046875e+01 -1.716451644897460938e+01 1.054082810878753662e-01 3.379664659500122070e+00 1.045521855354309082e+00 -1.417765378952026367e+00
2.952000000000000000e+03 7.684360504150390625e+01 -8.502509117126464844e+00 2.678479254245758057e-01 8.899887084960937500e+00 2.750320434570312500e+00 1.613674879074096680e+00
2.953000000000000000e+03 8.389616966247558594e+00 3.238305807113647461e+00 2.835330963134765625e+00 4.316086769104003906e+00 2.145425319671630859e+00 4.681017398834228516e-01
2.954000000000000000e+03 6.669798278808593750e+01 2.471317052841186523e+00 9.361402988433837891e-01 6.830264568328857422e+00 2.329921483993530273e+00 1.297960281372070312e+00
2.955000000000000000e+03 6.299565505981445312e+01 -1.383460903167724609e+01 -5.656624436378479004e-01 5.765479087829589844e+00 1.559944987297058105e+00 -3.055408000946044922e-01
2.956000000000000000e+03 7.618001556396484375e+01 -3.676783752441406250e+01 3.566769137978553772e-02 6.508427143096923828e+00 1.963228464126586914e+00 5.854285880923271179e-02
2.957000000000000000e+03 1.247684764862060547e+01 -2.589396476745605469e+00 4.744046330451965332e-01 1.013471603393554688e+01 3.182736396789550781e+00 3.113003015518188477e+00
2.958000000000000000e+03 7.028218078613281250e+01 -3.562919616699218750e+00 -2.749300956726074219e+00 4.011402130126953125e+00 3.786303102970123291e-01 -1.327253222465515137e+00
2.959000000000000000e+03 5.705831146240234375e+01 -3.965527772903442383e+00 -5.835176706314086914e-01 4.825088024139404297e+00 1.272471070289611816e+00 -2.192956686019897461e+00
2.960000000000000000e+03 6.361019897460937500e+01 2.625713348388671875e+00 -1.907446146011352539e+00 4.739352226257324219e+00 8.495717644691467285e-01 2.035757064819335938e+00
2.961000000000000000e+03 4.946680068969726562e+01 3.168447494506835938e+01 -5.211482569575309753e-02 4.830875873565673828e+00 1.433628201484680176e+00 4.476004466414451599e-02
2.962000000000000000e+03 3.763654708862304688e+01 2.225186157226562500e+01 -5.403755903244018555e-01 4.529363632202148438e+00 1.196696400642395020e+00 2.183745056390762329e-01
2.963000000000000000e+03 3.147315979003906250e+01 -1.198326778411865234e+01 4.201499223709106445e-01 2.706673383712768555e+00 9.380469918251037598e-01 -1.306011676788330078e+00
2.964000000000000000e+03 7.607472229003906250e+01 -1.213561153411865234e+01 8.912650346755981445e-01 8.776895523071289062e+00 2.900448083877563477e+00 1.041778564453125000e+00
2.965000000000000000e+03 7.044496154785156250e+01 1.323572063446044922e+01 2.128502130508422852e+00 5.386253356933593750e+00 2.254426717758178711e+00 1.086113691329956055e+00
2.966000000000000000e+03 6.964285278320312500e+01 1.961262702941894531e+01 9.765904396772384644e-03 6.648443222045898438e+00 1.997462749481201172e+00 -6.593214347958564758e-03
2.967000000000000000e+03 7.330850219726562500e+01 1.401898670196533203e+01 1.316383123397827148e+00 5.106220722198486328e+00 1.926781177520751953e+00 -5.802090167999267578e-01
2.968000000000000000e+03 7.125986480712890625e+01 -3.509157896041870117e+00 -1.837040305137634277e+00 4.378137111663818359e+00 7.623290419578552246e-01 -1.588817954063415527e+00
2.969000000000000000e+03 6.209606552124023438e+01 -1.618918418884277344e+01 1.616359800100326538e-01 6.138963222503662109e+00 1.890179753303527832e+00 -7.690721750259399414e-01
2.970000000000000000e+03 4.045770263671875000e+01 -2.530871963500976562e+01 -2.050151973962783813e-01 4.099950790405273438e+00 1.168480634689331055e+00 -8.735194802284240723e-02
2.971000000000000000e+03 4.890080642700195312e+01 -2.175091552734375000e+01 3.084208071231842041e-01 2.822378873825073242e+00 9.392399191856384277e-01 -9.686028361320495605e-01
2.972000000000000000e+03 4.522946166992187500e+01 -1.899707984924316406e+01 -1.906006038188934326e-01 4.825925827026367188e+00 1.390597462654113770e+00 -1.521329998970031738e+00
2.973000000000000000e+03 5.186783313751220703e+00 -1.012121295928955078e+01 2.099829614162445068e-01 1.095974206924438477e+00 3.917871415615081787e-01 5.484547615051269531e-01
2.974000000000000000e+03 6.789942169189453125e+01 -2.386094856262207031e+01 5.962417721748352051e-01 4.831239223480224609e+00 1.628244280815124512e+00 9.301321953535079956e-02
2.975000000000000000e+03 5.114939117431640625e+01 -2.911399078369140625e+01 3.142130672931671143e-01 4.144826889038085938e+00 1.337711930274963379e+00 7.811167091131210327e-02
2.976000000000000000e+03 5.962792587280273438e+01 -1.008598232269287109e+01 2.075267732143402100e-01 8.242168426513671875e+00 2.534908533096313477e+00 1.365026116371154785e+00
2.977000000000000000e+03 7.535863494873046875e+01 -1.270352268218994141e+01 1.588156342506408691e+00 9.254972457885742188e+00 3.252938747406005859e+00 7.414146661758422852e-01
2.978000000000000000e+03 7.624540710449218750e+01 -1.297052478790283203e+01 1.077777147293090820e+00 8.487714767456054688e+00 2.869647502899169922e+00 4.137387573719024658e-01
2.979000000000000000e+03 7.408018493652343750e+01 1.626052093505859375e+01 7.741740942001342773e-01 5.993157863616943359e+00 2.030199527740478516e+00 -3.193071186542510986e-01
2.980000000000000000e+03 7.423196411132812500e+01 3.147269630432128906e+01 1.198079786263406277e-03 6.345135211944580078e+00 1.903900027275085449e+00 -4.385574534535408020e-02
2.981000000000000000e+03 3.428068923950195312e+01 2.676374435424804688e+01 -3.734373152256011963e-01 3.721212148666381836e+00 1.004332423210144043e+00 -5.939806997776031494e-02
2.982000000000000000e+03 7.056091308593750000e+01 2.069378852844238281e+01 5.821355059742927551e-02 6.570703029632568359e+00 1.988674879074096680e+00 -6.544880568981170654e-02
2.983000000000000000e+03 1.487864112854003906e+01 -6.990675449371337891e+00 -1.263903547078371048e-02 6.366389751434326172e+00 1.906125187873840332e+00 -9.805941581726074219e-01
2.984000000000000000e+03 1.418951511383056641e+01 -7.080887317657470703e+00 -1.638613045215606689e-01 6.245789051055908203e+00 1.824578404426574707e+00 -5.181996226310729980e-01
2.985000000000000000e+03 2.023332977294921875e+01 -2.755090141296386719e+01 -3.475662469863891602e-01 3.587607145309448242e+00 9.720122814178466797e-01 -1.048931945115327835e-02
2.986000000000000000e+03 1.727759552001953125e+01 -2.664400100708007812e+01 -3.335000872611999512e-01 3.396657705307006836e+00 9.189472794532775879e-01 1.169645190238952637e-01
2.987000000000000000e+03 6.407823562622070312e+00 -7.731720924377441406e+00 5.022637844085693359e-01 1.241486787796020508e+00 5.231251716613769531e-01 6.379820704460144043e-01
2.988000000000000000e+03 3.321605300903320312e+01 -1.897813796997070312e+01 2.487649619579315186e-01 2.861781120300292969e+00 9.331638216972351074e-01 -9.294353723526000977e-01
2.989000000000000000e+03 6.256429290771484375e+01 -1.519884872436523438e+01 9.779219329357147217e-02 5.952953815460205078e+00 1.815223813056945801e+00 -4.979716539382934570e-01
2.990000000000000000e+03 7.215987396240234375e+01 1.606396293640136719e+01 9.307525157928466797e-01 5.949216842651367188e+00 2.063990831375122070e+00 2.611009776592254639e-01
2.991000000000000000e+03 1.228324508666992188e+01 -2.824244880676269531e+01 -2.229079902172088623e-01 2.800993680953979492e+00 7.734257578849792480e-01 2.719857990741729736e-01
2.992000000000000000e+03 3.431007385253906250e+01 2.403550529479980469e+01 -4.176887571811676025e-01 3.706709384918212891e+00 9.867061972618103027e-01 -1.412694342434406281e-02
2.993000000000000000e+03 2.919545364379882812e+01 -1.681606292724609375e+01 -3.419244885444641113e-01 4.183716297149658203e+00 1.152537584304809570e+00 -1.151550412178039551e+00
2.994000000000000000e+03 1.449395370483398438e+01 -8.353892326354980469e+00 -9.760006517171859741e-02 5.415922641754150391e+00 1.595496773719787598e+00 -5.599524974822998047e-01
2.995000000000000000e+03 6.863105773925781250e+01 2.223434066772460938e+01 -1.498797908425331116e-02 6.290100097656250000e+00 1.882533550262451172e+00 -3.874558210372924805e-01
2.996000000000000000e+03 2.712810516357421875e+01 -2.386528778076171875e+01 -2.495753318071365356e-01 3.868535995483398438e+00 1.085688233375549316e+00 -5.029839277267456055e-01
2.997000000000000000e+03 9.752893447875976562e+00 -2.577586746215820312e+01 -1.896452754735946655e-01 2.562112569808959961e+00 7.117401957511901855e-01 3.708204925060272217e-01
2.998000000000000000e+03 5.228270339965820312e+01 2.344046401977539062e+01 -1.532530784606933594e-01 5.408833503723144531e+00 1.576674103736877441e+00 2.752927541732788086e-01
2.999000000000000000e+03 9.282070159912109375e+00 -6.581574916839599609e+00 6.453887224197387695e-01 2.679053783416748047e+00 9.973327517509460449e-01 1.172065734863281250e+00
3.000000000000000000e+03 1.515457439422607422e+01 -8.698194503784179688e+00 -8.804553747177124023e-02 5.273641586303710938e+00 1.555678844451904297e+00 -8.352900147438049316e-01
3.001000000000000000e+03 1.141069316864013672e+01 1.751000595092773438e+01 -1.896647930145263672e+00 2.774888992309570312e+00 2.634723186492919922e-01 -1.379110943526029587e-02
3.002000000000000000e+03 2.769428443908691406e+01 -2.028896522521972656e+01 -3.259637951850891113e-01 4.052194595336914062e+00 1.117869257926940918e+00 -7.654722332954406738e-01
3.003000000000000000e+03 8.775547027587890625e+00 -2.385813522338867188e+01 -1.745300441980361938e-01 2.394009590148925781e+00 6.658439040184020996e-01 4.131557047367095947e-01
3.004000000000000000e+03 2.593747901916503906e+01 -2.118934059143066406e+01 -3.377077877521514893e-01 4.134109973907470703e+00 1.138920664787292480e+00 -5.090433955192565918e-01
3.005000000000000000e+03 1.636647796630859375e+01 -1.982445526123046875e+01 -1.841714680194854736e-01 3.621647357940673828e+00 1.031242728233337402e+00 2.083603441715240479e-01
3.006000000000000000e+03 1.521323776245117188e+01 -9.766923904418945312e+00 1.716049574315547943e-02 4.800310134887695312e+00 1.445241212844848633e+00 -6.343024969100952148e-01
3.007000000000000000e+03 1.463248729705810547e+01 -1.069398212432861328e+01 -2.918812632560729980e-02 4.481995582580566406e+00 1.335842251777648926e+00 -3.151427507400512695e-01
3.008000000000000000e+03 1.238139724731445312e+01 -6.635261535644531250e+00 1.650233566761016846e-02 5.610811710357666016e+00 1.688194155693054199e+00 6.829766035079956055e-01
3.009000000000000000e+03 6.563852310180664062e+00 -1.527400875091552734e+01 -8.263904601335525513e-02 1.866034269332885742e+00 5.350185632705688477e-01 5.871239304542541504e-01
3.010000000000000000e+03 7.132276916503906250e+01 2.345101547241210938e+01 -1.110555045306682587e-02 6.344016551971435547e+00 1.899873256683349609e+00 -8.923550695180892944e-02
3.011000000000000000e+03 1.012020206451416016e+01 -8.987195014953613281e+00 1.476120203733444214e-01 3.364918470382690430e+00 1.053759098052978516e+00 8.770831823348999023e-01
3.012000000000000000e+03 9.898255348205566406e+00 5.538644194602966309e-01 -8.797571182250976562e+00 3.182744681835174561e-01 -2.543788909912109375e+00 -5.660138130187988281e-01
3.013000000000000000e+03 8.709303855895996094e+00 8.281570076942443848e-01 -7.771337985992431641e+00 -1.207698788493871689e-02 -2.335024595260620117e+00 6.346865296363830566e-01
3.014000000000000000e+03 6.524915218353271484e+00 8.644055724143981934e-01 -6.187957286834716797e+00 5.188567936420440674e-02 -1.840821385383605957e+00 1.475048899650573730e+00
3.015000000000000000e+03 7.300322532653808594e+00 2.871766090393066406e-01 -1.022883415222167969e+01 3.710881173610687256e-01 -2.957323789596557617e+00 6.287750601768493652e-01
3.016000000000000000e+03 4.654793262481689453e+00 9.267697334289550781e-01 -3.413968086242675781e+00 -8.792954683303833008e-02 -1.050569295883178711e+00 1.386211156845092773e+00
3.017000000000000000e+03 4.196331501007080078e+00 2.655235528945922852e-01 -3.835205554962158203e+00 6.395362317562103271e-02 -1.131375551223754883e+00 3.662758171558380127e-01
3.018000000000000000e+03 2.071794271469116211e+00 7.731356024742126465e-01 -9.984612464904785156e-01 -4.718279466032981873e-02 -3.136932253837585449e-01 7.046797275543212891e-01
3.019000000000000000e+03 1.971967101097106934e+00 2.754905521869659424e-01 -8.054817914962768555e-01 -5.218962952494621277e-02 -2.573014199733734131e-01 2.766079604625701904e-01
3.020000000000000000e+03 1.553543686866760254e+00 9.435993432998657227e-01 -5.797913074493408203e-01 -3.135659098625183105e-01 -2.680071592330932617e-01 6.541145443916320801e-01
3.021000000000000000e+03 2.706319808959960938e+00 2.601571679115295410e-01 -1.699221611022949219e+00 5.039162188768386841e-02 -4.946489930152893066e-01 2.895824909210205078e-01
3.022000000000000000e+03 1.033995270729064941e+00 1.126762509346008301e+00 -3.186264932155609131e-01 -3.568635284900665283e-01 -2.026470005512237549e-01 5.135335326194763184e-01
3.023000000000000000e+03 2.026122331619262695e+00 1.257645130157470703e+00 -8.476902246475219727e-01 -3.673082292079925537e-01 -3.644995391368865967e-01 1.082897663116455078e+00
3.024000000000000000e+03 6.474826931953430176e-01 3.867624700069427490e-01 -8.829711377620697021e-02 -4.222124814987182617e-02 -3.915550932288169861e-02 4.462668299674987793e-02
3.025000000000000000e+03 3.661777973175048828e-01 9.565455913543701172e-01 -4.526842385530471802e-02 -1.914881765842437744e-01 -7.102698087692260742e-02 1.438438296318054199e-01
3.026000000000000000e+03 3.455331325531005859e+00 2.570199668407440186e-01 -2.698578357696533203e+00 -8.561585098505020142e-02 -8.352583050727844238e-01 3.411609828472137451e-01
3.027000000000000000e+03 5.660175323486328125e+00 3.640198111534118652e-01 -6.795754909515380859e+00 1.365265697240829468e-01 -1.997768521308898926e+00 6.095188856124877930e-01
3.028000000000000000e+03 4.915610790252685547e+00 3.107299804687500000e-01 -5.374066352844238281e+00 -2.134355753660202026e-01 -1.676250576972961426e+00 6.435596346855163574e-01
3.029000000000000000e+03 6.592874526977539062e+00 1.286412835121154785e+00 -4.248482227325439453e+00 -1.187517344951629639e-01 -1.310170173645019531e+00 2.271156072616577148e+00
3.030000000000000000e+03 6.481445312500000000e+00 3.379926979541778564e-01 -8.314703941345214844e+00 -2.488754540681838989e-01 -2.569073677062988281e+00 8.283154964447021484e-01
3.031000000000000000e+03 9.195233345031738281e+00 1.085497379302978516e+00 -6.120560169219970703e+00 1.820072889328002930e+00 -1.290146112442016602e+00 -6.772261261940002441e-01
3.032000000000000000e+03 9.810355186462402344e+00 1.102611541748046875e+00 -5.057494640350341797e+00 1.226276516914367676e+00 -1.149365425109863281e+00 -2.283029317855834961e+00
3.033000000000000000e+03 9.706119537353515625e+00 1.352973818778991699e+00 -3.293270587921142578e+00 1.665324568748474121e+00 -4.883837997913360596e-01 -2.258426427841186523e+00
3.034000000000000000e+03 9.885055541992187500e+00 9.190279841423034668e-01 -6.223042011260986328e+00 5.783299207687377930e-01 -1.693413615226745605e+00 -1.980445861816406250e+00
3.035000000000000000e+03 9.715917587280273438e+00 1.524488478899002075e-01 -1.342958641052246094e+01 3.067710669711232185e-03 -4.027955532073974609e+00 6.131942570209503174e-02
3.036000000000000000e+03 9.452459335327148438e+00 8.375059962272644043e-01 -7.753129959106445312e+00 3.665484488010406494e-01 -2.215974330902099609e+00 -7.756533026695251465e-01
3.037000000000000000e+03 9.369662284851074219e+00 4.159227013587951660e-01 -1.117801284790039062e+01 -1.120624095201492310e-01 -3.387022495269775391e+00 -3.541644290089607239e-02
3.038000000000000000e+03 8.768437385559082031e+00 1.272064208984375000e+00 -5.231225967407226562e+00 1.344666123390197754e+00 -1.165967941284179688e+00 1.358052641153335571e-01
3.039000000000000000e+03 8.050101280212402344e+00 7.916938066482543945e-01 -8.292386054992675781e+00 5.110107660293579102e-01 -2.334412336349487305e+00 1.041716098785400391e+00
3.040000000000000000e+03 8.801825523376464844e+00 3.160927593708038330e-01 -1.231630420684814453e+01 3.375841677188873291e-01 -3.593616008758544922e+00 2.611967921257019043e-01
3.041000000000000000e+03 5.283690929412841797e+00 1.104019880294799805e+00 -3.962580442428588867e+00 -2.804734110832214355e-01 -1.272916197776794434e+00 1.976064562797546387e+00
3.042000000000000000e+03 3.455626487731933594e+00 1.253275632858276367e+00 -1.888622283935546875e+00 -2.693158686161041260e-01 -6.473814249038696289e-01 1.678413748741149902e+00
3.043000000000000000e+03 3.443625926971435547e+00 7.502956390380859375e-01 -2.405745983123779297e+00 1.096255891025066376e-02 -7.184349894523620605e-01 9.731410145759582520e-01
3.044000000000000000e+03 8.064807891845703125e+00 2.833674252033233643e-01 -1.158971500396728516e+01 -2.460742890834808350e-01 -3.550736665725708008e+00 4.355016946792602539e-01
3.045000000000000000e+03 7.328048706054687500e+00 1.268643736839294434e+00 -4.949071407318115234e+00 4.877572059631347656e-01 -1.338394284248352051e+00 1.701506018638610840e+00
3.046000000000000000e+03 8.075733184814453125e+00 1.268326401710510254e+00 -4.848976612091064453e+00 5.848739743232727051e-01 -1.279230833053588867e+00 1.173861026763916016e+00
3.047000000000000000e+03 5.955873489379882812e+00 1.211787462234497070e+00 -4.104399204254150391e+00 7.151366025209426880e-02 -1.209865689277648926e+00 1.799185633659362793e+00
3.048000000000000000e+03 9.905503273010253906e+00 7.430700063705444336e-01 -7.542724609375000000e+00 5.570543408393859863e-01 -2.095700979232788086e+00 -1.023348689079284668e+00
3.049000000000000000e+03 9.700442314147949219e+00 7.520667910575866699e-01 -8.426204681396484375e+00 1.854124069213867188e-01 -2.472237825393676758e+00 -1.058777332305908203e+00
3.050000000000000000e+03 9.858013153076171875e+00 3.726391196250915527e-01 -9.547872543334960938e+00 3.639218807220458984e-01 -2.755185365676879883e+00 -2.941558957099914551e-01
3.051000000000000000e+03 1.279929876327514648e+00 3.245305120944976807e-01 -2.496696114540100098e-01 -4.478187859058380127e-02 -8.833544701337814331e-02 1.418410241603851318e-01
3.052000000000000000e+03 2.719022750854492188e+00 1.255480885505676270e+00 -1.249585509300231934e+00 -2.028903961181640625e-01 -4.357427954673767090e-01 1.275631785392761230e+00
3.053000000000000000e+03 7.308448791503906250e+00 7.958204150199890137e-01 -7.476309776306152344e+00 -1.817254233174026012e-04 -2.242947340011596680e+00 1.381414055824279785e+00
3.054000000000000000e+03 4.151455879211425781e+00 1.252410769462585449e+00 -2.566943883895874023e+00 -5.899845436215400696e-02 -7.877827286720275879e-01 1.762236714363098145e+00
3.055000000000000000e+03 2.728528738021850586e+00 7.556380629539489746e-01 -1.548137187957763672e+00 -1.412226706743240356e-01 -5.068079829216003418e-01 9.035196304321289062e-01
3.056000000000000000e+03 4.109937667846679688e+00 7.579343318939208984e-01 -3.335537433624267578e+00 -1.771044135093688965e-01 -1.053792595863342285e+00 1.186375856399536133e+00
3.057000000000000000e+03 9.680383682250976562e+00 5.228255987167358398e-01 -9.408169746398925781e+00 3.321374952793121338e-01 -2.722809553146362305e+00 -4.995556175708770752e-01
3.058000000000000000e+03 1.289775371551513672e+01 -1.380889415740966797e-01 2.748413467407226562e+01 5.798610210418701172e+00 9.984823226928710938e+00 1.166708850860595703e+01
3.059000000000000000e+03 1.290082836151123047e+01 -1.573129147291183472e-01 2.583295059204101562e+01 1.819424438476562500e+01 1.320815849304199219e+01 2.392006874084472656e+01
3.060000000000000000e+03 1.290758609771728516e+01 -1.755706220865249634e-01 2.430874252319335938e+01 3.093683433532714844e+01 1.657367324829101562e+01 2.820364570617675781e+01
3.061000000000000000e+03 1.291776847839355469e+01 -1.921633929014205933e-01 2.108794784545898438e+01 4.433929061889648438e+01 1.962817192077636719e+01 2.973390007019042969e+01
3.062000000000000000e+03 1.293098735809326172e+01 -2.064562737941741943e-01 1.814695167541503906e+01 5.717287826538085938e+01 2.259594917297363281e+01 2.805305099487304688e+01
3.063000000000000000e+03 1.294673538208007812e+01 -2.179023027420043945e-01 1.495113182067871094e+01 6.824311065673828125e+01 2.495827102661132812e+01 2.378280258178710938e+01
3.064000000000000000e+03 1.296440982818603516e+01 -2.260634750127792358e-01 1.354385566711425781e+01 7.716292572021484375e+01 2.721203422546386719e+01 1.708969879150390625e+01
3.065000000000000000e+03 1.298333549499511719e+01 -2.306274920701980591e-01 1.305185699462890625e+01 8.214199066162109375e+01 2.855815505981445312e+01 9.361989021301269531e+00
3.066000000000000000e+03 1.300278759002685547e+01 -2.314197123050689697e-01 1.615241050720214844e+01 8.424050903320312500e+01 3.011787605285644531e+01 9.301331639289855957e-01
3.067000000000000000e+03 1.302202129364013672e+01 -2.284098118543624878e-01 1.910526847839355469e+01 8.213541412353515625e+01 3.037220382690429688e+01 -6.111606121063232422e+00
3.068000000000000000e+03 1.304030132293701172e+01 -2.217129468917846680e-01 2.662671852111816406e+01 7.834712219238281250e+01 3.149215126037597656e+01 -1.155884361267089844e+01
3.069000000000000000e+03 1.305692863464355469e+01 -2.115854173898696899e-01 3.135537910461425781e+01 7.182281494140625000e+01 3.095345687866210938e+01 -1.485111331939697266e+01
3.070000000000000000e+03 1.307126522064208984e+01 -1.984147727489471436e-01 3.916864395141601562e+01 6.624253845214843750e+01 3.162335395812988281e+01 -1.497878742218017578e+01
3.071000000000000000e+03 1.308276367187500000e+01 -1.827050000429153442e-01 4.391377258300781250e+01 6.006723022460937500e+01 3.119430160522460938e+01 -1.356666088104248047e+01
3.072000000000000000e+03 1.309098339080810547e+01 -1.650572866201400757e-01 4.821833419799804688e+01 5.546892166137695312e+01 3.110617637634277344e+01 -9.936696052551269531e+00
3.073000000000000000e+03 1.309561061859130859e+01 -1.461469382047653198e-01 5.074534225463867188e+01 5.393044662475585938e+01 3.140273857116699219e+01 -5.657123088836669922e+00
3.074000000000000000e+03 1.309646797180175781e+01 -1.266975998878479004e-01 5.076716232299804688e+01 5.222927474975585938e+01 3.089893150329589844e+01 -5.705979838967323303e-02
3.075000000000000000e+03 1.309352207183837891e+01 -1.074535548686981201e-01 5.018203735351562500e+01 5.495340347290039062e+01 3.154063224792480469e+01 3.863394260406494141e+00
3.076000000000000000e+03 1.308688640594482422e+01 -8.915121108293533325e-02 4.597324371337890625e+01 5.814649963378906250e+01 3.123592185974121094e+01 8.661218643188476562e+00
3.077000000000000000e+03 1.307681369781494141e+01 -7.249096035957336426e-02 4.265847015380859375e+01 6.346213150024414062e+01 3.183617973327636719e+01 1.050322437286376953e+01
3.078000000000000000e+03 1.306369113922119141e+01 -5.811033770442008972e-02 3.569273376464843750e+01 6.994615936279296875e+01 3.169166946411132812e+01 1.126235294342041016e+01
3.079000000000000000e+03 1.304801940917968750e+01 -4.655965417623519897e-02 3.085063552856445312e+01 7.586144256591796875e+01 3.201362228393554688e+01 9.424363136291503906e+00
3.080000000000000000e+03 1.303039932250976562e+01 -3.828092291951179504e-02 2.463824081420898438e+01 8.170086669921875000e+01 3.190173149108886719e+01 4.645615100860595703e+00
3.081000000000000000e+03 1.301150417327880859e+01 -3.359094634652137756e-02 2.036352539062500000e+01 8.468002319335937500e+01 3.151306343078613281e+01 -1.409458994865417480e+00
3.082000000000000000e+03 1.299205780029296875e+01 -3.266919404268264771e-02 1.853678512573242188e+01 8.526794433593750000e+01 3.114141845703125000e+01 -9.616094589233398438e+00
3.083000000000000000e+03 1.297280406951904297e+01 -3.555094823241233826e-02 1.804933357238769531e+01 8.180352020263671875e+01 2.995585632324218750e+01 -1.795958900451660156e+01
3.084000000000000000e+03 1.295448017120361328e+01 -4.212592169642448425e-02 2.087315368652343750e+01 7.527909851074218750e+01 2.884567642211914062e+01 -2.525041198730468750e+01
3.085000000000000000e+03 1.293778610229492188e+01 -5.214251577854156494e-02 2.491964912414550781e+01 6.459460449218750000e+01 2.685427665710449219e+01 -3.109893035888671875e+01
3.086000000000000000e+03 1.292336177825927734e+01 -6.521742045879364014e-02 3.024481773376464844e+01 5.274406051635742188e+01 2.489666366577148438e+01 -3.365935897827148438e+01
3.087000000000000000e+03 1.291175937652587891e+01 -8.085028827190399170e-02 3.575108337402343750e+01 3.766561889648437500e+01 2.202501106262207031e+01 -3.308277893066406250e+01
3.088000000000000000e+03 1.290342235565185547e+01 -9.844290465116500854e-02 4.034940338134765625e+01 2.463225936889648438e+01 1.949449920654296875e+01 -2.874622154235839844e+01
3.089000000000000000e+03 1.289866924285888672e+01 -1.173220425844192505e-01 4.456292724609375000e+01 7.603862285614013672e+00 1.565003681182861328e+01 -1.643059158325195312e+01
