# el_label, x, y, sXX, sYY, sZZ, sXY
1.000000000000000000e+00 6.994470214843750000e+01 9.922625541687011719e+00 -3.144326210021972656e+00 -1.548717498779296875e+00 -1.407913088798522949e+00 -1.728825092315673828e+00
2.000000000000000000e+00 6.974585723876953125e+01 9.913793563842773438e+00 -2.278467178344726562e+00 2.546044886112213135e-01 -6.071588397026062012e-01 1.422119140625000000e+00
3.000000000000000000e+00 6.954701232910156250e+01 9.904962539672851562e+00 -5.396704673767089844e+00 1.345953643321990967e-01 -1.578632712364196777e+00 6.759551763534545898e-01
4.000000000000000000e+00 6.934816741943359375e+01 9.896130561828613281e+00 -6.742593288421630859e+00 -2.332355678081512451e-01 -2.092748641967773438e+00 7.581059932708740234e-01
5.000000000000000000e+00 6.995298767089843750e+01 9.864811897277832031e+00 1.117739105224609375e+01 -3.054847002029418945e+00 2.436763286590576172e+00 3.154719591140747070e+00
6.000000000000000000e+00 6.975966644287109375e+01 9.817437171936035156e+00 1.565275430679321289e+00 1.215421319007873535e+00 8.342090249061584473e-01 2.982999324798583984e+00
7.000000000000000000e+00 6.956635284423828125e+01 9.770062446594238281e+00 -1.948959380388259888e-02 2.469086796045303345e-01 6.822572648525238037e-02 3.387079238891601562e+00
8.000000000000000000e+00 6.937302398681640625e+01 9.722688674926757812e+00 -2.230653762817382812e+00 8.495123386383056641e-01 -4.143424034118652344e-01 2.616838932037353516e+00
9.000000000000000000e+00 6.997237396240234375e+01 9.809717178344726562e+00 1.619579124450683594e+01 2.888505458831787109e+00 5.725289344787597656e+00 1.102356719970703125e+01
1.000000000000000000e+01 6.979196929931640625e+01 9.725612640380859375e+00 7.169867038726806641e+00 1.249627947807312012e+00 2.525848627090454102e+00 7.152571678161621094e+00
1.100000000000000000e+01 6.961157226562500000e+01 9.641508102416992188e+00 2.733620882034301758e+00 2.888737201690673828e+00 1.686707377433776855e+00 6.079689979553222656e+00
1.200000000000000000e+01 6.943117523193359375e+01 9.557404518127441406e+00 1.375328063964843750e+00 1.673674464225769043e+00 9.147007465362548828e-01 5.494529724121093750e+00
1.300000000000000000e+01 7.000210571289062500e+01 9.759449958801269531e+00 1.720164489746093750e+01 8.937564849853515625e+00 7.841763019561767578e+00 1.706451034545898438e+01
1.400000000000000000e+01 6.984153747558593750e+01 9.641834259033203125e+00 8.661212921142578125e+00 6.443758010864257812e+00 4.531491279602050781e+00 1.174730205535888672e+01
1.500000000000000000e+01 6.968096160888671875e+01 9.524219512939453125e+00 5.110538959503173828e+00 4.791356563568115234e+00 2.970568656921386719e+00 9.731862068176269531e+00
1.600000000000000000e+01 6.952038574218750000e+01 9.406603813171386719e+00 2.470315933227539062e+00 5.456349849700927734e+00 2.377999782562255859e+00 8.158914566040039062e+00
1.700000000000000000e+01 7.004106903076171875e+01 9.715934753417968750e+00 1.488387393951416016e+01 1.808401679992675781e+01 9.890367507934570312e+00 2.068781852722167969e+01
1.800000000000000000e+01 6.990646362304687500e+01 9.569308280944824219e+00 8.474237442016601562e+00 1.161841106414794922e+01 6.027794361114501953e+00 1.540391635894775391e+01
1.900000000000000000e+01 6.977185821533203125e+01 9.422681808471679688e+00 4.555367469787597656e+00 1.011337280273437500e+01 4.400621891021728516e+00 1.243551254272460938e+01
2.000000000000000000e+01 6.963725280761718750e+01 9.276056289672851562e+00 2.892198085784912109e+00 8.485368728637695312e+00 3.413269996643066406e+00 1.092900371551513672e+01
2.100000000000000000e+01 7.008774566650390625e+01 9.680834770202636719e+00 1.191185855865478516e+01 2.679722595214843750e+01 1.161272525787353516e+01 2.171933174133300781e+01
2.200000000000000000e+01 6.998426818847656250e+01 9.510809898376464844e+00 5.962199687957763672e+00 1.834890937805175781e+01 7.293332576751708984e+00 1.687208557128906250e+01
2.300000000000000000e+01 6.988078308105468750e+01 9.340784072875976562e+00 3.630536556243896484e+00 1.512154769897460938e+01 5.625625610351562500e+00 1.431252193450927734e+01
2.400000000000000000e+01 6.977729797363281250e+01 9.170758247375488281e+00 1.196992158889770508e+00 1.378348541259765625e+01 4.494143486022949219e+00 1.229928016662597656e+01
2.500000000000000000e+01 7.014036560058593750e+01 9.655495643615722656e+00 7.460503578186035156e+00 3.430998611450195312e+01 1.253114604949951172e+01 2.017136001586914062e+01
2.600000000000000000e+01 7.007196807861328125e+01 9.468577384948730469e+00 4.614460468292236328e+00 2.487804603576660156e+01 8.847751617431640625e+00 1.644543647766113281e+01
2.700000000000000000e+01 7.000356292724609375e+01 9.281658172607421875e+00 5.211520791053771973e-01 2.030713653564453125e+01 6.248486518859863281e+00 1.433718681335449219e+01
2.800000000000000000e+01 6.993516540527343750e+01 9.094739913940429688e+00 5.083780288696289062e-01 1.811270713806152344e+01 5.586325168609619141e+00 1.256955432891845703e+01
2.900000000000000000e+01 7.019691467285156250e+01 9.640885353088378906e+00 6.995047092437744141e+00 4.091998291015625000e+01 1.437450981140136719e+01 1.643368148803710938e+01
3.000000000000000000e+01 7.016621398925781250e+01 9.444226264953613281e+00 8.004090189933776855e-01 2.964821434020996094e+01 9.134587287902832031e+00 1.438666534423828125e+01
3.100000000000000000e+01 7.013551330566406250e+01 9.247568130493164062e+00 5.946451425552368164e-01 2.500384330749511719e+01 7.679546833038330078e+00 1.285552310943603516e+01
3.200000000000000000e+01 7.010480499267578125e+01 9.050909042358398438e+00 -3.316178798675537109e+00 2.173332214355468750e+01 5.525143146514892578e+00 1.120599269866943359e+01
3.300000000000000000e+01 7.025522613525390625e+01 9.637563705444335938e+00 4.333004474639892578e+00 4.392160415649414062e+01 1.447638225555419922e+01 1.122356128692626953e+01
3.400000000000000000e+01 7.026339721679687500e+01 9.438690185546875000e+00 2.172794818878173828e+00 3.346956253051757812e+01 1.069270706176757812e+01 1.145932388305664062e+01
3.500000000000000000e+01 7.027156829833984375e+01 9.239817619323730469e+00 -2.649600028991699219e+00 2.759210586547851562e+01 7.482751846313476562e+00 9.931632041931152344e+00
3.600000000000000000e+01 7.027973937988281250e+01 9.040944099426269531e+00 -2.036272048950195312e+00 2.511526298522949219e+01 6.923697471618652344e+00 9.821978569030761719e+00
3.700000000000000000e+01 7.031306457519531250e+01 9.645657539367675781e+00 6.961530685424804688e+00 4.573165512084960938e+01 1.580795574188232422e+01 7.093795776367187500e+00
3.800000000000000000e+01 7.035979461669921875e+01 9.452179908752441406e+00 1.465039491653442383e+00 3.445023345947265625e+01 1.077458095550537109e+01 6.844738483428955078e+00
3.900000000000000000e+01 7.040653228759765625e+01 9.258703231811523438e+00 -8.033345341682434082e-01 2.924978256225585938e+01 8.533934593200683594e+00 7.690100669860839844e+00
4.000000000000000000e+01 7.045326232910156250e+01 9.065225601196289062e+00 -3.503152847290039062e+00 2.442651939392089844e+01 6.277010440826416016e+00 6.552703380584716797e+00
4.100000000000000000e+01 7.036822509765625000e+01 9.664857864379882812e+00 1.041506576538085938e+01 4.415980148315429688e+01 1.637245941162109375e+01 2.242616891860961914e+00
4.200000000000000000e+01 7.045172882080078125e+01 9.484179496765136719e+00 3.201541423797607422e+00 3.457229232788085938e+01 1.133214950561523438e+01 3.905800819396972656e+00
4.300000000000000000e+01 7.053523254394531250e+01 9.303502082824707031e+00 1.279854536056518555e+00 2.797875976562500000e+01 8.777584075927734375e+00 4.075696945190429688e+00
4.400000000000000000e+01 7.061873626708984375e+01 9.122824668884277344e+00 -2.369946479797363281e+00 2.426834869384765625e+01 6.569520473480224609e+00 4.247329235076904297e+00
4.500000000000000000e+01 7.041859436035156250e+01 9.694428443908691406e+00 1.264730358123779297e+01 4.153884887695312500e+01 1.625584602355957031e+01 -6.850620508193969727e-01
4.600000000000000000e+01 7.053567504882812500e+01 9.533464431762695312e+00 8.260181427001953125e+00 3.263024139404296875e+01 1.226712703704833984e+01 1.500122189521789551e+00
4.700000000000000000e+01 7.065275573730468750e+01 9.372500419616699219e+00 2.313646078109741211e+00 2.611540222167968750e+01 8.528714179992675781e+00 1.229506254196166992e+00
4.800000000000000000e+01 7.076983642578125000e+01 9.211537361145019531e+00 2.032683134078979492e+00 2.218878364562988281e+01 7.266440391540527344e+00 2.697530508041381836e+00
4.900000000000000000e+01 7.046224212646484375e+01 9.733238220214843750e+00 1.913427925109863281e+01 3.949262237548828125e+01 1.758806991577148438e+01 -1.001856327056884766e+00
5.000000000000000000e+01 7.060841369628906250e+01 9.598148345947265625e+00 1.015053272247314453e+01 2.876484107971191406e+01 1.167461204528808594e+01 -1.042287230491638184e+00
5.100000000000000000e+01 7.075459289550781250e+01 9.463058471679687500e+00 7.905407905578613281e+00 2.441518974304199219e+01 9.696179389953613281e+00 1.200274348258972168e+00
5.200000000000000000e+01 7.090077209472656250e+01 9.327967643737792969e+00 3.146286010742187500e+00 1.767471504211425781e+01 6.246300220489501953e+00 1.490097194910049438e-01
5.300000000000000000e+01 7.049748992919921875e+01 9.779803276062011719e+00 2.187828636169433594e+01 3.449266433715820312e+01 1.691128540039062500e+01 -1.347429990768432617e+00
5.400000000000000000e+01 7.066717529296875000e+01 9.675755500793457031e+00 1.512278366088867188e+01 2.748600769042968750e+01 1.278263664245605469e+01 -4.047858715057373047e-02
5.500000000000000000e+01 7.083685302734375000e+01 9.571708679199218750e+00 1.038301277160644531e+01 1.959510993957519531e+01 8.993436813354492188e+00 -8.622916042804718018e-02
5.600000000000000000e+01 7.100653076171875000e+01 9.467661857604980469e+00 8.226384162902832031e+00 1.737654876708984375e+01 7.680879592895507812e+00 8.588559627532958984e-01
5.700000000000000000e+01 7.052301025390625000e+01 9.832340240478515625e+00 2.532757759094238281e+01 3.316963577270507812e+01 1.754916381835937500e+01 4.884432852268218994e-01
5.800000000000000000e+01 7.070970153808593750e+01 9.763318061828613281e+00 1.792652320861816406e+01 2.372974014282226562e+01 1.249687862396240234e+01 1.052718639373779297e+00
5.900000000000000000e+01 7.089638519287109375e+01 9.694295883178710938e+00 1.370453739166259766e+01 1.838632965087890625e+01 9.627260208129882812e+00 1.139479517936706543e+00
6.000000000000000000e+01 7.108307647705078125e+01 9.625272750854492188e+00 1.048116683959960938e+01 1.397380161285400391e+01 7.336490631103515625e+00 1.823743462562561035e+00
6.100000000000000000e+01 7.053780364990234375e+01 9.888838768005371094e+00 2.723373413085937500e+01 3.184254837036132812e+01 1.772288513183593750e+01 3.267407655715942383e+00
6.200000000000000000e+01 7.073435974121093750e+01 9.857482910156250000e+00 1.991486167907714844e+01 2.175360679626464844e+01 1.250054073333740234e+01 3.090883493423461914e+00
6.300000000000000000e+01 7.093091583251953125e+01 9.826126098632812500e+00 1.540451908111572266e+01 1.761770439147949219e+01 9.906666755676269531e+00 3.308770656585693359e+00
6.400000000000000000e+01 7.112747192382812500e+01 9.794770240783691406e+00 1.273419094085693359e+01 1.110686779022216797e+01 7.152317523956298828e+00 3.445381879806518555e+00
6.500000000000000000e+01 7.054132080078125000e+01 9.947137832641601562e+00 2.708571815490722656e+01 3.005466842651367188e+01 1.714211654663085938e+01 6.138707637786865234e+00
6.600000000000000000e+01 7.074021911621093750e+01 9.954648017883300781e+00 2.044602203369140625e+01 2.300961303710937500e+01 1.303669071197509766e+01 5.635537147521972656e+00
6.700000000000000000e+01 7.093911743164062500e+01 9.962157249450683594e+00 1.600426673889160156e+01 1.555312252044677734e+01 9.467216491699218750e+00 5.951462268829345703e+00
6.800000000000000000e+01 7.113801574707031250e+01 9.969666481018066406e+00 1.375208091735839844e+01 1.320909786224365234e+01 8.088353157043457031e+00 4.595522403717041016e+00
6.900000000000000000e+01 7.053341674804687500e+01 1.000500583648681641e+01 2.646738815307617188e+01 3.264498519897460938e+01 1.773371124267578125e+01 8.419640541076660156e+00
7.000000000000000000e+01 7.072705078125000000e+01 1.005109405517578125e+01 1.870457077026367188e+01 2.232242774963378906e+01 1.230809974670410156e+01 8.617911338806152344e+00
7.100000000000000000e+01 7.092067718505859375e+01 1.009718227386474609e+01 1.567874145507812500e+01 1.819175529479980469e+01 1.016114902496337891e+01 7.226617336273193359e+00
7.200000000000000000e+01 7.111431121826171875e+01 1.014326953887939453e+01 1.226943397521972656e+01 1.303928565979003906e+01 7.592616081237792969e+00 7.464826583862304688e+00
7.300000000000000000e+01 7.051440429687500000e+01 1.006022739410400391e+01 2.267943954467773438e+01 3.343052673339843750e+01 1.683299064636230469e+01 1.108414554595947266e+01
7.400000000000000000e+01 7.069535827636718750e+01 1.014313125610351562e+01 1.698991966247558594e+01 2.560031127929687500e+01 1.277706909179687500e+01 9.539222717285156250e+00
7.500000000000000000e+01 7.087631225585937500e+01 1.022603416442871094e+01 1.262253093719482422e+01 1.917643547058105469e+01 9.539690017700195312e+00 9.216744422912597656e+00
7.600000000000000000e+01 7.105726623535156250e+01 1.030893611907958984e+01 1.166549110412597656e+01 1.578984928131103516e+01 8.236601829528808594e+00 8.017500877380371094e+00
7.700000000000000000e+01 7.048500061035156250e+01 1.011069107055664062e+01 1.962015151977539062e+01 3.698579788208007812e+01 1.698178482055664062e+01 1.147575569152832031e+01
7.800000000000000000e+01 7.064635467529296875e+01 1.022723674774169922e+01 1.247379398345947266e+01 2.766952133178710938e+01 1.204299449920654297e+01 1.027530670166015625e+01
7.900000000000000000e+01 7.080770111083984375e+01 1.034378242492675781e+01 1.055387306213378906e+01 2.224167633056640625e+01 9.838665008544921875e+00 8.969487190246582031e+00
8.000000000000000000e+01 7.096905517578125000e+01 1.046032714843750000e+01 8.167080879211425781e+00 1.780458641052246094e+01 7.791500091552734375e+00 8.330513954162597656e+00
8.100000000000000000e+01 7.044633483886718750e+01 1.015446567535400391e+01 1.398770332336425781e+01 3.989180374145507812e+01 1.616385269165039062e+01 1.096852970123291016e+01
8.200000000000000000e+01 7.058190917968750000e+01 1.030019283294677734e+01 9.359070777893066406e+00 3.061043167114257812e+01 1.199085140228271484e+01 8.858263969421386719e+00
8.300000000000000000e+01 7.071748352050781250e+01 1.044592094421386719e+01 6.564251422882080078e+00 2.440951156616210938e+01 9.292129516601562500e+00 7.927037239074707031e+00
8.400000000000000000e+01 7.085305786132812500e+01 1.059164810180664062e+01 5.758010864257812500e+00 2.044838523864746094e+01 7.861918926239013672e+00 7.218142032623291016e+00
8.500000000000000000e+01 7.039988708496093750e+01 1.018987464904785156e+01 9.689853668212890625e+00 4.275492858886718750e+01 1.573343467712402344e+01 8.343331336975097656e+00
8.600000000000000000e+01 7.050449371337890625e+01 1.035920810699462891e+01 5.316593647003173828e+00 3.238460922241210938e+01 1.131036090850830078e+01 6.211571216583251953e+00
8.700000000000000000e+01 7.060910797119140625e+01 1.052854061126708984e+01 3.967142105102539062e+00 2.628989410400390625e+01 9.077111244201660156e+00 5.569763660430908203e+00
8.800000000000000000e+01 7.071372222900390625e+01 1.069787502288818359e+01 2.911049127578735352e+00 2.198464202880859375e+01 7.468707561492919922e+00 5.071619510650634766e+00
8.900000000000000000e+01 7.034743499755859375e+01 1.021556282043457031e+01 5.367568492889404297e+00 4.421546554565429688e+01 1.487491035461425781e+01 4.013634204864501953e+00
9.000000000000000000e+01 7.041707611083984375e+01 1.040202236175537109e+01 2.932985782623291016e+00 3.296986389160156250e+01 1.077085494995117188e+01 2.533961534500122070e+00
9.100000000000000000e+01 7.048671722412109375e+01 1.058848190307617188e+01 1.655578494071960449e+00 2.666233062744140625e+01 8.495372772216796875e+00 2.284666776657104492e+00
9.200000000000000000e+01 7.055636596679687500e+01 1.077494144439697266e+01 1.110412836074829102e+00 2.263798904418945312e+01 7.124520301818847656e+00 2.204198837280273438e+00
9.300000000000000000e+01 7.029098510742187500e+01 1.023054885864257812e+01 2.960890293121337891e+00 4.358166503906250000e+01 1.396276664733886719e+01 -1.323026418685913086e+00
9.400000000000000000e+01 7.032299041748046875e+01 1.042699909210205078e+01 1.571394085884094238e+00 3.173041343688964844e+01 9.990542411804199219e+00 -1.740400314331054688e+00
9.500000000000000000e+01 7.035500335693359375e+01 1.062344932556152344e+01 6.853210926055908203e-01 2.557691192626953125e+01 7.878669738769531250e+00 -1.260081171989440918e+00
9.600000000000000000e+01 7.038701629638671875e+01 1.081989955902099609e+01 2.823193371295928955e-01 2.164386749267578125e+01 6.577856063842773438e+00 -9.194356799125671387e-01
9.700000000000000000e+01 7.023269653320312500e+01 1.023425769805908203e+01 2.576726913452148438e+00 4.043259048461914062e+01 1.290279483795166016e+01 -7.017905235290527344e+00
9.800000000000000000e+01 7.022584533691406250e+01 1.043318176269531250e+01 1.569049239158630371e+00 2.859223175048828125e+01 9.048384666442871094e+00 -5.622003078460693359e+00
9.900000000000000000e+01 7.021900177001953125e+01 1.063210487365722656e+01 9.749829769134521484e-01 2.288311386108398438e+01 7.157429218292236328e+00 -4.600769042968750000e+00
1.000000000000000000e+02 7.021215057373046875e+01 1.083102798461914062e+01 4.106841683387756348e-01 1.918179130554199219e+01 5.877742767333984375e+00 -3.793304920196533203e+00
1.010000000000000000e+02 7.017480468750000000e+01 1.022654914855957031e+01 3.896639823913574219e+00 3.465581512451171875e+01 1.156573677062988281e+01 -1.168038082122802734e+01
1.020000000000000000e+02 7.012935638427734375e+01 1.042033386230468750e+01 2.977631330490112305e+00 2.383384323120117188e+01 8.043441772460937500e+00 -8.636147499084472656e+00
1.030000000000000000e+02 7.008391571044921875e+01 1.061411762237548828e+01 1.941835761070251465e+00 1.875991630554199219e+01 6.210525512695312500e+00 -6.941601276397705078e+00
1.040000000000000000e+02 7.003847503662109375e+01 1.080790138244628906e+01 1.550772666931152344e+00 1.583758640289306641e+01 5.216507434844970703e+00 -5.836858749389648438e+00
1.050000000000000000e+02 7.011952209472656250e+01 1.020771789550781250e+01 6.855447769165039062e+00 2.698052024841308594e+01 1.015079021453857422e+01 -1.446211528778076172e+01
1.060000000000000000e+02 7.003721618652343750e+01 1.038894653320312500e+01 4.673984527587890625e+00 1.784077072143554688e+01 6.754426479339599609e+00 -1.005628585815429688e+01
1.070000000000000000e+02 6.995491790771484375e+01 1.057017612457275391e+01 3.638179540634155273e+00 1.389237117767333984e+01 5.259165287017822266e+00 -7.928930759429931641e+00
1.080000000000000000e+02 6.987261962890625000e+01 1.075140380859375000e+01 2.716771125793457031e+00 1.163863563537597656e+01 4.306622028350830078e+00 -6.522188663482666016e+00
1.090000000000000000e+02 7.006896209716796875e+01 1.017848205566406250e+01 9.600158691406250000e+00 1.825664710998535156e+01 8.357042312622070312e+00 -1.461801433563232422e+01
1.100000000000000000e+02 6.995294952392578125e+01 1.034022140502929688e+01 6.548493862152099609e+00 1.154537677764892578e+01 5.428161144256591797e+00 -9.676471710205078125e+00
1.110000000000000000e+02 6.983694458007812500e+01 1.050195980072021484e+01 4.758938312530517578e+00 8.803498268127441406e+00 4.068730831146240234e+00 -7.290295124053955078e+00
1.120000000000000000e+02 6.972093200683593750e+01 1.066369915008544922e+01 3.843747138977050781e+00 7.404545783996582031e+00 3.374487876892089844e+00 -5.946152687072753906e+00
1.130000000000000000e+02 7.002505493164062500e+01 1.013996315002441406e+01 1.167126369476318359e+01 9.784056663513183594e+00 6.436595916748046875e+00 -1.208036994934082031e+01
1.140000000000000000e+02 6.987978363037109375e+01 1.027602291107177734e+01 6.781471729278564453e+00 5.704493999481201172e+00 3.745789766311645508e+00 -7.424417972564697266e+00
1.150000000000000000e+02 6.973450469970703125e+01 1.041208267211914062e+01 5.215216636657714844e+00 4.579926490783691406e+00 2.938542842864990234e+00 -5.411022663116455078e+00
1.160000000000000000e+02 6.958922576904296875e+01 1.054814243316650391e+01 3.842535257339477539e+00 3.768238782882690430e+00 2.283232212066650391e+00 -4.377973079681396484e+00
1.170000000000000000e+02 6.998949432373046875e+01 1.009363460540771484e+01 1.030112171173095703e+01 2.644698381423950195e+00 3.883745908737182617e+00 -7.409905910491943359e+00
1.180000000000000000e+02 6.982051086425781250e+01 1.019880771636962891e+01 5.653962135314941406e+00 1.435171604156494141e+00 2.126740217208862305e+00 -3.868352890014648438e+00
1.190000000000000000e+02 6.965152740478515625e+01 1.030398178100585938e+01 3.287210464477539062e+00 1.709872007369995117e+00 1.499124765396118164e+00 -2.756759643554687500e+00
1.200000000000000000e+02 6.948253631591796875e+01 1.040915584564208984e+01 2.861513376235961914e+00 1.869893312454223633e+00 1.419422030448913574e+00 -2.633152723312377930e+00
1.210000000000000000e+02 6.996363067626953125e+01 1.004126834869384766e+01 5.740275859832763672e+00 -2.484896421432495117e+00 9.766138792037963867e-01 -9.922282695770263672e-01
1.220000000000000000e+02 6.977740478515625000e+01 1.011153125762939453e+01 3.058594763278961182e-01 -7.197650521993637085e-02 7.016488909721374512e-02 -3.030539751052856445e-01
1.230000000000000000e+02 6.959117889404296875e+01 1.018179416656494141e+01 8.564306497573852539e-01 8.384732604026794434e-01 5.084711909294128418e-01 -1.191268086433410645e+00
1.240000000000000000e+02 6.940495300292968750e+01 1.025205707550048828e+01 2.255559861660003662e-01 9.525734186172485352e-02 9.624399989843368530e-02 -5.332598686218261719e-01
1.250000000000000000e+02 6.994845581054687500e+01 9.984869003295898438e+00 -9.258721351623535156e+00 -3.055022716522216797e+00 -3.694123268127441406e+00 3.715017557144165039e+00
1.260000000000000000e+02 6.975211334228515625e+01 1.001753234863281250e+01 -3.367428302764892578e+00 9.724590182304382324e-01 -7.184907793998718262e-01 -7.499711960554122925e-02
1.270000000000000000e+02 6.955577087402343750e+01 1.005019664764404297e+01 -3.508032560348510742e+00 -5.214610695838928223e-01 -1.208848118782043457e+00 4.805364310741424561e-01
1.280000000000000000e+02 6.935942840576171875e+01 1.008285999298095703e+01 -3.148110866546630859e+00 2.395355850458145142e-01 -8.725726008415222168e-01 3.374903500080108643e-01
1.290000000000000000e+02 6.687807464599609375e+01 8.761342048645019531e+00 -1.592587590217590332e+00 8.809790611267089844e-01 -2.134825587272644043e-01 -1.575906515121459961e+00
1.300000000000000000e+02 6.706602478027343750e+01 9.159162521362304688e+00 -2.508072137832641602e+00 5.756363868713378906e-01 -5.797307491302490234e-01 -1.379627943038940430e+00
1.310000000000000000e+02 6.515319061279296875e+01 9.441727638244628906e+00 -1.077395081520080566e+00 -1.328104972839355469e+00 -7.216500043869018555e-01 -1.397669434547424316e+00
1.320000000000000000e+02 6.684929656982421875e+01 9.646665573120117188e+00 -3.985534906387329102e+00 1.188351884484291077e-01 -1.160009980201721191e+00 -1.006968498229980469e+00
1.330000000000000000e+02 6.585484313964843750e+01 9.994174957275390625e+00 -1.558478951454162598e+00 9.674479253590106964e-03 -4.646413624286651611e-01 -5.319463610649108887e-01
1.340000000000000000e+02 6.608599090576171875e+01 9.022871017456054688e+00 -1.963757395744323730e+00 5.660014152526855469e-01 -4.193267822265625000e-01 -1.893848776817321777e+00
1.350000000000000000e+02 6.663980865478515625e+01 9.984348297119140625e+00 -4.642589092254638672e+00 2.481364607810974121e-01 -1.318335771560668945e+00 -6.545539200305938721e-02
1.360000000000000000e+02 6.701147460937500000e+01 8.961682319641113281e+00 -1.949483156204223633e+00 7.092851400375366211e-01 -3.720594048500061035e-01 -1.553797364234924316e+00
1.370000000000000000e+02 6.650106811523437500e+01 9.605434417724609375e+00 -2.942588567733764648e+00 6.320000290870666504e-01 -6.931765675544738770e-01 -1.330896377563476562e+00
1.380000000000000000e+02 6.708752441406250000e+01 9.718316078186035156e+00 -5.220769405364990234e+00 1.192515790462493896e-01 -1.530455350875854492e+00 -7.425952553749084473e-01
1.390000000000000000e+02 6.653553009033203125e+01 9.175374984741210938e+00 -2.443596363067626953e+00 7.141514420509338379e-01 -5.188334584236145020e-01 -1.861799836158752441e+00
1.400000000000000000e+02 6.705902099609375000e+01 9.885688781738281250e+00 -6.057571887969970703e+00 4.057487100362777710e-02 -1.805099129676818848e+00 -2.896763682365417480e-01
1.410000000000000000e+02 6.557598114013671875e+01 9.132233619689941406e+00 -2.170890808105468750e+00 -4.945955872535705566e-01 -7.996459603309631348e-01 -2.192772865295410156e+00
1.420000000000000000e+02 6.600023651123046875e+01 9.499543190002441406e+00 -2.778216361999511719e+00 -3.037219680845737457e-02 -8.425765633583068848e-01 -1.902381300926208496e+00
1.430000000000000000e+02 6.673638916015625000e+01 8.967585563659667969e+00 -2.038491010665893555e+00 8.155955076217651367e-01 -3.668686449527740479e-01 -1.744370818138122559e+00
1.440000000000000000e+02 6.708081817626953125e+01 9.519295692443847656e+00 -4.182331562042236328e+00 7.340455055236816406e-02 -1.232678055763244629e+00 -1.014399409294128418e+00
1.450000000000000000e+02 6.708878326416015625e+01 9.336093902587890625e+00 -3.094842433929443359e+00 3.361435830593109131e-01 -8.276096582412719727e-01 -1.450988173484802246e+00
1.460000000000000000e+02 6.683870697021484375e+01 9.398225784301757812e+00 -3.003197908401489258e+00 3.663282990455627441e-01 -7.910608649253845215e-01 -1.585396528244018555e+00
1.470000000000000000e+02 6.691740417480468750e+01 9.226398468017578125e+00 -2.849249839782714844e+00 4.444331526756286621e-01 -7.214450240135192871e-01 -1.605160713195800781e+00
1.480000000000000000e+02 6.745298004150390625e+01 1.129159736633300781e+01 7.567636668682098389e-02 4.208495318889617920e-01 1.489577740430831909e-01 2.531481385231018066e-01
1.490000000000000000e+02 6.962430572509765625e+01 1.137249755859375000e+01 1.387964010238647461e+00 7.972001075744628906e+00 2.807989597320556641e+00 -4.128902912139892578e+00
1.500000000000000000e+02 7.027333831787109375e+01 8.823538780212402344e+00 -4.763655185699462891e+00 2.117269134521484375e+01 4.922710895538330078e+00 8.036557197570800781e+00
1.510000000000000000e+02 6.914774322509765625e+01 9.886301040649414062e+00 -7.716134071350097656e+00 2.211452871561050415e-01 -2.248496532440185547e+00 6.987003087997436523e-01
1.520000000000000000e+02 6.797566223144531250e+01 1.018360328674316406e+01 -2.260127305984497070e+00 -3.954711835831403732e-03 -6.792246103286743164e-01 2.734989523887634277e-01
1.530000000000000000e+02 6.949911499023437500e+01 9.106450080871582031e+00 1.304929137229919434e+00 8.920625686645507812e+00 3.067666530609130859e+00 9.230128288269042969e+00
1.540000000000000000e+02 7.007446289062500000e+01 8.833999633789062500e+00 -1.805781602859497070e+00 2.076122474670410156e+01 5.686633110046386719e+00 1.073792171478271484e+01
1.550000000000000000e+02 7.134371948242187500e+01 1.015094661712646484e+01 1.171765327453613281e+01 1.017784690856933594e+01 6.568649768829345703e+00 5.952329635620117188e+00
1.560000000000000000e+02 7.113805389404296875e+01 1.059922409057617188e+01 7.477964878082275391e+00 1.506398677825927734e+01 6.762585639953613281e+00 7.462936401367187500e+00
1.570000000000000000e+02 6.736386871337890625e+01 1.023776054382324219e+01 -1.850800156593322754e+00 -2.052458226680755615e-01 -6.168138384819030762e-01 1.024618372321128845e-01
1.580000000000000000e+02 6.805726623535156250e+01 1.141786670684814453e+01 7.879269719123840332e-01 9.900965094566345215e-01 5.334070324897766113e-01 -6.896488070487976074e-01
1.590000000000000000e+02 6.738908386230468750e+01 1.045238685607910156e+01 -1.089180588722229004e+00 -1.218386590480804443e-01 -3.633057773113250732e-01 3.867813050746917725e-01
1.600000000000000000e+02 6.810135650634765625e+01 1.031152534484863281e+01 -1.865469932556152344e+00 3.029743209481239319e-02 -5.505517721176147461e-01 2.727309465408325195e-01
1.610000000000000000e+02 6.916245269775390625e+01 1.011431503295898438e+01 -2.924203157424926758e+00 -2.090389132499694824e-01 -9.399726390838623047e-01 3.420576751232147217e-01
1.620000000000000000e+02 7.020932006835937500e+01 1.104887199401855469e+01 1.829167455434799194e-01 1.685731506347656250e+01 5.112069129943847656e+00 -3.100984811782836914e+00
1.630000000000000000e+02 6.943606567382812500e+01 1.139155769348144531e+01 1.499403715133666992e+00 6.561023712158203125e+00 2.418128252029418945e+00 -3.843696117401123047e+00
1.640000000000000000e+02 6.896266174316406250e+01 1.014276885986328125e+01 -2.739907503128051758e+00 6.329961121082305908e-02 -8.029823899269104004e-01 3.031870126724243164e-01
1.650000000000000000e+02 6.874594879150390625e+01 9.891066551208496094e+00 -8.617136001586914062e+00 1.030450165271759033e-01 -2.554227352142333984e+00 5.089105367660522461e-01
1.660000000000000000e+02 7.117190551757812500e+01 9.309631347656250000e+00 4.720776081085205078e+00 9.313145637512207031e+00 4.210176467895507812e+00 1.200852036476135254e+00
1.670000000000000000e+02 6.821483612060546875e+01 8.677659034729003906e+00 7.756580412387847900e-02 2.791260004043579102e+00 8.606477379798889160e-01 1.451461672782897949e+00
1.680000000000000000e+02 6.776158142089843750e+01 9.930354118347167969e+00 -8.078844070434570312e+00 -1.180899795144796371e-02 -2.427195787429809570e+00 9.850741922855377197e-02
1.690000000000000000e+02 6.734272003173828125e+01 9.976019859313964844e+00 -7.394463062286376953e+00 -4.188201129436492920e-01 -2.343984842300415039e+00 2.550579905509948730e-01
1.700000000000000000e+02 6.722182464599609375e+01 8.724812507629394531e+00 -1.159794807434082031e+00 1.525646090507507324e+00 1.097553968429565430e-01 -9.385947585105895996e-01
1.710000000000000000e+02 6.732976531982421875e+01 9.742759704589843750e+00 -5.481780052185058594e+00 8.625439368188381195e-03 -1.641946315765380859e+00 -6.681933999061584473e-01
1.720000000000000000e+02 6.925694274902343750e+01 8.649097442626953125e+00 1.206980459392070770e-02 9.996339797973632812e+00 3.002522945404052734e+00 6.629704952239990234e+00
1.730000000000000000e+02 6.935443878173828125e+01 9.267759323120117188e+00 1.572192311286926270e+00 4.479254722595214844e+00 1.815434217453002930e+00 7.357959747314453125e+00
1.740000000000000000e+02 7.040622711181640625e+01 1.103764057159423828e+01 -1.331462617963552475e-02 1.860604095458984375e+01 5.577817916870117188e+00 -9.131753444671630859e-01
1.750000000000000000e+02 7.106111907958984375e+01 1.103833580017089844e+01 2.927817344665527344e+00 1.494723415374755859e+01 5.362515449523925781e+00 4.876386642456054688e+00
1.760000000000000000e+02 7.101084136962890625e+01 1.074295616149902344e+01 4.898769378662109375e+00 1.701387405395507812e+01 6.573792934417724609e+00 6.621913433074951172e+00
1.770000000000000000e+02 7.124263763427734375e+01 1.044485569000244141e+01 9.212313652038574219e+00 1.257729911804199219e+01 6.536883831024169922e+00 7.587527751922607422e+00
1.780000000000000000e+02 7.088259887695312500e+01 9.058950424194335938e+00 -1.807186007499694824e+00 1.749891662597656250e+01 4.707519054412841797e+00 2.273365020751953125e+00
1.790000000000000000e+02 7.046424102783203125e+01 8.839332580566406250e+00 -3.793141365051269531e+00 2.392979240417480469e+01 6.040995121002197266e+00 7.376107692718505859e+00
1.800000000000000000e+02 6.747547912597656250e+01 1.149988555908203125e+01 1.910357326269149780e-01 9.263477325439453125e-01 3.352150321006774902e-01 -1.826257407665252686e-01
1.810000000000000000e+02 6.826762390136718750e+01 1.140498161315917969e+01 1.011172413825988770e+00 1.284260630607604980e+00 6.886299252510070801e-01 -1.067084193229675293e+00
1.820000000000000000e+02 6.868537902832031250e+01 1.114120292663574219e+01 1.538771390914916992e+00 1.568661093711853027e+00 9.322297573089599609e-01 -1.557132363319396973e+00
1.830000000000000000e+02 7.059066009521484375e+01 1.100225830078125000e+01 6.108305454254150391e-01 1.945316123962402344e+01 6.019197940826416016e+00 1.721050858497619629e+00
1.840000000000000000e+02 7.000370788574218750e+01 1.103164577484130859e+01 9.687461256980895996e-01 1.369699382781982422e+01 4.399722099304199219e+00 -4.786038398742675781e+00
1.850000000000000000e+02 6.980325317382812500e+01 1.095280075073242188e+01 2.108372926712036133e+00 1.054949283599853516e+01 3.797359704971313477e+00 -5.516430854797363281e+00
1.860000000000000000e+02 7.138833618164062500e+01 1.033098125457763672e+01 1.007855796813964844e+01 9.763228416442871094e+00 5.952536106109619141e+00 6.609593868255615234e+00
1.870000000000000000e+02 7.087016296386718750e+01 1.086555767059326172e+01 2.820780277252197266e+00 1.874314308166503906e+01 6.469177246093750000e+00 4.998273849487304688e+00
1.880000000000000000e+02 7.132602691650390625e+01 1.076654815673828125e+01 6.199175357818603516e+00 1.238520240783691406e+01 5.575313091278076172e+00 6.589752197265625000e+00
1.890000000000000000e+02 7.077404785156250000e+01 1.102474594116210938e+01 1.373716354370117188e+00 1.807078552246093750e+01 5.833350658416748047e+00 3.219276666641235352e+00
1.900000000000000000e+02 6.887706756591796875e+01 1.117462825775146484e+01 1.798055410385131836e+00 2.283539056777954102e+00 1.224478363990783691e+00 -2.293118715286254883e+00
1.910000000000000000e+02 7.133209228515625000e+01 9.405819892883300781e+00 6.961681842803955078e+00 9.675563812255859375e+00 4.991173744201660156e+00 1.822151243686676025e-01
1.920000000000000000e+02 6.894631195068359375e+01 9.880553245544433594e+00 -8.286870002746582031e+00 -8.403786271810531616e-02 -2.511272192001342773e+00 5.510181784629821777e-01
1.930000000000000000e+02 6.873574066162109375e+01 9.626212120056152344e+00 -4.735524177551269531e+00 4.550395607948303223e-01 -1.284145474433898926e+00 1.159787893295288086e+00
1.940000000000000000e+02 7.104292297363281250e+01 9.164532661437988281e+00 2.818267583847045898e+00 1.678656005859375000e+01 5.881448268890380859e+00 2.179003953933715820e+00
1.950000000000000000e+02 7.082530975341796875e+01 8.771776199340820312e+00 -2.144439458847045898e+00 1.818477821350097656e+01 4.812101840972900391e+00 5.752330303192138672e+00
1.960000000000000000e+02 6.882109069824218750e+01 8.669356346130371094e+00 8.687083125114440918e-01 5.580901622772216797e+00 1.934882998466491699e+00 3.948035478591918945e+00
1.970000000000000000e+02 6.967195892333984375e+01 8.968210220336914062e+00 4.793431460857391357e-01 1.244150447845458984e+01 3.876254320144653320e+00 1.070710849761962891e+01
1.980000000000000000e+02 6.984307098388671875e+01 8.601023674011230469e+00 -1.207322120666503906e+00 1.744480133056640625e+01 4.871243953704833984e+00 9.800692558288574219e+00
1.990000000000000000e+02 7.025682067871093750e+01 8.572338104248046875e+00 -3.342348814010620117e+00 2.128192710876464844e+01 5.381873607635498047e+00 8.610696792602539062e+00
2.000000000000000000e+02 7.156728363037109375e+01 9.572641372680664062e+00 6.108630180358886719e+00 7.616771221160888672e+00 4.117620468139648438e+00 5.443974733352661133e-01
2.010000000000000000e+02 7.134520721435546875e+01 9.773241996765136719e+00 1.059194755554199219e+01 1.009424114227294922e+01 6.205856800079345703e+00 2.149932146072387695e+00
2.020000000000000000e+02 7.022251129150390625e+01 1.130316257476806641e+01 -1.067606136202812195e-01 1.472047042846679688e+01 4.384112834930419922e+00 -2.525189399719238281e+00
2.030000000000000000e+02 7.063474273681640625e+01 8.600912094116210938e+00 -4.232884407043457031e+00 2.072351264953613281e+01 4.947188377380371094e+00 5.383436679840087891e+00
2.040000000000000000e+02 7.119832611083984375e+01 1.091058731079101562e+01 4.630728244781494141e+00 1.407720756530761719e+01 5.612380504608154297e+00 5.975565910339355469e+00
2.050000000000000000e+02 7.089797210693359375e+01 8.914207458496093750e+00 -3.653278589248657227e+00 1.447255229949951172e+01 3.245782136917114258e+00 8.967943787574768066e-01
2.060000000000000000e+02 7.120942687988281250e+01 8.975832939147949219e+00 -1.352118849754333496e+00 5.396604537963867188e+00 1.213345646858215332e+00 2.243853092193603516e+00
2.070000000000000000e+02 7.092706298828125000e+01 1.115307331085205078e+01 1.741911768913269043e+00 1.629627609252929688e+01 5.411456108093261719e+00 3.881577253341674805e+00
2.080000000000000000e+02 7.134381866455078125e+01 9.117261886596679688e+00 3.588758468627929688e+00 6.512869834899902344e+00 3.030488491058349609e+00 -1.414662361145019531e+00
2.090000000000000000e+02 7.158743286132812500e+01 1.031305313110351562e+01 1.023273754119873047e+01 7.340525627136230469e+00 5.271978855133056641e+00 5.458565711975097656e+00
2.100000000000000000e+02 7.135669708251953125e+01 9.964847564697265625e+00 1.060985565185546875e+01 8.507308959960937500e+00 5.735149383544921875e+00 5.349946975708007812e+00
2.110000000000000000e+02 7.159630584716796875e+01 9.757822990417480469e+00 6.731988430023193359e+00 4.304060459136962891e+00 3.310814619064331055e+00 3.781298398971557617e+00
2.120000000000000000e+02 7.160782623291015625e+01 9.949981689453125000e+00 1.037716388702392578e+01 5.097441673278808594e+00 4.642381668090820312e+00 3.744236946105957031e+00
2.130000000000000000e+02 7.131011199951171875e+01 9.590006828308105469e+00 8.397390365600585938e+00 8.280335426330566406e+00 5.003317832946777344e+00 1.081738114356994629e+00
2.140000000000000000e+02 7.080723571777343750e+01 8.629006385803222656e+00 -7.308669090270996094e+00 1.547439670562744141e+01 2.449718236923217773e+00 3.792973279953002930e+00
2.150000000000000000e+02 6.854278564453125000e+01 1.018597507476806641e+01 -2.561850547790527344e+00 -1.323356293141841888e-02 -7.725251913070678711e-01 1.996371299028396606e-01
2.160000000000000000e+02 6.905451202392578125e+01 1.140622425079345703e+01 1.815378904342651367e+00 3.822535991668701172e+00 1.691374540328979492e+00 -3.009909629821777344e+00
2.170000000000000000e+02 6.924654388427734375e+01 1.140190505981445312e+01 1.700464487075805664e+00 5.041810035705566406e+00 2.022682428359985352e+00 -3.418422460556030273e+00
2.180000000000000000e+02 6.766838836669921875e+01 1.148571300506591797e+01 4.756625592708587646e-01 6.394133567810058594e-01 3.345227837562561035e-01 -2.360385954380035400e-01
2.190000000000000000e+02 7.001523590087890625e+01 1.130470371246337891e+01 4.586652219295501709e-01 1.273162937164306641e+01 3.957088232040405273e+00 -3.689727544784545898e+00
2.200000000000000000e+02 6.829694366455078125e+01 1.037351989746093750e+01 -1.537880778312683105e+00 2.971577830612659454e-02 -4.524494707584381104e-01 2.418467402458190918e-01
2.210000000000000000e+02 6.760353088378906250e+01 1.045022678375244141e+01 -1.330536484718322754e+00 -7.742054760456085205e-02 -4.223871231079101562e-01 2.802640795707702637e-01
2.220000000000000000e+02 6.875458526611328125e+01 1.017593479156494141e+01 -2.613058090209960938e+00 -1.235135719180107117e-01 -8.209714889526367188e-01 2.645854949951171875e-01
2.230000000000000000e+02 6.883440399169921875e+01 1.062875938415527344e+01 8.155919313430786133e-01 5.889158248901367188e-01 4.213523268699645996e-01 -7.384562492370605469e-01
2.240000000000000000e+02 6.880661773681640625e+01 1.041595649719238281e+01 -5.107020735740661621e-01 2.255915254354476929e-01 -8.553315699100494385e-02 -2.016526311635971069e-01
2.250000000000000000e+02 6.803544616699218750e+01 1.083860301971435547e+01 -5.256642028689384460e-02 3.011166453361511230e-01 7.456506788730621338e-02 5.410739686340093613e-03
2.260000000000000000e+02 6.755355834960937500e+01 9.950499534606933594e+00 -7.667462348937988281e+00 1.147332116961479187e-01 -2.265818834304809570e+00 1.369329728186130524e-02
2.270000000000000000e+02 7.005532836914062500e+01 8.580066680908203125e+00 -4.116583824157714844e+00 1.805112075805664062e+01 4.180361270904541016e+00 8.286882400512695312e+00
2.280000000000000000e+02 6.945594024658203125e+01 8.593565940856933594e+00 -6.720923781394958496e-01 1.140956783294677734e+01 3.221242427825927734e+00 8.413232803344726562e+00
2.290000000000000000e+02 6.819902801513671875e+01 8.925776481628417969e+00 -8.943935036659240723e-01 2.114315748214721680e+00 3.659766614437103271e-01 1.102088093757629395e+00
2.300000000000000000e+02 6.725350189208984375e+01 9.156583786010742188e+00 -2.479119300842285156e+00 6.055536866188049316e-01 -5.620697140693664551e-01 -1.315503954887390137e+00
2.310000000000000000e+02 6.782072448730468750e+01 8.692050933837890625e+00 -3.092029094696044922e-01 2.256211042404174805e+00 5.841024518013000488e-01 5.502548217773437500e-01
2.320000000000000000e+02 6.935144042968750000e+01 8.907339096069335938e+00 8.860816359519958496e-01 7.898661613464355469e+00 2.635422945022583008e+00 7.896524906158447266e+00
2.330000000000000000e+02 6.878592681884765625e+01 8.962678909301757812e+00 -1.635984331369400024e-01 3.729809284210205078e+00 1.069863200187683105e+00 3.548850297927856445e+00
2.340000000000000000e+02 6.830807495117187500e+01 9.425881385803222656e+00 -3.836761474609375000e+00 5.338572263717651367e-01 -9.908713102340698242e-01 3.908140361309051514e-01
2.350000000000000000e+02 6.861602020263671875e+01 8.671614646911621094e+00 6.687310934066772461e-01 4.387497901916503906e+00 1.516868591308593750e+00 3.246680974960327148e+00
2.360000000000000000e+02 6.801698303222656250e+01 8.687915802001953125e+00 -1.487483680248260498e-01 2.479075670242309570e+00 6.990981698036193848e-01 9.392198920249938965e-01
2.370000000000000000e+02 6.800218963623046875e+01 8.944111824035644531e+00 -1.143593788146972656e+00 1.675999045372009277e+00 1.597215533256530762e-01 5.932657718658447266e-01
2.380000000000000000e+02 6.796352386474609375e+01 9.919178962707519531e+00 -8.392016410827636719e+00 2.821633033454418182e-02 -2.509140014648437500e+00 1.171310469508171082e-01
2.390000000000000000e+02 6.742552185058593750e+01 8.717123031616210938e+00 -1.110072374343872070e+00 1.150379180908203125e+00 1.209205854684114456e-02 -8.329994678497314453e-01
2.400000000000000000e+02 6.762834930419921875e+01 1.067134380340576172e+01 -6.196705698966979980e-01 -4.319303110241889954e-02 -1.988590806722640991e-01 4.069582819938659668e-01
2.410000000000000000e+02 6.757053375244140625e+01 1.022888946533203125e+01 -1.914572834968566895e+00 3.356734290719032288e-02 -5.643016695976257324e-01 2.718028724193572998e-01
2.420000000000000000e+02 6.800790405273437500e+01 9.624738693237304688e+00 -5.775508403778076172e+00 3.004461228847503662e-01 -1.642518758773803711e+00 -1.638105362653732300e-01
2.430000000000000000e+02 6.728603363037109375e+01 9.538960456848144531e+00 -4.733488082885742188e+00 2.020945101976394653e-01 -1.359418034553527832e+00 -9.143227338790893555e-01
2.440000000000000000e+02 6.725310516357421875e+01 9.357536315917968750e+00 -3.347960472106933594e+00 2.530113160610198975e-01 -9.284847378730773926e-01 -1.063822865486145020e+00
2.450000000000000000e+02 6.785903167724609375e+01 1.145876026153564453e+01 5.074605345726013184e-01 9.057039618492126465e-01 4.239493608474731445e-01 -4.583549201488494873e-01
2.460000000000000000e+02 6.779006195068359375e+01 1.123019599914550781e+01 4.331142008304595947e-01 4.624973237514495850e-01 2.686834633350372314e-01 -1.943072229623794556e-01
2.470000000000000000e+02 6.961324310302734375e+01 1.083559703826904297e+01 3.059865713119506836e+00 6.458869457244873047e+00 2.855620622634887695e+00 -5.093771934509277344e+00
2.480000000000000000e+02 6.847336578369140625e+01 1.141056537628173828e+01 1.354338049888610840e+00 1.684390664100646973e+00 9.116186499595642090e-01 -1.490301847457885742e+00
2.490000000000000000e+02 6.848999023437500000e+01 1.115097332000732422e+01 1.172006249427795410e+00 1.214719414710998535e+00 7.160176634788513184e-01 -1.192948341369628906e+00
2.500000000000000000e+02 6.842839050292968750e+01 1.096316528320312500e+01 8.895137906074523926e-01 6.468027830123901367e-01 4.608949720859527588e-01 -6.985081434249877930e-01
2.510000000000000000e+02 6.830699920654296875e+01 1.114213371276855469e+01 8.157312273979187012e-01 8.950025439262390137e-01 5.132201313972473145e-01 -7.205067873001098633e-01
2.520000000000000000e+02 6.893717956542968750e+01 1.095173931121826172e+01 1.938658118247985840e+00 1.723495602607727051e+00 1.098646163940429688e+00 -1.960801839828491211e+00
2.530000000000000000e+02 6.741092681884765625e+01 1.066644096374511719e+01 -6.638957262039184570e-01 -2.386457100510597229e-02 -2.063280940055847168e-01 4.316049516201019287e-01
2.540000000000000000e+02 6.835283660888671875e+01 9.922206878662109375e+00 -8.856036186218261719e+00 7.800827175378799438e-02 -2.633408308029174805e+00 3.208677470684051514e-01
2.550000000000000000e+02 6.811324310302734375e+01 9.327471733093261719e+00 -3.116150617599487305e+00 7.669246792793273926e-01 -7.047678232192993164e-01 2.042171359062194824e-01
2.560000000000000000e+02 6.854140472412109375e+01 9.694038391113281250e+00 -6.081005096435546875e+00 3.372121453285217285e-01 -1.723137855529785156e+00 5.874108076095581055e-01
2.570000000000000000e+02 6.899027252197265625e+01 8.976693153381347656e+00 3.329764604568481445e-01 4.841923236846923828e+00 1.552469968795776367e+00 4.854226589202880859e+00
2.580000000000000000e+02 6.924212646484375000e+01 9.459656715393066406e+00 -2.512639462947845459e-01 2.537246704101562500e+00 6.857948899269104004e-01 4.553927421569824219e+00
2.590000000000000000e+02 6.724326324462890625e+01 8.942432403564453125e+00 -1.979566574096679688e+00 8.516053557395935059e-01 -3.383883535861968994e-01 -1.245135784149169922e+00
2.600000000000000000e+02 6.745349884033203125e+01 8.953213691711425781e+00 -1.750162839889526367e+00 1.179489135742187500e+00 -1.712021082639694214e-01 -7.569777965545654297e-01
2.610000000000000000e+02 6.929209899902343750e+01 1.052308940887451172e+01 2.084046840667724609e+00 1.228121280670166016e+00 9.936504364013671875e-01 -1.966086149215698242e+00
2.620000000000000000e+02 6.905865478515625000e+01 1.061171054840087891e+01 1.546925783157348633e+00 1.009283185005187988e+00 7.668626904487609863e-01 -1.474164366722106934e+00
2.630000000000000000e+02 6.917287445068359375e+01 9.669086456298828125e+00 -2.968322277069091797e+00 2.873655259609222412e-01 -8.042870163917541504e-01 2.187373399734497070e+00
2.640000000000000000e+02 6.903630828857421875e+01 9.350226402282714844e+00 -8.688039779663085938e-01 1.785572648048400879e+00 2.750306129455566406e-01 3.629819154739379883e+00
2.650000000000000000e+02 6.955316162109375000e+01 1.101451778411865234e+01 2.615321397781372070e+00 6.831780910491943359e+00 2.834130764007568359e+00 -4.736754417419433594e+00
2.660000000000000000e+02 6.814823913574218750e+01 1.101431655883789062e+01 5.944877862930297852e-01 4.751720428466796875e-01 3.208979368209838867e-01 -3.943140804767608643e-01
2.670000000000000000e+02 6.803196716308593750e+01 1.048149013519287109e+01 -1.206113100051879883e+00 4.102738946676254272e-02 -3.495257198810577393e-01 2.703332901000976562e-01
2.680000000000000000e+02 6.822605133056640625e+01 1.055871009826660156e+01 -6.906566619873046875e-01 8.487275242805480957e-02 -1.817351728677749634e-01 1.842945814132690430e-01
2.690000000000000000e+02 6.884616088867187500e+01 9.200646400451660156e+00 -7.224384546279907227e-01 2.728442668914794922e+00 6.018012762069702148e-01 3.365990638732910156e+00
2.700000000000000000e+02 6.854779052734375000e+01 9.911981582641601562e+00 -8.831528663635253906e+00 -1.319621223956346512e-02 -2.653417348861694336e+00 4.006500542163848877e-01
2.710000000000000000e+02 6.857401275634765625e+01 8.958860397338867188e+00 -4.023548960685729980e-01 3.083896160125732422e+00 8.044623732566833496e-01 2.465810775756835938e+00
2.720000000000000000e+02 6.775144958496093750e+01 9.404055595397949219e+00 -3.965193748474121094e+00 3.981291651725769043e-01 -1.070119380950927734e+00 -4.137967526912689209e-01
2.730000000000000000e+02 6.827667236328125000e+01 9.104933738708496094e+00 -1.556334018707275391e+00 1.679124832153320312e+00 3.683724626898765564e-02 1.117931008338928223e+00
2.740000000000000000e+02 6.763299560546875000e+01 1.128534030914306641e+01 2.015928030014038086e-01 6.514300107955932617e-01 2.559068500995635986e-01 -1.227677091956138611e-01
2.750000000000000000e+02 6.942897033691406250e+01 1.070271396636962891e+01 3.185309648513793945e+00 3.520628452301025391e+00 2.011781454086303711e+00 -3.770644664764404297e+00
2.760000000000000000e+02 6.905889892578125000e+01 1.120102787017822266e+01 1.956363081932067871e+00 3.286947488784790039e+00 1.572993159294128418e+00 -2.778597354888916016e+00
2.770000000000000000e+02 6.796679687500000000e+01 1.114155960083007812e+01 4.332008063793182373e-01 6.170051693916320801e-01 3.150617778301239014e-01 -2.951681613922119141e-01
2.780000000000000000e+02 6.837729644775390625e+01 9.704958915710449219e+00 -6.421227931976318359e+00 7.279127836227416992e-02 -1.904531002044677734e+00 2.557412683963775635e-01
2.790000000000000000e+02 6.756312561035156250e+01 9.456375122070312500e+00 -4.345204830169677734e+00 2.193303704261779785e-01 -1.237762331962585449e+00 -8.745954036712646484e-01
2.800000000000000000e+02 6.762364196777343750e+01 8.703057289123535156e+00 -1.063662052154541016e+00 2.084875583648681641e+00 3.063640296459197998e-01 -3.628718256950378418e-01
2.810000000000000000e+02 6.781655883789062500e+01 8.911020278930664062e+00 -1.584524393081665039e+00 1.637938976287841797e+00 1.602437719702720642e-02 -9.281972795724868774e-02
2.820000000000000000e+02 6.764442443847656250e+01 8.927134513854980469e+00 -1.613516926765441895e+00 1.280597329139709473e+00 -9.987587481737136841e-02 -5.233957171440124512e-01
2.830000000000000000e+02 6.755697631835937500e+01 9.691375732421875000e+00 -5.780476570129394531e+00 3.108259662985801697e-02 -1.724818229675292969e+00 -3.803123235702514648e-01
2.840000000000000000e+02 6.778685760498046875e+01 9.642941474914550781e+00 -5.647427558898925781e+00 2.343115508556365967e-01 -1.623934864997863770e+00 -4.038903415203094482e-01
2.850000000000000000e+02 6.841542053222656250e+01 8.669996261596679688e+00 2.042178660631179810e-01 3.738013267517089844e+00 1.182669281959533691e+00 2.259083032608032227e+00
2.860000000000000000e+02 6.838244628906250000e+01 8.911238670349121094e+00 -4.430537223815917969e-01 2.500677585601806641e+00 6.172871589660644531e-01 1.837881445884704590e+00
2.870000000000000000e+02 6.903742218017578125e+01 8.673649787902832031e+00 9.478460550308227539e-01 7.130049705505371094e+00 2.423368692398071289e+00 5.632277011871337891e+00
2.880000000000000000e+02 6.917833709716796875e+01 9.100896835327148438e+00 8.156569004058837891e-01 5.706686019897460938e+00 1.956702947616577148e+00 6.399102687835693359e+00
2.890000000000000000e+02 6.743941497802734375e+01 1.108733177185058594e+01 -3.690898045897483826e-02 1.547262370586395264e-01 3.534517809748649597e-02 3.017660081386566162e-01
2.900000000000000000e+02 6.742912292480468750e+01 1.088020324707031250e+01 -2.863201498985290527e-01 5.333765223622322083e-02 -6.989474594593048096e-02 4.713333547115325928e-01
2.910000000000000000e+02 6.765489959716796875e+01 1.090300273895263672e+01 -1.602594405412673950e-01 1.563410758972167969e-01 -1.175507321022450924e-03 2.131949514150619507e-01
2.920000000000000000e+02 6.778295135498046875e+01 1.021947479248046875e+01 -2.110369205474853516e+00 -5.352874472737312317e-02 -6.491693854331970215e-01 2.379035353660583496e-01
2.930000000000000000e+02 6.814947509765625000e+01 1.015835857391357422e+01 -2.483396053314208984e+00 3.124420298263430595e-03 -7.440814375877380371e-01 2.237142026424407959e-01
2.940000000000000000e+02 6.833905792236328125e+01 1.017034912109375000e+01 -2.542141199111938477e+00 -1.293708663433790207e-02 -7.665234804153442383e-01 2.024200707674026489e-01
2.950000000000000000e+02 6.849176025390625000e+01 1.043757534027099609e+01 -9.221379756927490234e-01 2.785512991249561310e-02 -2.682848572731018066e-01 1.603518575429916382e-01
2.960000000000000000e+02 6.921208953857421875e+01 1.032063007354736328e+01 -3.079637698829174042e-02 3.940876424312591553e-01 1.089873760938644409e-01 -4.883347749710083008e-01
2.970000000000000000e+02 6.900839233398437500e+01 1.037497234344482422e+01 -4.124113023281097412e-01 1.622973755002021790e-02 -1.188544705510139465e-01 -3.256934583187103271e-01
2.980000000000000000e+02 6.929514312744140625e+01 1.086589717864990234e+01 2.610359191894531250e+00 3.205083847045898438e+00 1.744632840156555176e+00 -3.305712938308715820e+00
2.990000000000000000e+02 6.866902923583984375e+01 1.140568637847900391e+01 1.488083124160766602e+00 2.246049880981445312e+00 1.120239853858947754e+00 -1.963325262069702148e+00
3.000000000000000000e+02 6.886157989501953125e+01 1.140593147277832031e+01 1.688249588012695312e+00 2.928906440734863281e+00 1.385146856307983398e+00 -2.356055498123168945e+00
3.010000000000000000e+02 6.923800659179687500e+01 1.121095275878906250e+01 2.228729724884033203e+00 4.375630855560302734e+00 1.981308221817016602e+00 -3.497226715087890625e+00
3.020000000000000000e+02 6.957257080078125000e+01 1.118641090393066406e+01 1.790806412696838379e+00 7.476623535156250000e+00 2.780229091644287109e+00 -4.338363170623779297e+00
3.030000000000000000e+02 6.895719146728515625e+01 9.613956451416015625e+00 -3.648213386535644531e+00 7.242478132247924805e-01 -8.771896958351135254e-01 1.859460711479187012e+00
3.040000000000000000e+02 6.815916442871093750e+01 9.920118331909179688e+00 -8.690218925476074219e+00 6.334088742733001709e-02 -2.588063478469848633e+00 1.812246739864349365e-01
3.050000000000000000e+02 6.964044189453125000e+01 8.592267990112304688e+00 -1.734910845756530762e+00 1.378724479675292969e+01 3.615700244903564453e+00 8.077516555786132812e+00
3.060000000000000000e+02 6.986944580078125000e+01 8.873187065124511719e+00 -2.233940124511718750e+00 1.693633651733398438e+01 4.410718917846679688e+00 1.059316635131835938e+01
3.070000000000000000e+02 7.044897460937500000e+01 8.581554412841796875e+00 -5.042522907257080078e+00 1.835658073425292969e+01 3.994217157363891602e+00 5.688477993011474609e+00
3.080000000000000000e+02 7.095058441162109375e+01 8.700423240661621094e+00 -6.825501441955566406e+00 1.527227497100830078e+01 2.534032106399536133e+00 2.066674232482910156e+00
3.090000000000000000e+02 7.107440948486328125e+01 8.829257965087890625e+00 -1.271886229515075684e+00 1.660240364074707031e+01 4.599155426025390625e+00 4.920518398284912109e+00
3.100000000000000000e+02 7.145999908447265625e+01 9.251856803894042969e+00 1.905831217765808105e+00 6.089008331298828125e+00 2.398452043533325195e+00 -1.709982275962829590e+00
3.110000000000000000e+02 7.153243255615234375e+01 9.399775505065917969e+00 5.666000366210937500e+00 4.978676795959472656e+00 3.193403244018554688e+00 -7.575668692588806152e-01
3.120000000000000000e+02 7.160111236572265625e+01 1.013728332519531250e+01 9.614241600036621094e+00 5.455928802490234375e+00 4.521050930023193359e+00 4.656751155853271484e+00
3.130000000000000000e+02 7.153396606445312500e+01 1.046849727630615234e+01 8.508991241455078125e+00 9.064763069152832031e+00 5.272126674652099609e+00 5.974637985229492188e+00
3.140000000000000000e+02 7.143641662597656250e+01 1.061517429351806641e+01 7.861548900604248047e+00 1.027633380889892578e+01 5.441364765167236328e+00 6.338666915893554688e+00
3.150000000000000000e+02 7.077933502197265625e+01 1.122529029846191406e+01 7.000007033348083496e-01 1.665335845947265625e+01 5.206007480621337891e+00 2.248050928115844727e+00
3.160000000000000000e+02 7.060647583007812500e+01 1.126000404357910156e+01 3.694361075758934021e-02 1.626203155517578125e+01 4.889692306518554688e+00 7.325521707534790039e-01
3.170000000000000000e+02 7.042002105712890625e+01 1.128900623321533203e+01 -2.245408743619918823e-01 1.606377792358398438e+01 4.751770973205566406e+00 -8.225432634353637695e-01
3.180000000000000000e+02 6.981346893310546875e+01 1.133151340484619141e+01 9.401407241821289062e-01 1.037427806854248047e+01 3.394325733184814453e+00 -4.242288589477539062e+00
3.190000000000000000e+02 6.971357727050781250e+01 1.112038612365722656e+01 1.841679573059082031e+00 9.229006767272949219e+00 3.321205854415893555e+00 -4.861142635345458984e+00
3.200000000000000000e+02 6.939076232910156250e+01 1.101608753204345703e+01 2.737099647521972656e+00 4.803861141204833984e+00 2.262288331985473633e+00 -4.228283405303955078e+00
3.210000000000000000e+02 7.073397827148437500e+01 8.977774620056152344e+00 -1.582464694976806641e+00 2.200260353088378906e+01 6.126041889190673828e+00 4.542729854583740234e+00
3.220000000000000000e+02 7.065224456787109375e+01 8.819769859313964844e+00 -5.272650241851806641e+00 1.929781723022460938e+01 4.207550048828125000e+00 4.598871231079101562e+00
3.230000000000000000e+02 6.781745147705078125e+01 1.044705772399902344e+01 -1.316614389419555664e+00 -1.744837686419487000e-02 -4.002188146114349365e-01 3.668739199638366699e-01
3.240000000000000000e+02 6.744503021240234375e+01 9.186353683471679688e+00 -2.653389453887939453e+00 5.479520559310913086e-01 -6.316312551498413086e-01 -9.567196965217590332e-01
3.250000000000000000e+02 6.739833068847656250e+01 9.402299880981445312e+00 -3.950893402099609375e+00 3.719824552536010742e-01 -1.073673248291015625e+00 -9.452227950096130371e-01
3.260000000000000000e+02 6.820581054687500000e+01 9.663494110107421875e+00 -6.067805767059326172e+00 3.121337294578552246e-01 -1.726701617240905762e+00 1.472253948450088501e-01
3.270000000000000000e+02 6.864375305175781250e+01 9.374641418457031250e+00 -2.494616746902465820e+00 1.054829120635986328e+00 -4.319362640380859375e-01 1.689572572708129883e+00
3.280000000000000000e+02 6.786603546142578125e+01 1.089759445190429688e+01 4.069143533706665039e-02 1.559875905513763428e-01 5.900371074676513672e-02 1.390556544065475464e-01
3.290000000000000000e+02 6.856212615966796875e+01 1.077529907226562500e+01 5.395743846893310547e-01 4.886336922645568848e-01 3.084624111652374268e-01 -5.312812328338623047e-01
3.300000000000000000e+02 6.875786590576171875e+01 1.087308120727539062e+01 1.293137311935424805e+00 1.007595658302307129e+00 6.902198791503906250e-01 -1.274306654930114746e+00
3.310000000000000000e+02 6.908712768554687500e+01 1.100938320159912109e+01 2.277435064315795898e+00 3.040764808654785156e+00 1.595459938049316406e+00 -2.838987350463867188e+00
3.320000000000000000e+02 6.940956115722656250e+01 1.120412445068359375e+01 2.087443828582763672e+00 5.937932968139648438e+00 2.407613039016723633e+00 -4.090860366821289062e+00
3.330000000000000000e+02 6.924275207519531250e+01 1.102944564819335938e+01 2.296106100082397461e+00 3.612010478973388672e+00 1.772434949874877930e+00 -3.114341259002685547e+00
3.340000000000000000e+02 6.762342071533203125e+01 9.260725021362304688e+00 -2.903282403945922852e+00 7.358396053314208984e-01 -6.502328515052795410e-01 -6.716559529304504395e-01
3.350000000000000000e+02 6.954399871826171875e+01 8.778186798095703125e+00 9.048412740230560303e-02 1.299655818939208984e+01 3.926112890243530273e+00 9.229394912719726562e+00
3.360000000000000000e+02 6.774187469482421875e+01 9.094124794006347656e+00 -2.175081968307495117e+00 1.067696213722229004e+00 -3.322157263755798340e-01 -2.626237869262695312e-01
3.370000000000000000e+02 6.791809082031250000e+01 9.211890220642089844e+00 -2.826901674270629883e+00 9.476573467254638672e-01 -5.637733340263366699e-01 -8.171898871660232544e-02
3.380000000000000000e+02 6.800256347656250000e+01 1.066862678527832031e+01 -4.984526634216308594e-01 7.186971604824066162e-02 -1.279748827219009399e-01 2.413291335105895996e-01
3.390000000000000000e+02 6.782756805419921875e+01 1.066830921173095703e+01 -6.686002612113952637e-01 5.779728665947914124e-02 -1.832408905029296875e-01 2.464157491922378540e-01
3.400000000000000000e+02 6.839518737792968750e+01 1.065248966217041016e+01 -8.985618501901626587e-02 1.968782395124435425e-01 3.210661932826042175e-02 -1.686218678951263428e-01
3.410000000000000000e+02 6.814939880371093750e+01 1.072469711303710938e+01 -1.842615604400634766e-01 1.966301053762435913e-01 3.710562363266944885e-03 -2.419124543666839600e-02
3.420000000000000000e+02 6.764055633544921875e+01 1.110724449157714844e+01 1.017726734280586243e-01 3.545861244201660156e-01 1.369076371192932129e-01 2.045201063156127930e-01
3.430000000000000000e+02 6.866358947753906250e+01 1.054602718353271484e+01 -1.033904179930686951e-01 2.039393037557601929e-01 3.016466647386550903e-02 -2.853076457977294922e-01
3.440000000000000000e+02 6.909400939941406250e+01 1.082766342163085938e+01 2.183856725692749023e+00 1.990404367446899414e+00 1.252278327941894531e+00 -2.289907217025756836e+00
3.450000000000000000e+02 6.846572875976562500e+01 9.531570434570312500e+00 -4.611898422241210938e+00 5.254682302474975586e-01 -1.225929021835327148e+00 6.473863720893859863e-01
3.460000000000000000e+02 6.828463745117187500e+01 1.083797073364257812e+01 2.913056313991546631e-01 3.759201169013977051e-01 2.001677304506301880e-01 -2.466978132724761963e-01
3.470000000000000000e+02 6.846178436279296875e+01 9.210767745971679688e+00 -1.686548948287963867e+00 1.679085969924926758e+00 -2.238893182948231697e-03 1.575584292411804199e+00
3.480000000000000000e+02 2.909800148010253906e+01 3.840504884719848633e+00 9.493201971054077148e-01 3.079815506935119629e-01 3.771905303001403809e-01 6.393891572952270508e-01
3.490000000000000000e+02 2.708633613586425781e+01 2.624982833862304688e+00 7.672265768051147461e-01 3.028824925422668457e-01 3.210327327251434326e-01 6.175730228424072266e-01
3.500000000000000000e+02 2.787081146240234375e+01 3.203652381896972656e+00 1.281102061271667480e+00 4.634932875633239746e-01 5.233786106109619141e-01 6.234385967254638672e-01
3.510000000000000000e+02 2.547071456909179688e+01 1.617731213569641113e+00 1.626625210046768188e-01 2.273558825254440308e-01 1.170055195689201355e-01 2.389587461948394775e-01
3.520000000000000000e+02 2.474656295776367188e+01 6.770151853561401367e-01 -5.762708187103271484e-02 2.042600065469741821e-01 4.398987814784049988e-02 1.573327779769897461e-01
3.530000000000000000e+02 2.415877151489257812e+01 1.795856595039367676e+00 1.482152044773101807e-01 1.190027445554733276e-01 8.016537874937057495e-02 9.260829538106918335e-02
3.540000000000000000e+02 2.354055213928222656e+01 1.862700581550598145e+00 6.256085634231567383e-02 -1.679293252527713776e-02 1.373037789016962051e-02 3.509280085563659668e-02
3.550000000000000000e+02 2.161395263671875000e+01 8.777783513069152832e-01 6.284538190811872482e-03 5.509841814637184143e-02 1.841488666832447052e-02 5.175068508833646774e-03
3.560000000000000000e+02 2.266283607482910156e+01 1.924093246459960938e+00 2.285112626850605011e-02 2.869524806737899780e-02 1.546391285955905914e-02 1.113051362335681915e-02
3.570000000000000000e+02 2.082985115051269531e+01 2.199487686157226562e+00 4.408767446875572205e-03 2.003964222967624664e-02 7.334522902965545654e-03 -7.086938712745904922e-03
3.580000000000000000e+02 1.794913673400878906e+01 2.543313980102539062e+00 -9.092950262129306793e-03 4.820208996534347534e-03 -1.281822333112359047e-03 1.107243704609572887e-03
3.590000000000000000e+02 2.000920295715332031e+01 2.335755109786987305e+00 2.368838759139180183e-03 -1.587363891303539276e-02 -4.051439929753541946e-03 -3.381882561370730400e-04
3.600000000000000000e+02 1.982433509826660156e+01 1.555685400962829590e+00 1.213360857218503952e-02 1.061829924583435059e-02 6.825572345405817032e-03 4.754552152007818222e-03
3.610000000000000000e+02 2.263578224182128906e+01 7.359005808830261230e-01 1.129129528999328613e-02 3.115317411720752716e-02 1.273334119468927383e-02 4.497157782316207886e-02
3.620000000000000000e+02 2.500052452087402344e+01 -2.948490619659423828e+00 -2.141719684004783630e-02 -1.710788756608963013e-01 -5.774882063269615173e-02 -2.174650430679321289e-01
3.630000000000000000e+02 3.061383819580078125e+01 -5.413039684295654297e+00 3.225024342536926270e-01 8.432926535606384277e-01 3.497385382652282715e-01 -4.832364022731781006e-01
3.640000000000000000e+02 3.003148841857910156e+01 -2.591908216476440430e+00 1.330644786357879639e-01 -9.309661984443664551e-01 -2.393705248832702637e-01 -3.950423002243041992e-01
3.650000000000000000e+02 3.019449806213378906e+01 -1.232094168663024902e+00 -1.546657085418701172e+00 -2.186570167541503906e+00 -1.119968175888061523e+00 -1.405913352966308594e+00
3.660000000000000000e+02 2.898558807373046875e+01 -1.082814335823059082e+00 -1.366337180137634277e+00 -2.622875571250915527e-01 -4.885874092578887939e-01 -6.907615065574645996e-01
3.670000000000000000e+02 2.821024703979492188e+01 1.795839786529541016e+00 -1.807394325733184814e-01 1.994141787290573120e-01 5.602424964308738708e-03 3.660954833030700684e-01
3.680000000000000000e+02 3.168200111389160156e+01 -2.022719383239746094e-01 -2.808047294616699219e+00 -7.129105925559997559e-01 -1.056287407875061035e+00 -5.896215438842773438e-01
3.690000000000000000e+02 3.048692703247070312e+01 -5.321704596281051636e-02 -2.800325155258178711e+00 -1.797165870666503906e+00 -1.379247307777404785e+00 -6.476351618766784668e-01
3.700000000000000000e+02 3.689557266235351562e+01 4.030193328857421875e+00 -4.660081490874290466e-02 6.438255310058593750e-02 5.334521178156137466e-03 -5.853904038667678833e-02
3.710000000000000000e+02 3.867373275756835938e+01 4.899946689605712891e+00 -6.434266455471515656e-03 7.743960618972778320e-02 2.130160294473171234e-02 5.076293833553791046e-03
3.720000000000000000e+02 3.805765533447265625e+01 3.621897459030151367e+00 4.868217278271913528e-03 1.972438693046569824e-01 6.063362210988998413e-02 9.837999008595943451e-03
3.730000000000000000e+02 3.923376464843750000e+01 6.070881843566894531e+00 -9.253746829926967621e-03 2.165982313454151154e-02 3.721823217347264290e-03 -9.377107024192810059e-03
3.740000000000000000e+02 3.677013397216796875e+01 6.000189781188964844e+00 1.130278315395116806e-02 -1.258680410683155060e-02 -3.852063091471791267e-04 -1.029647886753082275e-01
3.750000000000000000e+02 3.664644241333007812e+01 9.493894577026367188e+00 1.343847345560789108e-02 -1.906789257191121578e-03 3.459505271166563034e-03 -4.172033630311489105e-03
3.760000000000000000e+02 3.351340484619140625e+01 7.200551986694335938e+00 1.333723962306976318e-01 2.433626353740692139e-02 4.731259495019912720e-02 6.413415074348449707e-02
3.770000000000000000e+02 3.685913848876953125e+01 8.666157722473144531e+00 2.515737526118755341e-02 1.245946274138987064e-03 7.920996285974979401e-03 -5.444820038974285126e-03
3.780000000000000000e+02 3.356904983520507812e+01 -1.085427761077880859e+00 -6.079024672508239746e-01 4.508535861968994141e-01 -4.711466655135154724e-02 -6.248279288411140442e-02
3.790000000000000000e+02 3.306566619873046875e+01 -1.362036797218024731e-03 -1.530586481094360352e+00 4.923474192619323730e-01 -3.114717006683349609e-01 -2.120259255170822144e-01
3.800000000000000000e+02 3.692815017700195312e+01 -1.803171038627624512e-01 -1.636119961738586426e+00 6.772473454475402832e-01 -2.876617908477783203e-01 1.471883952617645264e-01
3.810000000000000000e+02 3.682133865356445312e+01 -1.272658824920654297e+00 -1.237911581993103027e+00 7.767411470413208008e-01 -1.383511424064636230e-01 -5.397900566458702087e-02
3.820000000000000000e+02 3.444044113159179688e+01 -2.003738880157470703e+00 8.502008393406867981e-03 8.595826625823974609e-01 2.604253888130187988e-01 -4.912634193897247314e-01
3.830000000000000000e+02 3.533142471313476562e+01 -2.995287179946899414e+00 5.364290475845336914e-01 1.196727156639099121e+00 5.199468731880187988e-01 -8.718758821487426758e-01
3.840000000000000000e+02 3.796188354492187500e+01 9.276283383369445801e-01 -8.742176294326782227e-01 -5.195534825325012207e-01 -4.181313216686248779e-01 7.659075260162353516e-01
3.850000000000000000e+02 3.705377197265625000e+01 -5.163002014160156250e+00 7.189193367958068848e-01 1.296566247940063477e+00 6.046456694602966309e-01 -1.012781739234924316e+00
3.860000000000000000e+02 3.845127868652343750e+01 -7.587869167327880859e+00 5.046901702880859375e-01 9.219976067543029785e-01 4.280063211917877197e-01 -7.099388837814331055e-01
3.870000000000000000e+02 4.100344848632812500e+01 -7.838870525360107422e+00 5.892074704170227051e-01 -1.852180212736129761e-01 1.211968213319778442e-01 -5.109214782714843750e-01
3.880000000000000000e+02 4.080414199829101562e+01 -1.227805328369140625e+01 -9.491307660937309265e-03 -8.522846698760986328e-01 -2.585327923297882080e-01 -9.787997603416442871e-02
3.890000000000000000e+02 4.122607421875000000e+01 -1.442335319519042969e+01 -9.275306947529315948e-03 -1.312936902046203613e+00 -3.966636657714843750e-01 -2.431410253047943115e-01
3.900000000000000000e+02 4.111214828491210938e+01 -1.575521850585937500e+01 -9.518494606018066406e-01 -1.598664999008178711e+00 -7.651543617248535156e-01 -5.680571198463439941e-01
3.910000000000000000e+02 4.287836074829101562e+01 -1.800530242919921875e+01 -4.943730831146240234e-01 -2.102311104536056519e-01 -2.113812565803527832e-01 5.596129968762397766e-02
3.920000000000000000e+02 4.801601791381835938e+01 -1.556220436096191406e+01 -7.808226346969604492e-02 6.637799739837646484e-01 1.757093071937561035e-01 -2.786301374435424805e-01
3.930000000000000000e+02 5.009075164794921875e+01 -1.741767311096191406e+01 -2.276336997747421265e-01 5.125123858451843262e-01 8.546360582113265991e-02 -1.188879758119583130e-01
3.940000000000000000e+02 5.304135894775390625e+01 -1.856450080871582031e+01 -8.932362198829650879e-01 -4.574095085263252258e-02 -2.816931605339050293e-01 8.407174795866012573e-02
3.950000000000000000e+02 5.200526046752929688e+01 -1.753503036499023438e+01 -1.905785351991653442e-01 1.943540424108505249e-01 1.132649602368474007e-03 5.405323579907417297e-02
3.960000000000000000e+02 3.742162322998046875e+01 -1.564993572235107422e+01 -2.367011755704879761e-01 2.070430666208267212e-01 -8.897433988749980927e-03 -1.127889752388000488e-01
3.970000000000000000e+02 4.108754348754882812e+01 -1.758283424377441406e+01 -9.585780501365661621e-01 -1.082031607627868652e+00 -6.121829152107238770e-01 -2.878552377223968506e-01
3.980000000000000000e+02 3.782904815673828125e+01 -1.747821235656738281e+01 -5.983221530914306641e-01 1.623266488313674927e-01 -1.307986527681350708e-01 -2.760706543922424316e-01
3.990000000000000000e+02 3.661197662353515625e+01 -1.457116127014160156e+01 7.618433982133865356e-02 2.806373536586761475e-01 1.070465072989463806e-01 -1.797717660665512085e-01
4.000000000000000000e+02 3.405901336669921875e+01 -1.143185710906982422e+01 3.200831413269042969e-01 6.273249983787536621e-01 2.842224240303039551e-01 -4.651726186275482178e-01
4.010000000000000000e+02 3.241793441772460938e+01 -1.081517887115478516e+01 1.521901041269302368e-01 7.482935190200805664e-01 2.701450884342193604e-01 -2.826326787471771240e-01
4.020000000000000000e+02 2.860085296630859375e+01 -1.053505420684814453e+01 -3.640766739845275879e-01 -1.284445971250534058e-01 -1.477563828229904175e-01 8.295186609029769897e-02
4.030000000000000000e+02 2.346369934082031250e+01 -1.040586090087890625e+01 -9.721463322639465332e-01 -4.104414284229278564e-01 -4.147763252258300781e-01 -5.319737195968627930e-01
4.040000000000000000e+02 2.567166328430175781e+01 -7.713165760040283203e+00 -5.591219067573547363e-01 -2.299512624740600586e+00 -8.575903177261352539e-01 -5.374299287796020508e-01
4.050000000000000000e+02 2.469939422607421875e+01 -9.587899208068847656e+00 -1.469159364700317383e+00 -1.504119515419006348e+00 -8.919836282730102539e-01 -8.513544201850891113e-01
4.060000000000000000e+02 2.256161689758300781e+01 -2.235309410095214844e+01 2.556355856359004974e-02 -2.205165326595306396e-01 -5.848589539527893066e-02 -1.909386217594146729e-01
4.070000000000000000e+02 2.641369628906250000e+01 -2.538751792907714844e+01 5.815615132451057434e-02 -1.721040904521942139e-01 -3.418438136577606201e-02 -1.894776076078414917e-01
4.080000000000000000e+02 2.405400466918945312e+01 -2.979585456848144531e+01 1.532770246267318726e-01 -2.111260443925857544e-01 -1.735470630228519440e-02 -1.702142208814620972e-01
4.090000000000000000e+02 2.345900154113769531e+01 -3.199500465393066406e+01 1.666534692049026489e-01 -2.128852605819702148e-01 -1.386953890323638916e-02 -1.568655520677566528e-01
4.100000000000000000e+02 2.266995620727539062e+01 -3.450184249877929688e+01 1.950508058071136475e-01 -2.351890206336975098e-01 -1.204146351665258408e-02 -1.259229183197021484e-01
4.110000000000000000e+02 2.181813430786132812e+01 -3.738999176025390625e+01 2.095987796783447266e-01 -2.329777926206588745e-01 -7.013701833784580231e-03 -8.170420676469802856e-02
4.120000000000000000e+02 2.194618415832519531e+01 -4.072723770141601562e+01 2.289325147867202759e-01 -2.423531264066696167e-01 -4.026180133223533630e-03 -2.906488999724388123e-02
4.130000000000000000e+02 2.648239707946777344e+01 -4.097153472900390625e+01 3.128736317157745361e-01 -2.224072217941284180e-01 2.713992446660995483e-02 -2.455216459929943085e-02
4.140000000000000000e+02 2.564166259765625000e+01 -3.816511154174804688e+01 2.759672701358795166e-01 -2.330415844917297363e-01 1.287770643830299377e-02 -8.052607625722885132e-02
4.150000000000000000e+02 2.604545783996582031e+01 -3.553954315185546875e+01 2.475599199533462524e-01 -2.110006809234619141e-01 1.096777152270078659e-02 -1.160938441753387451e-01
4.160000000000000000e+02 2.664191627502441406e+01 -3.016587066650390625e+01 1.552411019802093506e-01 -1.839368641376495361e-01 -8.608730509877204895e-03 -1.878828853368759155e-01
4.170000000000000000e+02 2.643391609191894531e+01 -2.758072471618652344e+01 1.146476417779922485e-01 -1.742768734693527222e-01 -1.788876950740814209e-02 -1.883049458265304565e-01
4.180000000000000000e+02 2.546189117431640625e+01 -2.263609695434570312e+01 7.489183917641639709e-03 -1.819033771753311157e-01 -5.232425779104232788e-02 -1.592694222927093506e-01
4.190000000000000000e+02 2.507228279113769531e+01 -1.995606231689453125e+01 -8.796649985015392303e-03 -2.276660352945327759e-01 -7.093880325555801392e-02 -1.332601010799407959e-01
4.200000000000000000e+02 3.077027702331542969e+01 -1.699199104309082031e+01 -1.788882911205291748e-01 8.894707262516021729e-02 -2.698236703872680664e-02 2.530483342707157135e-02
4.210000000000000000e+02 3.184144973754882812e+01 -1.231810569763183594e+01 -6.969746202230453491e-02 4.842884242534637451e-01 1.243772879242897034e-01 -2.867233566939830780e-02
4.220000000000000000e+02 3.073371887207031250e+01 -8.626077651977539062e+00 1.055377498269081116e-01 6.545838713645935059e-01 2.280364930629730225e-01 -3.533259332180023193e-01
4.230000000000000000e+02 3.249735260009765625e+01 -9.193585395812988281e+00 2.963295578956604004e-01 1.135603666305541992e+00 4.295799434185028076e-01 -6.154097914695739746e-01
4.240000000000000000e+02 3.113544654846191406e+01 -6.742481231689453125e+00 2.300464212894439697e-01 1.093335390090942383e+00 3.970145583152770996e-01 -6.145427227020263672e-01
4.250000000000000000e+02 2.995105743408203125e+01 -7.287032604217529297e+00 1.432462185621261597e-01 4.127687811851501465e-01 1.668044924736022949e-01 -4.413686394691467285e-01
4.260000000000000000e+02 2.549030303955078125e+01 -6.329224109649658203e+00 2.130553275346755981e-01 -1.201183080673217773e+00 -2.964383363723754883e-01 -1.106375306844711304e-01
4.270000000000000000e+02 2.695957946777343750e+01 -6.284165382385253906e+00 4.476859048008918762e-02 -1.145033955574035645e+00 -3.300796151161193848e-01 -8.481991291046142578e-01
4.280000000000000000e+02 2.592071723937988281e+01 -9.263041496276855469e+00 -1.100913524627685547e+00 -1.750869512557983398e+00 -8.555349111557006836e-01 -4.317697584629058838e-01
4.290000000000000000e+02 4.668211746215820312e+01 -2.947604179382324219e+00 -1.478111386299133301e+00 -1.430186927318572998e-01 -4.863390326499938965e-01 -2.151480913162231445e-01
4.300000000000000000e+02 4.945235824584960938e+01 -3.636796712875366211e+00 -2.320604473352432251e-01 3.446207344532012939e-01 3.376808762550354004e-02 -3.376554846763610840e-01
4.310000000000000000e+02 4.803713607788085938e+01 -3.227809429168701172e+00 -8.527180552482604980e-01 1.397669315338134766e-01 -2.138853520154953003e-01 -6.392294913530349731e-02
4.320000000000000000e+02 5.317900466918945312e+01 6.339372396469116211e-01 -1.791190624237060547e+00 3.041744530200958252e-01 -4.461048543453216553e-01 -9.979638457298278809e-02
4.330000000000000000e+02 5.395978546142578125e+01 3.431928634643554688e+00 -2.950037457048892975e-02 -3.180364146828651428e-02 -1.839120499789714813e-02 1.273456364870071411e-01
4.340000000000000000e+02 5.421852874755859375e+01 2.156237125396728516e+00 -1.215181469917297363e+00 -5.350741147994995117e-01 -5.250766873359680176e-01 7.482853531837463379e-01
4.350000000000000000e+02 4.884597015380859375e+01 7.756788253784179688e+00 1.836042106151580811e-02 4.005932807922363281e-02 1.752592436969280243e-02 4.870644211769104004e-02
4.360000000000000000e+02 5.072005462646484375e+01 7.267216205596923828e+00 -4.512131679803133011e-03 -2.616688422858715057e-02 -9.203705005347728729e-03 2.348768338561058044e-02
4.370000000000000000e+02 4.697441101074218750e+01 5.741005420684814453e+00 -6.014813482761383057e-02 2.416991442441940308e-02 -1.079346612095832825e-02 2.903853170573711395e-02
4.380000000000000000e+02 4.511801528930664062e+01 3.762428045272827148e+00 -2.241741418838500977e-01 -1.090154498815536499e-01 -9.995687752962112427e-02 -1.036284193396568298e-01
4.390000000000000000e+02 4.637615966796875000e+01 3.817186504602432251e-02 -9.945992827415466309e-01 4.558819532394409180e-02 -2.847033143043518066e-01 -3.475255072116851807e-01
4.400000000000000000e+02 5.035876846313476562e+01 6.432782411575317383e-01 -1.238411068916320801e+00 4.002275168895721436e-01 -2.514550983905792236e-01 -2.152503281831741333e-01
4.410000000000000000e+02 5.167613220214843750e+01 -5.607738494873046875e+00 4.877226948738098145e-01 3.732178807258605957e-01 2.582821846008300781e-01 -5.225707888603210449e-01
4.420000000000000000e+02 5.069736099243164062e+01 -4.474484443664550781e+00 2.714201509952545166e-01 5.070425868034362793e-01 2.335388213396072388e-01 -4.583233296871185303e-01
4.430000000000000000e+02 5.256438446044921875e+01 -6.719017505645751953e+00 4.470301270484924316e-01 1.885388642549514771e-01 1.906706988811492920e-01 -2.916444242000579834e-01
4.440000000000000000e+02 5.335588836669921875e+01 -7.875712394714355469e+00 1.444232761859893799e-01 -1.217094734311103821e-01 6.814143620431423187e-03 -1.013243198394775391e-01
4.450000000000000000e+02 5.492955398559570312e+01 -1.029762554168701172e+01 -6.464705616235733032e-02 1.864406615495681763e-01 3.653808310627937317e-02 1.580935269594192505e-01
4.460000000000000000e+02 5.627624893188476562e+01 -1.729552650451660156e+01 1.130178272724151611e-01 2.445811748504638672e+00 7.676488161087036133e-01 1.283977031707763672e-01
4.470000000000000000e+02 5.724222183227539062e+01 -1.438248348236083984e+01 -1.296555548906326294e-01 1.901299476623535156e+00 5.314931869506835938e-01 3.023875653743743896e-01
4.480000000000000000e+02 6.134197616577148438e+01 -1.867530250549316406e+01 -3.476525545120239258e-01 2.016740322113037109e+00 5.007263422012329102e-01 -3.037972748279571533e-01
4.490000000000000000e+02 6.462061309814453125e+01 -2.334584808349609375e+01 3.017144203186035156e-01 2.225899219512939453e+00 7.582840919494628906e-01 1.352235823869705200e-01
4.500000000000000000e+02 6.855741119384765625e+01 -2.586044692993164062e+01 3.316598236560821533e-01 3.321494102478027344e+00 1.095946192741394043e+00 6.195460557937622070e-01
4.510000000000000000e+02 7.149548339843750000e+01 -2.940129470825195312e+01 2.664432823657989502e-01 4.481300830841064453e+00 1.424323201179504395e+00 5.970290303230285645e-01
4.520000000000000000e+02 7.376370239257812500e+01 -3.320504760742187500e+01 1.666470170021057129e-01 5.088543891906738281e+00 1.576557278633117676e+00 3.813292384147644043e-01
4.530000000000000000e+02 7.924193572998046875e+01 -3.345843124389648438e+01 -4.287570249289274216e-03 6.406158924102783203e+00 1.920561432838439941e+00 5.938999354839324951e-02
4.540000000000000000e+02 7.762061309814453125e+01 -3.358808517456054688e+01 3.012224845588207245e-02 6.042554378509521484e+00 1.821802973747253418e+00 1.894794404506683350e-01
4.550000000000000000e+02 7.923250579833984375e+01 -3.206287384033203125e+01 1.934939622879028320e-02 6.530956268310546875e+00 1.965091705322265625e+00 7.330069690942764282e-02
4.560000000000000000e+02 7.766512298583984375e+01 -3.206917953491210938e+01 2.295459806919097900e-02 6.142869949340820312e+00 1.849747300148010254e+00 2.115885466337203979e-01
4.570000000000000000e+02 7.375011444091796875e+01 -2.929489707946777344e+01 1.496528238058090210e-01 5.217854022979736328e+00 1.610252022743225098e+00 5.635587573051452637e-01
4.580000000000000000e+02 7.162918853759765625e+01 -2.332018661499023438e+01 2.603419423103332520e-01 4.528686046600341797e+00 1.436708331108093262e+00 1.001288533210754395e+00
4.590000000000000000e+02 6.655861663818359375e+01 -2.182578659057617188e+01 3.571546375751495361e-01 2.277435064315795898e+00 7.903769612312316895e-01 3.222314417362213135e-01
4.600000000000000000e+02 6.359464263916015625e+01 -1.858182334899902344e+01 -3.993013799190521240e-01 1.919599890708923340e+00 4.560895562171936035e-01 -3.796916604042053223e-01
4.610000000000000000e+02 6.170825195312500000e+01 -1.492042255401611328e+01 -7.786878347396850586e-01 2.245765209197998047e+00 4.401231706142425537e-01 6.667268276214599609e-02
4.620000000000000000e+02 5.551346969604492188e+01 -1.171439266204833984e+01 -7.638258486986160278e-02 7.137863636016845703e-01 1.912211328744888306e-01 1.409195959568023682e-01
4.630000000000000000e+02 5.579975509643554688e+01 -1.320353221893310547e+01 -9.590030461549758911e-02 1.399887084960937500e+00 3.911960422992706299e-01 3.088502679020166397e-03
4.640000000000000000e+02 5.772072601318359375e+01 -1.684175872802734375e+01 -1.052613109350204468e-01 1.845695734024047852e+00 5.221303105354309082e-01 -3.758657351136207581e-02
4.650000000000000000e+02 5.825977325439453125e+01 -1.794933319091796875e+01 -2.022395282983779907e-01 1.993453145027160645e+00 5.373640656471252441e-01 -1.459402143955230713e-01
4.660000000000000000e+02 5.684810256958007812e+01 -1.863853263854980469e+01 -3.613799512386322021e-01 1.983219265937805176e+00 4.865517914295196533e-01 -5.601502954959869385e-02
4.670000000000000000e+02 5.717349243164062500e+01 -2.249944686889648438e+01 -2.044592201709747314e-01 1.441830515861511230e+00 3.712113797664642334e-01 4.976058751344680786e-02
4.680000000000000000e+02 5.422834396362304688e+01 -1.999057960510253906e+01 -5.917208790779113770e-01 1.852803081274032593e-01 -1.219321638345718384e-01 1.675200313329696655e-01
4.690000000000000000e+02 5.669646072387695312e+01 -2.086248016357421875e+01 -3.883973360061645508e-01 1.569606423377990723e+00 3.543627262115478516e-01 1.971933692693710327e-01
4.700000000000000000e+02 5.089253234863281250e+01 -2.058640670776367188e+01 -3.253050744533538818e-01 5.046364068984985352e-01 5.379940569400787354e-02 -1.981872767210006714e-01
4.710000000000000000e+02 5.227293395996093750e+01 -2.629959297180175781e+01 2.377821356058120728e-01 7.401791810989379883e-01 2.933883965015411377e-01 -6.861254572868347168e-02
4.720000000000000000e+02 5.083628845214843750e+01 -2.709102439880371094e+01 2.564206719398498535e-01 6.098532080650329590e-01 2.598821520805358887e-01 -8.866786211729049683e-02
4.730000000000000000e+02 5.159796142578125000e+01 -3.110561752319335938e+01 4.663387537002563477e-01 7.720483541488647461e-01 3.715161383152008057e-01 -6.122247502207756042e-02
4.740000000000000000e+02 5.088798522949218750e+01 -3.364833831787109375e+01 5.861914753913879395e-01 7.669198513031005859e-01 4.059334099292755127e-01 -2.835556119680404663e-02
4.750000000000000000e+02 4.920081329345703125e+01 -3.940090942382812500e+01 6.894999146461486816e-01 6.498007178306579590e-01 4.017901718616485596e-01 -2.221632190048694611e-02
4.760000000000000000e+02 4.659986877441406250e+01 -4.089739608764648438e+01 6.803408861160278320e-01 4.538695514202117920e-01 3.402631282806396484e-01 -1.591795124113559723e-02
4.770000000000000000e+02 5.291083145141601562e+01 -4.079043579101562500e+01 7.117357850074768066e-01 1.032578587532043457e+00 5.232943296432495117e-01 3.509396221488714218e-03
4.780000000000000000e+02 5.361663436889648438e+01 -3.755148696899414062e+01 6.867569088935852051e-01 1.112636446952819824e+00 5.398179888725280762e-01 1.470809429883956909e-02
4.790000000000000000e+02 5.417728042602539062e+01 -3.460825347900390625e+01 6.079472899436950684e-01 1.145989060401916504e+00 5.261809229850769043e-01 7.791910320520401001e-03
4.800000000000000000e+02 5.462583923339843750e+01 -3.182859230041503906e+01 5.287683606147766113e-01 1.153078436851501465e+00 5.045540332794189453e-01 4.505672305822372437e-02
4.810000000000000000e+02 5.333164596557617188e+01 -2.825317955017089844e+01 3.825427889823913574e-01 8.533601164817810059e-01 3.707708716392517090e-01 -1.198420301079750061e-02
4.820000000000000000e+02 5.280839538574218750e+01 -2.367163085937500000e+01 4.683079570531845093e-02 6.889986991882324219e-01 2.207488566637039185e-01 -9.534039348363876343e-02
4.830000000000000000e+02 5.551008224487304688e+01 -2.481444168090820312e+01 1.043831482529640198e-01 1.167150974273681641e+00 3.814602494239807129e-01 1.118068620562553406e-01
4.840000000000000000e+02 5.111455917358398438e+01 -2.442628288269042969e+01 2.467974461615085602e-02 5.703864097595214844e-01 1.785198450088500977e-01 -1.181581839919090271e-01
4.850000000000000000e+02 4.910354614257812500e+01 -1.646506118774414062e+01 -2.247414886951446533e-01 6.299919486045837402e-01 1.215751394629478455e-01 -2.307471632957458496e-01
4.860000000000000000e+02 5.003568649291992188e+01 -1.549407577514648438e+01 1.990897804498672485e-01 5.030564665794372559e-01 2.106438726186752319e-01 -3.176993429660797119e-01
4.870000000000000000e+02 4.598475646972656250e+01 -1.247603321075439453e+01 3.473852276802062988e-01 5.611971020698547363e-01 2.725747227668762207e-01 -4.766061604022979736e-01
4.880000000000000000e+02 4.392452621459960938e+01 -1.058573246002197266e+01 4.367814660072326660e-01 -1.361200362443923950e-01 9.019841998815536499e-02 -5.378462672233581543e-01
4.890000000000000000e+02 4.174668884277343750e+01 -1.133526897430419922e+01 3.242730498313903809e-01 -4.819560945034027100e-01 -4.730491340160369873e-02 -4.750398397445678711e-01
4.900000000000000000e+02 4.798986816406250000e+01 -1.343266963958740234e+01 4.325580894947052002e-01 8.536575436592102051e-01 3.858646750450134277e-01 -5.971404314041137695e-01
4.910000000000000000e+02 4.523880386352539062e+01 -8.361819267272949219e+00 1.852371096611022949e-01 9.621298313140869141e-02 8.443503081798553467e-02 -2.379948496818542480e-01
4.920000000000000000e+02 4.221679306030273438e+01 -7.461970329284667969e+00 4.342868328094482422e-01 -4.128644168376922607e-01 6.426728330552577972e-03 -4.208441972732543945e-01
4.930000000000000000e+02 4.411969375610351562e+01 -4.749476909637451172e+00 -1.592795401811599731e-01 -7.100621461868286133e-01 -2.608025074005126953e-01 -1.557872742414474487e-01
4.940000000000000000e+02 4.484397125244140625e+01 -3.811371088027954102e+00 -9.082146286964416504e-01 -7.167718410491943359e-01 -4.874959290027618408e-01 -3.972635567188262939e-01
4.950000000000000000e+02 6.618704223632812500e+01 -2.503242731094360352e+00 -5.253558158874511719e+00 -1.365081548690795898e+00 -1.985591888427734375e+00 2.411267518997192383e+00
4.960000000000000000e+02 6.816775512695312500e+01 -4.373432636260986328e+00 -1.797619581222534180e+00 1.376499235630035400e-01 -4.979908764362335205e-01 5.332022309303283691e-01
4.970000000000000000e+02 6.719287872314453125e+01 -3.384994268417358398e+00 -3.168906688690185547e+00 -5.346570611000061035e-01 -1.111069083213806152e+00 1.751532912254333496e+00
4.980000000000000000e+02 7.092548370361328125e+01 -5.798187255859375000e+00 -2.914055287837982178e-01 2.978308677673339844e+00 8.060709834098815918e-01 -7.817959189414978027e-01
4.990000000000000000e+02 7.159827423095703125e+01 -8.720345497131347656e+00 9.261613488197326660e-01 6.387836933135986328e+00 2.194199562072753906e+00 -1.875381231307983398e+00
5.000000000000000000e+02 7.226223754882812500e+01 -1.145012664794921875e+01 2.615171074867248535e-01 1.012551784515380859e+01 3.116110324859619141e+00 -9.202586114406585693e-02
5.010000000000000000e+02 7.223480987548828125e+01 -1.273869895935058594e+01 2.437404394149780273e-01 1.107448482513427734e+01 3.395467519760131836e+00 5.649989843368530273e-01
5.020000000000000000e+02 7.289225006103515625e+01 -1.359395408630371094e+01 1.024075269699096680e+00 1.048744392395019531e+01 3.453455924987792969e+00 1.134616732597351074e+00
5.030000000000000000e+02 7.232861328125000000e+01 -1.467047786712646484e+01 1.592715144157409668e+00 1.053802967071533203e+01 3.639223575592041016e+00 1.897509932518005371e+00
5.040000000000000000e+02 7.218563079833984375e+01 -1.625954246520996094e+01 1.726386547088623047e-01 7.853632926940917969e+00 2.407881498336791992e+00 1.819639682769775391e+00
5.050000000000000000e+02 7.094281768798828125e+01 -1.634995460510253906e+01 -2.607276141643524170e-01 3.925164461135864258e+00 1.099331021308898926e+00 2.729165554046630859e+00
5.060000000000000000e+02 7.227967834472656250e+01 -1.800973510742187500e+01 -1.489524126052856445e+00 5.675998210906982422e+00 1.255942225456237793e+00 1.712312340736389160e+00
5.070000000000000000e+02 6.899456787109375000e+01 -1.601535224914550781e+01 -2.642895698547363281e+00 -7.359037399291992188e-01 -1.013639807701110840e+00 1.183764576911926270e+00
5.080000000000000000e+02 6.833139801025390625e+01 -2.251078414916992188e+01 4.695883095264434814e-01 2.890820264816284180e+00 1.008122563362121582e+00 8.244975805282592773e-01
5.090000000000000000e+02 7.248299407958984375e+01 -2.141321754455566406e+01 1.412586867809295654e-01 5.088562965393066406e+00 1.568946480751037598e+00 1.238553047180175781e+00
5.100000000000000000e+02 7.212110900878906250e+01 -2.230207061767578125e+01 -2.264834791421890259e-01 4.916878700256347656e+00 1.407118558883666992e+00 1.043903827667236328e+00
5.110000000000000000e+02 7.468664550781250000e+01 -2.338320922851562500e+01 -5.804222449660301208e-02 6.019632816314697266e+00 1.788477182388305664e+00 7.078220248222351074e-01
5.120000000000000000e+02 7.772533416748046875e+01 -2.346456336975097656e+01 -1.109041944146156311e-01 7.139386177062988281e+00 2.108544588088989258e+00 3.041714429855346680e-01
5.130000000000000000e+02 7.936094665527343750e+01 -2.081084060668945312e+01 5.334955453872680664e-02 8.009250640869140625e+00 2.418780088424682617e+00 2.027814462780952454e-02
5.140000000000000000e+02 7.810188293457031250e+01 -2.058545303344726562e+01 -1.818543821573257446e-01 7.632639884948730469e+00 2.235235691070556641e+00 5.654025822877883911e-02
5.150000000000000000e+02 7.940640258789062500e+01 -1.942597770690917969e+01 -1.256403774023056030e-01 8.032155036926269531e+00 2.371954441070556641e+00 -3.457480296492576599e-02
5.160000000000000000e+02 7.836882781982421875e+01 -1.528309822082519531e+01 -3.936581313610076904e-02 7.784210205078125000e+00 2.323453187942504883e+00 -1.050946712493896484e-01
5.170000000000000000e+02 7.619817352294921875e+01 -1.616953659057617188e+01 1.898237615823745728e-01 7.706315040588378906e+00 2.368841648101806641e+00 -1.338510662317276001e-01
5.180000000000000000e+02 7.344376373291015625e+01 -1.809543800354003906e+01 -7.323643565177917480e-01 7.267853260040283203e+00 1.960646629333496094e+00 9.727699160575866699e-01
5.190000000000000000e+02 7.343652343750000000e+01 -2.063639259338378906e+01 -9.730978310108184814e-02 5.838943004608154297e+00 1.722489953041076660e+00 1.088224411010742188e+00
5.200000000000000000e+02 7.569047546386718750e+01 -1.993913841247558594e+01 -4.567717611789703369e-01 7.106967449188232422e+00 1.995058655738830566e+00 3.314305543899536133e-01
5.210000000000000000e+02 7.030355834960937500e+01 -2.009950637817382812e+01 -2.777641117572784424e-01 3.592198133468627930e+00 9.943302273750305176e-01 1.364271640777587891e+00
5.220000000000000000e+02 6.909856414794921875e+01 -5.399342060089111328e+00 -4.263946712017059326e-01 7.917807698249816895e-01 1.096158325672149658e-01 -1.836449652910232544e-01
5.230000000000000000e+02 6.197287368774414062e+01 -1.029164695739746094e+01 -1.573544740676879883e-01 3.178229570388793945e+00 9.062625169754028320e-01 4.386831521987915039e-01
5.240000000000000000e+02 5.738412475585937500e+01 -6.814349174499511719e+00 7.875876426696777344e-01 5.424714088439941406e-01 3.990177214145660400e-01 3.029366433620452881e-01
5.250000000000000000e+02 5.724034881591796875e+01 -9.953649520874023438e+00 1.302588582038879395e-01 1.279533028602600098e+00 4.229375720024108887e-01 4.579351544380187988e-01
5.260000000000000000e+02 6.708205413818359375e+01 -1.419513130187988281e+01 -1.007548332214355469e+00 -3.595630824565887451e-02 -3.130514025688171387e-01 5.559320449829101562e-01
5.270000000000000000e+02 6.267818832397460938e+01 -1.229978847503662109e+01 -6.534121036529541016e-01 2.636631965637207031e+00 5.949659943580627441e-01 1.805705577135086060e-01
5.280000000000000000e+02 6.384755706787109375e+01 -9.584010124206542969e+00 5.000980496406555176e-01 4.009353160858154297e+00 1.352835416793823242e+00 -8.463270664215087891e-01
5.290000000000000000e+02 6.314236450195312500e+01 -5.493839740753173828e+00 1.076459661126136780e-01 7.440809726715087891e+00 2.264536619186401367e+00 4.214830994606018066e-01
5.300000000000000000e+02 6.184208679199218750e+01 -4.333536624908447266e+00 1.514196276664733887e+00 3.735486507415771484e+00 1.574904799461364746e+00 1.109803676605224609e+00
5.310000000000000000e+02 6.423366546630859375e+01 -2.343806028366088867e+00 -1.182584881782531738e+00 4.491814136505126953e+00 9.927688241004943848e-01 3.223450660705566406e+00
5.320000000000000000e+02 6.467482757568359375e+01 -5.500234961509704590e-01 -1.194656848907470703e+00 2.997533321380615234e+00 5.408629775047302246e-01 4.145889282226562500e+00
5.330000000000000000e+02 6.903283691406250000e+01 -1.398983836174011230e+00 -3.024301767349243164e+00 4.032127857208251953e+00 3.023478090763092041e-01 -1.101135730743408203e+00
5.340000000000000000e+02 6.804901123046875000e+01 -5.841187834739685059e-01 -2.777954578399658203e+00 3.933949708938598633e+00 3.467985093593597412e-01 4.139741063117980957e-01
5.350000000000000000e+02 7.125568389892578125e+01 5.575086474418640137e-01 -3.282026052474975586e+00 3.138771772384643555e+00 -4.297633469104766846e-02 -2.145709276199340820e+00
5.360000000000000000e+02 7.069078063964843750e+01 1.680429100990295410e+00 -3.915842771530151367e-01 4.217442512512207031e+00 1.147757530212402344e+00 -2.396255493164062500e+00
5.370000000000000000e+02 6.989829254150390625e+01 2.718769788742065430e+00 2.707456827163696289e+00 1.106889629364013672e+01 4.132905960083007812e+00 -3.845424175262451172e+00
5.380000000000000000e+02 6.803683471679687500e+01 8.498618125915527344e+00 4.299378991127014160e-01 2.881728649139404297e+00 9.934999942779541016e-01 1.107519984245300293e+00
5.390000000000000000e+02 7.108884429931640625e+01 8.491051673889160156e+00 -4.746253490447998047e+00 8.127789497375488281e+00 1.014460802078247070e+00 2.530189752578735352e+00
5.400000000000000000e+02 7.073283386230468750e+01 8.207559585571289062e+00 -3.017006397247314453e+00 1.619027709960937500e+01 3.951981067657470703e+00 4.287832260131835938e+00
5.410000000000000000e+02 7.171065521240234375e+01 8.939102172851562500e+00 7.278621196746826172e-01 4.386882305145263672e+00 1.534423351287841797e+00 -2.832449913024902344e+00
5.420000000000000000e+02 7.188866424560546875e+01 1.014731884002685547e+01 9.397532463073730469e+00 3.679310560226440430e+00 3.923053026199340820e+00 3.371577024459838867e+00
5.430000000000000000e+02 7.611356353759765625e+01 1.116871833801269531e+01 7.086472120136022568e-03 9.025363922119140625e+00 2.709735155105590820e+00 -5.698333382606506348e-01
5.440000000000000000e+02 7.949575805664062500e+01 8.343269348144531250e+00 1.703956425189971924e-01 2.531657934188842773e+00 8.106160759925842285e-01 2.224596142768859863e-01
5.450000000000000000e+02 7.820825958251953125e+01 1.106060218811035156e+01 -3.537518978118896484e-01 7.086348056793212891e+00 2.019778728485107422e+00 8.318135142326354980e-01
5.460000000000000000e+02 7.940453338623046875e+01 1.112989902496337891e+01 -1.802160441875457764e-01 5.078461647033691406e+00 1.469473600387573242e+00 5.465325713157653809e-01
5.470000000000000000e+02 7.818740081787109375e+01 1.255825138092041016e+01 -1.107191964983940125e-01 7.012732028961181641e+00 2.070603847503662109e+00 7.394331693649291992e-01
5.480000000000000000e+02 7.597170257568359375e+01 1.581674861907958984e+01 -2.887305319309234619e-01 7.529047966003417969e+00 2.172095298767089844e+00 5.487641692161560059e-01
5.490000000000000000e+02 7.194915771484375000e+01 1.926100540161132812e+01 -7.605137228965759277e-01 6.196530342102050781e+00 1.630805015563964844e+00 -6.745728254318237305e-01
5.500000000000000000e+02 6.889669036865234375e+01 2.573413658142089844e+01 5.499248206615447998e-02 4.082039356231689453e+00 1.241109490394592285e+00 -8.466588854789733887e-01
5.510000000000000000e+02 6.250699996948242188e+01 2.680274772644042969e+01 4.068005084991455078e-01 1.924362897872924805e+00 6.993490457534790039e-01 -4.987977743148803711e-01
5.520000000000000000e+02 5.920070266723632812e+01 3.075279617309570312e+01 6.051463484764099121e-01 1.418033957481384277e+00 6.069540977478027344e-01 -2.074175328016281128e-01
5.530000000000000000e+02 5.809946060180664062e+01 3.314739227294921875e+01 6.939879655838012695e-01 1.361826300621032715e+00 6.167442798614501953e-01 -1.299094408750534058e-01
5.540000000000000000e+02 5.643001937866210938e+01 3.559801483154296875e+01 7.834123969078063965e-01 1.114427328109741211e+00 5.693519115447998047e-01 -5.487050116062164307e-02
5.550000000000000000e+02 5.290587234497070312e+01 4.056084060668945312e+01 8.602334260940551758e-01 7.138636708259582520e-01 4.722291231155395508e-01 4.841848567593842745e-04
5.560000000000000000e+02 4.790044021606445312e+01 4.045954895019531250e+01 7.900457978248596191e-01 1.700724661350250244e-01 2.880354821681976318e-01 4.468847438693046570e-02
5.570000000000000000e+02 4.646086120605468750e+01 3.504323196411132812e+01 6.486963033676147461e-01 4.205566272139549255e-02 2.072255909442901611e-01 1.742784082889556885e-01
5.580000000000000000e+02 4.290582656860351562e+01 3.279825210571289062e+01 4.511082768440246582e-01 -1.202419400215148926e-01 9.925990551710128784e-02 2.664442360401153564e-01
5.590000000000000000e+02 4.120463943481445312e+01 2.943416213989257812e+01 2.285492122173309326e-01 -1.462353169918060303e-01 2.469416521489620209e-02 3.499565720558166504e-01
5.600000000000000000e+02 4.364859390258789062e+01 2.534757995605468750e+01 -1.920774206519126892e-02 -1.201656013727188110e-01 -4.181200265884399414e-02 4.404613673686981201e-01
5.610000000000000000e+02 4.283697891235351562e+01 1.906596755981445312e+01 -7.501884698867797852e-01 3.830336779356002808e-02 -2.135655283927917480e-01 3.690326213836669922e-01
5.620000000000000000e+02 4.285329818725585938e+01 1.694087219238281250e+01 -9.775232672691345215e-01 1.695133447647094727e-01 -2.424029707908630371e-01 2.326491773128509521e-01
5.630000000000000000e+02 3.849300765991210938e+01 1.385398674011230469e+01 -4.992211461067199707e-01 6.480150669813156128e-02 -1.303258985280990601e-01 1.134201139211654663e-01
5.640000000000000000e+02 4.422490692138671875e+01 1.313893127441406250e+01 -4.107247889041900635e-01 7.703711162321269512e-04 -1.229863315820693970e-01 -1.441614329814910889e-01
5.650000000000000000e+02 4.482244110107421875e+01 1.494328689575195312e+01 -9.615849852561950684e-01 9.999226033687591553e-02 -2.584778070449829102e-01 -1.837681531906127930e-01
5.660000000000000000e+02 4.403025817871093750e+01 1.194656562805175781e+01 -1.398094296455383301e-01 -3.663617745041847229e-02 -5.293368175625801086e-02 -8.717248588800430298e-02
5.670000000000000000e+02 7.557270812988281250e+01 7.923930644989013672e+00 5.465392589569091797e+00 1.969544219970703125e+01 7.548250675201416016e+00 -7.309261798858642578e+00
5.680000000000000000e+02 7.728282165527343750e+01 5.853064060211181641e+00 2.118513345718383789e+00 1.281279277801513672e+01 4.479391574859619141e+00 -3.239860773086547852e+00
5.690000000000000000e+02 7.603914642333984375e+01 4.774820804595947266e+00 6.775116175413131714e-02 1.815468597412109375e+01 5.466731071472167969e+00 -2.358259707689285278e-01
5.700000000000000000e+02 7.600318145751953125e+01 2.208957195281982422e+00 -2.344034194946289062e+00 9.150459289550781250e+00 2.041927576065063477e+00 -7.194642424583435059e-01
5.710000000000000000e+02 7.491982269287109375e+01 1.693131923675537109e+00 -3.460165023803710938e+00 3.034713745117187500e+00 -1.276353448629379272e-01 -7.024554610252380371e-01
5.720000000000000000e+02 7.550019836425781250e+01 3.392072021961212158e-01 -4.203778743743896484e+00 6.811357021331787109e+00 7.822734713554382324e-01 7.307848334312438965e-01
5.730000000000000000e+02 7.379891967773437500e+01 9.276950359344482422e-01 -6.683529376983642578e+00 -9.375770688056945801e-01 -2.286331892013549805e+00 -1.851108074188232422e+00
5.740000000000000000e+02 7.249781799316406250e+01 6.502767205238342285e-01 -5.909165859222412109e+00 -2.319763451814651489e-01 -1.842342734336853027e+00 -1.646254301071166992e+00
5.750000000000000000e+02 7.938987731933593750e+01 -8.315443992614746094e+00 1.133909355849027634e-02 9.711242675781250000e+00 2.916774511337280273e+00 3.946394920349121094e-01
5.760000000000000000e+02 7.825360870361328125e+01 -5.451220989227294922e+00 -3.061842918395996094e-02 1.038103103637695312e+01 3.105123758316040039e+00 1.050523281097412109e+00
5.770000000000000000e+02 7.942311859130859375e+01 -5.538946628570556641e+00 -6.687876768410205841e-03 1.170599937438964844e+01 3.509793281555175781e+00 4.093954265117645264e-01
5.780000000000000000e+02 7.830347442626953125e+01 -4.093188762664794922e+00 3.778911661356687546e-03 1.108456802368164062e+01 3.326504230499267578e+00 1.093616962432861328e+00
5.790000000000000000e+02 7.583100891113281250e+01 -3.902450084686279297e+00 -2.894768416881561279e-01 7.488492012023925781e+00 2.159704685211181641e+00 1.200294852256774902e+00
5.800000000000000000e+02 7.381594848632812500e+01 -5.515581607818603516e+00 -2.184210717678070068e-01 5.837924003601074219e+00 1.685850858688354492e+00 5.285586118698120117e-01
5.810000000000000000e+02 6.549685668945312500e+01 1.202378654479980469e+01 -7.230940461158752441e-02 -9.353865385055541992e-01 -3.023087978363037109e-01 4.702844321727752686e-01
5.820000000000000000e+02 6.587559509277343750e+01 1.206884860992431641e+01 -5.704383254051208496e-01 -7.139613628387451172e-01 -3.853199183940887451e-01 8.097645640373229980e-01
5.830000000000000000e+02 6.611443328857421875e+01 1.311871433258056641e+01 -1.185771942138671875e+00 4.430657625198364258e-01 -2.228118330240249634e-01 -1.520313918590545654e-01
5.840000000000000000e+02 7.187042236328125000e+01 1.036363315582275391e+01 8.520321846008300781e+00 4.494167804718017578e+00 3.904346704483032227e+00 4.099293231964111328e+00
5.850000000000000000e+02 6.940829467773437500e+01 3.942649602890014648e+00 1.972083926200866699e+00 1.927827072143554688e+01 6.375106811523437500e+00 -1.408464312553405762e+00
5.860000000000000000e+02 6.818264770507812500e+01 4.717772483825683594e+00 4.131967067718505859e+00 1.004489326477050781e+01 4.253057956695556641e+00 2.453561067581176758e+00
5.870000000000000000e+02 6.461166381835937500e+01 8.371607780456542969e+00 -1.497658967971801758e+00 -3.608202695846557617e+00 -1.531758546829223633e+00 -2.398341655731201172e+00
5.880000000000000000e+02 6.599079132080078125e+01 7.594161987304687500e+00 3.659321963787078857e-01 1.002107381820678711e+00 4.104118645191192627e-01 -1.258164882659912109e+00
5.890000000000000000e+02 6.719651031494140625e+01 8.258860588073730469e+00 1.219225600361824036e-01 2.098219871520996094e+00 6.660427451133728027e-01 -7.252633571624755859e-01
5.900000000000000000e+02 6.487758636474609375e+01 4.513570785522460938e+00 1.501029372215270996e+00 4.266146123409271240e-01 5.782932043075561523e-01 1.460884332656860352e+00
5.910000000000000000e+02 6.387025833129882812e+01 5.010644912719726562e+00 6.528140306472778320e-01 -1.567348122596740723e+00 -2.743602097034454346e-01 1.247506737709045410e-01
5.920000000000000000e+02 6.110130310058593750e+01 -2.307804971933364868e-01 -2.171643733978271484e+00 1.851548194885253906e+00 -9.602867066860198975e-02 8.174842000007629395e-01
5.930000000000000000e+02 6.210740661621093750e+01 -7.147879123687744141e+00 3.888853490352630615e-01 4.610242843627929688e+00 1.499738454818725586e+00 4.609652161598205566e-01
5.940000000000000000e+02 6.285579681396484375e+01 -9.814785003662109375e+00 1.915745437145233154e-02 3.519603490829467773e+00 1.061628222465515137e+00 -6.246633827686309814e-02
5.950000000000000000e+02 6.301058197021484375e+01 -1.101545143127441406e+01 -1.439476162195205688e-01 2.952684879302978516e+00 8.426211476325988770e-01 8.599057048559188843e-02
5.960000000000000000e+02 5.448091506958007812e+01 8.057997226715087891e-01 -2.803152084350585938e+00 -3.274798691272735596e-01 -9.391896128654479980e-01 2.644656896591186523e-01
5.970000000000000000e+02 5.440818786621093750e+01 -5.669164657592773438e-01 -2.173252344131469727e+00 -3.093161880970001221e-01 -7.447705864906311035e-01 -7.754303216934204102e-01
5.980000000000000000e+02 5.430941772460937500e+01 -5.343621730804443359e+00 5.716864466667175293e-01 -2.602021098136901855e-01 9.344529360532760620e-02 -2.924468815326690674e-01
5.990000000000000000e+02 5.310919952392578125e+01 -3.148986816406250000e+00 -3.437435626983642578e-01 -1.240622624754905701e-01 -1.403417438268661499e-01 -4.954505860805511475e-01
6.000000000000000000e+02 5.650083160400390625e+01 -2.428357362747192383e+00 -3.136012554168701172e-01 -5.520839691162109375e-01 -2.597055733203887939e-01 -4.493313133716583252e-01
6.010000000000000000e+02 5.651643371582031250e+01 -6.285216331481933594e+00 7.602511048316955566e-01 2.862531244754791260e-01 3.139512836933135986e-01 8.120105415582656860e-02
6.020000000000000000e+02 5.872692871093750000e+01 1.614330291748046875e+00 -3.328171014785766602e+00 -7.627580761909484863e-01 -1.227278709411621094e+00 -1.472039103507995605e+00
6.030000000000000000e+02 5.736791992187500000e+01 9.111317396163940430e-01 -5.024295806884765625e+00 -8.069517016410827637e-01 -1.749374270439147949e+00 -1.187835574150085449e+00
6.040000000000000000e+02 5.750581741333007812e+01 -2.988584995269775391e+00 7.138549536466598511e-02 -2.993011474609375000e-01 -6.837470084428787231e-02 -6.693636998534202576e-03
6.050000000000000000e+02 5.356267547607421875e+01 4.610548973083496094e+00 -5.347555130720138550e-02 7.984492182731628418e-02 7.910811342298984528e-03 3.267639875411987305e-02
6.060000000000000000e+02 5.444945526123046875e+01 5.445844650268554688e+00 5.883790086954832077e-03 7.296727597713470459e-02 2.365531958639621735e-02 3.064906597137451172e-02
6.070000000000000000e+02 5.423563766479492188e+01 8.585210800170898438e+00 -1.123725250363349915e-02 1.363378949463367462e-02 7.189611787907779217e-04 -2.540251612663269043e-02
6.080000000000000000e+02 5.593553924560546875e+01 8.953459739685058594e+00 1.319150323979556561e-03 7.114293985068798065e-03 2.530033467337489128e-03 2.042258623987436295e-03
6.090000000000000000e+02 5.449632263183593750e+01 9.267148971557617188e+00 3.769698319956660271e-03 1.041465438902378082e-02 4.255305975675582886e-03 -7.910819724202156067e-03
6.100000000000000000e+02 5.176673126220703125e+01 9.394669532775878906e+00 2.480151876807212830e-02 -9.780005551874637604e-03 4.506453871726989746e-03 4.512830171734094620e-03
6.110000000000000000e+02 5.012876129150390625e+01 9.475786209106445312e+00 1.953362487256526947e-02 -2.331115305423736572e-03 5.160752683877944946e-03 1.224061101675033569e-02
6.120000000000000000e+02 5.066390228271484375e+01 9.395500183105468750e+00 4.373850300908088684e-02 -1.374023500829935074e-03 1.270934380590915680e-02 1.763210259377956390e-02
6.130000000000000000e+02 4.866512680053710938e+01 5.738697052001953125e+00 -1.475718468427658081e-01 1.596985012292861938e-02 -3.948060050606727600e-02 3.521584440022706985e-03
6.140000000000000000e+02 5.511668777465820312e+01 6.568431377410888672e+00 1.424069283530116081e-03 6.030104681849479675e-02 1.851753517985343933e-02 1.178690791130065918e-02
6.150000000000000000e+02 5.585713195800781250e+01 7.705811500549316406e+00 6.544763222336769104e-03 1.319940574467182159e-02 5.923250690102577209e-03 6.532947998493909836e-03
6.160000000000000000e+02 4.498319625854492188e+01 2.070064544677734375e+00 -6.245766878128051758e-01 -1.070182770490646362e-01 -2.194784879684448242e-01 -3.081117272377014160e-01
6.170000000000000000e+02 4.330698776245117188e+01 1.715836524963378906e+00 -6.914359927177429199e-01 -3.261334896087646484e-01 -3.052708506584167480e-01 -3.315647840499877930e-01
6.180000000000000000e+02 4.239270401000976562e+01 -8.835911750793457031e-01 -1.513325333595275879e+00 -5.632340908050537109e-02 -4.708946347236633301e-01 1.710113584995269775e-01
6.190000000000000000e+02 3.809928512573242188e+01 -1.962958574295043945e-01 -2.444226026535034180e+00 -1.658605188131332397e-01 -7.830259203910827637e-01 7.594083547592163086e-01
6.200000000000000000e+02 4.040058898925781250e+01 7.485192298889160156e+00 2.643050160259008408e-03 -1.575324684381484985e-02 -3.933058585971593857e-03 -2.019202802330255508e-03
6.210000000000000000e+02 4.043282699584960938e+01 8.709707260131835938e+00 3.785355482250452042e-03 -5.219755228608846664e-03 -4.303198656998574734e-04 3.085298929363489151e-03
6.220000000000000000e+02 3.750394058227539062e+01 9.333698272705078125e+00 1.220360025763511658e-02 -2.301029628142714500e-03 2.970771165564656258e-03 -2.771145431324839592e-03
6.230000000000000000e+02 3.463953399658203125e+01 7.917186260223388672e+00 7.934230566024780273e-02 -1.099155005067586899e-02 2.050522528588771820e-02 2.637272700667381287e-02
6.240000000000000000e+02 3.239179229736328125e+01 6.449720859527587891e+00 2.516041398048400879e-01 5.970326811075210571e-02 9.339221566915512085e-02 1.177394315600395203e-01
6.250000000000000000e+02 3.291267013549804688e+01 3.630333185195922852e+00 -6.338889896869659424e-02 -2.091175466775894165e-01 -8.175193518400192261e-02 -3.056615591049194336e-01
6.260000000000000000e+02 3.028626251220703125e+01 4.687441825866699219e+00 7.721122503280639648e-01 2.410958409309387207e-01 3.039624392986297607e-01 3.856755793094635010e-01
6.270000000000000000e+02 2.296098709106445312e+01 -2.442676782608032227e+00 2.286772709339857101e-03 1.725040972232818604e-01 5.243726074695587158e-02 -1.028541624546051025e-01
6.280000000000000000e+02 2.561076354980468750e+01 -4.848551750183105469e+00 8.421038836240768433e-02 -6.602652072906494141e-01 -1.728164404630661011e-01 -3.553545475006103516e-01
6.290000000000000000e+02 2.156915283203125000e+01 -8.466978073120117188e+00 -1.439579874277114868e-01 -1.029233448207378387e-03 -4.349616542458534241e-02 2.786681242287158966e-02
6.300000000000000000e+02 2.220423507690429688e+01 -1.147274398803710938e+01 -4.291267395019531250e-01 -2.545185983180999756e-01 -2.050935924053192139e-01 -3.581364750862121582e-01
6.310000000000000000e+02 2.263782691955566406e+01 -9.278779983520507812e+00 -7.291049957275390625e-01 -2.662693522870540619e-02 -2.267195731401443481e-01 -2.968599274754524231e-02
6.320000000000000000e+02 1.955190277099609375e+01 -6.550825595855712891e+00 1.304719969630241394e-02 1.611488498747348785e-02 8.748625405132770538e-03 -3.459723666310310364e-02
6.330000000000000000e+02 1.856708145141601562e+01 -5.580913543701171875e+00 3.445425629615783691e-02 4.534445703029632568e-02 2.393961325287818909e-02 -2.144508436322212219e-02
6.340000000000000000e+02 1.572391986846923828e+01 -3.328933954238891602e+00 2.174452133476734161e-02 -1.017993222922086716e-02 3.469376824796199799e-03 -1.956444047391414642e-02
6.350000000000000000e+02 1.181433868408203125e+01 -1.954532623291015625e+00 1.884065754711627960e-02 -1.201616134494543076e-02 2.047348767518997192e-03 -5.273908842355012894e-03
6.360000000000000000e+02 1.020776176452636719e+01 -2.533027172088623047e+00 1.303467340767383575e-02 1.167038106359541416e-03 4.260513465851545334e-03 3.134400583803653717e-03
6.370000000000000000e+02 8.283539772033691406e+00 -6.229060649871826172e+00 -1.225826609879732132e-02 -5.009737331420183182e-03 -5.180401261895895004e-03 3.884292673319578171e-03
6.380000000000000000e+02 7.630569458007812500e+00 -1.036189079284667969e+01 -3.881580010056495667e-02 -1.628713682293891907e-02 -1.653088070452213287e-02 -2.176990360021591187e-02
6.390000000000000000e+02 9.819349288940429688e+00 -1.547244358062744141e+01 -6.073204055428504944e-02 -6.643598526716232300e-02 -3.815040737390518188e-02 -9.387151896953582764e-02
6.400000000000000000e+02 6.252450466156005859e+00 -1.640577697753906250e+01 -2.911431528627872467e-02 -5.653851851820945740e-02 -2.569585107266902924e-02 -6.519632041454315186e-02
6.410000000000000000e+02 6.882022380828857422e+00 -2.136458969116210938e+01 -1.642490923404693604e-02 -1.188368424773216248e-01 -4.057852551341056824e-02 -1.059983596205711365e-01
6.420000000000000000e+02 5.121983051300048828e+00 -2.412641143798828125e+01 -2.206621284130960703e-04 -1.509584784507751465e-01 -4.535374045372009277e-02 -8.205800503492355347e-02
6.430000000000000000e+02 6.544447898864746094e+00 -2.810036468505859375e+01 1.087325159460306168e-02 -1.980918049812316895e-01 -5.616556480526924133e-02 -9.580272436141967773e-02
6.440000000000000000e+02 7.148402214050292969e+00 -3.009251403808593750e+01 2.047097310423851013e-02 -2.143416255712509155e-01 -5.816119164228439331e-02 -9.282292425632476807e-02
6.450000000000000000e+02 2.588076114654541016e+00 -3.485297393798828125e+01 6.599614396691322327e-03 -2.951352894306182861e-01 -8.656070381402969360e-02 -2.491292357444763184e-02
6.460000000000000000e+02 6.166625499725341797e+00 -3.804099655151367188e+01 2.982835471630096436e-02 -2.717141509056091309e-01 -7.256574183702468872e-02 -3.829240426421165466e-02
6.470000000000000000e+02 8.054045677185058594e+00 -4.113334274291992188e+01 3.905420005321502686e-02 -2.681571245193481445e-01 -6.873087584972381592e-02 -1.431718282401561737e-02
6.480000000000000000e+02 8.705859184265136719e+00 -3.608327102661132812e+01 4.876749217510223389e-02 -2.564522624015808105e-01 -6.230542808771133423e-02 -5.846035107970237732e-02
6.490000000000000000e+02 9.200063705444335938e+00 -2.603783798217773438e+01 1.332109421491622925e-02 -1.842274963855743408e-01 -5.127191916108131409e-02 -1.282680183649063110e-01
6.500000000000000000e+02 8.986487388610839844e+00 -2.273735237121582031e+01 -8.203019388020038605e-03 -1.485313177108764648e-01 -4.702029749751091003e-02 -1.315918117761611938e-01
6.510000000000000000e+02 9.201853752136230469e+00 -2.000737953186035156e+01 -3.718797862529754639e-02 -1.056248545646667480e-01 -4.284384846687316895e-02 -1.242961809039115906e-01
6.520000000000000000e+02 1.163152313232421875e+01 -1.675887298583984375e+01 -7.064533978700637817e-02 -9.078092873096466064e-02 -4.842787981033325195e-02 -1.306786835193634033e-01
6.530000000000000000e+02 1.183285140991210938e+01 -1.207705688476562500e+01 -9.331671893596649170e-02 -3.471999987959861755e-02 -3.841101750731468201e-02 -6.435778737068176270e-02
6.540000000000000000e+02 1.090140914916992188e+01 -8.712704658508300781e+00 -5.313152447342872620e-02 -9.143076837062835693e-03 -1.868238113820552826e-02 -1.342500932514667511e-02
6.550000000000000000e+02 1.296812057495117188e+01 -5.827472686767578125e+00 -1.481640245765447617e-02 -3.908621147274971008e-03 -5.617507267743349075e-03 6.776333320885896683e-03
6.560000000000000000e+02 1.148996067047119141e+01 -3.467231512069702148e+00 8.337385021150112152e-03 -1.624785922467708588e-02 -2.373142633587121964e-03 -4.565991926938295364e-03
6.570000000000000000e+02 1.501835250854492188e+01 -2.059388875961303711e+00 1.642244122922420502e-02 7.116021588444709778e-04 5.140212830156087875e-03 -1.087557245045900345e-02
6.580000000000000000e+02 8.808417320251464844e+00 -2.392861366271972656e+00 1.394227333366870880e-02 1.448265829822048545e-04 4.226129967719316483e-03 5.763520486652851105e-03
6.590000000000000000e+02 8.100585937500000000e+00 -1.782369256019592285e+00 1.578790694475173950e-02 5.471951444633305073e-04 4.900530446320772171e-03 4.139100667089223862e-03
6.600000000000000000e+02 6.096662044525146484e+00 -2.726153373718261719e+00 8.858379907906055450e-03 -1.908017904497683048e-03 2.085108542814850807e-03 6.465935148298740387e-03
6.610000000000000000e+02 5.884781837463378906e+00 -3.985435009002685547e+00 4.908960778266191483e-03 -3.789306385442614555e-03 3.358962130732834339e-04 9.370875544846057892e-03
6.620000000000000000e+02 4.900949001312255859e+00 -3.160187959671020508e+00 4.989530425518751144e-03 3.146057482808828354e-03 2.440676325932145119e-03 9.668764658272266388e-03
6.630000000000000000e+02 1.896545886993408203e+00 -1.976574420928955078e+00 2.009475370869040489e-03 1.902081188745796680e-03 1.173467026092112064e-03 3.133878810331225395e-03
6.640000000000000000e+02 2.624056339263916016e+00 -1.903510212898254395e+00 4.580881912261247635e-03 6.066054920665919781e-04 1.556246192194521427e-03 5.417705979198217392e-03
6.650000000000000000e+02 5.826895833015441895e-01 -5.059042453765869141e+00 -1.001281896606087685e-03 1.377673819661140442e-02 3.832636866718530655e-03 2.743549644947052002e-03
6.660000000000000000e+02 1.642695784568786621e+00 -8.024758338928222656e+00 -6.045281770639121532e-04 1.539873331785202026e-02 4.438261501491069794e-03 3.960366826504468918e-03
6.670000000000000000e+02 4.130122184753417969e+00 -1.072922706604003906e+01 -1.167849637567996979e-02 -7.838486693799495697e-03 -5.855094641447067261e-03 -9.208467788994312286e-03
6.680000000000000000e+02 4.895172595977783203e+00 -8.287742614746093750e+00 -1.351500023156404495e-02 -2.814727602526545525e-03 -4.898918326944112778e-03 8.399051148444414139e-04
6.690000000000000000e+02 3.944772243499755859e+00 -5.877008914947509766e+00 -1.354573178105056286e-03 3.568684915080666542e-04 -2.993113885167986155e-04 8.362614549696445465e-03
6.700000000000000000e+02 3.364288568496704102e+00 -1.857877731323242188e+00 5.232897121459245682e-03 1.028684084303677082e-03 1.878474256955087185e-03 4.706881940364837646e-03
6.710000000000000000e+02 2.746437072753906250e+00 -2.698068857192993164e+00 3.841633442789316177e-03 2.307263435795903206e-03 1.844669110141694546e-03 6.793011911213397980e-03
6.720000000000000000e+02 5.603713989257812500e-01 -9.312642097473144531e+00 1.204840256832540035e-03 2.850023470818996429e-02 8.911523036658763885e-03 5.770001444034278393e-04
6.730000000000000000e+02 1.763017416000366211e+00 -1.075275993347167969e+01 -1.369256060570478439e-03 1.281892694532871246e-02 3.434901125729084015e-03 -2.407077001407742500e-03
6.740000000000000000e+02 4.338388442993164062e+00 -1.208108711242675781e+01 -1.747896708548069000e-02 -1.283700019121170044e-02 -9.094789624214172363e-03 -1.911617442965507507e-02
6.750000000000000000e+02 3.957532644271850586e+00 -9.445810317993164062e+00 -1.151373330503702164e-02 -8.311236160807311535e-04 -3.703457070514559746e-03 -2.751949243247509003e-03
6.760000000000000000e+02 6.167564392089843750e-01 -1.212383174896240234e+01 1.435966929420828819e-03 2.481494285166263580e-02 7.875273004174232483e-03 -2.381419762969017029e-03
6.770000000000000000e+02 1.944487571716308594e+00 -1.356179618835449219e+01 -2.052070572972297668e-03 -1.946551725268363953e-03 -1.199586666189134121e-03 -1.242360286414623260e-02
6.780000000000000000e+02 7.028371691703796387e-01 -1.638237762451171875e+01 -3.688428783789277077e-03 -8.342958055436611176e-03 -3.609415842220187187e-03 -8.101651445031166077e-03
6.790000000000000000e+02 2.174112558364868164e+00 -1.790505027770996094e+01 -5.663281772285699844e-03 -4.578508436679840088e-02 -1.543451007455587387e-02 -2.892597392201423645e-02
6.800000000000000000e+02 2.238180875778198242e+00 -2.080088233947753906e+01 -3.987274132668972015e-03 -8.697038143873214722e-02 -2.728729695081710815e-02 -3.653614968061447144e-02
6.810000000000000000e+02 9.002739787101745605e-01 -2.774753379821777344e+01 5.297099123708903790e-04 -2.071889787912368774e-01 -6.199777871370315552e-02 -1.563625037670135498e-02
6.820000000000000000e+02 2.748665571212768555e+00 -2.792814064025878906e+01 2.244632923975586891e-03 -2.042093575000762939e-01 -6.058941781520843506e-02 -4.894779622554779053e-02
6.830000000000000000e+02 8.585837483406066895e-01 -3.476755905151367188e+01 2.389292465522885323e-03 -3.169133365154266357e-01 -9.435721486806869507e-02 -8.595038205385208130e-03
6.840000000000000000e+02 8.224399685859680176e-01 -3.618936920166015625e+01 4.270868666935712099e-04 -3.288016021251678467e-01 -9.851235151290893555e-02 -6.024532485753297806e-03
6.850000000000000000e+02 1.226028084754943848e+00 -4.001063537597656250e+01 3.547035856172442436e-03 -3.415707647800445557e-01 -1.014071181416511536e-01 1.448187162168323994e-03
6.860000000000000000e+02 2.002028942108154297e+00 -4.160415649414062500e+01 -2.343178959563374519e-03 -3.405952751636505127e-01 -1.028815284371376038e-01 7.145431009121239185e-04
6.870000000000000000e+02 1.245830059051513672e+01 -4.112321472167968750e+01 8.930364996194839478e-02 -2.534120082855224609e-01 -4.923250526189804077e-02 -1.122096274048089981e-02
6.880000000000000000e+02 1.205110168457031250e+01 -3.827068710327148438e+01 8.354555815458297729e-02 -2.541068494319915771e-01 -5.116838589310646057e-02 -4.833109304308891296e-02
6.890000000000000000e+02 1.337912940979003906e+01 -3.427669906616210938e+01 8.191292732954025269e-02 -2.410843968391418457e-01 -4.775143787264823914e-02 -1.040366813540458679e-01
6.900000000000000000e+02 1.311609172821044922e+01 -3.018053436279296875e+01 5.887249112129211426e-02 -2.239836603403091431e-01 -4.953334853053092957e-02 -1.366930007934570312e-01
6.910000000000000000e+02 1.114557456970214844e+01 -2.796511650085449219e+01 2.867767401039600372e-02 -1.942714452743530273e-01 -4.967813193798065186e-02 -1.384599953889846802e-01
6.920000000000000000e+02 1.241466426849365234e+01 -2.288841056823730469e+01 -5.687750410288572311e-03 -1.670796573162078857e-01 -5.183022096753120422e-02 -1.681899726390838623e-01
6.930000000000000000e+02 1.117662048339843750e+01 -1.903807067871093750e+01 -5.922747403383255005e-02 -1.028378307819366455e-01 -4.861959069967269897e-02 -1.478474885225296021e-01
6.940000000000000000e+02 1.680244827270507812e+01 -1.576778316497802734e+01 -1.467352062463760376e-01 -1.300296783447265625e-01 -8.302946388721466064e-02 -2.123574167490005493e-01
6.950000000000000000e+02 1.401924419403076172e+01 -1.443518543243408203e+01 -1.357274502515792847e-01 -6.169690564274787903e-02 -5.922730639576911926e-02 -1.452073454856872559e-01
6.960000000000000000e+02 1.720341110229492188e+01 -1.065708446502685547e+01 -2.199981063604354858e-01 2.130148932337760925e-03 -6.536038219928741455e-02 -6.572038680315017700e-02
6.970000000000000000e+02 1.563987350463867188e+01 -6.172916412353515625e+00 -1.540576852858066559e-02 8.026953786611557007e-03 -2.213644562289118767e-03 3.199977334588766098e-03
6.980000000000000000e+02 1.662860298156738281e+01 -3.787762403488159180e+00 3.289511799812316895e-02 4.594573751091957092e-02 2.365225739777088165e-02 -1.853171549737453461e-02
6.990000000000000000e+02 1.556729698181152344e+01 -3.736586380004882812e+01 1.285446286201477051e-01 -2.425891160964965820e-01 -3.421334922313690186e-02 -6.854868680238723755e-02
7.000000000000000000e+02 1.537096691131591797e+01 -3.265192413330078125e+01 9.066129475831985474e-02 -2.247247099876403809e-01 -4.021902382373809814e-02 -1.227422654628753662e-01
7.010000000000000000e+02 1.704911041259765625e+01 -3.073723220825195312e+01 9.914029389619827271e-02 -2.335351258516311646e-01 -4.031844809651374817e-02 -1.464785337448120117e-01
7.020000000000000000e+02 1.483571338653564453e+01 -2.850820732116699219e+01 5.574712902307510376e-02 -2.065445929765701294e-01 -4.523923993110656738e-02 -1.576579958200454712e-01
7.030000000000000000e+02 1.609755134582519531e+01 -2.271350860595703125e+01 5.920699331909418106e-03 -1.946378499269485474e-01 -5.661514401435852051e-02 -1.966423541307449341e-01
7.040000000000000000e+02 1.865465736389160156e+01 -1.736850547790527344e+01 -9.220613539218902588e-02 -2.047098428010940552e-01 -8.907479047775268555e-02 -2.365015149116516113e-01
7.050000000000000000e+02 2.070126724243164062e+01 -1.459960460662841797e+01 -2.262787669897079468e-01 -2.219157367944717407e-01 -1.344583481550216675e-01 -3.054358661174774170e-01
7.060000000000000000e+02 1.974882698059082031e+01 -8.358003616333007812e+00 -1.302186250686645508e-01 -1.012036693282425404e-03 -3.936919942498207092e-02 5.577214993536472321e-03
7.070000000000000000e+02 2.063508605957031250e+01 -9.365102767944335938e+00 -4.268771409988403320e-01 5.235096067190170288e-02 -1.123578473925590515e-01 2.010642737150192261e-02
7.080000000000000000e+02 1.710703849792480469e+01 -4.077511978149414062e+01 1.573327481746673584e-01 -2.519926726818084717e-01 -2.839797548949718475e-02 -2.719620056450366974e-02
7.090000000000000000e+02 1.813352012634277344e+01 -3.541377258300781250e+01 1.483024656772613525e-01 -2.476155310869216919e-01 -2.979391999542713165e-02 -9.979107230901718140e-02
7.100000000000000000e+02 1.960724258422851562e+01 -3.287936782836914062e+01 1.435848027467727661e-01 -2.247181534767150879e-01 -2.434000931680202484e-02 -1.369811743497848511e-01
7.110000000000000000e+02 2.087576484680175781e+01 -3.064457893371582031e+01 1.344557106494903564e-01 -2.319193780422210693e-01 -2.923909761011600494e-02 -1.560544371604919434e-01
7.120000000000000000e+02 2.035138511657714844e+01 -2.697045898437500000e+01 8.695922046899795532e-02 -2.274386137723922729e-01 -4.214381799101829529e-02 -1.822751164436340332e-01
7.130000000000000000e+02 2.053473854064941406e+01 -2.323637390136718750e+01 2.659370377659797668e-02 -2.294388711452484131e-01 -6.085355207324028015e-02 -2.059604227542877197e-01
7.140000000000000000e+02 2.286424827575683594e+01 -1.517019367218017578e+01 -1.391678452491760254e-01 -3.847766816616058350e-01 -1.571833491325378418e-01 -3.005215823650360107e-01
7.150000000000000000e+02 2.108544158935546875e+01 -1.242017745971679688e+01 -4.034297168254852295e-01 -1.661266386508941650e-01 -1.708669066429138184e-01 -3.392323851585388184e-01
7.160000000000000000e+02 2.153861045837402344e+01 -1.626182937622070312e+01 -9.595265239477157593e-02 -3.338894546031951904e-01 -1.289526224136352539e-01 -2.818929553031921387e-01
7.170000000000000000e+02 2.890689277648925781e+01 -3.947842407226562500e+01 3.511601686477661133e-01 -1.964809894561767578e-01 4.640375450253486633e-02 -5.110818892717361450e-02
7.180000000000000000e+02 2.940170860290527344e+01 -3.644655990600585938e+01 3.355806469917297363e-01 -1.984782218933105469e-01 4.113072529435157776e-02 -1.162324249744415283e-01
7.190000000000000000e+02 2.960206794738769531e+01 -3.344334793090820312e+01 2.687306702136993408e-01 -1.725523471832275391e-01 2.885349839925765991e-02 -1.631198376417160034e-01
7.200000000000000000e+02 2.966991996765136719e+01 -3.047648620605468750e+01 2.117974460124969482e-01 -1.663920432329177856e-01 1.362162176519632339e-02 -2.055810838937759399e-01
7.210000000000000000e+02 2.954195404052734375e+01 -2.759333229064941406e+01 8.809571713209152222e-02 -1.356015205383300781e-01 -1.425174064934253693e-02 -2.238159626722335815e-01
7.220000000000000000e+02 2.836331748962402344e+01 -2.244111633300781250e+01 -5.331243202090263367e-02 -9.530205279588699341e-02 -4.458434507250785828e-02 -1.444493085145950317e-01
7.230000000000000000e+02 2.782049942016601562e+01 -1.903576087951660156e+01 -6.461653113365173340e-02 -1.402874588966369629e-01 -6.147119775414466858e-02 -6.222163513302803040e-02
7.240000000000000000e+02 3.256401443481445312e+01 -1.773199653625488281e+01 -2.543260753154754639e-01 1.999775320291519165e-01 -1.630456931889057159e-02 -6.859738379716873169e-02
7.250000000000000000e+02 3.575514984130859375e+01 -1.352401447296142578e+01 1.643667221069335938e-01 3.553919196128845215e-01 1.559275984764099121e-01 -2.744346857070922852e-01
7.260000000000000000e+02 3.268515014648437500e+01 -4.065388107299804688e+01 4.242877364158630371e-01 -1.633265763521194458e-01 7.828834652900695801e-02 -3.767035529017448425e-02
7.270000000000000000e+02 3.278559112548828125e+01 -3.394424438476562500e+01 3.428966403007507324e-01 -1.485324352979660034e-01 5.830926075577735901e-02 -1.761105209589004517e-01
7.280000000000000000e+02 3.285456848144531250e+01 -3.083772277832031250e+01 2.364441752433776855e-01 -1.270521134138107300e-01 3.281761705875396729e-02 -2.094746232032775879e-01
7.290000000000000000e+02 3.285836791992187500e+01 -2.767830467224121094e+01 1.494455039501190186e-01 -1.146396696567535400e-01 1.044175028800964355e-02 -2.564249038696289062e-01
7.300000000000000000e+02 3.042395210266113281e+01 -2.369713973999023438e+01 -2.399437129497528076e-02 -7.585109770298004150e-02 -2.995364181697368622e-02 -2.123764753341674805e-01
7.310000000000000000e+02 3.134014892578125000e+01 -1.960565567016601562e+01 -1.946911364793777466e-01 8.498706668615341187e-02 -3.291121870279312134e-02 -1.074431613087654114e-01
7.320000000000000000e+02 3.561476898193359375e+01 -1.658249092102050781e+01 -3.970844447612762451e-01 3.239384889602661133e-01 -2.194378525018692017e-02 -1.459951251745223999e-01
7.330000000000000000e+02 3.636334609985351562e+01 -3.725104904174804688e+01 4.778632819652557373e-01 -7.545046508312225342e-02 1.207238435745239258e-01 -1.094374209642410278e-01
7.340000000000000000e+02 3.584204483032226562e+01 -3.433777999877929688e+01 3.874940872192382812e-01 -9.065699577331542969e-02 8.905112743377685547e-02 -1.534312218427658081e-01
7.350000000000000000e+02 3.612601852416992188e+01 -3.135950851440429688e+01 3.205251395702362061e-01 -1.085318028926849365e-01 6.359799951314926147e-02 -2.156335264444351196e-01
7.360000000000000000e+02 3.665876007080078125e+01 -2.607131195068359375e+01 6.351492553949356079e-02 -1.122683435678482056e-01 -1.462602429091930389e-02 -3.341630101203918457e-01
7.370000000000000000e+02 3.537874221801757812e+01 -2.432398414611816406e+01 3.669567033648490906e-02 -7.088952511548995972e-02 -1.025815494358539581e-02 -3.072757422924041748e-01
7.380000000000000000e+02 3.544879150390625000e+01 -2.221102142333984375e+01 -2.598005533218383789e-01 1.150968018919229507e-02 -7.448726892471313477e-02 -3.861739039421081543e-01
7.390000000000000000e+02 3.727266693115234375e+01 -4.063332366943359375e+01 5.244703888893127441e-01 -4.609032720327377319e-02 1.435140222311019897e-01 -3.182366117835044861e-02
7.400000000000000000e+02 3.865860366821289062e+01 -3.556697845458984375e+01 4.711629748344421387e-01 -2.778800576925277710e-02 1.330124884843826294e-01 -1.362669765949249268e-01
7.410000000000000000e+02 3.942280197143554688e+01 -3.244535827636718750e+01 4.133352935314178467e-01 8.511005900800228119e-03 1.265538930892944336e-01 -1.850868165493011475e-01
7.420000000000000000e+02 4.036498641967773438e+01 -2.964888381958007812e+01 3.112426102161407471e-01 -1.643690094351768494e-02 8.844170719385147095e-02 -2.191147506237030029e-01
7.430000000000000000e+02 3.830220031738281250e+01 -2.780271148681640625e+01 2.561916112899780273e-01 -6.161312386393547058e-02 5.837354809045791626e-02 -2.489937841892242432e-01
7.440000000000000000e+02 3.974200820922851562e+01 -2.594618988037109375e+01 1.147034391760826111e-01 -8.177783340215682983e-02 9.877683594822883606e-03 -2.845991551876068115e-01
7.450000000000000000e+02 4.122272491455078125e+01 -1.982645416259765625e+01 -6.219781935214996338e-02 -3.954656422138214111e-01 -1.372990310192108154e-01 -1.762239933013916016e-01
7.460000000000000000e+02 4.124334716796875000e+01 -2.197296714782714844e+01 -1.389480978250503540e-01 -2.306714802980422974e-01 -1.108858734369277954e-01 -2.792357802391052246e-01
7.470000000000000000e+02 4.209210968017578125e+01 -4.067396163940429688e+01 6.083108782768249512e-01 1.356117278337478638e-01 2.231767773628234863e-01 -3.499519452452659607e-02
7.480000000000000000e+02 4.211936187744140625e+01 -3.708197402954101562e+01 5.782447457313537598e-01 1.382767260074615479e-01 2.149564474821090698e-01 -8.327529579401016235e-02
7.490000000000000000e+02 4.289458465576171875e+01 -3.371996688842773438e+01 4.871143996715545654e-01 1.292023360729217529e-01 1.848950237035751343e-01 -1.318618357181549072e-01
7.500000000000000000e+02 4.542246627807617188e+01 -3.027285385131835938e+01 4.145632982254028320e-01 2.457211166620254517e-01 1.980853229761123657e-01 -1.259795874357223511e-01
7.510000000000000000e+02 4.370703506469726562e+01 -2.852262687683105469e+01 2.688910961151123047e-01 9.936983883380889893e-02 1.104782819747924805e-01 -1.797809153795242310e-01
7.520000000000000000e+02 4.274364852905273438e+01 -2.499427604675292969e+01 5.277143046259880066e-02 -1.057632919400930405e-02 1.265853084623813629e-02 -1.967048943042755127e-01
7.530000000000000000e+02 4.302611923217773438e+01 -2.010759925842285156e+01 -3.745000362396240234e-01 -2.567253410816192627e-01 -1.893676072359085083e-01 -2.531176060438156128e-02
7.540000000000000000e+02 4.318021011352539062e+01 -2.253391075134277344e+01 2.418204210698604584e-02 -2.713522873818874359e-02 -8.859559893608093262e-04 -1.412659287452697754e-01
7.550000000000000000e+02 4.596209335327148438e+01 -3.787687683105468750e+01 6.219052076339721680e-01 3.455338478088378906e-01 2.902317047119140625e-01 -5.628266185522079468e-02
7.560000000000000000e+02 4.658084487915039062e+01 -3.495168304443359375e+01 5.830550789833068848e-01 3.722984790802001953e-01 2.866060733795166016e-01 -8.201663196086883545e-02
7.570000000000000000e+02 4.894557571411132812e+01 -3.004487609863281250e+01 4.247215092182159424e-01 5.144676566123962402e-01 2.817567586898803711e-01 -7.973811030387878418e-02
7.580000000000000000e+02 4.809150695800781250e+01 -2.674089050292968750e+01 2.218422740697860718e-01 4.143204092979431152e-01 1.908487975597381592e-01 -1.264884024858474731e-01
7.590000000000000000e+02 4.793855285644531250e+01 -2.365164375305175781e+01 -8.411531895399093628e-02 4.113944172859191895e-01 9.818372875452041626e-02 -1.326709538698196411e-01
7.600000000000000000e+02 4.641852951049804688e+01 -2.030193328857421875e+01 -3.939330577850341797e-01 3.340307474136352539e-01 -1.797069609165191650e-02 -9.776064753532409668e-02
7.610000000000000000e+02 4.671516799926757812e+01 -2.198870086669921875e+01 -1.819846332073211670e-01 3.444895744323730469e-01 4.875147715210914612e-02 -1.139245331287384033e-01
7.620000000000000000e+02 5.737508773803710938e+01 -4.108632659912109375e+01 6.933388710021972656e-01 1.668594598770141602e+00 7.085800170898437500e-01 7.903849706053733826e-03
7.630000000000000000e+02 5.734722137451171875e+01 -3.820005035400390625e+01 6.560649275779724121e-01 1.652800202369689941e+00 6.926595568656921387e-01 4.544542357325553894e-02
7.640000000000000000e+02 5.760481262207031250e+01 -3.527467346191406250e+01 6.289973855018615723e-01 1.633411169052124023e+00 6.787225604057312012e-01 9.885632991790771484e-02
7.650000000000000000e+02 5.788280105590820312e+01 -3.231621932983398438e+01 5.336481332778930664e-01 1.602685809135437012e+00 6.409001946449279785e-01 8.676180988550186157e-02
7.660000000000000000e+02 5.653171539306640625e+01 -2.700640869140625000e+01 2.369306087493896484e-01 1.315614342689514160e+00 4.657634794712066650e-01 5.104993283748626709e-02
7.670000000000000000e+02 5.914798736572265625e+01 -2.276778030395507812e+01 -1.231528371572494507e-01 1.767041087150573730e+00 4.931664764881134033e-01 -2.626840956509113312e-02
7.680000000000000000e+02 6.163760375976562500e+01 -4.116303634643554688e+01 5.950589776039123535e-01 2.449424266815185547e+00 9.133449196815490723e-01 3.956463187932968140e-02
7.690000000000000000e+02 6.087215423583984375e+01 -3.857865524291992188e+01 6.253793835639953613e-01 2.191233873367309570e+00 8.449839353561401367e-01 1.018710285425186157e-01
7.700000000000000000e+02 6.107513427734375000e+01 -3.590064620971679688e+01 5.917944908142089844e-01 2.172677040100097656e+00 8.293414711952209473e-01 1.137721389532089233e-01
7.710000000000000000e+02 6.200688552856445312e+01 -3.028536987304687500e+01 4.862806499004364014e-01 2.221517562866210938e+00 8.123394250869750977e-01 2.037677615880966187e-01
7.720000000000000000e+02 6.143816375732421875e+01 -2.702005767822265625e+01 3.428868353366851807e-01 2.062775135040283203e+00 7.216986417770385742e-01 1.296228319406509399e-01
7.730000000000000000e+02 6.292065048217773438e+01 -2.323063087463378906e+01 9.802708774805068970e-02 2.048141479492187500e+00 6.438506245613098145e-01 -1.377988606691360474e-02
7.740000000000000000e+02 6.164997863769531250e+01 -2.037907409667968750e+01 -2.375878095626831055e-01 2.026852130889892578e+00 5.367792844772338867e-01 -2.174989432096481323e-01
7.750000000000000000e+02 6.397452926635742188e+01 -3.969837570190429688e+01 5.530772805213928223e-01 2.843051195144653320e+00 1.018838524818420410e+00 6.352692097425460815e-02
7.760000000000000000e+02 6.441752624511718750e+01 -3.674710464477539062e+01 5.253300070762634277e-01 2.925174236297607422e+00 1.035151243209838867e+00 1.727559268474578857e-01
7.770000000000000000e+02 6.462975311279296875e+01 -3.382569503784179688e+01 5.016771554946899414e-01 2.873785257339477539e+00 1.012638807296752930e+00 2.476943582296371460e-01
7.780000000000000000e+02 6.486895751953125000e+01 -3.114233970642089844e+01 4.994126558303833008e-01 2.829192399978637695e+00 9.985815286636352539e-01 2.982236146926879883e-01
7.790000000000000000e+02 6.294267272949218750e+01 -2.830460739135742188e+01 4.081037342548370361e-01 2.300572156906127930e+00 8.126028180122375488e-01 2.099212855100631714e-01
7.800000000000000000e+02 6.492407226562500000e+01 -2.650535583496093750e+01 4.268449246883392334e-01 2.574238538742065430e+00 9.003250598907470703e-01 2.870225608348846436e-01
7.810000000000000000e+02 6.762599182128906250e+01 -4.080242156982421875e+01 4.209544360637664795e-01 3.580312490463256836e+00 1.200380086898803711e+00 6.815055757761001587e-02
7.820000000000000000e+02 6.776161956787109375e+01 -3.749956893920898438e+01 4.150833487510681152e-01 3.641811609268188477e+00 1.217068433761596680e+00 2.140429764986038208e-01
7.830000000000000000e+02 6.783641052246093750e+01 -3.433736038208007812e+01 4.180136322975158691e-01 3.620210170745849609e+00 1.211467146873474121e+00 3.348430693149566650e-01
7.840000000000000000e+02 6.728870391845703125e+01 -2.886260414123535156e+01 4.451461136341094971e-01 3.232272386550903320e+00 1.103225588798522949e+00 4.820376038551330566e-01
7.850000000000000000e+02 7.191454315185546875e+01 -4.091944122314453125e+01 2.247152775526046753e-01 4.601631164550781250e+00 1.447903990745544434e+00 5.545390769839286804e-02
7.860000000000000000e+02 7.108625030517578125e+01 -3.781261062622070312e+01 2.771966159343719482e-01 4.369499683380126953e+00 1.394008994102478027e+00 2.098145931959152222e-01
7.870000000000000000e+02 7.089038848876953125e+01 -3.483264541625976562e+01 3.012508451938629150e-01 4.313577651977539062e+00 1.384448528289794922e+00 3.609456419944763184e-01
7.880000000000000000e+02 7.060826873779296875e+01 -2.805530357360839844e+01 3.398249745368957520e-01 4.216458797454833984e+00 1.366885185241699219e+00 6.107321381568908691e-01
7.890000000000000000e+02 7.508599090576171875e+01 -4.019102478027343750e+01 1.230422779917716980e-01 5.345159053802490234e+00 1.640460371971130371e+00 3.079552762210369110e-02
7.900000000000000000e+02 7.381156921386718750e+01 -3.766416931152343750e+01 1.345561742782592773e-01 4.992233276367187500e+00 1.538036823272705078e+00 1.640888899564743042e-01
7.910000000000000000e+02 7.799655151367187500e+01 -4.162823486328125000e+01 9.954772889614105225e-02 5.798143386840820312e+00 1.769307374954223633e+00 2.795746177434921265e-02
7.920000000000000000e+02 7.933504486083984375e+01 -3.747525024414062500e+01 -5.016193259507417679e-03 6.065934181213378906e+00 1.818275451660156250e+00 4.585635289549827576e-02
7.930000000000000000e+02 7.772389221191406250e+01 -3.809041595458984375e+01 -3.051087260246276855e-03 5.821134567260742188e+00 1.745425105094909668e+00 1.502858549356460571e-01
7.940000000000000000e+02 7.930146789550781250e+01 -2.925875663757324219e+01 2.408325299620628357e-02 6.855358600616455078e+00 2.063832521438598633e+00 9.111031144857406616e-02
7.950000000000000000e+02 7.796652221679687500e+01 -2.785333633422851562e+01 5.739955604076385498e-02 6.660180568695068359e+00 2.015274047851562500e+00 2.844739258289337158e-01
7.960000000000000000e+02 7.373646545410156250e+01 -2.589375877380371094e+01 5.896152928471565247e-02 5.325236797332763672e+00 1.615259408950805664e+00 7.084591984748840332e-01
7.970000000000000000e+02 7.924376678466796875e+01 -2.504353332519531250e+01 -3.462943434715270996e-02 7.506131649017333984e+00 2.241450786590576172e+00 1.119900867342948914e-01
7.980000000000000000e+02 7.944773101806640625e+01 -1.530243873596191406e+01 1.746477484703063965e-01 7.626450538635253906e+00 2.340329408645629883e+00 -7.616852968931198120e-02
7.990000000000000000e+02 7.433594512939453125e+01 -1.146470165252685547e+01 8.881333470344543457e-01 8.515218734741210938e+00 2.821005582809448242e+00 8.799418807029724121e-01
8.000000000000000000e+02 7.935472869873046875e+01 -1.252193737030029297e+01 1.526130437850952148e-01 7.798204898834228516e+00 2.385245323181152344e+00 1.024864837527275085e-01
8.010000000000000000e+02 7.805435180664062500e+01 -1.103929805755615234e+01 2.388585954904556274e-01 8.363324165344238281e+00 2.580654859542846680e+00 6.221640110015869141e-01
8.020000000000000000e+02 7.345436859130859375e+01 -7.505768299102783203e+00 1.405952572822570801e-01 6.606690883636474609e+00 2.024185895919799805e+00 5.242472290992736816e-01
8.030000000000000000e+02 7.174002075195312500e+01 -6.938749313354492188e+00 -7.664308883249759674e-03 4.656119823455810547e+00 1.394536614418029785e+00 -7.765188217163085938e-01
8.040000000000000000e+02 7.945517730712890625e+01 -2.784869909286499023e+00 6.152703240513801575e-02 1.375836372375488281e+01 4.145967006683349609e+00 3.892388939857482910e-01
8.050000000000000000e+02 7.764402008056640625e+01 1.357744812965393066e+00 -1.838151216506958008e+00 1.148361587524414062e+01 2.893639326095581055e+00 -1.725080728530883789e+00
8.060000000000000000e+02 7.704096221923828125e+01 -4.008355736732482910e-01 -1.975991010665893555e+00 9.833116531372070312e+00 2.357137680053710938e+00 4.974285960197448730e-01
8.070000000000000000e+02 7.692582702636718750e+01 3.479923009872436523e+00 -9.588955640792846680e-01 1.199676704406738281e+01 3.311361312866210938e+00 -3.047407150268554688e+00
8.080000000000000000e+02 7.848537445068359375e+01 6.990799427032470703e+00 1.306107521057128906e+00 7.360351085662841797e+00 2.599937438964843750e+00 -1.237686634063720703e+00
8.090000000000000000e+02 7.940507507324218750e+01 1.536421108245849609e+01 -3.455651551485061646e-02 7.237138748168945312e+00 2.160774707794189453e+00 1.959968656301498413e-01
8.100000000000000000e+02 7.941805267333984375e+01 1.675756263732910156e+01 1.275326032191514969e-02 7.632118225097656250e+00 2.293461561203002930e+00 1.675246506929397583e-01
8.110000000000000000e+02 7.405353546142578125e+01 2.296125984191894531e+01 -2.688226401805877686e-01 6.321100234985351562e+00 1.815683364868164062e+00 -4.674411416053771973e-01
8.120000000000000000e+02 7.144380950927734375e+01 2.277939987182617188e+01 -3.190935552120208740e-01 5.373996734619140625e+00 1.516470909118652344e+00 -8.021180033683776855e-01
8.130000000000000000e+02 6.688991546630859375e+01 2.644908905029296875e+01 2.138640582561492920e-01 3.301684379577636719e+00 1.054664492607116699e+00 -7.938452959060668945e-01
8.140000000000000000e+02 6.423134613037109375e+01 3.199726295471191406e+01 5.269299745559692383e-01 2.689984560012817383e+00 9.650743603706359863e-01 -4.543282091617584229e-01
8.150000000000000000e+02 6.065234756469726562e+01 3.426733398437500000e+01 6.953896284103393555e-01 1.885095596313476562e+00 7.741455435752868652e-01 -2.427865713834762573e-01
8.160000000000000000e+02 7.822843170166015625e+01 1.545619583129882812e+01 -3.394208475947380066e-02 7.329311847686767578e+00 2.188611030578613281e+00 5.065459609031677246e-01
8.170000000000000000e+02 7.817193603515625000e+01 2.087765884399414062e+01 -5.064217373728752136e-02 7.731932640075683594e+00 2.304387092590332031e+00 1.900794915854930878e-02
8.180000000000000000e+02 7.531546783447265625e+01 2.319435501098632812e+01 -1.840025633573532104e-01 6.715233802795410156e+00 1.959369421005249023e+00 -3.343368470668792725e-01
8.190000000000000000e+02 7.135473632812500000e+01 2.579162216186523438e+01 -6.359278410673141479e-02 5.034296989440917969e+00 1.491211175918579102e+00 -7.420193552970886230e-01
8.200000000000000000e+02 6.698336029052734375e+01 3.213310241699218750e+01 4.112650454044342041e-01 3.477820873260498047e+00 1.166725754737854004e+00 -5.019035935401916504e-01
8.210000000000000000e+02 6.372581481933593750e+01 3.491561508178710938e+01 6.077401041984558105e-01 2.616662025451660156e+00 9.673206806182861328e-01 -2.983844578266143799e-01
8.220000000000000000e+02 6.313842773437500000e+01 3.796772003173828125e+01 6.611945629119873047e-01 2.541182756423950195e+00 9.607132077217102051e-01 -1.712944060564041138e-01
8.230000000000000000e+02 5.785977554321289062e+01 4.070417022705078125e+01 8.297491073608398438e-01 1.423383474349975586e+00 6.759397983551025391e-01 -3.065809234976768494e-02
8.240000000000000000e+02 7.939045715332031250e+01 2.089948081970214844e+01 -5.641774460673332214e-02 8.152367591857910156e+00 2.428784847259521484e+00 2.082975022494792938e-02
8.250000000000000000e+02 7.930801391601562500e+01 2.366290283203125000e+01 -4.472736641764640808e-02 8.029054641723632812e+00 2.395298242568969727e+00 -4.627829790115356445e-02
8.260000000000000000e+02 7.331064605712890625e+01 2.529199981689453125e+01 -1.281299740076065063e-01 5.766618251800537109e+00 1.691546559333801270e+00 -5.987066626548767090e-01
8.270000000000000000e+02 6.951757812500000000e+01 2.940389251708984375e+01 2.126757055521011353e-01 4.231742382049560547e+00 1.333325386047363281e+00 -6.627436280250549316e-01
8.280000000000000000e+02 6.701585388183593750e+01 3.506431961059570312e+01 4.524334669113159180e-01 3.546519279479980469e+00 1.199685811996459961e+00 -3.658812046051025391e-01
8.290000000000000000e+02 6.266603851318359375e+01 4.100648498535156250e+01 6.967202425003051758e-01 2.467825412750244141e+00 9.493637084960937500e-01 -5.522462725639343262e-02
8.300000000000000000e+02 7.807396697998046875e+01 2.221824645996093750e+01 -8.807734400033950806e-02 7.657021999359130859e+00 2.270683526992797852e+00 -6.137868389487266541e-02
8.310000000000000000e+02 7.909974670410156250e+01 2.790971946716308594e+01 2.024970389902591705e-02 7.563820362091064453e+00 2.275221109390258789e+00 -9.809392690658569336e-02
8.320000000000000000e+02 7.382665252685546875e+01 3.102971267700195312e+01 1.024042442440986633e-01 5.589570999145507812e+00 1.707592606544494629e+00 -4.255228340625762939e-01
8.330000000000000000e+02 6.961224365234375000e+01 3.203261184692382812e+01 2.802188396453857422e-01 4.252846240997314453e+00 1.359919428825378418e+00 -5.413872003555297852e-01
8.340000000000000000e+02 7.754573059082031250e+01 2.639473152160644531e+01 -9.278731420636177063e-03 7.167304039001464844e+00 2.147407531738281250e+00 -2.459074109792709351e-01
8.350000000000000000e+02 7.930603790283203125e+01 3.209923934936523438e+01 -1.748901233077049255e-02 7.139397144317626953e+00 2.136572599411010742e+00 -7.319432497024536133e-02
8.360000000000000000e+02 7.470812988281250000e+01 3.263819885253906250e+01 9.153805673122406006e-02 5.873100280761718750e+00 1.789391398429870605e+00 -3.420541286468505859e-01
8.370000000000000000e+02 7.108855438232421875e+01 3.759475326538085938e+01 2.746144831180572510e-01 4.709641933441162109e+00 1.495276927947998047e+00 -2.475316971540451050e-01
8.380000000000000000e+02 7.917971801757812500e+01 3.076746177673339844e+01 1.292506512254476547e-02 7.281783103942871094e+00 2.188412427902221680e+00 -7.357254624366760254e-02
8.390000000000000000e+02 7.208109283447265625e+01 4.079813385009765625e+01 2.452512830495834351e-01 4.974396705627441406e+00 1.565894484519958496e+00 -7.702052593231201172e-02
8.400000000000000000e+02 6.739959716796875000e+01 4.103241729736328125e+01 4.842883348464965820e-01 3.652319669723510742e+00 1.240982413291931152e+00 -6.639201939105987549e-02
8.410000000000000000e+02 7.909727478027343750e+01 3.746723937988281250e+01 3.616811335086822510e-02 6.638933181762695312e+00 2.002530336380004883e+00 -4.762083292007446289e-02
8.420000000000000000e+02 7.760583496093750000e+01 3.668339920043945312e+01 3.349264338612556458e-02 6.327796459197998047e+00 1.908386707305908203e+00 -1.381746828556060791e-01
8.430000000000000000e+02 7.858802032470703125e+01 4.025220489501953125e+01 -5.835300311446189880e-02 6.427227973937988281e+00 1.910662531852722168e+00 -1.407140195369720459e-01
8.440000000000000000e+02 4.284648895263671875e+01 4.034128189086914062e+01 6.680029034614562988e-01 -8.632708340883255005e-02 1.745027452707290649e-01 6.144518032670021057e-02
8.450000000000000000e+02 4.299531936645507812e+01 3.629528427124023438e+01 6.035878062248229980e-01 -8.927357196807861328e-02 1.542942672967910767e-01 1.641497462987899780e-01
8.460000000000000000e+02 4.017307281494140625e+01 3.242930221557617188e+01 3.794997930526733398e-01 -1.527638584375381470e-01 6.802078336477279663e-02 2.871912121772766113e-01
8.470000000000000000e+02 3.928423309326171875e+01 2.855430412292480469e+01 1.485085487365722656e-01 -1.358674317598342896e-01 3.792336443439126015e-03 3.555652499198913574e-01
8.480000000000000000e+02 4.048387145996093750e+01 2.610194778442382812e+01 -1.638314872980117798e-02 -1.160795539617538452e-01 -3.973881155252456665e-02 3.954923450946807861e-01
8.490000000000000000e+02 3.877720642089843750e+01 2.519156074523925781e+01 -9.298686683177947998e-02 -9.259595721960067749e-02 -5.567484721541404724e-02 3.711208999156951904e-01
8.500000000000000000e+02 4.091188812255859375e+01 1.860804557800292969e+01 -6.629836559295654297e-01 8.742446452379226685e-02 -1.726677566766738892e-01 2.659716904163360596e-01
8.510000000000000000e+02 4.018604660034179688e+01 1.647817420959472656e+01 -7.380706667900085449e-01 1.473090201616287231e-01 -1.772284954786300659e-01 1.459513902664184570e-01
8.520000000000000000e+02 3.662979888916015625e+01 1.376212215423583984e+01 -7.095106840133666992e-01 -4.927943646907806396e-02 -2.276370376348495483e-01 2.419788390398025513e-01
8.530000000000000000e+02 3.841653442382812500e+01 1.308617305755615234e+01 -3.918810486793518066e-01 4.285035654902458191e-02 -1.047092080116271973e-01 1.162074804306030273e-01
8.540000000000000000e+02 3.774526596069335938e+01 4.022006607055664062e+01 5.116745829582214355e-01 -2.157756388187408447e-01 8.876968175172805786e-02 6.815288215875625610e-02
8.550000000000000000e+02 3.880391311645507812e+01 3.599972152709960938e+01 4.732414484024047852e-01 -1.937312036752700806e-01 8.385307341814041138e-02 1.814755350351333618e-01
8.560000000000000000e+02 3.784750366210937500e+01 3.125927162170410156e+01 2.785677313804626465e-01 -1.758541464805603027e-01 3.081407770514488220e-02 2.972384393215179443e-01
8.570000000000000000e+02 3.599324798583984375e+01 2.965541839599609375e+01 1.698936671018600464e-01 -1.673868745565414429e-01 7.520364015363156796e-04 2.991700768470764160e-01
8.580000000000000000e+02 3.570084762573242188e+01 2.618325424194335938e+01 -2.397361956536769867e-02 -1.195282936096191406e-01 -4.305057600140571594e-02 3.242616951465606689e-01
8.590000000000000000e+02 3.627767944335937500e+01 2.437980270385742188e+01 -1.356488168239593506e-01 -9.313750267028808594e-02 -6.863589584827423096e-02 3.332341909408569336e-01
8.600000000000000000e+02 3.714358901977539062e+01 2.143467140197753906e+01 -3.502101004123687744e-01 -3.980614989995956421e-02 -1.170048713684082031e-01 2.995455265045166016e-01
8.610000000000000000e+02 3.594703674316406250e+01 1.543835735321044922e+01 -5.822656750679016113e-01 -7.232615351676940918e-02 -1.963775455951690674e-01 9.395775943994522095e-02
8.620000000000000000e+02 3.568217849731445312e+01 1.385464668273925781e+01 -7.555742859840393066e-01 -1.980719417333602905e-01 -2.860938608646392822e-01 2.901454269886016846e-01
8.630000000000000000e+02 3.708953475952148438e+01 1.323545837402343750e+01 -3.918229043483734131e-01 -5.610638484358787537e-02 -1.343787759542465210e-01 2.083912342786788940e-01
8.640000000000000000e+02 3.574402236938476562e+01 3.420711898803710938e+01 3.479065299034118652e-01 -2.110797762870788574e-01 4.104802757501602173e-02 2.092046141624450684e-01
8.650000000000000000e+02 3.404430770874023438e+01 3.168605613708496094e+01 2.093789577484130859e-01 -1.948669850826263428e-01 4.353590775281190872e-03 2.478202432394027710e-01
8.660000000000000000e+02 3.097727966308593750e+01 3.063100051879882812e+01 1.308066993951797485e-01 -1.811531037092208862e-01 -1.510391943156719208e-02 2.360337078571319580e-01
8.670000000000000000e+02 3.290574645996093750e+01 2.655101966857910156e+01 -1.863715797662734985e-02 -1.310919821262359619e-01 -4.491874203085899353e-02 2.839562296867370605e-01
8.680000000000000000e+02 3.171505355834960938e+01 2.256427383422851562e+01 -1.974929124116897583e-01 -8.670441806316375732e-02 -8.525919914245605469e-02 2.615167200565338135e-01
8.690000000000000000e+02 3.418407440185546875e+01 2.039908599853515625e+01 -3.334819972515106201e-01 -6.539015471935272217e-02 -1.196616515517234802e-01 2.559421360492706299e-01
8.700000000000000000e+02 3.053672790527343750e+01 1.633006286621093750e+01 -3.621336221694946289e-01 1.349395234137773514e-02 -1.045919060707092285e-01 1.500896662473678589e-01
8.710000000000000000e+02 3.105485725402832031e+01 1.309950160980224609e+01 -1.742846071720123291e-01 -2.531031705439090729e-02 -5.987847968935966492e-02 -5.105631798505783081e-02
8.720000000000000000e+02 3.357777023315429688e+01 1.461049652099609375e+01 -7.639421820640563965e-01 -8.439043164253234863e-02 -2.544997930526733398e-01 4.465570673346519470e-02
8.730000000000000000e+02 3.262511062622070312e+01 4.022022247314453125e+01 3.827776908874511719e-01 -2.446430325508117676e-01 4.144039377570152283e-02 6.009329855442047119e-02
8.740000000000000000e+02 3.225963973999023438e+01 3.613683700561523438e+01 3.225872814655303955e-01 -2.298340201377868652e-01 2.782597765326499939e-02 1.484028846025466919e-01
8.750000000000000000e+02 3.149381828308105469e+01 3.296212768554687500e+01 2.124784141778945923e-01 -2.029525786638259888e-01 2.857748186215758324e-03 2.124762535095214844e-01
8.760000000000000000e+02 2.914625740051269531e+01 3.063605499267578125e+01 1.134981140494346619e-01 -1.762729287147521973e-01 -1.883244514465332031e-02 2.192119657993316650e-01
8.770000000000000000e+02 3.017379188537597656e+01 2.626847839355468750e+01 -3.294183313846588135e-02 -1.270750910043716431e-01 -4.800507798790931702e-02 2.509058117866516113e-01
8.780000000000000000e+02 3.068440818786621094e+01 2.385896301269531250e+01 -1.250611841678619385e-01 -9.406971186399459839e-02 -6.573926657438278198e-02 2.523793578147888184e-01
8.790000000000000000e+02 3.075623893737792969e+01 2.002579879760742188e+01 -2.772668004035949707e-01 -5.153432115912437439e-02 -9.864033758640289307e-02 2.298467308282852173e-01
8.800000000000000000e+02 2.791428565979003906e+01 1.609656143188476562e+01 -2.701650261878967285e-01 1.786706410348415375e-02 -7.568939030170440674e-02 1.286638081073760986e-01
8.810000000000000000e+02 2.931652069091796875e+01 1.308372783660888672e+01 -1.251008957624435425e-01 -2.732610888779163361e-02 -4.572809860110282898e-02 -2.299746312201023102e-02
8.820000000000000000e+02 2.754856872558593750e+01 1.047984504699707031e+01 -3.411700949072837830e-02 -3.636552393436431885e-02 -2.114476077258586884e-02 -4.369011893868446350e-02
8.830000000000000000e+02 2.879763221740722656e+01 1.139229297637939453e+01 -4.189868643879890442e-02 -4.114537686109542847e-02 -2.491321787238121033e-02 -2.981881238520145416e-02
8.840000000000000000e+02 2.744346237182617188e+01 4.030765533447265625e+01 2.581836283206939697e-01 -2.296455502510070801e-01 8.561420254409313202e-03 4.401096701622009277e-02
8.850000000000000000e+02 2.786379241943359375e+01 3.627503967285156250e+01 2.339747250080108643e-01 -2.191260457038879395e-01 4.454603884369134903e-03 1.187274828553199768e-01
8.860000000000000000e+02 2.606506729125976562e+01 3.193828201293945312e+01 1.297495961189270020e-01 -1.812571734189987183e-01 -1.545227412134408951e-02 1.747223138809204102e-01
8.870000000000000000e+02 2.405281066894531250e+01 3.017793273925781250e+01 7.053720206022262573e-02 -1.539582908153533936e-01 -2.502632886171340942e-02 1.700123250484466553e-01
8.880000000000000000e+02 2.697743797302246094e+01 2.639905548095703125e+01 -2.411135286092758179e-02 -1.267662197351455688e-01 -4.526327177882194519e-02 2.136567682027816772e-01
8.890000000000000000e+02 2.608184242248535156e+01 2.381759452819824219e+01 -1.061904355883598328e-01 -1.016498804092407227e-01 -6.235209479928016663e-02 1.939457654953002930e-01
8.900000000000000000e+02 2.922763252258300781e+01 1.967428588867187500e+01 -2.849219441413879395e-01 -2.362389117479324341e-02 -9.256374835968017578e-02 1.930829882621765137e-01
8.910000000000000000e+02 2.557522201538085938e+01 1.629411125183105469e+01 -3.111141622066497803e-01 -1.621979288756847382e-02 -9.820018708705902100e-02 1.773591935634613037e-01
8.920000000000000000e+02 2.671915245056152344e+01 1.627059936523437500e+01 -2.886764407157897949e-01 2.505236119031906128e-02 -7.908722013235092163e-02 1.516560614109039307e-01
8.930000000000000000e+02 2.532579231262207031e+01 1.493438148498535156e+01 -1.970014721155166626e-02 3.791025653481483459e-02 5.463032517582178116e-03 1.012029796838760376e-01
8.940000000000000000e+02 2.443898963928222656e+01 1.316363525390625000e+01 4.409699141979217529e-02 9.632314741611480713e-02 4.212604090571403503e-02 5.221011489629745483e-02
8.950000000000000000e+02 2.541974067687988281e+01 1.385903167724609375e+01 1.640550047159194946e-02 7.114118337631225586e-02 2.626400627195835114e-02 4.139987006783485413e-02
8.960000000000000000e+02 2.346272277832031250e+01 1.225479793548583984e+01 3.480283543467521667e-02 4.606987163424491882e-02 2.426181174814701080e-02 4.121031239628791809e-02
8.970000000000000000e+02 1.958534812927246094e+01 6.047628402709960938e+00 -2.700898982584476471e-02 -2.507471013814210892e-03 -8.854938670992851257e-03 -1.052974071353673935e-02
8.980000000000000000e+02 2.181185913085937500e+01 5.904900550842285156e+00 -2.715428546071052551e-02 6.639696657657623291e-03 -6.154377013444900513e-03 -1.405662950128316879e-02
8.990000000000000000e+02 2.251846122741699219e+01 6.154246807098388672e+00 -2.530912496149539948e-02 2.365963300690054893e-03 -6.882948335260152817e-03 -1.598059758543968201e-02
9.000000000000000000e+02 2.326054573059082031e+01 5.809827804565429688e+00 -2.413015067577362061e-02 -3.059229115024209023e-03 -8.156814612448215485e-03 -1.860350184142589569e-02
9.010000000000000000e+02 2.473115348815917969e+01 7.452788829803466797e+00 -3.959355130791664124e-02 -2.721492014825344086e-02 -2.004254050552845001e-02 -2.984642423689365387e-02
9.020000000000000000e+02 2.507297897338867188e+01 1.088730812072753906e+01 -2.138907276093959808e-02 1.145472563803195953e-02 -2.980304183438420296e-03 -2.398631349205970764e-02
9.030000000000000000e+02 2.435001564025878906e+01 3.468942260742187500e+01 1.562199890613555908e-01 -1.901547312736511230e-01 -1.018042024224996567e-02 1.217955574393272400e-01
9.040000000000000000e+02 2.214190292358398438e+01 3.213625717163085938e+01 8.271196484565734863e-02 -1.557722836732864380e-01 -2.191809564828872681e-02 1.374994069337844849e-01
9.050000000000000000e+02 2.055877113342285156e+01 2.977943611145019531e+01 3.477402031421661377e-02 -1.266233921051025391e-01 -2.755481004714965820e-02 1.445123106241226196e-01
9.060000000000000000e+02 2.100702476501464844e+01 2.617272377014160156e+01 -3.066965378820896149e-02 -9.713765233755111694e-02 -3.834219276905059814e-02 1.587792932987213135e-01
9.070000000000000000e+02 2.140070152282714844e+01 2.283176422119140625e+01 -1.047452613711357117e-01 -7.108099758625030518e-02 -5.274787917733192444e-02 1.567743867635726929e-01
9.080000000000000000e+02 2.311106681823730469e+01 1.885820388793945312e+01 -2.281937301158905029e-01 -1.008795946836471558e-01 -9.872199594974517822e-02 1.445358842611312866e-01
9.090000000000000000e+02 2.029416847229003906e+01 1.585739040374755859e+01 -9.523104876279830933e-02 -6.466385442763566971e-03 -3.050922974944114685e-02 -5.681339534930884838e-04
9.100000000000000000e+02 1.628687477111816406e+01 1.370040225982666016e+01 1.896788482554256916e-03 1.362830400466918945e-02 4.657527897506952286e-03 1.236844621598720551e-02
9.110000000000000000e+02 1.326946353912353516e+01 1.270326805114746094e+01 6.217614281922578812e-03 1.204280927777290344e-02 5.478126928210258484e-03 1.175320800393819809e-02
9.120000000000000000e+02 7.906240463256835938e+00 1.395073413848876953e+01 -1.865249825641512871e-03 -6.517832633107900620e-03 -2.514924854040145874e-03 3.455938305705785751e-03
9.130000000000000000e+02 4.170629024505615234e+00 1.327272033691406250e+01 1.511374604888260365e-03 -9.536092169582843781e-03 -2.407415304332971573e-03 2.896832302212715149e-04
9.140000000000000000e+02 5.979723334312438965e-01 1.350548458099365234e+01 1.092327656806446612e-04 -8.166603744029998779e-03 -2.417211188003420830e-03 -7.702930452069267631e-05
9.150000000000000000e+02 1.849706649780273438e+00 1.487003326416015625e+01 -2.956219832412898540e-04 -9.009166620671749115e-03 -2.791436621919274330e-03 2.156462687707971781e-05
9.160000000000000000e+02 5.625514984130859375e-01 9.257068634033203125e+00 -1.313074171775951982e-04 -5.795246455818414688e-03 -1.777966157533228397e-03 7.837196462787687778e-04
9.170000000000000000e+02 1.668969750404357910e+00 1.064184570312500000e+01 6.753283669240772724e-04 -7.294181268662214279e-03 -1.985655864700675011e-03 1.005960162729024887e-03
9.180000000000000000e+02 5.649116635322570801e-01 6.397859573364257812e+00 -4.239279078319668770e-04 -1.440818072296679020e-03 -5.594238173216581345e-04 7.108110003173351288e-04
9.190000000000000000e+02 4.648163795471191406e+00 3.678144454956054688e+00 -2.935765776783227921e-03 -1.055096217896789312e-04 -9.123826748691499233e-04 -1.164529658126411960e-05
9.200000000000000000e+02 6.572515964508056641e+00 6.185122966766357422e+00 -1.851910911500453949e-02 -2.760390052571892738e-03 -6.383849773555994034e-03 1.466414239257574081e-02
9.210000000000000000e+02 6.151854515075683594e+00 6.954245090484619141e+00 -6.929942173883318901e-04 -4.776746500283479691e-03 -1.640922273509204388e-03 1.180709339678287506e-02
9.220000000000000000e+02 8.441721916198730469e+00 6.731919765472412109e+00 -2.029148163273930550e-03 -1.603031717240810394e-02 -5.417839623987674713e-03 2.110480517148971558e-02
9.230000000000000000e+02 7.733610630035400391e+00 8.034125328063964844e+00 1.304695010185241699e-02 -1.147013623267412186e-02 4.730442306026816368e-04 1.329933106899261475e-02
9.240000000000000000e+02 9.293164253234863281e+00 6.705134391784667969e+00 1.973060704767704010e-02 -8.890177123248577118e-03 3.252128837630152702e-03 7.257147692143917084e-03
9.250000000000000000e+02 1.303866481781005859e+01 1.065629673004150391e+01 1.994555443525314331e-02 1.922396197915077209e-02 1.175085455179214478e-02 1.913663931190967560e-02
9.260000000000000000e+02 1.113757896423339844e+01 8.647152900695800781e+00 1.581441238522529602e-02 2.347788214683532715e-02 1.178768835961818695e-02 1.694542914628982544e-02
9.270000000000000000e+02 1.204392147064208984e+01 9.649295806884765625e+00 1.893684640526771545e-02 2.036951668560504913e-02 1.179190911352634430e-02 1.927611604332923889e-02
9.280000000000000000e+02 1.514031505584716797e+01 1.265377330780029297e+01 1.449310686439275742e-02 1.544837933033704758e-02 8.982446044683456421e-03 1.783782802522182465e-02
9.290000000000000000e+02 2.233890724182128906e+01 4.051259994506835938e+01 1.751088798046112061e-01 -1.975796967744827271e-01 -6.741245277225971222e-03 3.166622295975685120e-02
9.300000000000000000e+02 2.122596359252929688e+01 3.686817932128906250e+01 1.389881819486618042e-01 -1.804879307746887207e-01 -1.244992390275001526e-02 7.960905134677886963e-02
9.310000000000000000e+02 1.958902359008789062e+01 3.379706192016601562e+01 8.393632620573043823e-02 -1.493908613920211792e-01 -1.963636279106140137e-02 1.097109317779541016e-01
9.320000000000000000e+02 1.838543128967285156e+01 3.116016197204589844e+01 4.058843478560447693e-02 -1.227307915687561035e-01 -2.464270778000354767e-02 1.187117695808410645e-01
9.330000000000000000e+02 1.926071166992187500e+01 2.763027381896972656e+01 -8.316444233059883118e-03 -9.831224381923675537e-02 -3.198860585689544678e-02 1.412864178419113159e-01
9.340000000000000000e+02 1.965909576416015625e+01 2.426011848449707031e+01 -6.321370601654052734e-02 -6.859356909990310669e-02 -3.954218327999114990e-02 1.427467614412307739e-01
9.350000000000000000e+02 1.896311569213867188e+01 1.519616985321044922e+01 -4.183242842555046082e-02 1.201910153031349182e-02 -8.943998254835605621e-03 -9.747988078743219376e-04
9.360000000000000000e+02 1.713808250427246094e+01 1.644546127319335938e+01 -6.620886921882629395e-02 1.771930977702140808e-02 -1.454686839133501053e-02 1.646581292152404785e-02
9.370000000000000000e+02 1.742441558837890625e+01 4.096079635620117188e+01 1.031108126044273376e-01 -1.590600162744522095e-01 -1.678475923836231232e-02 1.545396726578474045e-02
9.380000000000000000e+02 1.703031349182128906e+01 3.786919784545898438e+01 9.460332989692687988e-02 -1.520790606737136841e-01 -1.724272035062313080e-02 4.859366640448570251e-02
9.390000000000000000e+02 1.637759208679199219e+01 3.484531021118164062e+01 7.027819007635116577e-02 -1.367628574371337891e-01 -1.994539983570575714e-02 7.984550297260284424e-02
9.400000000000000000e+02 1.583634853363037109e+01 3.210376739501953125e+01 3.823407739400863647e-02 -1.143985614180564880e-01 -2.284934557974338531e-02 9.654323011636734009e-02
9.410000000000000000e+02 1.646136665344238281e+01 2.707733726501464844e+01 -1.856928877532482147e-02 -7.541588693857192993e-02 -2.819555252790451050e-02 1.147387176752090454e-01
9.420000000000000000e+02 1.694760894775390625e+01 2.232635498046875000e+01 -7.776840031147003174e-02 -3.076684102416038513e-02 -3.256057202816009521e-02 1.051565185189247131e-01
9.430000000000000000e+02 1.462851047515869141e+01 1.840205001831054688e+01 -6.349220126867294312e-02 6.043077446520328522e-03 -1.723473705351352692e-02 3.616684675216674805e-02
9.440000000000000000e+02 1.583870983123779297e+01 1.809023475646972656e+01 -7.838734239339828491e-02 1.334912888705730438e-02 -1.951146312057971954e-02 3.524745255708694458e-02
9.450000000000000000e+02 1.268717384338378906e+01 4.113840866088867188e+01 5.741523206233978271e-02 -1.296577006578445435e-01 -2.167274244129657745e-02 1.023775339126586914e-02
9.460000000000000000e+02 1.291365528106689453e+01 3.829032516479492188e+01 5.412102490663528442e-02 -1.269364953041076660e-01 -2.184464037418365479e-02 3.315718844532966614e-02
9.470000000000000000e+02 1.285166740417480469e+01 3.522573471069335938e+01 4.395234584808349609e-02 -1.165964007377624512e-01 -2.179321646690368652e-02 5.739230290055274963e-02
9.480000000000000000e+02 1.345264148712158203e+01 3.011941719055175781e+01 1.003995910286903381e-02 -8.798579871654510498e-02 -2.338375151157379150e-02 8.880857378244400024e-02
9.490000000000000000e+02 1.126884555816650391e+01 2.668429756164550781e+01 -1.402014680206775665e-02 -5.831784382462501526e-02 -2.170139737427234650e-02 7.330148667097091675e-02
9.500000000000000000e+02 1.296194934844970703e+01 2.349188041687011719e+01 -4.675978422164916992e-02 -3.004117310047149658e-02 -2.304028719663619995e-02 7.430531829595565796e-02
9.510000000000000000e+02 1.193752193450927734e+01 1.840954208374023438e+01 -4.051675274968147278e-02 -2.769659971818327904e-03 -1.298592425882816315e-02 2.870988473296165466e-02
9.520000000000000000e+02 1.329319858551025391e+01 1.709373474121093750e+01 -4.093715921044349670e-02 4.512169398367404938e-03 -1.092749647796154022e-02 2.215279825031757355e-02
9.530000000000000000e+02 8.203689575195312500e+00 4.112413406372070312e+01 2.450096420943737030e-02 -1.122077628970146179e-01 -2.631204016506671906e-02 7.535044569522142410e-03
9.540000000000000000e+02 9.236966133117675781e+00 3.838039398193359375e+01 2.995314449071884155e-02 -1.122679784893989563e-01 -2.469445019960403442e-02 2.553915977478027344e-02
9.550000000000000000e+02 8.112457275390625000e+00 2.713178443908691406e+01 -8.569064550101757050e-03 -5.489315465092658997e-02 -1.903866603970527649e-02 4.969602078199386597e-02
9.560000000000000000e+02 9.529752731323242188e+00 2.316264152526855469e+01 -2.671927213668823242e-02 -3.071131557226181030e-02 -1.722917519509792328e-02 4.717532917857170105e-02
9.570000000000000000e+02 1.001312446594238281e+01 2.146731376647949219e+01 -3.141691535711288452e-02 -1.897321268916130066e-02 -1.511703897267580032e-02 3.935198858380317688e-02
9.580000000000000000e+02 8.931496620178222656e+00 1.593772792816162109e+01 -1.254208851605653763e-02 -4.542955197393894196e-03 -5.125513300299644470e-03 8.799741975963115692e-03
9.590000000000000000e+02 7.194742202758789062e+00 1.594944763183593750e+01 -7.595846895128488541e-03 -8.290898054838180542e-03 -4.766023252159357071e-03 6.162031088024377823e-03
9.600000000000000000e+02 5.075774192810058594e+00 4.035459136962890625e+01 8.991000242531299591e-03 -1.103958413004875183e-01 -3.042145259678363800e-02 8.986894972622394562e-03
9.610000000000000000e+02 6.562521934509277344e+00 3.813257217407226562e+01 1.622839272022247314e-02 -1.047261282801628113e-01 -2.654932066798210144e-02 2.044091932475566864e-02
9.620000000000000000e+02 6.258800506591796875e+00 3.464621353149414062e+01 1.118005812168121338e-02 -9.499523043632507324e-02 -2.514455094933509827e-02 3.141603246331214905e-02
9.630000000000000000e+02 7.297678947448730469e+00 2.906996154785156250e+01 -1.437099068425595760e-03 -6.601580232381820679e-02 -2.023587003350257874e-02 4.763085395097732544e-02
9.640000000000000000e+02 5.420336723327636719e+00 2.813799667358398438e+01 -3.007375402376055717e-03 -5.896832421422004700e-02 -1.859270967543125153e-02 3.594361245632171631e-02
9.650000000000000000e+02 5.922933101654052734e+00 2.385618209838867188e+01 -1.079741027206182480e-02 -3.532272204756736755e-02 -1.383603923022747040e-02 2.975173667073249817e-02
9.660000000000000000e+02 5.630217075347900391e+00 2.053920555114746094e+01 -9.734959341585636139e-03 -2.111905254423618317e-02 -9.256203658878803253e-03 1.652877219021320343e-02
9.670000000000000000e+02 2.036191701889038086e+00 4.163871383666992188e+01 1.736164907924830914e-03 -1.203896477818489075e-01 -3.559604287147521973e-02 5.105033633299171925e-04
9.680000000000000000e+02 2.588239669799804688e+00 3.802943801879882812e+01 2.712234854698181152e-03 -1.101546660065650940e-01 -3.223272785544395447e-02 8.394301868975162506e-03
9.690000000000000000e+02 2.080846309661865234e+00 3.336417770385742188e+01 1.989984186366200447e-03 -9.000421315431594849e-02 -2.640426717698574066e-02 1.271998230367898941e-02
9.700000000000000000e+02 2.408807992935180664e+00 3.191534042358398438e+01 9.506074129603803158e-04 -8.039601892232894897e-02 -2.383362501859664917e-02 1.665102131664752960e-02
9.710000000000000000e+02 2.229704141616821289e+00 2.740612411499023438e+01 -9.184968657791614532e-04 -5.118279531598091125e-02 -1.563038863241672516e-02 1.535935699939727783e-02
9.720000000000000000e+02 2.004762172698974609e+00 2.461434745788574219e+01 -1.316550187766551971e-03 -3.430137410759925842e-02 -1.068537682294845581e-02 1.114422362297773361e-02
9.730000000000000000e+02 1.933863759040832520e+00 2.044182968139648438e+01 -1.798223005607724190e-03 -1.674370840191841125e-02 -5.562579724937677383e-03 5.146528128534555435e-03
9.740000000000000000e+02 1.942707300186157227e+00 1.766872596740722656e+01 -1.262966892682015896e-03 -1.124598085880279541e-02 -3.752684453502297401e-03 1.733730663545429707e-03
9.750000000000000000e+02 6.422200202941894531e-01 1.773143386840820312e+01 -1.645243464736267924e-04 -7.896103896200656891e-03 -2.418188378214836121e-03 3.089756355620920658e-04
9.760000000000000000e+02 1.738982200622558594e+00 7.780262470245361328e+00 -6.558357854373753071e-04 -3.666604170575737953e-03 -1.296731992624700069e-03 2.419868716970086098e-03
9.770000000000000000e+02 4.548649787902832031e-01 3.491095542907714844e+00 -4.016598104499280453e-04 6.554581341333687305e-04 7.613949128426611423e-05 1.244242503162240610e-05
9.780000000000000000e+02 3.337326765060424805e+00 1.884555816650390625e+00 4.547811113297939301e-04 -1.653398794587701559e-04 8.683236956130713224e-05 1.657343527767807245e-04
9.790000000000000000e+02 1.228140234947204590e+00 3.097429752349853516e+00 1.080889414879493415e-04 8.936209633247926831e-05 5.923530989093706012e-05 -1.226727763423696160e-04
9.800000000000000000e+02 2.584622859954833984e+00 1.907655954360961914e+00 -3.999087202828377485e-04 -3.842479200102388859e-04 -2.352469891775399446e-04 -3.272934700362384319e-04
9.810000000000000000e+02 2.321391677856445312e+01 1.701557922363281250e+01 -3.935668468475341797e-01 -8.706121891736984253e-02 -1.441884189844131470e-01 6.135383248329162598e-02
9.820000000000000000e+02 2.453069877624511719e+01 1.673112487792968750e+01 -4.026648104190826416e-01 -1.651135236024856567e-01 -1.703334897756576538e-01 1.501493901014328003e-01
9.830000000000000000e+02 2.011139106750488281e+01 9.573626518249511719e+00 9.842254221439361572e-03 1.290549896657466888e-02 6.824326235800981522e-03 1.401069294661283493e-02
9.840000000000000000e+02 1.888122367858886719e+01 6.120398521423339844e+00 -2.434408478438854218e-02 7.276016287505626678e-03 -5.120420828461647034e-03 -4.804132506251335144e-03
9.850000000000000000e+02 1.736449813842773438e+01 6.156619071960449219e+00 -1.338738575577735901e-02 1.235231012105941772e-02 -3.105227369815111160e-04 -5.573209840804338455e-03
9.860000000000000000e+02 4.641490936279296875e+01 1.441460227966308594e+01 -9.062165617942810059e-01 -1.584427356719970703e-01 -3.193978071212768555e-01 -4.814889729022979736e-01
9.870000000000000000e+02 4.964899444580078125e+01 1.535612487792968750e+01 -2.835670709609985352e+00 -9.226840734481811523e-01 -1.127506375312805176e+00 7.582027912139892578e-01
9.880000000000000000e+02 4.755385208129882812e+01 1.524786186218261719e+01 -2.485221385955810547e+00 -4.260869324207305908e-01 -8.733925223350524902e-01 -1.996198594570159912e-01
9.890000000000000000e+02 5.092916870117187500e+01 1.342205619812011719e+01 -7.394947409629821777e-01 -3.768407106399536133e-01 -3.349006474018096924e-01 6.623134016990661621e-01
9.900000000000000000e+02 5.210049057006835938e+01 1.404141330718994141e+01 -1.194663047790527344e+00 -2.881996519863605499e-02 -3.670448958873748779e-01 6.458484530448913574e-01
9.910000000000000000e+02 5.341540908813476562e+01 1.309749221801757812e+01 -1.002008676528930664e+00 4.784730076789855957e-02 -2.862483859062194824e-01 4.184340834617614746e-01
9.920000000000000000e+02 5.230086135864257812e+01 1.693670654296875000e+01 -1.359122991561889648e+00 2.292507514357566833e-02 -4.008593559265136719e-01 1.366040408611297607e-01
9.930000000000000000e+02 5.421891403198242188e+01 1.858152198791503906e+01 -1.011803150177001953e+00 2.542201876640319824e-01 -2.272748947143554688e-01 2.089531719684600830e-01
9.940000000000000000e+02 5.440449142456054688e+01 2.572111129760742188e+01 2.203518450260162354e-01 3.935861289501190186e-01 1.841813921928405762e-01 8.622258901596069336e-02
9.950000000000000000e+02 5.231992721557617188e+01 2.812063407897949219e+01 4.053054153919219971e-01 2.797600924968719482e-01 2.055196613073348999e-01 1.392926722764968872e-01
9.960000000000000000e+02 5.565457916259765625e+01 3.294416809082031250e+01 6.997576951980590820e-01 8.373145461082458496e-01 4.611216783523559570e-01 -3.243345022201538086e-02
9.970000000000000000e+02 5.290517044067382812e+01 3.368699264526367188e+01 7.035523056983947754e-01 5.267950892448425293e-01 3.691042065620422363e-01 3.779843822121620178e-02
9.980000000000000000e+02 5.311486053466796875e+01 3.690417480468750000e+01 8.098365664482116699e-01 6.895838975906372070e-01 4.498261511325836182e-01 6.579804699867963791e-03
9.990000000000000000e+02 5.183008575439453125e+01 1.324554347991943359e+01 -7.913762331008911133e-01 -9.923117607831954956e-02 -2.671822309494018555e-01 5.346162915229797363e-01
1.000000000000000000e+03 5.629470443725585938e+01 1.279720020294189453e+01 -1.175462603569030762e+00 1.513533294200897217e-01 -3.072327971458435059e-01 6.579931825399398804e-02
1.001000000000000000e+03 5.840571594238281250e+01 1.721016502380371094e+01 -1.214224815368652344e+00 4.229477047920227051e-01 -2.373831421136856079e-01 3.680985867977142334e-01
1.002000000000000000e+03 5.879719161987304688e+01 1.919729804992675781e+01 -6.150272488594055176e-01 4.852758049964904785e-01 -3.892543166875839233e-02 2.024880796670913696e-01
1.003000000000000000e+03 5.696590423583984375e+01 2.674828147888183594e+01 3.531619906425476074e-01 7.691389322280883789e-01 3.366902768611907959e-01 -5.308891460299491882e-02
1.004000000000000000e+03 5.533317947387695312e+01 3.017738151550292969e+01 5.727417469024658203e-01 6.954481601715087891e-01 3.804569542407989502e-01 -6.059121340513229370e-03
1.005000000000000000e+03 5.693592453002929688e+01 1.269119262695312500e+01 -1.271901011466979980e+00 2.584468722343444824e-01 -3.040362298488616943e-01 8.023757487535476685e-03
1.006000000000000000e+03 6.007447433471679688e+01 1.228512573242187500e+01 -1.185565948486328125e+00 -3.007921278476715088e-01 -4.459074139595031738e-01 -6.507015228271484375e-01
1.007000000000000000e+03 6.268814086914062500e+01 1.394959449768066406e+01 -4.439718246459960938e+00 -6.325421333312988281e-01 -1.521678090095520020e+00 -4.148008823394775391e-01
1.008000000000000000e+03 6.390676879882812500e+01 1.495528411865234375e+01 -1.963447213172912598e+00 -5.050056576728820801e-01 -7.405358552932739258e-01 -6.556802392005920410e-01
1.009000000000000000e+03 6.383771514892578125e+01 1.380809116363525391e+01 -4.585942268371582031e+00 -6.975211501121520996e-01 -1.585039019584655762e+00 7.323007583618164062e-01
1.010000000000000000e+03 6.436022186279296875e+01 1.592483329772949219e+01 -1.054105877876281738e+00 9.311241656541824341e-02 -2.882980108261108398e-01 -7.739818692207336426e-01
1.011000000000000000e+03 6.773405456542968750e+01 1.629559898376464844e+01 -9.431733489036560059e-01 3.530321121215820312e+00 7.761443257331848145e-01 -1.677193045616149902e+00
1.012000000000000000e+03 6.754168701171875000e+01 1.209155845642089844e+01 2.971664667129516602e-01 1.147324323654174805e+00 4.333472251892089844e-01 -5.570820569992065430e-01
1.013000000000000000e+03 7.416082000732421875e+01 1.203607940673828125e+01 1.886364340782165527e+00 6.973286151885986328e+00 2.657895088195800781e+00 -3.056026399135589600e-01
1.014000000000000000e+03 7.582056427001953125e+01 1.025182628631591797e+01 4.395534098148345947e-01 9.982681274414062500e+00 3.126670360565185547e+00 -1.481046438217163086e+00
1.015000000000000000e+03 4.008552551269531250e+01 -2.494312524795532227e+00 -8.578621745109558105e-01 -7.242112755775451660e-01 -4.746220409870147705e-01 2.428656816482543945e-01
1.016000000000000000e+03 3.960783386230468750e+01 -4.426229953765869141e+00 2.104095071554183960e-01 -1.074336543679237366e-01 3.089275583624839783e-02 -2.231236845254898071e-01
1.017000000000000000e+03 4.231225585937500000e+01 7.978143095970153809e-01 -9.071466922760009766e-01 -2.704396247863769531e-01 -3.532758951187133789e-01 -5.858498811721801758e-01
1.018000000000000000e+03 2.556221008300781250e+01 5.127205848693847656e-01 -1.680185794830322266e-01 2.242136746644973755e-01 1.685852929949760437e-02 1.289666146039962769e-01
1.019000000000000000e+03 2.625758171081542969e+01 1.545028805732727051e+00 5.646920576691627502e-02 2.535942494869232178e-01 9.301903843879699707e-02 3.466772139072418213e-01
1.020000000000000000e+03 3.859658813476562500e+01 -2.550511598587036133e+00 -4.743810594081878662e-01 -1.272498667240142822e-01 -1.804892718791961670e-01 -1.428341865539550781e-01
1.021000000000000000e+03 6.316603469848632812e+01 -4.140522003173828125e+00 1.564035296440124512e+00 8.456450462341308594e+00 3.006145715713500977e+00 1.983867049217224121e+00
1.022000000000000000e+03 5.952696228027343750e+01 -4.733846187591552734e+00 9.801824092864990234e-01 1.462988138198852539e+00 7.329511642456054688e-01 6.775017976760864258e-01
1.023000000000000000e+03 5.996383666992187500e+01 2.407043933868408203e+00 -2.149853229522705078e+00 -4.804302752017974854e-01 -7.890850305557250977e-01 -1.060242533683776855e+00
1.024000000000000000e+03 6.316909027099609375e+01 2.607039690017700195e+00 -2.087541073560714722e-01 3.430669009685516357e-01 4.029383510351181030e-02 1.452242493629455566e+00
1.025000000000000000e+03 6.325352096557617188e+01 -6.881668090820312500e+00 3.954032063484191895e-01 6.182230472564697266e+00 1.973290085792541504e+00 -1.269298046827316284e-01
1.026000000000000000e+03 6.348078536987304688e+01 -8.250604629516601562e+00 1.179102137684822083e-01 5.197003841400146484e+00 1.594474315643310547e+00 -6.798971295356750488e-01
1.027000000000000000e+03 7.008098602294921875e+01 -4.696318626403808594e+00 -1.098310589790344238e+00 2.164614915847778320e+00 3.198912739753723145e-01 -6.639217734336853027e-01
1.028000000000000000e+03 4.579143524169921875e+01 -9.695523262023925781e+00 2.930418252944946289e-01 5.883122086524963379e-01 2.644062042236328125e-01 -4.734928309917449951e-01
1.029000000000000000e+03 3.910496139526367188e+01 -8.758000373840332031e+00 4.092495441436767578e-01 6.551555395126342773e-01 3.193215429782867432e-01 -5.036302208900451660e-01
1.030000000000000000e+03 4.351525115966796875e+01 -5.749484539031982422e+00 -1.522264443337917328e-02 -4.989123642444610596e-01 -1.542405039072036743e-01 -2.198182493448257446e-01
1.031000000000000000e+03 4.301670837402343750e+01 -1.372327327728271484e+01 3.723670169711112976e-02 -5.139234662055969238e-01 -1.430060267448425293e-01 -4.194024503231048584e-01
1.032000000000000000e+03 4.277578353881835938e+01 -1.489659309387207031e+01 -5.720816850662231445e-01 -5.513803362846374512e-01 -3.370386064052581787e-01 -5.498805642127990723e-01
1.033000000000000000e+03 4.278486251831054688e+01 -1.626561164855957031e+01 -8.745617270469665527e-01 -2.241967618465423584e-01 -3.296275436878204346e-01 -1.883821040391921997e-01
1.034000000000000000e+03 4.655298614501953125e+01 -1.849002075195312500e+01 -4.182822406291961670e-01 4.559744894504547119e-01 1.130767911672592163e-02 -4.094458743929862976e-02
1.035000000000000000e+03 4.690747833251953125e+01 -1.453318786621093750e+01 -1.234051585197448730e-02 6.753755807876586914e-01 1.989105045795440674e-01 -2.963593900203704834e-01
1.036000000000000000e+03 3.231088256835937500e+01 -1.356942749023437500e+01 -1.024060472846031189e-01 4.049692153930664062e-01 9.076894819736480713e-02 -2.230330836027860641e-03
1.037000000000000000e+03 2.740425491333007812e+01 -1.675764656066894531e+01 -4.131177440285682678e-02 -2.421836256980895996e-01 -8.504862338304519653e-02 1.339152455329895020e-02
1.038000000000000000e+03 2.752610778808593750e+01 -1.782445907592773438e+01 -8.175113052129745483e-02 -1.886563003063201904e-01 -8.112222701311111450e-02 -3.058897703886032104e-02
1.039000000000000000e+03 2.726571655273437500e+01 -1.362206554412841797e+01 -1.168082877993583679e-01 -3.838039338588714600e-01 -1.501836627721786499e-01 8.196686208248138428e-02
1.040000000000000000e+03 3.010797119140625000e+01 -1.319803428649902344e+01 -1.456334292888641357e-01 9.500358998775482178e-02 -1.518895383924245834e-02 1.491505950689315796e-01
1.041000000000000000e+03 1.686498260498046875e+01 -1.420800495147705078e+01 -1.870006620883941650e-01 -6.481037288904190063e-02 -7.554331421852111816e-02 -1.826162934303283691e-01
1.042000000000000000e+03 1.026252555847167969e+01 -1.686193084716796875e+01 -6.610585749149322510e-02 -6.872374564409255981e-02 -4.044887796044349670e-02 -1.139531806111335754e-01
1.043000000000000000e+03 7.096398830413818359e+00 -1.303224754333496094e+01 -3.499753773212432861e-02 -3.479391708970069885e-02 -2.093743719160556793e-02 -4.097405076026916504e-02
1.044000000000000000e+03 1.734508705139160156e+01 -8.948256492614746094e+00 -1.671353578567504883e-01 1.001743506640195847e-02 -4.713537544012069702e-02 6.373973563313484192e-03
1.045000000000000000e+03 1.253645896911621094e+01 -1.034134960174560547e+01 -9.666774421930313110e-02 -1.646340265870094299e-02 -3.393934294581413269e-02 -3.586489707231521606e-02
1.046000000000000000e+03 3.490181350708007812e+01 -1.247700500488281250e+01 2.701064348220825195e-01 4.649825692176818848e-01 2.205266952514648438e-01 -3.313481211662292480e-01
1.047000000000000000e+03 6.141072463989257812e+01 -1.210080051422119141e+01 -4.336201548576354980e-01 2.795522928237915039e+00 7.085708379745483398e-01 5.012325644493103027e-01
1.048000000000000000e+03 6.203737258911132812e+01 -1.607910156250000000e+01 -6.808351278305053711e-01 2.156315565109252930e+00 4.426441490650177002e-01 -7.631572335958480835e-02
1.049000000000000000e+03 5.892304611206054688e+01 -1.639379310607910156e+01 -2.595039606094360352e-01 2.134602785110473633e+00 5.625296235084533691e-01 8.204588294029235840e-02
1.050000000000000000e+03 6.445250701904296875e+01 -1.563878059387207031e+01 -1.076849937438964844e+00 1.818549871444702148e+00 2.225099802017211914e-01 -1.993297040462493896e-01
1.051000000000000000e+03 8.243517875671386719e+00 -2.133534240722656250e+01 -2.103725634515285492e-02 -1.163840368390083313e-01 -4.122638702392578125e-02 -1.110576838254928589e-01
1.052000000000000000e+03 5.333407878875732422e+00 -2.119253540039062500e+01 -1.024518720805644989e-02 -1.102705374360084534e-01 -3.615471720695495605e-02 -8.128119260072708130e-02
1.053000000000000000e+03 1.320682144165039062e+01 -1.685961723327636719e+01 -9.263686090707778931e-02 -8.100350201129913330e-02 -5.209210887551307678e-02 -1.534149050712585449e-01
1.054000000000000000e+03 1.701814460754394531e+01 -1.774208259582519531e+01 -9.753172099590301514e-02 -1.422366350889205933e-01 -7.193051278591156006e-02 -2.189939022064208984e-01
1.055000000000000000e+03 1.998951339721679688e+01 -1.674402999877929688e+01 -1.148552745580673218e-01 -2.139890640974044800e-01 -9.865330159664154053e-02 -2.640430033206939697e-01
1.056000000000000000e+03 2.658614158630371094e+01 -2.133864021301269531e+01 -1.320841256529092789e-02 -1.844302415847778320e-01 -5.929159373044967651e-02 -1.385974884033203125e-01
1.057000000000000000e+03 2.980768966674804688e+01 -1.789315223693847656e+01 -1.522439718246459961e-01 -5.640210583806037903e-04 -4.584239795804023743e-02 -7.510201074182987213e-03
1.058000000000000000e+03 3.401828002929687500e+01 -1.719053649902343750e+01 -3.384462893009185791e-01 2.560313940048217773e-01 -2.472447045147418976e-02 -1.408289968967437744e-01
1.059000000000000000e+03 6.283683395385742188e+01 -2.041232681274414062e+01 -2.266477644443511963e-01 1.937989830970764160e+00 5.134026408195495605e-01 -2.271971553564071655e-01
1.060000000000000000e+03 7.333423614501953125e+01 -1.145196056365966797e+01 7.817559838294982910e-01 9.276948928833007812e+00 3.017611503601074219e+00 3.611529469490051270e-01
1.061000000000000000e+03 7.423078918457031250e+01 -1.402158451080322266e+01 1.456244111061096191e+00 8.269066810607910156e+00 2.917593240737915039e+00 8.440893888473510742e-01
1.062000000000000000e+03 7.329113769531250000e+01 -1.260239791870117188e+01 7.499741911888122559e-01 9.378798484802246094e+00 3.038631916046142578e+00 7.999345660209655762e-01
1.063000000000000000e+03 7.587593078613281250e+01 3.520485401153564453e+00 1.006709337234497070e-01 1.288748550415039062e+01 3.896446943283081055e+00 -7.822758518159389496e-03
1.064000000000000000e+03 7.705906677246093750e+01 2.480629920959472656e+00 -1.394285440444946289e+00 1.177522277832031250e+01 3.114281415939331055e+00 -2.892666339874267578e+00
1.065000000000000000e+03 6.366556167602539062e+01 -1.091263651847839355e+00 -2.577760219573974609e+00 3.967902183532714844e+00 4.170425534248352051e-01 3.170873165130615234e+00
1.066000000000000000e+03 6.299060821533203125e+01 5.647908687591552734e+00 -4.563106000423431396e-01 -2.469441652297973633e+00 -8.777257204055786133e-01 -1.274683356285095215e+00
1.067000000000000000e+03 5.009507751464843750e+01 3.627694845199584961e+00 -5.767872929573059082e-01 9.212775528430938721e-02 -1.453978568315505981e-01 6.275547295808792114e-02
1.068000000000000000e+03 5.173702239990234375e+01 3.408101558685302734e+00 -7.359802126884460449e-01 4.072939231991767883e-02 -2.085752487182617188e-01 3.185927271842956543e-01
1.069000000000000000e+03 4.602269363403320312e+01 4.765945434570312500e+00 -6.414287537336349487e-02 1.959348842501640320e-02 -1.336481515318155289e-02 -7.841398566961288452e-02
1.070000000000000000e+03 1.730629539489746094e+01 -7.374717712402343750e+00 -6.476004421710968018e-02 1.274887844920158386e-02 -1.560334954410791397e-02 1.127148699015378952e-02
1.071000000000000000e+03 8.126202583312988281e+00 -5.145351409912109375e+00 -2.080787904560565948e-03 -4.419778473675251007e-03 -1.950169913470745087e-03 8.066554553806781769e-03
1.072000000000000000e+03 1.193359661102294922e+01 -6.142512321472167969e+00 -1.875158771872520447e-02 -6.907685659825801849e-03 -7.697782013565301895e-03 6.577120628207921982e-03
1.073000000000000000e+03 8.822666168212890625e+00 -1.791672348976135254e+00 1.829583011567592621e-02 -6.731707137078046799e-03 3.469236660748720169e-03 3.843749873340129852e-03
1.074000000000000000e+03 1.066529083251953125e+01 -2.440649032592773438e+01 -4.170560277998447418e-04 -1.633005440235137939e-01 -4.911528155207633972e-02 -1.471539139747619629e-01
1.075000000000000000e+03 5.365708351135253906e+00 -2.271744346618652344e+01 -5.675186403095722198e-03 -1.331738680601119995e-01 -4.165471717715263367e-02 -8.888131380081176758e-02
1.076000000000000000e+03 1.058089065551757812e+01 -1.805382347106933594e+01 -4.799445345997810364e-02 -1.018000990152359009e-01 -4.493836686015129089e-02 -1.265559047460556030e-01
1.077000000000000000e+03 1.474320220947265625e+01 -1.937918853759765625e+01 -5.609018728137016296e-02 -1.331567913293838501e-01 -5.677409470081329346e-02 -1.827205270528793335e-01
1.078000000000000000e+03 1.998990440368652344e+01 -1.838391494750976562e+01 -7.504501938819885254e-02 -2.405372560024261475e-01 -9.467468410730361938e-02 -2.598436176776885986e-01
1.079000000000000000e+03 2.880109214782714844e+01 -2.524697685241699219e+01 4.625477641820907593e-02 -1.102445721626281738e-01 -1.919693872332572937e-02 -1.946045607328414917e-01
1.080000000000000000e+03 2.418497085571289062e+01 -2.417300415039062500e+01 4.728629812598228455e-02 -2.073215991258621216e-01 -4.801058769226074219e-02 -1.860944777727127075e-01
1.081000000000000000e+03 2.913070106506347656e+01 -2.091564369201660156e+01 -7.300776243209838867e-02 -7.773115485906600952e-02 -4.522167518734931946e-02 -1.153108328580856323e-01
1.082000000000000000e+03 3.118457984924316406e+01 -2.152533149719238281e+01 -1.561396270990371704e-01 1.364502869546413422e-02 -4.274838045239448547e-02 -1.784485876560211182e-01
1.083000000000000000e+03 6.777330780029296875e+01 -2.465719413757324219e+01 4.652338027954101562e-01 3.076387166976928711e+00 1.062486290931701660e+00 6.228740811347961426e-01
1.084000000000000000e+03 6.650032806396484375e+01 -2.575245475769042969e+01 4.117378592491149902e-01 2.755281209945678711e+00 9.501057863235473633e-01 4.401181042194366455e-01
1.085000000000000000e+03 7.518598175048828125e+01 -2.240150642395019531e+01 -2.680679857730865479e-01 6.318010807037353516e+00 1.814982891082763672e+00 6.681888699531555176e-01
1.086000000000000000e+03 6.416360378265380859e+00 -2.649435043334960938e+01 8.116538636386394501e-03 -1.810151785612106323e-01 -5.186959356069564819e-02 -9.876141697168350220e-02
1.087000000000000000e+03 1.444349956512451172e+01 -2.468942832946777344e+01 1.727351732552051544e-02 -1.859130561351776123e-01 -5.059185996651649475e-02 -1.786659657955169678e-01
1.088000000000000000e+03 1.655198860168457031e+01 -2.667132568359375000e+01 5.583659186959266663e-02 -2.160083204507827759e-01 -4.805152118206024170e-02 -1.757071465253829956e-01
1.089000000000000000e+03 2.382930564880371094e+01 -2.771443176269531250e+01 1.018236055970191956e-01 -2.116156369447708130e-01 -3.293760865926742554e-02 -1.873119175434112549e-01
1.090000000000000000e+03 3.297555160522460938e+01 -2.460608863830566406e+01 -3.674841672182083130e-02 -5.402495339512825012e-02 -2.723200991749763489e-02 -2.790198624134063721e-01
1.091000000000000000e+03 4.487708282470703125e+01 -2.648884582519531250e+01 2.125342935323715210e-01 1.679484993219375610e-01 1.141448393464088440e-01 -1.596604585647583008e-01
1.092000000000000000e+03 5.500903701782226562e+01 -2.945187950134277344e+01 3.961096107959747314e-01 1.155470132827758789e+00 4.654739201068878174e-01 2.279445342719554901e-02
1.093000000000000000e+03 6.286980438232421875e+01 -2.488804244995117188e+01 2.989893555641174316e-01 2.215403318405151367e+00 7.543177604675292969e-01 1.030839011073112488e-01
1.094000000000000000e+03 7.158261871337890625e+01 -2.693057250976562500e+01 1.955384612083435059e-01 4.514212131500244141e+00 1.412925124168395996e+00 6.999066472053527832e-01
1.095000000000000000e+03 2.280776500701904297e+00 -2.358462524414062500e+01 -1.963693415746092796e-03 -1.316594779491424561e-01 -4.008695110678672791e-02 -4.242058470845222473e-02
1.096000000000000000e+03 9.580101966857910156e+00 -3.311930465698242188e+01 4.165923595428466797e-02 -2.339538484811782837e-01 -5.768838152289390564e-02 -9.291596710681915283e-02
1.097000000000000000e+03 2.644251441955566406e+01 -3.283971405029296875e+01 2.276054024696350098e-01 -2.098810374736785889e-01 5.317311733961105347e-03 -1.601522564888000488e-01
1.098000000000000000e+03 5.753948974609375000e+01 -2.945583343505859375e+01 4.454170465469360352e-01 1.527185916900634766e+00 5.917809009552001953e-01 9.372532367706298828e-02
1.099000000000000000e+03 7.435802459716796875e+01 -3.148597908020019531e+01 1.275294721126556396e-01 5.285292148590087891e+00 1.623846411705017090e+00 4.197731018066406250e-01
1.100000000000000000e+03 7.276734161376953125e+01 -3.064900207519531250e+01 2.507132291793823242e-01 4.862002372741699219e+00 1.533814668655395508e+00 5.559226870536804199e-01
1.101000000000000000e+03 2.750278472900390625e+00 -2.941421699523925781e+01 2.841162960976362228e-03 -2.255138903856277466e-01 -6.680181622505187988e-02 -4.337422922253608704e-02
1.102000000000000000e+03 3.997776985168457031e+00 -3.419648742675781250e+01 1.200843695551156998e-02 -2.748750746250152588e-01 -7.885999232530593872e-02 -4.076583310961723328e-02
1.103000000000000000e+03 1.122885036468505859e+01 -3.167698860168457031e+01 5.193702504038810730e-02 -2.208997607231140137e-01 -5.068881809711456299e-02 -1.130862534046173096e-01
1.104000000000000000e+03 4.318751144409179688e+01 -3.081521987915039062e+01 4.250016808509826660e-01 1.410017609596252441e-01 1.698010414838790894e-01 -1.593088507652282715e-01
1.105000000000000000e+03 4.769543075561523438e+01 -3.225234603881835938e+01 4.908707439899444580e-01 4.245893359184265137e-01 2.746380269527435303e-01 -1.135338023304939270e-01
1.106000000000000000e+03 6.130550384521484375e+01 -3.294522094726562500e+01 5.562679171562194824e-01 2.177150249481201172e+00 8.200254440307617188e-01 1.644611209630966187e-01
1.107000000000000000e+03 6.762669372558593750e+01 -3.141599655151367188e+01 4.093829989433288574e-01 3.475069046020507812e+00 1.165335655212402344e+00 4.378794133663177490e-01
1.108000000000000000e+03 2.561053752899169922e+00 -3.075397109985351562e+01 2.367011038586497307e-03 -2.417364120483398438e-01 -7.181081920862197876e-02 -4.041560366749763489e-02
1.109000000000000000e+03 8.756696701049804688e+00 -3.849544525146484375e+01 4.628764092922210693e-02 -2.616310715675354004e-01 -6.460302323102951050e-02 -3.740439936518669128e-02
1.110000000000000000e+03 1.106111049652099609e+01 -3.546689605712890625e+01 7.041823118925094604e-02 -2.428447306156158447e-01 -5.172795057296752930e-02 -8.005920052528381348e-02
1.111000000000000000e+03 5.010892868041992188e+01 -3.641132354736328125e+01 6.477547883987426758e-01 7.306053042411804199e-01 4.135080277919769287e-01 -4.494268447160720825e-02
1.112000000000000000e+03 3.280994796752929688e+01 -3.716250228881835938e+01 4.048405885696411133e-01 -1.463935524225234985e-01 7.753410935401916504e-02 -1.033156663179397583e-01
1.113000000000000000e+03 7.009680175781250000e+01 1.710704231262207031e+01 -1.016375422477722168e+00 5.821630001068115234e+00 1.441576361656188965e+00 -1.179756760597229004e+00
1.114000000000000000e+03 7.245851898193359375e+01 1.592966556549072266e+01 -8.190594315528869629e-01 7.436498165130615234e+00 1.985231637954711914e+00 -9.538447856903076172e-02
1.115000000000000000e+03 6.682002258300781250e+01 1.789914131164550781e+01 -6.132535338401794434e-01 2.801275968551635742e+00 6.564067602157592773e-01 -1.501580119132995605e+00
1.116000000000000000e+03 6.683703613281250000e+01 2.057373046875000000e+01 -2.731392383575439453e-01 3.007340431213378906e+00 8.202603459358215332e-01 -1.215194225311279297e+00
1.117000000000000000e+03 6.529055023193359375e+01 2.362673759460449219e+01 1.096158549189567566e-01 2.550544261932373047e+00 7.980480194091796875e-01 -8.490522503852844238e-01
1.118000000000000000e+03 6.118576431274414062e+01 2.464767646789550781e+01 2.666163146495819092e-01 1.355743408203125000e+00 4.867079257965087891e-01 -3.719301819801330566e-01
1.119000000000000000e+03 5.867525100708007812e+01 2.520115280151367188e+01 2.648819386959075928e-01 9.521932601928710938e-01 3.651225566864013672e-01 -1.238389089703559875e-01
1.120000000000000000e+03 6.112759780883789062e+01 2.242655944824218750e+01 4.209604114294052124e-02 1.058901190757751465e+00 3.302991688251495361e-01 -3.172277212142944336e-01
1.121000000000000000e+03 6.313790893554687500e+01 1.998760795593261719e+01 -1.445661187171936035e-01 1.086106300354003906e+00 2.824620604515075684e-01 -5.623397231101989746e-01
1.122000000000000000e+03 6.455872344970703125e+01 1.879260253906250000e+01 -3.207892775535583496e-01 1.395153045654296875e+00 3.223091363906860352e-01 -9.585968852043151855e-01
1.123000000000000000e+03 5.952187347412109375e+01 1.292988491058349609e+01 -1.795926451683044434e+00 1.383640021085739136e-01 -4.972687363624572754e-01 -4.290168583393096924e-01
1.124000000000000000e+03 6.154606628417968750e+01 1.434122657775878906e+01 -2.776629447937011719e+00 -2.861801683902740479e-01 -9.188428521156311035e-01 -1.782902479171752930e-01
1.125000000000000000e+03 6.215301513671875000e+01 1.775119781494140625e+01 -6.494254469871520996e-01 3.042861521244049072e-01 -1.035417839884757996e-01 -1.521539241075515747e-01
1.126000000000000000e+03 6.035887145996093750e+01 2.101303100585937500e+01 -1.939577609300613403e-01 7.361428737640380859e-01 1.626555323600769043e-01 -1.011853218078613281e-01
1.127000000000000000e+03 6.114064788818359375e+01 1.682135581970214844e+01 -1.253623604774475098e+00 5.147125944495201111e-02 -3.606456816196441650e-01 2.161300927400588989e-01
1.128000000000000000e+03 5.658429336547851562e+01 1.610545349121093750e+01 -1.395418524742126465e+00 4.386552572250366211e-01 -2.870289683341979980e-01 3.338429629802703857e-01
1.129000000000000000e+03 5.373291015625000000e+01 1.555632209777832031e+01 -1.463544368743896484e+00 2.816639542579650879e-01 -3.545641303062438965e-01 4.450030624866485596e-01
1.130000000000000000e+03 5.054562377929687500e+01 1.669711494445800781e+01 -1.491789221763610840e+00 -3.522252440452575684e-01 -5.532043576240539551e-01 -2.767163328826427460e-02
1.131000000000000000e+03 4.676864242553710938e+01 1.645125770568847656e+01 -1.576011419296264648e+00 -1.742820441722869873e-01 -5.250880718231201172e-01 5.146614909172058105e-01
1.132000000000000000e+03 4.430334091186523438e+01 1.626159286499023438e+01 -1.285266995429992676e+00 1.731060743331909180e-01 -3.336482644081115723e-01 1.761546283960342407e-01
1.133000000000000000e+03 4.864252090454101562e+01 1.631024169921875000e+01 -2.289708137512207031e+00 -8.438113927841186523e-01 -9.400558471679687500e-01 3.933806121349334717e-01
1.134000000000000000e+03 7.598002624511718750e+01 1.711135101318359375e+01 -3.542618751525878906e-01 7.493014335632324219e+00 2.141625642776489258e+00 3.857458829879760742e-01
1.135000000000000000e+03 5.782484817504882812e+01 2.068190002441406250e+01 -4.036397337913513184e-01 5.171703100204467773e-01 3.405917435884475708e-02 1.288714110851287842e-01
1.136000000000000000e+03 5.278800582885742188e+01 2.056028175354003906e+01 -6.466110348701477051e-01 7.230027019977569580e-02 -1.722932308912277222e-01 1.956261694431304932e-01
1.137000000000000000e+03 5.204155731201171875e+01 2.180491828918457031e+01 -3.457042872905731201e-01 -1.189617719501256943e-02 -1.072801426053047180e-01 2.222485691308975220e-01
1.138000000000000000e+03 4.526962280273437500e+01 1.959322738647460938e+01 -7.001009583473205566e-01 -1.271284818649291992e-01 -2.481688261032104492e-01 5.133830904960632324e-01
1.139000000000000000e+03 4.377439880371093750e+01 1.771570396423339844e+01 -8.975973725318908691e-01 7.522376626729965210e-02 -2.467120736837387085e-01 4.038091897964477539e-01
1.140000000000000000e+03 4.966515731811523438e+01 1.993883514404296875e+01 -6.245127916336059570e-01 -3.506557643413543701e-01 -2.925505638122558594e-01 2.963283658027648926e-01
1.141000000000000000e+03 3.585980606079101562e+01 1.805849266052246094e+01 -4.423261582851409912e-01 -6.958729028701782227e-02 -1.535740345716476440e-01 1.721533089876174927e-01
1.142000000000000000e+03 3.324985885620117188e+01 1.630465698242187500e+01 -4.453231692314147949e-01 -9.598527848720550537e-02 -1.623925417661666870e-01 1.959583610296249390e-01
1.143000000000000000e+03 2.906561851501464844e+01 1.713726234436035156e+01 -3.296339213848114014e-01 1.675594598054885864e-02 -9.386339038610458374e-02 1.646547019481658936e-01
1.144000000000000000e+03 7.554669952392578125e+01 2.195418357849121094e+01 -2.519708871841430664e-01 6.916068553924560547e+00 1.999229311943054199e+00 -2.166888564825057983e-01
1.145000000000000000e+03 7.279217529296875000e+01 2.279690361022949219e+01 -2.928869128227233887e-01 5.910418033599853516e+00 1.685259342193603516e+00 -6.052499413490295410e-01
1.146000000000000000e+03 5.737255859375000000e+01 2.351740646362304688e+01 1.892656087875366211e-02 6.097991466522216797e-01 1.886177211999893188e-01 2.301573753356933594e-02
1.147000000000000000e+03 5.460530471801757812e+01 2.407524871826171875e+01 -1.291791070252656937e-02 3.285566568374633789e-01 9.469162672758102417e-02 1.284811347723007202e-01
1.148000000000000000e+03 5.335545349121093750e+01 2.239472961425781250e+01 -2.771795690059661865e-01 1.494946926832199097e-01 -3.830546513199806213e-02 1.839574426412582397e-01
1.149000000000000000e+03 4.724158859252929688e+01 2.272828292846679688e+01 -2.368177622556686401e-01 -2.032277882099151611e-01 -1.320136636495590210e-01 4.604995846748352051e-01
1.150000000000000000e+03 4.282864379882812500e+01 2.349599838256835938e+01 -2.480255067348480225e-01 -9.356272965669631958e-02 -1.024764701724052429e-01 4.668158292770385742e-01
1.151000000000000000e+03 4.559029006958007812e+01 2.419559478759765625e+01 -1.324204504489898682e-01 -1.530256867408752441e-01 -8.563383668661117554e-02 4.655944406986236572e-01
1.152000000000000000e+03 5.127569580078125000e+01 2.337053871154785156e+01 -1.553431600332260132e-01 -1.419859845191240311e-02 -5.086252465844154358e-02 2.537868022918701172e-01
1.153000000000000000e+03 3.394567871093750000e+01 2.275169944763183594e+01 -2.139191925525665283e-01 -8.296581357717514038e-02 -8.906549960374832153e-02 2.872968614101409912e-01
1.154000000000000000e+03 3.522211456298828125e+01 2.246677207946777344e+01 -2.492707222700119019e-01 -6.730561703443527222e-02 -9.497290104627609253e-02 3.033519089221954346e-01
1.155000000000000000e+03 2.962836647033691406e+01 1.849749183654785156e+01 -3.243150115013122559e-01 -5.932518746703863144e-03 -9.907425940036773682e-02 1.953899115324020386e-01
1.156000000000000000e+03 2.695124053955078125e+01 2.029684066772460938e+01 -2.432329952716827393e-01 -4.838653281331062317e-02 -8.748585730791091919e-02 1.549988538026809692e-01
1.157000000000000000e+03 2.089794921875000000e+01 1.996229934692382812e+01 -1.558534651994705200e-01 -4.693728312849998474e-02 -6.083722040057182312e-02 1.374592632055282593e-01
1.158000000000000000e+03 1.808487129211425781e+01 1.863264083862304688e+01 -1.161594092845916748e-01 1.292605884373188019e-02 -3.097000531852245331e-02 5.421600490808486938e-02
1.159000000000000000e+03 1.318030643463134766e+01 2.182267379760742188e+01 -5.151892825961112976e-02 -1.715126819908618927e-02 -2.060105837881565094e-02 6.024677306413650513e-02
1.160000000000000000e+03 8.614517211914062500e+00 2.099917793273925781e+01 -2.353030815720558167e-02 -2.114407718181610107e-02 -1.340231578797101974e-02 3.067125380039215088e-02
1.161000000000000000e+03 4.395095348358154297e+00 2.164938926696777344e+01 -6.540722213685512543e-03 -2.523099072277545929e-02 -9.531513787806034088e-03 1.565860398113727570e-02
1.162000000000000000e+03 6.427248716354370117e-01 2.053789138793945312e+01 -2.545320603530853987e-04 -1.215024571865797043e-02 -3.721433226019144058e-03 1.528666354715824127e-03
1.163000000000000000e+03 7.501586914062500000e+01 2.444955062866210938e+01 -1.506685763597488403e-01 6.480739116668701172e+00 1.899021148681640625e+00 -4.063909947872161865e-01
1.164000000000000000e+03 7.160953521728515625e+01 2.397091102600097656e+01 -2.110053896903991699e-01 5.261732101440429688e+00 1.515218019485473633e+00 -7.755075693130493164e-01
1.165000000000000000e+03 6.672592163085937500e+01 2.404051017761230469e+01 5.171905830502510071e-02 3.116238117218017578e+00 9.503871202468872070e-01 -9.447012543678283691e-01
1.166000000000000000e+03 6.207640075683593750e+01 2.359436798095703125e+01 1.984045505523681641e-01 1.504950761795043945e+00 5.110065937042236328e-01 -4.834376573562622070e-01
1.167000000000000000e+03 4.573183059692382812e+01 2.753941726684570312e+01 1.924269795417785645e-01 -1.058306396007537842e-01 2.597890049219131470e-02 3.836143314838409424e-01
1.168000000000000000e+03 4.388019561767578125e+01 2.734259414672851562e+01 1.400267034769058228e-01 -1.229243502020835876e-01 5.130707286298274994e-03 4.022401273250579834e-01
1.169000000000000000e+03 4.985755157470703125e+01 2.778373908996582031e+01 3.281062543392181396e-01 8.141862601041793823e-02 1.228574588894844055e-01 2.547248899936676025e-01
1.170000000000000000e+03 4.111042785644531250e+01 2.400363159179687500e+01 -1.711255908012390137e-01 -7.471951097249984741e-02 -7.375352829694747925e-02 4.283745288848876953e-01
1.171000000000000000e+03 3.165824508666992188e+01 2.512465476989746094e+01 -9.317567944526672363e-02 -1.158975809812545776e-01 -6.272198259830474854e-02 2.698643207550048828e-01
1.172000000000000000e+03 2.940153503417968750e+01 2.463592720031738281e+01 -9.794684499502182007e-02 -1.082707643508911133e-01 -6.186528503894805908e-02 2.344620674848556519e-01
1.173000000000000000e+03 2.273200607299804688e+01 2.464561271667480469e+01 -6.636863201856613159e-02 -9.723906964063644409e-02 -4.908230900764465332e-02 1.713899075984954834e-01
1.174000000000000000e+03 1.546451950073242188e+01 2.576123237609863281e+01 -3.218176588416099548e-02 -6.017359346151351929e-02 -2.770660817623138428e-02 1.076766103506088257e-01
1.175000000000000000e+03 7.803320884704589844e+00 2.588223648071289062e+01 -1.215482410043478012e-02 -4.771352931857109070e-02 -1.796050556004047394e-02 4.607976227998733521e-02
1.176000000000000000e+03 4.627118110656738281e+00 2.417361831665039062e+01 -6.474617403000593185e-03 -3.614650666713714600e-02 -1.278633717447519302e-02 2.317503280937671661e-02
1.177000000000000000e+03 6.505256295204162598e-01 2.335552787780761719e+01 -2.388808643445372581e-04 -2.278921008110046387e-02 -6.908427458256483078e-03 3.106544958427548409e-03
1.178000000000000000e+03 7.407418823242187500e+01 2.702332496643066406e+01 -3.857154399156570435e-02 5.891865253448486328e+00 1.755988121032714844e+00 -5.227744579315185547e-01
1.179000000000000000e+03 6.707841491699218750e+01 2.923938941955566406e+01 3.205832839012145996e-01 3.449759244918823242e+00 1.131102800369262695e+00 -6.641321182250976562e-01
1.180000000000000000e+03 6.457903289794921875e+01 2.926656913757324219e+01 4.363572895526885986e-01 2.668782711029052734e+00 9.315419793128967285e-01 -5.682004690170288086e-01
1.181000000000000000e+03 6.041947555541992188e+01 2.638373374938964844e+01 3.801217079162597656e-01 1.369948029518127441e+00 5.250208973884582520e-01 -3.033140897750854492e-01
1.182000000000000000e+03 5.259688949584960938e+01 3.080658721923828125e+01 5.714825391769409180e-01 3.827780783176422119e-01 2.862781882286071777e-01 9.975049644708633423e-02
1.183000000000000000e+03 5.028875350952148438e+01 3.159171867370605469e+01 5.611431598663330078e-01 2.490578740835189819e-01 2.430603057146072388e-01 1.542401313781738281e-01
1.184000000000000000e+03 4.756125259399414062e+01 3.139595031738281250e+01 5.307685732841491699e-01 7.401540130376815796e-02 1.814351975917816162e-01 2.414166927337646484e-01
1.185000000000000000e+03 4.328731536865234375e+01 2.984976959228515625e+01 3.088110089302062988e-01 -1.229527369141578674e-01 5.575748160481452942e-02 3.456236720085144043e-01
1.186000000000000000e+03 4.549990844726562500e+01 3.232209396362304688e+01 5.067707896232604980e-01 -4.486218094825744629e-02 1.385725736618041992e-01 2.563247680664062500e-01
1.187000000000000000e+03 3.275796127319335938e+01 2.959622383117675781e+01 1.190037727355957031e-01 -1.727581024169921875e-01 -1.612630113959312439e-02 2.645944952964782715e-01
1.188000000000000000e+03 2.734350204467773438e+01 2.963937377929687500e+01 7.953789830207824707e-02 -1.616454124450683594e-01 -2.463225275278091431e-02 2.099118828773498535e-01
1.189000000000000000e+03 1.740789794921875000e+01 2.891368484497070312e+01 6.638573948293924332e-03 -9.738196432590484619e-02 -2.722301706671714783e-02 1.220918446779251099e-01
1.190000000000000000e+03 1.539731502532958984e+01 2.980331420898437500e+01 1.220360305160284042e-02 -9.421400725841522217e-02 -2.460312098264694214e-02 1.009983718395233154e-01
1.191000000000000000e+03 1.279204368591308594e+01 2.679135513305664062e+01 -1.826421357691287994e-02 -6.046856567263603210e-02 -2.361983433365821838e-02 8.626618236303329468e-02
1.192000000000000000e+03 1.002932834625244141e+01 2.587470817565917969e+01 -1.863003894686698914e-02 -4.770692437887191772e-02 -1.990108937025070190e-02 5.973550304770469666e-02
1.193000000000000000e+03 6.793868541717529297e+00 2.764876365661621094e+01 -6.019430700689554214e-03 -5.602714419364929199e-02 -1.861397176980972290e-02 4.252755269408226013e-02
1.194000000000000000e+03 7.466050386428833008e-01 2.758585929870605469e+01 -7.184626883827149868e-04 -5.015859007835388184e-02 -1.526311598718166351e-02 5.740189924836158752e-03
1.195000000000000000e+03 7.550994873046875000e+01 3.017506790161132812e+01 2.935382165014743805e-02 6.280891418457031250e+00 1.893073558807373047e+00 -3.816181421279907227e-01
1.196000000000000000e+03 7.192422485351562500e+01 3.167854690551757812e+01 1.678841859102249146e-01 4.985146522521972656e+00 1.545909285545349121e+00 -5.215499401092529297e-01
1.197000000000000000e+03 6.159505462646484375e+01 3.153491973876953125e+01 6.035072803497314453e-01 1.983930587768554688e+00 7.762313485145568848e-01 -3.336964249610900879e-01
1.198000000000000000e+03 5.031079864501953125e+01 3.389873123168945312e+01 6.872615218162536621e-01 3.212697207927703857e-01 3.025593757629394531e-01 1.256995946168899536e-01
1.199000000000000000e+03 4.855277252197265625e+01 3.302911376953125000e+01 6.182394623756408691e-01 1.650739163160324097e-01 2.349940091371536255e-01 2.082242965698242188e-01
1.200000000000000000e+03 2.861785507202148438e+01 3.302812957763671875e+01 1.833234131336212158e-01 -1.979277282953262329e-01 -4.381295293569564819e-03 1.885911524295806885e-01
1.201000000000000000e+03 9.485258102416992188e+00 2.970435714721679688e+01 2.417556010186672211e-03 -7.376565039157867432e-02 -2.140442840754985809e-02 5.884794518351554871e-02
1.202000000000000000e+03 5.868342876434326172e+00 2.958855628967285156e+01 -1.695922401268035173e-04 -6.733476370573043823e-02 -2.025130577385425568e-02 3.863798081874847412e-02
1.203000000000000000e+03 8.247289061546325684e-01 3.044110679626464844e+01 -1.823684142436832190e-04 -7.136089354753494263e-02 -2.146297879517078400e-02 6.049103103578090668e-03
1.204000000000000000e+03 7.014667510986328125e+01 3.472599792480468750e+01 3.007367551326751709e-01 4.423009872436523438e+00 1.417123913764953613e+00 -3.961239457130432129e-01
1.205000000000000000e+03 6.718355560302734375e+01 3.805834579467773438e+01 4.875713586807250977e-01 3.607085227966308594e+00 1.228396892547607422e+00 -2.074635326862335205e-01
1.206000000000000000e+03 4.912337875366210938e+01 3.678683090209960938e+01 7.587236166000366211e-01 2.408008724451065063e-01 2.998573482036590576e-01 1.059881895780563354e-01
1.207000000000000000e+03 4.718378067016601562e+00 3.412903213500976562e+01 6.690233014523983002e-03 -9.051655232906341553e-02 -2.514789439737796783e-02 2.693323791027069092e-02
1.208000000000000000e+03 6.362409591674804688e-01 3.468098068237304688e+01 9.425620664842426777e-04 -1.001729741692543030e-01 -2.976912446320056915e-02 3.793517826125025749e-03
1.209000000000000000e+03 5.916593551635742188e+01 3.730973815917968750e+01 7.788483500480651855e-01 1.611986994743347168e+00 7.172506451606750488e-01 -1.147151142358779907e-01
1.210000000000000000e+03 7.631894946098327637e-01 3.736781311035156250e+01 4.676867101807147264e-04 -1.129677370190620422e-01 -3.375001624226570129e-02 2.336246427148580551e-03
1.211000000000000000e+03 3.083560943603515625e+00 1.478459930419921875e+01 -4.877115497947670519e-05 -9.874968789517879486e-03 -2.977121854200959206e-03 -6.622744695050641894e-05
1.212000000000000000e+03 4.318585395812988281e+00 1.027770233154296875e+01 2.537651453167200089e-03 -7.292961236089468002e-03 -1.426592934876680374e-03 5.107875447720289230e-03
1.213000000000000000e+03 8.886420249938964844e+00 1.005320835113525391e+01 1.354088447988033295e-02 2.055737655609846115e-03 4.678986966609954834e-03 5.807673092931509018e-03
1.214000000000000000e+03 1.043586635589599609e+01 9.847149848937988281e+00 1.284723728895187378e-02 1.404041796922683716e-02 8.066296577453613281e-03 9.245254099369049072e-03
1.215000000000000000e+03 1.242822742462158203e+01 1.380738449096679688e+01 -3.840745193883776665e-03 7.706510368734598160e-03 1.159729552455246449e-03 7.300169207155704498e-03
1.216000000000000000e+03 6.540571212768554688e+00 9.246263504028320312e+00 4.910787101835012436e-03 -9.276162832975387573e-03 -1.309612882323563099e-03 8.304750546813011169e-03
1.217000000000000000e+03 3.727903366088867188e+01 -3.233560800552368164e+00 -1.044027227908372879e-02 6.216675043106079102e-01 1.833681762218475342e-01 -4.870269596576690674e-01
1.218000000000000000e+03 6.609476470947265625e+01 -1.315826129913330078e+01 -6.228007674217224121e-01 3.587264120578765869e-01 -7.922230660915374756e-02 1.012716218829154968e-01
1.219000000000000000e+03 3.778971862792968750e+01 -6.385131835937500000e+00 6.842809915542602539e-01 1.110832333564758301e+00 5.385339856147766113e-01 -8.362673521041870117e-01
1.220000000000000000e+03 3.971936035156250000e+01 -9.943238258361816406e+00 2.211620807647705078e-01 2.413773089647293091e-01 1.387618184089660645e-01 -3.203493058681488037e-01
1.221000000000000000e+03 3.325270843505859375e+01 -1.034555149078369141e+01 4.060470461845397949e-01 9.513012766838073730e-01 4.072045087814331055e-01 -5.284180641174316406e-01
1.222000000000000000e+03 3.177607727050781250e+01 -8.000770568847656250e+00 3.409588336944580078e-01 1.209865808486938477e+00 4.652473926544189453e-01 -5.693501234054565430e-01
1.223000000000000000e+03 3.021603965759277344e+01 -4.025823593139648438e+00 5.485582351684570312e-02 1.272426694631576538e-01 5.462954565882682800e-02 -4.628231227397918701e-01
1.224000000000000000e+03 5.411740875244140625e+01 -9.062832832336425781e+00 5.612201988697052002e-02 -1.565948426723480225e-01 -3.014184720814228058e-02 1.062310189008712769e-01
1.225000000000000000e+03 5.616793060302734375e+01 -1.597866535186767578e+01 -2.023466862738132477e-02 2.431881189346313477e+00 7.234939336776733398e-01 1.353630051016807556e-02
1.226000000000000000e+03 5.102283477783203125e+01 -1.650168418884277344e+01 -4.561306163668632507e-02 3.241608440876007080e-01 8.356433361768722534e-02 -1.990728974342346191e-01
1.227000000000000000e+03 4.902463531494140625e+01 -1.449726200103759766e+01 3.068617582321166992e-01 6.687323451042175293e-01 2.926782071590423584e-01 -4.841976165771484375e-01
1.228000000000000000e+03 4.644050598144531250e+01 -1.094791126251220703e+01 5.131474733352661133e-01 9.434334039688110352e-01 4.369742572307586670e-01 -6.569757461547851562e-01
1.229000000000000000e+03 4.480553054809570312e+01 -6.983829021453857422e+00 7.256420701742172241e-02 -3.156413733959197998e-01 -7.292314618825912476e-02 -9.774761646986007690e-02
1.230000000000000000e+03 6.999574279785156250e+01 -6.448233604431152344e+00 2.753495573997497559e-01 1.510992527008056641e+00 5.359026193618774414e-01 -8.259969353675842285e-01
1.231000000000000000e+03 7.085681152343750000e+01 -7.532682418823242188e+00 8.196732401847839355e-01 3.092101812362670898e+00 1.173532485961914062e+00 -1.428543090820312500e+00
1.232000000000000000e+03 7.210797882080078125e+01 -1.004771709442138672e+01 7.757637500762939453e-01 9.438005447387695312e+00 3.064130783081054688e+00 -9.548152685165405273e-01
1.233000000000000000e+03 6.509677124023437500e+01 -1.207863140106201172e+01 -6.951916962862014771e-02 1.314663767814636230e+00 3.735433816909790039e-01 -2.601479291915893555e-01
1.234000000000000000e+03 6.431447601318359375e+01 -1.089853382110595703e+01 5.500644072890281677e-02 2.378082036972045898e+00 7.299265265464782715e-01 -7.433177232742309570e-01
1.235000000000000000e+03 6.985907745361328125e+01 8.259742736816406250e+00 -3.094337701797485352e+00 1.660951995849609375e+01 4.054554462432861328e+00 7.171128749847412109e+00
1.236000000000000000e+03 6.540593719482421875e+01 1.208891487121582031e+01 -2.522768080234527588e-01 -1.562917709350585938e+00 -5.445583462715148926e-01 6.817505359649658203e-01
1.237000000000000000e+03 6.699183654785156250e+01 1.194022178649902344e+01 -1.180057302117347717e-01 5.995508432388305664e-01 1.444635242223739624e-01 1.091890409588813782e-01
1.238000000000000000e+03 6.827967834472656250e+01 1.166736888885498047e+01 1.096894145011901855e+00 1.798641681671142578e+00 8.686607480049133301e-01 -1.364712595939636230e+00
1.239000000000000000e+03 6.808973693847656250e+01 1.169960212707519531e+01 9.128407239913940430e-01 1.560215592384338379e+00 7.419168949127197266e-01 -1.085445761680603027e+00
1.240000000000000000e+03 6.846762847900390625e+01 1.165375041961669922e+01 1.147934198379516602e+00 2.190694808959960938e+00 1.001588702201843262e+00 -1.722982645034790039e+00
1.241000000000000000e+03 7.001774597167968750e+01 1.164994335174560547e+01 -3.436395525932312012e-02 1.126811695098876953e+01 3.370125770568847656e+00 -2.842168092727661133e+00
1.242000000000000000e+03 7.044329071044921875e+01 1.159620857238769531e+01 -4.089654386043548584e-01 1.379424858093261719e+01 4.015584945678710938e+00 -7.790628075599670410e-01
1.243000000000000000e+03 7.107421112060546875e+01 1.144964790344238281e+01 1.278111338615417480e+00 1.371913909912109375e+01 4.499175071716308594e+00 3.144150733947753906e+00
1.244000000000000000e+03 7.145891571044921875e+01 1.118648719787597656e+01 3.946510791778564453e+00 1.107637023925781250e+01 4.506864070892333984e+00 4.681454658508300781e+00
1.245000000000000000e+03 7.173548889160156250e+01 1.079942798614501953e+01 6.682051181793212891e+00 7.917685031890869141e+00 4.379920959472656250e+00 5.063117980957031250e+00
1.246000000000000000e+03 7.177627563476562500e+01 9.346390724182128906e+00 5.621705651283264160e-01 3.765624046325683594e+00 1.298338413238525391e+00 -1.116468906402587891e+00
1.247000000000000000e+03 6.943379211425781250e+01 8.228822708129882812e+00 -7.809400558471679688e-02 1.353272819519042969e+01 4.036390304565429688e+00 5.350174903869628906e+00
1.248000000000000000e+03 6.853592681884765625e+01 8.415874481201171875e+00 9.236754179000854492e-01 5.392642498016357422e+00 1.894895434379577637e+00 3.392544031143188477e+00
1.249000000000000000e+03 6.931502532958984375e+01 5.201269626617431641e+00 2.068716287612915039e+00 2.086055946350097656e+01 6.878782749176025391e+00 3.166336059570312500e+00
1.250000000000000000e+03 6.772665405273437500e+01 8.387257575988769531e+00 5.447031259536743164e-01 2.846051216125488281e+00 1.017226338386535645e+00 3.394573628902435303e-01
1.251000000000000000e+03 6.670887756347656250e+01 8.285995483398437500e+00 -2.512235939502716064e-01 1.535151720046997070e+00 3.851784169673919678e-01 -1.446409702301025391e+00
1.252000000000000000e+03 6.604965972900390625e+01 8.357047080993652344e+00 -8.246457576751708984e-01 3.780179023742675781e-01 -1.339883655309677124e-01 -1.888811111450195312e+00
1.253000000000000000e+03 6.375168991088867188e+01 6.711575984954833984e+00 -9.981316328048706055e-01 -3.289332866668701172e+00 -1.286239385604858398e+00 -1.842775344848632812e+00
1.254000000000000000e+03 6.220103073120117188e+01 4.435953140258789062e+00 -7.102180719375610352e-01 -1.598185539245605469e+00 -6.925210952758789062e-01 -6.952234506607055664e-01
1.255000000000000000e+03 5.663721847534179688e+01 8.789995193481445312e+00 -5.409989040344953537e-03 1.634185435250401497e-03 -1.132741104811429977e-03 1.604826320544816554e-05
1.256000000000000000e+03 5.520631027221679688e+01 9.125972747802734375e+00 -6.438391748815774918e-03 1.185912638902664185e-02 1.626220298931002617e-03 -1.091671641916036606e-02
1.257000000000000000e+03 5.308917617797851562e+01 9.356994628906250000e+00 1.756552979350090027e-02 -4.090459551662206650e-03 4.042520653456449509e-03 -2.348398091271519661e-03
1.258000000000000000e+03 5.379875183105468750e+01 9.336549758911132812e+00 1.617276575416326523e-04 -4.771752748638391495e-03 -1.383007620461285114e-03 -2.611410617828369141e-02
1.259000000000000000e+03 5.238484573364257812e+01 9.372179985046386719e+00 7.687367498874664307e-03 -1.821098104119300842e-02 -3.157084109261631966e-03 -1.628339290618896484e-02
1.260000000000000000e+03 5.122269439697265625e+01 9.398207664489746094e+00 2.319173328578472137e-02 -2.873370610177516937e-02 -1.662591472268104553e-03 -5.628457758575677872e-03
1.261000000000000000e+03 4.791533279418945312e+01 6.737447261810302734e+00 2.800226211547851562e-02 5.947912856936454773e-02 2.624441683292388916e-02 2.197151444852352142e-02
1.262000000000000000e+03 4.423415374755859375e+01 2.728101491928100586e+00 -2.550945281982421875e-01 -1.755628734827041626e-01 -1.291972249746322632e-01 -2.976922690868377686e-01
1.263000000000000000e+03 4.128451538085937500e+01 -2.606057189404964447e-02 -2.284073591232299805e+00 -4.030397832393646240e-01 -8.061340451240539551e-01 -5.502486228942871094e-01
1.264000000000000000e+03 3.946525573730468750e+01 7.116930484771728516e+00 1.559407543390989304e-02 1.993618719279766083e-02 1.065907906740903854e-02 -2.457288093864917755e-03
1.265000000000000000e+03 4.109465408325195312e+01 8.451167106628417969e+00 -4.850055091083049774e-03 -9.878387209028005600e-04 -1.751368166878819466e-03 -5.790146533399820328e-04
1.266000000000000000e+03 3.980210113525390625e+01 8.967870712280273438e+00 -2.005265560001134872e-03 5.469194147735834122e-03 1.039178576320409775e-03 -1.304998411796987057e-03
1.267000000000000000e+03 3.924359130859375000e+01 8.420227050781250000e+00 -2.537335036322474480e-03 -3.646935801953077316e-04 -8.706086082383990288e-04 -6.900194101035594940e-03
1.268000000000000000e+03 3.915805053710937500e+01 9.103102684020996094e+00 7.742563262581825256e-03 3.589395666494965553e-03 3.399587702006101608e-03 2.959686331450939178e-03
1.269000000000000000e+03 3.835464477539062500e+01 9.133815765380859375e+00 -1.518857316114008427e-03 3.492799121886491776e-03 5.921825650148093700e-04 -8.157258853316307068e-03
1.270000000000000000e+03 3.580758285522460938e+01 9.514430999755859375e+00 2.403529733419418335e-02 -7.074278546497225761e-04 6.998361088335514069e-03 7.261335384100675583e-03
1.271000000000000000e+03 3.199067687988281250e+01 4.942585468292236328e+00 4.519563913345336914e-01 -8.674034476280212402e-02 1.095648109912872314e-01 5.255195870995521545e-02
1.272000000000000000e+03 2.939550781250000000e+01 2.980627775192260742e+00 5.075606107711791992e-01 -1.301750391721725464e-01 1.132156625390052795e-01 1.690903455018997192e-01
1.273000000000000000e+03 2.518946456909179688e+01 2.399286985397338867e+00 4.643101096153259277e-01 3.411747142672538757e-02 1.495282649993896484e-01 1.611432135105133057e-01
1.274000000000000000e+03 2.472603416442871094e+01 1.712912082672119141e+00 2.001679837703704834e-01 8.223229646682739258e-02 8.472008258104324341e-02 1.528129279613494873e-01
1.275000000000000000e+03 2.650069427490234375e+01 2.202878475189208984e+00 4.383441805839538574e-01 3.376590609550476074e-01 2.328009605407714844e-01 3.492405414581298828e-01
1.276000000000000000e+03 2.573923301696777344e+01 2.311752319335937500e+00 5.543225407600402832e-01 1.447214335203170776e-01 2.097132056951522827e-01 3.395949602127075195e-01
1.277000000000000000e+03 1.890335655212402344e+01 1.887107133865356445e+00 1.643573981709778309e-03 -1.290022674947977066e-02 -3.376995678991079330e-03 2.393833594396710396e-03
1.278000000000000000e+03 1.828548049926757812e+01 2.640770673751831055e+00 7.132222410291433334e-03 -4.006073810160160065e-03 9.378445683978497982e-04 -3.941344097256660461e-03
1.279000000000000000e+03 1.887312698364257812e+01 2.346274614334106445e+00 3.689628094434738159e-03 1.802066457457840443e-03 1.647508353926241398e-03 -7.011236157268285751e-03
1.280000000000000000e+03 2.115966033935546875e+01 -1.144117042422294617e-01 -8.488165331073105335e-04 1.625636219978332520e-02 4.622263833880424500e-03 9.987334720790386200e-03
1.281000000000000000e+03 2.218216896057128906e+01 -1.211630582809448242e+00 -9.222498163580894470e-03 1.152056083083152771e-01 3.179493173956871033e-02 -1.276578661054372787e-02
1.282000000000000000e+03 2.366410064697265625e+01 -3.452115058898925781e+00 1.098121404647827148e-01 2.584400177001953125e-01 1.104756444692611694e-01 -1.494737416505813599e-01
1.283000000000000000e+03 2.053333663940429688e+01 -7.544027328491210938e+00 -3.764959052205085754e-02 3.437210619449615479e-02 -9.832454379647970200e-04 -2.915670862421393394e-03
1.284000000000000000e+03 1.758077049255371094e+01 -4.646655082702636719e+00 2.530834451317787170e-02 1.011796575039625168e-02 1.062789279967546463e-02 -3.894241899251937866e-02
1.285000000000000000e+03 1.337294864654541016e+01 -2.040195941925048828e+00 1.951046101748943329e-02 -1.367427408695220947e-02 1.750855823047459126e-03 -1.006415300071239471e-02
1.286000000000000000e+03 1.258054447174072266e+01 -2.010190010070800781e+00 1.745424047112464905e-02 3.532286034896969795e-03 6.295958068221807480e-03 -5.618924275040626526e-03
1.287000000000000000e+03 1.030697154998779297e+01 -1.852060914039611816e+00 1.877712830901145935e-02 -9.346398524940013885e-03 2.829218981787562370e-03 -3.495346463751047850e-04
1.288000000000000000e+03 1.167349338531494141e+01 -2.703980207443237305e+00 1.258616056293249130e-02 1.364864641800522804e-03 4.185307770967483521e-03 -8.672678959555923939e-04
1.289000000000000000e+03 8.717200279235839844e+00 -3.010385990142822266e+00 8.998014032840728760e-03 -9.328550659120082855e-03 -9.916115232044830918e-05 1.709364587441086769e-03
1.290000000000000000e+03 7.419702529907226562e+00 -1.816270351409912109e+00 1.937608793377876282e-02 -5.020660348236560822e-03 4.306628368794918060e-03 7.336816284805536270e-03
1.291000000000000000e+03 6.881078243255615234e+00 -2.002387285232543945e+00 1.453921664506196976e-02 -1.623023068532347679e-03 3.874858142808079720e-03 1.843539415858685970e-03
1.292000000000000000e+03 5.563397407531738281e+00 -2.516559839248657227e+00 8.531168103218078613e-03 3.470794763416051865e-03 3.600588999688625336e-03 8.628484793007373810e-03
1.293000000000000000e+03 1.731198668479919434e+00 -5.303847312927246094e+00 1.855480659287422895e-04 8.824569173157215118e-03 2.703035250306129456e-03 6.930311676114797592e-03
1.294000000000000000e+03 1.160003900527954102e+00 -2.096181392669677734e+00 2.120113931596279144e-03 2.775091445073485374e-03 1.468561589717864990e-03 3.489118302240967751e-03
1.295000000000000000e+03 3.934378325939178467e-01 -2.183173894882202148e+00 6.358879181789234281e-05 2.525445306673645973e-03 7.767102215439081192e-04 5.995226092636585236e-04
1.296000000000000000e+03 4.887540340423583984e+00 -4.024702453613281250e+01 1.319574285298585892e-02 -3.042685389518737793e-01 -8.732184022665023804e-02 -1.719040796160697937e-02
1.297000000000000000e+03 7.676774263381958008e-01 -3.873972320556640625e+01 -1.886165817268192768e-03 -3.424680829048156738e-01 -1.033062711358070374e-01 -1.649654703214764595e-03
1.298000000000000000e+03 8.613514304161071777e-01 -3.335150527954101562e+01 1.009353902190923691e-03 -3.000613152980804443e-01 -8.971558511257171631e-02 -1.119734346866607666e-02
1.299000000000000000e+03 8.584336638450622559e-01 -3.195309066772460938e+01 2.892397169489413500e-04 -2.811427712440490723e-01 -8.425606042146682739e-02 -1.237229909747838974e-02
1.300000000000000000e+03 8.963816761970520020e-01 -2.916246604919433594e+01 -1.480030128732323647e-03 -2.320886999368667603e-01 -7.007061690092086792e-02 -1.633611135184764862e-02
1.301000000000000000e+03 8.639165759086608887e-01 -2.631827545166015625e+01 1.025498844683170319e-03 -1.811791211366653442e-01 -5.404608696699142456e-02 -1.711199246346950531e-02
1.302000000000000000e+03 2.243712663650512695e+00 -2.219837951660156250e+01 -1.339715206995606422e-03 -1.085823625326156616e-01 -3.297662362456321716e-02 -4.111362621188163757e-02
1.303000000000000000e+03 2.217597723007202148e+00 -1.936377143859863281e+01 -1.620138762518763542e-03 -6.678001582622528076e-02 -2.052004635334014893e-02 -3.498386591672897339e-02
1.304000000000000000e+03 1.852851390838623047e+00 -1.214828205108642578e+01 -5.359336268156766891e-03 8.052693679928779602e-03 8.080070256255567074e-04 -7.333629764616489410e-03
1.305000000000000000e+03 1.644664645195007324e+00 -6.669337749481201172e+00 -1.697706058621406555e-03 1.435456424951553345e-02 3.797057550400495529e-03 5.664858501404523849e-03
1.306000000000000000e+03 2.102987527847290039e+00 -2.856282949447631836e+00 2.712983638048171997e-03 4.278747830539941788e-03 2.097519347444176674e-03 6.907701026648283005e-03
1.307000000000000000e+03 7.579035186767578125e+01 4.034983062744140625e+01 9.086986631155014038e-02 6.050906658172607422e+00 1.842532873153686523e+00 4.820540081709623337e-03
1.308000000000000000e+03 7.874946594238281250e+01 3.880035400390625000e+01 -5.830885842442512512e-02 6.545508384704589844e+00 1.946159839630126953e+00 -8.283258974552154541e-02
1.309000000000000000e+03 7.895478820800781250e+01 3.479045486450195312e+01 1.031760033220052719e-02 6.859272956848144531e+00 2.060877084732055664e+00 -6.868960708379745483e-02
1.310000000000000000e+03 7.909880065917968750e+01 2.934781837463378906e+01 -7.546839769929647446e-04 7.416587829589843750e+00 2.224750041961669922e+00 -8.215264230966567993e-02
1.311000000000000000e+03 7.727109527587890625e+01 2.794857597351074219e+01 -1.311589684337377548e-02 6.938354969024658203e+00 2.077571868896484375e+00 -2.792891263961791992e-01
1.312000000000000000e+03 7.776682281494140625e+01 2.495559501647949219e+01 -6.145806238055229187e-02 7.372780323028564453e+00 2.193396568298339844e+00 -1.910502910614013672e-01
1.313000000000000000e+03 7.941192626953125000e+01 1.952100944519042969e+01 2.338221669197082520e-02 8.094101905822753906e+00 2.435245037078857422e+00 6.022060662508010864e-02
1.314000000000000000e+03 7.826797485351562500e+01 1.819722175598144531e+01 -6.624704599380493164e-02 7.670285224914550781e+00 2.281211376190185547e+00 2.485515773296356201e-01
1.315000000000000000e+03 7.818569946289062500e+01 1.402345561981201172e+01 -1.280231475830078125e-01 7.156574726104736328e+00 2.108565330505371094e+00 5.522511601448059082e-01
1.316000000000000000e+03 7.945055389404296875e+01 9.727289199829101562e+00 1.281788945198059082e-01 3.697419643402099609e+00 1.147679567337036133e+00 6.240683197975158691e-01
1.317000000000000000e+03 7.761706542968750000e+01 8.213809967041015625e+00 2.163193702697753906e+00 1.054321193695068359e+01 3.811921834945678711e+00 1.256821155548095703e-01
1.318000000000000000e+03 7.946196746826171875e+01 5.591896057128906250e+00 5.649214386940002441e-01 4.565766811370849609e+00 1.539206504821777344e+00 -1.250294089317321777e+00
1.319000000000000000e+03 7.782649230957031250e+01 3.126526117324829102e+00 -9.811020493507385254e-01 1.161529159545898438e+01 3.190256834030151367e+00 -3.134013414382934570e+00
1.320000000000000000e+03 7.935728454589843750e+01 7.775785028934478760e-02 -7.457958906888961792e-02 1.441370582580566406e+01 4.301737785339355469e+00 -3.351869583129882812e-01
1.321000000000000000e+03 7.813832092285156250e+01 -2.144236117601394653e-02 -1.102916955947875977e+00 1.174507045745849609e+01 3.192646026611328125e+00 -5.173631310462951660e-01
1.322000000000000000e+03 7.940773010253906250e+01 -6.923916339874267578e+00 2.170804655179381371e-03 1.068436241149902344e+01 3.205960035324096680e+00 4.078831076622009277e-01
1.323000000000000000e+03 7.817469787597656250e+01 -8.206456184387207031e+00 9.056624025106430054e-02 9.269442558288574219e+00 2.808002710342407227e+00 9.917325377464294434e-01
1.324000000000000000e+03 7.935246276855468750e+01 -1.111519908905029297e+01 -2.827155636623501778e-03 8.220667839050292969e+00 2.465352296829223633e+00 2.739520668983459473e-01
1.325000000000000000e+03 7.677671051025390625e+01 -1.237614059448242188e+01 5.341234803199768066e-01 8.152396202087402344e+00 2.605955839157104492e+00 4.846957325935363770e-01
1.326000000000000000e+03 7.946000671386718750e+01 -1.667918395996093750e+01 -1.549773663282394409e-01 7.792182445526123047e+00 2.291161537170410156e+00 -7.954037934541702271e-02
1.327000000000000000e+03 7.838209533691406250e+01 -1.658759117126464844e+01 1.151802614331245422e-01 7.751918315887451172e+00 2.360129594802856445e+00 -1.636893749237060547e-01
1.328000000000000000e+03 7.924787139892578125e+01 -2.362482070922851562e+01 2.519322186708450317e-02 7.713124752044677734e+00 2.321495294570922852e+00 9.905794262886047363e-02
1.329000000000000000e+03 7.928466033935546875e+01 -2.645664024353027344e+01 3.222645819187164307e-02 7.280993938446044922e+00 2.193966150283813477e+00 1.112058758735656738e-01
1.330000000000000000e+03 7.663903808593750000e+01 -2.914439773559570312e+01 8.784891664981842041e-02 6.107973575592041016e+00 1.858746767044067383e+00 4.053819477558135986e-01
1.331000000000000000e+03 7.937870788574218750e+01 -3.614747238159179688e+01 6.131171714514493942e-03 6.171066284179687500e+00 1.853159308433532715e+00 4.547533765435218811e-02
1.332000000000000000e+03 7.704759216308593750e+01 -3.703200531005859375e+01 7.684512063860893250e-03 5.797794818878173828e+00 1.741643786430358887e+00 2.041511833667755127e-01
1.333000000000000000e+03 7.874750518798828125e+01 -4.007815551757812500e+01 -2.779068052768707275e-02 5.840639114379882812e+00 1.743854522705078125e+00 9.050256013870239258e-02
1.334000000000000000e+03 3.748409748077392578e-01 2.155655384063720703e+00 3.083739429712295532e-04 5.003882688470184803e-04 2.426286664558574557e-04 -1.388674863846972585e-04
1.335000000000000000e+03 5.387416481971740723e-01 4.924240589141845703e+00 1.097826680052094162e-04 4.481152427615597844e-05 4.637825622921809554e-05 3.842639271169900894e-04
1.336000000000000000e+03 1.697201132774353027e+00 6.300637722015380859e+00 9.748261072672903538e-05 -1.927410252392292023e-03 -5.489782779477536678e-04 2.436205279082059860e-03
1.337000000000000000e+03 1.658265709877014160e+00 9.233196258544921875e+00 7.971865707077085972e-04 -5.830020643770694733e-03 -1.509850262664258480e-03 2.850442426279187202e-03
1.338000000000000000e+03 5.794858932495117188e-01 1.209178543090820312e+01 4.581058965413831174e-05 -8.290403522551059723e-03 -2.473378088325262070e-03 -1.498172241554129869e-05
1.339000000000000000e+03 1.728147029876708984e+00 1.205363082885742188e+01 6.521009490825235844e-04 -7.990676909685134888e-03 -2.201572759076952934e-03 7.952461019158363342e-04
1.340000000000000000e+03 6.322434544563293457e-01 1.632580566406250000e+01 -1.692472142167389393e-04 -7.479740306735038757e-03 -2.294696168974041939e-03 5.279856122797355056e-05
1.341000000000000000e+03 6.449393033981323242e-01 1.913370132446289062e+01 -3.455600817687809467e-04 -9.345578029751777649e-03 -2.907341578975319862e-03 9.880716679617762566e-04
1.342000000000000000e+03 6.425911188125610352e-01 2.194601249694824219e+01 -4.710352513939142227e-04 -1.661707647144794464e-02 -5.126433447003364563e-03 2.459208248183131218e-03
1.343000000000000000e+03 6.698951125144958496e-01 2.476370239257812500e+01 -5.596849950961768627e-04 -3.063326328992843628e-02 -9.357884526252746582e-03 4.105051048099994659e-03
1.344000000000000000e+03 7.027568817138671875e-01 2.617223358154296875e+01 -1.701433357084169984e-04 -3.983783349394798279e-02 -1.200239267200231552e-02 4.718367010354995728e-03
1.345000000000000000e+03 7.943085432052612305e-01 2.900983047485351562e+01 2.492608327884227037e-04 -6.095978245139122009e-02 -1.821315661072731018e-02 5.995133426040410995e-03
1.346000000000000000e+03 2.382620096206665039e+00 2.885054779052734375e+01 -7.688328623771667480e-04 -6.071954593062400818e-02 -1.844651438295841217e-02 1.766836084425449371e-02
1.347000000000000000e+03 6.994773745536804199e-01 3.329406738281250000e+01 -7.967515557538717985e-05 -9.085805714130401611e-02 -2.728131972253322601e-02 4.857794847339391708e-03
1.348000000000000000e+03 6.634132266044616699e-01 3.602946472167968750e+01 -3.478333383100107312e-05 -1.078069955110549927e-01 -3.235253319144248962e-02 2.961328485980629921e-03
1.349000000000000000e+03 1.333751320838928223e+00 4.007642364501953125e+01 7.610933389514684677e-04 -1.196379065513610840e-01 -3.566304594278335571e-02 1.763352192938327789e-03
1.350000000000000000e+03 4.123853206634521484e+00 1.861914634704589844e+00 -5.824924446642398834e-04 -4.514148458838462830e-04 -3.101721813436597586e-04 -1.241136487806215882e-04
1.351000000000000000e+03 4.170780658721923828e+00 2.571266412734985352e+00 4.111553425900638103e-04 -6.336968363029882312e-05 1.043356969603337348e-04 3.662574163172394037e-04
1.352000000000000000e+03 1.849386334419250488e+00 1.949996471405029297e+00 2.382554375799372792e-04 7.129101959435502067e-06 7.361535972449928522e-05 -1.577306393301114440e-04
1.353000000000000000e+03 1.115889072418212891e+00 2.041013240814208984e+00 -1.466158282710239291e-04 4.918788181385025382e-05 -2.922838393715210259e-05 -2.733604051172733307e-04
1.354000000000000000e+03 2.553373575210571289e+00 2.711368560791015625e+00 1.671255595283582807e-04 -1.291103981202468276e-04 1.140454787673661485e-05 -9.241297811968252063e-05
1.355000000000000000e+03 5.150658130645751953e+00 4.236318111419677734e+00 -4.569597542285919189e-03 1.019086106680333614e-03 -1.065153395757079124e-03 4.291502700652927160e-04
1.356000000000000000e+03 5.631487846374511719e+00 4.862096786499023438e+00 -9.753984399139881134e-03 7.530282600782811642e-04 -2.700286917388439178e-03 2.313865581527352333e-03
1.357000000000000000e+03 6.084725379943847656e+00 5.559058189392089844e+00 -1.007848791778087616e-02 2.731458051130175591e-03 -2.204108983278274536e-03 6.300785113126039505e-03
1.358000000000000000e+03 1.025156497955322266e+01 6.745080471038818359e+00 3.892361419275403023e-03 4.530855640769004822e-02 1.476027537137269974e-02 4.484941717237234116e-03
1.359000000000000000e+03 8.534204483032226562e+00 7.737255573272705078e+00 1.549004856497049332e-02 -7.873858325183391571e-03 2.284856978803873062e-03 4.522884264588356018e-03
1.360000000000000000e+03 1.407088851928710938e+01 1.165453910827636719e+01 2.026717364788055420e-02 1.765877194702625275e-02 1.137778349220752716e-02 1.836286671459674835e-02
1.361000000000000000e+03 1.759711837768554688e+01 1.455282402038574219e+01 -1.631192304193973541e-02 7.315023802220821381e-03 -2.699069678783416748e-03 1.026853173971176147e-02
1.362000000000000000e+03 2.167646598815917969e+01 1.649750137329101562e+01 -1.893381327390670776e-01 1.229409780353307724e-02 -5.311321094632148743e-02 -1.391826849430799484e-02
1.363000000000000000e+03 2.133597564697265625e+01 1.039624786376953125e+01 1.923918351531028748e-02 1.957635022699832916e-02 1.164465956389904022e-02 1.711093634366989136e-02
1.364000000000000000e+03 2.097116470336914062e+01 8.989726066589355469e+00 5.485168658196926117e-03 1.269201748073101044e-02 5.453155841678380966e-03 6.660862825810909271e-03
1.365000000000000000e+03 1.788183593750000000e+01 7.841403961181640625e+00 4.042998421937227249e-03 7.025416940450668335e-03 3.320524701848626137e-03 1.156137604266405106e-02
1.366000000000000000e+03 1.610225296020507812e+01 6.890601634979248047e+00 3.052681870758533478e-02 7.836783304810523987e-03 1.150908041745424271e-02 7.718576118350028992e-03
1.367000000000000000e+03 1.518116188049316406e+01 6.308951377868652344e+00 7.305942010134458542e-03 9.522036649286746979e-03 5.048393737524747849e-03 2.266107313334941864e-02
1.368000000000000000e+03 1.811329650878906250e+01 6.159469604492187500e+00 -2.072139270603656769e-02 -1.007695589214563370e-02 -9.239505045115947723e-03 -9.118255227804183960e-03
1.369000000000000000e+03 1.662440109252929688e+01 6.246653079986572266e+00 -2.175777219235897064e-02 -4.900549538433551788e-03 -7.997496053576469421e-03 -1.243312191218137741e-02
1.370000000000000000e+03 1.582282829284667969e+01 6.254943370819091797e+00 9.021377190947532654e-03 2.388768130913376808e-03 3.423043526709079742e-03 1.536660455167293549e-02
1.371000000000000000e+03 1.877651405334472656e+01 7.218579769134521484e+00 1.122542656958103180e-03 9.744882117956876755e-05 3.659974609035998583e-04 -2.623876091092824936e-03
1.372000000000000000e+03 2.033806037902832031e+01 6.075076103210449219e+00 -2.958110906183719635e-02 5.612398963421583176e-03 -7.190613076090812683e-03 -8.774693123996257782e-03
1.373000000000000000e+03 2.113822174072265625e+01 6.021542072296142578e+00 -2.859183214604854584e-02 5.005828570574522018e-03 -7.075801026076078415e-03 -1.388839352875947952e-02
1.374000000000000000e+03 2.275480842590332031e+01 5.735680103302001953e+00 -2.469750493764877319e-02 1.460804836824536324e-03 -6.971010006964206696e-03 -1.524786837399005890e-02
1.375000000000000000e+03 2.395127868652343750e+01 5.881076812744140625e+00 -1.863313652575016022e-02 -2.294829860329627991e-02 -1.247443072497844696e-02 -2.093789540231227875e-02
1.376000000000000000e+03 2.563039398193359375e+01 8.356344223022460938e+00 -3.668135032057762146e-02 -3.073058091104030609e-02 -2.022357843816280365e-02 -3.926126286387443542e-02
1.377000000000000000e+03 2.998020935058593750e+01 1.220319747924804688e+01 -7.257284224033355713e-02 -2.053464949131011963e-02 -2.793224900960922241e-02 -3.349914774298667908e-02
1.378000000000000000e+03 3.222257614135742188e+01 1.400987815856933594e+01 -4.189037382602691650e-01 -3.157506510615348816e-02 -1.351436376571655273e-01 -5.643281340599060059e-02
1.379000000000000000e+03 3.640024185180664062e+01 1.333569812774658203e+01 -4.183746278285980225e-01 -2.109126746654510498e-01 -1.887861937284469604e-01 2.716151475906372070e-01
1.380000000000000000e+03 3.773631668090820312e+01 1.316724777221679688e+01 -4.006194174289703369e-01 2.453881502151489258e-02 -1.128241866827011108e-01 1.442206352949142456e-01
1.381000000000000000e+03 3.993260574340820312e+01 1.284862041473388672e+01 -3.664926886558532715e-01 6.287725269794464111e-02 -9.108462929725646973e-02 4.578010365366935730e-02
1.382000000000000000e+03 4.073943328857421875e+01 1.273456573486328125e+01 -3.675709068775177002e-01 5.799870565533638000e-02 -9.287165850400924683e-02 1.821626536548137665e-02
1.383000000000000000e+03 4.239086532592773438e+01 1.237201499938964844e+01 -3.159844577312469482e-01 4.692747816443443298e-02 -8.071709424257278442e-02 -5.247012898325920105e-02
1.384000000000000000e+03 4.312666702270507812e+01 1.212876319885253906e+01 -2.541916370391845703e-01 -1.135167106986045837e-02 -7.966299355030059814e-02 -9.611658751964569092e-02
1.385000000000000000e+03 4.534863281250000000e+01 1.355320262908935547e+01 -5.076271295547485352e-01 -1.217120364308357239e-01 -1.888017505407333374e-01 -2.015112191438674927e-01
1.386000000000000000e+03 5.265832138061523438e+01 1.314417743682861328e+01 -9.026488065719604492e-01 3.292138129472732544e-02 -2.609182298183441162e-01 5.055553317070007324e-01
1.387000000000000000e+03 5.348243713378906250e+01 1.388257980346679688e+01 -1.151403665542602539e+00 1.259588748216629028e-01 -3.076334297657012939e-01 5.214467644691467285e-01
1.388000000000000000e+03 5.493141937255859375e+01 1.298563289642333984e+01 -1.116598248481750488e+00 8.795280009508132935e-02 -3.085936307907104492e-01 2.586149275302886963e-01
1.389000000000000000e+03 5.563913726806640625e+01 1.290047454833984375e+01 -1.165431499481201172e+00 1.797205358743667603e-01 -2.957133054733276367e-01 2.135392427444458008e-01
1.390000000000000000e+03 5.703407287597656250e+01 1.335915660858154297e+01 -1.362074732780456543e+00 2.893675267696380615e-01 -3.218121826648712158e-01 3.786621615290641785e-02
1.391000000000000000e+03 5.818562316894531250e+01 1.250746917724609375e+01 -1.277130484580993652e+00 2.289165109395980835e-01 -3.144641816616058350e-01 -1.489622443914413452e-01
1.392000000000000000e+03 5.878968429565429688e+01 1.250425052642822266e+01 -1.268885850906372070e+00 1.439086645841598511e-01 -3.374931514263153076e-01 -3.202015161514282227e-01
1.393000000000000000e+03 7.024728393554687500e+01 1.196612167358398438e+01 -4.871289134025573730e-01 1.135550022125244141e+01 3.260511398315429688e+00 -1.647255897521972656e+00
1.394000000000000000e+03 7.132619476318359375e+01 8.662737846374511719e+00 -6.217926502227783203e+00 -5.520980358123779297e-01 -2.031007289886474609e+00 -3.031820952892303467e-01
1.395000000000000000e+03 7.126284027099609375e+01 1.131383705139160156e+01 2.504193782806396484e+00 1.279395675659179688e+01 4.589445114135742188e+00 4.069113731384277344e+00
1.396000000000000000e+03 7.153725433349609375e+01 9.011006355285644531e+00 9.693490266799926758e-01 3.995378494262695312e+00 1.489418268203735352e+00 -3.052042007446289062e+00
1.397000000000000000e+03 7.164698791503906250e+01 9.175460815429687500e+00 3.413876771926879883e+00 3.998889446258544922e+00 2.223829984664916992e+00 -2.493000745773315430e+00
1.398000000000000000e+03 7.143434143066406250e+01 8.858390808105468750e+00 -2.164146661758422852e+00 1.611453533172607422e+00 -1.658079624176025391e-01 -5.804943442344665527e-01
1.399000000000000000e+03 7.189857482910156250e+01 8.783197402954101562e+00 -7.476883411407470703e+00 -1.037863373756408691e+00 -2.554424047470092773e+00 -5.748587608337402344e+00
1.400000000000000000e+03 7.187232971191406250e+01 9.551906585693359375e+00 2.016625165939331055e+00 -1.885708272457122803e-01 5.484163165092468262e-01 2.295749902725219727e+00
1.401000000000000000e+03 7.186612701416015625e+01 9.944589614868164062e+00 8.195392608642578125e+00 2.179838418960571289e+00 3.112569332122802734e+00 2.479202747344970703e+00
1.402000000000000000e+03 7.331475067138671875e+01 9.331463813781738281e+00 8.185191154479980469e-01 1.157622337341308594e+00 5.928424596786499023e-01 -2.512529373168945312e+00
1.403000000000000000e+03 7.223596191406250000e+01 1.012668132781982422e+01 7.434135437011718750e+00 7.781571149826049805e-01 2.463687658309936523e+00 1.564847946166992188e+00
1.404000000000000000e+03 7.186082458496093750e+01 9.759641647338867188e+00 8.091136932373046875e+00 8.162519335746765137e-01 2.672216892242431641e+00 2.078361749649047852e+00
1.405000000000000000e+03 7.162609863281250000e+01 1.101742839813232422e+01 5.366208076477050781e+00 9.495746612548828125e+00 4.458586215972900391e+00 4.977177619934082031e+00
1.406000000000000000e+03 7.083761596679687500e+01 8.438110351562500000e+00 -3.333963394165039062e+00 1.770175361633300781e+01 4.310337066650390625e+00 3.495971441268920898e+00
1.407000000000000000e+03 7.086524963378906250e+01 1.152947330474853516e+01 3.065724372863769531e-01 1.422727584838867188e+01 4.360154628753662109e+00 1.806476593017578125e+00
1.408000000000000000e+03 7.068711853027343750e+01 1.189711380004882812e+01 -3.037036657333374023e-01 1.267800140380859375e+01 3.712289333343505859e+00 2.348023951053619385e-01
1.409000000000000000e+03 6.643651580810546875e+01 1.238657569885253906e+01 -6.319149732589721680e-01 3.925039172172546387e-01 -7.182332128286361694e-02 1.124478653073310852e-01
1.410000000000000000e+03 6.904411315917968750e+01 1.167911434173583984e+01 1.309847950935363770e+00 4.500015735626220703e+00 1.742959141731262207e+00 -2.881246089935302734e+00
1.411000000000000000e+03 6.932169342041015625e+01 1.189202213287353516e+01 8.162054419517517090e-01 6.386525154113769531e+00 2.160819292068481445e+00 -3.208692312240600586e+00
1.412000000000000000e+03 6.962851715087890625e+01 1.163221454620361328e+01 8.658523559570312500e-01 8.209103584289550781e+00 2.722486734390258789e+00 -3.774106740951538086e+00
1.413000000000000000e+03 7.023449707031250000e+01 1.162149620056152344e+01 -3.001867234706878662e-01 1.280315780639648438e+01 3.750891208648681641e+00 -1.896811127662658691e+00
1.414000000000000000e+03 6.767552185058593750e+01 1.177968120574951172e+01 5.049209594726562500e-01 1.157248973846435547e+00 4.986509680747985840e-01 -5.722171664237976074e-01
1.415000000000000000e+03 6.981746673583984375e+01 1.163670539855957031e+01 3.663975298404693604e-01 1.001389503479003906e+01 3.114087820053100586e+00 -3.405111312866210938e+00
1.416000000000000000e+03 6.943790435791015625e+01 1.163936901092529297e+01 1.127510905265808105e+00 6.950753688812255859e+00 2.423479318618774414e+00 -3.572999000549316406e+00
1.417000000000000000e+03 7.027016448974609375e+01 8.299683570861816406e+00 -3.820903539657592773e+00 1.680578994750976562e+01 3.895466089248657227e+00 6.814631938934326172e+00
1.418000000000000000e+03 7.017945098876953125e+01 7.613394260406494141e+00 2.775623559951782227e+00 1.699244880676269531e+01 5.930421829223632812e+00 7.150390625000000000e+00
1.419000000000000000e+03 6.823667907714843750e+01 8.377129554748535156e+00 7.344574928283691406e-01 4.085768222808837891e+00 1.446067690849304199e+00 1.845316410064697266e+00
1.420000000000000000e+03 6.750391387939453125e+01 8.292210578918457031e+00 3.036976456642150879e-01 2.630433320999145508e+00 8.802392482757568359e-01 -2.479084134101867676e-01
1.421000000000000000e+03 6.872230529785156250e+01 8.349478721618652344e+00 1.238753676414489746e+00 5.968176364898681641e+00 2.162079095840454102e+00 3.976674556732177734e+00
1.422000000000000000e+03 6.965056610107421875e+01 8.266258239746093750e+00 -1.264722824096679688e+00 1.638002777099609375e+01 4.534591674804687500e+00 7.897935867309570312e+00
1.423000000000000000e+03 6.989921569824218750e+01 7.853117942810058594e+00 2.751638293266296387e-01 2.003250122070312500e+01 6.092299461364746094e+00 7.418653488159179688e+00
1.424000000000000000e+03 6.919116210937500000e+01 8.216020584106445312e+00 9.536848664283752441e-01 1.013944339752197266e+01 3.327938556671142578e+00 5.170554637908935547e+00
1.425000000000000000e+03 6.787611389160156250e+01 8.478990554809570312e+00 4.217897355556488037e-01 2.658330678939819336e+00 9.240361452102661133e-01 6.299657225608825684e-01
1.426000000000000000e+03 3.578030014038085938e+01 8.363230705261230469e+00 3.802054747939109802e-02 -6.818889640271663666e-03 9.360496886074542999e-03 -1.057646609842777252e-02
1.427000000000000000e+03 3.631333541870117188e+01 7.155045032501220703e+00 5.409381911158561707e-02 -6.223883479833602905e-03 1.436098013073205948e-02 -2.804089151322841644e-02
1.428000000000000000e+03 5.117755126953125000e+01 8.538693428039550781e+00 1.106328982859849930e-02 -9.526249952614307404e-03 4.611118638422340155e-04 1.141829043626785278e-02
1.429000000000000000e+03 4.954526138305664062e+01 9.479556083679199219e+00 4.480157047510147095e-02 4.244976118206977844e-02 2.617539837956428528e-02 4.798262938857078552e-02
1.430000000000000000e+03 5.046061325073242188e+01 8.361782073974609375e+00 -5.667803809046745300e-03 -2.642298676073551178e-02 -9.627236984670162201e-03 -5.741248838603496552e-03
1.431000000000000000e+03 2.231214141845703125e+01 5.771384239196777344e+00 -2.585059963166713715e-02 2.190251834690570831e-03 -7.098104339092969894e-03 -1.495262421667575836e-02
1.432000000000000000e+03 2.299604034423828125e+01 6.481423377990722656e+00 -2.794928662478923798e-02 1.742968335747718811e-03 -7.861895486712455750e-03 -1.698753237724304199e-02
1.433000000000000000e+03 5.010814189910888672e+00 -2.416167497634887695e+00 8.313414640724658966e-03 9.871415095403790474e-04 2.790166763588786125e-03 8.056474849581718445e-03
1.434000000000000000e+03 7.671395301818847656e+00 -2.428935289382934570e+00 9.586871601641178131e-03 -6.901831366121768951e-04 2.669006586074829102e-03 2.737901173532009125e-03
1.435000000000000000e+03 6.440318107604980469e+00 -2.282692909240722656e+00 1.147959567606449127e-02 2.117857569828629494e-03 4.079236183315515518e-03 8.097182027995586395e-03
1.436000000000000000e+03 4.175329685211181641e+00 -1.768331646919250488e+00 1.213464234024286270e-02 -3.111989935860037804e-03 2.706795698031783104e-03 6.866326555609703064e-03
1.437000000000000000e+03 5.936878204345703125e+00 -3.353854656219482422e+00 4.442970734089612961e-03 2.431478351354598999e-03 2.062334679067134857e-03 9.256426244974136353e-03
1.438000000000000000e+03 5.417396926879882812e+01 1.304728126525878906e+01 -1.018876910209655762e+00 1.036493554711341858e-01 -2.745682895183563232e-01 4.021860659122467041e-01
1.439000000000000000e+03 5.756561660766601562e+01 1.258664512634277344e+01 -1.250578761100769043e+00 2.365569472312927246e-01 -3.042065501213073730e-01 -1.027974635362625122e-01
1.440000000000000000e+03 5.639955139160156250e+01 1.348639011383056641e+01 -1.344748258590698242e+00 3.109956979751586914e-01 -3.101257979869842529e-01 1.696389466524124146e-01
1.441000000000000000e+03 5.763121795654296875e+01 1.321390438079833984e+01 -1.469275116920471191e+00 3.512845933437347412e-01 -3.353971540927886963e-01 -1.920215436257421970e-03
1.442000000000000000e+03 5.863512039184570312e+01 1.319944667816162109e+01 -1.784726262092590332e+00 3.394846320152282715e-01 -4.335725009441375732e-01 -1.960414946079254150e-01
1.443000000000000000e+03 5.817112731933593750e+01 1.310620784759521484e+01 -1.489150404930114746e+00 3.141152262687683105e-01 -3.525105714797973633e-01 -1.775755137205123901e-01
1.444000000000000000e+03 2.345910644531250000e+01 9.063715934753417969e-01 3.636813536286354065e-02 9.053365141153335571e-02 3.807053714990615845e-02 8.732298761606216431e-02
1.445000000000000000e+03 2.171384048461914062e+01 2.036035776138305664e+00 6.336164195090532303e-03 -4.168225917965173721e-03 6.503814947791397572e-04 9.326551109552383423e-03
1.446000000000000000e+03 6.535520172119140625e+01 8.394617080688476562e+00 -1.222790241241455078e+00 -4.072826504707336426e-01 -4.890218973159790039e-01 -1.889857530593872070e+00
1.447000000000000000e+03 6.536379241943359375e+01 7.593851566314697266e+00 -3.202143907546997070e-01 -8.141428232192993164e-01 -3.403071463108062744e-01 -1.438140273094177246e+00
1.448000000000000000e+03 6.458969879150390625e+01 7.352995872497558594e+00 -9.563263654708862305e-01 -2.498404979705810547e+00 -1.036419391632080078e+00 -1.816261291503906250e+00
1.449000000000000000e+03 3.629531478881835938e+01 1.442150688171386719e+01 -6.755731701850891113e-01 -5.998982116580009460e-02 -2.206688970327377319e-01 8.908960223197937012e-02
1.450000000000000000e+03 3.779534912109375000e+01 1.390136051177978516e+01 -5.260167121887207031e-01 5.061287805438041687e-02 -1.426211595535278320e-01 1.243722811341285706e-01
1.451000000000000000e+03 3.914966201782226562e+01 1.297602176666259766e+01 -3.738181889057159424e-01 4.838663712143898010e-02 -9.762946516275405884e-02 8.913257718086242676e-02
1.452000000000000000e+03 2.529253387451171875e+01 -1.748584628105163574e+00 -2.260075956583023071e-01 9.031112492084503174e-02 -4.070894420146942139e-02 -1.616777330636978149e-01
1.453000000000000000e+03 2.408329391479492188e+01 8.733929991722106934e-01 1.794978044927120209e-02 6.891214102506637573e-02 2.605857700109481812e-02 1.406939178705215454e-01
1.454000000000000000e+03 3.666344404220581055e+00 -3.310112476348876953e+00 1.582222874276340008e-03 3.712159115821123123e-03 1.588314655236899853e-03 9.750900790095329285e-03
1.455000000000000000e+03 5.165784955024719238e-01 -3.590919971466064453e+00 1.135693513788282871e-03 7.511362433433532715e-03 2.594116842374205589e-03 2.478659152984619141e-03
1.456000000000000000e+03 2.020277976989746094e+01 7.501735687255859375e-01 -1.424701139330863953e-02 -1.528462581336498260e-02 -8.859490975737571716e-03 3.185652662068605423e-03
1.457000000000000000e+03 1.874086761474609375e+01 2.664820671081542969e+00 -3.320894204080104828e-03 -4.661334678530693054e-03 -2.394668757915496826e-03 9.368870523758232594e-04
1.458000000000000000e+03 5.379505157470703125e+01 6.244740962982177734e+00 -3.800099343061447144e-02 4.591533169150352478e-02 2.374302130192518234e-03 -2.062297984957695007e-02
1.459000000000000000e+03 5.413184356689453125e+01 7.576522827148437500e+00 -2.142816595733165741e-02 3.187916427850723267e-02 3.135299077257514000e-03 -2.321766503155231476e-02
1.460000000000000000e+03 5.234212875366210938e+01 8.545118331909179688e+00 2.528883330523967743e-02 -1.875376142561435699e-02 1.960521563887596130e-03 -2.961314981803297997e-03
1.461000000000000000e+03 5.302897262573242188e+01 8.595628738403320312e+00 -1.898550195619463921e-03 -2.007917687296867371e-02 -6.593318190425634384e-03 -3.245002403855323792e-02
1.462000000000000000e+03 1.872465610504150391e+00 2.801790475845336914e+00 -7.933765300549566746e-04 -1.872510038083419204e-04 -2.941882703453302383e-04 -2.841645618900656700e-04
1.463000000000000000e+03 3.308071613311767578e+00 2.626049995422363281e+00 -9.513720870018005371e-04 -8.084714063443243504e-04 -5.279530305415391922e-04 -2.366237022215500474e-04
1.464000000000000000e+03 1.774204969406127930e+00 3.653450012207031250e+00 3.345335717312991619e-04 -3.530097019392997026e-04 -5.542832241189898923e-06 4.564862465485930443e-04
1.465000000000000000e+03 5.425175094604492188e+01 1.382166576385498047e+01 -1.221113443374633789e+00 1.667117476463317871e-01 -3.163205087184906006e-01 4.071505367755889893e-01
1.466000000000000000e+03 5.501895141601562500e+01 1.373358726501464844e+01 -1.215541720390319824e+00 2.198200821876525879e-01 -2.987165153026580811e-01 3.524968922138214111e-01
1.467000000000000000e+03 5.573370742797851562e+01 1.361089897155761719e+01 -1.265674114227294922e+00 2.228770554065704346e-01 -3.128391206264495850e-01 2.209743410348892212e-01
1.468000000000000000e+03 5.267019653320312500e+01 1.461320590972900391e+01 -1.408420324325561523e+00 1.338461935520172119e-01 -3.823722302913665771e-01 5.826083421707153320e-01
1.469000000000000000e+03 1.418892288208007812e+01 -2.047115802764892578e+00 1.915642805397510529e-02 5.739045329391956329e-03 7.468641735613346100e-03 -1.077532023191452026e-02
1.470000000000000000e+03 9.561184883117675781e+00 -1.815214276313781738e+00 1.796181127429008484e-02 2.382665872573852539e-03 6.103343330323696136e-03 3.220852930098772049e-03
1.471000000000000000e+03 1.093380451202392578e+01 -2.613746643066406250e+00 1.381605304777622223e-02 -1.254294626414775848e-02 3.819320991169661283e-04 -2.671559341251850128e-03
1.472000000000000000e+03 1.105779933929443359e+01 -1.901700496673583984e+00 1.781725510954856873e-02 3.673110855743288994e-03 6.447109859436750412e-03 -1.795517891878262162e-04
1.473000000000000000e+03 1.931496238708496094e+01 6.592113971710205078e+00 -2.483206801116466522e-02 5.228699650615453720e-03 -5.881010554730892181e-03 -6.346831563860177994e-03
1.474000000000000000e+03 2.006038856506347656e+01 8.298786163330078125e+00 -6.386535707861185074e-03 9.629935957491397858e-03 9.730199817568063736e-04 2.110832836478948593e-03
1.475000000000000000e+03 2.198611068725585938e+01 6.467501163482666016e+00 -2.894683927297592163e-02 5.264496896415948868e-03 -7.104702293872833252e-03 -1.660005189478397369e-02
1.476000000000000000e+03 2.119293785095214844e+01 6.738778591156005859e+00 -2.134826593101024628e-02 9.840576909482479095e-03 -3.452306613326072693e-03 -1.025635190308094025e-02
1.477000000000000000e+03 6.837646007537841797e+00 -2.751819610595703125e+00 9.267346002161502838e-03 -3.672919468954205513e-03 1.678328029811382294e-03 2.593001117929816246e-03
1.478000000000000000e+03 7.250384330749511719e+00 -3.112710237503051758e+00 7.355019450187683105e-03 3.029116895049810410e-03 3.115240950137376785e-03 1.109518110752105713e-02
1.479000000000000000e+03 4.001657485961914062e+01 1.373912143707275391e+01 -4.868698418140411377e-01 8.513055741786956787e-02 -1.205217838287353516e-01 6.179397180676460266e-02
1.480000000000000000e+03 4.175735855102539062e+01 1.379261875152587891e+01 -5.302438735961914062e-01 8.653673529624938965e-02 -1.331121325492858887e-01 -2.188610844314098358e-03
1.481000000000000000e+03 4.160604858398437500e+01 1.263146591186523438e+01 -3.595456480979919434e-01 5.997093766927719116e-02 -8.987241238355636597e-02 -2.776781097054481506e-02
1.482000000000000000e+03 4.084195709228515625e+01 1.373790264129638672e+01 -4.953100085258483887e-01 1.104409471154212952e-01 -1.154607161879539490e-01 1.947801187634468079e-02
1.483000000000000000e+03 4.310684967041015625e+01 1.300191211700439453e+01 -4.347272217273712158e-01 3.162014111876487732e-02 -1.209321245551109314e-01 -6.864350289106369019e-02
1.484000000000000000e+03 4.076843261718750000e+01 1.469607448577880859e+01 -6.182178854942321777e-01 1.203207969665527344e-01 -1.493691205978393555e-01 6.001987308263778687e-02
1.485000000000000000e+03 1.453935527801513672e+01 -4.276717185974121094e+00 1.107973046600818634e-02 -2.183071896433830261e-02 -3.225296735763549805e-03 -1.233666017651557922e-02
1.486000000000000000e+03 1.243489074707031250e+01 -2.806783199310302734e+00 1.490399241447448730e-02 -1.623030751943588257e-02 -3.978944150730967522e-04 -7.380101364105939865e-03
1.487000000000000000e+03 1.707427597045898438e+01 7.000964641571044922e+00 2.714380435645580292e-02 7.764726411551237106e-03 1.047255937010049820e-02 6.612151395529508591e-03
1.488000000000000000e+03 7.620759963989257812e+00 6.819902896881103516e+00 -5.883048754185438156e-03 -7.267869077622890472e-03 -3.945275209844112396e-03 1.389616262167692184e-02
1.489000000000000000e+03 3.848563194274902344e+00 6.021653175354003906e+00 -4.734114743769168854e-03 -2.174649562221020460e-04 -1.485473942011594772e-03 5.027609877288341522e-03
1.490000000000000000e+03 4.147284030914306641e+00 4.476859569549560547e+00 -3.299959003925323486e-03 -2.519809868317679502e-06 -9.907436324283480644e-04 1.211751950904726982e-03
1.491000000000000000e+03 6.853635311126708984e+00 6.977158069610595703e+00 -4.016453458461910486e-04 -7.238789461553096771e-03 -2.292130375280976295e-03 1.522261276841163635e-02
1.492000000000000000e+03 5.445402622222900391e+00 6.788725376129150391e+00 -3.448786213994026184e-03 -3.460893174633383751e-03 -2.072903793305158615e-03 1.056223362684249878e-02
1.493000000000000000e+03 1.616320252418518066e+00 4.835073947906494141e+00 -1.507490989752113819e-03 -4.410651163198053837e-04 -5.845668492838740349e-04 6.191753200255334377e-04
1.494000000000000000e+03 3.984379291534423828e+00 3.391601800918579102e+00 -1.727928058244287968e-03 -4.539432120509445667e-04 -6.545613869093358517e-04 -2.447157166898250580e-04
1.495000000000000000e+03 6.102740097045898438e+01 1.312321376800537109e+01 -2.518563985824584961e+00 -4.487791955471038818e-01 -8.902029395103454590e-01 -8.164999485015869141e-01
1.496000000000000000e+03 6.022811126708984375e+01 1.373793792724609375e+01 -2.374294757843017578e+00 2.181185781955718994e-01 -6.468528509140014648e-01 -1.104162782430648804e-01
1.497000000000000000e+03 2.311229896545410156e+01 -4.722860455513000488e-01 -4.906890168786048889e-02 1.091616749763488770e-01 1.802783273160457611e-02 5.037583410739898682e-02
1.498000000000000000e+03 5.023810577392578125e+01 1.356950664520263672e+01 -4.010838568210601807e-01 -9.485033154487609863e-01 -4.048761725425720215e-01 5.452789068222045898e-01
1.499000000000000000e+03 3.750156402587890625e+01 5.224025249481201172e+00 -2.458913065493106842e-02 9.135062247514724731e-02 2.002844773232936859e-02 -6.830763816833496094e-02
1.500000000000000000e+03 3.604778671264648438e+01 3.017236709594726562e+00 -2.746962308883666992e-01 1.145516932010650635e-01 -4.804336279630661011e-02 -2.767393179237842560e-02
1.501000000000000000e+03 6.299349594116210938e+01 -2.783035516738891602e+00 1.103485345840454102e+00 6.265848636627197266e+00 2.210800170898437500e+00 1.522937536239624023e+00
1.502000000000000000e+03 2.674467658996582031e+01 -1.229700183868408203e+01 -8.040611445903778076e-02 -6.640189290046691895e-01 -2.233275175094604492e-01 2.422976680099964142e-02
1.503000000000000000e+03 2.727403068542480469e+01 -9.157597541809082031e+00 -5.948547720909118652e-01 -6.579055786132812500e-01 -3.758281171321868896e-01 -1.340008080005645752e-01
1.504000000000000000e+03 6.198285293579101562e+01 1.567495918273925781e+01 -1.723537564277648926e+00 -2.820677459239959717e-01 -6.016815900802612305e-01 3.143610060214996338e-01
1.505000000000000000e+03 6.806533050537109375e+01 -1.516940402984619141e+01 -1.831494808197021484e+00 -5.632234811782836914e-01 -7.184154987335205078e-01 1.054735422134399414e+00
1.506000000000000000e+03 6.697738647460937500e+01 -1.608906936645507812e+01 -1.556778192520141602e+00 9.155919551849365234e-01 -1.923558712005615234e-01 -3.174010291695594788e-02
1.507000000000000000e+03 4.539601898193359375e+01 -2.544956207275390625e+00 -1.412953257560729980e+00 -5.039361715316772461e-01 -5.750668048858642578e-01 -2.582145631313323975e-01
1.508000000000000000e+03 4.377075958251953125e+01 -3.200438737869262695e+00 -1.110421180725097656e+00 -3.021631836891174316e-01 -4.237753152847290039e-01 -2.457248978316783905e-03
1.509000000000000000e+03 7.135863494873046875e+01 -6.531306505203247070e-01 -3.956964254379272461e+00 2.368059396743774414e+00 -4.766713976860046387e-01 -3.361709594726562500e+00
1.510000000000000000e+03 2.753809547424316406e+01 4.370493590831756592e-01 -7.165424227714538574e-01 1.984837800264358521e-01 -1.554175913333892822e-01 1.386874355375766754e-02
1.511000000000000000e+03 7.442594146728515625e+01 9.505220413208007812e+00 3.643186092376708984e+00 6.340350151062011719e+00 2.995060920715332031e+00 -4.374915599822998047e+00
1.512000000000000000e+03 6.841128540039062500e+01 3.472974300384521484e+00 2.718763589859008789e+00 1.058466053009033203e+01 3.991027116775512695e+00 2.082630872726440430e+00
1.513000000000000000e+03 7.946411895751953125e+01 2.758340835571289062e+00 1.163291707634925842e-01 1.066758251190185547e+01 3.235173702239990234e+00 -1.204577207565307617e+00
1.514000000000000000e+03 4.044076919555664062e+01 -1.125360131263732910e+00 -2.285762786865234375e+00 -7.763068079948425293e-01 -9.186208844184875488e-01 1.442166864871978760e-01
1.515000000000000000e+03 3.920407867431640625e+01 -4.609395563602447510e-01 -3.121340751647949219e+00 -8.964098691940307617e-01 -1.205325126647949219e+00 5.930518507957458496e-01
1.516000000000000000e+03 7.481848907470703125e+01 8.712325096130371094e+00 5.760619640350341797e+00 9.104448318481445312e+00 4.459520339965820312e+00 -6.954113006591796875e+00
1.517000000000000000e+03 7.707385253906250000e+01 1.109732627868652344e+01 -1.851301789283752441e-01 8.691040039062500000e+00 2.551773071289062500e+00 3.575743436813354492e-01
1.518000000000000000e+03 7.605534362792968750e+01 -8.806865215301513672e-01 -1.499110102653503418e+00 6.726760387420654297e+00 1.568295121192932129e+00 8.536071181297302246e-01
1.519000000000000000e+03 5.541018676757812500e+01 -1.917648696899414062e+01 -8.915225863456726074e-01 1.021109700202941895e+00 3.887612000107765198e-02 3.238035738468170166e-01
1.520000000000000000e+03 2.552740097045898438e+01 1.775519371032714844e+01 -3.642329871654510498e-01 -4.408914595842361450e-02 -1.224966421723365784e-01 7.759550958871841431e-02
1.521000000000000000e+03 6.863943481445312500e+01 6.982458114624023438e+00 3.498751163482666016e+00 9.776231765747070312e+00 3.982495069503784180e+00 3.217691898345947266e+00
1.522000000000000000e+03 6.991885375976562500e+01 6.950426101684570312e+00 4.396101474761962891e+00 2.109296989440917969e+01 7.646721363067626953e+00 7.949488639831542969e+00
1.523000000000000000e+03 6.532796478271484375e+01 -1.583104014396667480e+00 -3.083600759506225586e+00 -2.523759007453918457e-01 -1.000792980194091797e+00 3.396404743194580078e+00
1.524000000000000000e+03 6.322932815551757812e+01 1.776033639907836914e-02 -1.188477873802185059e+00 2.436195135116577148e+00 3.743151724338531494e-01 2.538381338119506836e+00
1.525000000000000000e+03 6.966911315917968750e+01 -1.710382080078125000e+01 -9.187306761741638184e-01 3.815164268016815186e-01 -1.611642837524414062e-01 1.494498372077941895e+00
1.526000000000000000e+03 7.117986297607421875e+01 -1.817006683349609375e+01 -7.925629615783691406e-01 4.653444290161132812e+00 1.158264398574829102e+00 2.273787736892700195e+00
1.527000000000000000e+03 3.964015579223632812e+01 -2.156728935241699219e+01 -1.319169998168945312e-01 -2.139101475477218628e-01 -1.037481501698493958e-01 -2.712789773941040039e-01
1.528000000000000000e+03 3.950659179687500000e+01 -1.718294525146484375e+01 -1.074059009552001953e+00 -5.038892030715942383e-01 -4.733844697475433350e-01 -5.295094251632690430e-01
1.529000000000000000e+03 3.774166107177734375e+01 2.226268053054809570e+00 -6.547432392835617065e-02 1.923425048589706421e-01 3.806045278906822205e-02 1.069994047284126282e-01
1.530000000000000000e+03 3.559123229980468750e+01 -1.366654634475708008e+00 -8.228834271430969238e-01 9.934453368186950684e-01 5.116857960820198059e-02 -1.173038110136985779e-01
1.531000000000000000e+03 6.969721221923828125e+01 1.101535081863403320e+00 -2.563306331634521484e+00 7.359083175659179688e+00 1.438733100891113281e+00 -1.613106608390808105e+00
1.532000000000000000e+03 7.025614166259765625e+01 2.017955183982849121e-01 -2.938281297683715820e+00 4.991202831268310547e+00 6.158764958381652832e-01 -2.519125699996948242e+00
1.533000000000000000e+03 7.313123321533203125e+01 -9.461144447326660156e+00 7.925185561180114746e-01 7.848324775695800781e+00 2.592252969741821289e+00 2.452268302440643311e-01
1.534000000000000000e+03 2.886918449401855469e+01 -2.636190414428710938e+00 -3.193722665309906006e-01 -7.591328024864196777e-01 -3.235515058040618896e-01 -1.137589931488037109e+00
1.535000000000000000e+03 2.905418395996093750e+01 -4.257231235504150391e+00 2.690805792808532715e-01 -3.505841791629791260e-01 -2.445108257234096527e-02 -6.836509108543395996e-01
1.536000000000000000e+03 6.241754531860351562e+01 -8.543322563171386719e+00 4.211320281028747559e-01 4.169069290161132812e+00 1.377060413360595703e+00 2.009394764900207520e-01
1.537000000000000000e+03 6.206904220581054688e+01 -1.360921573638916016e+01 -6.935757994651794434e-01 2.381240129470825195e+00 5.062992572784423828e-01 2.006259560585021973e-01
1.538000000000000000e+03 3.303796005249023438e+01 -1.194115924835205078e+01 1.014697849750518799e-01 6.532154679298400879e-01 2.264055758714675903e-01 -2.277052402496337891e-01
1.539000000000000000e+03 6.496854400634765625e+01 -1.379251384735107422e+01 -8.858821988105773926e-01 1.515902996063232422e+00 1.890062540769577026e-01 -8.155322819948196411e-02
1.540000000000000000e+03 6.823674774169921875e+01 -2.460168600082397461e+00 -3.874623775482177734e+00 2.437113761901855469e+00 -4.312530159950256348e-01 -3.000502288341522217e-01
1.541000000000000000e+03 3.663394546508789062e+01 1.941530346870422363e+00 -4.833936393260955811e-01 5.144114047288894653e-02 -1.295857578516006470e-01 3.323142528533935547e-01
1.542000000000000000e+03 6.607756805419921875e+01 -1.523669052124023438e+01 -1.272000432014465332e+00 1.030297875404357910e+00 -7.251079380512237549e-02 7.699383050203323364e-02
1.543000000000000000e+03 6.194872665405273438e+01 -5.711950302124023438e+00 1.050571918487548828e+00 4.969923019409179688e+00 1.806148409843444824e+00 1.318563342094421387e+00
1.544000000000000000e+03 6.086452102661132812e+01 -7.478803634643554688e+00 7.114441990852355957e-01 3.253028869628906250e+00 1.189341902732849121e+00 9.540006518363952637e-01
1.545000000000000000e+03 6.923099517822265625e+01 -3.540747404098510742e+00 -2.323810338973999023e+00 2.113434791564941406e+00 -6.311268359422683716e-02 -5.650587081909179688e-01
1.546000000000000000e+03 3.501232147216796875e+01 -3.548238277435302734e-01 -1.294173121452331543e+00 1.019895076751708984e+00 -8.228339254856109619e-02 -1.238225698471069336e-01
1.547000000000000000e+03 3.446386718750000000e+01 6.333143115043640137e-01 -1.041886687278747559e+00 5.787205696105957031e-01 -1.389498263597488403e-01 -2.871638536453247070e-01
1.548000000000000000e+03 3.595933914184570312e+01 -1.815629959106445312e+01 -4.524217545986175537e-01 1.957022994756698608e-01 -7.701583951711654663e-02 -2.889382243156433105e-01
1.549000000000000000e+03 3.636421585083007812e+01 -2.264471054077148438e+00 -5.216614603996276855e-01 8.938031792640686035e-01 1.116425171494483948e-01 -3.846938908100128174e-01
1.550000000000000000e+03 3.621739196777343750e+01 -4.025352954864501953e+00 7.680126428604125977e-01 1.416184186935424805e+00 6.552590131759643555e-01 -1.028605937957763672e+00
1.551000000000000000e+03 4.029880523681640625e+01 -1.112870311737060547e+01 1.459453254938125610e-01 -2.105744630098342896e-01 -1.938874088227748871e-02 -8.926178514957427979e-02
1.552000000000000000e+03 4.171831893920898438e+01 -1.317350196838378906e+01 -8.798237890005111694e-02 -8.576081395149230957e-01 -2.836771607398986816e-01 -2.133590430021286011e-01
1.553000000000000000e+03 3.940597534179687500e+01 -7.183620452880859375e+00 6.508314013481140137e-01 3.514652252197265625e-01 3.006890118122100830e-01 -5.971687436103820801e-01
1.554000000000000000e+03 3.101097869873046875e+01 -1.415557193756103516e+01 -1.678047925233840942e-01 2.252837121486663818e-01 1.724367402493953705e-02 9.076651185750961304e-02
1.555000000000000000e+03 5.061036682128906250e+01 1.483680629730224609e+01 -1.952654242515563965e+00 -5.891360044479370117e-01 -7.625370621681213379e-01 8.339655995368957520e-01
1.556000000000000000e+03 3.504517745971679688e+01 -1.536882781982421875e+01 -2.081357091665267944e-01 3.200187385082244873e-01 3.356491029262542725e-02 -9.309997409582138062e-02
1.557000000000000000e+03 3.167242622375488281e+01 -9.726114273071289062e+00 1.449955403804779053e-01 8.327761292457580566e-01 2.933315038681030273e-01 -2.880358695983886719e-01
1.558000000000000000e+03 3.367780303955078125e+01 -1.307392501831054688e+01 2.194931171834468842e-02 5.056461691856384277e-01 1.582786440849304199e-01 -2.006002217531204224e-01
1.559000000000000000e+03 3.437501907348632812e+01 -1.421369075775146484e+01 -3.069917112588882446e-02 3.935299217700958252e-01 1.088492274284362793e-01 -1.265129894018173218e-01
1.560000000000000000e+03 4.051633453369140625e+01 -9.417130470275878906e+00 4.767771661281585693e-01 -4.593495279550552368e-02 1.292526721954345703e-01 -4.326605200767517090e-01
1.561000000000000000e+03 5.800244522094726562e+01 -2.096738368272781372e-01 -2.363405466079711914e+00 -5.192663073539733887e-01 -8.648015260696411133e-01 -1.548586338758468628e-01
1.562000000000000000e+03 5.591276931762695312e+01 7.412948608398437500e-01 -4.610090255737304688e+00 -1.003294825553894043e+00 -1.684015512466430664e+00 1.404777467250823975e-01
1.563000000000000000e+03 4.520653915405273438e+01 4.287462830543518066e-01 -9.563972353935241699e-01 -8.426447957754135132e-02 -3.121985197067260742e-01 -3.644463419914245605e-01
1.564000000000000000e+03 4.417092132568359375e+01 1.027514100074768066e+00 -7.530112862586975098e-01 -1.842562705278396606e-01 -2.811802625656127930e-01 -3.509873151779174805e-01
1.565000000000000000e+03 4.171113586425781250e+01 -1.728560924530029297e+00 -1.270450234413146973e+00 -1.684081256389617920e-01 -4.316574931144714355e-01 2.585710883140563965e-01
1.566000000000000000e+03 4.675225067138671875e+01 3.911100149154663086e+00 -3.478025197982788086e-01 1.701283268630504608e-02 -9.923690557479858398e-02 -1.143981590867042542e-01
1.567000000000000000e+03 4.770068740844726562e+01 4.824968814849853516e+00 -1.934472769498825073e-01 3.041331656277179718e-02 -4.891018941998481750e-02 -8.044175058603286743e-02
1.568000000000000000e+03 4.583676910400390625e+01 3.019146919250488281e+00 -3.655498325824737549e-01 -2.020748332142829895e-02 -1.157271936535835266e-01 -2.442116588354110718e-01
1.569000000000000000e+03 5.134973907470703125e+01 6.138980865478515625e+00 -7.039961963891983032e-02 -7.596134394407272339e-02 -4.390828683972358704e-02 -2.541973255574703217e-02
1.570000000000000000e+03 3.460894012451171875e+01 1.648219490051269531e+01 -4.804494678974151611e-01 -1.423531025648117065e-01 -1.868407726287841797e-01 1.326356530189514160e-01
1.571000000000000000e+03 3.123143577575683594e+01 1.515442752838134766e+01 -4.404363334178924561e-01 2.647789008915424347e-02 -1.241875290870666504e-01 8.450283855199813843e-02
1.572000000000000000e+03 3.016724967956542969e+01 1.410238265991210938e+01 -2.799739241600036621e-01 1.147103216499090195e-02 -8.055086433887481689e-02 -1.670884201303124428e-03
1.573000000000000000e+03 2.711497497558593750e+01 1.598349928855895996e+00 6.722226738929748535e-02 4.584055840969085693e-01 1.576883494853973389e-01 3.156377077102661133e-01
1.574000000000000000e+03 5.184076690673828125e+01 -3.624977350234985352e+00 -2.130448967218399048e-01 2.225909233093261719e-01 2.863808767870068550e-03 -4.305849075317382812e-01
1.575000000000000000e+03 4.730379867553710938e+01 -1.527844190597534180e+00 -1.000259995460510254e+00 3.604280576109886169e-02 -2.892651557922363281e-01 -4.581122994422912598e-01
1.576000000000000000e+03 2.849994087219238281e+01 1.357502841949462891e+01 -1.524270623922348022e-01 -1.396143157035112381e-02 -4.991654679179191589e-02 2.928760135546326637e-03
1.577000000000000000e+03 2.606941223144531250e+01 1.315509891510009766e+01 -1.407735142856836319e-02 1.319642458111047745e-02 -2.642782055772840977e-04 7.922325283288955688e-03
1.578000000000000000e+03 2.652411079406738281e+01 9.380758285522460938e+00 -4.648860171437263489e-02 -3.768907487392425537e-02 -2.525330334901809692e-02 -3.754483163356781006e-02
1.579000000000000000e+03 7.708364105224609375e+01 -3.572360229492187500e+01 8.807837963104248047e-03 5.872619628906250000e+00 1.764428257942199707e+00 1.844158768653869629e-01
1.580000000000000000e+03 7.932015228271484375e+01 -3.481386947631835938e+01 5.387946031987667084e-03 6.290983676910400391e+00 1.888911485671997070e+00 5.820330604910850525e-02
1.581000000000000000e+03 7.926687622070312500e+01 -3.065861701965332031e+01 -1.232036296278238297e-02 6.678525447845458984e+00 1.999861598014831543e+00 7.989913970232009888e-02
1.582000000000000000e+03 7.770703887939453125e+01 -2.499618148803710938e+01 2.898445725440979004e-02 6.945990085601806641e+00 2.092492341995239258e+00 3.476281464099884033e-01
1.583000000000000000e+03 7.930397033691406250e+01 -2.221114158630371094e+01 -7.535894215106964111e-02 7.891261577606201172e+00 2.344770669937133789e+00 6.232050806283950806e-02
1.584000000000000000e+03 7.675268554687500000e+01 -3.898699188232421875e+01 9.436205960810184479e-03 5.750750064849853516e+00 1.728055834770202637e+00 1.283048987388610840e-01
1.585000000000000000e+03 7.914541625976562500e+01 -3.876631164550781250e+01 -7.865305058658123016e-03 5.955667495727539062e+00 1.784340739250183105e+00 5.950436368584632874e-02
1.586000000000000000e+03 7.930989837646484375e+01 -2.785967826843261719e+01 -1.806839928030967712e-02 7.057727813720703125e+00 2.111897706985473633e+00 9.821330010890960693e-02
1.587000000000000000e+03 7.780628967285156250e+01 -3.062688255310058594e+01 4.401027038693428040e-02 6.312410354614257812e+00 1.906926155090332031e+00 2.449306100606918335e-01
1.588000000000000000e+03 7.788632965087890625e+01 -2.646385192871093750e+01 -2.079461328685283661e-02 6.798924446105957031e+00 2.033438920974731445e+00 3.077412247657775879e-01
1.589000000000000000e+03 7.914624023437500000e+01 3.621103668212890625e+01 -1.594753190875053406e-02 6.756061553955078125e+00 2.022034168243408203e+00 -7.158289104700088501e-02
1.590000000000000000e+03 7.794646453857421875e+01 -2.198605155944824219e+01 -2.648623473942279816e-02 7.429900646209716797e+00 2.221024274826049805e+00 2.144041657447814941e-01
1.591000000000000000e+03 7.670747375488281250e+01 -2.787333869934082031e+01 9.987313300371170044e-03 6.277192115783691406e+00 1.886153817176818848e+00 4.074177742004394531e-01
1.592000000000000000e+03 7.938994598388671875e+01 1.254665374755859375e+01 -7.584210485219955444e-03 6.055988788604736328e+00 1.814521431922912598e+00 3.281638920307159424e-01
1.593000000000000000e+03 7.939167022705078125e+01 1.396007919311523438e+01 -3.540560975670814514e-02 6.719653606414794922e+00 2.005274534225463867e+00 2.802966535091400146e-01
1.594000000000000000e+03 7.942151641845703125e+01 1.814159584045410156e+01 -6.241646036505699158e-02 7.927893161773681641e+00 2.359642982482910156e+00 1.093877926468849182e-01
1.595000000000000000e+03 7.826309204101562500e+01 1.684330558776855469e+01 -1.239977553486824036e-01 7.552433013916015625e+00 2.228530645370483398e+00 3.606020808219909668e-01
1.596000000000000000e+03 7.935626220703125000e+01 2.227870750427246094e+01 2.028150297701358795e-02 8.123890876770019531e+00 2.443251609802246094e+00 -1.756057702004909515e-02
1.597000000000000000e+03 7.823682403564453125e+01 1.953886413574218750e+01 -1.153527349233627319e-01 7.741712093353271484e+00 2.287907838821411133e+00 1.269584447145462036e-01
1.598000000000000000e+03 7.924526977539062500e+01 2.505819320678710938e+01 1.312801614403724670e-02 7.890027523040771484e+00 2.370946645736694336e+00 -7.387959212064743042e-02
1.599000000000000000e+03 7.794061279296875000e+01 2.357182121276855469e+01 -3.061662800610065460e-02 7.535604953765869141e+00 2.251496553421020508e+00 -1.365833580493927002e-01
1.600000000000000000e+03 7.916938018798828125e+01 2.647303199768066406e+01 -2.983919344842433929e-02 7.727572917938232422e+00 2.309320211410522461e+00 -9.013209491968154907e-02
1.601000000000000000e+03 7.760137176513671875e+01 3.112655067443847656e+01 1.533874403685331345e-02 6.717065811157226562e+00 2.019721269607543945e+00 -2.223182022571563721e-01
1.602000000000000000e+03 7.727278137207031250e+01 2.956911087036132812e+01 4.031698033213615417e-02 6.789601802825927734e+00 2.048975706100463867e+00 -2.888853549957275391e-01
1.603000000000000000e+03 7.913504791259765625e+01 3.337179565429687500e+01 9.279279969632625580e-03 6.956558227539062500e+00 2.089751243591308594e+00 -8.100293576717376709e-02
1.604000000000000000e+03 7.944129943847656250e+01 -1.805046272277832031e+01 1.248676478862762451e-01 7.943624973297119141e+00 2.420547723770141602e+00 -7.044109702110290527e-02
1.605000000000000000e+03 7.687866210937500000e+01 -2.028091621398925781e+01 -1.568520963191986084e-01 7.358605384826660156e+00 2.160526037216186523e+00 2.161429524421691895e-01
1.606000000000000000e+03 7.838622283935546875e+01 5.683432102203369141e+00 8.414397239685058594e-01 8.420514106750488281e+00 2.778586149215698242e+00 -2.164068698883056641e+00
1.607000000000000000e+03 7.949490356445312500e+01 6.969436168670654297e+00 1.708066165447235107e-01 2.556759119033813477e+00 8.182697296142578125e-01 -2.588352262973785400e-01
1.608000000000000000e+03 7.681787872314453125e+01 -9.462229728698730469e+00 3.300998508930206299e-01 8.516542434692382812e+00 2.653992652893066406e+00 1.158986330032348633e+00
1.609000000000000000e+03 7.936789703369140625e+01 -9.713063240051269531e+00 4.933390766382217407e-02 8.887601852416992188e+00 2.681080579757690430e+00 3.180935382843017578e-01
1.610000000000000000e+03 7.944081878662109375e+01 -4.159187316894531250e+00 -3.788793459534645081e-02 1.271991443634033203e+01 3.804607868194580078e+00 3.534630835056304932e-01
1.611000000000000000e+03 7.821751403808593750e+01 -6.821047782897949219e+00 2.882544696331024170e-02 9.794925689697265625e+00 2.947125434875488281e+00 1.082529902458190918e+00
1.612000000000000000e+03 7.939606475830078125e+01 -1.391845512390136719e+01 -8.958527445793151855e-02 7.614804267883300781e+00 2.257565736770629883e+00 4.103969410061836243e-02
1.613000000000000000e+03 7.817643737792968750e+01 -1.394360637664794922e+01 3.122733533382415771e-01 7.795021533966064453e+00 2.432188510894775391e+00 3.842656686902046204e-02
1.614000000000000000e+03 7.943534851074218750e+01 -1.392836928367614746e+00 -2.833983600139617920e-01 1.452926254272460938e+01 4.273759365081787109e+00 9.201776981353759766e-02
1.615000000000000000e+03 7.709760284423828125e+01 -3.941596984863281250e+00 -1.141969040036201477e-01 9.083413124084472656e+00 2.690764665603637695e+00 1.206173419952392578e+00
1.616000000000000000e+03 7.944354248046875000e+01 1.474326968193054199e+00 -3.746322393417358398e-01 1.361182594299316406e+01 3.971158027648925781e+00 -7.358311414718627930e-01
1.617000000000000000e+03 7.939223480224609375e+01 4.154696464538574219e+00 -3.225602507591247559e-01 7.903568744659423828e+00 2.274302482604980469e+00 -1.502386808395385742e+00
1.618000000000000000e+03 7.802357482910156250e+01 3.259066390991210938e+01 1.138204336166381836e-02 6.790624618530273438e+00 2.040601968765258789e+00 -1.495899558067321777e-01
1.619000000000000000e+03 7.804898834228515625e+01 4.173995208740234375e+01 1.889144927263259888e-01 6.334527015686035156e+00 1.957032442092895508e+00 -5.277722701430320740e-02
1.620000000000000000e+03 7.668399810791015625e+01 3.507620239257812500e+01 4.199392348527908325e-02 6.274926185607910156e+00 1.895076155662536621e+00 -2.387034893035888672e-01
1.621000000000000000e+03 7.851425933837890625e+01 8.287947654724121094e+00 6.892710924148559570e-01 6.621119976043701172e+00 2.193117380142211914e+00 6.262121796607971191e-01
1.622000000000000000e+03 7.856661224365234375e+01 2.176318168640136719e+00 -4.270463287830352783e-01 1.159293460845947266e+01 3.349766492843627930e+00 -2.690646171569824219e+00
1.623000000000000000e+03 7.834974670410156250e+01 -1.451525211334228516e+00 -3.118019998073577881e-01 1.199191284179687500e+01 3.504033327102661133e+00 7.861655950546264648e-01
1.624000000000000000e+03 7.810193634033203125e+01 -9.612886428833007812e+00 1.351869404315948486e-01 8.709994316101074219e+00 2.653554439544677734e+00 9.222023487091064453e-01
1.625000000000000000e+03 7.831642150878906250e+01 -1.789555931091308594e+01 -1.543424278497695923e-01 7.794939994812011719e+00 2.292179346084594727e+00 -1.508205085992813110e-01
1.626000000000000000e+03 4.462686157226562500e+01 -5.670801162719726562e+00 -3.691890276968479156e-03 -6.521496772766113281e-01 -1.967524737119674683e-01 -6.653330475091934204e-02
1.627000000000000000e+03 2.686700248718261719e+01 -4.964748382568359375e+00 3.452337086200714111e-01 -8.264360427856445312e-01 -1.443607062101364136e-01 -6.004591584205627441e-01
1.628000000000000000e+03 5.692901611328125000e+01 -1.150229740142822266e+01 -2.243041992187500000e-01 1.398858785629272461e+00 3.523663878440856934e-01 4.264688193798065186e-01
1.629000000000000000e+03 5.602905273437500000e+01 -9.244474411010742188e+00 1.829614192247390747e-01 6.224595308303833008e-01 2.416262775659561157e-01 1.927061080932617188e-01
1.630000000000000000e+03 5.601830291748046875e+01 -1.460815238952636719e+01 5.753917247056961060e-02 2.067133665084838867e+00 6.374018788337707520e-01 -1.033417508006095886e-02
1.631000000000000000e+03 5.822571945190429688e+01 -1.161554622650146484e+01 -1.283434778451919556e-01 1.906058669090270996e+00 5.333145260810852051e-01 6.107347607612609863e-01
1.632000000000000000e+03 4.397770309448242188e+01 -1.163601589202880859e+01 4.353033304214477539e-01 -1.150446757674217224e-01 9.607759118080139160e-02 -5.132811665534973145e-01
1.633000000000000000e+03 4.553464889526367188e+01 -1.134407997131347656e+01 4.790690243244171143e-01 3.899365961551666260e-01 2.607016861438751221e-01 -5.841379761695861816e-01
1.634000000000000000e+03 5.705071640014648438e+01 -1.301506805419921875e+01 -1.440884172916412354e-01 1.702170610427856445e+00 4.674246609210968018e-01 4.161243736743927002e-01
1.635000000000000000e+03 4.857513046264648438e+01 -1.996019721031188965e+00 -9.951683878898620605e-01 3.093702793121337891e-01 -2.057394236326217651e-01 -4.760169684886932373e-01
1.636000000000000000e+03 5.262023162841796875e+01 -4.900066852569580078e+00 4.224431812763214111e-01 -1.349537819623947144e-02 1.226843446493148804e-01 -3.474344313144683838e-01
1.637000000000000000e+03 5.136587905883789062e+01 -2.119077205657958984e+00 -9.857281446456909180e-01 4.115882813930511475e-01 -1.722419708967208862e-01 -4.307377040386199951e-01
1.638000000000000000e+03 4.414639282226562500e+01 -8.780376434326171875e+00 3.976694643497467041e-01 -1.595882028341293335e-01 7.142437994480133057e-02 -4.610218703746795654e-01
1.639000000000000000e+03 5.745199966430664062e+01 -1.565882396697998047e+01 3.808020427823066711e-02 2.052396297454833984e+00 6.271429061889648438e-01 2.520073056221008301e-01
1.640000000000000000e+03 4.322954559326171875e+01 -9.495578765869140625e+00 5.647796392440795898e-01 -3.261306881904602051e-01 7.159467786550521851e-02 -5.559917688369750977e-01
1.641000000000000000e+03 4.713566589355468750e+01 -1.220515155792236328e+01 4.768503606319427490e-01 9.319666028022766113e-01 4.226450920104980469e-01 -6.970147490501403809e-01
1.642000000000000000e+03 5.503779602050781250e+01 -6.320019245147705078e+00 6.343275308609008789e-01 -1.412742286920547485e-01 1.479159891605377197e-01 -1.956617236137390137e-01
1.643000000000000000e+03 5.420322418212890625e+01 -7.134064197540283203e+00 5.312188863754272461e-01 -1.402774453163146973e-01 1.172824278473854065e-01 -2.045797854661941528e-01
1.644000000000000000e+03 5.101937484741210938e+01 -1.849801063537597656e+01 -6.138748526573181152e-01 5.024603009223937988e-01 -3.342436999082565308e-02 -1.091364547610282898e-01
1.645000000000000000e+03 4.573371124267578125e+01 -1.367620944976806641e+01 1.461606565862894058e-02 3.840486109256744385e-01 1.195994019508361816e-01 -4.070478677749633789e-01
1.646000000000000000e+03 5.505078506469726562e+01 -8.199926376342773438e+00 3.434885144233703613e-01 8.954191952943801880e-02 1.299091279506683350e-01 -6.192584335803985596e-02
1.647000000000000000e+03 2.100744962692260742e+00 2.600127983093261719e+01 -1.634746906347572803e-03 -4.247951507568359375e-02 -1.323427818715572357e-02 1.384709123522043228e-02
1.648000000000000000e+03 7.874071002006530762e-01 3.187486076354980469e+01 7.804134511388838291e-04 -8.110406994819641113e-02 -2.409709617495536804e-02 5.422267597168684006e-03
1.649000000000000000e+03 2.909723520278930664e+00 3.496421432495117188e+01 3.306402359157800674e-03 -9.723467379808425903e-02 -2.817848138511180878e-02 1.536399032920598984e-02
1.650000000000000000e+03 3.519296884536743164e+00 3.907491683959960938e+01 4.161509219557046890e-03 -1.115585416555404663e-01 -3.221910819411277771e-02 9.593395516276359558e-03
1.651000000000000000e+03 9.558895826339721680e-01 3.870927429199218750e+01 -2.580247819423675537e-04 -1.170983165502548218e-01 -3.520690277218818665e-02 2.429387299343943596e-03
1.652000000000000000e+03 2.533377408981323242e+00 -3.640646362304687500e+01 7.785109337419271469e-03 -3.073473572731018066e-01 -8.986867964267730713e-02 -1.850268431007862091e-02
1.653000000000000000e+03 6.794751882553100586e-01 -3.753107452392578125e+01 3.374929539859294891e-03 -3.373603522777557373e-01 -1.001956239342689514e-01 -2.921332605183124542e-03
1.654000000000000000e+03 1.945804238319396973e+00 2.322876358032226562e+01 -1.824763021431863308e-03 -2.724633179605007172e-02 -8.721328340470790863e-03 9.473761543631553650e-03
1.655000000000000000e+03 2.535138607025146484e+00 3.036633872985839844e+01 1.050040475092828274e-03 -7.111532986164093018e-02 -2.101958543062210083e-02 1.795087754726409912e-02
1.656000000000000000e+03 2.220149993896484375e+00 3.691448974609375000e+01 1.589384162798523903e-03 -1.067452430725097656e-01 -3.154675662517547607e-02 9.300909936428070068e-03
1.657000000000000000e+03 8.598868846893310547e-01 -3.055777549743652344e+01 3.120723413303494453e-03 -2.574242055416107178e-01 -7.629104703664779663e-02 -1.527799293398857117e-02
1.658000000000000000e+03 5.468027591705322266e-01 -6.508657932281494141e+00 9.913052199408411980e-04 1.998827792704105377e-02 6.293875165283679962e-03 2.315867459401488304e-03
1.659000000000000000e+03 2.081223249435424805e+00 -4.193360328674316406e+00 1.958998618647456169e-03 8.234405890107154846e-03 3.058021189644932747e-03 8.218528702855110168e-03
1.660000000000000000e+03 5.861450433731079102e-01 -1.071514511108398438e+01 -2.562040230259299278e-03 2.871042490005493164e-02 7.844515144824981689e-03 -7.175308419391512871e-04
1.661000000000000000e+03 1.687369823455810547e+00 -9.380389213562011719e+00 -3.652350278571248055e-03 1.627219468355178833e-02 3.785953391343355179e-03 1.037484616972506046e-03
1.662000000000000000e+03 6.481854319572448730e-01 -1.353805255889892578e+01 -3.394279861822724342e-03 1.777465455234050751e-02 4.314112477004528046e-03 -4.239188972860574722e-03
1.663000000000000000e+03 7.229899764060974121e-01 -1.781037139892578125e+01 1.749997027218341827e-03 -2.695353329181671143e-02 -7.561060599982738495e-03 -1.055481564253568649e-02
1.664000000000000000e+03 2.109064102172851562e+00 -1.644284248352050781e+01 -2.297090832144021988e-03 -2.908383496105670929e-02 -9.414277970790863037e-03 -2.452066354453563690e-02
1.665000000000000000e+03 7.348412871360778809e-01 -1.923604202270507812e+01 -3.086409298703074455e-03 -4.768287017941474915e-02 -1.523078419268131256e-02 -1.125441025942564011e-02
1.666000000000000000e+03 7.397676706314086914e-01 -2.065446662902832031e+01 1.401028595864772797e-03 -7.146934419870376587e-02 -2.102049626410007477e-02 -1.349087897688150406e-02
1.667000000000000000e+03 7.440882325172424316e-01 -2.206433677673339844e+01 -2.247600816190242767e-03 -9.714819490909576416e-02 -2.981873787939548492e-02 -1.375007349997758865e-02
1.668000000000000000e+03 7.631369233131408691e-01 -2.347736358642578125e+01 9.082201286219060421e-04 -1.249775439500808716e-01 -3.722079470753669739e-02 -1.549351494759321213e-02
1.669000000000000000e+03 2.623596906661987305e+00 -2.642352485656738281e+01 1.806928776204586029e-03 -1.798968613147735596e-01 -5.342698097229003906e-02 -4.671926423907279968e-02
1.670000000000000000e+03 2.620497703552246094e+00 -3.342890167236328125e+01 6.749497260898351669e-03 -2.778262495994567871e-01 -8.132302016019821167e-02 -3.237780928611755371e-02
1.671000000000000000e+03 1.903449177742004395e+00 1.627385330200195312e+01 -5.162271554581820965e-04 -9.863230399787425995e-03 -3.113837214186787605e-03 1.587987644597887993e-04
1.672000000000000000e+03 6.165106892585754395e-01 1.491633319854736328e+01 -2.769552338577341288e-05 -7.746024988591670990e-03 -2.332116011530160904e-03 -2.898004604503512383e-04
1.673000000000000000e+03 5.634070634841918945e-01 1.067610645294189453e+01 3.615352616179734468e-04 -7.547238375991582870e-03 -2.155710943043231964e-03 6.134446593932807446e-04
1.674000000000000000e+03 5.768269896507263184e-01 7.831946372985839844e+00 2.322459185961633921e-04 -3.536598524078726768e-03 -9.913058020174503326e-04 1.025066711008548737e-03
1.675000000000000000e+03 1.950590133666992188e+00 1.905361938476562500e+01 -1.190042123198509216e-03 -1.346846204251050949e-02 -4.397551063448190689e-03 2.901999745517969131e-03
1.676000000000000000e+03 1.924374818801879883e+00 2.183592987060546875e+01 -1.528480905108153820e-03 -2.124314196407794952e-02 -6.831487175077199936e-03 6.831486709415912628e-03
1.677000000000000000e+03 3.158831596374511719e+00 -3.883781814575195312e+01 8.589342236518859863e-03 -3.200680315494537354e-01 -9.344360977411270142e-02 -1.338076312094926834e-02
1.678000000000000000e+03 1.918525457382202148e+00 -3.787149047851562500e+01 4.227754659950733185e-03 -3.243619501590728760e-01 -9.604025632143020630e-02 -9.356467984616756439e-03
1.679000000000000000e+03 2.621669292449951172e+00 -3.205520629882812500e+01 6.266352254897356033e-03 -2.624541819095611572e-01 -7.685635238885879517e-02 -3.835782781243324280e-02
1.680000000000000000e+03 2.430929899215698242e+00 -2.498572540283203125e+01 2.025015710387378931e-04 -1.575586944818496704e-01 -4.720685631036758423e-02 -4.654599726200103760e-02
1.681000000000000000e+03 8.092259168624877930e-01 -2.489699935913085938e+01 -1.888491911813616753e-03 -1.531981676816940308e-01 -4.652599617838859558e-02 -1.592857390642166138e-02
1.682000000000000000e+03 2.032311439514160156e+00 -1.499397754669189453e+01 -6.376781966537237167e-03 -1.267919223755598068e-02 -5.716792307794094086e-03 -1.807991974055767059e-02
1.683000000000000000e+03 6.778826117515563965e-01 -1.495805931091308594e+01 1.656454754993319511e-03 6.167025305330753326e-03 2.347043948248028755e-03 -6.455325055867433548e-03
1.684000000000000000e+03 2.746894836425781250e+00 -6.869382381439208984e+00 -1.700376975350081921e-03 6.467347033321857452e-03 1.430090982466936111e-03 7.083754986524581909e-03
1.685000000000000000e+03 5.454639196395874023e-01 -7.914186954498291016e+00 -1.791385351680219173e-03 2.570424415171146393e-02 7.173857651650905609e-03 1.772910472936928272e-03
1.686000000000000000e+03 1.417007803916931152e+00 -3.298654079437255859e+00 -2.015044628933537751e-05 4.227304365485906601e-03 1.262146164663136005e-03 3.726062830537557602e-03
1.687000000000000000e+03 1.789753198623657227e+00 1.346630668640136719e+01 3.883698955178260803e-04 -8.619149215519428253e-03 -2.469233702868223190e-03 -4.572906182147562504e-04
1.688000000000000000e+03 3.061112785339355469e+01 3.135297060012817383e+00 4.184045195579528809e-01 -2.649480700492858887e-01 4.603692889213562012e-02 -2.130892314016819000e-02
1.689000000000000000e+03 3.393568801879882812e+01 6.132213115692138672e+00 2.109854072332382202e-01 -8.674162626266479492e-02 3.727313503623008728e-02 -1.546863652765750885e-02
1.690000000000000000e+03 3.133611297607421875e+01 5.615778923034667969e+00 3.964760601520538330e-01 1.233751177787780762e-01 1.559553593397140503e-01 2.514035105705261230e-01
1.691000000000000000e+03 3.169588279724121094e+01 3.309980630874633789e+00 2.380321621894836426e-01 -4.035280644893646240e-01 -4.964876547455787659e-02 -2.451833337545394897e-01
1.692000000000000000e+03 2.712808799743652344e+01 -7.683872699737548828e+00 -5.064507126808166504e-01 -6.630775332450866699e-01 -3.508584797382354736e-01 -6.432066559791564941e-01
1.693000000000000000e+03 2.450463867187500000e+01 -4.317192554473876953e+00 9.870080649852752686e-02 -1.830858588218688965e-01 -2.531551569700241089e-02 -1.386803984642028809e-01
1.694000000000000000e+03 2.718436622619628906e+01 -3.783165454864501953e+00 -6.776450574398040771e-02 -5.505215525627136230e-01 -1.854858249425888062e-01 -8.022950291633605957e-01
1.695000000000000000e+03 2.067185020446777344e+01 1.334125638008117676e+00 9.001949802041053772e-03 -2.878884784877300262e-02 -5.936069414019584656e-03 -1.138807088136672974e-02
1.696000000000000000e+03 1.532887172698974609e+01 -4.592530250549316406e+00 1.825338229537010193e-02 1.459010969847440720e-02 9.853047318756580353e-03 -1.689998898655176163e-03
1.697000000000000000e+03 2.415940475463867188e+01 -1.298140287399291992e+00 -1.017866879701614380e-01 1.368862986564636230e-01 1.052988506853580475e-02 -1.488274801522493362e-02
1.698000000000000000e+03 1.885518836975097656e+01 -7.378049850463867188e+00 -6.217635422945022583e-02 2.320764400064945221e-02 -1.169061288237571716e-02 1.036426890641450882e-02
1.699000000000000000e+03 5.251286697387695312e+01 4.100334167480468750e+00 -8.829259127378463745e-02 -2.033074051141738892e-01 -8.748000115156173706e-02 9.938380122184753418e-02
1.700000000000000000e+03 6.021967315673828125e+01 -1.943278670310974121e+00 -3.108527958393096924e-01 1.538259029388427734e+00 3.682218492031097412e-01 3.506440818309783936e-01
1.701000000000000000e+03 6.117897415161132812e+01 3.304169893264770508e+00 -1.367103695869445801e+00 -7.844061255455017090e-01 -6.454529166221618652e-01 -6.976785659790039062e-01
1.702000000000000000e+03 5.459806442260742188e+01 7.046624660491943359e+00 -2.073083072900772095e-03 3.397072851657867432e-02 9.569293819367885590e-03 -5.540289916098117828e-03
1.703000000000000000e+03 5.368304443359375000e+01 8.675428390502929688e+00 3.745842026546597481e-03 2.238179557025432587e-03 1.795206451788544655e-03 -1.016508042812347412e-02
1.704000000000000000e+03 6.508583068847656250e+01 3.013301134109497070e+00 1.204966902732849121e+00 1.373913049697875977e+00 7.736639380455017090e-01 2.696211338043212891e+00
1.705000000000000000e+03 6.063726425170898438e+01 1.186980605125427246e+00 -2.100193262100219727e+00 6.926763057708740234e-01 -4.222550690174102783e-01 1.143048331141471863e-01
1.706000000000000000e+03 6.193295669555664062e+01 2.018567323684692383e+00 -1.104910612106323242e+00 2.827210426330566406e-01 -2.466568797826766968e-01 6.372174024581909180e-01
1.707000000000000000e+03 6.446450805664062500e+01 5.913879394531250000e+00 1.079240679740905762e+00 -1.194006443023681641e+00 -3.442972525954246521e-02 -1.180191040039062500e-01
1.708000000000000000e+03 2.655291557312011719e+01 1.502817916870117188e+01 -1.561134457588195801e-01 -2.581306546926498413e-02 -5.457795038819313049e-02 1.436337977647781372e-01
1.709000000000000000e+03 2.139825630187988281e+01 1.821950340270996094e+01 -2.411499917507171631e-01 -7.949427701532840729e-03 -7.472982257604598999e-02 1.021059378981590271e-01
1.710000000000000000e+03 1.523675537109375000e+01 1.490651130676269531e+01 -2.584400400519371033e-02 1.280457433313131332e-02 -3.911829087883234024e-03 1.108951214700937271e-02
1.711000000000000000e+03 1.427491569519042969e+01 1.371583557128906250e+01 1.665195799432694912e-03 1.105223223567008972e-02 3.815228352323174477e-03 9.471308439970016479e-03
1.712000000000000000e+03 1.851175880432128906e+01 1.694242286682128906e+01 -1.047839522361755371e-01 1.345752552151679993e-02 -2.739792689681053162e-02 2.938953787088394165e-02
1.713000000000000000e+03 1.132248973846435547e+01 1.073123741149902344e+01 1.252592727541923523e-02 1.239421404898166656e-02 7.476042490452528000e-03 1.124587189406156540e-02
1.714000000000000000e+03 1.990000534057617188e+01 1.754982757568359375e+01 -1.489009559154510498e-01 1.964171044528484344e-02 -3.877777606248855591e-02 3.346212580800056458e-02
1.715000000000000000e+03 2.530442428588867188e+01 1.238285827636718750e+01 -1.131261326372623444e-02 3.088534064590930939e-02 5.871818400919437408e-03 -9.849500842392444611e-03
1.716000000000000000e+03 2.773863029479980469e+01 1.492261028289794922e+01 -2.123583108186721802e-01 5.908483639359474182e-03 -6.193494424223899841e-02 1.016331464052200317e-01
1.717000000000000000e+03 6.469683074951171875e+01 1.460786819458007812e+01 -2.473631143569946289e+00 -1.660399697721004486e-02 -7.470705509185791016e-01 -6.729383468627929688e-01
1.718000000000000000e+03 2.214688682556152344e+01 7.996545314788818359e+00 -1.990159042179584503e-02 9.540250524878501892e-03 -3.108402248471975327e-03 -8.914523757994174957e-03
1.719000000000000000e+03 2.366900253295898438e+01 9.898170471191406250e+00 -1.482835598289966583e-02 2.072054333984851837e-02 1.767655834555625916e-03 -1.604996039532124996e-03
1.720000000000000000e+03 1.899818611145019531e+01 8.713381767272949219e+00 1.758583635091781616e-02 9.502190165221691132e-03 8.126407861709594727e-03 8.376429788768291473e-03
1.721000000000000000e+03 2.246082496643066406e+01 1.131321620941162109e+01 2.104056626558303833e-02 2.897775918245315552e-02 1.500549726188182831e-02 2.430324628949165344e-02
1.722000000000000000e+03 4.580253982543945312e+01 1.560088348388671875e+01 -1.688532471656799316e+00 1.316245943307876587e-01 -4.670723378658294678e-01 1.441356260329484940e-02
1.723000000000000000e+03 4.384397125244140625e+01 1.446981143951416016e+01 -7.909873127937316895e-01 6.117519736289978027e-02 -2.189436405897140503e-01 -9.521978348493576050e-02
1.724000000000000000e+03 5.476017761230468750e+01 8.298990249633789062e+00 -1.853086054325103760e-03 1.739121600985527039e-02 4.661438986659049988e-03 -8.833331055939197540e-03
1.725000000000000000e+03 2.807970428466796875e+01 2.628914117813110352e+00 5.961754322052001953e-01 3.883717358112335205e-01 2.953641414642333984e-01 4.636087715625762939e-01
1.726000000000000000e+03 3.703743743896484375e+01 1.467483520507812500e+01 -5.941576957702636719e-01 1.947648590430617332e-03 -1.776630133390426636e-01 8.621058613061904907e-02
1.727000000000000000e+03 3.486837768554687500e+01 1.501964092254638672e+01 -7.804977893829345703e-01 -1.971901953220367432e-01 -2.933064103126525879e-01 1.399890780448913574e-01
1.728000000000000000e+03 6.967972564697265625e+01 1.188471412658691406e+01 2.858898639678955078e-01 8.510643005371093750e+00 2.638959884643554688e+00 -3.145441055297851562e+00
1.729000000000000000e+03 6.884642791748046875e+01 1.165437602996826172e+01 1.333991646766662598e+00 3.425845623016357422e+00 1.427951216697692871e+00 -2.472750425338745117e+00
1.730000000000000000e+03 6.924674224853515625e+01 1.165828418731689453e+01 1.271398067474365234e+00 5.513342380523681641e+00 2.035422086715698242e+00 -3.281672000885009766e+00
1.731000000000000000e+03 6.796887969970703125e+01 1.206238555908203125e+01 5.673355460166931152e-01 1.829738020896911621e+00 7.191220521926879883e-01 -1.076952576637268066e+00
1.732000000000000000e+03 6.788517761230468750e+01 1.176279354095458984e+01 7.725546360015869141e-01 1.218323349952697754e+00 5.972633957862854004e-01 -7.951174974441528320e-01
1.733000000000000000e+03 6.844365692138671875e+01 1.209553718566894531e+01 7.750506401062011719e-01 3.010962724685668945e+00 1.135804057121276855e+00 -1.874077916145324707e+00
1.734000000000000000e+03 6.803723907470703125e+01 8.364887237548828125e+00 5.820306539535522461e-01 3.409963130950927734e+00 1.197598218917846680e+00 1.154879331588745117e+00
1.735000000000000000e+03 6.800820922851562500e+01 8.178776741027832031e+00 1.035831332206726074e+00 4.013463020324707031e+00 1.514788389205932617e+00 1.218153119087219238e+00
1.736000000000000000e+03 6.894255065917968750e+01 8.285824775695800781e+00 1.035792469978332520e+00 8.408263206481933594e+00 2.833216905593872070e+00 4.721136569976806641e+00
1.737000000000000000e+03 6.831002807617187500e+01 8.237994194030761719e+00 1.006019711494445801e+00 5.305396080017089844e+00 1.893424749374389648e+00 2.206980228424072266e+00
1.738000000000000000e+03 6.872814941406250000e+01 7.910455703735351562e+00 1.490268468856811523e+00 7.335762500762939453e+00 2.647809267044067383e+00 3.492892026901245117e+00
1.739000000000000000e+03 6.723268890380859375e+01 7.568826675415039062e+00 1.900681018829345703e+00 3.566141605377197266e+00 1.640046834945678711e+00 -1.468656212091445923e-01
1.740000000000000000e+03 7.006714630126953125e+01 8.276638984680175781e+00 -2.372445821762084961e+00 1.960558891296386719e+01 5.169943332672119141e+00 8.433286666870117188e+00
1.741000000000000000e+03 7.089247894287109375e+01 7.997990608215332031e+00 -2.731682360172271729e-01 1.089569377899169922e+01 3.186757564544677734e+00 4.220440387725830078e+00
1.742000000000000000e+03 7.046476745605468750e+01 8.332906723022460938e+00 -2.957018613815307617e+00 1.949960327148437500e+01 4.962775707244873047e+00 6.685501098632812500e+00
1.743000000000000000e+03 7.237284851074218750e+01 9.263066291809082031e+00 -3.678807973861694336e+00 -4.465784072875976562e+00 -2.443377733230590820e+00 -2.023617029190063477e+00
1.744000000000000000e+03 7.181633758544921875e+01 1.058138465881347656e+01 8.186975479125976562e+00 6.185669898986816406e+00 4.311793804168701172e+00 4.935311317443847656e+00
1.745000000000000000e+03 7.027854156494140625e+01 1.225621891021728516e+01 -5.809856653213500977e-01 1.058624267578125000e+01 3.001576900482177734e+00 -1.377800107002258301e+00
1.746000000000000000e+03 7.089537048339843750e+01 1.189015102386474609e+01 8.622960746288299561e-02 1.268530941009521484e+01 3.831461668014526367e+00 1.264120936393737793e+00
1.747000000000000000e+03 6.815718841552734375e+01 7.814819335937500000e+00 1.658563017845153809e+00 5.715038776397705078e+00 2.212080478668212891e+00 1.811342835426330566e+00
1.748000000000000000e+03 6.857043457031250000e+01 7.564464092254638672e+00 1.849040865898132324e+00 8.606158256530761719e+00 3.136559724807739258e+00 3.290091991424560547e+00
1.749000000000000000e+03 2.155481529235839844e+01 7.397592544555664062e+00 -2.763420529663562775e-02 1.284303702414035797e-02 -4.437350668013095856e-03 -9.876186959445476532e-03
1.750000000000000000e+03 4.298632144927978516e+00 -2.426228523254394531e+00 7.824944332242012024e-03 3.150767413899302483e-03 3.292713547125458717e-03 9.972183033823966980e-03
1.751000000000000000e+03 5.718895339965820312e+01 1.406571483612060547e+01 -1.493868112564086914e+00 4.031757712364196777e-01 -3.272077143192291260e-01 1.848994940519332886e-01
1.752000000000000000e+03 5.653581237792968750e+01 1.419723606109619141e+01 -1.385330438613891602e+00 3.394328653812408447e-01 -3.137692809104919434e-01 2.041529864072799683e-01
1.753000000000000000e+03 5.778684997558593750e+01 1.380982112884521484e+01 -1.559250235557556152e+00 3.666756749153137207e-01 -3.577723503112792969e-01 4.342082142829895020e-02
1.754000000000000000e+03 5.804339599609375000e+01 1.436111640930175781e+01 -1.657007932662963867e+00 4.282216131687164307e-01 -3.686358928680419922e-01 1.845100671052932739e-01
1.755000000000000000e+03 5.635746002197265625e+01 1.487009239196777344e+01 -1.454308629035949707e+00 4.011178910732269287e-01 -3.159572184085845947e-01 2.907696366310119629e-01
1.756000000000000000e+03 3.714663696289062500e+01 1.389371490478515625e+01 -6.056163311004638672e-01 2.576666884124279022e-02 -1.739549040794372559e-01 1.381058394908905029e-01
1.757000000000000000e+03 2.022200202941894531e+01 6.812374114990234375e+00 -1.911597140133380890e-02 3.265453735366463661e-03 -4.755155649036169052e-03 -1.166937220841646194e-02
1.758000000000000000e+03 3.852383041381835938e+01 1.467020130157470703e+01 -5.851994156837463379e-01 1.016639769077301025e-01 -1.450606286525726318e-01 8.546075224876403809e-02
1.759000000000000000e+03 6.570078277587890625e+01 7.006010055541992188e+00 6.739265322685241699e-01 3.120077848434448242e-01 2.957802712917327881e-01 -7.727398872375488281e-01
1.760000000000000000e+03 6.694504547119140625e+01 5.388658046722412109e+00 3.477630853652954102e+00 4.680665016174316406e+00 2.447488784790039062e+00 1.739154577255249023e+00
1.761000000000000000e+03 6.663375854492187500e+01 7.519762992858886719e+00 1.131925106048583984e+00 1.866169810295104980e+00 8.994284868240356445e-01 -6.708636283874511719e-01
1.762000000000000000e+03 3.692446899414062500e+01 1.564213180541992188e+01 -6.263362169265747070e-01 -8.874995633959770203e-03 -1.905633658170700073e-01 9.617281705141067505e-02
1.763000000000000000e+03 2.455355072021484375e+01 -3.046150505542755127e-01 -1.513733416795730591e-01 1.633180230855941772e-01 3.583405865356326103e-03 6.559273600578308105e-02
1.764000000000000000e+03 5.344064235687255859e+00 -3.953792095184326172e+00 1.612162566743791103e-03 2.696120413020253181e-03 1.292484928853809834e-03 1.056836359202861786e-02
1.765000000000000000e+03 1.077549266815185547e+01 -3.341180324554443359e+00 7.561836857348680496e-03 -7.473286823369562626e-04 2.044352469965815544e-03 3.030331572517752647e-03
1.766000000000000000e+03 9.496125221252441406e+00 -2.460058689117431641e+00 1.382453925907611847e-02 -9.270519949495792389e-03 1.366205629892647266e-03 1.262441393919289112e-03
1.767000000000000000e+03 2.550029039382934570e+00 3.512014150619506836e+00 -1.403651433065533638e-03 -6.330819451250135899e-04 -6.110200192779302597e-04 5.559863056987524033e-04
1.768000000000000000e+03 5.434216690063476562e+01 1.460053157806396484e+01 -1.324176788330078125e+00 2.664820551872253418e-01 -3.173084259033203125e-01 4.385704398155212402e-01
1.769000000000000000e+03 5.349660491943359375e+01 1.472887516021728516e+01 -1.395688533782958984e+00 2.098127752542495728e-01 -3.557627201080322266e-01 4.995438158512115479e-01
1.770000000000000000e+03 5.589208602905273438e+01 1.433192157745361328e+01 -1.339146494865417480e+00 3.276916742324829102e-01 -3.034364581108093262e-01 3.056509196758270264e-01
1.771000000000000000e+03 5.445703125000000000e+01 1.534202194213867188e+01 -1.396059155464172363e+00 3.090361654758453369e-01 -3.261068761348724365e-01 3.995524048805236816e-01
1.772000000000000000e+03 1.007473564147949219e+01 -3.227941274642944336e+00 8.651491254568099976e-03 -1.245154440402984619e-02 -1.140015781857073307e-03 -4.652778152376413345e-04
1.773000000000000000e+03 1.298635864257812500e+01 -3.800768613815307617e+00 9.146924130618572235e-03 -2.014710381627082825e-02 -3.300053998827934265e-03 -8.117956109344959259e-03
1.774000000000000000e+03 1.991388702392578125e+01 7.555730342864990234e+00 -5.479986313730478287e-03 8.695292286574840546e-03 9.645917452871799469e-04 7.039976480882614851e-05
1.775000000000000000e+03 8.181448936462402344e+00 -2.334295749664306641e+00 1.409922260791063309e-02 -6.011940073221921921e-03 2.426184713840484619e-03 5.058597307652235031e-03
1.776000000000000000e+03 9.386569976806640625e+00 -3.123742103576660156e+00 8.338241837918758392e-03 -1.732469827402383089e-04 2.449498511850833893e-03 6.049436982721090317e-03
1.777000000000000000e+03 2.082545471191406250e+01 7.872371673583984375e+00 -8.994318544864654541e-03 9.456729516386985779e-03 1.387233205605298281e-04 -6.663401145488023758e-04
1.778000000000000000e+03 5.427940368652343750e+00 -3.241795539855957031e+00 5.845872685313224792e-03 -1.316728186793625355e-03 1.358743407763540745e-03 8.441611193120479584e-03
1.779000000000000000e+03 8.087604522705078125e+00 -2.836229324340820312e+00 1.213316433131694794e-02 -4.607661976478993893e-04 3.501719329506158829e-03 8.928342722356319427e-03
1.780000000000000000e+03 4.159321594238281250e+01 1.488993549346923828e+01 -6.582142114639282227e-01 1.538522690534591675e-01 -1.513085812330245972e-01 1.271893084049224854e-02
1.781000000000000000e+03 4.279442977905273438e+01 1.405362319946289062e+01 -5.856773257255554199e-01 1.091323345899581909e-01 -1.429634988307952881e-01 -6.645694375038146973e-02
1.782000000000000000e+03 3.989450836181640625e+01 1.538883209228515625e+01 -6.574676036834716797e-01 1.272273808717727661e-01 -1.590720564126968384e-01 9.316564351320266724e-02
1.783000000000000000e+03 3.923386383056640625e+01 1.378728485107421875e+01 -4.908501207828521729e-01 9.376037120819091797e-02 -1.191269233822822571e-01 7.935003191232681274e-02
1.784000000000000000e+03 3.999842071533203125e+01 1.459727954864501953e+01 -5.787453651428222656e-01 1.307406574487686157e-01 -1.344014108180999756e-01 6.012474745512008667e-02
1.785000000000000000e+03 6.663947296142578125e+01 1.344696044921875000e+01 -9.261175990104675293e-01 1.390320301055908203e+00 1.392607837915420532e-01 -7.565405368804931641e-01
1.786000000000000000e+03 1.322142410278320312e+01 -2.918966054916381836e+00 1.386954542249441147e-02 1.819007564336061478e-03 4.706565756350755692e-03 -5.673326551914215088e-03
1.787000000000000000e+03 2.577352285385131836e+00 4.889714241027832031e+00 -6.707260035909712315e-04 -8.564441814087331295e-04 -4.581510438583791256e-04 1.523594255559146404e-03
1.788000000000000000e+03 1.786819839477539062e+01 6.664960384368896484e+00 -1.577995903789997101e-02 -1.709929085336625576e-03 -5.246966611593961716e-03 -4.310833290219306946e-03
1.789000000000000000e+03 1.571861076354980469e+01 -2.045416593551635742e+00 1.282086689025163651e-02 2.299822680652141571e-02 1.074572745710611343e-02 -2.782465144991874695e-02
1.790000000000000000e+03 8.902375221252441406e+00 8.502245903015136719e+00 1.904827356338500977e-02 3.423696383833885193e-03 6.741590797901153564e-03 7.928497157990932465e-03
1.791000000000000000e+03 6.837301254272460938e+00 8.126318931579589844e+00 6.412216462194919586e-03 -7.478530053049325943e-03 -3.198941412847489119e-04 9.545294567942619324e-03
1.792000000000000000e+03 9.285742759704589844e+00 7.718767166137695312e+00 8.602124638855457306e-03 6.001448258757591248e-03 4.381071776151657104e-03 -1.849706604843959212e-04
1.793000000000000000e+03 9.614391326904296875e+00 9.120983123779296875e+00 9.319519624114036560e-03 6.323318928480148315e-03 4.692851565778255463e-03 3.085249802097678185e-03
1.794000000000000000e+03 5.421715736389160156e+00 6.039666652679443359e+00 -1.086739823222160339e-02 -1.167214475572109222e-03 -3.610383719205856323e-03 6.823394447565078735e-03
1.795000000000000000e+03 5.054121494293212891e+00 5.424760341644287109e+00 -5.545230582356452942e-03 1.207302906550467014e-03 -1.301378244534134865e-03 4.480465780943632126e-03
1.796000000000000000e+03 4.632415771484375000e+00 4.887775421142578125e+00 -6.443025078624486923e-03 2.509434125386178493e-04 -1.857624505646526814e-03 2.529828576371073723e-03
1.797000000000000000e+03 3.364135742187500000e+00 6.808582782745361328e+00 -5.896102520637214184e-04 -2.581941662356257439e-03 -9.514655685052275658e-04 4.019857849925756454e-03
1.798000000000000000e+03 2.904730319976806641e+00 4.027060031890869141e+00 -1.860030926764011383e-03 -1.785986096365377307e-04 -6.115888827480375767e-04 -4.910814823233522475e-05
1.799000000000000000e+03 7.218381881713867188e+00 -2.580888509750366211e+00 1.278519816696643829e-02 -4.229805897921323776e-03 2.566617680713534355e-03 8.066313341259956360e-03
1.800000000000000000e+03 1.222784328460693359e+01 -3.616948366165161133e+00 7.018411532044410706e-03 -1.114383456297218800e-03 1.771208480931818485e-03 1.801057660486549139e-04
1.801000000000000000e+03 1.268297958374023438e+01 -4.659015178680419922e+00 -1.581424148753285408e-03 -2.605698071420192719e-03 -1.256136689335107803e-03 2.940182806923985481e-03
1.802000000000000000e+03 5.216150665283203125e+01 1.531262016296386719e+01 -1.681248188018798828e+00 8.991678059101104736e-02 -4.773994088172912598e-01 5.608382821083068848e-01
1.803000000000000000e+03 3.824580383300781250e+01 7.267615795135498047e+00 -2.879246836528182030e-03 2.120461873710155487e-02 5.497611593455076218e-03 -2.281314134597778320e-02
1.804000000000000000e+03 5.912161254882812500e+01 1.364264011383056641e+01 -1.856806635856628418e+00 3.740911185741424561e-01 -4.448146522045135498e-01 3.266070410609245300e-02
1.805000000000000000e+03 5.861590194702148438e+01 1.411728858947753906e+01 -1.669604301452636719e+00 3.377360105514526367e-01 -3.995604813098907471e-01 7.416607439517974854e-02
1.806000000000000000e+03 5.139375686645507812e+01 1.597828102111816406e+01 -2.082324504852294922e+00 7.558751851320266724e-03 -6.224297285079956055e-01 2.569293081760406494e-01
1.807000000000000000e+03 5.964801025390625000e+01 1.436808300018310547e+01 -1.814051032066345215e+00 2.819923162460327148e-01 -4.596176147460937500e-01 1.221646070480346680e-01
1.808000000000000000e+03 7.654831695556640625e+01 8.666423559188842773e-01 -3.224182844161987305e+00 8.985172271728515625e+00 1.728296756744384766e+00 -9.729550480842590332e-01
1.809000000000000000e+03 3.234306097030639648e+00 3.346450328826904297e+00 -6.808544858358800411e-04 -2.129597123712301254e-04 -2.681442711036652327e-04 3.869427309837192297e-04
1.810000000000000000e+03 3.575409650802612305e+00 4.222960472106933594e+00 -1.983157591894268990e-03 -4.661437124013900757e-04 -7.347904029302299023e-04 1.265721512027084827e-03
1.811000000000000000e+03 2.371380043029785156e+01 1.085400390625000000e+01 -3.422837762627750635e-04 3.106222115457057953e-02 9.215981699526309967e-03 1.554282661527395248e-02
1.812000000000000000e+03 2.510878944396972656e+01 9.919817924499511719e+00 -2.551847137510776520e-02 -1.660614390857517719e-03 -8.153725415468215942e-03 -2.012911252677440643e-02
1.813000000000000000e+03 6.510105895996093750e+01 1.263572406768798828e+01 -1.497893810272216797e+00 -1.640321135520935059e+00 -9.414644837379455566e-01 1.239251375198364258e+00
1.814000000000000000e+03 6.539920806884765625e+01 1.516041374206542969e+01 -1.605885267257690430e+00 8.162247538566589355e-01 -2.368981689214706421e-01 -1.257034420967102051e+00
1.815000000000000000e+03 2.380207061767578125e+01 6.833399295806884766e+00 -3.248506784439086914e-02 -1.377284154295921326e-02 -1.387737225741147995e-02 -2.325088717043399811e-02
1.816000000000000000e+03 2.363186454772949219e+01 8.300948143005371094e+00 -2.542224712669849396e-02 4.004819784313440323e-03 -6.425227969884872437e-03 -1.441377121955156326e-02
1.817000000000000000e+03 4.964918136596679688e+01 8.646885871887207031e+00 3.111297264695167542e-02 5.439908709377050400e-03 1.096586417406797409e-02 2.100718021392822266e-02
1.818000000000000000e+03 4.966101455688476562e+01 6.613235473632812500e+00 -3.172175213694572449e-02 -4.059165716171264648e-02 -2.169402316212654114e-02 -1.628087833523750305e-02
1.819000000000000000e+03 3.112917900085449219e+01 4.056911468505859375e+00 3.820872604846954346e-01 -1.678286939859390259e-01 6.427757441997528076e-02 -3.833134192973375320e-03
1.820000000000000000e+03 7.336811828613281250e+01 1.013078498840332031e+01 4.623369216918945312e+00 2.100839853286743164e+00 2.017262697219848633e+00 -3.229405879974365234e+00
1.821000000000000000e+03 6.956503295898437500e+01 -3.958645164966583252e-01 -3.454264879226684570e+00 5.195772647857666016e+00 5.224524140357971191e-01 -1.728946566581726074e+00
1.822000000000000000e+03 3.225318527221679688e+01 1.984142684936523438e+01 -3.225647509098052979e-01 -5.657590925693511963e-02 -1.137422025203704834e-01 2.386963218450546265e-01
1.823000000000000000e+03 3.197348976135253906e+01 1.814019966125488281e+01 -3.450295031070709229e-01 -5.422574281692504883e-02 -1.197765693068504333e-01 2.128155380487442017e-01
1.824000000000000000e+03 6.257065200805664062e+01 -1.428272485733032227e+00 -2.417063713073730469e+00 3.794054031372070312e+00 4.130970537662506104e-01 1.484698772430419922e+00
1.825000000000000000e+03 4.773610305786132812e+01 1.111186981201171875e+00 -8.925551772117614746e-01 2.031587660312652588e-01 -2.068189382553100586e-01 -3.321165144443511963e-01
1.826000000000000000e+03 4.995827102661132812e+01 -1.934085273742675781e+01 -4.531031847000122070e-01 5.830413103103637695e-01 3.898144513368606567e-02 -2.441389113664627075e-01
1.827000000000000000e+03 7.548133850097656250e+01 -1.450171184539794922e+01 5.704283714294433594e-01 8.004845619201660156e+00 2.572582006454467773e+00 -1.345312967896461487e-02
1.828000000000000000e+03 7.384699249267578125e+01 -1.050257396697998047e+01 7.709443569183349609e-01 8.493273735046386719e+00 2.779265403747558594e+00 5.228329300880432129e-01
1.829000000000000000e+03 6.711224365234375000e+01 4.408999919891357422e+00 3.640579462051391602e+00 5.692067623138427734e+00 2.799794197082519531e+00 2.432369709014892578e+00
1.830000000000000000e+03 6.894888305664062500e+01 2.170692682266235352e+00 -3.832953572273254395e-01 9.291894912719726562e+00 2.672579765319824219e+00 7.906858921051025391e-01
1.831000000000000000e+03 2.437995338439941406e+01 1.165235900878906250e+01 -1.917599351145327091e-03 4.649182781577110291e-02 1.337226852774620056e-02 9.625536389648914337e-03
1.832000000000000000e+03 2.633318710327148438e+01 1.153068923950195312e+01 -2.198443002998828888e-02 -1.791904494166374207e-02 -1.197104249149560928e-02 -2.122896537184715271e-02
1.833000000000000000e+03 4.810111236572265625e+01 -1.869803237915039062e+01 -4.716498553752899170e-01 5.870783925056457520e-01 3.462855517864227295e-02 -1.717389672994613647e-01
1.834000000000000000e+03 4.831895446777343750e+01 -1.747801971435546875e+01 -3.109913170337677002e-01 5.794387459754943848e-01 8.053423464298248291e-02 -1.152115240693092346e-01
1.835000000000000000e+03 3.099061012268066406e+01 -1.033928203582763672e+01 3.982865437865257263e-02 6.089867353439331055e-01 1.946446150541305542e-01 -1.266876310110092163e-01
1.836000000000000000e+03 2.998194503784179688e+01 -9.590457916259765625e+00 -9.778134524822235107e-02 2.686471343040466309e-01 5.125973373651504517e-02 -1.285203099250793457e-01
1.837000000000000000e+03 2.855778503417968750e+01 7.647445201873779297e-01 -8.196567893028259277e-01 1.768875420093536377e-01 -1.928307712078094482e-01 -9.919198229908943176e-03
1.838000000000000000e+03 3.606866455078125000e+01 3.427211046218872070e-01 -1.141461253166198730e+00 6.836078763008117676e-01 -1.373560130596160889e-01 1.770989149808883667e-01
1.839000000000000000e+03 4.503633117675781250e+01 -1.466297817230224609e+01 -2.308277487754821777e-01 3.045506179332733154e-01 2.211686037480831146e-02 -2.029102593660354614e-01
1.840000000000000000e+03 4.414526367187500000e+01 -1.408823490142822266e+01 -2.577500045299530029e-01 -7.857215404510498047e-02 -1.008966490626335144e-01 -5.079632997512817383e-01
1.841000000000000000e+03 4.746281051635742188e+01 2.957290172576904297e+00 -5.400891900062561035e-01 8.475822955369949341e-02 -1.365992873907089233e-01 -2.084548622369766235e-01
1.842000000000000000e+03 7.191444396972656250e+01 -5.127528667449951172e+00 -6.267396807670593262e-01 4.030987739562988281e+00 1.021274447441101074e+00 -5.522357225418090820e-01
1.843000000000000000e+03 4.250661087036132812e+01 -1.042816829681396484e+01 4.312250018119812012e-01 -3.345492482185363770e-01 2.900273166596889496e-02 -5.293467640876770020e-01
1.844000000000000000e+03 4.252775192260742188e+01 -1.208411598205566406e+01 2.451236844062805176e-01 -4.049142599105834961e-01 -4.793717712163925171e-02 -4.686165153980255127e-01
1.845000000000000000e+03 3.795083236694335938e+01 6.262053966522216797e+00 3.080334747210144997e-03 4.410630092024803162e-02 1.415599044412374496e-02 -1.408272981643676758e-02
1.846000000000000000e+03 2.519466590881347656e+01 -1.122730636596679688e+01 -5.866201221942901611e-02 -1.093774676322937012e+00 -3.457309901714324951e-01 -1.386054605245590210e-01
1.847000000000000000e+03 6.167124176025390625e+01 -3.009410381317138672e+00 5.487712621688842773e-01 3.483893394470214844e+00 1.209799408912658691e+00 5.514003634452819824e-01
1.848000000000000000e+03 3.297225570678710938e+01 -1.478747272491455078e+01 -1.897921711206436157e-01 3.499103784561157227e-01 4.803545773029327393e-02 -2.539993636310100555e-02
1.849000000000000000e+03 4.283680725097656250e+01 -1.877885222434997559e+00 -1.328853249549865723e+00 -2.597338557243347168e-01 -4.765761494636535645e-01 2.024659328162670135e-02
1.850000000000000000e+03 4.313515472412109375e+01 -4.048134326934814453e+00 -7.139591574668884277e-01 -3.984042406082153320e-01 -3.337090313434600830e-01 -1.489019244909286499e-01
1.851000000000000000e+03 6.719924163818359375e+01 -1.553141713142395020e+00 -2.642091512680053711e+00 2.007176637649536133e+00 -1.904744803905487061e-01 6.226167678833007812e-01
1.852000000000000000e+03 6.560237121582031250e+01 1.371925473213195801e-01 -1.094156265258789062e+00 1.474175810813903809e+00 1.140058487653732300e-01 3.470729351043701172e+00
1.853000000000000000e+03 1.575439262390136719e+01 1.647041511535644531e+01 -4.934493824839591980e-02 1.034791208803653717e-02 -1.169910747557878494e-02 1.949941925704479218e-02
1.854000000000000000e+03 6.830326080322265625e+01 -1.799852180480957031e+01 -9.564259089529514313e-03 9.755965471267700195e-01 2.898096740245819092e-01 4.297308921813964844e-01
1.855000000000000000e+03 6.898188018798828125e+01 7.747778892517089844e+00 1.791098356246948242e+00 1.056135082244873047e+01 3.705734729766845703e+00 4.781978130340576172e+00
1.856000000000000000e+03 3.820524978637695312e+01 -1.303071379661560059e+00 -1.623171925544738770e+00 -6.044805422425270081e-02 -5.050860047340393066e-01 -3.515452742576599121e-01
1.857000000000000000e+03 7.379956054687500000e+01 -1.527068901062011719e+01 6.415227055549621582e-01 7.658260822296142578e+00 2.489935159683227539e+00 8.954389020800590515e-03
1.858000000000000000e+03 5.200517272949218750e+01 -1.968236923217773438e+01 -4.800424873828887939e-01 4.206673800945281982e-01 -1.781253702938556671e-02 -2.549109756946563721e-01
1.859000000000000000e+03 5.310048294067382812e+01 -2.109746360778808594e+01 -1.883648037910461426e-01 4.562588036060333252e-01 8.036819845438003540e-02 -9.231388568878173828e-02
1.860000000000000000e+03 6.400639343261718750e+01 -1.291650485992431641e+01 -7.110281586647033691e-01 2.076987504959106445e+00 4.097878038883209229e-01 -7.894077897071838379e-02
1.861000000000000000e+03 6.422373199462890625e+01 -1.439345073699951172e+01 -9.490838646888732910e-01 2.008818387985229492e+00 3.179203569889068604e-01 -1.149808242917060852e-01
1.862000000000000000e+03 7.247961425781250000e+01 -8.169322967529296875e+00 3.260554969310760498e-01 6.566481113433837891e+00 2.067760944366455078e+00 -2.421578019857406616e-01
1.863000000000000000e+03 5.803457260131835938e+01 -2.006223869323730469e+01 -5.642200112342834473e-01 1.803913712501525879e+00 3.719080984592437744e-01 -5.281796678900718689e-02
1.864000000000000000e+03 2.146079444885253906e+01 -1.036727237701416016e+01 -6.208779811859130859e-01 -4.309365898370742798e-02 -1.991914957761764526e-01 -2.964901030063629150e-01
1.865000000000000000e+03 1.341714191436767578e+01 1.465446662902832031e+01 -1.888672821223735809e-02 9.757801890373229980e-03 -2.738678129389882088e-03 8.842373266816139221e-03
1.866000000000000000e+03 7.636904907226562500e+01 -3.046873283386230469e+01 4.631134495139122009e-02 5.924541950225830078e+00 1.791256070137023926e+00 3.471730053424835205e-01
1.867000000000000000e+03 7.603305816650390625e+01 -3.192834472656250000e+01 8.182338625192642212e-02 5.760520458221435547e+00 1.752703070640563965e+00 3.455787897109985352e-01
1.868000000000000000e+03 7.793222045898437500e+01 -2.923218345642089844e+01 -5.913211498409509659e-03 6.492454051971435547e+00 1.945962190628051758e+00 2.476398348808288574e-01
1.869000000000000000e+03 7.574524688720703125e+01 2.073026466369628906e+01 -2.763120830059051514e-01 7.081549167633056641e+00 2.041571140289306641e+00 -1.008844822645187378e-01
1.870000000000000000e+03 7.712184143066406250e+01 1.825551795959472656e+01 -2.376099377870559692e-01 7.523523330688476562e+00 2.185774087905883789e+00 2.802616059780120850e-01
1.871000000000000000e+03 7.527868652343750000e+01 -2.687663650512695312e+01 5.483813956379890442e-02 5.904820919036865234e+00 1.787897706031799316e+00 5.809233784675598145e-01
1.872000000000000000e+03 7.632859802246093750e+01 -2.301467895507812500e+01 -8.001989126205444336e-02 6.727580070495605469e+00 1.994267940521240234e+00 4.916640818119049072e-01
1.873000000000000000e+03 7.625406646728515625e+01 -2.527786636352539062e+01 -2.990024536848068237e-02 6.374670028686523438e+00 1.903430938720703125e+00 5.016279816627502441e-01
1.874000000000000000e+03 7.660934448242187500e+01 2.340948486328125000e+01 -1.326477527618408203e-01 7.105277061462402344e+00 2.091788768768310547e+00 -2.166579961776733398e-01
1.875000000000000000e+03 7.712444305419921875e+01 1.695610618591308594e+01 -1.853196173906326294e-01 7.486222267150878906e+00 2.190270900726318359e+00 4.436560869216918945e-01
1.876000000000000000e+03 7.708566284179687500e+01 1.559630775451660156e+01 -1.998852193355560303e-01 7.501395702362060547e+00 2.190453290939331055e+00 5.733554959297180176e-01
1.877000000000000000e+03 7.667099761962890625e+01 -2.163221359252929688e+01 -2.553128600120544434e-01 7.075060844421386719e+00 2.045924425125122070e+00 3.332927227020263672e-01
1.878000000000000000e+03 7.698773193359375000e+01 1.411677932739257812e+01 -5.780465528368949890e-02 7.499054431915283203e+00 2.232374906539916992e+00 6.393949389457702637e-01
1.879000000000000000e+03 7.460475921630859375e+01 2.573486709594726562e+01 -7.374046742916107178e-02 6.196431636810302734e+00 1.836807370185852051e+00 -4.705765545368194580e-01
1.880000000000000000e+03 7.602167510986328125e+01 2.613232803344726562e+01 -6.582244485616683960e-02 6.692320346832275391e+00 1.987949490547180176e+00 -3.555649816989898682e-01
1.881000000000000000e+03 7.701166534423828125e+01 1.257245826721191406e+01 -2.366951853036880493e-01 7.732891082763671875e+00 2.248858690261840820e+00 5.454941391944885254e-01
1.882000000000000000e+03 7.741786956787109375e+01 9.211686134338378906e+00 -1.365921050310134888e-01 9.785083770751953125e+00 2.894547462463378906e+00 4.695391058921813965e-01
1.883000000000000000e+03 7.701350402832031250e+01 -6.696538448333740234e+00 9.556335955858230591e-02 8.872253417968750000e+00 2.690345048904418945e+00 1.313009738922119141e+00
1.884000000000000000e+03 7.705342102050781250e+01 -5.336774826049804688e+00 -3.730982542037963867e-02 9.024653434753417969e+00 2.696202993392944336e+00 1.415242552757263184e+00
1.885000000000000000e+03 7.710556793212890625e+01 -1.428156757354736328e+01 2.645230591297149658e-01 8.019444465637207031e+00 2.485190391540527344e+00 8.373823016881942749e-02
1.886000000000000000e+03 7.737973022460937500e+01 -1.531391429901123047e+01 2.174154818058013916e-01 7.783212184906005859e+00 2.400188446044921875e+00 -1.296398937702178955e-01
1.887000000000000000e+03 7.625931549072265625e+01 -1.346281719207763672e+01 7.410286068916320801e-01 7.851293087005615234e+00 2.577696561813354492e+00 3.804330229759216309e-01
1.888000000000000000e+03 7.803624725341796875e+01 -1.250968170166015625e+01 2.217041105031967163e-01 8.030138015747070312e+00 2.475552558898925781e+00 4.515013098716735840e-01
1.889000000000000000e+03 7.695624542236328125e+01 2.081999015808105469e+01 -1.929397732019424438e-01 7.388000965118408203e+00 2.158518314361572266e+00 -1.566841825842857361e-02
1.890000000000000000e+03 7.706612396240234375e+01 1.953851890563964844e+01 -1.903198510408401489e-01 7.473693847656250000e+00 2.185012102127075195e+00 1.218945086002349854e-01
1.891000000000000000e+03 7.680413055419921875e+01 2.210496139526367188e+01 -1.250765323638916016e-01 7.263404369354248047e+00 2.141498327255249023e+00 -1.308090835809707642e-01
1.892000000000000000e+03 7.684941864013671875e+01 8.396827697753906250e+00 2.246054410934448242e+00 1.181382656097412109e+01 4.217964172363281250e+00 -7.948877215385437012e-01
1.893000000000000000e+03 7.737095642089843750e+01 -1.592152237892150879e+00 -5.102050304412841797e-01 9.692135810852050781e+00 2.754579067230224609e+00 7.833432555198669434e-01
1.894000000000000000e+03 7.837229919433593750e+01 -2.775520563125610352e+00 -1.888691484928131104e-01 1.155214595794677734e+01 3.408982992172241211e+00 7.841205000877380371e-01
1.895000000000000000e+03 7.729682159423828125e+01 -2.688928604125976562e+00 -2.480092346668243408e-01 9.569342613220214844e+00 2.796400070190429688e+00 1.286655306816101074e+00
1.896000000000000000e+03 7.699125671386718750e+01 -8.061171531677246094e+00 9.941943734884262085e-02 8.661283493041992188e+00 2.628211021423339844e+00 1.343436598777770996e+00
1.897000000000000000e+03 7.716858673095703125e+01 -1.767713928222656250e+01 6.554673309437930584e-04 7.654016971588134766e+00 2.296401739120483398e+00 -9.834795445203781128e-02
1.898000000000000000e+03 7.822047424316406250e+01 -1.922673988342285156e+01 1.006383355706930161e-02 7.736000061035156250e+00 2.323819160461425781e+00 -2.603932656347751617e-02
1.899000000000000000e+03 7.703170013427734375e+01 -1.896174812316894531e+01 -2.794209718704223633e-01 7.576069355010986328e+00 2.188994407653808594e+00 -1.875262334942817688e-02
1.900000000000000000e+03 7.607151031494140625e+01 3.166905403137207031e+01 4.469228163361549377e-02 6.356438159942626953e+00 1.920339107513427734e+00 -3.621622323989868164e-01
1.901000000000000000e+03 7.712048339843750000e+01 4.609485149383544922e+00 6.711555719375610352e-01 1.355000782012939453e+01 4.266349315643310547e+00 -3.320832490921020508e+00
1.902000000000000000e+03 7.641856384277343750e+01 7.306193351745605469e+00 4.124835014343261719e+00 1.917052078247070312e+01 6.988606452941894531e+00 -3.313861846923828125e+00
1.903000000000000000e+03 7.611754608154296875e+01 6.064803123474121094e+00 1.605368852615356445e+00 2.175366973876953125e+01 7.007711410522460938e+00 -2.491662979125976562e+00
1.904000000000000000e+03 7.487419891357421875e+01 -9.852699279785156250e+00 6.862838864326477051e-01 8.170579910278320312e+00 2.657058954238891602e+00 1.076799511909484863e+00
1.905000000000000000e+03 7.672283935546875000e+01 -1.093682289123535156e+01 4.812697172164916992e-01 8.244544029235839844e+00 2.617743968963623047e+00 9.953277111053466797e-01
1.906000000000000000e+03 5.034207534790039062e+01 5.459723472595214844e+00 -1.956968456506729126e-01 -1.881569065153598785e-02 -6.435376405715942383e-02 3.878441825509071350e-02
1.907000000000000000e+03 4.147994613647460938e+01 -2.924410343170166016e+00 -1.003574013710021973e+00 -4.389436542987823486e-01 -4.327552914619445801e-01 2.638173699378967285e-01
1.908000000000000000e+03 4.265198230743408203e+00 3.007425308227539062e+01 7.074774475768208504e-04 -6.997627764940261841e-02 -2.078063972294330597e-02 2.949182502925395966e-02
1.909000000000000000e+03 3.813061237335205078e+00 3.235332107543945312e+01 2.994828391820192337e-03 -8.184685558080673218e-02 -2.365560829639434814e-02 2.427664585411548615e-02
1.910000000000000000e+03 3.222201585769653320e+00 2.308368873596191406e+01 -3.593399655073881149e-03 -2.958497032523155212e-02 -9.953510947525501251e-03 1.435171626508235931e-02
1.911000000000000000e+03 3.324543714523315430e+00 2.442046356201171875e+01 -3.853303380310535431e-03 -3.617407009005546570e-02 -1.200821250677108765e-02 1.823227852582931519e-02
1.912000000000000000e+03 3.505526065826416016e+00 3.692974090576171875e+01 4.422842059284448624e-03 -1.042472645640373230e-01 -2.994732558727264404e-02 1.385541539639234543e-02
1.913000000000000000e+03 3.684632539749145508e+00 2.713469314575195312e+01 -2.808481920510530472e-03 -5.142693966627120972e-02 -1.627062633633613586e-02 2.451284602284431458e-02
1.914000000000000000e+03 3.941346168518066406e+00 2.855945777893066406e+01 -1.234535942785441875e-03 -5.992220342159271240e-02 -1.834702119231224060e-02 2.637969702482223511e-02
1.915000000000000000e+03 4.663287162780761719e+00 -2.808681488037109375e+01 9.137240238487720490e-03 -2.013880163431167603e-01 -5.767523124814033508e-02 -7.661335915327072144e-02
1.916000000000000000e+03 2.836384534835815430e+00 -5.665261745452880859e+00 -2.107156673446297646e-03 8.097825571894645691e-03 1.797200529836118221e-03 8.658413775265216827e-03
1.917000000000000000e+03 2.947085618972778320e+00 -1.076097106933593750e+01 -8.634927682578563690e-03 2.350883791223168373e-03 -1.885213074274361134e-03 -5.980981979519128799e-03
1.918000000000000000e+03 2.823699712753295898e+00 -9.428354263305664062e+00 -4.442544654011726379e-03 5.212546791881322861e-03 2.310006530024111271e-04 1.341663300991058350e-04
1.919000000000000000e+03 3.245476245880126953e+00 -1.354749870300292969e+01 -1.139753218740224838e-02 -1.376132480800151825e-02 -7.547657005488872528e-03 -2.102783508598804474e-02
1.920000000000000000e+03 3.094207048416137695e+00 -1.213556480407714844e+01 -7.173747289925813675e-03 -6.211733911186456680e-03 -4.015644080936908722e-03 -1.261346414685249329e-02
1.921000000000000000e+03 5.081528663635253906e+00 -1.801372146606445312e+01 -1.737735234200954437e-02 -6.917153298854827881e-02 -2.596466615796089172e-02 -6.363476812839508057e-02
1.922000000000000000e+03 3.512907505035400391e+00 -1.646838760375976562e+01 -1.183306518942117691e-02 -4.130312800407409668e-02 -1.594085805118083954e-02 -3.826600313186645508e-02
1.923000000000000000e+03 2.971468925476074219e+00 1.339332389831542969e+01 4.059156344737857580e-04 -8.877983316779136658e-03 -2.541620284318923950e-03 8.036701474338769913e-04
1.924000000000000000e+03 4.435647964477539062e+00 1.604443931579589844e+01 -2.753234235569834709e-03 -1.120548509061336517e-02 -4.187615588307380676e-03 1.865757862105965614e-03
1.925000000000000000e+03 3.286766052246093750e+00 1.758588027954101562e+01 -2.487461548298597336e-03 -1.318969763815402985e-02 -4.703147802501916885e-03 3.136266954243183136e-03
1.926000000000000000e+03 4.462817192077636719e+00 5.937366485595703125e+00 -6.220574956387281418e-03 -1.700055436231195927e-03 -2.376188989728689194e-03 4.982831887900829315e-03
1.927000000000000000e+03 2.860727310180664062e+00 7.937967777252197266e+00 -1.916146575240418315e-04 -4.373210482299327850e-03 -1.369447563774883747e-03 4.911915864795446396e-03
1.928000000000000000e+03 3.774528980255126953e+00 -2.097551918029785156e+01 -5.109273828566074371e-03 -1.012304872274398804e-01 -3.190192952752113342e-02 -6.164696812629699707e-02
1.929000000000000000e+03 3.721192598342895508e+00 -1.948781585693359375e+01 -8.621048182249069214e-03 -7.942077517509460449e-02 -2.641254663467407227e-02 -5.405616760253906250e-02
1.930000000000000000e+03 3.736835718154907227e+00 -2.366230392456054688e+01 -3.749178024008870125e-03 -1.350018978118896484e-01 -4.162532091140747070e-02 -6.578583270311355591e-02
1.931000000000000000e+03 3.777758121490478516e+00 -2.238164329528808594e+01 -4.556386731564998627e-03 -1.194976791739463806e-01 -3.721622005105018616e-02 -6.107174232602119446e-02
1.932000000000000000e+03 5.145256042480468750e+00 -3.550112152099609375e+01 1.882392913103103638e-02 -2.667448520660400391e-01 -7.437627762556076050e-02 -4.669230803847312927e-02
1.933000000000000000e+03 2.995621681213378906e+00 -4.636823177337646484e+00 9.389527840539813042e-04 3.227043198421597481e-03 1.249798806384205818e-03 8.771114051342010498e-03
1.934000000000000000e+03 3.384807348251342773e+00 -1.498994159698486328e+01 -8.852530270814895630e-03 -2.864887379109859467e-02 -1.125042140483856201e-02 -3.019397333264350891e-02
1.935000000000000000e+03 3.840500354766845703e+00 -8.231291770935058594e+00 -6.700189318507909775e-03 2.678226446732878685e-04 -1.929709920659661293e-03 3.075406188145279884e-03
1.936000000000000000e+03 2.694554090499877930e+00 6.001682281494140625e+00 -2.755167428404092789e-03 -1.919733011163771152e-03 -1.402470166794955730e-03 2.967575797811150551e-03
1.937000000000000000e+03 2.733078002929687500e+00 1.057703590393066406e+01 1.974112819880247116e-03 -7.350233383476734161e-03 -1.612836145795881748e-03 3.143250942230224609e-03
1.938000000000000000e+03 2.748254299163818359e+00 -8.136787414550781250e+00 -5.228902678936719894e-03 8.457946591079235077e-03 9.687131969258189201e-04 3.942586947232484818e-03
1.939000000000000000e+03 2.861457109451293945e+00 1.197643661499023438e+01 1.665716175921261311e-03 -8.498578332364559174e-03 -2.049858681857585907e-03 3.664401883725076914e-04
1.940000000000000000e+03 2.685760974884033203e+00 9.254940032958984375e+00 1.014454173855483532e-03 -6.003412418067455292e-03 -1.496687531471252441e-03 2.812005579471588135e-03
1.941000000000000000e+03 3.299782514572143555e+00 1.897817230224609375e+01 -3.776694415137171745e-03 -1.574400812387466431e-02 -5.856210831552743912e-03 6.020043045282363892e-03
1.942000000000000000e+03 3.228049755096435547e+00 2.036254310607910156e+01 -3.795997006818652153e-03 -1.910318993031978607e-02 -6.869756150990724564e-03 8.241649717092514038e-03
1.943000000000000000e+03 3.186813831329345703e+00 2.173151397705078125e+01 -4.355472512543201447e-03 -2.396569214761257172e-02 -8.496349677443504333e-03 1.202542800456285477e-02
1.944000000000000000e+03 3.184972286224365234e+00 1.618755149841308594e+01 -2.062236424535512924e-03 -1.103084906935691833e-02 -3.927925601601600647e-03 1.789882080629467964e-03
1.945000000000000000e+03 6.509786987304687500e+01 6.546035766601562500e+00 8.354539275169372559e-01 -7.059701085090637207e-01 3.884515166282653809e-02 -3.606621026992797852e-01
1.946000000000000000e+03 3.411708068847656250e+01 1.610304117202758789e+00 -1.023326635360717773e+00 4.612163007259368896e-01 -1.686330884695053101e-01 -2.949529886245727539e-01
1.947000000000000000e+03 3.427811431884765625e+01 3.802295207977294922e+00 -5.614136159420013428e-02 -9.453143179416656494e-02 -4.520183801651000977e-02 -2.195341736078262329e-01
1.948000000000000000e+03 1.702125358581542969e+01 -5.661577224731445312e+00 6.817236542701721191e-03 2.132009901106357574e-02 8.441200479865074158e-03 -4.359334241598844528e-03
1.949000000000000000e+03 2.152225494384765625e+01 8.423717498779296875e+00 -1.663331873714923859e-02 2.172435261309146881e-02 1.527309999801218510e-03 1.302752876654267311e-03
1.950000000000000000e+03 1.019458484649658203e+01 7.989445209503173828e+00 1.860228553414344788e-02 2.814242243766784668e-02 1.402341295033693314e-02 1.289692241698503494e-02
1.951000000000000000e+03 5.951742172241210938e+01 -1.072585868835449219e+01 -4.847842454910278320e-02 2.208253860473632812e+00 6.479325890541076660e-01 7.233462333679199219e-01
1.952000000000000000e+03 4.962636947631835938e+01 1.761392021179199219e+01 -1.125338554382324219e+00 -6.510558128356933594e-01 -5.329182744026184082e-01 2.822709381580352783e-01
1.953000000000000000e+03 4.769018936157226562e+01 1.751873207092285156e+01 -1.164434552192687988e+00 -4.804858565330505371e-01 -4.934761226177215576e-01 5.212438702583312988e-01
1.954000000000000000e+03 5.340958404541015625e+01 -6.042733669281005859e+00 5.493973493576049805e-01 -1.518261581659317017e-01 1.192713528871536255e-01 -3.218274712562561035e-01
1.955000000000000000e+03 3.955487060546875000e+01 -1.964740180969238281e+01 -1.236189678311347961e-01 -4.824882149696350098e-01 -1.818321496248245239e-01 -5.081797242164611816e-01
1.956000000000000000e+03 6.633956146240234375e+01 -6.989825367927551270e-01 -1.697538971900939941e+00 1.361670613288879395e+00 -1.007605046033859253e-01 1.977372050285339355e+00
1.957000000000000000e+03 2.606088447570800781e+01 -3.394448041915893555e+00 2.574963495135307312e-02 -2.684682309627532959e-01 -7.281557470560073853e-02 -4.891339838504791260e-01
1.958000000000000000e+03 2.654932022094726562e+01 -8.189206123352050781e-01 -4.699394404888153076e-01 1.702609360218048096e-01 -8.990354835987091064e-02 -2.237922996282577515e-01
1.959000000000000000e+03 4.484480667114257812e+01 -1.015753746032714844e+01 5.203827619552612305e-01 1.016874089837074280e-01 1.866210401058197021e-01 -5.394459366798400879e-01
1.960000000000000000e+03 3.834337234497070312e+01 8.193633079528808594e+00 1.373603660613298416e-02 1.358124427497386932e-02 8.195184171199798584e-03 -7.777054794132709503e-03
1.961000000000000000e+03 3.583246994018554688e+01 1.668721199035644531e+01 -5.807528495788574219e-01 -8.576960861682891846e-02 -1.999567300081253052e-01 1.053519472479820251e-01
1.962000000000000000e+03 1.943118095397949219e+01 1.921319580078125000e+01 -1.651942580938339233e-01 6.587862968444824219e-03 -4.758192226290702820e-02 9.303219616413116455e-02
1.963000000000000000e+03 5.362397384643554688e+01 -4.313354969024658203e+00 2.458143532276153564e-01 -2.226650565862655640e-01 6.944786291569471359e-03 -3.849025368690490723e-01
1.964000000000000000e+03 3.177157783508300781e+01 2.263568878173828125e+00 -3.556416332721710205e-01 -4.210136532783508301e-01 -2.329965829849243164e-01 -4.495297372341156006e-01
1.965000000000000000e+03 4.355946350097656250e+01 -7.224610805511474609e+00 2.878400981426239014e-01 -3.703489899635314941e-01 -2.475266344845294952e-02 -3.518570959568023682e-01
1.966000000000000000e+03 4.230698776245117188e+01 -8.828425407409667969e+00 5.342140793800354004e-01 -3.024491965770721436e-01 6.952947378158569336e-02 -5.495361089706420898e-01
1.967000000000000000e+03 6.005052947998046875e+01 -1.633267211914062500e+01 -4.851771593093872070e-01 2.062408685684204102e+00 4.731694757938385010e-01 3.466158872470259666e-03
1.968000000000000000e+03 5.876010894775390625e+01 -1.532495880126953125e+01 -2.536707222461700439e-01 1.944533944129943848e+00 5.072589516639709473e-01 2.060429751873016357e-01
1.969000000000000000e+03 7.110066223144531250e+01 -4.053302288055419922e+00 -1.330264806747436523e+00 3.076925277709960938e+00 5.239982008934020996e-01 -9.729751944541931152e-01
1.970000000000000000e+03 7.039070129394531250e+01 -2.941031217575073242e+00 -2.202049493789672852e+00 2.992130517959594727e+00 2.370243221521377563e-01 -1.386387467384338379e+00
1.971000000000000000e+03 5.931451416015625000e+01 5.210084319114685059e-01 -3.047706127166748047e+00 4.159153103828430176e-01 -7.895372509956359863e-01 -2.467924356460571289e-01
1.972000000000000000e+03 5.853204345703125000e+01 -1.414524078369140625e+01 -2.118439227342605591e-01 2.051008462905883789e+00 5.517493486404418945e-01 4.443849623203277588e-01
1.973000000000000000e+03 5.829973983764648438e+01 -1.290853595733642578e+01 -3.200525045394897461e-01 1.943812012672424316e+00 4.871278405189514160e-01 5.393859744071960449e-01
1.974000000000000000e+03 7.613005065917968750e+01 8.880917549133300781e+00 9.289810061454772949e-01 1.309090900421142578e+01 4.205966949462890625e+00 -1.006749391555786133e+00
1.975000000000000000e+03 5.224473571777343750e+01 7.628539562225341797e+00 -2.557597868144512177e-02 -3.907532244920730591e-02 -1.939539052546024323e-02 -3.444410115480422974e-02
1.976000000000000000e+03 5.289770507812500000e+01 5.620482444763183594e+00 -4.140802845358848572e-02 -6.930167227983474731e-02 -3.321291133761405945e-02 -3.756335005164146423e-02
1.977000000000000000e+03 6.329478836059570312e+01 3.872972488403320312e+00 1.418870240449905396e-01 -7.784364819526672363e-01 -1.909648329019546509e-01 5.818665027618408203e-01
1.978000000000000000e+03 6.599338531494140625e+01 4.304474830627441406e+00 2.599564313888549805e+00 2.291465044021606445e+00 1.467308759689331055e+00 2.447063207626342773e+00
1.979000000000000000e+03 2.867478370666503906e+01 -9.159300804138183594e+00 -2.376436442136764526e-01 -6.158317252993583679e-02 -8.976804465055465698e-02 -1.959383338689804077e-01
1.980000000000000000e+03 5.789481735229492188e+01 -8.549951553344726562e+00 4.602632820606231689e-01 1.212814331054687500e+00 5.019232630729675293e-01 5.123241543769836426e-01
1.981000000000000000e+03 4.457892990112304688e+01 -7.404214143753051758e-01 -1.224450230598449707e+00 -1.539767533540725708e-01 -4.135280847549438477e-01 -7.829988747835159302e-02
1.982000000000000000e+03 4.333390808105468750e+01 -3.821660578250885010e-02 -1.397430896759033203e+00 -1.088603436946868896e-01 -4.518873989582061768e-01 -2.823536098003387451e-01
1.983000000000000000e+03 3.296533966064453125e+01 1.281756281852722168e+00 -1.302705168724060059e+00 -6.505454331636428833e-02 -4.103279113769531250e-01 -8.194019794464111328e-01
1.984000000000000000e+03 4.586537933349609375e+01 -1.575954437255859375e+01 -3.264929056167602539e-01 3.553491532802581787e-01 8.656877093017101288e-03 -2.018588781356811523e-01
1.985000000000000000e+03 7.591081237792968750e+01 -7.911512851715087891e+00 2.031462341547012329e-01 8.101222038269042969e+00 2.491310358047485352e+00 1.301820635795593262e+00
1.986000000000000000e+03 2.859423065185546875e+01 -7.619767665863037109e+00 -1.010426804423332214e-01 -2.413120418787002563e-01 -1.027064174413681030e-01 -4.438178539276123047e-01
1.987000000000000000e+03 2.760073852539062500e+01 -2.456142187118530273e+00 -3.519405126571655273e-01 -2.430687248706817627e-01 -1.785027682781219482e-01 -7.296286225318908691e-01
1.988000000000000000e+03 3.979782867431640625e+01 7.941406250000000000e+00 -5.441544111818075180e-03 1.365472096949815750e-02 2.463953103870153427e-03 3.406174480915069580e-03
1.989000000000000000e+03 4.519443511962890625e+01 1.674754524230957031e+01 -1.139177680015563965e+00 1.673442311584949493e-02 -3.367329835891723633e-01 4.051994383335113525e-01
1.990000000000000000e+03 4.248395156860351562e+01 1.523656845092773438e+01 -8.050373792648315430e-01 1.430013030767440796e-01 -1.986108124256134033e-01 4.279858246445655823e-02
1.991000000000000000e+03 6.686151885986328125e+01 6.173389434814453125e+00 3.244560956954956055e+00 3.846453428268432617e+00 2.127304315567016602e+00 1.062436580657958984e+00
1.992000000000000000e+03 5.585050201416015625e+01 -7.227912902832031250e+00 6.213948726654052734e-01 1.751881390810012817e-01 2.389748990535736084e-01 -6.262009497731924057e-03
1.993000000000000000e+03 4.149553298950195312e+01 -6.066895484924316406e+00 3.277254402637481689e-01 -3.763739168643951416e-01 -1.459454651921987534e-02 -3.387999534606933594e-01
1.994000000000000000e+03 6.519629669189453125e+01 -1.623927879333496094e+01 -1.078958511352539062e+00 1.653829336166381836e+00 1.724612712860107422e-01 -3.354811370372772217e-01
1.995000000000000000e+03 6.707476806640625000e+01 -1.876606559753417969e+01 -1.588920056819915771e-01 1.450748920440673828e+00 3.875570595264434814e-01 7.269985973834991455e-02
1.996000000000000000e+03 4.445035934448242188e+01 -1.639731979370117188e+01 -4.568980932235717773e-01 1.518592387437820435e-01 -9.151165187358856201e-02 -5.474200472235679626e-02
1.997000000000000000e+03 3.184983062744140625e+01 1.646389198303222656e+01 -4.613651335239410400e-01 -2.557831443846225739e-02 -1.460830271244049072e-01 1.920349299907684326e-01
1.998000000000000000e+03 5.307244491577148438e+01 -5.214262604713439941e-01 -1.775282621383666992e+00 2.559542059898376465e-01 -4.557985365390777588e-01 -3.673154711723327637e-01
1.999000000000000000e+03 4.985714340209960938e+01 -2.362305641174316406e+00 -8.470157384872436523e-01 5.654392242431640625e-01 -8.447295427322387695e-02 -3.961660563945770264e-01
2.000000000000000000e+03 5.876433563232421875e+01 -1.181213259696960449e+00 -1.111592054367065430e+00 1.847301125526428223e-01 -2.780585885047912598e-01 7.384765893220901489e-02
2.001000000000000000e+03 1.446636199951171875e+01 1.688196563720703125e+01 -4.670188575983047485e-02 1.097435783594846725e-02 -1.071825809776782990e-02 2.129545435309410095e-02
2.002000000000000000e+03 1.414258670806884766e+01 1.556299686431884766e+01 -2.950155735015869141e-02 9.452824480831623077e-03 -6.014619953930377960e-03 1.323092170059680939e-02
2.003000000000000000e+03 2.643500137329101562e+01 1.399958324432373047e+01 -3.179581090807914734e-02 -3.328002989292144775e-02 -1.952275075018405914e-02 5.197089537978172302e-02
2.004000000000000000e+03 2.829824256896972656e+01 1.250926399230957031e+01 -5.984907597303390503e-02 -3.175386786460876465e-02 -2.748088352382183075e-02 -1.817304641008377075e-02
2.005000000000000000e+03 6.771752929687500000e+01 -1.698618507385253906e+01 -5.488829612731933594e-01 8.558883070945739746e-01 9.210159629583358765e-02 -1.577374488115310669e-01
2.006000000000000000e+03 3.593889617919921875e+01 -2.015370941162109375e+01 -3.101159632205963135e-01 8.889427036046981812e-02 -6.636650860309600830e-02 -3.269944787025451660e-01
2.007000000000000000e+03 3.784451675415039062e+01 -1.987911224365234375e+01 -5.099483132362365723e-01 -1.819770187139511108e-01 -2.075775861740112305e-01 -6.197558045387268066e-01
2.008000000000000000e+03 7.037732696533203125e+01 -6.949934363365173340e-01 -3.197814941406250000e+00 4.177629470825195312e+00 2.939443290233612061e-01 -2.206282854080200195e+00
2.009000000000000000e+03 3.511091995239257812e+01 6.635928630828857422e+00 9.304375946521759033e-02 -5.701295286417007446e-02 1.080924272537231445e-02 -5.234353244304656982e-02
2.010000000000000000e+03 3.418832397460937500e+01 5.003767967224121094e+00 5.897443369030952454e-02 -1.157053932547569275e-01 -1.701928861439228058e-02 -1.495848596096038818e-01
2.011000000000000000e+03 1.614205932617187500e+01 -5.025807857513427734e+00 1.715256134048104286e-03 -1.470428425818681717e-02 -3.896708367392420769e-03 -1.263994444161653519e-02
2.012000000000000000e+03 9.669862747192382812e+00 1.093383312225341797e+01 8.937087841331958771e-03 2.270596567541360855e-03 3.362305462360382080e-03 4.202532581984996796e-03
2.013000000000000000e+03 4.914214324951171875e+01 2.866184234619140625e+00 -6.673514842987060547e-01 1.427625715732574463e-01 -1.573766767978668213e-01 -1.235503777861595154e-01
2.014000000000000000e+03 5.273597717285156250e+01 3.081926345825195312e+00 -5.722829699516296387e-01 -1.696465313434600830e-01 -2.225788384675979614e-01 4.574385285377502441e-01
2.015000000000000000e+03 3.408631515502929688e+01 -2.001740837097167969e+01 -3.183721005916595459e-01 1.364513039588928223e-01 -5.457624047994613647e-02 -2.383536845445632935e-01
2.016000000000000000e+03 7.479591369628906250e+01 -1.701640892028808594e+01 -4.881445318460464478e-02 7.510375022888183594e+00 2.238468170166015625e+00 1.954883188009262085e-01
2.017000000000000000e+03 6.076763534545898438e+01 -5.936693668365478516e+00 1.160461187362670898e+00 2.742676973342895508e+00 1.170941472053527832e+00 9.187347888946533203e-01
2.018000000000000000e+03 5.964853668212890625e+01 -6.050983905792236328e+00 1.071715712547302246e+00 1.974437952041625977e+00 9.138460755348205566e-01 7.528952360153198242e-01
2.019000000000000000e+03 3.999697113037109375e+01 -3.634551525115966797e+00 -1.694871038198471069e-01 -3.024642169475555420e-01 -1.415853947401046753e-01 -1.257750391960144043e-01
2.020000000000000000e+03 4.235489273071289062e+01 -5.044089317321777344e+00 -9.033355116844177246e-02 -4.722518622875213623e-01 -1.687756180763244629e-01 -1.155009195208549500e-01
2.021000000000000000e+03 6.293978118896484375e+01 1.522827434539794922e+01 -1.660558700561523438e+00 -6.810725927352905273e-01 -7.024894356727600098e-01 2.559456601738929749e-02
2.022000000000000000e+03 1.965691184997558594e+01 -1.018528652191162109e+01 -3.915075659751892090e-01 2.280345372855663300e-02 -1.106112301349639893e-01 -1.474105864763259888e-01
2.023000000000000000e+03 6.894876861572265625e+01 1.199248981475830078e+01 9.496989846229553223e-01 4.569119453430175781e+00 1.655645489692687988e+00 -2.698914766311645508e+00
2.024000000000000000e+03 6.829606628417968750e+01 1.187000179290771484e+01 9.631919860839843750e-01 2.225475549697875977e+00 9.566003084182739258e-01 -1.518838763236999512e+00
2.025000000000000000e+03 6.731575775146484375e+01 1.316085529327392578e+01 -4.487397968769073486e-01 2.075407266616821289e+00 4.880002140998840332e-01 -1.066617608070373535e+00
2.026000000000000000e+03 7.146289062500000000e+01 1.164559268951416016e+01 2.063727378845214844e+00 1.121706581115722656e+01 3.984238147735595703e+00 3.455869197845458984e+00
2.027000000000000000e+03 7.046955108642578125e+01 1.224047088623046875e+01 -6.537369489669799805e-01 1.114754867553710938e+01 3.148143529891967773e+00 -8.138833642005920410e-01
2.028000000000000000e+03 7.220259094238281250e+01 1.069037628173828125e+01 7.014164924621582031e+00 4.128912925720214844e+00 3.342923402786254883e+00 2.570055961608886719e+00
2.029000000000000000e+03 7.267761230468750000e+01 1.046745491027832031e+01 6.360548496246337891e+00 2.041365146636962891e+00 2.520574092864990234e+00 -4.961468577384948730e-01
2.030000000000000000e+03 7.319959259033203125e+01 1.070142269134521484e+01 4.608913421630859375e+00 4.002495765686035156e+00 2.583422660827636719e+00 -1.203947901725769043e+00
2.031000000000000000e+03 6.758789825439453125e+01 6.380420684814453125e+00 3.715307712554931641e+00 6.875239372253417969e+00 3.177164077758789062e+00 1.752939581871032715e+00
2.032000000000000000e+03 6.646069335937500000e+01 1.411144638061523438e+01 -1.181969404220581055e+00 1.522160530090332031e+00 1.020573079586029053e-01 -1.029137015342712402e+00
2.033000000000000000e+03 6.722307586669921875e+01 1.239229869842529297e+01 -1.592716425657272339e-01 1.260541081428527832e+00 3.303808569908142090e-01 -4.757381081581115723e-01
2.034000000000000000e+03 7.033303833007812500e+01 8.023646354675292969e+00 -2.000144004821777344e+00 1.912965583801269531e+01 5.138853549957275391e+00 7.206418037414550781e+00
2.035000000000000000e+03 8.561293601989746094e+00 -3.659538269042968750e+00 4.395561292767524719e-03 -4.190503677818924189e-04 1.192953204736113548e-03 8.093811571598052979e-03
2.036000000000000000e+03 6.534249877929687500e+01 1.372193908691406250e+01 -1.896746516227722168e+00 5.623877048492431641e-02 -5.521523356437683105e-01 -1.800789386034011841e-01
2.037000000000000000e+03 5.829894256591796875e+01 1.358813571929931641e+01 -1.709533810615539551e+00 4.116418361663818359e-01 -3.893675804138183594e-01 8.235912024974822998e-02
2.038000000000000000e+03 5.753631591796875000e+01 1.468031501770019531e+01 -1.541722893714904785e+00 4.204156696796417236e-01 -3.363921642303466797e-01 2.110504209995269775e-01
2.039000000000000000e+03 5.709694671630859375e+01 1.531097316741943359e+01 -1.428029060363769531e+00 4.284434616565704346e-01 -2.998756766319274902e-01 2.956410646438598633e-01
2.040000000000000000e+03 2.378963088989257812e+01 1.669676303863525391e-01 -5.169201642274856567e-02 1.319176256656646729e-01 2.406768314540386200e-02 9.222152829170227051e-02
2.041000000000000000e+03 2.550213241577148438e+01 -6.119920611381530762e-01 -2.781010866165161133e-01 1.943297982215881348e-01 -2.513138577342033386e-02 -2.531805308535695076e-03
2.042000000000000000e+03 3.475847005844116211e+00 -2.616157770156860352e+00 7.021809928119182587e-03 -1.035840599797666073e-03 1.795790856704115868e-03 7.459233049303293228e-03
2.043000000000000000e+03 3.806608438491821289e+00 -3.961115837097167969e+00 5.344558972865343094e-03 5.310293636284768581e-04 1.762676401995122433e-03 9.228632785379886627e-03
2.044000000000000000e+03 6.674707031250000000e+01 6.817385196685791016e+00 2.137287855148315430e+00 3.145370006561279297e+00 1.584797382354736328e+00 5.187365785241127014e-02
2.045000000000000000e+03 5.443327331542968750e+01 1.609259986877441406e+01 -1.476104497909545898e+00 3.674847185611724854e-01 -3.325859606266021729e-01 3.686110973358154297e-01
2.046000000000000000e+03 5.516938781738281250e+01 1.451942253112792969e+01 -1.335816383361816406e+00 2.856202125549316406e-01 -3.150588572025299072e-01 3.336543738842010498e-01
2.047000000000000000e+03 1.126194667816162109e+01 -4.234427452087402344e+00 1.351609826087951660e-03 -3.166378708556294441e-03 -5.444306298159062862e-04 4.519510082900524139e-03
2.048000000000000000e+03 3.925531148910522461e+00 -4.805245399475097656e+00 -2.456287154927849770e-03 3.751871176064014435e-03 3.886751946993172169e-04 9.747833944857120514e-03
2.049000000000000000e+03 9.909667015075683594e+00 -3.924503803253173828e+00 2.439223229885101318e-03 -2.070295391604304314e-03 1.106783383875153959e-04 4.939605481922626495e-03
2.050000000000000000e+03 3.859266281127929688e+01 1.554284381866455078e+01 -6.105569601058959961e-01 8.037380874156951904e-02 -1.590549349784851074e-01 1.004342958331108093e-01
2.051000000000000000e+03 3.925553894042968750e+01 1.459888458251953125e+01 -5.667412877082824707e-01 9.378057718276977539e-02 -1.418882161378860474e-01 8.945680409669876099e-02
2.052000000000000000e+03 6.774002838134765625e+01 7.645986557006835938e+00 1.984035611152648926e+00 4.955098152160644531e+00 2.081740140914916992e+00 9.683822989463806152e-01
2.053000000000000000e+03 3.778912353515625000e+01 1.472145080566406250e+01 -6.041929125785827637e-01 5.249400809407234192e-02 -1.655096858739852905e-01 1.046552360057830811e-01
2.054000000000000000e+03 3.780393600463867188e+01 1.565384387969970703e+01 -6.118745803833007812e-01 6.725797057151794434e-02 -1.633849889039993286e-01 7.710171490907669067e-02
2.055000000000000000e+03 1.099851989746093750e+01 -5.002083778381347656e+00 -6.793954875320196152e-03 -1.740302704274654388e-02 -7.259094621986150742e-03 -4.982998594641685486e-03
2.056000000000000000e+03 1.196665191650390625e+01 -4.419067859649658203e+00 8.505864534527063370e-04 -1.981556415557861328e-02 -5.689493380486965179e-03 -6.018421147018671036e-03
2.057000000000000000e+03 1.057954025268554688e+01 -4.075682163238525391e+00 1.386602525599300861e-03 -1.487110927700996399e-02 -4.045351874083280563e-03 -1.934376079589128494e-03
2.058000000000000000e+03 7.853321075439453125e+00 -3.412971019744873047e+00 6.185670848935842514e-03 -8.787928149104118347e-03 -7.806770736351609230e-04 3.460502717643976212e-03
2.059000000000000000e+03 5.521887207031250000e+01 1.529815864562988281e+01 -1.411738038063049316e+00 3.518354296684265137e-01 -3.179707825183868408e-01 3.881703615188598633e-01
2.060000000000000000e+03 2.239012145996093750e+01 6.988688945770263672e+00 -2.634907513856887817e-02 3.599113551899790764e-03 -6.824988406151533127e-03 -1.674706116318702698e-02
2.061000000000000000e+03 4.128999710083007812e+01 1.587228488922119141e+01 -7.687313556671142578e-01 1.580632925033569336e-01 -1.832004189491271973e-01 1.145851835608482361e-01
2.062000000000000000e+03 4.055081176757812500e+01 1.560291004180908203e+01 -6.655223369598388672e-01 1.525643765926361084e-01 -1.538873910903930664e-01 6.695578247308731079e-02
2.063000000000000000e+03 8.155010223388671875e+00 9.132668495178222656e+00 8.363921195268630981e-03 -4.058364313095808029e-03 1.291666994802653790e-03 2.187293954193592072e-03
2.064000000000000000e+03 3.927967834472656250e+01 1.537628269195556641e+01 -6.359776854515075684e-01 1.305958032608032227e-01 -1.516145616769790649e-01 8.949717134237289429e-02
2.065000000000000000e+03 1.232725906372070312e+01 -5.454954624176025391e+00 -1.278635859489440918e-02 -2.209192514419555664e-02 -1.046348456293344498e-02 -7.336866110563278198e-03
2.066000000000000000e+03 3.775005578994750977e+00 5.107886314392089844e+00 -4.897709470242261887e-03 1.411028933944180608e-04 -1.426981878466904163e-03 2.584846224635839462e-03
2.067000000000000000e+03 6.900473594665527344e+00 -3.445059061050415039e+00 2.563220215961337090e-03 -1.701150671578943729e-03 2.586208865977823734e-04 3.966883290559053421e-03
2.068000000000000000e+03 5.308559417724609375e+01 7.806259632110595703e+00 -4.019680432975292206e-03 -3.897631540894508362e-03 -2.375193638727068901e-03 -1.013088319450616837e-02
2.069000000000000000e+03 5.112320899963378906e+00 7.664099216461181641e+00 3.083787159994244576e-04 -4.351367708295583725e-03 -1.212896779179573059e-03 8.029523305594921112e-03
2.070000000000000000e+03 6.793396759033203125e+01 5.691954135894775391e+00 3.873997688293457031e+00 8.721279144287109375e+00 3.778583049774169922e+00 2.081495046615600586e+00
2.071000000000000000e+03 6.903738403320312500e+01 6.195774555206298828e+00 4.257697105407714844e+00 1.656173324584960938e+01 6.245828628540039062e+00 4.856535911560058594e+00
2.072000000000000000e+03 1.412468433380126953e+01 -5.305296421051025391e+00 -3.077152883633971214e-03 6.278711953200399876e-04 -7.347844657488167286e-04 5.551145877689123154e-03
2.073000000000000000e+03 1.375554084777832031e+01 -4.015632629394531250e+00 7.865260355174541473e-03 2.059266669675707817e-03 2.977358177304267883e-03 -3.018837887793779373e-03
2.074000000000000000e+03 6.042885971069335938e+01 1.478133010864257812e+01 -1.976052641868591309e+00 1.636987626552581787e-01 -5.437061190605163574e-01 2.428682148456573486e-01
2.075000000000000000e+03 6.379207992553710938e+01 1.698523902893066406e+01 -7.863464355468750000e-01 3.983054757118225098e-01 -1.164122745394706726e-01 -6.186618804931640625e-01
2.076000000000000000e+03 6.473932647705078125e+01 1.364481163024902344e+01 -2.897748470306396484e+00 -8.564062118530273438e-01 -1.126246452331542969e+00 6.549399495124816895e-01
2.077000000000000000e+03 6.555392456054687500e+01 1.288627815246582031e+01 -1.692749142646789551e+00 -2.505299448966979980e-01 -5.829837322235107422e-01 4.718700647354125977e-01
2.078000000000000000e+03 7.437139892578125000e+01 1.042910480499267578e+01 1.810788154602050781e+00 6.779297828674316406e+00 2.577025890350341797e+00 -3.618153572082519531e+00
2.079000000000000000e+03 7.196719360351562500e+01 1.204955577850341797e+01 2.067228317260742188e+00 8.890140533447265625e+00 3.287210464477539062e+00 2.387304306030273438e+00
2.080000000000000000e+03 7.021822452545166016e+00 -3.984596490859985352e+00 5.538728553801774979e-03 -8.097739890217781067e-03 -7.677034591324627399e-04 8.058430626988410950e-03
2.081000000000000000e+03 1.486849594116210938e+01 -5.713546752929687500e+00 -1.989682950079441071e-02 -2.142195962369441986e-02 -1.239563710987567902e-02 -5.950351711362600327e-03
2.082000000000000000e+03 5.234528064727783203e+00 -4.755867004394531250e+00 2.020627027377486229e-03 -3.057976253330707550e-03 -3.112047852482646704e-04 9.025610983371734619e-03
2.083000000000000000e+03 6.670954227447509766e+00 -4.938901424407958984e+00 -6.035328377038240433e-03 -4.392145201563835144e-03 -3.128242213279008865e-03 4.988859873265028000e-03
2.084000000000000000e+03 2.442368316650390625e+01 9.075549125671386719e+00 -3.488913550972938538e-02 -2.635837590787559748e-04 -1.054581534117460251e-02 -1.677069067955017090e-02
2.085000000000000000e+03 4.270549774169921875e+01 -3.059732437133789062e+00 -7.984449863433837891e-01 -2.784559726715087891e-01 -3.230702877044677734e-01 1.614572107791900635e-01
2.086000000000000000e+03 5.908777999877929688e+01 -2.226180076599121094e+00 -2.330723255872726440e-01 7.254562377929687500e-01 1.477151811122894287e-01 2.426282614469528198e-01
2.087000000000000000e+03 7.529412841796875000e+01 1.086733627319335938e+01 6.084011197090148926e-01 9.381488800048828125e+00 2.996967077255249023e+00 -1.688538074493408203e+00
2.088000000000000000e+03 2.300229263305664062e+01 7.561603069305419922e+00 -3.390708565711975098e-02 4.365542903542518616e-03 -8.862461894750595093e-03 -1.367343775928020477e-02
2.089000000000000000e+03 6.263863754272460938e+01 9.110967516899108887e-01 -1.787057161331176758e+00 1.860183477401733398e+00 2.193787880241870880e-02 1.916729331016540527e+00
2.090000000000000000e+03 6.606033325195312500e+01 3.260059833526611328e+00 1.749569058418273926e+00 2.989211082458496094e+00 1.421634078025817871e+00 2.856481790542602539e+00
2.091000000000000000e+03 6.590536499023437500e+01 -1.697126388549804688e+01 -5.935592055320739746e-01 1.357626914978027344e+00 2.292203158140182495e-01 -3.947054743766784668e-01
2.092000000000000000e+03 6.593166351318359375e+01 -1.942808151245117188e+01 1.308208238333463669e-02 1.716621518135070801e+00 5.189110636711120605e-01 -6.303252279758453369e-02
2.093000000000000000e+03 6.280849075317382812e+01 1.643225479125976562e+01 -1.010608077049255371e+00 -1.060971692204475403e-01 -3.350115716457366943e-01 -3.142779469490051270e-01
2.094000000000000000e+03 3.287281990051269531e+00 4.934386730194091797e+00 -3.556858748197555542e-03 -6.709230947308242321e-04 -1.268334570340812206e-03 2.005013870075345039e-03
2.095000000000000000e+03 3.068116760253906250e+01 -1.115325260162353516e+01 -1.025501787662506104e-01 3.863398134708404541e-01 8.513689041137695312e-02 3.626023605465888977e-02
2.096000000000000000e+03 7.653707885742187500e+01 -2.041948795318603516e+00 -7.515140175819396973e-01 8.491901397705078125e+00 2.322116136550903320e+00 9.439842104911804199e-01
2.097000000000000000e+03 3.694371795654296875e+01 8.057593107223510742e-01 -1.375735044479370117e+00 4.085018634796142578e-01 -2.901699542999267578e-01 6.207162141799926758e-01
2.098000000000000000e+03 3.556016159057617188e+01 1.300780177116394043e+00 -1.101570367813110352e+00 6.356435418128967285e-01 -1.397780478000640869e-01 8.174253255128860474e-02
2.099000000000000000e+03 7.584918212890625000e+01 1.443814086914062500e+01 -9.594780951738357544e-02 7.743638992309570312e+00 2.294307231903076172e+00 5.456544756889343262e-01
2.100000000000000000e+03 7.534703826904296875e+01 9.404586791992187500e+00 8.304415345191955566e-01 1.302761268615722656e+01 4.157416343688964844e+00 -3.880722522735595703e+00
2.101000000000000000e+03 7.478788757324218750e+01 -4.541123390197753906e+00 -2.085837870836257935e-01 6.125983238220214844e+00 1.775219798088073730e+00 1.034972429275512695e+00
2.102000000000000000e+03 7.272920227050781250e+01 -6.272524356842041016e+00 -2.639291584491729736e-01 5.313376903533935547e+00 1.514834284782409668e+00 -2.385337650775909424e-02
2.103000000000000000e+03 4.409899139404296875e+01 -2.021044492721557617e+00 -1.057920694351196289e+00 -2.220382392406463623e-01 -3.839876949787139893e-01 4.025866463780403137e-02
2.104000000000000000e+03 3.737450790405273438e+01 7.804308414459228516e+00 1.798425056040287018e-02 -1.143259927630424500e-02 1.965495292097330093e-03 -2.684292197227478027e-02
2.105000000000000000e+03 1.794412422180175781e+01 -6.467997074127197266e+00 -1.323846355080604553e-02 -3.545962506905198097e-03 -5.035327747464179993e-03 -1.246163621544837952e-02
2.106000000000000000e+03 6.098946762084960938e+01 -1.315633678436279297e+01 -6.440067887306213379e-01 2.559610366821289062e+00 5.746810436248779297e-01 3.970773816108703613e-01
2.107000000000000000e+03 7.143710327148437500e+01 -2.538283109664916992e+00 -1.863008856773376465e+00 2.989657640457153320e+00 3.379946947097778320e-01 -1.849567890167236328e+00
2.108000000000000000e+03 7.017872619628906250e+01 -1.759717226028442383e+00 -3.274018287658691406e+00 3.269593954086303711e+00 -1.327304285950958729e-03 -2.486874341964721680e+00
2.109000000000000000e+03 5.652030944824218750e+00 8.874018669128417969e+00 5.214787088334560394e-03 -6.600993685424327850e-03 -4.158618976362049580e-04 6.856517866253852844e-03
2.110000000000000000e+03 7.454273986816406250e+01 -1.963612365722656250e+01 -5.095481872558593750e-01 6.926030635833740234e+00 1.924944639205932617e+00 7.312349677085876465e-01
2.111000000000000000e+03 4.468328952789306641e+00 2.291435432434082031e+01 -7.032494060695171356e-03 -3.055277653038501740e-02 -1.127558108419179916e-02 2.011241018772125244e-02
2.112000000000000000e+03 2.037806320190429688e+01 -1.125477981567382812e+01 -3.672988116741180420e-01 -7.585252821445465088e-02 -1.329454034566879272e-01 -2.029131799936294556e-01
2.113000000000000000e+03 3.354573822021484375e+01 -1.597221565246582031e+01 -2.554599046707153320e-01 3.293236494064331055e-01 2.215912938117980957e-02 -5.696754530072212219e-02
2.114000000000000000e+03 7.670883941650390625e+01 9.875450134277343750e+00 6.966494023799896240e-02 1.037400245666503906e+01 3.133100271224975586e+00 -3.306630253791809082e-01
2.115000000000000000e+03 5.947664260864257812e+01 -1.272875308990478516e+01 -3.034479618072509766e-01 2.281948804855346680e+00 5.935502648353576660e-01 6.309698224067687988e-01
2.116000000000000000e+03 3.886338424682617188e+01 -6.089941501617431641e+00 5.729137063026428223e-01 4.119044840335845947e-01 2.954454720020294189e-01 -6.213072538375854492e-01
2.117000000000000000e+03 4.954103469848632812e+01 -1.147764325141906738e+00 -1.168158531188964844e+00 4.418908655643463135e-01 -2.178802788257598877e-01 -4.519381225109100342e-01
2.118000000000000000e+03 5.423887634277343750e+01 -1.804869413375854492e+00 -9.281479716300964355e-01 -4.609237313270568848e-01 -4.167215228080749512e-01 -7.134993076324462891e-01
2.119000000000000000e+03 5.543395614624023438e+01 -1.985061287879943848e+00 -7.348873019218444824e-01 -5.802378058433532715e-01 -3.945375382900238037e-01 -5.554824471473693848e-01
2.120000000000000000e+03 5.149088287353515625e+01 7.853124141693115234e+00 1.741531305015087128e-02 -4.830753803253173828e-02 -9.267668239772319794e-03 -7.632569875568151474e-03
2.121000000000000000e+03 5.334012603759765625e+01 7.024051666259765625e+00 -8.710097521543502808e-03 -2.945789694786071777e-02 -1.145039871335029602e-02 -4.010446742177009583e-02
2.122000000000000000e+03 3.010755729675292969e+01 1.751976013183593750e+01 -3.549502193927764893e-01 5.587386898696422577e-03 -1.048088520765304565e-01 1.779438257217407227e-01
2.123000000000000000e+03 4.842103195190429688e+01 3.854408740997314453e+00 -4.639373421669006348e-01 7.621666789054870605e-02 -1.163162067532539368e-01 -5.967229604721069336e-02
2.124000000000000000e+03 4.769529819488525391e+00 -2.988218498229980469e+01 1.159570831805467606e-02 -2.250236272811889648e-01 -6.402837485074996948e-02 -7.103188335895538330e-02
2.125000000000000000e+03 5.418591022491455078e+00 -3.290705108642578125e+01 1.910085044801235199e-02 -2.443303316831588745e-01 -6.756884604692459106e-02 -6.507037580013275146e-02
2.126000000000000000e+03 2.772208023071289062e+01 -9.338737726211547852e-01 -8.474721312522888184e-01 3.841168433427810669e-02 -2.427181303501129150e-01 -4.454608857631683350e-01
2.127000000000000000e+03 2.648621177673339844e+01 4.120924174785614014e-01 -3.964904844760894775e-01 3.788601458072662354e-01 -5.289100110530853271e-03 8.578442037105560303e-02
2.128000000000000000e+03 4.339937591552734375e+01 1.572863292694091797e+01 -9.221465587615966797e-01 1.784613877534866333e-01 -2.231055498123168945e-01 4.350920766592025757e-02
2.129000000000000000e+03 3.822286128997802734e+00 -7.052417755126953125e+00 -6.333860568702220917e-03 3.720277687534689903e-03 -7.840748294256627560e-04 6.818250752985477448e-03
2.130000000000000000e+03 6.521273040771484375e+01 5.369626045227050781e+00 1.955178618431091309e+00 9.941760450601577759e-02 6.163788437843322754e-01 8.414008021354675293e-01
2.131000000000000000e+03 6.602026367187500000e+01 5.235868453979492188e+00 2.835620403289794922e+00 2.070394754409790039e+00 1.471804499626159668e+00 1.396652221679687500e+00
2.132000000000000000e+03 5.062411880493164062e+01 1.876412391662597656e+01 -1.026907205581665039e+00 -2.446891665458679199e-01 -3.814789056777954102e-01 1.795361042022705078e-01
2.133000000000000000e+03 7.489344787597656250e+01 1.605452156066894531e+01 -4.299578666687011719e-01 7.633301734924316406e+00 2.161003112792968750e+00 3.972778022289276123e-01
2.134000000000000000e+03 7.543801879882812500e+01 -1.110092735290527344e+01 6.477143764495849609e-01 8.367577552795410156e+00 2.704587697982788086e+00 8.462219238281250000e-01
2.135000000000000000e+03 7.499584960937500000e+01 -8.120087623596191406e+00 3.027567565441131592e-01 7.819164752960205078e+00 2.436576366424560547e+00 1.262176156044006348e+00
2.136000000000000000e+03 4.816347122192382812e+00 3.148695755004882812e+01 3.741676220670342445e-03 -7.872820645570755005e-02 -2.249595895409584045e-02 2.979491837322711945e-02
2.137000000000000000e+03 2.247792053222656250e+01 8.672686576843261719e+00 -2.329644188284873962e-02 1.418050285428762436e-02 -2.734781708568334579e-03 -6.566755939275026321e-03
2.138000000000000000e+03 6.801163482666015625e+01 1.299496531486511230e+00 -9.960145354270935059e-01 6.206512928009033203e+00 1.563149571418762207e+00 1.558888792991638184e+00
2.139000000000000000e+03 6.725004577636718750e+01 3.234171390533447266e+00 2.148565530776977539e+00 5.584204673767089844e+00 2.319831132888793945e+00 3.055244922637939453e+00
2.140000000000000000e+03 6.640588378906250000e+01 9.609385132789611816e-01 -6.137613654136657715e-01 3.177651882171630859e+00 7.691671252250671387e-01 2.587583541870117188e+00
2.141000000000000000e+03 4.661865997314453125e+01 1.865312385559082031e+01 -1.026248097419738770e+00 -2.371890395879745483e-01 -3.790311515331268311e-01 5.316161513328552246e-01
2.142000000000000000e+03 4.592845916748046875e+01 1.748814582824707031e+01 -1.107393383979797363e+00 -1.359271854162216187e-01 -3.729961812496185303e-01 4.454338550567626953e-01
2.143000000000000000e+03 4.651339721679687500e+01 2.220791578292846680e+00 -6.633127927780151367e-01 5.265735089778900146e-02 -1.831966191530227661e-01 -2.702008783817291260e-01
2.144000000000000000e+03 1.742472648620605469e+01 2.033343505859375000e+01 -1.175293624401092529e-01 -9.842436993494629860e-04 -3.555408120155334473e-02 8.741988986730575562e-02
2.145000000000000000e+03 1.692450332641601562e+01 1.813528060913085938e+01 -9.962162375450134277e-02 1.033088099211454391e-02 -2.678722143173217773e-02 4.813486710190773010e-02
2.146000000000000000e+03 1.671086692810058594e+01 -8.247796058654785156e+00 -1.054333075881004333e-01 -9.380491450428962708e-03 -3.444413840770721436e-02 -5.633448716253042221e-03
2.147000000000000000e+03 7.208745574951171875e+01 -1.868144512176513672e+00 -1.515315055847167969e+00 2.510594129562377930e+00 2.985837161540985107e-01 -1.650276303291320801e+00
2.148000000000000000e+03 6.227213287353515625e+01 -1.113867908716201782e-01 -1.364773273468017578e+00 2.408311128616333008e+00 3.130613863468170166e-01 1.877622127532958984e+00
2.149000000000000000e+03 4.349168395996093750e+01 -1.265639877319335938e+01 6.144455075263977051e-02 -3.230384588241577148e-01 -7.847817242145538330e-02 -4.620817005634307861e-01
2.150000000000000000e+03 7.746221923828125000e+01 7.074497699737548828e+00 2.411358356475830078e+00 1.116990566253662109e+01 4.074378967285156250e+00 -1.380331277847290039e+00
2.151000000000000000e+03 4.746576786041259766e+00 -1.494985866546630859e+01 -2.033489011228084564e-02 -3.424783423542976379e-02 -1.637481711804866791e-02 -4.013025760650634766e-02
2.152000000000000000e+03 4.669744873046875000e+01 1.219674348831176758e+00 -8.380947113037109375e-01 6.377656012773513794e-02 -2.322954386472702026e-01 -3.596667647361755371e-01
2.153000000000000000e+03 3.458771133422851562e+01 1.791683959960937500e+01 -4.332385659217834473e-01 -8.252874761819839478e-02 -1.547302007675170898e-01 2.047636955976486206e-01
2.154000000000000000e+03 3.898090744018554688e+01 -3.700724363327026367e+00 -7.773175835609436035e-02 -6.470508128404617310e-02 -4.273105040192604065e-02 -2.439923286437988281e-01
2.155000000000000000e+03 7.388823699951171875e+01 -2.298888397216796875e+01 -2.461043447256088257e-01 5.659382343292236328e+00 1.623983383178710938e+00 8.210622668266296387e-01
2.156000000000000000e+03 7.555227661132812500e+01 -2.414810371398925781e+01 -6.577749550342559814e-02 6.288583755493164062e+00 1.866841912269592285e+00 6.341273784637451172e-01
2.157000000000000000e+03 7.498091888427734375e+01 -3.007052612304687500e+01 1.506037861108779907e-01 5.553787708282470703e+00 1.711317539215087891e+00 4.899478554725646973e-01
2.158000000000000000e+03 3.964277029037475586e+00 1.197197723388671875e+01 1.656326698139309883e-03 -8.121707476675510406e-03 -1.939614303410053253e-03 2.236899454146623611e-03
2.159000000000000000e+03 6.297363281250000000e+00 1.225935077667236328e+01 3.830340458080172539e-03 -9.107193909585475922e-03 -1.583055942319333553e-03 1.162308966740965843e-03
2.160000000000000000e+03 7.577906036376953125e+01 -3.358277893066406250e+01 7.987702637910842896e-02 5.608172416687011719e+00 1.706414818763732910e+00 2.839701175689697266e-01
2.161000000000000000e+03 7.569245147705078125e+01 -9.024942398071289062e+00 3.867928981781005859e-01 8.058997154235839844e+00 2.533736944198608398e+00 1.217034816741943359e+00
2.162000000000000000e+03 7.729685211181640625e+01 -1.644852638244628906e+01 -6.269159913063049316e-02 7.812238216400146484e+00 2.324864149093627930e+00 -1.290438473224639893e-01
2.163000000000000000e+03 7.505839538574218750e+01 -1.574443340301513672e+01 2.307477891445159912e-01 8.088894844055175781e+00 2.495892763137817383e+00 2.093210816383361816e-01
2.164000000000000000e+03 7.376964569091796875e+01 2.412702178955078125e+01 -1.714718788862228394e-01 6.075625896453857422e+00 1.771246194839477539e+00 -5.312704443931579590e-01
2.165000000000000000e+03 7.456399536132812500e+01 1.384177684783935547e+01 3.107157945632934570e-01 7.754878044128417969e+00 2.419678211212158203e+00 5.404980182647705078e-01
2.166000000000000000e+03 3.283752822875976562e+01 5.643177509307861328e+00 2.424089908599853516e-01 -4.748582467436790466e-02 5.847694724798202515e-02 6.134929135441780090e-02
2.167000000000000000e+03 5.183087158203125000e+01 -2.200746154785156250e+01 -1.945044696331024170e-01 5.286972522735595703e-01 1.002578362822532654e-01 -1.513716876506805420e-01
2.168000000000000000e+03 3.382804155349731445e+00 3.368820953369140625e+01 3.051019273698329926e-03 -8.965018391609191895e-02 -2.597974985837936401e-02 1.987656764686107635e-02
2.169000000000000000e+03 4.710566043853759766e+00 1.745890808105468750e+01 -5.927869118750095367e-03 -1.331931259483098984e-02 -5.774154793471097946e-03 6.198506802320480347e-03
2.170000000000000000e+03 2.630759811401367188e+01 -1.085354518890380859e+01 -3.486176133155822754e-01 -8.773707151412963867e-01 -3.677964806556701660e-01 6.212055683135986328e-02
2.171000000000000000e+03 3.062575531005859375e+01 1.052455425262451172e+00 -5.932617187500000000e-01 -1.064293146133422852e+00 -4.972664415836334229e-01 -2.794179320335388184e-01
2.172000000000000000e+03 3.063503646850585938e+01 2.124347925186157227e+00 -1.411008536815643311e-01 -5.819719433784484863e-01 -2.169218510389328003e-01 -3.363623619079589844e-01
2.173000000000000000e+03 7.411109161376953125e+01 -8.731288909912109375e+00 4.245625138282775879e-01 7.536495208740234375e+00 2.388317346572875977e+00 8.973617553710937500e-01
2.174000000000000000e+03 4.577431488037109375e+01 1.470819592475891113e+00 -7.089726328849792480e-01 -1.847486570477485657e-02 -2.182342559099197388e-01 -3.353639245033264160e-01
2.175000000000000000e+03 4.593212127685546875e+01 -1.197646498680114746e+00 -9.732969999313354492e-01 -1.974568963050842285e-01 -3.512261807918548584e-01 -2.496057301759719849e-01
2.176000000000000000e+03 2.695578384399414062e+01 1.770371055603027344e+01 -3.094911575317382812e-01 1.346688997000455856e-02 -8.880728483200073242e-02 1.292226761579513550e-01
2.177000000000000000e+03 6.421404266357421875e+01 -1.703862380981445312e+01 -6.436636447906494141e-01 1.791618943214416504e+00 3.443866074085235596e-01 -3.692605197429656982e-01
2.178000000000000000e+03 2.900155067443847656e+01 1.470173168182373047e+01 -2.588630914688110352e-01 1.533817313611507416e-02 -7.305747270584106445e-02 7.011403888463973999e-02
2.179000000000000000e+03 7.247719573974609375e+01 -7.625359296798706055e-01 -2.118233442306518555e+00 1.150614500045776367e+00 -2.902856767177581787e-01 -2.470875501632690430e+00
2.180000000000000000e+03 2.393539047241210938e+01 -2.421562910079956055e+00 -9.762404859066009521e-02 1.216030791401863098e-01 7.193708792328834534e-03 -3.848764346912503242e-03
2.181000000000000000e+03 2.639782333374023438e+01 -2.101267814636230469e+00 -3.548772931098937988e-01 -8.919901400804519653e-02 -1.332228928804397583e-01 -3.890840709209442139e-01
2.182000000000000000e+03 4.092433547973632812e+01 1.670801734924316406e+01 -7.280306816101074219e-01 1.509547233581542969e-01 -1.731227934360504150e-01 1.322480589151382446e-01
2.183000000000000000e+03 5.193376159667968750e+01 5.054011344909667969e+00 -1.617254167795181274e-01 -6.050388887524604797e-02 -6.666879355907440186e-02 8.243279904127120972e-02
2.184000000000000000e+03 5.100670623779296875e+01 4.384178161621093750e+00 -3.043386936187744141e-01 -5.111357197165489197e-02 -1.066356822848320007e-01 5.709990113973617554e-02
2.185000000000000000e+03 2.947848129272460938e+01 -5.783210754394531250e+00 2.526039481163024902e-01 -4.664029553532600403e-02 6.178909912705421448e-02 -6.507884263992309570e-01
2.186000000000000000e+03 2.827924537658691406e+01 -6.103351116180419922e+00 9.338410198688507080e-02 -3.284389972686767578e-01 -7.051647454500198364e-02 -7.115817666053771973e-01
2.187000000000000000e+03 4.904887008666992188e+01 4.443401098251342773e-02 -1.069269537925720215e+00 3.662207424640655518e-01 -2.109146416187286377e-01 -3.676469922065734863e-01
2.188000000000000000e+03 6.875496673583984375e+01 -1.922562789916992188e+01 2.034923583269119263e-01 1.428384423255920410e+00 4.895630180835723877e-01 8.829187154769897461e-01
2.189000000000000000e+03 5.453729629516601562e+01 -3.783153057098388672e+00 1.276790201663970947e-01 -3.690574169158935547e-01 -7.241351902484893799e-02 -4.109722375869750977e-01
2.190000000000000000e+03 7.353384399414062500e+01 -1.663202857971191406e+01 -3.265816271305084229e-01 8.054099082946777344e+00 2.318255186080932617e+00 3.544478118419647217e-01
2.191000000000000000e+03 4.144638538360595703e+00 -3.145278167724609375e+01 8.552408777177333832e-03 -2.440854609012603760e-01 -7.065991312265396118e-02 -5.759929865598678589e-02
2.192000000000000000e+03 5.435639572143554688e+01 -2.280625534057617188e+01 -9.244425594806671143e-02 7.234278321266174316e-01 1.892950683832168579e-01 8.356312662363052368e-02
2.193000000000000000e+03 5.553761291503906250e+01 -2.172045707702636719e+01 -1.697779297828674316e-01 1.165986657142639160e+00 2.988626062870025635e-01 2.751388549804687500e-01
2.194000000000000000e+03 1.145968723297119141e+01 1.278789138793945312e+01 1.698254724033176899e-03 6.417545024305582047e-03 2.434740075841546059e-03 7.267217617481946945e-03
2.195000000000000000e+03 1.227772045135498047e+01 1.170534610748291016e+01 1.265073567628860474e-02 1.216297410428524017e-02 7.444113027304410934e-03 1.145842112600803375e-02
2.196000000000000000e+03 6.442797088623046875e+01 3.598738670349121094e+00 1.179432630538940430e+00 4.373416006565093994e-01 4.850322902202606201e-01 1.976199984550476074e+00
2.197000000000000000e+03 4.766539382934570312e+01 -1.621299982070922852e-01 -1.022996187210083008e+00 1.591254621744155884e-01 -2.591612339019775391e-01 -3.941006660461425781e-01
2.198000000000000000e+03 5.680440902709960938e+01 -7.986603260040283203e+00 5.498545169830322266e-01 7.382475733757019043e-01 3.864306211471557617e-01 2.643407583236694336e-01
2.199000000000000000e+03 5.238953018188476562e+01 6.621934413909912109e+00 -2.019004523754119873e-02 -3.177496790885925293e-02 -1.558950357139110565e-02 4.815220832824707031e-03
2.200000000000000000e+03 4.182601547241210938e+01 -9.733045578002929688e+00 5.462914109230041504e-01 -3.387896120548248291e-01 6.225053966045379639e-02 -5.294030308723449707e-01
2.201000000000000000e+03 4.318284225463867188e+01 -1.116936969757080078e+01 4.110549390316009521e-01 -3.848897516727447510e-01 7.849555462598800659e-03 -5.374678969383239746e-01
2.202000000000000000e+03 1.626598548889160156e+01 1.942981529235839844e+01 -8.813484013080596924e-02 3.256259369663894176e-04 -2.634276449680328369e-02 6.211837381124496460e-02
2.203000000000000000e+03 3.350630187988281250e+01 1.933103370666503906e+01 -3.234120607376098633e-01 -7.309894263744354248e-02 -1.189533025026321411e-01 2.347396612167358398e-01
2.204000000000000000e+03 3.072523307800292969e+01 1.848405075073242188e+01 -3.565346300601959229e-01 -2.271069772541522980e-02 -1.137735992670059204e-01 2.118657231330871582e-01
2.205000000000000000e+03 6.374716949462890625e+01 -1.512855243682861328e+01 -1.000775098800659180e+00 2.056012392044067383e+00 3.165711760520935059e-01 -1.393758058547973633e-01
2.206000000000000000e+03 6.330175018310546875e+01 -1.392511177062988281e+01 -9.091834425926208496e-01 2.258854389190673828e+00 4.049012959003448486e-01 -2.481747884303331375e-03
2.207000000000000000e+03 4.455748748779296875e+01 -1.313558578491210938e+01 1.233651116490364075e-01 3.019414283335208893e-02 4.606777429580688477e-02 -4.282364249229431152e-01
2.208000000000000000e+03 4.823969364166259766e+00 3.755621337890625000e+01 7.592188660055398941e-03 -1.039086580276489258e-01 -2.889494039118289948e-02 1.750027202069759369e-02
2.209000000000000000e+03 5.490961074829101562e+00 3.599692153930664062e+01 1.031322591006755829e-02 -9.918531775474548340e-02 -2.666162699460983276e-02 2.351207658648490906e-02
2.210000000000000000e+03 5.895150375366210938e+01 1.488178157806396484e+01 -1.723089337348937988e+00 3.778047263622283936e-01 -4.035854041576385498e-01 2.071945369243621826e-01
2.211000000000000000e+03 3.435449218750000000e+01 -1.851785659790039062e+01 -3.317617774009704590e-01 2.259644865989685059e-01 -3.173918277025222778e-02 -1.957559883594512939e-01
2.212000000000000000e+03 6.882602691650390625e+01 3.589495718479156494e-01 -2.605621576309204102e+00 6.292714595794677734e+00 1.106127858161926270e+00 -1.916462182998657227e-01
2.213000000000000000e+03 6.720291900634765625e+01 2.448648512363433838e-01 -1.659266591072082520e+00 3.756920337677001953e+00 6.292961239814758301e-01 1.823608040809631348e+00
2.214000000000000000e+03 3.177039909362792969e+01 1.098030805587768555e+00 -7.167854905128479004e-01 -7.227805852890014648e-01 -4.318698346614837646e-01 -8.832216858863830566e-01
2.215000000000000000e+03 6.045452499389648438e+01 -3.233538389205932617e+00 6.354880928993225098e-01 2.147417545318603516e+00 8.348716497421264648e-01 6.627925634384155273e-01
2.216000000000000000e+03 5.780376434326171875e+01 -5.695146560668945312e+00 8.433409333229064941e-01 5.723441243171691895e-01 4.247055053710937500e-01 3.231754899024963379e-01
2.217000000000000000e+03 5.850230789184570312e+01 -1.031268787384033203e+01 -4.884373769164085388e-02 1.872790575027465820e+00 5.471840500831604004e-01 6.517313122749328613e-01
2.218000000000000000e+03 7.572995758056640625e+01 -3.728878784179687500e+01 4.612584412097930908e-02 5.544496059417724609e+00 1.677186489105224609e+00 1.287445127964019775e-01
2.219000000000000000e+03 6.377661228179931641e+00 -3.453594589233398438e+01 3.011431358754634857e-02 -2.579945027828216553e-01 -6.836405396461486816e-02 -6.073954328894615173e-02
2.220000000000000000e+03 2.745643234252929688e+01 -1.060707759857177734e+01 -4.684378206729888916e-01 -6.463593840599060059e-01 -3.344391584396362305e-01 1.275840401649475098e-01
2.221000000000000000e+03 6.423814392089843750e+01 2.731641292572021484e+00 4.444740414619445801e-01 7.209053635597229004e-01 3.496138155460357666e-01 2.223502159118652344e+00
2.222000000000000000e+03 6.450743103027343750e+01 1.841121554374694824e+00 1.834781654179096222e-02 1.477393031120300293e+00 4.487222433090209961e-01 2.763133287429809570e+00
2.223000000000000000e+03 5.495676994323730469e+00 -5.554261684417724609e+00 -7.663704920560121536e-03 -1.631758990697562695e-03 -2.788639161735773087e-03 7.377792615443468094e-03
2.224000000000000000e+03 3.413498687744140625e+01 2.630572795867919922e+00 -5.913985967636108398e-01 5.005954578518867493e-02 -1.624017059803009033e-01 -4.068060219287872314e-01
2.225000000000000000e+03 3.294039535522460938e+01 2.475603103637695312e+00 -2.327122986316680908e-01 -2.998960912227630615e-01 -1.597825139760971069e-01 -4.573410153388977051e-01
2.226000000000000000e+03 4.810340881347656250e+00 6.504958152770996094e+00 -2.532669343054294586e-03 -1.216009142808616161e-03 -1.124603557400405407e-03 7.267632521688938141e-03
2.227000000000000000e+03 4.486948013305664062e+00 -2.637319183349609375e+01 1.095975516363978386e-03 -1.762816607952117920e-01 -5.255570635199546814e-02 -7.874949276447296143e-02
2.228000000000000000e+03 6.509238433837890625e+01 -1.474776172637939453e+01 -1.084361314773559570e+00 1.428505063056945801e+00 1.032431125640869141e-01 -1.325942277908325195e-01
2.229000000000000000e+03 6.126826095581054688e+01 -8.983533859252929688e+00 2.634358704090118408e-01 3.096510887145996094e+00 1.007984042167663574e+00 6.224588751792907715e-01
2.230000000000000000e+03 5.985728836059570312e+01 -6.713622808456420898e-01 -1.450347781181335449e+00 1.047166585922241211e+00 -1.209543570876121521e-01 1.965684741735458374e-01
2.231000000000000000e+03 4.407293701171875000e+01 -1.507100582122802734e+01 -5.176881551742553711e-01 1.076847389340400696e-01 -1.230010166764259338e-01 -2.795831263065338135e-01
2.232000000000000000e+03 6.023947906494140625e+01 -9.767133712768554688e+00 7.111141830682754517e-02 2.645425319671630859e+00 8.149610757827758789e-01 7.698247432708740234e-01
2.233000000000000000e+03 5.687557983398437500e+01 -5.252052783966064453e+00 7.121242284774780273e-01 4.280874878168106079e-02 2.264798879623413086e-01 9.530865401029586792e-02
2.234000000000000000e+03 7.442109680175781250e+01 -3.604511618614196777e-01 -2.300709247589111328e+00 2.842260837554931641e+00 1.624655127525329590e-01 1.072037696838378906e+00
2.235000000000000000e+03 7.444905853271484375e+01 -1.271039962768554688e+01 8.516519069671630859e-01 8.721401214599609375e+00 2.871915817260742188e+00 6.858584880828857422e-01
2.236000000000000000e+03 7.563761901855468750e+01 -1.247776222229003906e+01 8.869359493255615234e-01 8.272824287414550781e+00 2.747927904129028320e+00 8.928429484367370605e-01
2.237000000000000000e+03 7.001728820800781250e+01 1.202800941467285156e+01 -3.001452088356018066e-01 1.015582180023193359e+01 2.956702947616577148e+00 -2.297224521636962891e+00
2.238000000000000000e+03 6.875177001953125000e+01 1.223266410827636719e+01 6.435707211494445801e-01 4.143559932708740234e+00 1.436139225959777832e+00 -2.273728132247924805e+00
2.239000000000000000e+03 6.946660614013671875e+01 1.205555152893066406e+01 4.057726562023162842e-01 7.175726890563964844e+00 2.274449825286865234e+00 -2.947274684906005859e+00
2.240000000000000000e+03 7.152388763427734375e+01 1.213154029846191406e+01 1.071520328521728516e+00 1.012999725341796875e+01 3.360455274581909180e+00 2.086796283721923828e+00
2.241000000000000000e+03 7.233557128906250000e+01 1.160921478271484375e+01 3.872408628463745117e+00 6.956096649169921875e+00 3.248551607131958008e+00 2.408108949661254883e+00
2.242000000000000000e+03 7.166921997070312500e+01 1.186720180511474609e+01 1.976848006248474121e+00 9.960586547851562500e+00 3.581230401992797852e+00 2.734174013137817383e+00
2.243000000000000000e+03 7.097998809814453125e+01 1.230462074279785156e+01 -2.702479958534240723e-01 1.111157321929931641e+01 3.252397537231445312e+00 6.615995168685913086e-01
2.244000000000000000e+03 6.826322937011718750e+01 1.204713439941406250e+01 7.918024063110351562e-01 2.400375127792358398e+00 9.576532244682312012e-01 -1.494066953659057617e+00
2.245000000000000000e+03 6.752835845947265625e+01 1.269824981689453125e+01 -9.130941331386566162e-02 1.911782741546630859e+00 5.461419820785522461e-01 -9.963608384132385254e-01
2.246000000000000000e+03 6.688670349121093750e+01 1.284245491027832031e+01 -5.444336533546447754e-01 1.280021905899047852e+00 2.206764668226242065e-01 -5.316418409347534180e-01
2.247000000000000000e+03 9.108286857604980469e+00 -4.520246505737304688e+00 -5.505819339305162430e-03 -1.994312042370438576e-03 -2.250039484351873398e-03 5.248859524726867676e-03
2.248000000000000000e+03 6.627931213378906250e+01 1.476556777954101562e+01 -1.332916140556335449e+00 1.573792099952697754e+00 7.226277887821197510e-02 -1.230785608291625977e+00
2.249000000000000000e+03 5.814638137817382812e+01 1.495350360870361328e+01 -1.549258112907409668e+00 4.181386828422546387e-01 -3.393358290195465088e-01 2.407389432191848755e-01
2.250000000000000000e+03 7.287169647216796875e+01 1.097410869598388672e+01 5.361286163330078125e+00 4.454519748687744141e+00 2.944741725921630859e+00 5.642181038856506348e-01
2.251000000000000000e+03 6.622760009765625000e+01 6.454730510711669922e+00 2.135293483734130859e+00 1.781014204025268555e+00 1.174892306327819824e+00 3.397779464721679688e-01
2.252000000000000000e+03 6.569944000244140625e+01 5.937701702117919922e+00 2.231657981872558594e+00 9.827361106872558594e-01 9.643182158470153809e-01 4.793460071086883545e-01
2.253000000000000000e+03 1.033285903930664062e+01 -4.824175357818603516e+00 -1.551822409965097904e-03 -5.632721353322267532e-03 -2.155363094061613083e-03 5.837853532284498215e-03
2.254000000000000000e+03 9.240593910217285156e+00 -3.801578044891357422e+00 5.023682955652475357e-03 -1.275331061333417892e-02 -2.318888437002897263e-03 1.316568581387400627e-03
2.255000000000000000e+03 3.954650115966796875e+01 1.605276489257812500e+01 -6.459853649139404297e-01 1.259412765502929688e-01 -1.560132354497909546e-01 1.082461923360824585e-01
2.256000000000000000e+03 1.167296504974365234e+01 -5.186842441558837891e+00 -8.643876761198043823e-03 -4.460561089217662811e-03 -3.931331448256969452e-03 6.276200059801340103e-03
2.257000000000000000e+03 6.591950225830078125e+01 1.386869716644287109e+01 -1.540328860282897949e+00 7.455950975418090820e-01 -2.384201288223266602e-01 -5.561017990112304688e-01
2.258000000000000000e+03 8.409433364868164062e+00 -4.408564567565917969e+00 -4.464180674403905869e-04 -1.098029501736164093e-02 -3.428013762459158897e-03 3.057562978938221931e-03
2.259000000000000000e+03 7.682541370391845703e+00 -4.119448661804199219e+00 1.007297541946172714e-03 -6.233917247300269082e-06 3.003191086463630199e-04 7.648279890418052673e-03
2.260000000000000000e+03 6.436106204986572266e+00 -3.990180730819702148e+00 -3.288379812147468328e-04 1.553778769448399544e-03 3.674822510220110416e-04 6.442313548177480698e-03
2.261000000000000000e+03 6.430339813232421875e+00 -3.476172447204589844e+00 6.081358063966035843e-03 -3.364062169566750526e-03 8.151888614520430565e-04 9.172440506517887115e-03
2.262000000000000000e+03 3.694430160522460938e+01 1.679144096374511719e+01 -5.581905841827392578e-01 2.552296034991741180e-03 -1.666914969682693481e-01 1.052590534090995789e-01
2.263000000000000000e+03 3.793451690673828125e+01 1.671487808227539062e+01 -6.094652414321899414e-01 4.553216695785522461e-02 -1.691799312829971313e-01 1.304157227277755737e-01
2.264000000000000000e+03 6.582061767578125000e+01 1.452212333679199219e+01 -1.600301027297973633e+00 9.570881724357604980e-01 -1.929638534784317017e-01 -9.704743027687072754e-01
2.265000000000000000e+03 4.179460525512695312e+00 5.445624351501464844e+00 -3.074326785281300545e-03 -6.768968305550515652e-04 -1.125367125496268272e-03 3.092674771323800087e-03
2.266000000000000000e+03 4.205721664428710938e+01 1.630077171325683594e+01 -8.008468747138977051e-01 1.724182814359664917e-01 -1.885285824537277222e-01 1.179903820157051086e-01
2.267000000000000000e+03 4.771193981170654297e+00 8.564249992370605469e+00 1.651956117711961269e-03 -7.128897588700056076e-03 -1.643082476221024990e-03 7.779429666697978973e-03
2.268000000000000000e+03 6.943628787994384766e+00 -4.538858413696289062e+00 -1.554512418806552887e-03 6.939637241885066032e-04 -2.581645967438817024e-04 8.647656068205833435e-03
2.269000000000000000e+03 5.529507827758789062e+01 1.606679344177246094e+01 -1.409420013427734375e+00 3.954314589500427246e-01 -3.041965365409851074e-01 3.217735886573791504e-01
2.270000000000000000e+03 3.883535385131835938e+01 1.648533248901367188e+01 -6.592391729354858398e-01 1.109247505664825439e-01 -1.644943207502365112e-01 1.142276898026466370e-01
2.271000000000000000e+03 6.173357009887695312e+00 -5.235709190368652344e+00 5.226009525358676910e-04 -3.367554163560271263e-03 -8.534859516657888889e-04 9.531387127935886383e-03
2.272000000000000000e+03 1.339926910400390625e+01 -4.954684257507324219e+00 -3.479906124994158745e-03 -2.362683042883872986e-02 -8.132020942866802216e-03 -7.987430319190025330e-03
2.273000000000000000e+03 6.609873962402343750e+01 2.284490108489990234e+00 1.150591731071472168e+00 2.925961732864379883e+00 1.222966074943542480e+00 3.087471485137939453e+00
2.274000000000000000e+03 7.425859832763671875e+01 1.132888889312744141e+01 2.621896028518676758e+00 6.205373764038085938e+00 2.648180961608886719e+00 -1.399856209754943848e+00
2.275000000000000000e+03 3.550830841064453125e+01 5.399648189544677734e+00 6.778359413146972656e-02 -5.185675621032714844e-02 4.778051748871803284e-03 -9.303238987922668457e-02
2.276000000000000000e+03 3.161913490295410156e+01 -1.533361053466796875e+01 -1.894667744636535645e-01 2.464311867952346802e-01 1.708932220935821533e-02 4.482626914978027344e-02
2.277000000000000000e+03 5.989250564575195312e+01 -1.382991886138916016e+01 -5.283964872360229492e-01 2.232728958129882812e+00 5.112997293472290039e-01 3.907870650291442871e-01
2.278000000000000000e+03 6.362332153320312500e+01 -1.633241462707519531e+01 -8.591180443763732910e-01 2.019295692443847656e+00 3.480533063411712646e-01 -2.560874819755554199e-01
2.279000000000000000e+03 1.244385528564453125e+01 -6.604065418243408203e+00 -3.632258251309394836e-02 -1.799989677965641022e-02 -1.629674434661865234e-02 -7.576507516205310822e-03
2.280000000000000000e+03 1.509548282623291016e+01 -7.317807674407958984e+00 -6.316050887107849121e-02 -1.922127790749073029e-02 -2.471453510224819183e-02 -2.333791460841894150e-03
2.281000000000000000e+03 7.557795715332031250e+01 -2.574685573577880859e+00 -5.235793590545654297e-01 6.478981971740722656e+00 1.786620855331420898e+00 9.769868254661560059e-01
2.282000000000000000e+03 6.497429656982421875e+01 9.729786515235900879e-01 -5.436835289001464844e-01 2.669032812118530273e+00 6.376048326492309570e-01 3.680287599563598633e+00
2.283000000000000000e+03 5.303673553466796875e+01 1.614661407470703125e+01 -1.637918710708618164e+00 2.665573954582214355e-01 -4.114084243774414062e-01 3.185830712318420410e-01
2.284000000000000000e+03 5.149555587768554688e+01 1.778423118591308594e+01 -1.242675542831420898e+00 -1.777893006801605225e-01 -4.261394441127777100e-01 2.548939585685729980e-01
2.285000000000000000e+03 1.059979248046875000e+01 1.385898017883300781e+01 -3.420166205614805222e-03 2.444342011585831642e-03 -2.927472814917564392e-04 5.062821786850690842e-03
2.286000000000000000e+03 6.046642684936523438e+01 -1.235213470458984375e+01 -3.369978666305541992e-01 2.405407428741455078e+00 6.205229163169860840e-01 5.732533931732177734e-01
2.287000000000000000e+03 5.088892745971679688e+01 2.543889284133911133e+00 -8.993698358535766602e-01 2.180950343608856201e-01 -2.043824493885040283e-01 2.248574420809745789e-02
2.288000000000000000e+03 6.041481018066406250e+01 1.812960052490234375e+01 -7.588186264038085938e-01 3.105975985527038574e-01 -1.344663053750991821e-01 1.892461180686950684e-01
2.289000000000000000e+03 6.005042648315429688e+01 1.619424629211425781e+01 -1.507401823997497559e+00 1.870241165161132812e-01 -3.961133062839508057e-01 3.205442726612091064e-01
2.290000000000000000e+03 1.645649337768554688e+01 -6.710263252258300781e+00 -3.768656775355339050e-02 -1.489099301397800446e-02 -1.577326841652393341e-02 -1.228519366122782230e-03
2.291000000000000000e+03 5.891255187988281250e+01 1.596042633056640625e+01 -1.527688860893249512e+00 3.905681669712066650e-01 -3.411362171173095703e-01 3.082530200481414795e-01
2.292000000000000000e+03 5.211490631103515625e+01 1.034918725490570068e-01 -1.561042070388793945e+00 4.276939630508422852e-01 -3.400044143199920654e-01 -1.785332262516021729e-01
2.293000000000000000e+03 4.980560302734375000e+01 1.811261534690856934e+00 -9.829680323600769043e-01 2.809779345989227295e-01 -2.105970233678817749e-01 -1.171032860875129700e-01
2.294000000000000000e+03 1.811618423461914062e+01 -8.200277328491210938e+00 -1.169935837388038635e-01 -3.141737775877118111e-03 -3.604059666395187378e-02 -8.520322851836681366e-03
2.295000000000000000e+03 4.090591430664062500e+00 1.099836254119873047e+01 5.768083967268466949e-03 -9.183985181152820587e-03 -1.024770434014499187e-03 1.617171452380716801e-03
2.296000000000000000e+03 6.139722442626953125e+01 -1.665431976318359375e+00 -4.754409492015838623e-01 3.182626008987426758e+00 8.121555447578430176e-01 6.713247299194335938e-01
2.297000000000000000e+03 2.932018280029296875e+01 1.008476093411445618e-01 -1.359810948371887207e+00 -4.185853898525238037e-01 -5.335189104080200195e-01 -2.161833047866821289e-01
2.298000000000000000e+03 3.862438678741455078e+00 8.268279075622558594e+00 9.345132857561111450e-04 -4.895065911114215851e-03 -1.188165857456624508e-03 5.293091759085655212e-03
2.299000000000000000e+03 7.418986511230468750e+01 -2.198606109619140625e+01 -7.804150134325027466e-02 5.955956935882568359e+00 1.763374567031860352e+00 8.754883408546447754e-01
2.300000000000000000e+03 7.549533081054687500e+01 -2.121411323547363281e+01 -2.528849840164184570e-01 6.761112689971923828e+00 1.952468276023864746e+00 5.849369764328002930e-01
2.301000000000000000e+03 3.710223770141601562e+01 1.813105964660644531e+01 -5.551085472106933594e-01 3.981688991189002991e-03 -1.653380542993545532e-01 1.714601367712020874e-01
2.302000000000000000e+03 4.563863754272460938e+00 -1.349655246734619141e+01 -1.620142720639705658e-02 -2.659030631184577942e-02 -1.283751986920833588e-02 -2.993111871182918549e-02
2.303000000000000000e+03 6.465498447418212891e+00 -1.049750995635986328e+01 -2.696828171610832214e-02 -1.812486536800861359e-02 -1.352794468402862549e-02 -1.677503064274787903e-02
2.304000000000000000e+03 6.529772186279296875e+01 1.449926185607910156e+01 -2.025464057922363281e+00 4.082468450069427490e-01 -4.851651489734649658e-01 -6.735344529151916504e-01
2.305000000000000000e+03 4.492658233642578125e+01 -1.208375835418701172e+01 2.935404181480407715e-01 3.623151779174804688e-02 9.893158078193664551e-02 -4.843651950359344482e-01
2.306000000000000000e+03 5.399068832397460938e+01 1.691493415832519531e+01 -1.299124240875244141e+00 2.689073085784912109e-01 -3.090650737285614014e-01 2.510100603103637695e-01
2.307000000000000000e+03 5.957587432861328125e+01 -7.535840511322021484e+00 7.204793095588684082e-01 2.001612186431884766e+00 8.166274428367614746e-01 7.649399042129516602e-01
2.308000000000000000e+03 5.864763259887695312e+01 -6.035566806793212891e+00 9.717153906822204590e-01 1.114666223526000977e+00 6.259145140647888184e-01 5.733870863914489746e-01
2.309000000000000000e+03 3.805579376220703125e+01 -4.382573604583740234e+00 4.118930101394653320e-01 3.967842161655426025e-01 2.426031678915023804e-01 -5.293729305267333984e-01
2.310000000000000000e+03 7.472610473632812500e+01 1.251978969573974609e+01 1.206239819526672363e+00 7.546499729156494141e+00 2.625821828842163086e+00 -8.043129742145538330e-02
2.311000000000000000e+03 4.821186065673828125e+01 2.103027343750000000e+00 -8.087651729583740234e-01 1.698479503393173218e-01 -1.916751712560653687e-01 -2.085907757282257080e-01
2.312000000000000000e+03 4.937724304199218750e+01 4.688504219055175781e+00 -2.701328396797180176e-01 1.450020354241132736e-03 -8.060484379529953003e-02 -3.786635398864746094e-02
2.313000000000000000e+03 6.511066436767578125e+01 1.650015068054199219e+01 -8.472756743431091309e-01 1.030884146690368652e+00 5.508254840970039368e-02 -1.171779513359069824e+00
2.314000000000000000e+03 6.331501770019531250e+01 1.842904090881347656e+01 -3.809142708778381348e-01 7.166662216186523438e-01 1.007255911827087402e-01 -6.015433073043823242e-01
2.315000000000000000e+03 4.876177978515625000e+01 1.228284955024719238e+00 -9.977829456329345703e-01 2.568230926990509033e-01 -2.222879528999328613e-01 -2.677881717681884766e-01
2.316000000000000000e+03 5.694023609161376953e+00 2.267901611328125000e+01 -1.032947748899459839e-02 -2.937132306396961212e-02 -1.191024016588926315e-02 2.352760545909404755e-02
2.317000000000000000e+03 5.812702178955078125e+01 -3.888212680816650391e+00 5.386902093887329102e-01 3.364923298358917236e-01 2.625547647476196289e-01 2.830738127231597900e-01
2.318000000000000000e+03 7.597657012939453125e+01 1.832772636413574219e+01 -3.708457350730895996e-01 7.369258880615234375e+00 2.099524021148681641e+00 2.255308777093887329e-01
2.319000000000000000e+03 7.477419281005859375e+01 1.732038116455078125e+01 -5.417118668556213379e-01 7.367124557495117188e+00 2.047623872756958008e+00 2.191321551799774170e-01
2.320000000000000000e+03 5.089086532592773438e+00 3.278878784179687500e+01 4.707789514213800430e-03 -8.523571491241455078e-02 -2.415837720036506653e-02 3.056487441062927246e-02
2.321000000000000000e+03 7.648111724853515625e+01 -1.508316516876220703e+01 3.533346652984619141e-01 7.861730575561523438e+00 2.464519500732421875e+00 1.321412175893783569e-01
2.322000000000000000e+03 7.355432128906250000e+01 -1.386951088905334473e+00 -9.451590180397033691e-01 2.018354415893554688e+00 3.219586014747619629e-01 -6.390677094459533691e-01
2.323000000000000000e+03 3.060441970825195312e+01 -1.221763896942138672e+01 -1.177221089601516724e-01 2.709927856922149658e-01 4.598120227456092834e-02 7.925011217594146729e-02
2.324000000000000000e+03 2.778607177734375000e+01 -1.193083381652832031e+01 -1.480195373296737671e-01 -4.299895763397216797e-01 -1.734027415513992310e-01 1.562014222145080566e-01
2.325000000000000000e+03 6.106878662109375000e+01 -1.092368030548095703e+01 -2.016961723566055298e-01 2.747875452041625977e+00 7.638537287712097168e-01 5.714851617813110352e-01
2.326000000000000000e+03 6.014514541625976562e+01 -1.142796993255615234e+01 -2.584623098373413086e-01 2.522272586822509766e+00 6.791431307792663574e-01 6.862660646438598633e-01
2.327000000000000000e+03 7.347113800048828125e+01 -3.526792907714843750e+01 1.804631650447845459e-01 4.985216617584228516e+00 1.549703955650329590e+00 2.946362495422363281e-01
2.328000000000000000e+03 7.557163238525390625e+01 -3.540531539916992188e+01 6.936144083738327026e-02 5.491103649139404297e+00 1.668139576911926270e+00 2.136869281530380249e-01
2.329000000000000000e+03 7.344972229003906250e+01 -1.944646644592285156e+01 -9.043066501617431641e-01 6.175502300262451172e+00 1.581358671188354492e+00 1.255216121673583984e+00
2.330000000000000000e+03 7.583746337890625000e+01 -1.865106582641601562e+01 -2.415239363908767700e-01 7.409034252166748047e+00 2.150253057479858398e+00 2.052254378795623779e-01
2.331000000000000000e+03 5.094366073608398438e+01 -6.318419575691223145e-01 -1.267611503601074219e+00 4.775822460651397705e-01 -2.370087951421737671e-01 -3.423939943313598633e-01
2.332000000000000000e+03 5.702166080474853516e+00 -7.389633655548095703e+00 -1.338818389922380447e-02 -9.926767088472843170e-04 -4.314258228987455368e-03 2.997617237269878387e-03
2.333000000000000000e+03 6.946090698242187500e+01 -2.187317085266113281e+01 1.058370023965835571e-01 3.206005573272705078e+00 9.935528039932250977e-01 9.312841296195983887e-01
2.334000000000000000e+03 7.140365600585937500e+01 -1.970259475708007812e+01 -4.118357971310615540e-02 4.319263458251953125e+00 1.283424019813537598e+00 1.464138746261596680e+00
2.335000000000000000e+03 5.578754425048828125e+01 -7.048234939575195312e-01 -1.748270869255065918e+00 -9.622750878334045410e-01 -8.131638169288635254e-01 -7.756733298301696777e-01
2.336000000000000000e+03 5.704447174072265625e+01 -1.230718612670898438e+00 -1.226202964782714844e+00 -9.259733557701110840e-01 -6.456528902053833008e-01 -2.672362029552459717e-01
2.337000000000000000e+03 5.928223800659179688e+01 -1.167612361907958984e+01 -2.340093404054641724e-01 2.119447231292724609e+00 5.656313300132751465e-01 6.393424868583679199e-01
2.338000000000000000e+03 7.635561370849609375e+01 2.474379730224609375e+01 -7.545629888772964478e-02 6.910101890563964844e+00 2.050393581390380859e+00 -3.022112548351287842e-01
2.339000000000000000e+03 6.064227294921875000e+01 -4.541639804840087891e+00 1.066079020500183105e+00 2.652211904525756836e+00 1.115487217903137207e+00 7.351028919219970703e-01
2.340000000000000000e+03 5.420008087158203125e+01 -2.899974584579467773e+00 -3.680421411991119385e-01 -3.155001699924468994e-01 -2.050627022981643677e-01 -5.714131593704223633e-01
2.341000000000000000e+03 3.565485382080078125e+01 4.113568305969238281e+00 -1.517712771892547607e-01 -8.172625675797462463e-03 -4.798317328095436096e-02 -1.785119771957397461e-01
2.342000000000000000e+03 4.478870010375976562e+01 -2.024044418334960938e+01 -3.068654835224151611e-01 1.751176565885543823e-01 -3.952434659004211426e-02 1.042218878865242004e-02
2.343000000000000000e+03 4.471302795410156250e+01 -1.818458366394042969e+01 -5.439247488975524902e-01 1.361635923385620117e-01 -1.223283410072326660e-01 -6.967706978321075439e-02
2.344000000000000000e+03 5.472154140472412109e+00 1.469454956054687500e+01 -4.670352791436016560e-04 -9.019386954605579376e-03 -2.845926908776164055e-03 1.405968680046498775e-03
2.345000000000000000e+03 4.875452804565429688e+01 -2.007433509826660156e+01 -3.789632916450500488e-01 5.662546753883361816e-01 5.618742480874061584e-02 -1.570888608694076538e-01
2.346000000000000000e+03 4.977376556396484375e+01 -2.132893562316894531e+01 -3.169116675853729248e-01 5.413388609886169434e-01 6.732814759016036987e-02 -2.104509919881820679e-01
2.347000000000000000e+03 2.460065841674804688e+01 -1.311379528045654297e+01 -5.528340116143226624e-02 -6.739760041236877441e-01 -2.187778204679489136e-01 -1.378748863935470581e-01
2.348000000000000000e+03 2.293087577819824219e+01 -1.271895408630371094e+01 -3.689607977867126465e-01 -4.142736196517944336e-01 -2.349703311920166016e-01 -4.518579542636871338e-01
2.349000000000000000e+03 7.212422370910644531e+00 1.164427566528320312e+01 7.134345825761556625e-03 -5.220802035182714462e-03 5.740631022490561008e-04 3.224481828510761261e-03
2.350000000000000000e+03 5.927313327789306641e+00 -1.339403057098388672e+01 -3.043227456510066986e-02 -2.802854776382446289e-02 -1.753824763000011444e-02 -3.887657076120376587e-02
2.351000000000000000e+03 6.722534656524658203e+00 -1.968700981140136719e+01 -2.139482460916042328e-02 -9.453888237476348877e-02 -3.478011116385459900e-02 -9.006162732839584351e-02
2.352000000000000000e+03 5.912664794921875000e+01 -8.996223449707031250e+00 4.178984761238098145e-01 2.005368232727050781e+00 7.269800305366516113e-01 7.789943814277648926e-01
2.353000000000000000e+03 5.959244155883789062e+01 -2.113730812072753906e+01 -2.741548717021942139e-01 1.909410119056701660e+00 4.905765950679779053e-01 -8.953572064638137817e-02
2.354000000000000000e+03 5.919596099853515625e+01 -1.898204994201660156e+01 -3.242536485195159912e-01 2.024805784225463867e+00 5.101656317710876465e-01 -2.763629853725433350e-01
2.355000000000000000e+03 7.302301025390625000e+01 2.163115692138671875e+01 -4.300821125507354736e-01 6.120809078216552734e+00 1.707218170166015625e+00 -5.697616338729858398e-01
2.356000000000000000e+03 3.630410671234130859e+00 -1.797554016113281250e+01 -8.350016549229621887e-03 -6.138301268219947815e-02 -2.091990783810615540e-02 -4.889350757002830505e-02
2.357000000000000000e+03 4.136581802368164062e+01 -8.927811622619628906e+00 5.294812321662902832e-01 -3.331559896469116211e-01 5.889758095145225525e-02 -5.234805345535278320e-01
2.358000000000000000e+03 5.589131164550781250e+01 -5.510478019714355469e+00 6.791949868202209473e-01 -1.495002508163452148e-01 1.589084118604660034e-01 -1.440322250127792358e-01
2.359000000000000000e+03 5.848465347290039062e+01 -4.988902091979980469e+00 9.668270349502563477e-01 7.687056660652160645e-01 5.206598043441772461e-01 3.630450069904327393e-01
2.360000000000000000e+03 8.046735763549804688e+00 3.069503593444824219e+01 3.468356095254421234e-03 -7.565250992774963379e-02 -2.165524475276470184e-02 5.050290375947952271e-02
2.361000000000000000e+03 5.724122619628906250e+01 -2.436201858520507812e+01 -5.982101429253816605e-03 1.398816466331481934e+00 4.178503155708312988e-01 6.613719463348388672e-02
2.362000000000000000e+03 3.213308715820312500e+01 -1.649860954284667969e+01 -2.573977708816528320e-01 2.206305712461471558e-01 -1.103016268461942673e-02 -1.569210924208164215e-02
2.363000000000000000e+03 3.117494964599609375e+01 -1.811935806274414062e+01 -2.296428978443145752e-01 9.966330975294113159e-02 -3.899388015270233154e-02 -5.459824576973915100e-02
2.364000000000000000e+03 1.313956260681152344e+01 1.576602172851562500e+01 -2.674467861652374268e-02 8.410941809415817261e-03 -5.500121042132377625e-03 1.282409951090812683e-02
2.365000000000000000e+03 3.819552993774414062e+01 -2.181254768371582031e+01 -1.458984520286321640e-02 -1.739299744367599487e-01 -5.655594542622566223e-02 -3.070321679115295410e-01
2.366000000000000000e+03 5.286682891845703125e+01 1.857214093208312988e+00 -1.565171241760253906e+00 2.629100382328033447e-01 -3.906783461570739746e-01 3.456479609012603760e-01
2.367000000000000000e+03 5.806723022460937500e+01 -1.993530392646789551e+00 -4.878871142864227295e-01 -9.235972911119461060e-02 -1.740740537643432617e-01 -3.430127725005149841e-02
2.368000000000000000e+03 6.991172790527343750e+00 -2.485849380493164062e+01 -3.057461930438876152e-03 -1.581387072801589966e-01 -4.835885018110275269e-02 -1.098850965499877930e-01
2.369000000000000000e+03 7.594927978515625000e+01 1.230355072021484375e+01 1.362231224775314331e-01 8.392408370971679688e+00 2.558589220046997070e+00 3.666058927774429321e-02
2.370000000000000000e+03 6.531524658203125000e+01 2.193909406661987305e+00 6.838851571083068848e-01 2.373562812805175781e+00 9.172343611717224121e-01 3.340463638305664062e+00
2.371000000000000000e+03 6.571299743652343750e+01 1.541775941848754883e+00 3.139046430587768555e-01 2.484941959381103516e+00 8.396540284156799316e-01 3.566965341567993164e+00
2.372000000000000000e+03 3.480227231979370117e+00 2.576298332214355469e+01 -3.153572790324687958e-03 -4.318970069289207458e-02 -1.390298176556825638e-02 2.065080218017101288e-02
2.373000000000000000e+03 7.256781768798828125e+01 -2.055368232727050781e+01 -6.292923688888549805e-01 5.341663360595703125e+00 1.413711309432983398e+00 1.141169548034667969e+00
2.374000000000000000e+03 7.241307830810546875e+01 -1.943866729736328125e+01 -1.274821013212203979e-01 5.479925155639648438e+00 1.605732917785644531e+00 1.605695128440856934e+00
2.375000000000000000e+03 5.384907150268554688e+01 -2.553831291198730469e+01 1.574902236461639404e-01 8.385959267616271973e-01 2.988258302211761475e-01 7.172349374741315842e-03
2.376000000000000000e+03 7.556217193603515625e+01 -2.794445991516113281e+01 9.768208861351013184e-02 5.891049385070800781e+00 1.796619415283203125e+00 5.494527220726013184e-01
2.377000000000000000e+03 2.505020332336425781e+01 1.949649620056152344e+01 -2.116159945726394653e-01 -8.148110657930374146e-02 -8.792912960052490234e-02 1.200513243675231934e-01
2.378000000000000000e+03 1.870974731445312500e+01 -1.093117713928222656e+01 -2.876503765583038330e-01 -1.842350699007511139e-02 -9.182216972112655640e-02 -1.122933402657508850e-01
2.379000000000000000e+03 7.452476501464843750e+01 -6.848989009857177734e+00 5.317262187600135803e-02 6.906825065612792969e+00 2.087999343872070312e+00 1.031150221824645996e+00
2.380000000000000000e+03 7.574912261962890625e+01 -6.584032058715820312e+00 2.997515723109245300e-02 7.899188995361328125e+00 2.378749370574951172e+00 1.386413455009460449e+00
2.381000000000000000e+03 7.223081970214843750e+01 2.477631759643554688e+01 -1.137074530124664307e-01 5.431083679199218750e+00 1.595212817192077637e+00 -7.050852179527282715e-01
2.382000000000000000e+03 2.863815879821777344e+01 1.802726364135742188e+01 -3.250863552093505859e-01 1.336378511041402817e-02 -9.351677447557449341e-02 1.737112700939178467e-01
2.383000000000000000e+03 7.499301910400390625e+01 -2.578350448608398438e+01 4.886298626661300659e-02 5.895462036132812500e+00 1.783297538757324219e+00 6.298440098762512207e-01
2.384000000000000000e+03 2.870386886596679688e+01 -1.166193866729736328e+01 -2.311963438987731934e-01 -2.253540605306625366e-01 -1.369651257991790771e-01 1.862498670816421509e-01
2.385000000000000000e+03 2.969088172912597656e+01 -1.075902175903320312e+01 -1.616406887769699097e-01 1.350254714488983154e-01 -7.984561845660209656e-03 1.576208887854591012e-04
2.386000000000000000e+03 6.520631790161132812e+00 -1.800559997558593750e+01 -2.470885775983333588e-02 -8.037146925926208496e-02 -3.152409940958023071e-02 -8.269078284502029419e-02
2.387000000000000000e+03 5.229636669158935547e+00 -1.960358047485351562e+01 -1.358197163790464401e-02 -9.106236696243286133e-02 -3.139330074191093445e-02 -7.641486823558807373e-02
2.388000000000000000e+03 6.824537658691406250e+01 1.262474536895751953e+01 1.984787136316299438e-01 3.176895618438720703e+00 1.012612342834472656e+00 -1.750337123870849609e+00
2.389000000000000000e+03 7.178385925292968750e+01 1.241107463836669922e+01 9.399454593658447266e-01 9.342992782592773438e+00 3.084881544113159180e+00 1.701439261436462402e+00
2.390000000000000000e+03 7.155611419677734375e+01 1.274722480773925781e+01 1.933264583349227905e-01 9.504036903381347656e+00 2.909209012985229492e+00 1.121745824813842773e+00
2.391000000000000000e+03 7.133560943603515625e+01 1.238247203826904297e+01 2.584816515445709229e-01 1.034524154663085938e+01 3.181116819381713867e+00 1.339184761047363281e+00
2.392000000000000000e+03 6.927499389648437500e+01 1.271071624755859375e+01 -6.359720230102539062e-02 6.298003196716308594e+00 1.870321750640869141e+00 -2.399801969528198242e+00
2.393000000000000000e+03 7.293611145019531250e+01 1.177467250823974609e+01 3.404876232147216797e+00 6.263801574707031250e+00 2.900603294372558594e+00 1.007586479187011719e+00
2.394000000000000000e+03 6.791075134277343750e+01 6.930137157440185547e+00 3.239038228988647461e+00 7.758887290954589844e+00 3.299377679824829102e+00 1.653555393218994141e+00
2.395000000000000000e+03 6.733762359619140625e+01 6.935091018676757812e+00 2.424326896667480469e+00 3.872841835021972656e+00 1.889150619506835938e+00 6.767977476119995117e-01
2.396000000000000000e+03 6.867395019531250000e+01 1.259647083282470703e+01 2.030094712972640991e-01 4.359096527099609375e+00 1.368631720542907715e+00 -2.145990848541259766e+00
2.397000000000000000e+03 6.463622093200683594e+00 -4.504418849945068359e+00 3.770625451579689980e-03 -5.894789472222328186e-03 -6.372492061927914619e-04 9.764077141880989075e-03
2.398000000000000000e+03 6.735900878906250000e+01 1.533985614776611328e+01 -1.022786378860473633e+00 3.008431911468505859e+00 5.956936478614807129e-01 -1.659918069839477539e+00
2.399000000000000000e+03 6.117497920989990234e+00 -6.162889480590820312e+00 -3.210925264284014702e-03 -4.961202852427959442e-03 -2.451638458296656609e-03 8.010179735720157623e-03
2.400000000000000000e+03 9.765196800231933594e+00 -6.479429244995117188e+00 -2.046689391136169434e-02 -6.429158616811037064e-03 -8.068815805017948151e-03 3.541411133483052254e-03
2.401000000000000000e+03 1.178313350677490234e+01 -7.249051570892333984e+00 -2.849688753485679626e-02 -1.296926010400056839e-02 -1.243984419852495193e-02 3.973098646383732557e-04
2.402000000000000000e+03 6.591131591796875000e+01 1.511884021759033203e+01 -1.433682799339294434e+00 1.270238280296325684e+00 -4.903335124254226685e-02 -1.299274682998657227e+00
2.403000000000000000e+03 6.714640045166015625e+01 1.373501491546630859e+01 -7.487839460372924805e-01 2.204015731811523438e+00 4.365695118904113770e-01 -1.194350719451904297e+00
2.404000000000000000e+03 6.698864746093750000e+01 1.438738250732421875e+01 -1.017255425453186035e+00 2.272427797317504883e+00 3.765517473220825195e-01 -1.353937745094299316e+00
2.405000000000000000e+03 4.607647895812988281e+00 -4.501554489135742188e+00 2.099538221955299377e-03 3.188316943123936653e-03 1.586356549523770809e-03 1.194773241877555847e-02
2.406000000000000000e+03 3.822786331176757812e+01 1.793782043457031250e+01 -5.858144760131835938e-01 5.605446547269821167e-02 -1.589279919862747192e-01 1.535238027572631836e-01
2.407000000000000000e+03 1.304623508453369141e+01 -7.163568019866943359e+00 -3.684227913618087769e-02 -6.972962059080600739e-03 -1.314457226544618607e-02 2.887930022552609444e-03
2.408000000000000000e+03 5.924805641174316406e+00 -4.627412319183349609e+00 -3.885326441377401352e-03 4.628421156667172909e-04 -1.026745303533971310e-03 7.392713800072669983e-03
2.409000000000000000e+03 5.952291965484619141e+00 7.929482936859130859e+00 1.405594521202147007e-03 -7.584122940897941589e-03 -1.853558584116399288e-03 1.022937335073947906e-02
2.410000000000000000e+03 7.361090183258056641e+00 9.929035186767578125e+00 1.291139703243970871e-02 -5.558797158300876617e-03 2.205780008807778358e-03 5.211784970015287399e-03
2.411000000000000000e+03 8.757083892822265625e+00 -5.662512302398681641e+00 -1.578946597874164581e-02 -9.271312505006790161e-03 -7.518233731389045715e-03 2.104843035340309143e-03
2.412000000000000000e+03 9.719723701477050781e+00 -4.605579376220703125e+00 -3.481705673038959503e-03 -1.394220348447561264e-02 -5.227172747254371643e-03 1.757499296218156815e-03
2.413000000000000000e+03 7.366815185546875000e+01 1.192652797698974609e+01 2.372897386550903320e+00 6.518098831176757812e+00 2.667298793792724609e+00 -4.304928332567214966e-02
2.414000000000000000e+03 7.507237243652343750e+01 1.175832462310791016e+01 9.489778876304626465e-01 7.722270011901855469e+00 2.601374387741088867e+00 -1.315229892730712891e+00
2.415000000000000000e+03 4.080391693115234375e+01 1.751769447326660156e+01 -7.748773694038391113e-01 1.493623554706573486e-01 -1.876544952392578125e-01 2.408737391233444214e-01
2.416000000000000000e+03 3.998399353027343750e+01 1.741990661621093750e+01 -6.782936453819274902e-01 1.185024976730346680e-01 -1.679373383522033691e-01 1.852130889892578125e-01
2.417000000000000000e+03 5.673129653930664062e+01 1.766068649291992188e+01 -1.155587553977966309e+00 4.285724163055419922e-01 -2.181045413017272949e-01 3.497561514377593994e-01
2.418000000000000000e+03 4.150916671752929688e+01 1.714200210571289062e+01 -8.389928936958312988e-01 1.720413565635681152e-01 -2.000854611396789551e-01 1.964852958917617798e-01
2.419000000000000000e+03 1.001044178009033203e+01 -5.603125095367431641e+00 -1.516098156571388245e-02 -1.511563081294298172e-02 -9.082983247935771942e-03 -3.089399542659521103e-03
2.420000000000000000e+03 7.480976581573486328e+00 -4.786667346954345703e+00 -3.409759141504764557e-03 -9.146665222942829132e-03 -3.766927402466535568e-03 4.286941140890121460e-03
2.421000000000000000e+03 7.484523773193359375e+01 1.487355899810791016e+01 -1.431754082441329956e-01 7.611243247985839844e+00 2.240420341491699219e+00 4.933656156063079834e-01
2.422000000000000000e+03 7.538307189941406250e+01 1.327960872650146484e+01 1.980640143156051636e-01 7.635757923126220703e+00 2.350146532058715820e+00 2.110373675823211670e-01
2.423000000000000000e+03 5.838957595825195312e+01 -7.245484828948974609e+00 7.844037413597106934e-01 1.280752182006835938e+00 6.195467710494995117e-01 5.985702872276306152e-01
2.424000000000000000e+03 7.451805114746093750e+01 -2.307847976684570312e+00 -8.850904703140258789e-01 4.893237590789794922e+00 1.202444195747375488e+00 7.802769541740417480e-01
2.425000000000000000e+03 2.956950378417968750e+01 -1.177026844024658203e+01 -2.278880029916763306e-01 4.552537202835083008e-02 -5.470879003405570984e-02 1.674276441335678101e-01
2.426000000000000000e+03 2.835837554931640625e+01 -1.309606266021728516e+01 -9.797192364931106567e-02 -2.600582838058471680e-01 -1.074090600013732910e-01 1.373565495014190674e-01
2.427000000000000000e+03 1.447344875335693359e+01 -8.543992996215820312e+00 -9.350147098302841187e-02 4.713686183094978333e-03 -2.663633413612842560e-02 -9.125267155468463898e-03
2.428000000000000000e+03 1.363341522216796875e+01 -6.277279853820800781e+00 -3.256183117628097534e-02 -2.092223800718784332e-02 -1.604522019624710083e-02 -6.609020754694938660e-03
2.429000000000000000e+03 4.821918010711669922e+00 -7.237162590026855469e+00 -7.397020235657691956e-03 -3.324450692161917686e-03 -3.216441255062818527e-03 4.897685721516609192e-03
2.430000000000000000e+03 4.486618041992187500e+00 9.457109451293945312e+00 4.007228184491395950e-03 -7.151637226343154907e-03 -9.433226659893989563e-04 4.677605815231800079e-03
2.431000000000000000e+03 3.623368024826049805e+00 9.319224357604980469e+00 2.028385177254676819e-03 -6.799460854381322861e-03 -1.431322656571865082e-03 5.300751421600580215e-03
2.432000000000000000e+03 8.075156211853027344e+00 1.090302944183349609e+01 7.154199760407209396e-03 -4.471345338970422745e-03 8.048563613556325436e-04 2.078814897686243057e-03
2.433000000000000000e+03 5.511246109008789062e+01 -3.045618295669555664e+00 -1.261386871337890625e-01 -4.931030869483947754e-01 -1.857725381851196289e-01 -5.321739315986633301e-01
2.434000000000000000e+03 1.434173870086669922e+01 -6.788153648376464844e+00 -3.592175990343093872e-02 -6.676540360786020756e-04 -1.097682397812604904e-02 4.809360951185226440e-03
2.435000000000000000e+03 5.248372268676757812e+01 1.870532798767089844e+01 -1.028410911560058594e+00 4.552436619997024536e-02 -2.948659658432006836e-01 1.440273523330688477e-01
2.436000000000000000e+03 7.515800476074218750e+01 -1.440879225730895996e+00 -1.354288935661315918e+00 5.746666431427001953e+00 1.317713260650634766e+00 6.406112313270568848e-01
2.437000000000000000e+03 4.115465164184570312e+01 -4.141553401947021484e+00 -1.358335465192794800e-01 -5.244800448417663574e-01 -1.980940699577331543e-01 -1.494287047535181046e-02
2.438000000000000000e+03 5.156760406494140625e+01 1.344072580337524414e+00 -1.234592318534851074e+00 3.242820501327514648e-01 -2.730931043624877930e-01 1.155814621597528458e-02
2.439000000000000000e+03 5.925249099731445312e+01 -3.463012456893920898e+00 5.760082006454467773e-01 1.011591911315917969e+00 4.762800037860870361e-01 3.225516080856323242e-01
2.440000000000000000e+03 7.581896972656250000e+01 -5.221007347106933594e+00 -7.990204542875289917e-02 7.760900974273681641e+00 2.304299592971801758e+00 1.237077832221984863e+00
2.441000000000000000e+03 6.007052421569824219e+00 1.013954353332519531e+01 1.024178322404623032e-02 -8.003314025700092316e-03 6.715407362207770348e-04 4.600181244313716888e-03
2.442000000000000000e+03 4.970124244689941406e+00 1.043846893310546875e+01 7.241349667310714722e-03 -8.936744183301925659e-03 -5.086181918159127235e-04 2.528640208765864372e-03
2.443000000000000000e+03 6.737857818603515625e+00 1.311619853973388672e+01 1.560072647407650948e-03 -6.826381199061870575e-03 -1.579892588779330254e-03 2.516361651942133904e-03
2.444000000000000000e+03 4.052138519287109375e+01 -5.084123611450195312e+00 2.407532185316085815e-01 -2.401222139596939087e-01 1.893001754069700837e-04 -2.962312996387481689e-01
2.445000000000000000e+03 7.208302307128906250e+01 -3.380691051483154297e+00 -1.149682879447937012e+00 3.492721080780029297e+00 7.029114365577697754e-01 -1.039778470993041992e+00
2.446000000000000000e+03 5.942111587524414062e+01 1.766993713378906250e+01 -1.006898522377014160e+00 3.633478283882141113e-01 -1.930652111768722534e-01 3.012880086898803711e-01
2.447000000000000000e+03 6.125117111206054688e+01 1.892964553833007812e+01 -4.303602278232574463e-01 4.859821498394012451e-01 1.668657548725605011e-02 -1.031390056014060974e-01
2.448000000000000000e+03 7.388986968994140625e+01 1.242340660095214844e+01 1.956078052520751953e+00 7.184258460998535156e+00 2.742100954055786133e+00 2.894099950790405273e-01
2.449000000000000000e+03 5.292519092559814453e+00 9.721043586730957031e+00 3.501819679513573647e-03 -8.447435684502124786e-03 -1.483684871345758438e-03 6.934449542313814163e-03
2.450000000000000000e+03 5.704308319091796875e+01 -4.054612636566162109e+00 5.555829405784606934e-01 -8.236014097929000854e-02 1.419668346643447876e-01 -1.159323751926422119e-01
2.451000000000000000e+03 6.312801361083984375e+01 -1.768062782287597656e+01 -5.626582503318786621e-01 1.995740532875061035e+00 4.299246668815612793e-01 -2.454627007246017456e-01
2.452000000000000000e+03 3.733204269409179688e+01 1.972924423217773438e+01 -4.221337437629699707e-01 -1.692228205502033234e-02 -1.317168027162551880e-01 2.460955083370208740e-01
2.453000000000000000e+03 3.459965133666992188e+01 1.924228858947753906e+01 -3.576272130012512207e-01 -7.480701804161071777e-02 -1.297302693128585815e-01 2.209799140691757202e-01
2.454000000000000000e+03 2.000705337524414062e+01 -1.321366691589355469e+01 -2.613126039505004883e-01 -1.720083057880401611e-01 -1.299962699413299561e-01 -2.706557512283325195e-01
2.455000000000000000e+03 1.213812255859375000e+01 1.593490314483642578e+01 -2.527327463030815125e-02 4.309627227485179901e-03 -6.289094220846891403e-03 1.355073228478431702e-02
2.456000000000000000e+03 7.599652862548828125e+01 -1.737875175476074219e+01 -2.393865883350372314e-01 7.742846012115478516e+00 2.251037836074829102e+00 -2.158191055059432983e-02
2.457000000000000000e+03 7.464066314697265625e+01 -1.833993721008300781e+01 -5.804175138473510742e-01 7.343626499176025391e+00 2.028962612152099609e+00 3.290211558341979980e-01
2.458000000000000000e+03 6.307081985473632812e+01 -1.564496707916259766e+01 -9.389225244522094727e-01 2.133215188980102539e+00 3.582877814769744873e-01 -1.255811005830764771e-01
2.459000000000000000e+03 6.480154418945312500e+01 1.752098274230957031e+01 -5.265914797782897949e-01 1.116071105003356934e+00 1.768438667058944702e-01 -1.076557755470275879e+00
2.460000000000000000e+03 4.485921382904052734e+00 2.035657882690429688e+01 -7.947703823447227478e-03 -2.044856548309326172e-02 -8.518881164491176605e-03 1.305176876485347748e-02
2.461000000000000000e+03 5.509587287902832031e+00 2.157287788391113281e+01 -1.043492276221513748e-02 -2.551880106329917908e-02 -1.078611705452203751e-02 2.032164856791496277e-02
2.462000000000000000e+03 4.836119174957275391e+00 2.545344543457031250e+01 -6.227461155503988266e-03 -4.310559108853340149e-02 -1.479991525411605835e-02 2.820976451039314270e-02
2.463000000000000000e+03 3.998274993896484375e+01 -8.301090240478515625e+00 5.121775269508361816e-01 1.497598737478256226e-01 1.985812187194824219e-01 -5.250504016876220703e-01
2.464000000000000000e+03 3.297665023803710938e+01 -1.912615203857421875e+01 -2.703063488006591797e-01 1.259738802909851074e-01 -4.329974576830863953e-02 -1.613974422216415405e-01
2.465000000000000000e+03 1.936139488220214844e+01 -1.201130294799804688e+01 -3.554014563560485840e-01 -4.716992750763893127e-02 -1.207714155316352844e-01 -2.240258157253265381e-01
2.466000000000000000e+03 6.704623413085937500e+01 1.997976064682006836e+00 4.002072215080261230e-01 5.290186405181884766e+00 1.707118034362792969e+00 2.990928173065185547e+00
2.467000000000000000e+03 4.325107574462890625e+00 1.465268611907958984e+01 -1.003823708742856979e-03 -1.005750894546508789e-02 -3.318399656563997269e-03 1.619591610506176949e-03
2.468000000000000000e+03 7.590896606445312500e+01 1.952047538757324219e+01 -3.569096326828002930e-01 7.245916843414306641e+00 2.066702127456665039e+00 3.922471404075622559e-02
2.469000000000000000e+03 7.452688598632812500e+01 2.059715270996093750e+01 -4.215811491012573242e-01 6.812524795532226562e+00 1.917283058166503906e+00 -2.211586385965347290e-01
2.470000000000000000e+03 1.500741100311279297e+01 2.192026519775390625e+01 -7.065218687057495117e-02 -1.837894879281520844e-02 -2.670934051275253296e-02 8.142880350351333618e-02
2.471000000000000000e+03 1.885900115966796875e+01 2.079360771179199219e+01 -1.135585457086563110e-01 -2.636387385427951813e-02 -4.197672381997108459e-02 1.134166195988655090e-01
2.472000000000000000e+03 4.970107078552246094e+00 -6.221644878387451172e+00 -5.390537437051534653e-03 1.902387128211557865e-03 -1.046445104293525219e-03 8.552997373044490814e-03
2.473000000000000000e+03 5.092714309692382812e+00 2.676961326599121094e+01 -4.939637146890163422e-03 -5.018335208296775818e-02 -1.653689704835414886e-02 3.121649287641048431e-02
2.474000000000000000e+03 6.450445175170898438e+00 2.633863830566406250e+01 -8.088059723377227783e-03 -4.910553619265556335e-02 -1.715807989239692688e-02 3.918712958693504333e-02
2.475000000000000000e+03 4.947391891479492188e+01 -2.539304161071777344e+01 1.201203539967536926e-01 5.083166956901550293e-01 1.885311156511306763e-01 -1.365940421819686890e-01
2.476000000000000000e+03 4.904859542846679688e+00 -1.645473480224609375e+01 -1.816601678729057312e-02 -5.408311262726783752e-02 -2.167473919689655304e-02 -5.480475351214408875e-02
2.477000000000000000e+03 7.441764068603515625e+01 -2.489055061340332031e+01 3.835792466998100281e-02 5.642245292663574219e+00 1.704180955886840820e+00 6.809005141258239746e-01
2.478000000000000000e+03 7.395210266113281250e+01 -2.724758529663085938e+01 1.293212473392486572e-01 5.351686954498291016e+00 1.644302368164062500e+00 6.758352518081665039e-01
2.479000000000000000e+03 6.663758850097656250e+01 1.592426490783691406e+01 -1.049861192703247070e+00 2.240598917007446289e+00 3.572213053703308105e-01 -1.623119115829467773e+00
2.480000000000000000e+03 6.581838989257812500e+01 1.782367515563964844e+01 -5.316214561462402344e-01 1.979406476020812988e+00 4.343355298042297363e-01 -1.325676083564758301e+00
2.481000000000000000e+03 5.287732315063476562e+01 -1.813761711120605469e+00 -1.112021565437316895e+00 1.253746300935745239e-01 -2.959940731525421143e-01 -6.435058116912841797e-01
2.482000000000000000e+03 7.460792541503906250e+01 -2.835639381408691406e+01 1.509800106287002563e-01 5.510106563568115234e+00 1.698325872421264648e+00 5.782542228698730469e-01
2.483000000000000000e+03 2.641180801391601562e+01 2.205691909790039062e+01 -1.601417809724807739e-01 -8.326562494039535522e-02 -7.302222400903701782e-02 1.798420250415802002e-01
2.484000000000000000e+03 5.822494888305664062e+01 -2.621022415161132812e+01 2.292917817831039429e-01 1.546039819717407227e+00 5.325995087623596191e-01 8.078805357217788696e-02
2.485000000000000000e+03 5.905152130126953125e+01 -2.469958686828613281e+01 8.026248961687088013e-02 1.702293872833251953e+00 5.347669124603271484e-01 4.387304186820983887e-02
2.486000000000000000e+03 8.037094116210937500e+00 -2.746094703674316406e+01 1.295377686619758606e-02 -1.867322623729705811e-01 -5.213354527950286865e-02 -1.121814548969268799e-01
2.487000000000000000e+03 3.921965789794921875e+01 -2.308588600158691406e+01 -6.921482086181640625e-02 -1.846251487731933594e-01 -7.615198940038681030e-02 -3.971281945705413818e-01
2.488000000000000000e+03 3.340600585937500000e+01 -2.198704910278320312e+01 -1.710757464170455933e-01 3.408146649599075317e-02 -4.109828174114227295e-02 -2.615942656993865967e-01
2.489000000000000000e+03 7.512098789215087891e+00 -3.220792770385742188e+01 2.845631912350654602e-02 -2.334692925214767456e-01 -6.150389462709426880e-02 -8.555141836404800415e-02
2.490000000000000000e+03 6.726743698120117188e+00 -1.175847339630126953e+01 -3.548523411154747009e-02 -2.110757119953632355e-02 -1.697784103453159332e-02 -3.052673675119876862e-02
2.491000000000000000e+03 5.084270477294921875e+00 -9.409382820129394531e+00 -1.452442537993192673e-02 -8.204096928238868713e-03 -6.818556692451238632e-03 -4.546766169369220734e-03
2.492000000000000000e+03 1.644624137878417969e+01 -9.203643798828125000e+00 -1.725319325923919678e-01 2.723325602710247040e-02 -4.358960315585136414e-02 -2.648801915347576141e-02
2.493000000000000000e+03 1.780348014831542969e+01 -1.160600471496582031e+01 -2.801385223865509033e-01 -1.103710103780031204e-02 -8.735269308090209961e-02 -1.481897979974746704e-01
2.494000000000000000e+03 7.205346584320068359e+00 -2.308912849426269531e+01 -6.803706288337707520e-03 -1.390309035778045654e-01 -4.375038295984268188e-02 -1.088197603821754456e-01
2.495000000000000000e+03 4.918914413452148438e+01 -1.824000930786132812e+01 -4.785920381546020508e-01 6.490733027458190918e-01 5.114437639713287354e-02 -1.395561397075653076e-01
2.496000000000000000e+03 4.895619583129882812e+01 -2.236227416992187500e+01 -1.640121340751647949e-01 4.710247516632080078e-01 9.210378676652908325e-02 -1.730765700340270996e-01
2.497000000000000000e+03 6.995457458496093750e+01 1.287347602844238281e+01 -6.853574514389038086e-01 8.389884948730468750e+00 2.311358213424682617e+00 -1.756990432739257812e+00
2.498000000000000000e+03 7.260123443603515625e+01 1.206051063537597656e+01 2.751484155654907227e+00 7.406197547912597656e+00 3.047304391860961914e+00 1.686747193336486816e+00
2.499000000000000000e+03 7.292064666748046875e+01 1.249197387695312500e+01 1.754972100257873535e+00 7.438786983489990234e+00 2.758127689361572266e+00 1.064755439758300781e+00
2.500000000000000000e+03 7.111016082763671875e+01 1.256990814208984375e+01 -2.153300493955612183e-01 1.041404914855957031e+01 3.059615850448608398e+00 6.707631945610046387e-01
2.501000000000000000e+03 7.087786865234375000e+01 1.254288673400878906e+01 -3.886944353580474854e-01 1.028364753723144531e+01 2.968485832214355469e+00 1.404315084218978882e-01
2.502000000000000000e+03 7.355335998535156250e+01 1.127526855468750000e+01 3.810737133026123047e+00 5.594222545623779297e+00 2.821487903594970703e+00 -7.371862530708312988e-01
2.503000000000000000e+03 7.167777252197265625e+01 1.354363536834716797e+01 -3.054073154926300049e-01 8.706452369689941406e+00 2.520313501358032227e+00 4.718815982341766357e-01
2.504000000000000000e+03 6.818720245361328125e+01 1.298272228240966797e+01 -6.344444304704666138e-02 3.384599208831787109e+00 9.963464736938476562e-01 -1.712575435638427734e+00
2.505000000000000000e+03 6.753623199462890625e+01 1.462830352783203125e+01 -9.308134317398071289e-01 3.152646303176879883e+00 6.665498614311218262e-01 -1.611891508102416992e+00
2.506000000000000000e+03 6.772899627685546875e+01 1.335280227661132812e+01 -3.661528229713439941e-01 2.796838998794555664e+00 7.292058467864990234e-01 -1.442924380302429199e+00
2.507000000000000000e+03 1.074433231353759766e+01 -5.789050102233886719e+00 -1.402336638420820236e-02 -6.127106025815010071e-03 -6.045141723006963730e-03 6.591130979359149933e-03
2.508000000000000000e+03 1.237104701995849609e+01 -7.904045104980468750e+00 -6.289874762296676636e-02 -1.365489885210990906e-02 -2.296609431505203247e-02 -1.431606430560350418e-02
2.509000000000000000e+03 1.371284294128417969e+01 -7.812027454376220703e+00 -6.888520717620849609e-02 -1.726388372480869293e-02 -2.584472671151161194e-02 -1.294636446982622147e-02
2.510000000000000000e+03 5.742917251586914062e+01 1.669126701354980469e+01 -1.311987042427062988e+00 4.499177038669586182e-01 -2.586207985877990723e-01 3.409327268600463867e-01
2.511000000000000000e+03 3.915654754638671875e+01 1.752496719360351562e+01 -6.225948333740234375e-01 8.744813501834869385e-02 -1.605440080165863037e-01 1.796500384807586670e-01
2.512000000000000000e+03 9.342223167419433594e+00 -5.190116882324218750e+00 -2.051819581538438797e-03 -8.083228953182697296e-03 -3.040514420717954636e-03 5.999312270432710648e-03
2.513000000000000000e+03 5.792053222656250000e+01 1.573767852783203125e+01 -1.489255785942077637e+00 4.463433623313903809e-01 -3.128737211227416992e-01 3.026664555072784424e-01
2.514000000000000000e+03 6.775635528564453125e+01 1.756015014648437500e+01 -7.663044929504394531e-01 3.627762317657470703e+00 8.584373593330383301e-01 -1.600769639015197754e+00
2.515000000000000000e+03 6.678446197509765625e+01 1.509904670715332031e+01 -1.129295349121093750e+00 2.268022775650024414e+00 3.416182100772857666e-01 -1.536384105682373047e+00
2.516000000000000000e+03 1.061080932617187500e+01 -6.654445648193359375e+00 -2.530159987509250641e-02 -1.854147948324680328e-02 -1.315292436629533768e-02 -4.964839667081832886e-03
2.517000000000000000e+03 6.639660358428955078e+00 -5.798416137695312500e+00 -1.135242078453302383e-02 -4.876709077507257462e-03 -4.868738818913698196e-03 4.056400619447231293e-03
2.518000000000000000e+03 3.883259963989257812e+01 1.938588905334472656e+01 -5.293765664100646973e-01 3.977277129888534546e-02 -1.468811333179473877e-01 2.751207649707794189e-01
2.519000000000000000e+03 7.517765998840332031e+00 -7.979580402374267578e+00 -2.362172491848468781e-02 -6.375579629093408585e-03 -8.999191224575042725e-03 -1.244494225829839706e-03
2.520000000000000000e+03 3.977285385131835938e+01 -5.766805648803710938e+00 4.463500678539276123e-01 -7.845977321267127991e-03 1.315512210130691528e-01 -4.317346811294555664e-01
2.521000000000000000e+03 6.764765167236328125e+01 1.394005584716796875e+01 -6.895755529403686523e-01 3.047631978988647461e+00 7.074169516563415527e-01 -1.539348483085632324e+00
2.522000000000000000e+03 1.137904453277587891e+01 -6.590776443481445312e+00 -3.524838015437126160e-02 -7.899150252342224121e-03 -1.294425874948501587e-02 -1.960529945790767670e-03
2.523000000000000000e+03 6.573589324951171875e+01 1.904528236389160156e+01 -3.447796106338500977e-01 2.113364696502685547e+00 5.305755138397216797e-01 -1.240656375885009766e+00
2.524000000000000000e+03 6.633563995361328125e+00 1.078151321411132812e+01 5.432342179119586945e-03 -8.578925393521785736e-03 -9.439749410375952721e-04 2.545171882957220078e-03
2.525000000000000000e+03 7.399502563476562500e+01 1.512139320373535156e+01 -3.114334940910339355e-01 7.788400173187255859e+00 2.243089914321899414e+00 4.391602575778961182e-01
2.526000000000000000e+03 7.187632751464843750e+01 1.308531284332275391e+01 1.171373575925827026e-01 8.978027343750000000e+00 2.728549242019653320e+00 9.398647546768188477e-01
2.527000000000000000e+03 2.883284187316894531e+01 -1.484328556060791016e+01 -1.253035366535186768e-01 -1.219009459018707275e-01 -7.416134327650070190e-02 1.212608814239501953e-01
2.528000000000000000e+03 2.917368698120117188e+01 -1.249855804443359375e+01 -1.251978576183319092e-01 -9.279770404100418091e-02 -6.539866328239440918e-02 1.712934374809265137e-01
2.529000000000000000e+03 7.367126464843750000e+01 1.730653190612792969e+01 -7.055586576461791992e-01 7.261815071105957031e+00 1.966876983642578125e+00 -1.996959187090396881e-02
2.530000000000000000e+03 7.393685150146484375e+01 1.615440177917480469e+01 -5.506454706192016602e-01 7.521276950836181641e+00 2.091189384460449219e+00 2.690568864345550537e-01
2.531000000000000000e+03 5.167503356933593750e+01 1.974094581604003906e+01 -7.287580966949462891e-01 -1.227646023035049438e-01 -2.554568052291870117e-01 2.232936173677444458e-01
2.532000000000000000e+03 6.590946960449218750e+01 1.678021430969238281e+01 -7.294845581054687500e-01 1.764167308807373047e+00 3.104048073291778564e-01 -1.431866049766540527e+00
2.533000000000000000e+03 5.865271091461181641e+00 1.143958759307861328e+01 5.935044027864933014e-03 -7.398860994726419449e-03 -4.391451075207442045e-04 3.521362785249948502e-03
2.534000000000000000e+03 5.470544338226318359e+00 1.079076862335205078e+01 3.320296062156558037e-03 -8.826103992760181427e-03 -1.651742495596408844e-03 2.646369626745581627e-03
2.535000000000000000e+03 5.499155426025390625e+01 1.767878532409667969e+01 -1.224483132362365723e+00 3.475065529346466064e-01 -2.630929648876190186e-01 3.130202591419219971e-01
2.536000000000000000e+03 5.583499908447265625e+01 1.686429977416992188e+01 -1.267620205879211426e+00 3.891387581825256348e-01 -2.635444104671478271e-01 3.309273421764373779e-01
2.537000000000000000e+03 7.290126037597656250e+01 -2.514584541320800781e+00 -1.170137286186218262e+00 3.142049074172973633e+00 5.915735363960266113e-01 -9.513148069381713867e-01
2.538000000000000000e+03 7.385739135742187500e+01 -3.420064210891723633e+00 -5.302073955535888672e-01 4.512161254882812500e+00 1.194586157798767090e+00 7.271234691143035889e-02
2.539000000000000000e+03 3.552170562744140625e+01 2.100537109375000000e+01 -3.015802800655364990e-01 -6.080781295895576477e-02 -1.087164357304573059e-01 2.605345547199249268e-01
2.540000000000000000e+03 2.768142127990722656e+01 -1.478692245483398438e+01 -4.375231638550758362e-02 -3.097719550132751465e-01 -1.060572788119316101e-01 5.726483464241027832e-02
2.541000000000000000e+03 1.223482704162597656e+01 1.709362983703613281e+01 -3.438835591077804565e-02 3.459807485342025757e-03 -9.278564713895320892e-03 1.814507506787776947e-02
2.542000000000000000e+03 1.149650859832763672e+01 1.484663391113281250e+01 -1.554380636662244797e-02 4.222834948450326920e-03 -3.396291285753250122e-03 7.548885419964790344e-03
2.543000000000000000e+03 4.488644790649414062e+01 1.803810882568359375e+01 -1.066415190696716309e+00 2.513173501938581467e-03 -3.191706240177154541e-01 4.199784696102142334e-01
2.544000000000000000e+03 2.008478355407714844e+01 2.151881980895996094e+01 -1.159039810299873352e-01 -4.642036557197570801e-02 -4.869730398058891296e-02 1.323800235986709595e-01
2.545000000000000000e+03 5.932827472686767578e+00 1.370848464965820312e+01 -3.719830128829926252e-04 -9.890796616673469543e-03 -3.078833920881152153e-03 1.645698677748441696e-03
2.546000000000000000e+03 7.181797790527343750e+01 -2.083632469177246094e+01 -4.337119460105895996e-01 4.785906314849853516e+00 1.305658340454101562e+00 1.323842406272888184e+00
2.547000000000000000e+03 7.441547393798828125e+01 -2.086252212524414062e+01 -5.168331861495971680e-01 6.283111572265625000e+00 1.729883551597595215e+00 8.603821396827697754e-01
2.548000000000000000e+03 6.292107772827148438e+01 -1.486390209197998047e+01 -8.541769385337829590e-01 2.242216110229492188e+00 4.164117276668548584e-01 -6.162921432405710220e-03
2.549000000000000000e+03 5.936269378662109375e+01 -1.723605155944824219e+01 -3.370122015476226807e-01 2.040814399719238281e+00 5.111407041549682617e-01 -1.306729465723037720e-01
2.550000000000000000e+03 6.203830718994140625e+01 -1.765089416503906250e+01 -6.100505590438842773e-01 2.048052072525024414e+00 4.314004480838775635e-01 -2.361563742160797119e-01
2.551000000000000000e+03 8.114737510681152344e+00 2.247359657287597656e+01 -1.880569569766521454e-02 -2.792343683540821075e-02 -1.401873957365751266e-02 3.423962742090225220e-02
2.552000000000000000e+03 8.869174003601074219e+00 2.486203384399414062e+01 -1.691931672394275665e-02 -4.124367609620094299e-02 -1.744889840483665466e-02 4.875279963016510010e-02
2.553000000000000000e+03 1.541286468505859375e+01 -9.022189140319824219e+00 -1.259876489639282227e-01 -1.703150384128093719e-02 -4.290574789047241211e-02 -2.376171760261058807e-02
2.554000000000000000e+03 1.589883327484130859e+01 -7.798104286193847656e+00 -7.882802933454513550e-02 1.068005897104740143e-02 -2.044439129531383514e-02 4.239246249198913574e-03
2.555000000000000000e+03 1.876098823547363281e+01 2.244529724121093750e+01 -9.672892838716506958e-02 -4.131894558668136597e-02 -4.141436144709587097e-02 1.277230083942413330e-01
2.556000000000000000e+03 1.789211273193359375e+01 -1.426305580139160156e+01 -1.990203857421875000e-01 -1.232921406626701355e-01 -9.669376164674758911e-02 -2.216466367244720459e-01
2.557000000000000000e+03 1.945250129699707031e+01 -1.521394920349121094e+01 -1.702852398157119751e-01 -2.084090858697891235e-01 -1.136083006858825684e-01 -2.670293152332305908e-01
2.558000000000000000e+03 2.372710800170898438e+01 -1.387024402618408203e+01 -5.849879607558250427e-02 -6.470520496368408203e-01 -2.116652578115463257e-01 -2.816965579986572266e-01
2.559000000000000000e+03 2.185551643371582031e+01 -1.373158359527587891e+01 -2.124511003494262695e-01 -3.464765250682830811e-01 -1.676782816648483276e-01 -3.350392282009124756e-01
2.560000000000000000e+03 1.637610244750976562e+01 -1.022423839569091797e+01 -1.875120550394058228e-01 -1.252904348075389862e-02 -6.001232936978340149e-02 -5.985541641712188721e-02
2.561000000000000000e+03 6.443889617919921875e+01 2.019679450988769531e+01 -1.370279043912887573e-01 1.626877665519714355e+00 4.469549357891082764e-01 -9.077719449996948242e-01
2.562000000000000000e+03 7.656217956542968750e+01 -2.660362243652343750e+01 7.661001384258270264e-02 6.381746768951416016e+00 1.937507033348083496e+00 4.712136983871459961e-01
2.563000000000000000e+03 6.270413208007812500e+01 -1.689537429809570312e+01 -6.615239977836608887e-01 2.026972055435180664e+00 4.096343815326690674e-01 -2.841988205909729004e-01
2.564000000000000000e+03 3.025657081604003906e+01 -1.586684703826904297e+01 -1.837842762470245361e-01 6.921990215778350830e-02 -3.436931222677230835e-02 7.943630963563919067e-02
2.565000000000000000e+03 2.255456352233886719e+01 2.093106460571289062e+01 -1.425005942583084106e-01 -7.460001856088638306e-02 -6.513018161058425903e-02 1.467562466859817505e-01
2.566000000000000000e+03 4.514205932617187500e+01 -2.255654335021972656e+01 -1.395018994808197021e-01 1.248188540339469910e-01 -4.404912237077951431e-03 -1.070376485586166382e-01
2.567000000000000000e+03 4.774275588989257812e+01 -2.105998229980468750e+01 -3.154980242252349854e-01 4.832058846950531006e-01 5.031236261129379272e-02 -1.154861375689506531e-01
2.568000000000000000e+03 7.481658935546875000e+01 1.845826721191406250e+01 -5.503061413764953613e-01 7.241027355194091797e+00 2.007216453552246094e+00 5.050182715058326721e-02
2.569000000000000000e+03 4.633895492553710938e+01 -2.484013938903808594e+01 7.755453139543533325e-02 2.534451186656951904e-01 9.929989278316497803e-02 -1.349057257175445557e-01
2.570000000000000000e+03 6.491278839111328125e+01 -1.997994232177734375e+01 -1.116175949573516846e-01 1.857375860214233398e+00 5.237274765968322754e-01 -1.125650405883789062e-01
2.571000000000000000e+03 9.060384750366210938e+00 -1.722426033020019531e+01 -4.454224184155464172e-02 -8.316662907600402832e-02 -3.831266239285469055e-02 -1.025554388761520386e-01
2.572000000000000000e+03 7.489006996154785156e+00 -1.632630348205566406e+01 -3.448060899972915649e-02 -6.637280434370040894e-02 -3.025602363049983978e-02 -7.781117409467697144e-02
2.573000000000000000e+03 6.004133987426757812e+01 1.947972488403320312e+01 -4.761016070842742920e-01 5.783582925796508789e-01 3.067701496183872223e-02 4.804476723074913025e-02
2.574000000000000000e+03 1.649237442016601562e+01 -1.116418361663818359e+01 -2.097026854753494263e-01 -3.681282978504896164e-03 -6.401519477367401123e-02 -9.287184476852416992e-02
2.575000000000000000e+03 6.963981628417968750e+01 1.307071495056152344e+01 -5.951227545738220215e-01 7.258314609527587891e+00 1.998957514762878418e+00 -1.971721053123474121e+00
2.576000000000000000e+03 7.072280883789062500e+01 1.279850292205810547e+01 -7.409822344779968262e-01 9.827899932861328125e+00 2.726075172424316406e+00 -4.112884700298309326e-01
2.577000000000000000e+03 7.260813903808593750e+01 1.283473682403564453e+01 1.149467349052429199e+00 8.076041221618652344e+00 2.767652511596679688e+00 1.249698996543884277e+00
2.578000000000000000e+03 7.102845001220703125e+01 1.344399738311767578e+01 -7.168701291084289551e-01 8.856787681579589844e+00 2.441975116729736328e+00 -1.434248834848403931e-01
2.579000000000000000e+03 7.054769897460937500e+01 1.260203456878662109e+01 -7.032763361930847168e-01 1.019019699096679688e+01 2.846076250076293945e+00 -7.852302789688110352e-01
2.580000000000000000e+03 7.325809478759765625e+01 1.215319538116455078e+01 2.665630817413330078e+00 6.865428447723388672e+00 2.859317779541015625e+00 6.476016044616699219e-01
2.581000000000000000e+03 7.007524871826171875e+01 1.236329936981201172e+01 -5.336575508117675781e-01 9.558566093444824219e+00 2.707472562789916992e+00 -1.853649139404296875e+00
2.582000000000000000e+03 7.420857238769531250e+01 1.301400279998779297e+01 7.672219276428222656e-01 7.477804660797119141e+00 2.473507881164550781e+00 3.212322592735290527e-01
2.583000000000000000e+03 6.532401084899902344e+00 -6.785266876220703125e+00 -1.637836545705795288e-02 -4.834930878132581711e-03 -6.363988853991031647e-03 2.321011852473020554e-03
2.584000000000000000e+03 6.793843841552734375e+01 1.561748123168945312e+01 -9.789946675300598145e-01 3.850316047668457031e+00 8.613964319229125977e-01 -1.707274556159973145e+00
2.585000000000000000e+03 6.835433197021484375e+01 1.677301979064941406e+01 -9.525545239448547363e-01 4.312215328216552734e+00 1.007898211479187012e+00 -1.634823560714721680e+00
2.586000000000000000e+03 6.851976776123046875e+01 1.350599575042724609e+01 -4.388428330421447754e-01 4.483081340789794922e+00 1.213271498680114746e+00 -1.928031682968139648e+00
2.587000000000000000e+03 6.809867095947265625e+01 1.490843582153320312e+01 -9.544299840927124023e-01 4.010784626007080078e+00 9.169064164161682129e-01 -1.731108546257019043e+00
2.588000000000000000e+03 7.683298587799072266e+00 -5.799050331115722656e+00 -1.312734372913837433e-02 -9.716571308672428131e-03 -6.853174883872270584e-03 3.282691119238734245e-03
2.589000000000000000e+03 8.755985260009765625e+00 -7.254183769226074219e+00 -2.504333481192588806e-02 -5.276013165712356567e-03 -9.095804765820503235e-03 2.432378474622964859e-03
2.590000000000000000e+03 7.120481967926025391e+00 -5.346040248870849609e+00 -2.634034026414155960e-03 -3.552345559000968933e-03 -1.855913898907601833e-03 8.918994106352329254e-03
2.591000000000000000e+03 1.043479442596435547e+01 -7.573987483978271484e+00 -3.342632204294204712e-02 -7.511262316256761551e-03 -1.228127535432577133e-02 -7.937857299111783504e-04
2.592000000000000000e+03 7.891079425811767578e+00 -6.990180492401123047e+00 -1.922148652374744415e-02 -1.351512968540191650e-02 -9.820984676480293274e-03 -1.972171710804104805e-03
2.593000000000000000e+03 5.793681144714355469e+00 -6.658617973327636719e+00 -9.231943637132644653e-03 -7.512003649026155472e-03 -5.023184232413768768e-03 5.547130014747381210e-03
2.594000000000000000e+03 6.243455886840820312e+00 -9.252524375915527344e+00 -2.438552863895893097e-02 -9.564932435750961304e-03 -1.018513832241296768e-02 -8.205400779843330383e-03
2.595000000000000000e+03 4.136500549316406250e+01 2.000971221923828125e+01 -6.097905039787292480e-01 4.809726029634475708e-02 -1.685079783201217651e-01 3.891204893589019775e-01
2.596000000000000000e+03 5.771171569824218750e+01 1.843826103210449219e+01 -8.887748122215270996e-01 4.389710426330566406e-01 -1.349411308765411377e-01 2.983687818050384521e-01
2.597000000000000000e+03 7.124783325195312500e+01 1.296104907989501953e+01 -3.979861438274383545e-01 9.535108566284179688e+00 2.741136789321899414e+00 4.294165372848510742e-01
2.598000000000000000e+03 6.731349182128906250e+01 1.673019409179687500e+01 -9.087281227111816406e-01 3.078817605972290039e+00 6.510268449783325195e-01 -1.700464010238647461e+00
2.599000000000000000e+03 7.428656768798828125e+01 2.178379631042480469e+01 -3.519232869148254395e-01 6.570035934448242188e+00 1.865433812141418457e+00 -3.757484853267669678e-01
2.600000000000000000e+03 5.593116760253906250e+01 1.856168937683105469e+01 -9.627621173858642578e-01 3.589365482330322266e-01 -1.811476647853851318e-01 2.744305729866027832e-01
2.601000000000000000e+03 6.172895908355712891e+00 2.507608413696289062e+01 -9.803898632526397705e-03 -4.130420833826065063e-02 -1.533243153244256973e-02 3.354589641094207764e-02
2.602000000000000000e+03 6.906565189361572266e+00 2.230752944946289062e+01 -1.542518567293882370e-02 -2.705467492341995239e-02 -1.274395827203989029e-02 2.799677848815917969e-02
2.603000000000000000e+03 4.856444549560546875e+01 2.128461647033691406e+01 -4.552563130855560303e-01 -2.927571535110473633e-01 -2.244040369987487793e-01 4.184504449367523193e-01
2.604000000000000000e+03 6.557762908935546875e+01 2.194055747985839844e+01 -5.865629017353057861e-02 2.494099140167236328e+00 7.306329011917114258e-01 -9.846460819244384766e-01
2.605000000000000000e+03 6.323585891723632812e+01 2.143543815612792969e+01 -1.423863507807254791e-02 1.430641293525695801e+00 4.249207675457000732e-01 -6.650403141975402832e-01
2.606000000000000000e+03 1.294980621337890625e+01 -8.676512718200683594e+00 -6.926865130662918091e-02 -8.342931047081947327e-03 -2.328347414731979370e-02 -8.916227146983146667e-03
2.607000000000000000e+03 1.567100906372070312e+01 -1.141431522369384766e+01 -1.900829672813415527e-01 -1.786090806126594543e-02 -6.238316372036933899e-02 -9.322715550661087036e-02
2.608000000000000000e+03 7.301415252685546875e+01 1.848395919799804688e+01 -7.473686337471008301e-01 6.833956718444824219e+00 1.825976490974426270e+00 -3.173388540744781494e-01
2.609000000000000000e+03 6.523626327514648438e+00 2.118922042846679688e+01 -1.402580551803112030e-02 -2.334959618747234344e-02 -1.121262088418006897e-02 2.230858430266380310e-02
2.610000000000000000e+03 4.205771636962890625e+01 1.796433639526367188e+01 -7.807911038398742676e-01 1.148941516876220703e-01 -1.997690796852111816e-01 3.192426860332489014e-01
2.611000000000000000e+03 2.603916358947753906e+01 -1.414045429229736328e+01 1.606678590178489685e-03 -5.164609551429748535e-01 -1.544562727212905884e-01 -3.987339325249195099e-03
2.612000000000000000e+03 3.301119613647460938e+01 2.139253997802734375e+01 -2.380142509937286377e-01 -7.287417352199554443e-02 -9.326652437448501587e-02 2.598892152309417725e-01
2.613000000000000000e+03 5.350141906738281250e+01 1.952259635925292969e+01 -8.099382519721984863e-01 1.299067139625549316e-01 -2.040094584226608276e-01 2.351560443639755249e-01
2.614000000000000000e+03 3.895335388183593750e+01 -5.143910408020019531e+00 5.141067504882812500e-01 2.486731410026550293e-01 2.288339734077453613e-01 -5.112390518188476562e-01
2.615000000000000000e+03 6.178845977783203125e+01 2.027583312988281250e+01 -2.065149247646331787e-01 8.099661469459533691e-01 1.810353696346282959e-01 -3.101823627948760986e-01
2.616000000000000000e+03 1.741816329956054688e+01 -1.323049259185791016e+01 -2.358314096927642822e-01 -5.594010278582572937e-02 -8.753145486116409302e-02 -1.812259256839752197e-01
2.617000000000000000e+03 1.571759033203125000e+01 -1.378232765197753906e+01 -1.815440803766250610e-01 -6.588227301836013794e-02 -7.422790676355361938e-02 -1.591434180736541748e-01
2.618000000000000000e+03 1.687154769897460938e+01 -1.221189498901367188e+01 -2.173553109169006348e-01 -4.068791121244430542e-02 -7.741296291351318359e-02 -1.378122419118881226e-01
2.619000000000000000e+03 2.858424377441406250e+01 -1.719833374023437500e+01 -1.103992164134979248e-01 -1.038011610507965088e-01 -6.426011025905609131e-02 9.757994674146175385e-03
2.620000000000000000e+03 7.291228485107421875e+01 -4.364281654357910156e+00 -6.973356604576110840e-01 4.401821136474609375e+00 1.111345648765563965e+00 -2.539917826652526855e-01
2.621000000000000000e+03 4.704866027832031250e+01 -1.682838630676269531e+01 -4.220641255378723145e-01 6.042987108230590820e-01 5.467038229107856750e-02 -1.183214858174324036e-01
2.622000000000000000e+03 1.797453498840332031e+01 2.568172836303710938e+01 -3.940479084849357605e-02 -7.062751054763793945e-02 -3.300969302654266357e-02 1.301863193511962891e-01
2.623000000000000000e+03 5.325662612915039062e+01 1.778644561767578125e+01 -1.247940301895141602e+00 1.719858348369598389e-01 -3.227863609790802002e-01 2.792968451976776123e-01
2.624000000000000000e+03 3.979134750366210938e+01 2.094186973571777344e+01 -4.477356970310211182e-01 4.208754689898341894e-04 -1.341944485902786255e-01 3.321863710880279541e-01
2.625000000000000000e+03 3.977254486083984375e+01 1.844501686096191406e+01 -6.631458997726440430e-01 8.852740377187728882e-02 -1.723855435848236084e-01 2.430597692728042603e-01
2.626000000000000000e+03 9.640085220336914062e+00 1.294976234436035156e+01 2.950416819658130407e-04 -6.936931167729198933e-04 -1.195954391732811928e-04 3.636787645518779755e-03
2.627000000000000000e+03 3.031220626831054688e+01 2.162898445129394531e+01 -2.242863327264785767e-01 -5.989785119891166687e-02 -8.525525778532028198e-02 2.291903793811798096e-01
2.628000000000000000e+03 2.867057418823242188e+01 2.105259132385253906e+01 -2.272939234972000122e-01 -5.664470419287681580e-02 -8.518158644437789917e-02 2.042543441057205200e-01
2.629000000000000000e+03 2.479189682006835938e+01 -1.441855335235595703e+01 -1.273764818906784058e-01 -5.155172348022460938e-01 -1.928681135177612305e-01 -1.919224411249160767e-01
2.630000000000000000e+03 7.089891815185546875e+01 1.310836029052734375e+01 -6.977185010910034180e-01 9.402104377746582031e+00 2.611315727233886719e+00 -1.990370154380798340e-01
2.631000000000000000e+03 6.896547698974609375e+01 1.317930412292480469e+01 -3.609976470470428467e-01 5.425534248352050781e+00 1.519360899925231934e+00 -2.112224102020263672e+00
2.632000000000000000e+03 6.924320220947265625e+01 1.364803028106689453e+01 -6.689292192459106445e-01 6.074222087860107422e+00 1.621587872505187988e+00 -1.929691314697265625e+00
2.633000000000000000e+03 7.365885162353515625e+01 1.315070247650146484e+01 9.060108661651611328e-01 7.680571556091308594e+00 2.575974702835083008e+00 6.662182211875915527e-01
2.634000000000000000e+03 7.138689422607421875e+01 1.393276023864746094e+01 -7.964457869529724121e-01 8.430664062500000000e+00 2.290265321731567383e+00 -1.041694208979606628e-01
2.635000000000000000e+03 7.344205474853515625e+01 1.372468852996826172e+01 4.197926819324493408e-01 7.792763233184814453e+00 2.463766813278198242e+00 6.352418065071105957e-01
2.636000000000000000e+03 6.970048522949218750e+01 1.446656703948974609e+01 -1.030628323554992676e+00 6.550631523132324219e+00 1.656000971794128418e+00 -1.551210045814514160e+00
2.637000000000000000e+03 7.206439971923828125e+01 1.270498180389404297e+01 9.454479813575744629e-01 8.884953498840332031e+00 2.949120283126831055e+00 1.524830102920532227e+00
2.638000000000000000e+03 7.293753814697265625e+01 1.334422302246093750e+01 6.172133088111877441e-01 7.893753528594970703e+00 2.553290128707885742e+00 8.263546228408813477e-01
2.639000000000000000e+03 6.808500671386718750e+01 1.396337413787841797e+01 -6.515309214591979980e-01 3.781584024429321289e+00 9.390159249305725098e-01 -1.711913824081420898e+00
2.640000000000000000e+03 7.327503967285156250e+01 1.519880008697509766e+01 -4.588289260864257812e-01 7.678871154785156250e+00 2.166012763977050781e+00 3.193452358245849609e-01
2.641000000000000000e+03 8.563811302185058594e+00 -8.173706054687500000e+00 -2.998805418610572815e-02 -1.748865656554698944e-02 -1.424301322549581528e-02 -8.841407485306262970e-03
2.642000000000000000e+03 6.798333740234375000e+01 2.060866928100585938e+01 -3.823353052139282227e-01 3.716083526611328125e+00 1.000124454498291016e+00 -1.248408436775207520e+00
2.643000000000000000e+03 6.688175201416015625e+01 1.916304397583007812e+01 -4.542700350284576416e-01 2.971768379211425781e+00 7.552495002746582031e-01 -1.355771422386169434e+00
2.644000000000000000e+03 7.442113876342773438e+00 -9.158190727233886719e+00 -2.942179515957832336e-02 -1.545205619186162949e-02 -1.346215512603521347e-02 -1.039506681263446808e-02
2.645000000000000000e+03 7.179991245269775391e+00 -6.436422348022460938e+00 -9.546278044581413269e-03 -4.939107224345207214e-03 -4.345615394413471222e-03 6.206104066222906113e-03
2.646000000000000000e+03 6.846386432647705078e+00 1.408354949951171875e+01 -8.779962663538753986e-04 -7.051218301057815552e-03 -2.378764329478144646e-03 1.904401811771094799e-03
2.647000000000000000e+03 7.386074829101562500e+01 1.423384857177734375e+01 7.717889547348022461e-02 7.653789520263671875e+00 2.319290399551391602e+00 5.146944522857666016e-01
2.648000000000000000e+03 6.529384136199951172e+00 -7.639628887176513672e+00 -1.586520113050937653e-02 -1.325010694563388824e-02 -8.734592236578464508e-03 -5.319528281688690186e-04
2.649000000000000000e+03 6.854286956787109375e+01 1.590380764007568359e+01 -1.019710779190063477e+00 4.607826232910156250e+00 1.076434731483459473e+00 -1.683687448501586914e+00
2.650000000000000000e+03 6.864886474609375000e+01 1.515824031829833984e+01 -9.971861243247985840e-01 4.861320018768310547e+00 1.159240126609802246e+00 -1.741938829421997070e+00
2.651000000000000000e+03 4.372977447509765625e+01 2.058107757568359375e+01 -6.157442927360534668e-01 -3.876644372940063477e-02 -1.963532119989395142e-01 4.819731712341308594e-01
2.652000000000000000e+03 4.074701690673828125e+01 2.239022636413574219e+01 -3.569361269474029541e-01 -2.915536984801292419e-02 -1.158274561166763306e-01 4.222497045993804932e-01
2.653000000000000000e+03 7.279295349121093750e+01 1.701143836975097656e+01 -8.386934399604797363e-01 7.139335632324218750e+00 1.890192747116088867e+00 -2.039178460836410522e-01
2.654000000000000000e+03 8.778794288635253906e+00 1.195861530303955078e+01 6.471598055213689804e-03 -9.258174104616045952e-04 1.663734205067157745e-03 3.109835088253021240e-03
2.655000000000000000e+03 5.683281707763671875e+01 1.953962516784667969e+01 -7.208383679389953613e-01 4.150369465351104736e-01 -9.174042195081710815e-02 2.608681619167327881e-01
2.656000000000000000e+03 6.566476440429687500e+01 2.042286300659179688e+01 -1.902429461479187012e-01 2.326634407043457031e+00 6.409174203872680664e-01 -1.099542260169982910e+00
2.657000000000000000e+03 5.079969024658203125e+01 2.098079872131347656e+01 -5.386301279067993164e-01 -1.510939598083496094e-01 -2.069172263145446777e-01 2.616330981254577637e-01
2.658000000000000000e+03 5.459449005126953125e+01 2.029203987121582031e+01 -6.586077809333801270e-01 2.616694867610931396e-01 -1.190814971923828125e-01 2.020322680473327637e-01
2.659000000000000000e+03 2.210331153869628906e+01 -1.833067321777343750e+01 -2.268861606717109680e-02 -2.764413058757781982e-01 -8.973897248506546021e-02 -1.976173222064971924e-01
2.660000000000000000e+03 2.420687103271484375e+01 -1.806706619262695312e+01 -2.777884714305400848e-02 -3.347057700157165527e-01 -1.087453886866569519e-01 -1.811885237693786621e-01
2.661000000000000000e+03 7.241961956024169922e+00 2.345243263244628906e+01 -1.618699729442596436e-02 -3.275994956493377686e-02 -1.468408387154340744e-02 3.443146497011184692e-02
2.662000000000000000e+03 1.423853111267089844e+01 -1.087541103363037109e+01 -1.370457261800765991e-01 -1.566556654870510101e-02 -4.581338912248611450e-02 -5.320369452238082886e-02
2.663000000000000000e+03 1.588697814941406250e+01 -1.245507717132568359e+01 -1.905444860458374023e-01 -2.465248480439186096e-02 -6.455908715724945068e-02 -1.276892721652984619e-01
2.664000000000000000e+03 1.816336441040039062e+01 -1.565769958496093750e+01 -1.671057790517807007e-01 -1.241995617747306824e-01 -8.739160001277923584e-02 -2.356630563735961914e-01
2.665000000000000000e+03 2.565505599975585938e+01 -1.269620990753173828e+01 -2.110345214605331421e-01 -6.951085329055786133e-01 -2.718429267406463623e-01 -1.492227911949157715e-01
2.666000000000000000e+03 8.172993659973144531e+00 1.505790901184082031e+01 -8.305624127388000488e-03 -6.152812857180833817e-03 -4.337531048804521561e-03 4.394138697534799576e-03
2.667000000000000000e+03 3.489317703247070312e+01 2.378417205810546875e+01 -1.336557269096374512e-01 -9.387941658496856689e-02 -6.826054304838180542e-02 3.130904734134674072e-01
2.668000000000000000e+03 2.665570831298828125e+01 -1.528196716308593750e+01 -4.736317321658134460e-02 -4.018712043762207031e-01 -1.347703188657760620e-01 -3.462471812963485718e-02
2.669000000000000000e+03 2.604287910461425781e+01 -1.643605041503906250e+01 -5.925735086202621460e-02 -3.227134346961975098e-01 -1.145912408828735352e-01 -5.972480028867721558e-02
2.670000000000000000e+03 7.272467041015625000e+01 -2.809708213806152344e+01 2.330106198787689209e-01 4.926208972930908203e+00 1.547765851020812988e+00 6.787987351417541504e-01
2.671000000000000000e+03 7.225666809082031250e+01 -2.540477752685546875e+01 2.274788469076156616e-01 4.804063320159912109e+00 1.509462594985961914e+00 8.283616304397583008e-01
2.672000000000000000e+03 2.774334526062011719e+01 2.448307609558105469e+01 -9.130169451236724854e-02 -1.059373170137405396e-01 -5.917170271277427673e-02 2.185182273387908936e-01
2.673000000000000000e+03 1.893589019775390625e+01 -1.383241271972656250e+01 -2.523081004619598389e-01 -1.066020950675010681e-01 -1.076730564236640930e-01 -2.437777221202850342e-01
2.674000000000000000e+03 1.838179588317871094e+01 -1.265418338775634766e+01 -2.522116601467132568e-01 -7.582971453666687012e-02 -9.841240942478179932e-02 -1.910519897937774658e-01
2.675000000000000000e+03 1.329743289947509766e+01 1.854057121276855469e+01 -5.251987278461456299e-02 2.708483254536986351e-03 -1.494341623038053513e-02 3.220793232321739197e-02
2.676000000000000000e+03 1.136794376373291016e+01 1.666158866882324219e+01 -2.738560922443866730e-02 5.508527974598109722e-04 -8.050426840782165527e-03 1.541348081082105637e-02
2.677000000000000000e+03 1.361151885986328125e+01 -9.620501518249511719e+00 -1.098561212420463562e-01 -1.165262423455715179e-02 -3.645262494683265686e-02 -3.666701912879943848e-02
2.678000000000000000e+03 7.044449615478515625e+01 1.285508918762207031e+01 -7.368952631950378418e-01 9.389231681823730469e+00 2.595700979232788086e+00 -9.129237532615661621e-01
2.679000000000000000e+03 7.077233123779296875e+01 1.358274459838867188e+01 -8.856484293937683105e-01 8.729004859924316406e+00 2.353006839752197266e+00 -5.692293643951416016e-01
2.680000000000000000e+03 6.930187988281250000e+01 1.317645263671875000e+01 -5.183114409446716309e-01 6.278157234191894531e+00 1.727953791618347168e+00 -2.127360582351684570e+00
2.681000000000000000e+03 7.131816101074218750e+01 1.338290214538574219e+01 -5.232859849929809570e-01 9.077072143554687500e+00 2.566135883331298828e+00 2.556881904602050781e-01
2.682000000000000000e+03 7.216809844970703125e+01 1.452201080322265625e+01 -5.979737639427185059e-01 8.090715408325195312e+00 2.247822523117065430e+00 2.082552015781402588e-01
2.683000000000000000e+03 7.248767852783203125e+01 1.369583320617675781e+01 1.234149858355522156e-01 8.259947776794433594e+00 2.515008926391601562e+00 7.409579753875732422e-01
2.684000000000000000e+03 7.201232147216796875e+01 1.395632076263427734e+01 -4.130967259407043457e-01 8.325879096984863281e+00 2.373834609985351562e+00 3.713552951812744141e-01
2.685000000000000000e+03 7.326353454589843750e+01 1.438024044036865234e+01 -1.693136096000671387e-01 7.970436573028564453e+00 2.340336799621582031e+00 5.526996254920959473e-01
2.686000000000000000e+03 7.268359375000000000e+01 1.441101264953613281e+01 -3.383655846118927002e-01 7.907349586486816406e+00 2.270695209503173828e+00 4.118959605693817139e-01
2.687000000000000000e+03 6.830164337158203125e+01 1.436947917938232422e+01 -8.349991440773010254e-01 4.241483211517333984e+00 1.021945238113403320e+00 -1.783951997756958008e+00
2.688000000000000000e+03 6.879415893554687500e+01 1.403774356842041016e+01 -7.016038894653320312e-01 5.109630107879638672e+00 1.322407841682434082e+00 -1.892595291137695312e+00
2.689000000000000000e+03 6.912173461914062500e+01 1.407993316650390625e+01 -8.800284862518310547e-01 5.626234054565429688e+00 1.423861742019653320e+00 -1.814231038093566895e+00
2.690000000000000000e+03 6.982260894775390625e+01 1.345926761627197266e+01 -8.410129547119140625e-01 7.393086433410644531e+00 1.965622067451477051e+00 -1.709331989288330078e+00
2.691000000000000000e+03 7.882333278656005859e+00 -1.156081485748291016e+01 -4.408983141183853149e-02 -2.722183428704738617e-02 -2.139350026845932007e-02 -3.371517360210418701e-02
2.692000000000000000e+03 9.602687835693359375e+00 -7.395277023315429688e+00 -2.857694216072559357e-02 -1.968871802091598511e-02 -1.447969768196344376e-02 -7.643496617674827576e-03
2.693000000000000000e+03 7.313318634033203125e+01 1.609052467346191406e+01 -7.113887667655944824e-01 7.528462409973144531e+00 2.045122146606445312e+00 5.133081600069999695e-02
2.694000000000000000e+03 7.075614166259765625e+01 1.464803981781005859e+01 -1.103498339653015137e+00 7.570226669311523438e+00 1.940018415451049805e+00 -8.248698711395263672e-01
2.695000000000000000e+03 6.918524932861328125e+01 1.709637832641601562e+01 -9.725169539451599121e-01 4.945109367370605469e+00 1.191777706146240234e+00 -1.478258132934570312e+00
2.696000000000000000e+03 6.936863708496093750e+01 1.641721343994140625e+01 -1.093002080917358398e+00 5.354078292846679688e+00 1.278322815895080566e+00 -1.487347245216369629e+00
2.697000000000000000e+03 6.874172973632812500e+01 1.454292106628417969e+01 -9.717342257499694824e-01 4.971232891082763672e+00 1.199849724769592285e+00 -1.781870245933532715e+00
2.698000000000000000e+03 6.915029907226562500e+01 1.533714962005615234e+01 -1.074774026870727539e+00 5.396523475646972656e+00 1.296524882316589355e+00 -1.624986171722412109e+00
2.699000000000000000e+03 1.117640399932861328e+01 -7.898507118225097656e+00 -5.205548554658889771e-02 -1.581700891256332397e-02 -2.036174945533275604e-02 -1.194633170962333679e-02
2.700000000000000000e+03 1.205801963806152344e+01 -9.311621665954589844e+00 -8.136454969644546509e-02 -1.177363935858011246e-02 -2.794145606458187103e-02 -2.581562474370002747e-02
2.701000000000000000e+03 7.223790740966796875e+01 1.787169647216796875e+01 -9.083712697029113770e-01 6.711108684539794922e+00 1.740821242332458496e+00 -5.170009732246398926e-01
2.702000000000000000e+03 7.084278106689453125e+01 2.089535522460937500e+01 -5.470721721649169922e-01 5.325864791870117188e+00 1.433637857437133789e+00 -9.055982828140258789e-01
2.703000000000000000e+03 7.330978393554687500e+01 2.037421417236328125e+01 -5.771359205245971680e-01 6.479192256927490234e+00 1.770616888999938965e+00 -4.394916892051696777e-01
2.704000000000000000e+03 1.052886104583740234e+01 1.183619689941406250e+01 8.117290213704109192e-03 6.269609089940786362e-03 4.316070117056369781e-03 5.736729130148887634e-03
2.705000000000000000e+03 1.103280067443847656e+01 -9.696308135986328125e+00 -6.852822750806808472e-02 -1.727440766990184784e-02 -2.574079111218452454e-02 -2.389804273843765259e-02
2.706000000000000000e+03 8.912243843078613281e+00 1.410902309417724609e+01 -2.928282599896192551e-03 -1.916486653499305248e-03 -1.453430741094052792e-03 4.107851535081863403e-03
2.707000000000000000e+03 6.412888526916503906e+00 1.511444473266601562e+01 -4.415702074766159058e-03 -9.767318144440650940e-03 -4.254905972629785538e-03 3.503707936033606529e-03
2.708000000000000000e+03 5.634548568725585938e+01 2.182398033142089844e+01 -2.811975181102752686e-01 4.352133274078369141e-01 4.620474576950073242e-02 1.504137516021728516e-01
2.709000000000000000e+03 5.575369262695312500e+01 2.035184478759765625e+01 -5.961494445800781250e-01 3.389276564121246338e-01 -7.716654241085052490e-02 1.961867958307266235e-01
2.710000000000000000e+03 5.399055099487304688e+01 2.129659080505371094e+01 -4.403822422027587891e-01 1.898403018712997437e-01 -7.516258209943771362e-02 2.099230289459228516e-01
2.711000000000000000e+03 6.792433166503906250e+01 1.933616256713867188e+01 -5.445804595947265625e-01 3.667526721954345703e+00 9.368838667869567871e-01 -1.407878518104553223e+00
2.712000000000000000e+03 1.529928874969482422e+01 -1.538103389739990234e+01 -1.343443095684051514e-01 -7.782226055860519409e-02 -6.364997476339340210e-02 -1.699957102537155151e-01
2.713000000000000000e+03 3.857843017578125000e+01 2.232862091064453125e+01 -2.961860299110412598e-01 -3.133780509233474731e-02 -9.825715422630310059e-02 3.522991836071014404e-01
2.714000000000000000e+03 4.216685867309570312e+01 2.161342048645019531e+01 -4.247168004512786865e-01 -4.112934693694114685e-02 -1.397538483142852783e-01 4.208422899246215820e-01
2.715000000000000000e+03 1.122606468200683594e+01 2.344969367980957031e+01 -3.333239629864692688e-02 -3.061454929411411285e-02 -1.918408274650573730e-02 5.797171965241432190e-02
2.716000000000000000e+03 6.837690734863281250e+01 1.843184661865234375e+01 -7.463129162788391113e-01 4.075384616851806641e+00 9.987214803695678711e-01 -1.459187030792236328e+00
2.717000000000000000e+03 9.776138305664062500e+00 1.683711814880371094e+01 -2.031048014760017395e-02 -4.928622394800186157e-03 -7.571730762720108032e-03 1.306019630283117294e-02
2.718000000000000000e+03 7.352409839630126953e+00 2.019599723815917969e+01 -1.617327705025672913e-02 -1.912855729460716248e-02 -1.059054955840110779e-02 2.174487151205539703e-02
2.719000000000000000e+03 1.030321788787841797e+01 1.994672584533691406e+01 -3.240528330206871033e-02 -1.302768196910619736e-02 -1.362988911569118500e-02 3.235865756869316101e-02
2.720000000000000000e+03 1.170172691345214844e+01 2.000127601623535156e+01 -4.184054955840110779e-02 -8.471253328025341034e-03 -1.509354077279567719e-02 3.746320679783821106e-02
2.721000000000000000e+03 9.898118019104003906e+00 1.875493049621582031e+01 -2.949163876473903656e-02 -8.535669185221195221e-03 -1.140819210559129715e-02 2.331375889480113983e-02
2.722000000000000000e+03 5.302417755126953125e+00 -1.064229202270507812e+01 -2.191459387540817261e-02 -1.067333668470382690e-02 -9.776379913091659546e-03 -1.413741428405046463e-02
2.723000000000000000e+03 2.767616844177246094e+01 -1.578292942047119141e+01 -9.023161232471466064e-02 -2.149785459041595459e-01 -9.156304597854614258e-02 3.603320568799972534e-02
2.724000000000000000e+03 1.167217350006103516e+01 -8.479530334472656250e+00 -5.189772695302963257e-02 -1.498713437467813492e-02 -2.006545849144458771e-02 -7.851255126297473907e-03
2.725000000000000000e+03 1.141189002990722656e+01 -1.082137775421142578e+01 -8.777221292257308960e-02 -1.573095284402370453e-02 -3.105094842612743378e-02 -4.594149067997932434e-02
2.726000000000000000e+03 7.204219055175781250e+01 2.031541252136230469e+01 -6.359625458717346191e-01 6.070481777191162109e+00 1.630355834960937500e+00 -6.866744756698608398e-01
2.727000000000000000e+03 7.094804382324218750e+01 1.801536178588867188e+01 -9.566263556480407715e-01 6.151935100555419922e+00 1.558592677116394043e+00 -8.805947303771972656e-01
2.728000000000000000e+03 2.448177528381347656e+01 2.160526466369628906e+01 -1.545440405607223511e-01 -8.799109607934951782e-02 -7.276054471731185913e-02 1.648638397455215454e-01
2.729000000000000000e+03 7.024674224853515625e+01 -2.668975067138671875e+01 2.590103745460510254e-01 4.051331520080566406e+00 1.293102502822875977e+00 7.080624103546142578e-01
2.730000000000000000e+03 7.038229370117187500e+01 1.316889095306396484e+01 -8.598184585571289062e-01 8.783931732177734375e+00 2.377233982086181641e+00 -1.068969011306762695e+00
2.731000000000000000e+03 7.052189636230468750e+01 1.359265995025634766e+01 -9.527502655982971191e-01 8.336478233337402344e+00 2.215118408203125000e+00 -9.816586375236511230e-01
2.732000000000000000e+03 7.032357788085937500e+01 1.434686851501464844e+01 -1.069857478141784668e+00 7.393244266510009766e+00 1.897016048431396484e+00 -1.103630304336547852e+00
2.733000000000000000e+03 6.958694458007812500e+01 1.381418704986572266e+01 -8.692048788070678711e-01 6.663341999053955078e+00 1.738241076469421387e+00 -1.726393818855285645e+00
2.734000000000000000e+03 6.949197387695312500e+01 1.597900867462158203e+01 -1.077994465827941895e+00 5.696018218994140625e+00 1.385407090187072754e+00 -1.488288879394531250e+00
2.735000000000000000e+03 7.016149139404296875e+01 1.536826896667480469e+01 -1.141517400741577148e+00 6.530458450317382812e+00 1.616682291030883789e+00 -1.253026247024536133e+00
2.736000000000000000e+03 7.009393310546875000e+01 1.321900081634521484e+01 -8.108502030372619629e-01 8.265657424926757812e+00 2.236442327499389648e+00 -1.432307839393615723e+00
2.737000000000000000e+03 7.213229370117187500e+01 1.511875438690185547e+01 -7.613464593887329102e-01 7.706497192382812500e+00 2.083545207977294922e+00 4.529882688075304031e-03
2.738000000000000000e+03 7.163851928710937500e+01 1.421710968017578125e+01 -7.197827696800231934e-01 8.267117500305175781e+00 2.264200448989868164e+00 4.022947698831558228e-02
2.739000000000000000e+03 6.979920959472656250e+01 1.511224555969238281e+01 -1.141930222511291504e+00 6.306898117065429688e+00 1.549490332603454590e+00 -1.426491498947143555e+00
2.740000000000000000e+03 7.192329406738281250e+01 1.571368122100830078e+01 -9.429314136505126953e-01 7.468267440795898438e+00 1.957600831985473633e+00 -3.229945302009582520e-01
2.741000000000000000e+03 8.137585639953613281e+00 -1.273855781555175781e+01 -5.157778784632682800e-02 -2.932302094995975494e-02 -2.427024208009243011e-02 -4.992605373263359070e-02
2.742000000000000000e+03 7.138238525390625000e+01 1.450571250915527344e+01 -9.482112526893615723e-01 7.948498249053955078e+00 2.100085973739624023e+00 -3.513724505901336670e-01
2.743000000000000000e+03 7.206217956542968750e+01 1.666206932067871094e+01 -9.720410108566284180e-01 7.080395221710205078e+00 1.832506299018859863e+00 -4.501455724239349365e-01
2.744000000000000000e+03 7.019312286376953125e+01 1.785677719116210938e+01 -9.501224756240844727e-01 5.642089843750000000e+00 1.407590150833129883e+00 -1.120823740959167480e+00
2.745000000000000000e+03 1.015054416656494141e+01 -8.474119186401367188e+00 -5.060791596770286560e-02 -2.089340426027774811e-02 -2.145039662718772888e-02 -1.405073609203100204e-02
2.746000000000000000e+03 9.434556007385253906e+00 -8.239379882812500000e+00 -3.944038599729537964e-02 -6.873187143355607986e-03 -1.389407180249691010e-02 -4.119273275136947632e-03
2.747000000000000000e+03 5.561000347137451172e+00 -1.196427249908447266e+01 -2.244660444557666779e-02 -2.183400467038154602e-02 -1.328418310731649399e-02 -2.406498789787292480e-02
2.748000000000000000e+03 6.883255767822265625e+01 1.932634925842285156e+01 -6.293134093284606934e-01 4.460474014282226562e+00 1.149348139762878418e+00 -1.295320153236389160e+00
2.749000000000000000e+03 9.770545005798339844e+00 1.491647529602050781e+01 -1.107813045382499695e-02 -1.795398886315524578e-03 -3.862058743834495544e-03 5.862655583769083023e-03
2.750000000000000000e+03 9.564840316772460938e+00 -9.033729553222656250e+00 -4.409032315015792847e-02 -1.563613116741180420e-02 -1.791793666779994965e-02 -1.596038974821567535e-02
2.751000000000000000e+03 9.919567108154296875e+00 -9.988630294799804688e+00 -6.048878282308578491e-02 -1.541533228009939194e-02 -2.277123555541038513e-02 -2.691764570772647858e-02
2.752000000000000000e+03 8.574614524841308594e+00 -9.166703224182128906e+00 -4.087100178003311157e-02 -1.241607498377561569e-02 -1.598612219095230103e-02 -1.331917941570281982e-02
2.753000000000000000e+03 7.173866271972656250e+01 2.151405143737792969e+01 -4.647641479969024658e-01 5.639876842498779297e+00 1.552533864974975586e+00 -7.518790960311889648e-01
2.754000000000000000e+03 7.998141288757324219e+00 1.695005416870117188e+01 -1.426385063678026199e-02 -9.262909181416034698e-03 -7.058028131723403931e-03 1.006359886378049850e-02
2.755000000000000000e+03 5.888367843627929688e+01 2.209652328491210938e+01 -1.371944397687911987e-01 7.302761673927307129e-01 1.779245287179946899e-01 1.198558369651436806e-03
2.756000000000000000e+03 7.265377044677734375e+01 2.385323143005371094e+01 -2.463129162788391113e-01 5.736332416534423828e+00 1.647005796432495117e+00 -6.642304062843322754e-01
2.757000000000000000e+03 4.615612792968750000e+01 2.119422531127929688e+01 -5.148478150367736816e-01 -1.950781047344207764e-01 -2.129777669906616211e-01 5.131458044052124023e-01
2.758000000000000000e+03 4.459581375122070312e+01 2.238299751281738281e+01 -3.308620750904083252e-01 -1.312900334596633911e-01 -1.386456340551376343e-01 4.910204410552978516e-01
2.759000000000000000e+03 6.960799217224121094e+00 1.805114555358886719e+01 -1.166113838553428650e-02 -1.293599046766757965e-02 -7.379138376563787460e-03 1.182679552584886551e-02
2.760000000000000000e+03 9.155798912048339844e+00 1.969095611572265625e+01 -2.425769902765750885e-02 -1.398547086864709854e-02 -1.147295162081718445e-02 2.602294087409973145e-02
2.761000000000000000e+03 1.151796817779541016e+01 2.170027542114257812e+01 -4.110861197113990784e-02 -1.948019117116928101e-02 -1.817664131522178650e-02 5.065613240003585815e-02
2.762000000000000000e+03 9.335474967956542969e+00 2.731818962097167969e+01 -9.517857804894447327e-03 -5.617929995059967041e-02 -1.970914751291275024e-02 5.698394030332565308e-02
2.763000000000000000e+03 1.970103073120117188e+01 -2.060770797729492188e+01 -1.132662314921617508e-02 -2.175273150205612183e-01 -6.865618377923965454e-02 -2.116992175579071045e-01
2.764000000000000000e+03 6.914615631103515625e+01 -2.871778106689453125e+01 3.524775207042694092e-01 3.753068447113037109e+00 1.231663823127746582e+00 5.658246874809265137e-01
2.765000000000000000e+03 7.384832000732421875e+01 -2.399178123474121094e+01 5.879336968064308167e-02 5.536815643310546875e+00 1.678682804107666016e+00 8.632115721702575684e-01
2.766000000000000000e+03 2.438545989990234375e+01 -1.605957412719726562e+01 1.208922453224658966e-02 -4.422080218791961670e-01 -1.290356367826461792e-01 -1.395307183265686035e-01
2.767000000000000000e+03 2.644689750671386719e+01 -1.925173759460449219e+01 -3.482942283153533936e-02 -2.445576936006546021e-01 -8.381613343954086304e-02 -9.891104698181152344e-02
2.768000000000000000e+03 7.744568347930908203e+00 1.270077514648437500e+01 2.913206582888960838e-03 -5.637747235596179962e-03 -8.173621608875691891e-04 1.470957533456385136e-03
2.769000000000000000e+03 7.046659851074218750e+01 1.394189262390136719e+01 -1.003392934799194336e+00 7.941632270812988281e+00 2.081471920013427734e+00 -9.803019165992736816e-01
2.770000000000000000e+03 7.084524536132812500e+01 1.391973304748535156e+01 -9.782420396804809570e-01 8.226731300354003906e+00 2.174546718597412109e+00 -6.121872067451477051e-01
2.771000000000000000e+03 7.115553283691406250e+01 1.370355987548828125e+01 -6.971622109413146973e-01 8.591733932495117188e+00 2.368371486663818359e+00 -1.091683655977249146e-01
2.772000000000000000e+03 7.010987854003906250e+01 1.374332427978515625e+01 -9.663516283035278320e-01 7.587717533111572266e+00 1.986409783363342285e+00 -1.318267822265625000e+00
2.773000000000000000e+03 7.119222259521484375e+01 1.582536220550537109e+01 -1.090097784996032715e+00 7.004824161529541016e+00 1.774417877197265625e+00 -7.027087211608886719e-01
2.774000000000000000e+03 7.006762695312500000e+01 1.473792457580566406e+01 -1.126616358757019043e+00 6.848569869995117188e+00 1.716585993766784668e+00 -1.293055534362792969e+00
2.775000000000000000e+03 7.147647857666015625e+01 1.734966659545898438e+01 -9.938447475433349609e-01 6.613794803619384766e+00 1.685984969139099121e+00 -7.079424262046813965e-01
2.776000000000000000e+03 9.067242622375488281e+00 -1.139864253997802734e+01 -5.843222513794898987e-02 -2.112649939954280853e-02 -2.386761642992496490e-02 -3.975544869899749756e-02
2.777000000000000000e+03 8.785647392272949219e+00 -1.023476600646972656e+01 -4.759604111313819885e-02 -2.059010230004787445e-02 -2.045584283769130707e-02 -2.456519566476345062e-02
2.778000000000000000e+03 7.021822357177734375e+01 1.592743778228759766e+01 -1.146175622940063477e+00 6.323767662048339844e+00 1.553277611732482910e+00 -1.204208016395568848e+00
2.779000000000000000e+03 7.101425170898437500e+01 1.917000007629394531e+01 -7.700870633125305176e-01 5.742144584655761719e+00 1.491617202758789062e+00 -9.120852351188659668e-01
2.780000000000000000e+03 6.914123535156250000e+01 2.040529823303222656e+01 -5.363308191299438477e-01 4.445619106292724609e+00 1.172786474227905273e+00 -1.186707258224487305e+00
2.781000000000000000e+03 1.058945369720458984e+01 1.581106567382812500e+01 -1.796174421906471252e-02 1.930360849655698985e-05 -5.382732488214969635e-03 1.089595537632703781e-02
2.782000000000000000e+03 8.922266006469726562e+00 1.785634803771972656e+01 -1.923994347453117371e-02 -8.377547375857830048e-03 -8.285246789455413818e-03 1.559322047978639603e-02
2.783000000000000000e+03 7.156754302978515625e+01 1.853688049316406250e+01 -8.599162697792053223e-01 6.355247497558593750e+00 1.648599386215209961e+00 -7.127788066864013672e-01
2.784000000000000000e+03 6.127681732177734375e+00 1.932681274414062500e+01 -1.203751470893621445e-02 -1.726783253252506256e-02 -8.791604079306125641e-03 1.389903761446475983e-02
2.785000000000000000e+03 6.928922271728515625e+01 1.803742790222167969e+01 -8.802219033241271973e-01 4.856667518615722656e+00 1.192933678627014160e+00 -1.404789805412292480e+00
2.786000000000000000e+03 6.996145629882812500e+01 1.649175453186035156e+01 -1.138317584991455078e+00 5.862403392791748047e+00 1.417225837707519531e+00 -1.280242204666137695e+00
2.787000000000000000e+03 1.490932273864746094e+01 2.006785774230957031e+01 -7.667794078588485718e-02 -9.837994584813714027e-04 -2.329852059483528137e-02 5.790718272328376770e-02
2.788000000000000000e+03 8.530825614929199219e+00 2.839959907531738281e+01 -5.099962931126356125e-03 -6.310631334781646729e-02 -2.046188339591026306e-02 5.414395034313201904e-02
2.789000000000000000e+03 2.748647689819335938e+01 -2.022157287597656250e+01 -5.896062031388282776e-02 -1.440286785364151001e-01 -6.089678779244422913e-02 -9.667909145355224609e-02
2.790000000000000000e+03 6.760232543945312500e+01 -2.693424987792968750e+01 4.270907342433929443e-01 3.181752920150756836e+00 1.082653164863586426e+00 5.359825491905212402e-01
2.791000000000000000e+03 6.893659973144531250e+01 -2.708897399902343750e+01 4.346004128456115723e-01 3.561063766479492188e+00 1.198699235916137695e+00 6.428314447402954102e-01
2.792000000000000000e+03 6.957269287109375000e+01 2.166545677185058594e+01 -3.874182999134063721e-01 4.586797714233398438e+00 1.259813904762268066e+00 -1.047807335853576660e+00
2.793000000000000000e+03 1.280818843841552734e+01 2.510499000549316406e+01 -3.242204338312149048e-02 -4.403286054730415344e-02 -2.293647080659866333e-02 7.894765585660934448e-02
2.794000000000000000e+03 7.000417327880859375e+01 -2.312919235229492188e+01 4.171335101127624512e-01 3.667073249816894531e+00 1.225262045860290527e+00 9.907358884811401367e-01
2.795000000000000000e+03 4.861060714721679688e+01 2.422971916198730469e+01 -5.352183431386947632e-02 -1.275426894426345825e-01 -5.431935563683509827e-02 3.745434880256652832e-01
2.796000000000000000e+03 2.599500846862792969e+01 -1.790151786804199219e+01 -1.311742514371871948e-02 -2.744802236557006836e-01 -8.627929538488388062e-02 -7.422234117984771729e-02
2.797000000000000000e+03 1.318016052246093750e+01 2.844148826599121094e+01 -3.174172714352607727e-03 -7.519005984067916870e-02 -2.350926958024501801e-02 8.717431128025054932e-02
2.798000000000000000e+03 5.249308013916015625e+01 2.576846122741699219e+01 1.826008260250091553e-01 1.960050314664840698e-01 1.135817617177963257e-01 1.795131713151931763e-01
2.799000000000000000e+03 5.477800750732421875e+01 2.247376632690429688e+01 -2.324233949184417725e-01 3.025573492050170898e-01 2.104018814861774445e-02 1.373930722475051880e-01
2.800000000000000000e+03 1.327644252777099609e+01 2.013678359985351562e+01 -5.645269900560379028e-02 -7.053465116769075394e-03 -1.905184984207153320e-02 4.970857128500938416e-02
2.801000000000000000e+03 7.105585479736328125e+01 1.425647354125976562e+01 -9.356271028518676758e-01 8.039459228515625000e+00 2.131149530410766602e+00 -4.493258595466613770e-01
2.802000000000000000e+03 7.120426940917968750e+01 1.490355396270751953e+01 -1.019145607948303223e+00 7.601121902465820312e+00 1.974592804908752441e+00 -4.941820204257965088e-01
2.803000000000000000e+03 7.111651611328125000e+01 1.536432552337646484e+01 -1.084840893745422363e+00 7.332838058471679688e+00 1.874399065971374512e+00 -7.047481536865234375e-01
2.804000000000000000e+03 7.076988220214843750e+01 1.587402629852294922e+01 -1.097862601280212402e+00 6.835260868072509766e+00 1.721219420433044434e+00 -8.839978575706481934e-01
2.805000000000000000e+03 7.050154113769531250e+01 1.627937889099121094e+01 -1.135170340538024902e+00 6.466963291168212891e+00 1.599537968635559082e+00 -1.039635419845581055e+00
2.806000000000000000e+03 7.088725280761718750e+01 1.678558731079101562e+01 -1.080674409866333008e+00 6.463178634643554688e+00 1.614751219749450684e+00 -8.985758423805236816e-01
2.807000000000000000e+03 1.073855781555175781e+01 1.778274917602539062e+01 -2.830684743821620941e-02 -3.376428503543138504e-03 -9.504983201622962952e-03 1.980853639543056488e-02
2.808000000000000000e+03 6.969171905517578125e+01 1.896776199340820312e+01 -7.646425962448120117e-01 4.943298339843750000e+00 1.253596663475036621e+00 -1.225273489952087402e+00
2.809000000000000000e+03 1.059677982330322266e+01 -1.242906665802001953e+01 -8.146761357784271240e-02 -2.615112811326980591e-02 -3.228562325239181519e-02 -6.205603480339050293e-02
2.810000000000000000e+03 1.307030296325683594e+01 -1.161042690277099609e+01 -1.227946951985359192e-01 -1.705858856439590454e-02 -4.195598512887954712e-02 -7.419507205486297607e-02
2.811000000000000000e+03 4.732139110565185547e+00 1.894780540466308594e+01 -6.334840785712003708e-03 -1.630310155451297760e-02 -6.791382562369108200e-03 8.774575777351856232e-03
2.812000000000000000e+03 6.989894104003906250e+01 -3.075040435791015625e+01 3.673744797706604004e-01 4.045793056488037109e+00 1.323950290679931641e+00 5.045924782752990723e-01
2.813000000000000000e+03 1.024980831146240234e+01 -1.116026306152343750e+01 -6.960533559322357178e-02 -2.563051134347915649e-02 -2.857075445353984833e-02 -4.128356650471687317e-02
2.814000000000000000e+03 2.947180557250976562e+01 -1.934151840209960938e+01 -1.285398155450820923e-01 -5.662333592772483826e-02 -5.554894730448722839e-02 -6.519942730665206909e-02
2.815000000000000000e+03 1.466884899139404297e+01 2.370679283142089844e+01 -5.155030637979507446e-02 -3.545574098825454712e-02 -2.610181458294391632e-02 8.907251060009002686e-02
2.816000000000000000e+03 7.132054138183593750e+01 -2.164178276062011719e+01 1.588596105575561523e-01 4.428890705108642578e+00 1.376325130462646484e+00 1.273409008979797363e+00
2.817000000000000000e+03 5.594169235229492188e+01 2.490452766418457031e+01 1.378295719623565674e-01 5.216540694236755371e-01 1.978450864553451538e-01 4.411181062459945679e-02
2.818000000000000000e+03 6.980266571044921875e+01 -2.523185157775878906e+01 3.952578902244567871e-01 3.773389339447021484e+00 1.250594139099121094e+00 7.747116088867187500e-01
2.819000000000000000e+03 6.815226745605468750e+01 2.205749893188476562e+01 -2.289680838584899902e-01 3.738854169845581055e+00 1.052965760231018066e+00 -1.099590420722961426e+00
2.820000000000000000e+03 6.683211517333984375e+01 2.213469886779785156e+01 -1.207052841782569885e-01 3.093437194824218750e+00 8.918195366859436035e-01 -1.094449996948242188e+00
2.821000000000000000e+03 1.060753440856933594e+01 2.827576065063476562e+01 -5.714735016226768494e-03 -6.678454577922821045e-02 -2.174978516995906830e-02 6.857645511627197266e-02
2.822000000000000000e+03 7.045744323730468750e+01 1.504297733306884766e+01 -1.129758715629577637e+00 7.039355278015136719e+00 1.772879004478454590e+00 -1.021693229675292969e+00
2.823000000000000000e+03 9.505246162414550781e+00 -1.402366161346435547e+01 -6.608318537473678589e-02 -3.958884626626968384e-02 -3.170160949230194092e-02 -7.401308417320251465e-02
2.824000000000000000e+03 8.087802886962890625e+00 1.895159721374511719e+01 -2.005041763186454773e-02 -1.434130687266588211e-02 -1.031751744449138641e-02 1.939419470727443695e-02
2.825000000000000000e+03 8.040474891662597656e+00 -1.388967990875244141e+01 -4.928523674607276917e-02 -4.533298686146736145e-02 -2.838546596467494965e-02 -6.355053186416625977e-02
2.826000000000000000e+03 1.502028942108154297e+01 -1.728594017028808594e+01 -9.623983502388000488e-02 -1.260812133550643921e-01 -6.669631600379943848e-02 -1.892329603433609009e-01
2.827000000000000000e+03 6.897507476806640625e+01 -2.383917236328125000e+01 2.775315344333648682e-01 3.275485992431640625e+00 1.065905213356018066e+00 7.629877924919128418e-01
2.828000000000000000e+03 6.574636077880859375e+01 -2.419025421142578125e+01 3.977414965629577637e-01 2.474189758300781250e+00 8.615793585777282715e-01 2.893537282943725586e-01
2.829000000000000000e+03 1.094501972198486328e+01 -1.380765819549560547e+01 -8.422249555587768555e-02 -5.068594217300415039e-02 -4.047252982854843140e-02 -8.646385371685028076e-02
2.830000000000000000e+03 1.343723583221435547e+01 -1.305814266204833984e+01 -1.209968701004981995e-01 -4.660338163375854492e-02 -5.028007552027702332e-02 -9.475361555814743042e-02
2.831000000000000000e+03 5.995113372802734375e+01 2.357333946228027344e+01 1.452031135559082031e-01 1.030289888381958008e+00 3.526479005813598633e-01 -2.081942707300186157e-01
2.832000000000000000e+03 7.072501373291015625e+01 1.542828655242919922e+01 -1.120578646659851074e+00 7.046333312988281250e+00 1.777726292610168457e+00 -8.742063641548156738e-01
2.833000000000000000e+03 7.045091247558593750e+01 1.565343475341796875e+01 -1.132343292236328125e+00 6.628269195556640625e+00 1.648777723312377930e+00 -1.071301460266113281e+00
2.834000000000000000e+03 6.995092773437500000e+01 1.569050502777099609e+01 -1.130416154861450195e+00 6.211906909942626953e+00 1.524447321891784668e+00 -1.349775433540344238e+00
2.835000000000000000e+03 1.133263683319091797e+01 -1.527929878234863281e+01 -8.641084283590316772e-02 -5.524429306387901306e-02 -4.249653965234756470e-02 -1.125130653381347656e-01
2.836000000000000000e+03 8.565361976623535156e+00 -1.593451118469238281e+01 -5.371854826807975769e-02 -5.780024453997612000e-02 -3.345563635230064392e-02 -8.908937126398086548e-02
2.837000000000000000e+03 1.305202865600585938e+01 3.234334564208984375e+01 2.825116179883480072e-02 -1.027457565069198608e-01 -2.234837785363197327e-02 7.585054636001586914e-02
2.838000000000000000e+03 6.700563049316406250e+01 -2.326331901550292969e+01 3.675642311573028564e-01 2.507836580276489258e+00 8.626202344894409180e-01 4.462215304374694824e-01
2.839000000000000000e+03 6.419539928436279297e+00 3.116728782653808594e+01 4.869414027780294418e-03 -7.772558182477951050e-02 -2.185685001313686371e-02 4.224245995283126831e-02
2.840000000000000000e+03 6.752350616455078125e+01 -1.990406227111816406e+01 2.742499709129333496e-01 1.909894585609436035e+00 6.552433967590332031e-01 3.667050898075103760e-01
2.841000000000000000e+03 6.295649337768554688e+01 2.266455459594726562e+01 9.809891879558563232e-02 1.565308570861816406e+00 4.990222454071044922e-01 -6.056863665580749512e-01
2.842000000000000000e+03 6.220942306518554688e+01 2.166373252868652344e+01 5.257561802864074707e-03 1.184823751449584961e+00 3.570244014263153076e-01 -4.639683961868286133e-01
2.843000000000000000e+03 6.436302947998046875e+01 2.165693664550781250e+01 7.075175642967224121e-03 1.842876315116882324e+00 5.549854636192321777e-01 -7.973721623420715332e-01
2.844000000000000000e+03 1.283771896362304688e+01 -1.508143806457519531e+01 -1.054377853870391846e-01 -7.130318135023117065e-02 -5.302228778600692749e-02 -1.292400658130645752e-01
2.845000000000000000e+03 6.520404815673828125e+01 -2.089661979675292969e+01 1.571984887123107910e-01 2.003708839416503906e+00 6.482722163200378418e-01 -5.858172476291656494e-02
2.846000000000000000e+03 6.632213592529296875e+01 -2.050755691528320312e+01 9.270425140857696533e-02 1.813890933990478516e+00 5.719785690307617188e-01 1.194061413407325745e-01
2.847000000000000000e+03 6.653379058837890625e+01 -1.780733108520507812e+01 -4.475047290325164795e-01 1.250258564949035645e+00 2.408261597156524658e-01 -3.162290155887603760e-02
2.848000000000000000e+03 6.422067260742187500e+01 2.467163848876953125e+01 2.558878660202026367e-01 2.256454944610595703e+00 7.537028193473815918e-01 -7.043538093566894531e-01
2.849000000000000000e+03 1.225785636901855469e+01 -1.348668384552001953e+01 -1.124134287238121033e-01 -3.086894191801548004e-02 -4.298471286892890930e-02 -9.414117038249969482e-02
2.850000000000000000e+03 6.512567138671875000e+01 -2.201593589782714844e+01 1.666489243507385254e-01 2.066990613937377930e+00 6.700918078422546387e-01 7.945352792739868164e-02
2.851000000000000000e+03 6.436142730712890625e+01 -1.929586029052734375e+01 -2.814352512359619141e-01 1.865440130233764648e+00 4.752014875411987305e-01 -1.802677214145660400e-01
2.852000000000000000e+03 1.164886569976806641e+01 -1.807659339904785156e+01 -6.486019492149353027e-02 -8.977062255144119263e-02 -4.638924449682235718e-02 -1.369093060493469238e-01
2.853000000000000000e+03 6.463918304443359375e+01 2.671168327331542969e+01 3.160476982593536377e-01 2.533661127090454102e+00 8.549126386642456055e-01 -6.588631868362426758e-01
2.854000000000000000e+03 6.261553955078125000e+01 2.493747520446777344e+01 2.724555730819702148e-01 1.791071176528930664e+00 6.190580129623413086e-01 -5.261591672897338867e-01
2.855000000000000000e+03 6.219168472290039062e+01 2.904728126525878906e+01 4.795866608619689941e-01 1.987447381019592285e+00 7.401102185249328613e-01 -4.309170544147491455e-01
2.856000000000000000e+03 5.778148269653320312e+01 2.903504371643066406e+01 5.257459282875061035e-01 1.044099926948547363e+00 4.709537327289581299e-01 -1.155467033386230469e-01
2.857000000000000000e+03 7.328661346435546875e+01 -2.170141601562500000e+01 -4.765113592147827148e-01 5.585624694824218750e+00 1.532734036445617676e+00 1.006076335906982422e+00
2.858000000000000000e+03 6.240858078002929688e+01 -1.940059661865234375e+01 -3.633478879928588867e-01 1.980390787124633789e+00 4.851128458976745605e-01 -2.317855805158615112e-01
2.859000000000000000e+03 9.588987350463867188e+00 -1.843523788452148438e+01 -5.300960317254066467e-02 -8.321490138769149780e-02 -4.086735099554061890e-02 -1.176530718803405762e-01
2.860000000000000000e+03 1.299256324768066406e+01 -1.859688186645507812e+01 -6.663160771131515503e-02 -1.225676983594894409e-01 -5.675979331135749817e-02 -1.728012710809707642e-01
2.861000000000000000e+03 6.292817306518554688e+01 -2.173041534423828125e+01 1.655024476349353790e-02 2.048750400543212891e+00 6.195901632308959961e-01 -1.160440221428871155e-01
2.862000000000000000e+03 6.096770095825195312e+01 -2.502689933776855469e+01 1.635416299104690552e-01 1.923269629478454590e+00 6.260433793067932129e-01 3.291090577840805054e-02
2.863000000000000000e+03 6.107900619506835938e+01 -2.315940666198730469e+01 4.984159488230943680e-03 1.969512939453125000e+00 5.923491120338439941e-01 -6.042512878775596619e-02
2.864000000000000000e+03 6.150982856750488281e+00 -1.488966369628906250e+01 -2.936859615147113800e-02 -4.653050750494003296e-02 -2.276973240077495575e-02 -5.483178794384002686e-02
2.865000000000000000e+03 7.585711002349853516e+00 -1.506900691986083984e+01 -4.119209945201873779e-02 -4.708464071154594421e-02 -2.648302167654037476e-02 -6.354760378599166870e-02
2.866000000000000000e+03 1.227965164184570312e+01 -2.005282211303710938e+01 -3.497197106480598450e-02 -1.334245502948760986e-01 -5.051895603537559509e-02 -1.567877382040023804e-01
2.867000000000000000e+03 6.041439437866210938e+01 -1.982052040100097656e+01 -4.193816483020782471e-01 1.980721116065979004e+00 4.684018194675445557e-01 -2.045197635889053345e-01
2.868000000000000000e+03 6.130045700073242188e+01 -2.164131736755371094e+01 -1.571628153324127197e-01 1.934971928596496582e+00 5.333427190780639648e-01 -1.353153437376022339e-01
2.869000000000000000e+03 7.864988803863525391e+00 -1.772276306152343750e+01 -3.969466313719749451e-02 -7.363188266754150391e-02 -3.399796411395072937e-02 -9.269138425588607788e-02
2.870000000000000000e+03 6.107283401489257812e+01 -1.690436744689941406e+01 -5.125221610069274902e-01 2.127435207366943359e+00 4.844739437103271484e-01 -1.357272863388061523e-01
2.871000000000000000e+03 6.022303009033203125e+01 -1.796667098999023438e+01 -3.810656964778900146e-01 1.998762369155883789e+00 4.853090047836303711e-01 -1.496893763542175293e-01
2.872000000000000000e+03 1.103757381439208984e+01 -2.114856719970703125e+01 -3.491292893886566162e-02 -1.262549757957458496e-01 -4.835037142038345337e-02 -1.505010128021240234e-01
2.873000000000000000e+03 1.025381660461425781e+01 -1.964995956420898438e+01 -3.389170393347740173e-02 -1.194529533386230469e-01 -4.600339755415916443e-02 -1.370448768138885498e-01
2.874000000000000000e+03 9.564995765686035156e+00 -2.142686462402343750e+01 -2.099708281457424164e-02 -1.380626261234283447e-01 -4.771791398525238037e-02 -1.397344768047332764e-01
2.875000000000000000e+03 8.065668106079101562e+00 -1.991691589355468750e+01 -2.739471755921840668e-02 -1.081005930900573730e-01 -4.064859449863433838e-02 -1.128245592117309570e-01
2.876000000000000000e+03 7.064797401428222656e+00 3.600025177001953125e+01 1.459445804357528687e-02 -9.924770891666412354e-02 -2.539597637951374054e-02 2.992817200720310211e-02
2.877000000000000000e+03 4.095292091369628906e+00 3.552401733398437500e+01 5.861325655132532120e-03 -9.830941259860992432e-02 -2.773442678153514862e-02 1.971887610852718353e-02
2.878000000000000000e+03 2.384846687316894531e+01 -2.116168785095214844e+01 1.768861524760723114e-02 -2.484464198350906372e-01 -6.922734528779983521e-02 -1.693873256444931030e-01
2.879000000000000000e+03 2.991477394104003906e+01 -1.474992179870605469e+01 -1.306595802307128906e-01 1.706236414611339569e-02 -3.407916799187660217e-02 1.238829046487808228e-01
2.880000000000000000e+03 2.205929183959960938e+01 -2.046666336059570312e+01 -9.751494042575359344e-03 -2.656331062316894531e-01 -8.261537551879882812e-02 -2.174846678972244263e-01
2.881000000000000000e+03 6.837414550781250000e+01 2.376064872741699219e+01 -7.613029330968856812e-02 3.834520101547241211e+00 1.127516984939575195e+00 -9.693499803543090820e-01
2.882000000000000000e+03 6.995400238037109375e+01 2.315066337585449219e+01 -2.492738366127014160e-01 4.670423030853271484e+00 1.326344728469848633e+00 -9.171402454376220703e-01
2.883000000000000000e+03 9.503144264221191406e+00 3.550640487670898438e+01 2.543561719357967377e-02 -1.042167842388153076e-01 -2.363434992730617523e-02 4.127505794167518616e-02
2.884000000000000000e+03 2.921180915832519531e+01 1.598462390899658203e+01 -3.232207298278808594e-01 1.906006969511508942e-02 -9.124819934368133545e-02 1.305412948131561279e-01
2.885000000000000000e+03 3.689658355712890625e+01 -2.303361320495605469e+01 -8.277553319931030273e-02 -1.680155545473098755e-01 -7.523732632398605347e-02 -4.249325990676879883e-01
2.886000000000000000e+03 1.981106877326965332e+00 3.575315093994140625e+01 2.040802966803312302e-03 -1.023234277963638306e-01 -3.008478693664073944e-02 9.385072626173496246e-03
2.887000000000000000e+03 1.852841734886169434e+00 3.463665008544921875e+01 7.643355056643486023e-04 -9.630890935659408569e-02 -2.866337262094020844e-02 1.030103117227554321e-02
2.888000000000000000e+03 7.819609069824218750e+01 -3.603078079223632812e+01 2.122847177088260651e-02 6.028614997863769531e+00 1.814953088760375977e+00 1.213768124580383301e-01
2.889000000000000000e+03 7.793467712402343750e+01 -3.491973114013671875e+01 4.536821041256189346e-03 6.017992496490478516e+00 1.806758761405944824e+00 1.418251991271972656e-01
2.890000000000000000e+03 7.158251190185546875e+01 -3.240076828002929688e+01 2.597330212593078613e-01 4.465517520904541016e+00 1.417575240135192871e+00 4.589953124523162842e-01
2.891000000000000000e+03 9.407979965209960938e+00 -2.935488700866699219e+01 2.800705470144748688e-02 -2.122558504343032837e-01 -5.527463927865028381e-02 -1.169664785265922546e-01
2.892000000000000000e+03 4.750331497192382812e+01 1.997517967224121094e+01 -6.341770291328430176e-01 -3.211181759834289551e-01 -2.865885794162750244e-01 5.113573670387268066e-01
2.893000000000000000e+03 3.407872390747070312e+01 2.511529922485351562e+01 -9.192045778036117554e-02 -1.149559095501899719e-01 -6.206290796399116516e-02 3.009439706802368164e-01
2.894000000000000000e+03 3.655752944946289062e+01 2.292053031921386719e+01 -2.182805091142654419e-01 -7.471046596765518188e-02 -8.789729326963424683e-02 3.229457437992095947e-01
2.895000000000000000e+03 3.330735778808593750e+01 1.792744827270507812e+01 -4.074521660804748535e-01 -7.077828794717788696e-02 -1.434691399335861206e-01 2.038555890321731567e-01
2.896000000000000000e+03 4.077295684814453125e+01 -2.401199913024902344e+01 1.211943700909614563e-01 -1.052111610770225525e-01 4.794963635504245758e-03 -2.152529805898666382e-01
2.897000000000000000e+03 7.164157867431640625e+01 2.964715003967285156e+01 1.467397809028625488e-01 4.987099647521972656e+00 1.540151834487915039e+00 -5.872249603271484375e-01
2.898000000000000000e+03 7.265065765380859375e+01 2.650673484802246094e+01 -3.159011155366897583e-02 5.423919200897216797e+00 1.617698788642883301e+00 -6.395905017852783203e-01
2.899000000000000000e+03 7.620096588134765625e+01 3.809863662719726562e+01 9.085343219339847565e-03 5.998911857604980469e+00 1.802399039268493652e+00 -1.442322880029678345e-01
2.900000000000000000e+03 2.444358444213867188e+01 2.368208885192871094e+01 -9.411586821079254150e-02 -9.563373774290084839e-02 -5.692487955093383789e-02 1.772131919860839844e-01
2.901000000000000000e+03 7.021492767333984375e+01 2.724176597595214844e+01 9.894173592329025269e-02 4.502330303192138672e+00 1.380381584167480469e+00 -7.409231066703796387e-01
2.902000000000000000e+03 7.042124176025390625e+01 2.465385055541992188e+01 -9.022781997919082642e-02 4.803147792816162109e+00 1.413875937461853027e+00 -8.320749998092651367e-01
2.903000000000000000e+03 3.975966262817382812e+01 2.348545837402343750e+01 -2.227725833654403687e-01 -6.933943927288055420e-02 -8.763360977172851562e-02 3.899746239185333252e-01
2.904000000000000000e+03 7.472001647949218750e+01 2.889681816101074219e+01 2.840679511427879333e-02 6.072487354278564453e+00 1.830268263816833496e+00 -4.417257905006408691e-01
2.905000000000000000e+03 3.283577346801757812e+01 2.386940383911132812e+01 -1.344843953847885132e-01 -9.715966880321502686e-02 -6.949321925640106201e-02 2.803630232810974121e-01
2.906000000000000000e+03 5.043238449096679688e+01 2.533038711547851562e+01 1.055593788623809814e-01 1.508048642426729202e-02 3.619195893406867981e-02 2.699068486690521240e-01
2.907000000000000000e+03 6.510125732421875000e+01 -2.868779373168945312e+01 4.289897084236145020e-01 2.740163803100585938e+00 9.507460594177246094e-01 3.484465479850769043e-01
2.908000000000000000e+03 7.421826171875000000e+01 3.630895233154296875e+01 1.240798756480216980e-01 5.599256515502929688e+00 1.717000842094421387e+00 -2.489589601755142212e-01
2.909000000000000000e+03 4.263731479644775391e+00 -3.711234664916992188e+01 1.492422446608543396e-02 -2.969243228435516357e-01 -8.460003137588500977e-02 -3.008163161575794220e-02
2.910000000000000000e+03 1.083526325225830078e+01 3.134346389770507812e+01 1.388611365109682083e-02 -8.853762596845626831e-02 -2.239545248448848724e-02 6.406600773334503174e-02
2.911000000000000000e+03 5.993443679809570312e+01 2.857082939147949219e+01 4.963747262954711914e-01 1.427988290786743164e+00 5.773088932037353516e-01 -2.729238271713256836e-01
2.912000000000000000e+03 4.694244384765625000e+01 2.580396080017089844e+01 9.484539926052093506e-02 -1.050926595926284790e-01 -3.074178239330649376e-03 3.919613957405090332e-01
2.913000000000000000e+03 4.215564346313476562e+01 2.691899681091308594e+01 6.531497091054916382e-02 -1.223109066486358643e-01 -1.709878072142601013e-02 4.091154634952545166e-01
2.914000000000000000e+03 4.979318237304687500e+01 -2.825333976745605469e+01 3.311045169830322266e-01 5.532194375991821289e-01 2.652971744537353516e-01 -1.214815676212310791e-01
2.915000000000000000e+03 4.683994674682617188e+01 -2.839599037170410156e+01 3.024431765079498291e-01 3.414931297302246094e-01 1.931808888912200928e-01 -1.560515463352203369e-01
2.916000000000000000e+03 2.240770721435546875e+01 2.818689537048339844e+01 1.272131688892841339e-02 -1.261938959360122681e-01 -3.404177352786064148e-02 1.679903417825698853e-01
2.917000000000000000e+03 5.476454162597656250e+01 2.771080589294433594e+01 4.011645019054412842e-01 5.152612328529357910e-01 2.749277055263519287e-01 5.314432084560394287e-02
2.918000000000000000e+03 2.725646591186523438e+01 -2.382118988037109375e+01 2.282297238707542419e-03 -1.470275521278381348e-01 -4.342357441782951355e-02 -1.862843930721282959e-01
2.919000000000000000e+03 2.863378524780273438e+01 2.769219017028808594e+01 1.161119434982538223e-02 -1.433134377002716064e-01 -3.951067477464675903e-02 2.322331070899963379e-01
2.920000000000000000e+03 3.148527145385742188e+01 2.785996246337890625e+01 2.735571190714836121e-02 -1.504653841257095337e-01 -3.693290054798126221e-02 2.638275325298309326e-01
2.921000000000000000e+03 4.164390945434570312e+01 -2.728986549377441406e+01 2.787987291812896729e-01 1.596391387283802032e-02 8.842878788709640503e-02 -2.112259715795516968e-01
2.922000000000000000e+03 7.287364196777343750e+01 3.387423324584960938e+01 1.529377847909927368e-01 5.221030235290527344e+00 1.612190365791320801e+00 -3.951243758201599121e-01
2.923000000000000000e+03 1.705876922607421875e+01 -2.024371528625488281e+01 -4.379688948392868042e-02 -1.902737468481063843e-01 -7.022119313478469849e-02 -2.241124510765075684e-01
2.924000000000000000e+03 4.981427383422851562e+01 2.246828842163085938e+01 -2.367209047079086304e-01 -1.619822680950164795e-01 -1.196109503507614136e-01 3.177334070205688477e-01
2.925000000000000000e+03 7.196553039550781250e+01 2.791343688964843750e+01 5.912832170724868774e-02 5.138815879821777344e+00 1.559383153915405273e+00 -6.103652715682983398e-01
2.926000000000000000e+03 3.602604675292968750e+01 -2.830345535278320312e+01 2.006932497024536133e-01 -9.142364561557769775e-02 3.278088197112083435e-02 -2.659537792205810547e-01
2.927000000000000000e+03 2.921981430053710938e+01 -1.394538688659667969e+01 -1.359947174787521362e-01 -7.789737731218338013e-02 -6.416762620210647583e-02 1.242876425385475159e-01
2.928000000000000000e+03 7.349435424804687500e+01 2.826708602905273438e+01 4.845923930406570435e-02 5.658904552459716797e+00 1.712209105491638184e+00 -5.452178120613098145e-01
2.929000000000000000e+03 7.336483001708984375e+01 2.954620933532714844e+01 1.003373116254806519e-01 5.543188571929931641e+00 1.693057775497436523e+00 -4.996769428253173828e-01
2.930000000000000000e+03 6.311514663696289062e+01 -2.660348892211914062e+01 3.480051457881927490e-01 2.273674488067626953e+00 7.865039110183715820e-01 1.955772489309310913e-01
2.931000000000000000e+03 7.636052703857421875e+01 3.323461151123046875e+01 2.010843902826309204e-02 6.290990829467773438e+00 1.893329739570617676e+00 -2.733138799667358398e-01
2.932000000000000000e+03 3.006672859191894531e+01 2.905757331848144531e+01 7.155071198940277100e-02 -1.616662442684173584e-01 -2.703466080129146576e-02 2.442921251058578491e-01
2.933000000000000000e+03 2.561563682556152344e+01 2.825419807434082031e+01 3.112746030092239380e-02 -1.432032585144042969e-01 -3.362273797392845154e-02 1.998576968908309937e-01
2.934000000000000000e+03 1.276479911804199219e+01 -2.640012550354003906e+01 3.135029971599578857e-02 -2.010523527860641479e-01 -5.091061815619468689e-02 -1.578547805547714233e-01
2.935000000000000000e+03 4.908715820312500000e+01 3.002517509460449219e+01 4.807687997817993164e-01 1.344624757766723633e-01 1.845693737268447876e-01 2.268770039081573486e-01
2.936000000000000000e+03 4.539114379882812500e+01 2.983028793334960938e+01 3.586667478084564209e-01 -8.586960285902023315e-02 8.183914422988891602e-02 3.348959088325500488e-01
2.937000000000000000e+03 3.748780822753906250e+01 2.733781433105468750e+01 4.505045339465141296e-02 -1.340551972389221191e-01 -2.670142613351345062e-02 3.482241928577423096e-01
2.938000000000000000e+03 3.437623214721679688e+01 2.805457115173339844e+01 5.984282866120338440e-02 -1.542167514562606812e-01 -2.831217832863330841e-02 2.998020946979522705e-01
2.939000000000000000e+03 1.483784103393554688e+01 2.796469306945800781e+01 -8.878088556230068207e-03 -7.578147947788238525e-02 -2.539787068963050842e-02 1.026729196310043335e-01
2.940000000000000000e+03 1.388573837280273438e+01 -2.128620338439941406e+01 -3.953163698315620422e-02 -1.513078808784484863e-01 -5.725185200572013855e-02 -1.904547810554504395e-01
2.941000000000000000e+03 7.557164764404296875e+01 2.760576629638671875e+01 2.901969011873006821e-03 6.410436630249023438e+00 1.924001574516296387e+00 -3.970752656459808350e-01
2.942000000000000000e+03 2.237727928161621094e+01 -2.556946945190429688e+01 7.594779133796691895e-02 -2.050342410802841187e-01 -3.872593492269515991e-02 -1.881060898303985596e-01
2.943000000000000000e+03 1.838057708740234375e+01 -2.470787429809570312e+01 3.698009625077247620e-02 -2.050693631172180176e-01 -5.042678117752075195e-02 -1.984105706214904785e-01
2.944000000000000000e+03 5.975967025756835938e+01 -2.836901092529296875e+01 3.652948439121246338e-01 1.786147475242614746e+00 6.454327106475830078e-01 1.014726310968399048e-01
2.945000000000000000e+03 5.478399658203125000e+01 -2.747605323791503906e+01 3.404671549797058105e-01 1.126589655876159668e+00 4.401170313358306885e-01 4.436130449175834656e-02
2.946000000000000000e+03 1.865044975280761719e+01 -2.877077293395996094e+01 8.849941939115524292e-02 -2.143634557723999023e-01 -3.775921091437339783e-02 -1.725689172744750977e-01
2.947000000000000000e+03 1.641222763061523438e+01 2.431400108337402344e+01 -5.529811978340148926e-02 -4.820824041962623596e-02 -3.105190768837928772e-02 1.107949018478393555e-01
2.948000000000000000e+03 2.210512733459472656e+01 -2.880145263671875000e+01 1.128480583429336548e-01 -2.086741626262664795e-01 -2.874783053994178772e-02 -1.788672506809234619e-01
2.949000000000000000e+03 2.621894645690917969e+01 2.656018733978271484e+00 9.597406387329101562e-01 1.499508619308471680e-01 3.329074680805206299e-01 3.421538770198822021e-01
2.950000000000000000e+03 5.141251373291015625e+01 1.443295669555664062e+01 -1.407694458961486816e+00 -1.319117248058319092e-01 -4.618818461894989014e-01 6.936426162719726562e-01
2.951000000000000000e+03 6.563680267333984375e+01 1.232402229309082031e+01 -9.550396203994750977e-01 -8.416046500205993652e-01 -5.389932990074157715e-01 9.534685015678405762e-01
2.952000000000000000e+03 5.532295608520507812e+01 7.984687805175781250e+00 -9.683401323854923248e-03 2.795972488820552826e-02 5.482897162437438965e-03 -4.933170042932033539e-03
2.953000000000000000e+03 1.402677631378173828e+01 -3.042145967483520508e+00 1.684821583330631256e-02 -1.575492881238460541e-02 3.279863449279218912e-04 -1.087102200835943222e-02
2.954000000000000000e+03 6.821767425537109375e+01 8.495319366455078125e+00 4.369831085205078125e-01 3.415663957595825195e+00 1.155794143676757812e+00 1.612371206283569336e+00
2.955000000000000000e+03 6.838002777099609375e+01 8.472872734069824219e+00 6.348067522048950195e-01 4.341759204864501953e+00 1.492969751358032227e+00 2.280677080154418945e+00
2.956000000000000000e+03 6.847055053710937500e+01 8.058096885681152344e+00 1.712684392929077148e+00 6.499248981475830078e+00 2.463580131530761719e+00 3.291779518127441406e+00
2.957000000000000000e+03 6.960701751708984375e+01 7.874054431915283203e+00 4.327434673905372620e-02 1.745805549621582031e+01 5.250399112701416016e+00 5.537199974060058594e+00
2.958000000000000000e+03 7.012712860107421875e+01 7.951157093048095703e+00 -2.195828437805175781e+00 1.640045738220214844e+01 4.261388301849365234e+00 6.756374835968017578e+00
2.959000000000000000e+03 7.065380859375000000e+01 8.391871452331542969e+00 -3.736065149307250977e+00 1.565573024749755859e+01 3.575899600982666016e+00 4.516296863555908203e+00
2.960000000000000000e+03 7.189162445068359375e+01 9.183462142944335938e+00 1.022640824317932129e+00 3.786135673522949219e+00 1.442632913589477539e+00 -1.853049635887145996e+00
2.961000000000000000e+03 7.232233428955078125e+01 9.668824195861816406e+00 4.885453224182128906e+00 -1.461762905120849609e+00 1.027107119560241699e+00 -2.906100079417228699e-02
2.962000000000000000e+03 7.209829711914062500e+01 9.875545501708984375e+00 7.802232742309570312e+00 8.742232322692871094e-01 2.602936744689941406e+00 1.146971106529235840e+00
2.963000000000000000e+03 7.225213623046875000e+01 1.041159439086914062e+01 8.185214042663574219e+00 2.278927087783813477e+00 3.139242410659790039e+00 2.164667367935180664e+00
2.964000000000000000e+03 7.214560699462890625e+01 1.099155998229980469e+01 6.144766807556152344e+00 6.109391212463378906e+00 3.676247358322143555e+00 3.419795274734497070e+00
2.965000000000000000e+03 7.203460693359375000e+01 1.127787494659423828e+01 4.813208580017089844e+00 7.472581863403320312e+00 3.685737133026123047e+00 3.474908828735351562e+00
2.966000000000000000e+03 7.167491912841796875e+01 1.155252361297607422e+01 2.993835687637329102e+00 9.835630416870117188e+00 3.848839998245239258e+00 3.583059310913085938e+00
2.967000000000000000e+03 7.128361511230468750e+01 1.182727813720703125e+01 1.026636600494384766e+00 1.175121879577636719e+01 3.833356618881225586e+00 2.438979864120483398e+00
2.968000000000000000e+03 7.064942169189453125e+01 1.156206226348876953e+01 -1.937022507190704346e-01 1.436843872070312500e+01 4.252420902252197266e+00 4.514966011047363281e-01
2.969000000000000000e+03 7.047340393066406250e+01 1.193953227996826172e+01 -4.437913000583648682e-01 1.221937751770019531e+01 3.532675743103027344e+00 -6.955061554908752441e-01
2.970000000000000000e+03 6.912325286865234375e+01 1.216879081726074219e+01 5.655981302261352539e-01 5.551698207855224609e+00 1.835188865661621094e+00 -2.711999654769897461e+00
2.971000000000000000e+03 6.878675842285156250e+01 1.189511871337890625e+01 1.077640891075134277e+00 3.729409456253051758e+00 1.442115068435668945e+00 -2.381033182144165039e+00
2.972000000000000000e+03 6.863113403320312500e+01 1.186273956298828125e+01 1.079717874526977539e+00 2.998278141021728516e+00 1.223398804664611816e+00 -2.083734750747680664e+00
2.973000000000000000e+03 6.865613555908203125e+01 1.164722061157226562e+01 1.314257621765136719e+00 2.689131498336791992e+00 1.201016664505004883e+00 -2.029927730560302734e+00
2.974000000000000000e+03 6.814347839355468750e+01 1.192169094085693359e+01 8.707494139671325684e-01 1.895153880119323730e+00 8.297709822654724121e-01 -1.289533972740173340e+00
2.975000000000000000e+03 6.746410369873046875e+01 1.179401111602783203e+01 3.771471083164215088e-01 7.670037150382995605e-01 3.432452380657196045e-01 -3.549167215824127197e-01
2.976000000000000000e+03 3.664881134033203125e+01 1.326103305816650391e+01 -3.231458961963653564e-01 -9.448745101690292358e-02 -1.252900063991546631e-01 1.928856670856475830e-01
2.977000000000000000e+03 1.931091499328613281e+01 2.518086671829223633e+00 -7.982427254319190979e-03 5.637120921164751053e-03 -7.035919115878641605e-04 3.873123496305197477e-04
2.978000000000000000e+03 1.485604381561279297e+01 -3.191070318222045898e+00 1.539256051182746887e-02 1.199526339769363403e-02 8.216347545385360718e-03 -1.389353629201650620e-02
2.979000000000000000e+03 2.222755813598632812e+01 9.542832374572753906e+00 -6.746254861354827881e-03 2.298536896705627441e-02 4.871734417974948883e-03 8.881578221917152405e-03
2.980000000000000000e+03 7.265766143798828125e+01 1.004200744628906250e+01 6.966844558715820312e+00 -8.865803480148315430e-02 2.063456058502197266e+00 -1.085107445716857910e+00
2.981000000000000000e+03 6.977388763427734375e+01 1.215306472778320312e+01 -1.170586198568344116e-01 8.704298973083496094e+00 2.576172113418579102e+00 -2.615057468414306641e+00
2.982000000000000000e+03 6.953454589843750000e+01 1.229533672332763672e+01 2.512348629534244537e-02 7.466002464294433594e+00 2.247337818145751953e+00 -2.658689737319946289e+00
2.983000000000000000e+03 4.305831432342529297e+00 -3.163211822509765625e+00 5.889622028917074203e-03 3.343882563058286905e-04 1.867203158326447010e-03 9.529165923595428467e-03
2.984000000000000000e+03 7.051747131347656250e+01 8.087123870849609375e+00 -3.371901273727416992e+00 1.385253429412841797e+01 3.144190073013305664e+00 5.788468837738037109e+00
2.985000000000000000e+03 6.775653839111328125e+01 1.232410049438476562e+01 2.652796804904937744e-01 1.838883876800537109e+00 6.312490701675415039e-01 -1.022602796554565430e+00
2.986000000000000000e+03 7.049095916748046875e+01 7.772224903106689453e+00 1.275666713714599609e+00 1.394113159179687500e+01 4.565039634704589844e+00 6.681616306304931641e+00
2.987000000000000000e+03 6.890239715576171875e+01 1.244091987609863281e+01 3.699762821197509766e-01 4.898152351379394531e+00 1.580438613891601562e+00 -2.411276102066040039e+00
2.988000000000000000e+03 6.846104431152343750e+01 1.187028026580810547e+01 1.110718131065368652e+00 2.547021150588989258e+00 1.097321867942810059e+00 -1.791619896888732910e+00
2.989000000000000000e+03 6.864295959472656250e+01 1.205683898925781250e+01 9.327508807182312012e-01 3.465148687362670898e+00 1.319369792938232422e+00 -2.187832117080688477e+00
2.990000000000000000e+03 6.836261749267578125e+01 1.234118747711181641e+01 5.635111927986145020e-01 3.110763311386108398e+00 1.102282404899597168e+00 -1.798702716827392578e+00
2.991000000000000000e+03 6.814855194091796875e+01 1.224483013153076172e+01 5.294119119644165039e-01 2.453181982040405273e+00 8.947781920433044434e-01 -1.516960024833679199e+00
2.992000000000000000e+03 6.799781036376953125e+01 1.252136898040771484e+01 2.838384211063385010e-01 2.536215305328369141e+00 8.460161089897155762e-01 -1.420909523963928223e+00
2.993000000000000000e+03 6.559759616851806641e+00 -3.061874866485595703e+00 9.020614437758922577e-03 1.031256630085408688e-03 3.015561262145638466e-03 1.041898783296346664e-02
2.994000000000000000e+03 6.931328582763671875e+01 7.395925521850585938e+00 1.828650236129760742e+00 1.346566867828369141e+01 4.588295459747314453e+00 3.820963621139526367e+00
2.995000000000000000e+03 7.112189483642578125e+01 1.207038116455078125e+01 3.137308955192565918e-01 1.154839611053466797e+01 3.558638095855712891e+00 1.482265830039978027e+00
2.996000000000000000e+03 7.079189300537109375e+01 1.213096427917480469e+01 -2.777355909347534180e-01 1.154970264434814453e+01 3.381590127944946289e+00 3.052351176738739014e-01
2.997000000000000000e+03 7.199703216552734375e+01 1.163024425506591797e+01 3.367477416992187500e+00 8.648138999938964844e+00 3.604684829711914062e+00 3.151244640350341797e+00
2.998000000000000000e+03 2.710144996643066406e+01 1.263387203216552734e+01 -3.506837040185928345e-02 -3.562571853399276733e-02 -2.120822668075561523e-02 -2.457959763705730438e-02
2.999000000000000000e+03 2.745789909362792969e+01 1.379406070709228516e+01 -1.093830615282058716e-01 -2.439707145094871521e-02 -4.013403877615928650e-02 5.060832202434539795e-02
3.000000000000000000e+03 4.351349830627441406e+00 -3.849081277847290039e+00 1.880060881376266479e-04 3.335353219881653786e-03 1.057007815688848495e-03 9.044514968991279602e-03
3.001000000000000000e+03 4.838093280792236328e+00 -3.850176334381103516e+00 2.189763356000185013e-03 -4.410178225953131914e-04 5.246236105449497700e-04 9.923161938786506653e-03
3.002000000000000000e+03 4.863652801513671875e+01 1.874520111083984375e+01 -9.964333176612854004e-01 -5.539086461067199707e-01 -4.651025831699371338e-01 4.273305237293243408e-01
3.003000000000000000e+03 2.953376388549804688e+01 1.041019320487976074e+00 -1.034889459609985352e+00 -7.598491311073303223e-01 -5.384215712547302246e-01 2.037702053785324097e-01
3.004000000000000000e+03 2.945850944519042969e+01 2.001347064971923828e+00 1.534776482731103897e-02 -4.179192483425140381e-01 -1.207714453339576721e-01 1.153883188962936401e-01
3.005000000000000000e+03 2.794276809692382812e+01 -4.685202121734619141e+00 2.966864109039306641e-01 -7.715106606483459473e-01 -1.424472630023956299e-01 -8.959215879440307617e-01
3.006000000000000000e+03 5.173366928100585938e+01 8.591780662536621094e+00 5.287786480039358139e-03 -3.369798883795738220e-02 -8.523060940206050873e-03 -1.249734964221715927e-02
3.007000000000000000e+03 2.405599975585937500e+01 -1.183201694488525391e+01 -3.008570969104766846e-01 -9.640185236930847168e-01 -3.794626891613006592e-01 -5.318030714988708496e-01
3.008000000000000000e+03 3.502944946289062500e+01 2.237898349761962891e+00 -6.199710965156555176e-01 2.078094333410263062e-01 -1.236484944820404053e-01 -4.633085057139396667e-02
3.009000000000000000e+03 6.683656215667724609e+00 -3.614567947387695312e+01 2.884643524885177612e-02 -2.652314305305480957e-01 -7.091549783945083618e-02 -4.964177310466766357e-02
3.010000000000000000e+03 6.911407470703125000e+01 -2.056655120849609375e+01 4.509460628032684326e-01 2.784322977066040039e+00 9.705806970596313477e-01 1.272125840187072754e+00
3.011000000000000000e+03 7.001324462890625000e+01 -1.860173606872558594e+01 4.546916186809539795e-01 2.886941432952880859e+00 1.002489924430847168e+00 2.085254907608032227e+00
3.012000000000000000e+03 6.358523941040039062e+01 1.469654560089111328e+00 -6.060562133789062500e-01 1.422561526298522949e+00 2.449515759944915771e-01 2.276262283325195312e+00
3.013000000000000000e+03 6.931378173828125000e+01 1.231901836395263672e+01 2.292933166027069092e-01 6.352195739746093750e+00 1.974446773529052734e+00 -2.719447374343872070e+00
3.014000000000000000e+03 6.956320190429687500e+01 1.264292335510253906e+01 -2.608068585395812988e-01 7.379250526428222656e+00 2.135533094406127930e+00 -2.394064188003540039e+00
3.015000000000000000e+03 7.822853088378906250e+01 4.317766666412353516e+00 4.007300138473510742e-01 1.005539989471435547e+01 3.136838912963867188e+00 -3.584301948547363281e+00
3.016000000000000000e+03 5.377847290039062500e+01 8.099764823913574219e+00 -4.784755292348563671e-04 -1.140688359737396240e-02 -3.565607592463493347e-03 -3.142971172928810120e-02
3.017000000000000000e+03 7.257246398925781250e+01 1.077420616149902344e+01 6.337393760681152344e+00 3.906306505203247070e+00 3.073110103607177734e+00 1.314162611961364746e+00
3.018000000000000000e+03 7.253996276855468750e+01 1.107049560546875000e+01 5.326877593994140625e+00 5.114513397216796875e+00 3.132417440414428711e+00 1.810053229331970215e+00
3.019000000000000000e+03 5.275740051269531250e+01 1.388712978363037109e+01 -1.116342186927795410e+00 7.028568536043167114e-02 -3.138169348239898682e-01 5.500649213790893555e-01
3.020000000000000000e+03 4.109487915039062500e+01 -1.044541835784912109e+01 3.844797313213348389e-01 -4.062931835651397705e-01 -6.544037256389856339e-03 -4.046809673309326172e-01
3.021000000000000000e+03 7.811961364746093750e+01 -3.714154815673828125e+01 8.316925959661602974e-04 5.968971252441406250e+00 1.790940880775451660e+00 1.153208464384078979e-01
3.022000000000000000e+03 3.217761039733886719e+00 -3.798419713973999023e+00 3.836530493572354317e-03 3.987343516200780869e-03 2.347162226215004921e-03 1.040570717304944992e-02
3.023000000000000000e+03 6.855832672119140625e+01 1.243119049072265625e+01 4.595274031162261963e-01 3.754451990127563477e+00 1.264193773269653320e+00 -2.070805072784423828e+00
3.024000000000000000e+03 6.785369110107421875e+01 1.289008235931396484e+01 -1.023169085383415222e-01 2.652758359909057617e+00 7.651324868202209473e-01 -1.415302395820617676e+00
3.025000000000000000e+03 7.835420227050781250e+01 9.619256973266601562e+00 1.558061838150024414e-01 7.229304313659667969e+00 2.215533256530761719e+00 9.739818572998046875e-01
3.026000000000000000e+03 7.066785430908203125e+01 1.235834312438964844e+01 -5.718776583671569824e-01 1.092943763732910156e+01 3.107268095016479492e+00 -2.985858321189880371e-01
3.027000000000000000e+03 7.037354278564453125e+01 1.246029376983642578e+01 -6.970470547676086426e-01 1.025100135803222656e+01 2.866186141967773438e+00 -1.009788751602172852e+00
3.028000000000000000e+03 7.020262908935546875e+01 1.266210365295410156e+01 -6.624811291694641113e-01 9.290295600891113281e+00 2.588344335556030273e+00 -1.406441807746887207e+00
3.029000000000000000e+03 6.983563995361328125e+01 1.250646686553955078e+01 -4.095371365547180176e-01 8.550207138061523438e+00 2.442201137542724609e+00 -2.142961740493774414e+00
3.030000000000000000e+03 3.370544433593750000e+00 5.571520805358886719e+00 -1.474499935284256935e-03 -8.501195698045194149e-04 -6.973858107812702656e-04 3.653537947684526443e-03
3.031000000000000000e+03 3.295429229736328125e+01 4.722471237182617188e+00 2.869292199611663818e-01 -2.202623933553695679e-01 2.000004425644874573e-02 -1.404353082180023193e-01
3.032000000000000000e+03 6.789586639404296875e+01 -2.118976402282714844e+01 3.217423260211944580e-01 2.157335281372070312e+00 7.437232732772827148e-01 5.791602730751037598e-01
3.033000000000000000e+03 6.539997863769531250e+01 -1.855229187011718750e+01 -3.361719548702239990e-01 1.714329481124877930e+00 4.134472608566284180e-01 -3.233025074005126953e-01
3.034000000000000000e+03 7.231072235107421875e+01 1.237720966339111328e+01 1.734312176704406738e+00 8.285179138183593750e+00 3.005847215652465820e+00 1.738959193229675293e+00
3.035000000000000000e+03 7.124128723144531250e+01 -1.682185173034667969e+00 -1.787595748901367188e+00 2.442476034164428711e+00 1.964640915393829346e-01 -2.291875839233398438e+00
3.036000000000000000e+03 3.814120483398437500e+01 -2.453263092041015625e+01 8.312819898128509521e-02 -1.078475639224052429e-01 -7.415809668600559235e-03 -2.849405705928802490e-01
3.037000000000000000e+03 3.584882354736328125e+01 1.951430130004882812e+01 -4.117441773414611816e-01 -4.883797466754913330e-02 -1.381746530532836914e-01 2.340764254331588745e-01
3.038000000000000000e+03 6.410856628417968750e+01 4.664668142795562744e-01 -1.568548679351806641e+00 2.483136653900146484e+00 2.743763923645019531e-01 3.090064048767089844e+00
3.039000000000000000e+03 6.759941577911376953e+00 3.301553344726562500e+01 1.097909081727266312e-02 -8.929126709699630737e-02 -2.349365316331386566e-02 3.754137456417083740e-02
3.040000000000000000e+03 7.304907226562500000e+01 1.137881374359130859e+01 4.353288650512695312e+00 5.038120269775390625e+00 2.817422866821289062e+00 4.681213796138763428e-01
3.041000000000000000e+03 7.265605926513671875e+01 1.143756389617919922e+01 4.568648815155029297e+00 6.016413211822509766e+00 3.175518512725830078e+00 1.821288585662841797e+00
3.042000000000000000e+03 3.156622886657714844e+01 -1.119359970092773438e+01 6.333734374493360519e-03 6.069715619087219238e-01 1.839915961027145386e-01 -1.111924499273300171e-01
3.043000000000000000e+03 2.586315631866455078e+00 -3.429552793502807617e+00 9.493712568655610085e-04 2.197212306782603264e-03 9.439750574529170990e-04 6.765134632587432861e-03
3.044000000000000000e+03 6.898317718505859375e+01 1.277340698242187500e+01 8.276202715933322906e-03 5.322501659393310547e+00 1.599233388900756836e+00 -2.320719957351684570e+00
3.045000000000000000e+03 2.403391647338867188e+01 2.660822296142578125e+01 -1.778057590126991272e-02 -1.194659620523452759e-01 -4.117396101355552673e-02 1.862849891185760498e-01
3.046000000000000000e+03 4.043259048461914062e+01 -6.712228298187255859e+00 5.206951498985290527e-01 -1.097747981548309326e-01 1.232761144638061523e-01 -4.591441750526428223e-01
3.047000000000000000e+03 7.226087951660156250e+01 1.311491966247558594e+01 4.756885766983032227e-01 8.413507461547851562e+00 2.666758775711059570e+00 1.062502503395080566e+00
3.048000000000000000e+03 8.034987449645996094e+00 -3.405831909179687500e+01 4.035687074065208435e-02 -2.477749139070510864e-01 -6.222541257739067078e-02 -7.603665441274642944e-02
3.049000000000000000e+03 6.846908569335937500e+01 1.265601253509521484e+01 1.988989263772964478e-01 3.671308040618896484e+00 1.161062121391296387e+00 -1.896818876266479492e+00
3.050000000000000000e+03 6.871967315673828125e+01 1.284745979309082031e+01 5.649738013744354248e-02 4.587829589843750000e+00 1.393298149108886719e+00 -2.150448560714721680e+00
3.051000000000000000e+03 6.847875213623046875e+01 1.293646049499511719e+01 -6.106583401560783386e-02 3.994306802749633789e+00 1.179972290992736816e+00 -1.943321943283081055e+00
3.052000000000000000e+03 6.813018035888671875e+01 1.343395328521728516e+01 -3.829871416091918945e-01 3.555902004241943359e+00 9.518744945526123047e-01 -1.707367539405822754e+00
3.053000000000000000e+03 5.600295257568359375e+01 -3.590069770812988281e+00 2.307274788618087769e-01 -3.921294212341308594e-01 -4.842058569192886353e-02 -2.645553052425384521e-01
3.054000000000000000e+03 6.844515228271484375e+01 1.395743560791015625e+01 -6.138060092926025391e-01 4.462028026580810547e+00 1.154466509819030762e+00 -1.879928112030029297e+00
3.055000000000000000e+03 7.352579498291015625e+01 1.262113761901855469e+01 1.356404185295104980e+00 7.305163860321044922e+00 2.598470449447631836e+00 4.481993019580841064e-01
3.056000000000000000e+03 4.066443920135498047e+00 -2.490048408508300781e+01 -3.298600786365568638e-04 -1.544539332389831543e-01 -4.643513634800910950e-02 -7.051707059144973755e-02
3.057000000000000000e+03 4.763517379760742188e+01 2.759209442138671875e+01 2.491365969181060791e-01 -5.200985074043273926e-02 5.913802236318588257e-02 3.376200497150421143e-01
3.058000000000000000e+03 4.734197616577148438e+01 2.962840080261230469e+01 4.023987352848052979e-01 -1.242426689714193344e-02 1.169923394918441772e-01 3.031978905200958252e-01
3.059000000000000000e+03 6.479828643798828125e+01 -1.778065872192382812e+01 -6.032671332359313965e-01 1.729980826377868652e+00 3.380141258239746094e-01 -2.343252897262573242e-01
3.060000000000000000e+03 3.616063833236694336e+00 1.036947727203369141e+01 1.960369758307933807e-03 -7.869086228311061859e-03 -1.772615010850131512e-03 2.583146328106522560e-03
3.061000000000000000e+03 2.807954406738281250e+01 1.722020912170410156e+01 -3.185915350914001465e-01 1.510392595082521439e-02 -9.104628115892410278e-02 1.636282950639724731e-01
3.062000000000000000e+03 5.039181137084960938e+01 -2.269414710998535156e+01 -9.775161743164062500e-02 5.627599954605102539e-01 1.395025104284286499e-01 -1.786085218191146851e-01
3.063000000000000000e+03 6.865161895751953125e+01 1.313601589202880859e+01 -2.092539072036743164e-01 4.489241123199462891e+00 1.283996105194091797e+00 -2.056791782379150391e+00
3.064000000000000000e+03 6.888481903076171875e+01 1.359037303924560547e+01 -5.385417938232421875e-01 5.246072292327880859e+00 1.412259221076965332e+00 -2.050189971923828125e+00
3.065000000000000000e+03 5.526087951660156250e+01 -4.584165096282958984e+00 4.470112621784210205e-01 -2.732382118701934814e-01 5.213191732764244080e-02 -2.776906192302703857e-01
3.066000000000000000e+03 6.491958618164062500e+01 1.535798835754394531e+01 -1.409749746322631836e+00 2.564106583595275879e-01 -3.460017442703247070e-01 -1.177946805953979492e+00
3.067000000000000000e+03 6.020938110351562500e+01 -1.508358955383300781e+01 -4.787954688072204590e-01 2.259046554565429688e+00 5.340753197669982910e-01 2.059791088104248047e-01
3.068000000000000000e+03 2.538425827026367188e+01 2.525809478759765625e+01 -5.320884659886360168e-02 -1.138386949896812439e-01 -5.011426284909248352e-02 1.971001923084259033e-01
3.069000000000000000e+03 7.547999572753906250e+01 -2.894368743896484375e+01 6.387585401535034180e-02 5.784659862518310547e+00 1.754560708999633789e+00 4.770563244819641113e-01
3.070000000000000000e+03 4.981246471405029297e+00 1.187150955200195312e+01 3.626681864261627197e-03 -9.439465589821338654e-03 -1.743834931403398514e-03 9.557917946949601173e-04
3.071000000000000000e+03 1.889025497436523438e+01 -9.158577919006347656e+00 -2.535635530948638916e-01 3.691447898745536804e-02 -6.499472260475158691e-02 1.806895807385444641e-02
3.072000000000000000e+03 1.797882652282714844e+01 -9.913572311401367188e+00 -2.593232691287994385e-01 2.012817934155464172e-02 -7.175853103399276733e-02 -7.977812737226486206e-02
3.073000000000000000e+03 4.276708602905273438e+00 7.284346103668212891e+00 -2.032110234722495079e-03 -4.215469583868980408e-03 -1.874273875728249550e-03 7.107316516339778900e-03
3.074000000000000000e+03 5.168503570556640625e+01 -2.887472534179687500e+01 3.922465443611145020e-01 7.815833091735839844e-01 3.521489500999450684e-01 -2.638981118798255920e-02
3.075000000000000000e+03 7.046885681152343750e+01 -2.143387603759765625e+01 3.592813909053802490e-01 3.667325019836425781e+00 1.207981944084167480e+00 1.187210559844970703e+00
3.076000000000000000e+03 7.081496429443359375e+01 -2.247150230407714844e+01 -2.747649326920509338e-02 4.054898738861083984e+00 1.208226799964904785e+00 1.026400685310363770e+00
3.077000000000000000e+03 7.300123596191406250e+01 -2.275449752807617188e+01 1.305867731571197510e-01 5.268137454986572266e+00 1.619617342948913574e+00 1.020516991615295410e+00
3.078000000000000000e+03 7.027301788330078125e+01 1.345972156524658203e+01 -9.087272882461547852e-01 8.131794929504394531e+00 2.166920423507690430e+00 -1.126662015914916992e+00
3.079000000000000000e+03 6.992426300048828125e+01 1.408794212341308594e+01 -1.019020557403564453e+00 7.152097702026367188e+00 1.839923262596130371e+00 -1.476147055625915527e+00
3.080000000000000000e+03 7.323559570312500000e+01 1.290664196014404297e+01 1.252536535263061523e+00 7.598778724670410156e+00 2.655394554138183594e+00 8.677241802215576172e-01
3.081000000000000000e+03 6.420903778076171875e+01 -2.134499359130859375e+01 1.883598417043685913e-02 1.984744191169738770e+00 6.010740399360656738e-01 -5.203757062554359436e-02
3.082000000000000000e+03 7.064356994628906250e+01 1.332609939575195312e+01 -8.925026655197143555e-01 8.963655471801757812e+00 2.421345949172973633e+00 -7.062972784042358398e-01
3.083000000000000000e+03 2.889705467224121094e+01 -1.599915599822998047e+01 -9.852185845375061035e-02 -1.095120459794998169e-01 -6.241017207503318787e-02 4.754015803337097168e-02
3.084000000000000000e+03 2.778773689270019531e+01 1.894169807434082031e+01 -2.996650934219360352e-01 -2.074641175568103790e-02 -9.612344950437545776e-02 1.615563780069351196e-01
3.085000000000000000e+03 2.811888694763183594e+01 2.263635253906250000e+01 -1.739012748003005981e-01 -7.758780568838119507e-02 -7.544672489166259766e-02 2.061635255813598633e-01
3.086000000000000000e+03 1.193029022216796875e+01 2.945541763305664062e+01 4.998183343559503555e-03 -7.956262677907943726e-02 -2.236933261156082153e-02 7.910157740116119385e-02
3.087000000000000000e+03 6.721585845947265625e+01 1.603449058532714844e+01 -9.633548259735107422e-01 2.959787607192993164e+00 5.989298224449157715e-01 -1.717102766036987305e+00
3.088000000000000000e+03 5.513254928588867188e+01 1.935744476318359375e+01 -8.581027388572692871e-01 2.929918766021728516e-01 -1.695332676172256470e-01 2.668861150741577148e-01
3.089000000000000000e+03 7.090318298339843750e+01 -2.438850975036621094e+01 1.344371438026428223e-01 4.138175487518310547e+00 1.281783819198608398e+00 8.329947590827941895e-01
3.090000000000000000e+03 5.291120529174804688e+01 2.388864326477050781e+01 -6.886182725429534912e-02 1.495554745197296143e-01 2.420809492468833923e-02 1.814440339803695679e-01
3.091000000000000000e+03 8.954490661621093750e+00 3.278805160522460938e+01 1.511033717542886734e-02 -9.101781994104385376e-02 -2.277224510908126831e-02 5.105855315923690796e-02
3.092000000000000000e+03 1.140245151519775391e+01 -5.897115230560302734e+00 -1.474300585687160492e-02 -2.076118253171443939e-02 -1.065125688910484314e-02 -7.036761846393346786e-03
3.093000000000000000e+03 6.394736862182617188e+01 -2.023106765747070312e+01 -6.532645970582962036e-02 1.990904331207275391e+00 5.776733756065368652e-01 -2.261134386062622070e-01
3.094000000000000000e+03 6.448924255371093750e+01 -2.478393745422363281e+01 3.105453550815582275e-01 2.317046880722045898e+00 7.882776856422424316e-01 2.309073060750961304e-01
3.095000000000000000e+03 6.537837982177734375e+01 1.576288890838623047e+01 -1.129550457000732422e+00 8.282684087753295898e-01 -9.038462489843368530e-02 -1.251538515090942383e+00
3.096000000000000000e+03 6.599823760986328125e+01 1.585981273651123047e+01 -1.116197228431701660e+00 1.623059272766113281e+00 1.520586311817169189e-01 -1.498546004295349121e+00
3.097000000000000000e+03 5.590603256225585938e+01 1.553443145751953125e+01 -1.364200830459594727e+00 3.914553225040435791e-01 -2.918236553668975830e-01 3.346019685268402100e-01
3.098000000000000000e+03 1.532305145263671875e+01 -1.031545925140380859e+01 -1.610948890447616577e-01 8.311984129250049591e-03 -4.583486914634704590e-02 -5.481528118252754211e-02
3.099000000000000000e+03 2.959078979492187500e+01 2.309212303161621094e+01 -1.578611731529235840e-01 -8.626727014780044556e-02 -7.323853671550750732e-02 2.349670678377151489e-01
3.100000000000000000e+03 5.303307533264160156e+00 1.287403488159179688e+01 2.047210698947310448e-03 -8.198770694434642792e-03 -1.845467952080070972e-03 1.774593489244580269e-03
3.101000000000000000e+03 7.265705108642578125e+01 1.517641258239746094e+01 -6.471883058547973633e-01 7.800989627838134766e+00 2.146140336990356445e+00 1.428961604833602905e-01
3.102000000000000000e+03 7.174043273925781250e+01 1.458672714233398438e+01 -7.893567085266113281e-01 7.953471660614013672e+00 2.149234533309936523e+00 -4.364547133445739746e-02
3.103000000000000000e+03 7.166618347167968750e+01 1.503140640258789062e+01 -9.114645719528198242e-01 7.734433650970458984e+00 2.046890735626220703e+00 -2.863484919071197510e-01
3.104000000000000000e+03 6.940221405029296875e+01 1.421250152587890625e+01 -9.540442824363708496e-01 6.190188884735107422e+00 1.570843338966369629e+00 -1.720132827758789062e+00
3.105000000000000000e+03 6.666180419921875000e+01 1.685001564025878906e+01 -7.964567542076110840e-01 2.531283617019653320e+00 5.204480886459350586e-01 -1.601978063583374023e+00
3.106000000000000000e+03 1.429597473144531250e+01 2.650500488281250000e+01 -2.136925235390663147e-02 -6.324051320552825928e-02 -2.538293041288852692e-02 9.680076688528060913e-02
3.107000000000000000e+03 6.940588378906250000e+01 1.484723663330078125e+01 -1.076518535614013672e+00 5.898512840270996094e+00 1.446598291397094727e+00 -1.621379494667053223e+00
3.108000000000000000e+03 5.563692569732666016e+00 1.577768611907958984e+01 -4.234467167407274246e-03 -1.022820547223091125e-02 -4.338801838457584381e-03 3.949936013668775558e-03
3.109000000000000000e+03 6.913990783691406250e+01 1.449310779571533203e+01 -9.553939104080200195e-01 5.633136749267578125e+00 1.403322935104370117e+00 -1.741878271102905273e+00
3.110000000000000000e+03 3.759044647216796875e+01 2.388866043090820312e+01 -1.665052771568298340e-01 -8.561362326145172119e-02 -7.563567161560058594e-02 3.411625623703002930e-01
3.111000000000000000e+03 7.271762847900390625e+01 -2.395104217529296875e+01 -6.574651598930358887e-02 5.087982177734375000e+00 1.506670594215393066e+00 8.646282553672790527e-01
3.112000000000000000e+03 5.905573368072509766e+00 -8.212064743041992188e+00 -1.393781322985887527e-02 -7.303777150809764862e-03 -6.372476927936077118e-03 -9.701725502964109182e-05
3.113000000000000000e+03 1.426406955718994141e+01 2.518659591674804688e+01 -3.911709412932395935e-02 -4.845404252409934998e-02 -2.627133950591087341e-02 9.474976360797882080e-02
3.114000000000000000e+03 4.849160671234130859e+00 1.108343219757080078e+01 3.397047752514481544e-03 -7.648812606930732727e-03 -1.275529502891004086e-03 4.476664122194051743e-03
3.115000000000000000e+03 7.151180267333984375e+01 1.548637962341308594e+01 -1.004165530204772949e+00 7.436142921447753906e+00 1.929593205451965332e+00 -3.803495168685913086e-01
3.116000000000000000e+03 8.962118148803710938e+00 -6.400377273559570312e+00 -1.353798620402812958e-02 -1.659059338271617889e-02 -9.038574062287807465e-03 -1.058275927789509296e-03
3.117000000000000000e+03 7.535450935363769531e+00 2.464823150634765625e+01 -1.526933629065752029e-02 -3.869479149580001831e-02 -1.618923805654048920e-02 4.067759215831756592e-02
3.118000000000000000e+03 1.494566440582275391e+01 -1.200951576232910156e+01 -1.677353233098983765e-01 -3.240687400102615356e-02 -6.004265695810317993e-02 -1.069616749882698059e-01
3.119000000000000000e+03 7.383705139160156250e+01 1.913558959960937500e+01 -6.118135452270507812e-01 6.836847305297851562e+00 1.867510080337524414e+00 -2.223887592554092407e-01
3.120000000000000000e+03 7.479953765869140625e+01 1.947736549377441406e+01 -4.596130549907684326e-01 7.000396251678466797e+00 1.962234973907470703e+00 -8.506897091865539551e-02
3.121000000000000000e+03 6.958509826660156250e+01 1.552417850494384766e+01 -1.121460080146789551e+00 5.965315818786621094e+00 1.453156709671020508e+00 -1.479291558265686035e+00
3.122000000000000000e+03 6.408633422851562500e+01 2.313094139099121094e+01 9.390107542276382446e-02 1.932357907295227051e+00 6.078776717185974121e-01 -7.421552538871765137e-01
3.123000000000000000e+03 1.126225948333740234e+01 2.511436462402343750e+01 -2.742342650890350342e-02 -4.270678386092185974e-02 -2.103906311094760895e-02 6.855846196413040161e-02
3.124000000000000000e+03 6.989061737060546875e+01 1.604638481140136719e+01 -1.111025810241699219e+00 6.025295257568359375e+00 1.474280834197998047e+00 -1.331260919570922852e+00
3.125000000000000000e+03 6.073525905609130859e+00 1.693351364135742188e+01 -7.932206615805625916e-03 -1.221556030213832855e-02 -6.044330075383186340e-03 6.529405247420072556e-03
3.126000000000000000e+03 1.454308986663818359e+01 -1.319636726379394531e+01 -1.546933352947235107e-01 -3.060333430767059326e-02 -5.558900162577629089e-02 -1.185143068432807922e-01
3.127000000000000000e+03 8.556105613708496094e+00 -1.893223381042480469e+01 -3.035491518676280975e-02 -9.989674389362335205e-02 -3.907549753785133362e-02 -1.094648838043212891e-01
3.128000000000000000e+03 6.907134246826171875e+01 1.597311592102050781e+01 -1.039810061454772949e+00 5.179873466491699219e+00 1.242019057273864746e+00 -1.566753387451171875e+00
3.129000000000000000e+03 7.150023651123046875e+01 1.626247787475585938e+01 -1.039532303810119629e+00 7.064013957977294922e+00 1.807344436645507812e+00 -5.719583034515380859e-01
3.130000000000000000e+03 9.337912559509277344e+00 -1.265754413604736328e+01 -6.341440230607986450e-02 -3.516094759106636047e-02 -2.957260422408580780e-02 -5.515034869313240051e-02
3.131000000000000000e+03 7.026117706298828125e+01 1.987967491149902344e+01 -6.506350636482238770e-01 5.192700862884521484e+00 1.362619757652282715e+00 -1.033041954040527344e+00
3.132000000000000000e+03 7.043592071533203125e+01 1.855702972412109375e+01 -8.286032080650329590e-01 5.528698444366455078e+00 1.410028576850891113e+00 -1.034073472023010254e+00
3.133000000000000000e+03 6.624700164794921875e+01 1.084722900390625000e+01 -4.004471600055694580e-01 -7.789494097232818604e-02 -1.435026228427886963e-01 3.954134285449981689e-01
3.134000000000000000e+03 6.598725891113281250e+01 1.160581588745117188e+01 -1.760158687829971313e-01 -4.269269704818725586e-01 -1.808828413486480713e-01 4.300482571125030518e-01
3.135000000000000000e+03 6.722158813476562500e+01 1.110032939910888672e+01 -1.318621933460235596e-01 8.393704146146774292e-02 -1.437754649668931961e-02 4.538715779781341553e-01
3.136000000000000000e+03 6.704613494873046875e+01 1.056949138641357422e+01 -7.929272651672363281e-01 3.113899379968643188e-02 -2.285364866256713867e-01 4.704148173332214355e-01
3.137000000000000000e+03 6.716052246093750000e+01 1.073874568939208984e+01 -5.719617605209350586e-01 2.969211526215076447e-02 -1.626808941364288330e-01 5.345485210418701172e-01
3.138000000000000000e+03 6.720540618896484375e+01 1.091261482238769531e+01 -3.119212985038757324e-01 6.439603865146636963e-02 -7.425758242607116699e-02 4.525745213031768799e-01
3.139000000000000000e+03 6.661329650878906250e+01 1.137206649780273438e+01 -1.956908255815505981e-01 -1.984117180109024048e-02 -6.465960294008255005e-02 5.369539856910705566e-01
3.140000000000000000e+03 6.587573242187500000e+01 1.140107154846191406e+01 9.708910435438156128e-02 -2.674039602279663086e-01 -5.109445750713348389e-02 2.605477273464202881e-01
3.141000000000000000e+03 6.566201782226562500e+01 1.094504642486572266e+01 -1.311582028865814209e-01 -3.777622580528259277e-01 -1.526761353015899658e-01 2.226194292306900024e-01
3.142000000000000000e+03 6.686946105957031250e+01 1.033702468872070312e+01 -1.054089784622192383e+00 3.981269150972366333e-02 -3.042831122875213623e-01 3.157082796096801758e-01
3.143000000000000000e+03 6.719395446777343750e+01 1.128645992279052734e+01 -2.270861761644482613e-03 1.003236994147300720e-01 2.941584959626197815e-02 3.099516332149505615e-01
3.144000000000000000e+03 6.667986297607421875e+01 1.094014930725097656e+01 -3.734552562236785889e-01 -1.116694211959838867e-01 -1.455374062061309814e-01 5.530217885971069336e-01
3.145000000000000000e+03 6.698415374755859375e+01 1.094872379302978516e+01 -3.798277974128723145e-01 1.246476769447326660e-01 -7.655403763055801392e-02 5.299783945083618164e-01
3.146000000000000000e+03 6.702906036376953125e+01 1.152795600891113281e+01 -3.839829191565513611e-02 2.102373987436294556e-01 5.155172944068908691e-02 3.205673992633819580e-01
3.147000000000000000e+03 6.557823181152343750e+01 1.170124721527099609e+01 -3.411781489849090576e-01 -1.224404096603393555e+00 -4.696746766567230225e-01 8.128261566162109375e-01
3.148000000000000000e+03 6.553320312500000000e+01 1.162899684906005859e+01 8.143756538629531860e-02 -1.353386998176574707e+00 -3.815848231315612793e-01 5.375615954399108887e-01
3.149000000000000000e+03 6.698789215087890625e+01 1.118050956726074219e+01 -2.038592994213104248e-01 1.538423150777816772e-01 -1.500509306788444519e-02 3.646272420883178711e-01
3.150000000000000000e+03 5.672565841674804688e+01 1.177198696136474609e+01 -9.516240358352661133e-01 1.021375134587287903e-01 -2.548459470272064209e-01 2.203002013266086578e-02
3.151000000000000000e+03 5.631150817871093750e+01 1.216931438446044922e+01 -1.142043352127075195e+00 1.093865260481834412e-01 -3.097970485687255859e-01 3.108269907534122467e-02
3.152000000000000000e+03 5.854560852050781250e+01 1.172459602355957031e+01 -9.429814219474792480e-01 8.853843063116073608e-02 -2.563329041004180908e-01 -1.844954341650009155e-01
3.153000000000000000e+03 5.562295532226562500e+01 1.142395687103271484e+01 -1.071946024894714355e+00 5.918234586715698242e-02 -3.038291037082672119e-01 1.420706808567047119e-01
3.154000000000000000e+03 5.823726272583007812e+01 1.101326656341552734e+01 -3.960915803909301758e-01 1.825577951967716217e-02 -1.133507415652275085e-01 -1.342908143997192383e-01
3.155000000000000000e+03 5.907680130004882812e+01 1.140232467651367188e+01 -6.254804134368896484e-01 -1.469166278839111328e-01 -2.317191213369369507e-01 -2.719307541847229004e-01
3.156000000000000000e+03 5.564004898071289062e+01 1.217036724090576172e+01 -1.060485124588012695e+00 2.009814418852329254e-02 -3.121160864830017090e-01 1.113240420818328857e-01
3.157000000000000000e+03 5.688175582885742188e+01 1.216467857360839844e+01 -1.116237640380859375e+00 1.885000765323638916e-01 -2.783212661743164062e-01 -6.600908190011978149e-02
3.158000000000000000e+03 5.800333404541015625e+01 1.191236305236816406e+01 -1.105596423149108887e+00 1.484159678220748901e-01 -2.871541380882263184e-01 -1.977954953908920288e-01
3.159000000000000000e+03 5.741095352172851562e+01 1.111461067199707031e+01 -7.206351757049560547e-01 1.024656295776367188e-01 -1.854508668184280396e-01 1.047627162188291550e-02
3.160000000000000000e+03 5.744766616821289062e+01 1.165512657165527344e+01 -9.100314974784851074e-01 1.230094879865646362e-01 -2.361066043376922607e-01 -1.589593738317489624e-01
3.161000000000000000e+03 5.747770309448242188e+01 1.207070636749267578e+01 -1.147549748420715332e+00 2.070302665233612061e-01 -2.821558415889739990e-01 -5.573184043169021606e-02
3.162000000000000000e+03 5.651991653442382812e+01 1.125032997131347656e+01 -9.722975492477416992e-01 -5.125127360224723816e-02 -3.070646524429321289e-01 7.306063175201416016e-02
3.163000000000000000e+03 5.328820800781250000e+01 1.160719490051269531e+01 -6.726265549659729004e-01 -1.235975399613380432e-01 -2.388672232627868652e-01 1.311617195606231689e-01
3.164000000000000000e+03 5.253549957275390625e+01 1.165647983551025391e+01 -3.940245509147644043e-01 1.555756628513336182e-01 -7.153466343879699707e-02 2.067678719758987427e-01
3.165000000000000000e+03 5.479130554199218750e+01 1.151412296295166016e+01 -1.035934448242187500e+00 -1.019289940595626831e-01 -3.413590192794799805e-01 1.264186352491378784e-01
3.166000000000000000e+03 5.334827423095703125e+01 1.234487724304199219e+01 -7.824870944023132324e-01 8.278813213109970093e-02 -2.099096924066543579e-01 3.769658803939819336e-01
3.167000000000000000e+03 5.404014587402343750e+01 1.155970287322998047e+01 -8.673119544982910156e-01 9.700204432010650635e-02 -2.310929745435714722e-01 1.591376215219497681e-01
3.168000000000000000e+03 5.486436843872070312e+01 1.225100231170654297e+01 -1.002967953681945801e+00 6.813022494316101074e-02 -2.804513275623321533e-01 2.411642968654632568e-01
3.169000000000000000e+03 5.258906936645507812e+01 1.239457130432128906e+01 -6.948531866073608398e-01 -5.284959450364112854e-02 -2.243108302354812622e-01 3.402512669563293457e-01
3.170000000000000000e+03 5.410670852661132812e+01 1.229697513580322266e+01 -9.410022497177124023e-01 -4.033224284648895264e-02 -2.944003641605377197e-01 2.649890780448913574e-01
3.171000000000000000e+03 5.079259490966796875e+01 1.175848960876464844e+01 -9.010086953639984131e-02 9.215017408132553101e-02 6.147912354208528996e-04 -2.984243258833885193e-02
3.172000000000000000e+03 5.168463134765625000e+01 1.170880699157714844e+01 -1.214895471930503845e-01 -2.108770161867141724e-01 -9.970997273921966553e-02 8.149285614490509033e-02
3.173000000000000000e+03 5.173221206665039062e+01 1.244730472564697266e+01 -4.879740774631500244e-01 -9.202264994382858276e-02 -1.739990264177322388e-01 3.964210450649261475e-01
3.174000000000000000e+03 5.029224395751953125e+01 1.235795402526855469e+01 2.020562738180160522e-01 3.509206175804138184e-01 1.658930629491806030e-01 -2.107677459716796875e-01
3.175000000000000000e+03 5.083468627929687500e+01 1.249738883972167969e+01 8.808442950248718262e-02 -4.279912710189819336e-01 -1.019720584154129028e-01 2.601750791072845459e-01
3.176000000000000000e+03 5.060892486572265625e+01 1.101505851745605469e+01 -6.535230786539614201e-04 -4.578343126922845840e-03 -1.569559797644615173e-03 6.393220275640487671e-03
3.177000000000000000e+03 5.112440109252929688e+01 1.070893383026123047e+01 2.548950165510177612e-02 -6.816248060204088688e-05 7.626401726156473160e-03 6.572593934834003448e-03
3.178000000000000000e+03 5.041934967041015625e+01 1.028696346282958984e+01 3.966244682669639587e-02 8.821872062981128693e-03 1.454529538750648499e-02 1.768020540475845337e-02
3.179000000000000000e+03 5.004220962524414062e+01 1.050694465637207031e+01 8.532799780368804932e-03 1.611432246863842010e-02 7.394136860966682434e-03 3.183244494721293449e-03
3.180000000000000000e+03 5.178373336791992188e+01 1.017061328887939453e+01 2.229843847453594208e-02 -1.867512427270412445e-02 1.086993957869708538e-03 -4.678555298596620560e-03
3.181000000000000000e+03 5.085367965698242188e+01 1.018546295166015625e+01 1.244752574712038040e-02 -1.233814656734466553e-02 3.281369208707474172e-05 1.008099038153886795e-02
3.182000000000000000e+03 5.128680419921875000e+01 1.014740562438964844e+01 2.480015531182289124e-02 3.331025363877415657e-03 8.439354598522186279e-03 1.525479927659034729e-02
3.183000000000000000e+03 5.171361923217773438e+01 1.091773223876953125e+01 2.067477628588676453e-02 -4.179781535640358925e-04 6.077039521187543869e-03 6.019328255206346512e-03
3.184000000000000000e+03 5.551848602294921875e+01 1.065485763549804688e+01 2.173931105062365532e-03 -5.763574037700891495e-03 -1.076892833225429058e-03 -3.101074136793613434e-03
3.185000000000000000e+03 5.716370010375976562e+01 1.041251468658447266e+01 -2.134793438017368317e-03 -1.261006575077772141e-03 -1.018740003928542137e-03 -5.141271976754069328e-04
3.186000000000000000e+03 5.542705535888671875e+01 9.919204711914062500e+00 2.839249093085527420e-03 9.634586982429027557e-03 3.742150729522109032e-03 -1.613449770957231522e-03
3.187000000000000000e+03 5.779384613037109375e+01 1.013771343231201172e+01 4.109062720090150833e-04 -1.003958284854888916e-03 -1.779156009433791041e-04 2.230331883765757084e-04
3.188000000000000000e+03 5.637057495117187500e+01 1.053330230712890625e+01 1.187400077469646931e-03 4.793867003172636032e-03 1.794380135834217072e-03 -3.648700949270278215e-04
3.189000000000000000e+03 5.701178741455078125e+01 9.680922508239746094e+00 6.076134741306304932e-03 5.923664197325706482e-03 3.599939635023474693e-03 -5.408491706475615501e-04
3.190000000000000000e+03 5.624890518188476562e+01 9.799672126770019531e+00 -1.101986970752477646e-03 -4.053525626659393311e-03 -1.546653802506625652e-03 -2.309481147676706314e-03
3.191000000000000000e+03 3.058919191360473633e+00 3.710482716560363770e-01 6.768851308152079582e-04 -9.776042134035378695e-05 1.737374113872647285e-04 5.784312088508158922e-05
3.192000000000000000e+03 3.884933710098266602e+00 3.823724985122680664e-01 3.457269922364503145e-04 1.118909640354104340e-04 1.372853876091539860e-04 5.172703458811156452e-05
3.193000000000000000e+03 4.025801181793212891e+00 1.122372508049011230e+00 7.117069908417761326e-04 -1.929196005221456289e-04 1.556362112751230597e-04 2.880428510252386332e-04
3.194000000000000000e+03 1.729085445404052734e+00 1.105241179466247559e+00 -4.390932008391246200e-05 -6.972788833081722260e-05 -3.409116106922738254e-05 -3.125562507193535566e-04
3.195000000000000000e+03 1.433710694313049316e+00 3.652411401271820068e-01 2.960897691082209349e-04 6.968700472498312593e-05 1.097330314223654568e-04 -4.814580461243167520e-05
3.196000000000000000e+03 6.956086158752441406e-01 3.891016840934753418e-01 9.338759991806000471e-05 3.362233837833628058e-05 3.810297857853583992e-05 1.998113839363213629e-05
3.197000000000000000e+03 3.642284870147705078e-01 9.534841775894165039e-01 -1.849268155638128519e-04 2.973242590087465942e-05 -4.655831435229629278e-05 -8.899068052414804697e-05
3.198000000000000000e+03 2.239435195922851562e+00 3.632993698120117188e-01 2.938821562565863132e-04 -5.594319736701436341e-05 7.138169166864827275e-05 -1.543319376651197672e-04
3.199000000000000000e+03 3.251289129257202148e+00 1.111048340797424316e+00 -8.393197640543803573e-05 -1.446086826035752892e-04 -6.856219988549128175e-05 -1.881424541352316737e-04
3.200000000000000000e+03 2.483307361602783203e+00 1.103299379348754883e+00 5.237496225163340569e-04 -1.127459690906107426e-04 1.233010989381000400e-04 -1.472611347708152607e-05
3.201000000000000000e+03 1.042485833168029785e+00 1.129101634025573730e+00 2.139483112841844559e-04 2.365815744269639254e-04 1.351589598925784230e-04 -2.378153440076857805e-04
3.202000000000000000e+03 8.019037246704101562e+00 -5.698001384735107422e-01 2.224754355847835541e-02 1.230424270033836365e-03 7.043390069156885147e-03 -8.552984800189733505e-04
3.203000000000000000e+03 8.802864074707031250e+00 -1.147397160530090332e+00 2.124682627618312836e-02 2.666081301867961884e-03 7.173872552812099457e-03 2.802032744511961937e-03
3.204000000000000000e+03 7.366508960723876953e+00 -1.208535552024841309e+00 1.763073168694972992e-02 1.250550034455955029e-03 5.664384458214044571e-03 5.715260747820138931e-03
3.205000000000000000e+03 9.578845977783203125e+00 -1.131019115447998047e+00 2.350395359098911285e-02 -5.819270387291908264e-03 5.305404774844646454e-03 1.763978623785078526e-03
3.206000000000000000e+03 8.069246292114257812e+00 -1.189969897270202637e+00 2.230482175946235657e-02 -5.682185292243957520e-03 4.986791405826807022e-03 4.932989832013845444e-03
3.207000000000000000e+03 9.559395790100097656e+00 -3.910191655158996582e-01 3.000525012612342834e-02 4.010651260614395142e-03 1.020477060228586197e-02 -7.719153654761612415e-05
3.208000000000000000e+03 7.455066680908203125e+00 -6.983375549316406250e-01 1.922173611819744110e-02 -1.142393681220710278e-03 5.423802882432937622e-03 6.481565069407224655e-03
3.209000000000000000e+03 7.593650817871093750e+00 -2.498020380735397339e-01 2.646610699594020844e-02 4.647854249924421310e-03 9.334188885986804962e-03 3.328556893393397331e-03
3.210000000000000000e+03 8.711921691894531250e+00 -4.073971211910247803e-01 2.784172259271144867e-02 -4.580537322908639908e-03 6.978355348110198975e-03 1.930607133544981480e-03
3.211000000000000000e+03 5.357113838195800781e+00 -3.411730229854583740e-01 1.613994129002094269e-03 1.576871261931955814e-03 9.572596172802150249e-04 -1.411939854733645916e-03
3.212000000000000000e+03 4.608037471771240234e+00 -2.835304141044616699e-01 4.967935848981142044e-03 -1.525049447081983089e-03 1.032865955494344234e-03 -1.679485314525663853e-03
3.213000000000000000e+03 4.710992336273193359e+00 -1.023530364036560059e+00 1.265024207532405853e-02 -3.788483096286654472e-03 2.658527577295899391e-03 2.777661895379424095e-03
3.214000000000000000e+03 6.835397243499755859e+00 -7.025487422943115234e-01 1.712087169289588928e-02 -2.419790485873818398e-03 4.410324152559041977e-03 6.622908636927604675e-03
3.215000000000000000e+03 6.662335872650146484e+00 -1.208234548568725586e+00 2.332435734570026398e-02 -4.143253434449434280e-03 5.754331126809120178e-03 3.697033971548080444e-03
3.216000000000000000e+03 5.497839450836181641e+00 -1.081173062324523926e+00 2.484204247593879700e-02 1.000174228101968765e-02 1.045313477516174316e-02 3.419912885874509811e-03
3.217000000000000000e+03 6.861754417419433594e+00 -2.543141841888427734e-01 1.643988303840160370e-02 -5.274560302495956421e-03 3.349596867337822914e-03 2.004829468205571175e-03
3.218000000000000000e+03 6.181279182434082031e+00 -9.049344062805175781e-01 2.393730171024799347e-02 9.990303078666329384e-04 7.480899803340435028e-03 7.364154327660799026e-03
3.219000000000000000e+03 6.095579147338867188e+00 -3.066433668136596680e-01 6.102954968810081482e-03 3.702854271978139877e-03 2.941742772236466408e-03 4.695188254117965698e-03
3.220000000000000000e+03 6.431427001953125000e+00 1.820162296295166016e+00 -9.023206657730042934e-04 2.790744292724411935e-05 -2.623239706736057997e-04 5.683819181285798550e-04
3.221000000000000000e+03 7.159246444702148438e+00 1.673283696174621582e+00 8.483149576932191849e-04 -3.074987907893955708e-04 1.622448471607640386e-04 -9.785722941160202026e-04
3.222000000000000000e+03 1.469936847686767578e+01 1.773380279541015625e+00 3.358340123668313026e-03 1.380564551800489426e-02 5.149195902049541473e-03 -4.211300518363714218e-03
3.223000000000000000e+03 1.445661830902099609e+01 2.640754699707031250e+00 -1.706408569589257240e-03 5.765671841800212860e-03 1.217779004946351051e-03 -2.721027412917464972e-04
3.224000000000000000e+03 9.594597816467285156e+00 2.746501922607421875e+00 -1.116884668590500951e-04 1.374562620185315609e-03 3.788622561842203140e-04 -3.200386418029665947e-04
3.225000000000000000e+03 7.967365264892578125e+00 1.639453649520874023e+00 3.373784129507839680e-04 1.078125089406967163e-03 4.246510507073253393e-04 4.692751972470432520e-04
3.226000000000000000e+03 1.256250381469726562e+01 1.591072559356689453e+00 3.755450248718261719e-03 -2.138214913429692388e-04 1.062488649040460587e-03 5.883988342247903347e-04
3.227000000000000000e+03 1.195436763763427734e+01 1.626313209533691406e+00 1.582580734975636005e-03 9.432322694920003414e-04 7.577438955195248127e-04 -7.944300305098295212e-04
3.228000000000000000e+03 1.176981258392333984e+01 2.315680503845214844e+00 5.179527681320905685e-03 1.035023946315050125e-03 1.864365418441593647e-03 1.551468623802065849e-03
3.229000000000000000e+03 1.128148365020751953e+01 1.782198309898376465e+00 -1.409617485478520393e-03 -8.918414823710918427e-04 -6.904376787133514881e-04 1.631911436561495066e-04
3.230000000000000000e+03 1.052827453613281250e+01 2.693688869476318359e+00 1.167748239822685719e-03 1.256094856216805056e-05 3.540927718859165907e-04 2.000469248741865158e-04
3.231000000000000000e+03 9.096383094787597656e+00 2.099678754806518555e+00 -1.464371569454669952e-03 -1.438628300093114376e-03 -8.708999375812709332e-04 -7.810583920218050480e-04
3.232000000000000000e+03 1.042359733581542969e+01 1.879573464393615723e+00 -6.973157287575304508e-04 -5.522890714928507805e-04 -3.748814342543482780e-04 -2.499806869309395552e-04
3.233000000000000000e+03 8.796865463256835938e+00 1.672843456268310547e+00 5.238461308181285858e-04 -2.224981784820556641e-03 -5.103406729176640511e-04 -7.323285099118947983e-04
3.234000000000000000e+03 1.232376384735107422e+01 1.987425327301025391e+00 -5.550615955144166946e-03 -1.012594089843332767e-03 -1.968963071703910828e-03 -3.690902667585760355e-04
3.235000000000000000e+03 1.316373729705810547e+01 1.650711774826049805e+00 -3.685182426124811172e-03 -4.732751986011862755e-04 -1.247537322342395782e-03 7.524265092797577381e-04
3.236000000000000000e+03 1.512185192108154297e+01 2.405154466629028320e+00 -5.435509607195854187e-03 -6.370790302753448486e-03 -3.541889833286404610e-03 2.615563105791807175e-03
3.237000000000000000e+03 1.427688312530517578e+01 2.106805086135864258e+00 -6.980708334594964981e-03 1.174762961454689503e-03 -1.741783577017486095e-03 -2.211221726611256599e-03
3.238000000000000000e+03 1.373222541809082031e+01 2.722819328308105469e+00 -2.410521701676771045e-04 -5.075546214357018471e-04 -2.245820360258221626e-04 2.434108639135956764e-03
3.239000000000000000e+03 1.373459720611572266e+01 1.684970498085021973e+00 2.910933922976255417e-03 1.362514798529446125e-03 1.282034674659371376e-03 -3.439072985202074051e-03
3.240000000000000000e+03 1.140512371063232422e+01 2.768403291702270508e+00 -3.017353592440485954e-03 -3.145553870126605034e-03 -1.848872285336256027e-03 -1.642092014662921429e-03
3.241000000000000000e+03 1.369023799896240234e+01 2.191561698913574219e+00 -1.351603772491216660e-03 -9.033303358592092991e-04 -6.764802383258938789e-04 1.258378848433494568e-03
3.242000000000000000e+03 8.758806228637695312e+00 2.800725221633911133e+00 5.146785988472402096e-04 -1.497871126048266888e-03 -2.949577465187758207e-04 4.458113471628166735e-05
3.243000000000000000e+03 9.561607360839843750e+00 1.777740120887756348e+00 1.415001810528337955e-03 2.862550318241119385e-03 1.283265650272369385e-03 1.410459633916616440e-03
3.244000000000000000e+03 8.247145652770996094e+00 2.106858730316162109e+00 -4.199041577521711588e-04 8.483218261972069740e-04 1.285252947127446532e-04 2.980603603646159172e-04
3.245000000000000000e+03 1.293806552886962891e+01 2.733785867691040039e+00 -9.504858753643929958e-04 -2.462660893797874451e-03 -1.023944118060171604e-03 -6.662180530838668346e-04
3.246000000000000000e+03 1.215185070037841797e+01 2.787881851196289062e+00 3.150534175802022219e-04 4.361682105809450150e-03 1.403020694851875305e-03 -2.424373997200746089e-05
3.247000000000000000e+03 1.426091766357421875e+01 1.688389539718627930e+00 5.261285230517387390e-03 -3.712987992912530899e-03 4.644891014322638512e-04 5.927232559770345688e-04
3.248000000000000000e+03 1.298928642272949219e+01 2.174380540847778320e+00 4.922907333821058273e-03 9.352538618259131908e-04 1.757448422722518444e-03 -2.179459901526570320e-03
3.249000000000000000e+03 7.861133575439453125e+00 4.031277179718017578e+00 -6.181666976772248745e-04 -2.513022394850850105e-03 -9.393567452207207680e-04 9.801910491660237312e-04
3.250000000000000000e+03 7.410462379455566406e+00 3.546055316925048828e+00 1.808500732295215130e-03 1.750245108269155025e-03 1.067623728886246681e-03 -1.274164067581295967e-03
3.251000000000000000e+03 7.613649845123291016e+00 2.915391683578491211e+00 -5.477151717059314251e-04 -1.089585246518254280e-03 -4.911901196464896202e-04 -1.871071581263095140e-04
3.252000000000000000e+03 6.688477516174316406e+00 2.444559097290039062e+00 1.245560357347130775e-03 7.369770319201052189e-04 5.947612226009368896e-04 -7.279809215106070042e-04
3.253000000000000000e+03 8.198487281799316406e+00 3.243148326873779297e+00 3.190947463735938072e-04 2.751945052295923233e-03 9.213119628839194775e-04 -2.912206109613180161e-04
3.254000000000000000e+03 7.040536880493164062e+00 3.044068336486816406e+00 -1.704796100966632366e-03 -7.388882222585380077e-04 -7.331052911467850208e-04 1.571048167534172535e-03
3.255000000000000000e+03 7.417679786682128906e+00 2.185935020446777344e+00 -1.813695707824081182e-04 -7.832488627173006535e-04 -2.893855271395295858e-04 1.442865614080801606e-04
3.256000000000000000e+03 2.034901237487792969e+01 5.342971324920654297e+00 -3.522630035877227783e-02 8.582140435464680195e-04 -1.031042635440826416e-02 -8.589941076934337616e-03
3.257000000000000000e+03 2.110828781127929688e+01 5.289262771606445312e+00 -3.133375570178031921e-02 3.331455867737531662e-03 -8.400690741837024689e-03 -8.979250676929950714e-03
3.258000000000000000e+03 1.883009910583496094e+01 5.447298526763916016e+00 -4.108991846442222595e-02 -3.414912847802042961e-03 -1.335144881159067154e-02 -6.714781280606985092e-03
3.259000000000000000e+03 1.954028892517089844e+01 4.657379150390625000e+00 -5.159755051136016846e-02 5.303146899677813053e-04 -1.532017160207033157e-02 -2.956696844194084406e-04
3.260000000000000000e+03 2.104417419433593750e+01 4.551930904388427734e+00 -3.425090014934539795e-02 1.208595116622745991e-03 -9.912691079080104828e-03 -2.509713405743241310e-03
3.261000000000000000e+03 1.878804969787597656e+01 4.708437442779541016e+00 -6.075778976082801819e-02 -8.581918082199990749e-04 -1.848479546606540680e-02 -9.284221450798213482e-04
3.262000000000000000e+03 2.029225349426269531e+01 4.605130195617675781e+00 -4.345114901661872864e-02 4.435338196344673634e-04 -1.290228404104709625e-02 -1.304063131101429462e-03
3.263000000000000000e+03 1.958969306945800781e+01 5.395730018615722656e+00 -3.975911810994148254e-02 3.746138187125325203e-03 -1.080389413982629776e-02 -6.941008847206830978e-03
3.264000000000000000e+03 1.637983322143554688e+01 4.803785800933837891e+00 -8.443586528301239014e-02 6.723887636326253414e-04 -2.512904256582260132e-02 -3.357768582645803690e-04
3.265000000000000000e+03 1.298356437683105469e+01 4.704628467559814453e+00 -1.723822951316833496e-01 -4.733577836304903030e-03 -5.313476175069808960e-02 1.700325869023799896e-02
3.266000000000000000e+03 1.177423858642578125e+01 4.763041496276855469e+00 -5.985903143882751465e-01 -3.345699282363057137e-03 -1.805807948112487793e-01 2.734447084367275238e-02
3.267000000000000000e+03 1.018246746063232422e+01 5.674672126770019531e+00 4.575064405798912048e-03 5.142041668295860291e-02 1.679864525794982910e-02 -3.129942109808325768e-03
3.268000000000000000e+03 1.013370227813720703e+01 5.089568614959716797e+00 -6.211090832948684692e-02 -2.430772967636585236e-02 -2.592559158802032471e-02 3.279529511928558350e-02
3.269000000000000000e+03 9.284529685974121094e+00 5.854344367980957031e+00 -3.680376708507537842e-02 -4.120527207851409912e-02 -2.340271137654781342e-02 2.407564967870712280e-02
3.270000000000000000e+03 9.335826873779296875e+00 5.327028274536132812e+00 -4.077139124274253845e-02 2.743776515126228333e-02 -4.000088199973106384e-03 4.221830517053604126e-02
3.271000000000000000e+03 1.803861427307128906e+01 5.487761020660400391e+00 -4.315241053700447083e-02 2.692120382562279701e-03 -1.213808637112379074e-02 -7.525851950049400330e-03
3.272000000000000000e+03 1.639271926879882812e+01 5.543782234191894531e+00 -4.793740063905715942e-02 3.409019438549876213e-03 -1.335851382464170456e-02 -4.864774178713560104e-03
3.273000000000000000e+03 1.474550819396972656e+01 5.590154647827148438e+00 1.899658143520355225e-02 1.987458579242229462e-02 1.166135072708129883e-02 5.318589508533477783e-03
3.274000000000000000e+03 1.390083026885986328e+01 4.819621562957763672e+00 -1.696043014526367188e-01 1.274900976568460464e-02 -4.705658555030822754e-02 -3.288441337645053864e-03
3.275000000000000000e+03 1.220392990112304688e+01 4.634844303131103516e+00 -1.315340697765350342e-01 6.767384707927703857e-03 -3.743000701069831848e-02 -1.654646173119544983e-02
3.276000000000000000e+03 8.498252868652343750e+00 5.874431133270263672e+00 -1.019412185996770859e-02 -2.775910310447216034e-03 -3.891009604558348656e-03 1.795198395848274231e-02
3.277000000000000000e+03 8.731795310974121094e+00 5.240024566650390625e+00 -8.009368926286697388e-02 -4.859012737870216370e-02 -3.860514611005783081e-02 -4.948884452460333705e-05
3.278000000000000000e+03 7.731923580169677734e+00 5.859321117401123047e+00 -1.824481412768363953e-02 -1.349524594843387604e-02 -9.522018022835254669e-03 2.590379677712917328e-02
3.279000000000000000e+03 8.089856147766113281e+00 5.106512069702148438e+00 -5.710795521736145020e-02 -9.688368067145347595e-03 -2.003889717161655426e-02 7.785107009112834930e-03
3.280000000000000000e+03 1.065108299255371094e+01 4.762430191040039062e+00 -3.085898756980895996e-01 3.445213660597801208e-02 -8.224131911993026733e-02 4.520063474774360657e-02
3.281000000000000000e+03 1.380731105804443359e+01 5.398728847503662109e+00 3.383089974522590637e-02 2.001844346523284912e-03 1.074982248246669769e-02 1.145269372500479221e-03
3.282000000000000000e+03 1.556646156311035156e+01 4.829121589660644531e+00 -1.001853421330451965e-01 -6.654680706560611725e-03 -3.205200657248497009e-02 -7.391643244773149490e-03
3.283000000000000000e+03 1.556915283203125000e+01 5.569469928741455078e+00 -3.687678277492523193e-02 -2.030306868255138397e-02 -1.715395599603652954e-02 -1.008159480988979340e-02
3.284000000000000000e+03 1.719260978698730469e+01 4.777213573455810547e+00 -7.725641876459121704e-02 -2.820166700985282660e-04 -2.326153218746185303e-02 -8.596143452450633049e-04
3.285000000000000000e+03 1.800533866882324219e+01 4.748468875885009766e+00 -6.960719823837280273e-02 6.283388356678187847e-04 -2.069365605711936951e-02 -1.009849482215940952e-03
3.286000000000000000e+03 9.937987327575683594e+00 4.809810638427734375e+00 -1.950930058956146240e-01 -4.675207287073135376e-02 -7.255352288484573364e-02 3.217244520783424377e-03
3.287000000000000000e+03 1.475301074981689453e+01 4.849453449249267578e+00 -1.346435099840164185e-01 -5.395025946199893951e-04 -4.055490344762802124e-02 -1.614430919289588928e-02
3.288000000000000000e+03 1.721569061279296875e+01 5.516857624053955078e+00 -4.611595347523689270e-02 -7.847647066228091717e-04 -1.407021563500165939e-02 -6.292867474257946014e-03
3.289000000000000000e+03 1.273300933837890625e+01 4.954238891601562500e+00 -1.726239174604415894e-01 -4.479501396417617798e-03 -5.313102528452873230e-02 -1.677901484072208405e-02
3.290000000000000000e+03 1.144375038146972656e+01 4.709188938140869141e+00 -3.441889584064483643e-01 -6.721536163240671158e-03 -1.052731499075889587e-01 4.487772937864065170e-03
3.291000000000000000e+03 9.219163894653320312e+00 4.895892620086669922e+00 -8.694402128458023071e-02 5.340044572949409485e-02 -1.006307266652584076e-02 5.196182802319526672e-02
3.292000000000000000e+03 6.064543247222900391e+00 3.573476552963256836e+00 1.637652749195694923e-03 -6.253725150600075722e-04 3.036840644199401140e-04 -5.547942710109055042e-04
3.293000000000000000e+03 6.481155872344970703e+00 4.280267238616943359e+00 -1.328106969594955444e-02 -1.161616877652704716e-03 -4.332805983722209930e-03 -4.120083525776863098e-03
3.294000000000000000e+03 5.616716861724853516e+00 2.920150279998779297e+00 -1.914890017360448837e-03 4.689421621151268482e-04 -4.337843274697661400e-04 1.288022613152861595e-04
3.295000000000000000e+03 6.529135227203369141e+00 3.343321800231933594e+00 -1.145933056250214577e-04 1.107418094761669636e-03 2.978474367409944534e-04 5.973164224997162819e-04
3.296000000000000000e+03 6.083950042724609375e+00 2.712398290634155273e+00 4.876746388617902994e-04 6.393092335201799870e-04 3.380951820872724056e-04 8.807175909169018269e-04
3.297000000000000000e+03 6.081230640411376953e+00 4.429358959197998047e+00 -7.830538786947727203e-03 2.562538255006074905e-03 -1.580400159582495689e-03 1.158985774964094162e-03
3.298000000000000000e+03 7.072127342224121094e+00 5.498886585235595703e+00 -1.818061992526054382e-02 3.687206655740737915e-03 -4.348024260252714157e-03 1.029682159423828125e-02
3.299000000000000000e+03 5.160166740417480469e+00 3.122973203659057617e+00 1.567757688462734222e-03 -4.284440947230905294e-04 3.417940752115100622e-04 -2.116267278324812651e-04
3.300000000000000000e+03 5.633822441101074219e+00 3.782831668853759766e+00 -6.353016942739486694e-03 6.552391369041288272e-06 -1.903939293697476387e-03 -1.704250578768551350e-03
3.301000000000000000e+03 6.546886920928955078e+00 4.943883895874023438e+00 -1.624615862965583801e-02 3.055996494367718697e-03 -3.957048524171113968e-03 2.721638884395360947e-03
3.302000000000000000e+03 6.969904899597167969e+00 4.040812969207763672e+00 -2.990453736856579781e-03 1.185480359708890319e-04 -8.615716942586004734e-04 -1.293761073611676693e-03
3.303000000000000000e+03 7.447043418884277344e+00 4.761515140533447266e+00 -2.618123777210712433e-02 -1.582121243700385094e-03 -8.329007774591445923e-03 -3.893591696396470070e-03
3.304000000000000000e+03 5.466835975646972656e+00 1.780064940452575684e+00 -7.497478509321808815e-04 1.719628053251653910e-04 -1.733355165924876928e-04 8.193131652660667896e-04
3.305000000000000000e+03 5.362783908843994141e+00 2.328254699707031250e+00 1.985444920137524605e-03 7.416761363856494427e-04 8.181363227777183056e-04 1.574089546920731664e-04
3.306000000000000000e+03 4.886854648590087891e+00 2.462563276290893555e+00 -1.753223477862775326e-03 -9.194699232466518879e-04 -8.018080261535942554e-04 -3.998665488325059414e-05
3.307000000000000000e+03 5.811068058013916016e+00 2.087705373764038086e+00 8.008242584764957428e-04 1.143920235335826874e-03 5.834233597852289677e-04 -1.455054152756929398e-04
3.308000000000000000e+03 4.849430561065673828e+00 1.816301584243774414e+00 1.363363931886851788e-03 -5.686367876478470862e-05 3.919500741176307201e-04 3.611883148550987244e-04
3.309000000000000000e+03 6.373782157897949219e+00 -1.653981924057006836e+00 1.483132690191268921e-02 5.974542349576950073e-03 6.241761147975921631e-03 5.063811782747507095e-03
3.310000000000000000e+03 4.977878570556640625e+00 -1.675424814224243164e+00 1.484092138707637787e-02 6.127603352069854736e-03 6.290557328611612320e-03 9.891684167087078094e-03
3.311000000000000000e+03 5.699524402618408203e+00 -1.621715664863586426e+00 1.214212737977504730e-02 4.258846165612339973e-04 3.770403563976287842e-03 6.301986984908580780e-03
3.312000000000000000e+03 5.394181728363037109e+00 -1.995555639266967773e+00 1.191495079547166824e-02 1.771041541360318661e-03 4.105797503143548965e-03 7.111752405762672424e-03
3.313000000000000000e+03 5.981556415557861328e+00 -1.885626554489135742e+00 1.177735347300767899e-02 1.254171133041381836e-03 3.909457474946975708e-03 6.265347823500633240e-03
3.314000000000000000e+03 1.799764633178710938e+01 3.976000785827636719e+00 1.418624742655083537e-05 2.025731652975082397e-02 6.081450730562210083e-03 4.250460187904536724e-04
3.315000000000000000e+03 1.802036094665527344e+01 3.234774589538574219e+00 -1.802283950382843614e-04 -1.519843563437461853e-02 -4.613599274307489395e-03 3.021494485437870026e-03
3.316000000000000000e+03 1.661771774291992188e+01 3.299204349517822266e+00 -5.448055453598499298e-03 -1.631809584796428680e-02 -6.529845297336578369e-03 6.354864453896880150e-04
3.317000000000000000e+03 1.595736217498779297e+01 3.689948797225952148e+00 -4.323069937527179718e-03 -4.400637932121753693e-03 -2.617112360894680023e-03 1.912959478795528412e-02
3.318000000000000000e+03 1.739968109130859375e+01 3.258831262588500977e+00 7.126600947231054306e-03 2.439345046877861023e-02 9.456015191972255707e-03 -4.918224643915891647e-03
3.319000000000000000e+03 1.468982219696044922e+01 4.175592422485351562e+00 2.759139752015471458e-03 1.327875535935163498e-02 4.811368416994810104e-03 4.470211919397115707e-03
3.320000000000000000e+03 1.387075328826904297e+01 4.179982185363769531e+00 -1.396146020852029324e-03 -1.118556223809719086e-02 -3.774512559175491333e-03 -2.914510201662778854e-03
3.321000000000000000e+03 1.305658531188964844e+01 4.214945316314697266e+00 -4.039684718009084463e-04 1.114679314196109772e-02 3.222847357392311096e-03 4.292156081646680832e-03
3.322000000000000000e+03 1.212989234924316406e+01 3.302501678466796875e+00 -5.607859697192907333e-03 -5.453612189739942551e-03 -3.318441566079854965e-03 3.090691054239869118e-03
3.323000000000000000e+03 1.151010513305664062e+01 4.324381351470947266e+00 2.332303207367658615e-03 6.782358512282371521e-03 2.734398469328880310e-03 1.511910231783986092e-03
3.324000000000000000e+03 9.949157714843750000e+00 4.366832733154296875e+00 2.784670141409151256e-05 5.898909643292427063e-03 1.778026926331222057e-03 -4.297376144677400589e-04
3.325000000000000000e+03 9.932945251464843750e+00 3.384121179580688477e+00 4.738605930469930172e-04 2.718972391448915005e-04 2.237273583887144923e-04 1.458050701330648735e-05
3.326000000000000000e+03 9.204218864440917969e+00 4.346347332000732422e+00 -5.233657429926097393e-04 -4.975028801709413528e-03 -1.649518380872905254e-03 6.479916628450155258e-04
3.327000000000000000e+03 8.465202331542968750e+00 4.316827774047851562e+00 4.233315994497388601e-04 3.335636574774980545e-03 1.127690426073968410e-03 -9.142136550508439541e-04
3.328000000000000000e+03 8.824538230895996094e+00 3.563970327377319336e+00 -3.252141468692570925e-04 -3.246295033022761345e-03 -1.071452745236456394e-03 4.295900289434939623e-04
3.329000000000000000e+03 1.567019557952880859e+01 3.252961874008178711e+00 2.142525464296340942e-02 4.383094608783721924e-02 1.957686059176921844e-02 -3.112002275884151459e-02
3.330000000000000000e+03 1.384450912475585938e+01 3.663609027862548828e+00 6.414925679564476013e-03 1.274010632187128067e-02 5.746509414166212082e-03 -3.415950108319520950e-03
3.331000000000000000e+03 1.383718013763427734e+01 3.223686933517456055e+00 -5.384194664657115936e-03 7.088283542543649673e-03 5.112266517244279385e-04 -1.479989849030971527e-03
3.332000000000000000e+03 1.321729660034179688e+01 3.334477663040161133e+00 -2.042044885456562042e-03 -6.605461705476045609e-03 -2.594251884147524834e-03 3.786764806136488914e-03
3.333000000000000000e+03 1.215228843688964844e+01 3.795787334442138672e+00 5.359481088817119598e-03 -1.378566259518265724e-03 1.194274402223527431e-03 1.706177135929465294e-05
3.334000000000000000e+03 1.070322895050048828e+01 3.859316349029541016e+00 1.869682106189429760e-03 3.131465753540396690e-03 1.500344369560480118e-03 -3.192743752151727676e-04
3.335000000000000000e+03 9.443907737731933594e+00 3.722287416458129883e+00 5.187842762097716331e-04 5.048325285315513611e-03 1.670132973231375217e-03 -1.036689383909106255e-03
3.336000000000000000e+03 1.542356109619140625e+01 4.099992275238037109e+00 -2.779217436909675598e-03 -1.483539771288633347e-02 -5.284384824335575104e-03 -5.877779796719551086e-03
3.337000000000000000e+03 1.725479507446289062e+01 4.004279136657714844e+00 -2.703049918636679649e-03 -1.688089221715927124e-02 -5.875182803720235825e-03 1.624181750230491161e-03
3.338000000000000000e+03 1.228913879394531250e+01 4.288514137268066406e+00 -3.007636172696948051e-03 -8.978589437901973724e-03 -3.595867659896612167e-03 -4.069891758263111115e-03
3.339000000000000000e+03 1.145178890228271484e+01 3.832140445709228516e+00 -3.578294534236192703e-03 -2.182069234549999237e-03 -1.728109200485050678e-03 2.515841624699532986e-04
3.340000000000000000e+03 1.072398853302001953e+01 4.351354122161865234e+00 -6.545638898387551308e-04 -6.101523991674184799e-03 -2.026826376095414162e-03 9.031612717080861330e-05
3.341000000000000000e+03 1.001038265228271484e+01 3.872972011566162109e+00 -7.284157909452915192e-04 -4.018555860966444016e-03 -1.424091518856585026e-03 1.233815448358654976e-03
3.342000000000000000e+03 1.456358337402343750e+01 3.201005935668945312e+00 3.276596544310450554e-03 1.313723972998559475e-03 1.377096166834235191e-03 -9.759186068549752235e-04
3.343000000000000000e+03 1.521894454956054688e+01 3.585825443267822266e+00 5.016403156332671642e-04 8.285820484161376953e-03 2.636238234117627144e-03 -3.315834561362862587e-03
3.344000000000000000e+03 1.651922035217285156e+01 4.021458148956298828e+00 8.676582016050815582e-03 1.704268157482147217e-02 7.715779356658458710e-03 -9.070235304534435272e-03
3.345000000000000000e+03 1.525548934936523438e+01 3.170724391937255859e+00 4.122150130569934845e-03 -1.373508572578430176e-02 -2.883880631998181343e-03 6.948063150048255920e-03
3.346000000000000000e+03 1.271649932861328125e+01 3.606709003448486328e+00 2.122080186381936073e-03 2.666093409061431885e-03 1.436452032066881657e-03 -2.241254784166812897e-03
3.347000000000000000e+03 1.064930152893066406e+01 3.358359575271606445e+00 -2.251853700727224350e-03 -1.492601004429161549e-03 -1.123336376622319221e-03 6.922683096490800381e-04
3.348000000000000000e+03 1.141008567810058594e+01 3.330572128295898438e+00 2.922432264313101768e-03 2.511217491701245308e-03 1.630094950087368488e-03 -1.192315015941858292e-03
3.349000000000000000e+03 1.459164142608642578e+01 3.664122581481933594e+00 -2.711679087951779366e-03 -1.124937552958726883e-02 -4.188316408544778824e-03 2.541401190683245659e-03
3.350000000000000000e+03 1.948812866210937500e+01 3.877326726913452148e+00 -6.587445968762040138e-04 1.619709655642509460e-02 4.661505576223134995e-03 -2.560593653470277786e-03
3.351000000000000000e+03 2.017558670043945312e+01 3.088615179061889648e+00 -1.735416823066771030e-03 1.386870536953210831e-02 3.639986505731940269e-03 -1.070223096758127213e-02
3.352000000000000000e+03 2.097657775878906250e+01 3.774520874023437500e+00 -7.203530985862016678e-03 7.040116470307111740e-03 -4.902434739051386714e-05 -4.216697532683610916e-03
3.353000000000000000e+03 1.870165252685546875e+01 3.189713239669799805e+00 -9.751052130013704300e-04 1.058961916714906693e-02 2.884354209527373314e-03 -1.856495393440127373e-03
3.354000000000000000e+03 1.874370384216308594e+01 3.928573846817016602e+00 9.597550379112362862e-04 -2.046895399689674377e-02 -5.852759815752506256e-03 7.420605397783219814e-04
3.355000000000000000e+03 2.091246414184570312e+01 3.037189483642578125e+00 -2.036268590018153191e-03 -1.184800732880830765e-02 -4.165282938629388809e-03 2.620499115437269211e-03
3.356000000000000000e+03 1.943872451782226562e+01 3.138975620269775391e+00 2.105156425386667252e-03 -1.687938161194324493e-02 -4.432267509400844574e-03 2.171228174120187759e-03
3.357000000000000000e+03 2.023234558105468750e+01 3.826456785202026367e+00 -3.033743007108569145e-03 -1.200272794812917709e-02 -4.510941449552774429e-03 6.921778549440205097e-04
3.358000000000000000e+03 2.338276290893554688e+01 2.962652921676635742e+00 4.242988303303718567e-03 -5.806528031826019287e-03 -4.690618079621344805e-04 3.013730281963944435e-03
3.359000000000000000e+03 2.264334869384765625e+01 2.863679885864257812e+00 4.525476600974798203e-03 -6.524901255033910275e-04 1.161895925179123878e-03 1.026871334761381149e-02
3.360000000000000000e+03 2.270840263366699219e+01 3.601070642471313477e+00 -1.051453221589326859e-02 2.400588709861040115e-03 -2.434183144941926003e-03 2.343045081943273544e-03
3.361000000000000000e+03 2.175264739990234375e+01 2.959368467330932617e+00 5.033731926232576370e-03 1.243114285171031952e-02 5.239462479948997498e-03 -5.785406101495027542e-03
3.362000000000000000e+03 2.181952476501464844e+01 3.696549654006958008e+00 -1.244859583675861359e-02 -1.573974266648292542e-03 -4.206771031022071838e-03 1.112290658056735992e-03
3.363000000000000000e+03 2.345920753479003906e+01 4.853706359863281250e+00 -4.810559563338756561e-03 -7.337537594139575958e-03 -3.644429147243499756e-03 -5.245297681540250778e-03
3.364000000000000000e+03 2.276159095764160156e+01 4.334619045257568359e+00 -5.986873526126146317e-03 1.415998791344463825e-03 -1.371262478642165661e-03 -3.489184891805052757e-03
3.365000000000000000e+03 2.174504089355468750e+01 5.324580192565917969e+00 -2.662146650254726410e-02 4.002477973699569702e-03 -6.785696372389793396e-03 -1.200723089277744293e-02
3.366000000000000000e+03 2.223744201660156250e+01 5.344407081604003906e+00 -2.429824694991111755e-02 2.950513968244194984e-03 -6.404319778084754944e-03 -1.376033108681440353e-02
3.367000000000000000e+03 2.311081886291503906e+01 5.164704799652099609e+00 -1.820941455662250519e-02 -5.286656320095062256e-03 -7.048821076750755310e-03 -1.489494182169437408e-02
3.368000000000000000e+03 2.188203620910644531e+01 4.431602478027343750e+00 -2.206503041088581085e-02 -3.040093579329550266e-04 -6.710711866617202759e-03 -2.976917428895831108e-03
3.369000000000000000e+03 2.270535469055175781e+01 5.283616065979003906e+00 -2.427714131772518158e-02 7.645383448107168078e-05 -7.260206155478954315e-03 -1.540445350110530853e-02
3.370000000000000000e+03 2.265127754211425781e+01 4.880835533142089844e+00 -1.925946399569511414e-02 -1.334528787992894650e-03 -6.178197916597127914e-03 -1.115863025188446045e-02
3.371000000000000000e+03 2.204319572448730469e+01 4.953784942626953125e+00 -2.512498572468757629e-02 3.077930537983775139e-03 -6.614116486161947250e-03 -1.124265417456626892e-02
3.372000000000000000e+03 6.957012653350830078e+00 3.898485600948333740e-01 1.960342779057100415e-04 -2.382928796578198671e-04 -1.267758125322870910e-05 -2.404867700533941388e-04
3.373000000000000000e+03 7.073252201080322266e+00 1.129848599433898926e+00 -3.833241353277117014e-04 -1.310381339862942696e-04 -1.543086837045848370e-04 4.166371945757418871e-04
3.374000000000000000e+03 6.319694042205810547e+00 1.129848599433898926e+00 2.147280902136117220e-04 1.221685961354523897e-04 1.010690102702938020e-04 -2.208875812357291579e-04
3.375000000000000000e+03 6.201207637786865234e+00 3.898485600948333740e-01 -9.885827239486388862e-06 1.499810023233294487e-04 4.202855416224338114e-05 9.227822374668903649e-06
3.376000000000000000e+03 8.670824050903320312e+00 3.840262591838836670e-01 -1.920961949508637190e-04 2.122181758750230074e-04 6.036595095793018118e-06 -1.439146581105887890e-04
3.377000000000000000e+03 7.878619670867919922e+00 1.127028346061706543e+00 -9.935969501384533942e-06 -3.550478722900152206e-04 -1.094951512641273439e-04 -4.578838415909558535e-04
3.378000000000000000e+03 7.779973506927490234e+00 3.870283365249633789e-01 9.094338747672736645e-05 -2.661303733475506306e-05 1.929910467879381031e-05 3.473302058409899473e-04
3.379000000000000000e+03 9.562618255615234375e+00 3.869979083538055420e-01 4.720326614915393293e-05 -5.575075556407682598e-05 -2.564247552072629333e-06 -7.069743151078000665e-05
3.380000000000000000e+03 9.595384597778320312e+00 1.126997947692871094e+00 -5.732302670367062092e-04 -3.917057765647768974e-04 -2.894808130804449320e-04 -2.367683046031743288e-04
3.381000000000000000e+03 8.736529350280761719e+00 1.124026298522949219e+00 3.422959416639059782e-04 6.489710067398846149e-04 2.973800874315202236e-04 6.109931855462491512e-04
3.382000000000000000e+03 3.818112134933471680e+00 -2.739334106445312500e-01 6.582352798432111740e-03 5.036466172896325588e-04 2.125799888744950294e-03 1.246709260158240795e-03
3.383000000000000000e+03 3.930468320846557617e+00 -1.013933420181274414e+00 6.442087702453136444e-03 -9.545672946842387319e-05 1.903989352285861969e-03 1.714759739115834236e-03
3.384000000000000000e+03 3.030747890472412109e+00 -3.350256085395812988e-01 3.763819811865687370e-03 -2.633094554767012596e-04 1.050153048709034920e-03 5.912710912525653839e-04
3.385000000000000000e+03 2.223073005676269531e+00 -3.565944731235504150e-01 1.929319347254931927e-03 1.829262473620474339e-04 6.336736842058598995e-04 9.946674108505249023e-04
3.386000000000000000e+03 1.423210144042968750e+00 -3.682287633419036865e-01 3.481903986539691687e-04 9.857337863650172949e-05 1.340291346423327923e-04 2.601212472654879093e-04
3.387000000000000000e+03 3.579095304012298584e-01 -9.568480253219604492e-01 -1.609018945600837469e-04 -1.203172942041419446e-04 -8.436575444648042321e-05 5.560922436416149139e-04
3.388000000000000000e+03 6.884766817092895508e-01 -3.942328691482543945e-01 8.006194257177412510e-04 4.706842300947755575e-04 3.813910880126059055e-04 -2.055371005553752184e-04
3.389000000000000000e+03 3.199677228927612305e+00 -1.075025558471679688e+00 5.745966453105211258e-03 -4.683625957113690674e-05 1.709739095531404018e-03 3.509590867906808853e-03
3.390000000000000000e+03 2.448575496673583984e+00 -1.096594452857971191e+00 3.221783554181456566e-03 2.555365208536386490e-04 1.043196069076657295e-03 2.273387741297483444e-03
3.391000000000000000e+03 1.705285787582397461e+00 -1.108228802680969238e+00 2.144419820979237556e-03 1.181918778456747532e-03 9.979015449061989784e-04 2.431372180581092834e-03
3.392000000000000000e+03 1.027125477790832520e+00 -1.134232878684997559e+00 -4.996434436179697514e-04 1.231155591085553169e-03 2.194536355091258883e-04 3.756029473152011633e-04
3.393000000000000000e+03 4.037366485595703125e+01 1.113951778411865234e+01 -1.393044739961624146e-01 2.327593509107828140e-03 -4.109306633472442627e-02 1.817533746361732483e-02
3.394000000000000000e+03 3.962160873413085938e+01 1.131359195709228516e+01 -1.644523292779922485e-01 -2.424037083983421326e-03 -5.006290972232818604e-02 2.729791775345802307e-02
3.395000000000000000e+03 4.275807952880859375e+01 1.133976268768310547e+01 -1.238374263048171997e-01 -1.035380084067583084e-02 -4.025736823678016663e-02 -3.442715480923652649e-02
3.396000000000000000e+03 3.886851119995117188e+01 1.148583889007568359e+01 -1.629623919725418091e-01 1.584019162692129612e-03 -4.841351136565208435e-02 4.480910673737525940e-02
3.397000000000000000e+03 4.112229919433593750e+01 1.096372222900390625e+01 -1.038793548941612244e-01 1.897190324962139130e-02 -2.547223679721355438e-02 -3.463111119344830513e-03
3.398000000000000000e+03 4.054919052124023438e+01 1.186267280578613281e+01 -2.352996468544006348e-01 3.185556456446647644e-02 -6.103322282433509827e-02 -4.143092781305313110e-03
3.399000000000000000e+03 4.185790634155273438e+01 1.078891849517822266e+01 -5.013259872794151306e-02 -1.402140688151121140e-02 -1.924620196223258972e-02 -1.276706345379352570e-02
3.400000000000000000e+03 4.253778457641601562e+01 1.062180137634277344e+01 -1.096712797880172729e-02 2.750414423644542694e-02 4.961105063557624817e-03 -1.263573486357927322e-02
3.401000000000000000e+03 4.325923919677734375e+01 1.099616241455078125e+01 -3.928019106388092041e-02 -2.510837651789188385e-02 -1.931657083332538605e-02 -9.837504476308822632e-03
3.402000000000000000e+03 3.901419448852539062e+01 1.221245574951171875e+01 -2.527464628219604492e-01 1.708378642797470093e-02 -7.069880515336990356e-02 6.868379563093185425e-02
3.403000000000000000e+03 4.131274795532226562e+01 1.168514633178710938e+01 -1.985494345426559448e-01 2.115188166499137878e-02 -5.321926623582839966e-02 -7.129512727260589600e-03
3.404000000000000000e+03 4.206327819824218750e+01 1.150861167907714844e+01 -1.847952902317047119e-01 1.961440593004226685e-02 -4.955426231026649475e-02 -3.583684936165809631e-02
3.405000000000000000e+03 3.978221511840820312e+01 1.203847694396972656e+01 -2.519827783107757568e-01 2.168826945126056671e-02 -6.908834725618362427e-02 3.750155866146087646e-02
3.406000000000000000e+03 3.674169540405273438e+01 1.212182044982910156e+01 -3.144463896751403809e-02 -8.945131301879882812e-02 -3.626878559589385986e-02 5.808347091078758240e-02
3.407000000000000000e+03 3.698434829711914062e+01 1.262278556823730469e+01 -2.183870226144790649e-01 -3.042820654809474945e-02 -7.464457303285598755e-02 1.110093146562576294e-01
3.408000000000000000e+03 3.825864791870117188e+01 1.234777259826660156e+01 -2.457291334867477417e-01 8.672086521983146667e-03 -7.111711800098419189e-02 1.083633452653884888e-01
3.409000000000000000e+03 3.804425811767578125e+01 1.163198184967041016e+01 -1.084864586591720581e-01 -9.908471256494522095e-03 -3.551847860217094421e-02 5.181216448545455933e-02
3.410000000000000000e+03 3.756306838989257812e+01 1.246899890899658203e+01 -2.530741095542907715e-01 -2.961127832531929016e-02 -8.480561524629592896e-02 1.466689407825469971e-01
3.411000000000000000e+03 3.719634628295898438e+01 1.177657890319824219e+01 -1.094374153763055801e-02 -1.326444465667009354e-02 -7.262455765157938004e-03 3.682244941592216492e-02
3.412000000000000000e+03 3.663000488281250000e+01 1.268585968017578125e+01 -2.066201269626617432e-01 -1.568019241094589233e-01 -1.090266108512878418e-01 1.532029360532760620e-01
3.413000000000000000e+03 3.645061874389648438e+01 1.246910285949707031e+01 -7.523215562105178833e-02 -1.361151188611984253e-01 -6.340418010950088501e-02 8.015416562557220459e-02
3.414000000000000000e+03 5.397003936767578125e+01 1.078238105773925781e+01 1.383046712726354599e-02 -7.945043034851551056e-03 1.765627297572791576e-03 -7.677504792809486389e-03
3.415000000000000000e+03 5.390347290039062500e+01 1.004510879516601562e+01 1.238481048494577408e-02 6.774159613996744156e-03 5.747690796852111816e-03 -5.369243677705526352e-03
3.416000000000000000e+03 5.471431732177734375e+01 1.073740196228027344e+01 8.844562806189060211e-03 1.017147768288850784e-02 5.704812239855527878e-03 -1.450761221349239349e-03
3.417000000000000000e+03 5.322494125366210938e+01 1.082944869995117188e+01 2.368326485157012939e-02 6.593957077711820602e-03 9.083166718482971191e-03 -1.734021585434675217e-03
3.418000000000000000e+03 5.242547225952148438e+01 1.014035129547119141e+01 2.294448204338550568e-02 -2.713201101869344711e-03 6.069384515285491943e-03 3.444858593866229057e-03
3.419000000000000000e+03 5.247904205322265625e+01 1.087844371795654297e+01 2.454481832683086395e-02 -7.199079263955354691e-03 5.203721579164266586e-03 -4.668239504098892212e-03
3.420000000000000000e+03 5.464125442504882812e+01 1.000053882598876953e+01 1.779129612259566784e-03 -1.396798179484903812e-03 1.146994109149090946e-04 -1.398597005754709244e-02
3.421000000000000000e+03 5.316487503051757812e+01 1.009176635742187500e+01 1.045360974967479706e-02 -8.560524322092533112e-03 5.679258028976619244e-04 -1.603346318006515503e-02
3.422000000000000000e+03 3.871810150146484375e+01 1.072134113311767578e+01 -4.572980105876922607e-03 -3.593910485506057739e-03 -2.450067084282636642e-03 -5.185510963201522827e-04
3.423000000000000000e+03 3.946144485473632812e+01 1.055411434173583984e+01 -1.094392850063741207e-03 3.154331585392355919e-03 6.179815973155200481e-04 2.645191736519336700e-03
3.424000000000000000e+03 4.214028167724609375e+01 9.757813453674316406e+00 3.147345560137182474e-04 -2.007487928494811058e-03 -5.078259855508804321e-04 -1.438617618987336755e-04
3.425000000000000000e+03 3.857750320434570312e+01 9.993584632873535156e+00 5.880626849830150604e-03 7.528809946961700916e-04 1.990052405744791031e-03 1.789415255188941956e-03
3.426000000000000000e+03 4.160499191284179688e+01 1.006451320648193359e+01 -1.906338846310973167e-03 7.369942613877356052e-04 -3.508033987600356340e-04 6.513553089462220669e-04
3.427000000000000000e+03 4.144534683227539062e+01 9.334435462951660156e+00 6.070357747375965118e-03 5.629122257232666016e-03 3.509843954816460609e-03 -1.322118478128686547e-04
3.428000000000000000e+03 4.092973709106445312e+01 1.022012138366699219e+01 -5.460547981783747673e-04 1.231557107530534267e-03 2.056506782537326217e-04 2.012291224673390388e-04
3.429000000000000000e+03 4.020204162597656250e+01 1.038670063018798828e+01 -1.937663299031555653e-03 -3.480787156149744987e-03 -1.625535078346729279e-03 -2.876159269362688065e-04
3.430000000000000000e+03 4.077485275268554688e+01 9.490621566772460938e+00 1.871011918410658836e-04 -6.082621868699789047e-03 -1.768656191416084766e-03 -1.134864171035587788e-03
3.431000000000000000e+03 4.005191802978515625e+01 9.657777786254882812e+00 2.002281835302710533e-03 1.507822074927389622e-03 1.053031184710562229e-03 4.499388393014669418e-03
3.432000000000000000e+03 3.931608200073242188e+01 9.825769424438476562e+00 -3.265525214374065399e-03 3.632147272583097219e-04 -8.706931839697062969e-04 -2.918869256973266602e-03
3.433000000000000000e+03 1.463219356536865234e+01 1.208772420883178711e+00 6.651657633483409882e-03 7.110121659934520721e-03 4.128533881157636642e-03 -1.835661940276622772e-03
3.434000000000000000e+03 1.413865852355957031e+01 3.089686632156372070e-01 -1.372786471620202065e-03 3.062923904508352280e-03 5.070411716587841511e-04 1.648130592002416961e-06
3.435000000000000000e+03 1.413591098785400391e+01 8.441513180732727051e-01 -2.469319151714444160e-03 -2.838745014742016792e-03 -1.592419226653873920e-03 4.297730978578329086e-03
3.436000000000000000e+03 1.324289608001708984e+01 1.113969683647155762e+00 3.342153038829565048e-03 1.863498706370592117e-03 1.561695593409240246e-03 3.292928449809551239e-04
3.437000000000000000e+03 1.484628582000732422e+01 5.796153545379638672e-01 -3.387634060345590115e-04 -2.223246032372117043e-03 -7.686028257012367249e-04 -9.367397287860512733e-04
3.438000000000000000e+03 1.338759136199951172e+01 2.497024983167648315e-01 -4.327833303250372410e-04 -1.981147332116961479e-03 -7.241792045533657074e-04 4.359101585578173399e-04
3.439000000000000000e+03 1.422421169281005859e+01 1.250681281089782715e+00 3.940690308809280396e-03 4.444524529390037060e-04 1.315542845986783504e-03 -1.552947447635233402e-03
3.440000000000000000e+03 1.355335903167724609e+01 8.086416125297546387e-01 -2.149441745132207870e-03 6.060610758140683174e-04 -4.630142066162079573e-04 -1.318339724093675613e-03
3.441000000000000000e+03 1.374464988708496094e+01 1.230049014091491699e+00 2.637330675497651100e-03 -3.328471211716532707e-03 -2.073422074317932129e-04 3.030235413461923599e-03
3.442000000000000000e+03 1.038163661956787109e+01 3.719484806060791016e-01 1.227803004439920187e-04 -3.363396972417831421e-04 -6.406781903933733702e-05 5.246046202955767512e-05
3.443000000000000000e+03 1.112833786010742188e+01 3.352923989295959473e-01 1.974536826310213655e-05 6.957701989449560642e-04 2.146546758012846112e-04 -2.026273796218447387e-05
3.444000000000000000e+03 1.187404060363769531e+01 3.023687005043029785e-01 7.177497900556772947e-05 -1.057872665114700794e-03 -2.958293189294636250e-04 4.845161674893461168e-05
3.445000000000000000e+03 1.187335777282714844e+01 1.043116807937622070e+00 -2.879231178667396307e-04 1.309989835135638714e-03 3.066200297325849533e-04 6.008408963680267334e-04
3.446000000000000000e+03 1.261872673034667969e+01 2.733090519905090332e-01 -8.026765135582536459e-05 1.373393577523529530e-03 3.879377618432044983e-04 -1.431712689736741595e-06
3.447000000000000000e+03 1.261125278472900391e+01 1.014356493949890137e+00 -6.446614861488342285e-04 -1.150980009697377682e-03 -5.386924603953957558e-04 2.017180959228426218e-04
3.448000000000000000e+03 1.039453697204589844e+01 1.112098097801208496e+00 2.923355532402638346e-05 8.490586187690496445e-04 2.634876582305878401e-04 -5.262888153083622456e-04
3.449000000000000000e+03 1.113444709777832031e+01 1.075741291046142578e+00 6.480288575403392315e-04 -1.649493118748068810e-03 -3.004392492584884167e-04 1.402244815835729241e-04
3.450000000000000000e+03 5.544353008270263672e+00 1.129850029945373535e+00 1.835990260588005185e-04 2.461888943798840046e-04 1.289363717660307884e-04 1.105691990233026445e-04
3.451000000000000000e+03 4.790751457214355469e+00 1.129850029945373535e+00 -2.544458548072725534e-04 3.989463584730401635e-05 -6.436536205001175404e-05 3.505750210024416447e-04
3.452000000000000000e+03 4.676749229431152344e+00 3.898500204086303711e-01 4.076668992638587952e-04 -1.487549016019329429e-04 7.767360511934384704e-05 6.770639447495341301e-05
3.453000000000000000e+03 5.432579994201660156e+00 3.898500204086303711e-01 3.784848377108573914e-05 1.106574054574593902e-04 4.455176531337201595e-05 1.136270439019426703e-04
3.454000000000000000e+03 1.112103080749511719e+01 -4.428110718727111816e-01 3.128625079989433289e-02 5.021798890084028244e-03 1.089241448789834976e-02 -1.597077352926135063e-03
3.455000000000000000e+03 1.187371921539306641e+01 -4.752737879753112793e-01 3.056956082582473755e-02 -5.939722992479801178e-03 7.388951722532510757e-03 -2.197529654949903488e-03
3.456000000000000000e+03 1.111492252349853516e+01 -1.183259963989257812e+00 2.453345619142055511e-02 -7.770392112433910370e-03 5.028919316828250885e-03 -1.393273822031915188e-03
3.457000000000000000e+03 1.262644767761230469e+01 -5.069373250007629395e-01 2.733854763209819794e-02 5.799975246191024780e-03 9.941556490957736969e-03 -3.188746282830834389e-03
3.458000000000000000e+03 1.035515594482421875e+01 -1.148333072662353516e+00 2.400526218116283417e-02 3.807277418673038483e-03 8.343761786818504333e-03 -1.210987875310820527e-06
3.459000000000000000e+03 1.036805534362792969e+01 -4.081833958625793457e-01 3.104563988745212555e-02 -5.583508871495723724e-03 7.638639304786920547e-03 -5.581575096584856510e-04
3.460000000000000000e+03 1.263392257690429688e+01 -1.248021602630615234e+00 2.160287834703922272e-02 -9.520719759166240692e-03 3.624647855758666992e-03 -6.073834840208292007e-03
3.461000000000000000e+03 1.187440204620361328e+01 -1.216021895408630371e+00 2.257695421576499939e-02 5.128072109073400497e-03 8.311507292091846466e-03 -3.663626033812761307e-03
3.462000000000000000e+03 3.787689590454101562e+01 1.088152790069580078e+01 -2.271047094836831093e-03 3.346925601363182068e-03 3.227635752409696579e-04 1.563622383400797844e-03
3.463000000000000000e+03 3.687048339843750000e+01 1.029800510406494141e+01 3.309968858957290649e-03 1.806592103093862534e-03 1.534968265332281590e-03 5.114472471177577972e-03
3.464000000000000000e+03 3.774330520629882812e+01 1.015336227416992188e+01 -2.703578793443739414e-04 6.661781808361411095e-04 1.187460875371471047e-04 -3.343200078234076500e-03
3.465000000000000000e+03 3.632341003417968750e+01 1.056402301788330078e+01 -8.374770171940326691e-03 -3.082320326939225197e-03 -3.437127219513058662e-03 -4.277156665921211243e-03
3.466000000000000000e+03 3.699481582641601562e+01 1.102758884429931641e+01 -1.845660037361085415e-03 -1.399851171299815178e-03 -9.736533393152058125e-04 -2.863347530364990234e-03
3.467000000000000000e+03 1.483313274383544922e+01 -3.616165518760681152e-01 -3.045388730242848396e-03 -1.420379616320133209e-02 -5.174755118787288666e-03 -8.627941831946372986e-03
3.468000000000000000e+03 1.534506702423095703e+01 -8.866766691207885742e-01 6.211624480783939362e-03 1.874599233269691467e-02 7.487284950911998749e-03 3.930885344743728638e-03
3.469000000000000000e+03 1.413932895660400391e+01 -4.292643368244171143e-01 9.707984514534473419e-03 7.967481389641761780e-03 5.302639678120613098e-03 -3.590499283745884895e-03
3.470000000000000000e+03 1.338562393188476562e+01 -4.926638007164001465e-01 2.015531063079833984e-02 -7.265802472829818726e-03 3.866852261126041412e-03 -3.815613919869065285e-03
3.471000000000000000e+03 1.341033267974853516e+01 -1.234521746635437012e+00 1.912813261151313782e-02 4.785676021128892899e-03 7.174142636358737946e-03 -9.375816211104393005e-03
3.472000000000000000e+03 1.419171237945556641e+01 -1.172296047210693359e+00 1.739454641938209534e-02 -8.577588014304637909e-03 2.645087195560336113e-03 -1.048527099192142487e-02
3.473000000000000000e+03 1.491319084167480469e+01 -1.105822205543518066e+00 1.894082687795162201e-02 1.074221171438694000e-02 8.904911577701568604e-03 -8.417603559792041779e-03
3.474000000000000000e+03 7.014354705810546875e+01 9.931458473205566406e+00 4.290707778930664062e+01 4.181252956390380859e+00 1.412650012969970703e+01 1.106879425048828125e+01
3.475000000000000000e+03 7.014630889892578125e+01 9.912186622619628906e+00 4.139108276367187500e+01 1.690417098999023438e+01 1.748857688903808594e+01 2.445929336547851562e+01
3.476000000000000000e+03 7.015277099609375000e+01 9.893821716308593750e+00 3.796920394897460938e+01 2.761980438232421875e+01 1.967670249938964844e+01 3.019216346740722656e+01
3.477000000000000000e+03 7.016268157958984375e+01 9.877066612243652344e+00 3.285431671142578125e+01 4.097650527954101562e+01 2.214924621582031250e+01 3.287603759765625000e+01
3.478000000000000000e+03 7.017566680908203125e+01 9.862561225891113281e+00 2.756444931030273438e+01 5.205226135253906250e+01 2.388501358032226562e+01 3.227593994140625000e+01
3.479000000000000000e+03 7.019123077392578125e+01 9.850860595703125000e+00 2.221681022644042969e+01 6.209387207031250000e+01 2.529320526123046875e+01 2.875498580932617188e+01
3.480000000000000000e+03 7.020877075195312500e+01 9.842414855957031250e+00 1.963979148864746094e+01 7.004793548583984375e+01 2.690631866455078125e+01 2.287335014343261719e+01
3.481000000000000000e+03 7.022762298583984375e+01 9.837544441223144531e+00 1.622210693359375000e+01 7.378495788574218750e+01 2.700212097167968750e+01 1.587502861022949219e+01
3.482000000000000000e+03 7.024705505371093750e+01 9.836437225341796875e+00 1.889299201965332031e+01 7.586096191406250000e+01 2.842618560791015625e+01 8.929797172546386719e+00
3.483000000000000000e+03 7.026633453369140625e+01 9.839135169982910156e+00 2.041386795043945312e+01 7.332698822021484375e+01 2.812225532531738281e+01 1.507159709930419922e+00
3.484000000000000000e+03 7.028472137451171875e+01 9.845535278320312500e+00 2.426487731933593750e+01 6.992940521240234375e+01 2.825828552246093750e+01 -2.821271181106567383e+00
3.485000000000000000e+03 7.030151367187500000e+01 9.855392456054687500e+00 3.142312049865722656e+01 6.468421936035156250e+01 2.883220100402832031e+01 -5.779139041900634766e+00
3.486000000000000000e+03 7.031606292724609375e+01 9.868329048156738281e+00 3.461199188232421875e+01 5.752708816528320312e+01 2.764172554016113281e+01 -7.152484893798828125e+00
3.487000000000000000e+03 7.032781219482421875e+01 9.883850097656250000e+00 4.076351547241210938e+01 5.401873397827148438e+01 2.843467521667480469e+01 -5.212544441223144531e+00
3.488000000000000000e+03 7.033631896972656250e+01 9.901362419128417969e+00 4.403884124755859375e+01 4.847955322265625000e+01 2.775551795959472656e+01 -2.286691665649414062e+00
3.489000000000000000e+03 7.034124755859375000e+01 9.920195579528808594e+00 4.592098999023437500e+01 4.576040267944335938e+01 2.750441932678222656e+01 1.509670019149780273e+00
3.490000000000000000e+03 7.034242248535156250e+01 9.939628601074218750e+00 4.700281906127929688e+01 4.649601364135742188e+01 2.804965019226074219e+01 6.168632984161376953e+00
3.491000000000000000e+03 7.033979034423828125e+01 9.958917617797851562e+00 4.489957809448242188e+01 4.618513488769531250e+01 2.732541465759277344e+01 1.109408569335937500e+01
3.492000000000000000e+03 7.033345031738281250e+01 9.977325439453125000e+00 4.295956039428710938e+01 5.071875000000000000e+01 2.810349273681640625e+01 1.436144542694091797e+01
3.493000000000000000e+03 7.032364654541015625e+01 9.994146347045898438e+00 3.740343856811523438e+01 5.487612533569335938e+01 2.768386840820312500e+01 1.741611289978027344e+01
3.494000000000000000e+03 7.031076049804687500e+01 1.000873756408691406e+01 3.252285766601562500e+01 6.098875427246093750e+01 2.805348396301269531e+01 1.784794044494628906e+01
3.495000000000000000e+03 7.029527282714843750e+01 1.002054119110107422e+01 2.563477706909179688e+01 6.684876251220703125e+01 2.774505996704101562e+01 1.632698249816894531e+01
3.496000000000000000e+03 7.027779388427734375e+01 1.002910327911376953e+01 1.979091262817382812e+01 7.180992126464843750e+01 2.748024940490722656e+01 1.241291809082031250e+01
3.497000000000000000e+03 7.025897979736328125e+01 1.003409862518310547e+01 1.456495666503906250e+01 7.476977539062500000e+01 2.680041885375976562e+01 6.326228618621826172e+00
3.498000000000000000e+03 7.023954772949218750e+01 1.003533554077148438e+01 1.098748493194580078e+01 7.474041748046875000e+01 2.571837234497070312e+01 -9.099360704421997070e-01
3.499000000000000000e+03 7.022024536132812500e+01 1.003276634216308594e+01 9.593438148498535156e+00 7.147515106201171875e+01 2.432057762145996094e+01 -8.552839279174804688e+00
3.500000000000000000e+03 7.020182037353515625e+01 1.002648830413818359e+01 9.698010444641113281e+00 6.487942504882812500e+01 2.237322998046875000e+01 -1.535587310791015625e+01
3.501000000000000000e+03 7.018496704101562500e+01 1.001674365997314453e+01 1.156508445739746094e+01 5.567092514038085938e+01 2.017080307006835938e+01 -2.051108360290527344e+01
3.502000000000000000e+03 7.017033386230468750e+01 1.000390338897705078e+01 1.361975669860839844e+01 4.460441207885742188e+01 1.746725082397460938e+01 -2.344452857971191406e+01
3.503000000000000000e+03 7.015847778320312500e+01 9.988460540771484375e+00 1.655995368957519531e+01 3.255643081665039062e+01 1.473491477966308594e+01 -2.362697792053222656e+01
3.504000000000000000e+03 7.014985656738281250e+01 9.971005439758300781e+00 1.833836174011230469e+01 2.042263793945312500e+01 1.162829971313476562e+01 -2.129283714294433594e+01
3.505000000000000000e+03 7.014479827880859375e+01 9.952205657958984375e+00 2.185153007507324219e+01 7.516324520111083984e+00 8.810356140136718750e+00 -1.199545383453369141e+01
