# el_label, x, y, sXX, sYY, sZZ, sXY
1.000000000000000000e+00 3.812062835693359375e+01 1.120117473602294922e+01 -2.026550769805908203e+00 -1.262512922286987305e+00 -9.867191314697265625e-01 -2.021398305892944336e+00
2.000000000000000000e+00 3.792177963256835938e+01 1.120998573303222656e+01 1.444734930992126465e+00 3.363204300403594971e-01 5.343165993690490723e-01 7.265020012855529785e-01
3.000000000000000000e+00 3.772293090820312500e+01 1.121879577636718750e+01 -2.024816870689392090e-01 -6.333149969577789307e-02 -7.974395155906677246e-02 9.185617417097091675e-02
4.000000000000000000e+00 3.752408218383789062e+01 1.122760581970214844e+01 -4.504292011260986328e-01 -4.636183753609657288e-02 -1.490373015403747559e-01 1.823135614395141602e-01
5.000000000000000000e+00 3.812375259399414062e+01 1.114291572570800781e+01 1.165694427490234375e+01 -2.472013711929321289e+00 2.755479097366333008e+00 2.976183593273162842e-01
6.000000000000000000e+00 3.792698669433593750e+01 1.111288642883300781e+01 4.642945766448974609e+00 2.242939621210098267e-01 1.460171937942504883e+00 1.054580807685852051e+00
7.000000000000000000e+00 3.773022079467773438e+01 1.108285713195800781e+01 4.346535682678222656e+00 3.128035664558410645e-01 1.397801876068115234e+00 1.410892844200134277e+00
8.000000000000000000e+00 3.753345870971679688e+01 1.105282783508300781e+01 2.640938997268676758e+00 3.022901155054569244e-02 8.013504147529602051e-01 9.859616756439208984e-01
9.000000000000000000e+00 3.813814544677734375e+01 1.108637619018554688e+01 1.725255775451660156e+01 2.640290558338165283e-01 5.254975795745849609e+00 6.597457408905029297e+00
1.000000000000000000e+01 3.795097732543945312e+01 1.101865386962890625e+01 1.034133052825927734e+01 5.520980358123779297e-01 3.268028736114501953e+00 3.659011602401733398e+00
1.100000000000000000e+01 3.776380920410156250e+01 1.095093154907226562e+01 6.639674186706542969e+00 1.083065629005432129e+00 2.316822052001953125e+00 3.322060108184814453e+00
1.200000000000000000e+01 3.757664489746093750e+01 1.088320922851562500e+01 5.864607810974121094e+00 1.075324177742004395e+00 2.081979513168334961e+00 2.740146875381469727e+00
1.300000000000000000e+01 3.816326522827148438e+01 1.103371620178222656e+01 1.990102005004882812e+01 5.464035987854003906e+00 7.609516620635986328e+00 1.168446922302246094e+01
1.400000000000000000e+01 3.799283981323242188e+01 1.093088626861572266e+01 1.200576496124267578e+01 3.116792201995849609e+00 4.536767482757568359e+00 7.803122043609619141e+00
1.500000000000000000e+01 3.782241439819335938e+01 1.082805728912353516e+01 9.478927612304687500e+00 3.039927959442138672e+00 3.755656719207763672e+00 5.830892086029052734e+00
1.600000000000000000e+01 3.765199279785156250e+01 1.072522830963134766e+01 6.737497806549072266e+00 2.692026376724243164e+00 2.828857183456420898e+00 5.206499099731445312e+00
1.700000000000000000e+01 3.819814300537109375e+01 1.098694610595703125e+01 1.809072303771972656e+01 1.164872074127197266e+01 8.921833038330078125e+00 1.598953056335449219e+01
1.800000000000000000e+01 3.805096817016601562e+01 1.085293674468994141e+01 1.309175491333007812e+01 7.916137218475341797e+00 6.302367687225341797e+00 1.074989509582519531e+01
1.900000000000000000e+01 3.790379714965820312e+01 1.071892642974853516e+01 8.977955818176269531e+00 6.063590049743652344e+00 4.512464046478271484e+00 8.849378585815429688e+00
2.000000000000000000e+01 3.775662612915039062e+01 1.058491706848144531e+01 7.896636009216308594e+00 5.671583652496337891e+00 4.070466041564941406e+00 7.181571483612060547e+00
2.100000000000000000e+01 3.824145126342773438e+01 1.094785118103027344e+01 1.661614990234375000e+01 1.965146064758300781e+01 1.088028335571289062e+01 1.750087356567382812e+01
2.200000000000000000e+01 3.812314987182617188e+01 1.078777885437011719e+01 1.060003280639648438e+01 1.285714530944824219e+01 7.037153720855712891e+00 1.309932422637939453e+01
2.300000000000000000e+01 3.800484848022460938e+01 1.062770652770996094e+01 9.114642143249511719e+00 1.076908206939697266e+01 5.965117454528808594e+00 1.033410835266113281e+01
2.400000000000000000e+01 3.788655090332031250e+01 1.046763324737548828e+01 6.031809806823730469e+00 9.094672203063964844e+00 4.537944793701171875e+00 9.203941345214843750e+00
2.500000000000000000e+01 3.829153442382812500e+01 1.091792583465576172e+01 1.200419807434082031e+01 2.638855934143066406e+01 1.151782703399658203e+01 1.729306602478027344e+01
2.600000000000000000e+01 3.820662307739257812e+01 1.073790264129638672e+01 9.988486289978027344e+00 1.882248115539550781e+01 8.643290519714355469e+00 1.320144271850585938e+01
2.700000000000000000e+01 3.812171173095703125e+01 1.055788040161132812e+01 5.970028877258300781e+00 1.520549106597900391e+01 6.352655887603759766e+00 1.129206371307373047e+01
2.800000000000000000e+01 3.803680038452148438e+01 1.037785625457763672e+01 5.934962749481201172e+00 1.346786499023437500e+01 5.820848464965820312e+00 9.444821357727050781e+00
2.900000000000000000e+01 3.834648132324218750e+01 1.089831161499023438e+01 1.098370933532714844e+01 3.291978836059570312e+01 1.317105007171630859e+01 1.482702636718750000e+01
3.000000000000000000e+01 3.829819869995117188e+01 1.070521259307861328e+01 6.383612632751464844e+00 2.356298255920410156e+01 8.983978271484375000e+00 1.204387378692626953e+01
3.100000000000000000e+01 3.824992370605468750e+01 1.051211357116699219e+01 5.873487949371337891e+00 1.963034629821777344e+01 7.651150226593017578e+00 1.053324699401855469e+01
3.200000000000000000e+01 3.820164108276367188e+01 1.031901454925537109e+01 2.576295614242553711e+00 1.744536781311035156e+01 6.006499290466308594e+00 9.171085357666015625e+00
3.300000000000000000e+01 3.840419387817382812e+01 1.088975811004638672e+01 8.171519279479980469e+00 3.671035766601562500e+01 1.346456336975097656e+01 1.081141757965087891e+01
3.400000000000000000e+01 3.839439010620117188e+01 1.069095611572265625e+01 6.527833461761474609e+00 2.782058334350585938e+01 1.030452537536621094e+01 9.889675140380859375e+00
3.500000000000000000e+01 3.838458251953125000e+01 1.049215507507324219e+01 3.210662841796875000e+00 2.284074401855468750e+01 7.815422058105468750e+00 8.318450927734375000e+00
3.600000000000000000e+01 3.837477874755859375e+01 1.029335403442382812e+01 3.114543437957763672e+00 2.018230438232421875e+01 6.989054203033447266e+00 8.226531028747558594e+00
3.700000000000000000e+01 3.846246719360351562e+01 1.089259147644042969e+01 9.599329948425292969e+00 3.934012222290039062e+01 1.468183517456054688e+01 7.006914615631103516e+00
3.800000000000000000e+01 3.849151229858398438e+01 1.069567966461181641e+01 5.182439804077148438e+00 2.980105209350585938e+01 1.049504756927490234e+01 6.363117218017578125e+00
3.900000000000000000e+01 3.852055740356445312e+01 1.049876689910888672e+01 3.926661729812622070e+00 2.547117233276367188e+01 8.819350242614746094e+00 6.187156200408935547e+00
4.000000000000000000e+01 3.854960250854492188e+01 1.030185413360595703e+01 1.988415241241455078e+00 2.134283828735351562e+01 6.999376296997070312e+00 5.045053482055664062e+00
4.100000000000000000e+01 3.851907730102539062e+01 1.090670394897460938e+01 1.088512325286865234e+01 3.898820114135742188e+01 1.496199703216552734e+01 2.624980449676513672e+00
4.200000000000000000e+01 3.858586120605468750e+01 1.071920013427734375e+01 6.733820915222167969e+00 3.105443572998046875e+01 1.133647727966308594e+01 3.671856164932250977e+00
4.300000000000000000e+01 3.865264892578125000e+01 1.053169631958007812e+01 4.101768970489501953e+00 2.579678153991699219e+01 8.969565391540527344e+00 3.080440282821655273e+00
4.400000000000000000e+01 3.871943664550781250e+01 1.034419155120849609e+01 2.670941829681396484e+00 2.331583213806152344e+01 7.796032428741455078e+00 2.690213918685913086e+00
4.500000000000000000e+01 3.857186126708984375e+01 1.093155670166015625e+01 1.364430427551269531e+01 3.808156204223632812e+01 1.551776027679443359e+01 -4.190506413578987122e-02
4.600000000000000000e+01 3.867383956909179688e+01 1.076062107086181641e+01 9.032094955444335938e+00 2.990126991271972656e+01 1.168000888824462891e+01 7.782864570617675781e-01
4.700000000000000000e+01 3.877581405639648438e+01 1.058968544006347656e+01 5.683412075042724609e+00 2.575101470947265625e+01 9.430328369140625000e+00 1.102037072181701660e+00
4.800000000000000000e+01 3.887778854370117188e+01 1.041874980926513672e+01 3.749411344528198242e+00 2.294832801818847656e+01 8.009322166442871094e+00 9.745041728019714355e-01
4.900000000000000000e+01 3.861880493164062500e+01 1.096619987487792969e+01 1.728854751586914062e+01 3.565637588500976562e+01 1.588347721099853516e+01 -1.592554569244384766e+00
5.000000000000000000e+01 3.875207901000976562e+01 1.081836032867431641e+01 1.153881263732910156e+01 2.845340538024902344e+01 1.199766540527343750e+01 -1.104363560676574707e+00
5.100000000000000000e+01 3.888534927368164062e+01 1.067051982879638672e+01 8.847936630249023438e+00 2.397472000122070312e+01 9.846796989440917969e+00 -1.762822121381759644e-01
5.200000000000000000e+01 3.901862335205078125e+01 1.052268028259277344e+01 5.479450225830078125e+00 2.089842605590820312e+01 7.913362979888916016e+00 3.187673985958099365e-01
5.300000000000000000e+01 3.865811538696289062e+01 1.100931167602539062e+01 2.070561981201171875e+01 3.326409530639648438e+01 1.619091415405273438e+01 -1.823257803916931152e+00
5.400000000000000000e+01 3.881759643554687500e+01 1.089021301269531250e+01 1.440313053131103516e+01 2.616068840026855469e+01 1.216914558410644531e+01 -1.537801623344421387e+00
5.500000000000000000e+01 3.897707366943359375e+01 1.077111434936523438e+01 1.171900272369384766e+01 2.196451568603515625e+01 1.010505580902099609e+01 -9.713565111160278320e-01
5.600000000000000000e+01 3.913655471801757812e+01 1.065201473236083984e+01 9.646064758300781250e+00 1.870307922363281250e+01 8.504743576049804688e+00 -2.212565094232559204e-01
5.700000000000000000e+01 3.868829345703125000e+01 1.105924510955810547e+01 2.319046783447265625e+01 3.057168769836425781e+01 1.612864685058593750e+01 -1.013769030570983887e+00
5.800000000000000000e+01 3.886788940429687500e+01 1.097343540191650391e+01 1.725726509094238281e+01 2.446208000183105469e+01 1.251580333709716797e+01 -6.213242411613464355e-01
5.900000000000000000e+01 3.904748535156250000e+01 1.088762569427490234e+01 1.356081962585449219e+01 1.962542724609375000e+01 9.955874443054199219e+00 -7.323787212371826172e-01
6.000000000000000000e+01 3.922708129882812500e+01 1.080181598663330078e+01 1.266033267974853516e+01 1.830863571166992188e+01 9.290690422058105469e+00 -6.744611263275146484e-01
6.100000000000000000e+01 3.870817947387695312e+01 1.111409378051757812e+01 2.501566314697265625e+01 2.946035194396972656e+01 1.634280395507812500e+01 8.859382867813110352e-01
6.200000000000000000e+01 3.890103530883789062e+01 1.106484985351562500e+01 1.896214866638183594e+01 2.234532356262207031e+01 1.239224147796630859e+01 9.682935476303100586e-01
6.300000000000000000e+01 3.909389114379882812e+01 1.101560592651367188e+01 1.518208599090576172e+01 1.899363708496093750e+01 1.025271701812744141e+01 8.082041144371032715e-01
6.400000000000000000e+01 3.928674697875976562e+01 1.096636199951171875e+01 1.170641803741455078e+01 1.650067901611328125e+01 8.462129592895507812e+00 1.103308200836181641e+00
6.500000000000000000e+01 3.871702575683593750e+01 1.117176342010498047e+01 2.575539207458496094e+01 2.898294258117675781e+01 1.642150115966796875e+01 3.524742841720581055e+00
6.600000000000000000e+01 3.891577148437500000e+01 1.116096496582031250e+01 1.937999534606933594e+01 2.146061515808105469e+01 1.225218296051025391e+01 2.997354745864868164e+00
6.700000000000000000e+01 3.911452484130859375e+01 1.115016746520996094e+01 1.548673057556152344e+01 1.866859054565429688e+01 1.024659633636474609e+01 3.136592388153076172e+00
6.800000000000000000e+01 3.931327438354492188e+01 1.113936996459960938e+01 1.240068340301513672e+01 1.464994907379150391e+01 8.115189552307128906e+00 3.828457117080688477e+00
6.900000000000000000e+01 3.871448135375976562e+01 1.123005104064941406e+01 2.476616287231445312e+01 2.821454811096191406e+01 1.589421272277832031e+01 6.091228008270263672e+00
7.000000000000000000e+01 3.891153717041015625e+01 1.125811195373535156e+01 1.855044364929199219e+01 2.310563087463378906e+01 1.249682235717773438e+01 5.280371189117431641e+00
7.100000000000000000e+01 3.910859298706054688e+01 1.128617191314697266e+01 1.471222591400146484e+01 1.751407051086425781e+01 9.667888641357421875e+00 5.297838211059570312e+00
7.200000000000000000e+01 3.930564498901367188e+01 1.131423282623291016e+01 1.334900569915771484e+01 1.557485580444335938e+01 8.677158355712890625e+00 5.183195114135742188e+00
7.300000000000000000e+01 3.870065307617187500e+01 1.128673171997070312e+01 2.311326980590820312e+01 3.040683364868164062e+01 1.605603027343750000e+01 7.821340084075927734e+00
7.400000000000000000e+01 3.888848876953125000e+01 1.135257911682128906e+01 1.624545097351074219e+01 2.350179481506347656e+01 1.192417335510253906e+01 7.718043804168701172e+00
7.500000000000000000e+01 3.907632446289062500e+01 1.141842651367187500e+01 1.311969280242919922e+01 1.996038055419921875e+01 9.924021720886230469e+00 6.256040096282958984e+00
7.600000000000000000e+01 3.926416015625000000e+01 1.148427391052246094e+01 1.086222648620605469e+01 1.526826095581054688e+01 7.839146614074707031e+00 6.076766967773437500e+00
7.700000000000000000e+01 3.867606353759765625e+01 1.133964061737060547e+01 1.933274459838867188e+01 3.270390701293945312e+01 1.561099624633789062e+01 9.569698333740234375e+00
7.800000000000000000e+01 3.884750747680664062e+01 1.144076061248779297e+01 1.370869922637939453e+01 2.535989189147949219e+01 1.172057723999023438e+01 8.203891754150390625e+00
7.900000000000000000e+01 3.901895141601562500e+01 1.154188060760498047e+01 1.015703201293945312e+01 2.202456665039062500e+01 9.654479980468750000e+00 7.592997074127197266e+00
8.000000000000000000e+01 3.919039535522460938e+01 1.164300060272216797e+01 7.997526645660400391e+00 1.811648368835449219e+01 7.834202766418457031e+00 6.136495590209960938e+00
8.100000000000000000e+01 3.864165496826171875e+01 1.138675689697265625e+01 1.538311290740966797e+01 3.464830780029296875e+01 1.500942611694335938e+01 9.712310791015625000e+00
8.200000000000000000e+01 3.879016113281250000e+01 1.151928806304931641e+01 1.004327678680419922e+01 2.826851844787597656e+01 1.149353885650634766e+01 7.721769809722900391e+00
8.300000000000000000e+01 3.893866729736328125e+01 1.165182018280029297e+01 7.380488395690917969e+00 2.293773651123046875e+01 9.095467567443847656e+00 7.393473625183105469e+00
8.400000000000000000e+01 3.908716964721679688e+01 1.178435134887695312e+01 6.296147823333740234e+00 2.181437873840332031e+01 8.433157920837402344e+00 6.755043506622314453e+00
8.500000000000000000e+01 3.859874343872070312e+01 1.142628288269042969e+01 1.106126022338867188e+01 3.781429672241210938e+01 1.466266727447509766e+01 8.009324073791503906e+00
8.600000000000000000e+01 3.871863555908203125e+01 1.158516407012939453e+01 6.573994636535644531e+00 2.940783500671386719e+01 1.079454898834228516e+01 6.335349559783935547e+00
8.700000000000000000e+01 3.883853149414062500e+01 1.174404621124267578e+01 4.794407367706298828e+00 2.497876548767089844e+01 8.931952476501464844e+00 5.561106681823730469e+00
8.800000000000000000e+01 3.895842742919921875e+01 1.190292739868164062e+01 4.206854820251464844e+00 2.123482704162597656e+01 7.632504940032958984e+00 5.436665534973144531e+00
8.900000000000000000e+01 3.854895782470703125e+01 1.145670795440673828e+01 7.032434940338134766e+00 3.922175979614257812e+01 1.387625789642333984e+01 5.099184513092041016e+00
9.000000000000000000e+01 3.863566589355468750e+01 1.163587284088134766e+01 3.777830362319946289e+00 3.046437263488769531e+01 1.027266120910644531e+01 3.352250099182128906e+00
9.100000000000000000e+01 3.872237396240234375e+01 1.181503772735595703e+01 2.787083864212036133e+00 2.508456993103027344e+01 8.361495971679687500e+00 3.212439537048339844e+00
9.200000000000000000e+01 3.880907821655273438e+01 1.199420261383056641e+01 1.003890156745910645e+00 2.176160430908203125e+01 6.829648017883300781e+00 2.316038608551025391e+00
9.300000000000000000e+01 3.849420928955078125e+01 1.147687053680419922e+01 3.978760480880737305e+00 3.954431152343750000e+01 1.305692195892333984e+01 6.131073236465454102e-01
9.400000000000000000e+01 3.854441833496093750e+01 1.166947746276855469e+01 2.287617444992065430e+00 2.958035659790039062e+01 9.560392379760742188e+00 5.413758754730224609e-02
9.500000000000000000e+01 3.859462738037109375e+01 1.186208343505859375e+01 1.039640903472900391e+00 2.440227890014648438e+01 7.632575988769531250e+00 -2.461216896772384644e-01
9.600000000000000000e+01 3.864483261108398438e+01 1.205469036102294922e+01 -4.989654198288917542e-02 2.157724761962890625e+01 6.458205223083496094e+00 5.893659591674804688e-01
9.700000000000000000e+01 3.843658447265625000e+01 1.148600101470947266e+01 2.724838733673095703e+00 3.748445129394531250e+01 1.206278800964355469e+01 -4.033765792846679688e+00
9.800000000000000000e+01 3.844837951660156250e+01 1.168469429016113281e+01 1.820529460906982422e+00 2.727179145812988281e+01 8.727696418762207031e+00 -3.814534187316894531e+00
9.900000000000000000e+01 3.846017074584960938e+01 1.188338756561279297e+01 5.811429023742675781e-01 2.239795494079589844e+01 6.893729209899902344e+00 -2.886077642440795898e+00
1.000000000000000000e+02 3.847196197509765625e+01 1.208208084106445312e+01 5.171204805374145508e-01 1.895040321350097656e+01 5.840257167816162109e+00 -2.157521963119506836e+00
1.010000000000000000e+02 3.837828445434570312e+01 1.148375034332275391e+01 3.496040344238281250e+00 3.322581481933593750e+01 1.101655673980712891e+01 -8.696476936340332031e+00
1.020000000000000000e+02 3.835121154785156250e+01 1.168094253540039062e+01 2.177744626998901367e+00 2.343019294738769531e+01 7.682381629943847656e+00 -6.676359653472900391e+00
1.030000000000000000e+02 3.832413482666015625e+01 1.187813568115234375e+01 1.693030118942260742e+00 1.878634834289550781e+01 6.143813610076904297e+00 -5.343029499053955078e+00
1.040000000000000000e+02 3.829706192016601562e+01 1.207532882690429688e+01 8.602855205535888672e-01 1.578371047973632812e+01 4.993198871612548828e+00 -4.496040821075439453e+00
1.050000000000000000e+02 3.832153701782226562e+01 1.147020435333251953e+01 5.168774127960205078e+00 2.688089942932128906e+01 9.614902496337890625e+00 -1.186865901947021484e+01
1.060000000000000000e+02 3.825662994384765625e+01 1.165836620330810547e+01 3.930068254470825195e+00 1.827006721496582031e+01 6.660040855407714844e+00 -8.482816696166992188e+00
1.070000000000000000e+02 3.819172286987304688e+01 1.184652900695800781e+01 2.727406501770019531e+00 1.437771701812744141e+01 5.131536960601806641e+00 -6.709586143493652344e+00
1.080000000000000000e+02 3.812681579589843750e+01 1.203469181060791016e+01 2.130952119827270508e+00 1.224959278106689453e+01 4.314163208007812500e+00 -5.626393795013427734e+00
1.090000000000000000e+02 3.826850509643554688e+01 1.144588088989257812e+01 7.806413650512695312e+00 1.928937911987304688e+01 8.128738403320312500e+00 -1.294518756866455078e+01
1.100000000000000000e+02 3.816824340820312500e+01 1.161782741546630859e+01 5.448784351348876953e+00 1.249989891052246094e+01 5.384604930877685547e+00 -8.744235992431640625e+00
1.110000000000000000e+02 3.806798171997070312e+01 1.178977489471435547e+01 4.173528194427490234e+00 9.642070770263671875e+00 4.144679546356201172e+00 -6.684165477752685547e+00
1.120000000000000000e+02 3.796772003173828125e+01 1.196172142028808594e+01 3.052088975906372070e+00 8.295475006103515625e+00 3.404269218444824219e+00 -5.323267936706542969e+00
1.130000000000000000e+02 3.822121810913085938e+01 1.141170787811279297e+01 9.989251136779785156e+00 1.140657043457031250e+01 6.418746471405029297e+00 -1.160222434997558594e+01
1.140000000000000000e+02 3.808943176269531250e+01 1.156087398529052734e+01 6.270572662353515625e+00 6.769521713256835938e+00 3.912028312683105469e+00 -7.286518573760986328e+00
1.150000000000000000e+02 3.795764160156250000e+01 1.171003913879394531e+01 4.816820621490478516e+00 5.587488651275634766e+00 3.121292829513549805e+00 -5.286614418029785156e+00
1.160000000000000000e+02 3.782585525512695312e+01 1.185920429229736328e+01 3.735720634460449219e+00 4.412891387939453125e+00 2.444583654403686523e+00 -4.305190563201904297e+00
1.170000000000000000e+02 3.818148040771484375e+01 1.136899185180664062e+01 9.783859252929687500e+00 3.990854740142822266e+00 4.132414340972900391e+00 -8.040235519409179688e+00
1.180000000000000000e+02 3.802319717407226562e+01 1.148967933654785156e+01 5.881173610687255859e+00 2.509686946868896484e+00 2.517258167266845703e+00 -4.345165729522705078e+00
1.190000000000000000e+02 3.786491775512695312e+01 1.161036777496337891e+01 3.865788221359252930e+00 2.170607328414916992e+00 1.810918688774108887e+00 -3.054253101348876953e+00
1.200000000000000000e+02 3.770663833618164062e+01 1.173105525970458984e+01 3.163860082626342773e+00 2.607842206954956055e+00 1.731510758399963379e+00 -2.735729694366455078e+00
1.210000000000000000e+02 3.815080642700195312e+01 1.131936264038085938e+01 7.080789089202880859e+00 -1.485440969467163086e+00 1.678604483604431152e+00 -2.408159971237182617e+00
1.220000000000000000e+02 3.797207641601562500e+01 1.140696430206298828e+01 1.961227536201477051e+00 7.556493580341339111e-02 6.110377311706542969e-01 -8.508145809173583984e-01
1.230000000000000000e+02 3.779334640502929688e+01 1.149456501007080078e+01 2.028005838394165039e+00 1.333303689956665039e+00 1.008392810821533203e+00 -1.487881183624267578e+00
1.240000000000000000e+02 3.761461639404296875e+01 1.158216762542724609e+01 1.563121438026428223e+00 1.237611472606658936e-01 5.060647726058959961e-01 -7.573374509811401367e-01
1.250000000000000000e+02 3.813037109375000000e+01 1.126471614837646484e+01 -5.031813621520996094e+00 -3.535071134567260742e+00 -2.570065498352050781e+00 3.102099180221557617e+00
1.260000000000000000e+02 3.793801498413085938e+01 1.131588554382324219e+01 -1.110001683235168457e+00 1.232267379760742188e+00 3.667973726987838745e-02 -1.345876306295394897e-01
1.270000000000000000e+02 3.774566268920898438e+01 1.136705589294433594e+01 -1.393584847450256348e+00 -6.887095570564270020e-01 -6.246883273124694824e-01 3.321559131145477295e-01
1.280000000000000000e+02 3.755331039428710938e+01 1.141822624206542969e+01 -1.213181734085083008e+00 3.223355114459991455e-01 -2.672538757324218750e-01 2.700894773006439209e-01
1.290000000000000000e+02 3.687622451782226562e+01 1.087442302703857422e+01 1.294638991355895996e+00 4.319410324096679688e-01 5.179740190505981445e-01 7.544035315513610840e-01
1.300000000000000000e+02 3.894593048095703125e+01 1.027741146087646484e+01 3.132735013961791992e+00 2.144905281066894531e+01 7.374536514282226562e+00 1.155071973800659180e+00
1.310000000000000000e+02 3.909933853149414062e+01 1.035511684417724609e+01 4.104119300842285156e+00 1.926163673400878906e+01 7.009726524353027344e+00 3.426118195056915283e-01
1.320000000000000000e+02 3.949465942382812500e+01 1.129101848602294922e+01 1.039952182769775391e+01 1.345197486877441406e+01 7.155448913574218750e+00 5.505549430847167969e+00
1.330000000000000000e+02 3.949632263183593750e+01 1.166813182830810547e+01 7.034251689910888672e+00 1.415361404418945312e+01 6.356359958648681641e+00 6.090705871582031250e+00
1.340000000000000000e+02 3.822880935668945312e+01 1.230787277221679688e+01 4.801933765411376953e-01 1.321282196044921875e+01 4.107904911041259766e+00 -4.022168636322021484e+00
1.350000000000000000e+02 3.877206802368164062e+01 1.019952964782714844e+01 1.991440415382385254e+00 2.186750221252441406e+01 7.157682895660400391e+00 2.599368572235107422e+00
1.360000000000000000e+02 3.737143325805664062e+01 1.014050006866455078e+01 3.090941905975341797e+00 5.327730178833007812e+00 2.525601625442504883e+00 5.695456027984619141e+00
1.370000000000000000e+02 3.631558609008789062e+01 1.059203815460205078e+01 7.172067761421203613e-01 -2.340448945760726929e-01 1.449485719203948975e-01 8.891083300113677979e-02
1.380000000000000000e+02 3.758424758911132812e+01 1.044653606414794922e+01 5.381080150604248047e+00 4.720123767852783203e+00 3.030361175537109375e+00 6.367320060729980469e+00
1.390000000000000000e+02 3.812377548217773438e+01 9.904363632202148438e+00 1.872761130332946777e+00 1.472193431854248047e+01 4.978408336639404297e+00 7.251469612121582031e+00
1.400000000000000000e+02 3.789732742309570312e+01 1.017480182647705078e+01 3.497415542602539062e+00 1.111914730072021484e+01 4.384968757629394531e+00 8.542376518249511719e+00
1.410000000000000000e+02 3.838066101074218750e+01 1.002276515960693359e+01 6.721847653388977051e-01 1.790380859375000000e+01 5.572797775268554688e+00 6.502096652984619141e+00
1.420000000000000000e+02 3.784112930297851562e+01 1.213682460784912109e+01 2.497634887695312500e+00 6.664247035980224609e+00 2.748564720153808594e+00 -4.543526172637939453e+00
1.430000000000000000e+02 3.680784988403320312e+01 1.267584991455078125e+01 7.150274515151977539e-01 1.187645554542541504e+00 5.708019137382507324e-01 -1.165056586265563965e+00
1.440000000000000000e+02 3.641345214843750000e+01 1.293328666687011719e+01 2.202039241790771484e+00 2.368774652481079102e+00 1.371244192123413086e+00 -1.907153964042663574e+00
1.450000000000000000e+02 3.647484207153320312e+01 1.275747871398925781e+01 -8.755042403936386108e-02 1.327976584434509277e+00 3.721278309822082520e-01 -5.324553251266479492e-01
1.460000000000000000e+02 3.660787582397460938e+01 1.199558067321777344e+01 8.587360382080078125e-02 -5.940349102020263672e-01 -1.524483859539031982e-01 3.423502668738365173e-02
1.470000000000000000e+02 3.696586990356445312e+01 1.153780841827392578e+01 -6.008709073066711426e-01 -3.205100446939468384e-02 -1.898765712976455688e-01 2.936020195484161377e-01
1.480000000000000000e+02 3.657117462158203125e+01 1.159243869781494141e+01 -5.784589424729347229e-02 -1.048870235681533813e-01 -4.881987720727920532e-02 7.766276597976684570e-02
1.490000000000000000e+02 3.736056900024414062e+01 1.146542072296142578e+01 -1.027089118957519531e+00 -2.518612146377563477e-01 -3.836851119995117188e-01 2.903419435024261475e-01
1.500000000000000000e+02 3.966865158081054688e+01 1.113342380523681641e+01 9.235755920410156250e+00 1.198921489715576172e+01 6.367491245269775391e+00 3.573784828186035156e+00
1.510000000000000000e+02 3.948754882812500000e+01 1.147196674346923828e+01 1.135547542572021484e+01 1.421331501007080078e+01 7.670637130737304688e+00 5.831205844879150391e+00
1.520000000000000000e+02 3.937413787841796875e+01 1.194799709320068359e+01 4.988088130950927734e+00 1.540220260620117188e+01 6.117087364196777344e+00 6.413133144378662109e+00
1.530000000000000000e+02 3.886338806152343750e+01 1.220613574981689453e+01 -1.485519409179687500e-01 2.012014007568359375e+01 5.991476058959960938e+00 2.503118753433227539e+00
1.540000000000000000e+02 3.864583206176757812e+01 1.227932357788085938e+01 8.026780933141708374e-02 1.817670440673828125e+01 5.477091789245605469e+00 4.655105173587799072e-01
1.550000000000000000e+02 3.802525329589843750e+01 1.224716663360595703e+01 1.270325660705566406e+00 1.031945991516113281e+01 3.476935863494873047e+00 -4.578627109527587891e+00
1.560000000000000000e+02 3.751425552368164062e+01 1.185594177246093750e+01 2.472219944000244141e+00 1.374719619750976562e+00 1.154081821441650391e+00 -1.893298387527465820e+00
1.570000000000000000e+02 3.731788635253906250e+01 1.122728824615478516e+01 -6.534129381179809570e-01 2.520715072751045227e-02 -1.884617358446121216e-01 1.661586314439773560e-01
1.580000000000000000e+02 3.687141036987304688e+01 1.108436965942382812e+01 1.748668253421783447e-01 1.497385948896408081e-01 9.738162904977798462e-02 -3.521393835544586182e-01
1.590000000000000000e+02 3.713626098632812500e+01 9.984036445617675781e+00 2.878368377685546875e+00 4.446195602416992188e+00 2.197369098663330078e+00 4.862080574035644531e+00
1.600000000000000000e+02 3.930145645141601562e+01 1.042045497894287109e+01 5.555653095245361328e+00 1.626751708984375000e+01 6.546950817108154297e+00 4.690551012754440308e-02
1.610000000000000000e+02 3.650269317626953125e+01 1.115563011169433594e+01 -9.208762645721435547e-02 -2.403137534856796265e-01 -9.972041100263595581e-02 -1.993494778871536255e-01
1.620000000000000000e+02 3.653614807128906250e+01 1.135612106323242188e+01 -9.933344274759292603e-02 -5.924485251307487488e-02 -4.757348820567131042e-02 -7.897833734750747681e-02
1.630000000000000000e+02 3.622883987426757812e+01 1.042631244659423828e+01 -8.747674524784088135e-02 4.351643919944763184e-01 1.043062880635261536e-01 8.590748310089111328e-01
1.640000000000000000e+02 3.613591003417968750e+01 1.026802635192871094e+01 1.411762833595275879e+00 1.321233391761779785e+00 8.198989033699035645e-01 7.166168093681335449e-01
1.650000000000000000e+02 3.603786087036132812e+01 1.011766719818115234e+01 2.732929289340972900e-01 1.565182447433471680e+00 5.515426397323608398e-01 1.481225252151489258e+00
1.660000000000000000e+02 3.673595046997070312e+01 1.008792495727539062e+01 2.392161607742309570e+00 2.230173587799072266e+00 1.386700510978698730e+00 2.844216585159301758e+00
1.670000000000000000e+02 3.973805618286132812e+01 1.138663196563720703e+01 9.276563644409179688e+00 1.131276893615722656e+01 6.176799774169921875e+00 4.648788928985595703e+00
1.680000000000000000e+02 3.893800735473632812e+01 1.242148399353027344e+01 -2.906471788883209229e-01 1.748042488098144531e+01 5.156933307647705078e+00 2.284174203872680664e+00
1.690000000000000000e+02 3.773184967041015625e+01 1.029244518280029297e+01 5.403674602508544922e+00 8.237988471984863281e+00 4.092498779296875000e+00 7.697870731353759766e+00
1.700000000000000000e+02 3.866737747192382812e+01 9.878545761108398438e+00 -4.296317994594573975e-01 1.803014564514160156e+01 5.280154228210449219e+00 4.756668090820312500e+00
1.710000000000000000e+02 3.877429580688476562e+01 1.007896804809570312e+01 1.763792991638183594e+00 2.038887214660644531e+01 6.645799160003662109e+00 3.574377536773681641e+00
1.720000000000000000e+02 3.858455276489257812e+01 1.254672145843505859e+01 -6.601179242134094238e-01 1.401569271087646484e+01 4.006672382354736328e+00 -6.779929399490356445e-01
1.730000000000000000e+02 3.844135284423828125e+01 1.230654239654541016e+01 -2.126064747571945190e-01 1.566057395935058594e+01 4.634390354156494141e+00 -2.217581033706665039e+00
1.740000000000000000e+02 3.794404220581054688e+01 1.264494514465332031e+01 2.097223997116088867e-01 9.259591102600097656e+00 2.840794086456298828e+00 -3.633025407791137695e+00
1.750000000000000000e+02 3.754423904418945312e+01 1.016052150726318359e+01 4.344830036163330078e+00 6.617654323577880859e+00 3.288745403289794922e+00 6.820468902587890625e+00
1.760000000000000000e+02 3.807421493530273438e+01 1.011252689361572266e+01 3.253552198410034180e+00 1.464869403839111328e+01 5.370673656463623047e+00 7.906105518341064453e+00
1.770000000000000000e+02 3.910287857055664062e+01 1.214717864990234375e+01 1.936493277549743652e+00 1.710745048522949219e+01 5.713183403015136719e+00 3.756910085678100586e+00
1.780000000000000000e+02 3.949518585205078125e+01 1.113512992858886719e+01 1.213110351562500000e+01 1.364853000640869141e+01 7.733890056610107422e+00 2.653763294219970703e+00
1.790000000000000000e+02 3.714702224731445312e+01 1.090773677825927734e+01 1.764245152473449707e+00 3.074631392955780029e-01 6.215124726295471191e-01 8.362678885459899902e-01
1.800000000000000000e+02 3.733335113525390625e+01 1.100873088836669922e+01 2.518311977386474609e+00 3.515774011611938477e-01 8.609668612480163574e-01 6.590839028358459473e-01
1.810000000000000000e+02 3.711268234252929688e+01 1.124951362609863281e+01 -7.352800369262695312e-01 2.322773635387420654e-02 -2.136157006025314331e-01 1.030093058943748474e-01
1.820000000000000000e+02 3.746347427368164062e+01 1.061728763580322266e+01 5.893608093261718750e+00 2.654063701629638672e+00 2.564301490783691406e+00 4.304697036743164062e+00
1.830000000000000000e+02 3.900834655761718750e+01 1.017774677276611328e+01 3.161909103393554688e+00 1.981830024719238281e+01 6.894062995910644531e+00 1.135440468788146973e+00
1.840000000000000000e+02 3.774882888793945312e+01 9.921411514282226562e+00 3.141711950302124023e+00 1.005387306213378906e+01 3.958675384521484375e+00 7.202459812164306641e+00
1.850000000000000000e+02 3.793298339843750000e+01 9.876670837402343750e+00 1.661953210830688477e+00 1.140796279907226562e+01 3.920974969863891602e+00 7.806735038757324219e+00
1.860000000000000000e+02 3.716482162475585938e+01 1.150502490997314453e+01 -8.560627698898315430e-01 2.341046370565891266e-02 -2.497956901788711548e-01 2.321286648511886597e-01
1.870000000000000000e+02 3.754259490966796875e+01 1.259803962707519531e+01 1.009950995445251465e+00 4.930336952209472656e+00 1.782086491584777832e+00 -2.923925161361694336e+00
1.880000000000000000e+02 3.837726974487304688e+01 1.257387828826904297e+01 -6.605472564697265625e-01 1.367671203613281250e+01 3.904849529266357422e+00 -2.581543445587158203e+00
1.890000000000000000e+02 3.656493759155273438e+01 1.240965080261230469e+01 -2.588144242763519287e-01 8.992749452590942383e-02 -5.066607892513275146e-02 -2.952388823032379150e-01
1.900000000000000000e+02 3.702370834350585938e+01 1.196824073791503906e+01 7.882953286170959473e-01 4.121856391429901123e-01 3.601442873477935791e-01 -2.652259171009063721e-01
1.910000000000000000e+02 3.660673522949218750e+01 1.221241092681884766e+01 1.903707832098007202e-01 -4.324919581413269043e-01 -7.263635098934173584e-02 -2.287911325693130493e-01
1.920000000000000000e+02 3.679388046264648438e+01 1.177602291107177734e+01 1.122827827930450439e-01 -1.489247977733612061e-01 -1.099260710179805756e-02 2.841343879699707031e-01
1.930000000000000000e+02 3.676757812500000000e+01 1.156599140167236328e+01 -2.708397805690765381e-01 -1.112090647220611572e-01 -1.146146506071090698e-01 2.300519943237304688e-01
1.940000000000000000e+02 3.672928237915039062e+01 1.132241725921630859e+01 -4.057231545448303223e-01 1.187993912026286125e-03 -1.213605478405952454e-01 -1.581113189458847046e-01
1.950000000000000000e+02 3.651486968994140625e+01 1.257963562011718750e+01 5.047854185104370117e-01 9.962919354438781738e-01 4.503231942653656006e-01 -3.827702105045318604e-01
1.960000000000000000e+02 3.719216537475585938e+01 1.260548019409179688e+01 9.471733570098876953e-01 2.860440254211425781e+00 1.142284035682678223e+00 -2.086039781570434570e+00
1.970000000000000000e+02 3.755198287963867188e+01 1.275497055053710938e+01 5.538572669029235840e-01 5.786885261535644531e+00 1.902222752571105957e+00 -2.897830486297607422e+00
1.980000000000000000e+02 3.753760910034179688e+01 9.941802024841308594e+00 2.835634708404541016e+00 7.499124050140380859e+00 3.100427627563476562e+00 6.608684539794921875e+00
1.990000000000000000e+02 3.694389343261718750e+01 1.004815387725830078e+01 3.011266231536865234e+00 3.670026779174804688e+00 2.004387855529785156e+00 3.854313373565673828e+00
2.000000000000000000e+02 3.816304779052734375e+01 1.259411525726318359e+01 -2.359840273857116699e-01 1.113470745086669922e+01 3.269617080688476562e+00 -3.134749412536621094e+00
2.010000000000000000e+02 3.699836349487304688e+01 1.263280487060546875e+01 9.189428091049194336e-01 2.470525026321411133e+00 1.016840338706970215e+00 -1.962649106979370117e+00
2.020000000000000000e+02 3.717140579223632812e+01 1.280351638793945312e+01 7.121521234512329102e-01 3.658382415771484375e+00 1.311160326004028320e+00 -2.290245294570922852e+00
2.030000000000000000e+02 3.652217102050781250e+01 1.031969928741455078e+01 1.434383153915405273e+00 1.188632130622863770e+00 7.869046330451965332e-01 1.680349946022033691e+00
2.040000000000000000e+02 3.632198333740234375e+01 1.007781410217285156e+01 1.329082608222961426e+00 1.418120503425598145e+00 8.241609930992126465e-01 1.692830204963684082e+00
2.050000000000000000e+02 3.616887283325195312e+01 1.008416843414306641e+01 1.369755506515502930e+00 1.506190061569213867e+00 8.627836704254150391e-01 1.106580495834350586e+00
2.060000000000000000e+02 3.691926193237304688e+01 1.129192352294921875e+01 -6.642671227455139160e-01 1.395312994718551636e-01 -1.574207395315170288e-01 -2.272741682827472687e-02
2.070000000000000000e+02 3.646158981323242188e+01 1.095294380187988281e+01 1.078951284289360046e-01 -4.599553942680358887e-01 -1.056180745363235474e-01 -1.949693858623504639e-01
2.080000000000000000e+02 3.723597335815429688e+01 1.053705120086669922e+01 4.537261009216308594e+00 2.071920394897460938e+00 1.982754349708557129e+00 3.487887144088745117e+00
2.090000000000000000e+02 3.765787506103515625e+01 1.201721572875976562e+01 2.696631669998168945e+00 4.069142341613769531e+00 2.029732227325439453e+00 -3.393587112426757812e+00
2.100000000000000000e+02 3.680981445312500000e+01 1.245777320861816406e+01 7.411494851112365723e-01 1.332532286643981934e+00 6.221045851707458496e-01 -1.361340165138244629e+00
2.110000000000000000e+02 3.667653274536132812e+01 1.085877418518066406e+01 5.988283157348632812e-01 4.580174386501312256e-01 3.170537352561950684e-01 3.016184866428375244e-01
2.120000000000000000e+02 3.659506988525390625e+01 1.063447761535644531e+01 1.556461334228515625e+00 5.646123290061950684e-01 6.363220810890197754e-01 8.255330920219421387e-01
2.130000000000000000e+02 3.663973236083984375e+01 1.253154373168945312e+01 3.615432679653167725e-01 2.234698086977005005e-01 1.755039244890213013e-01 -6.432006359100341797e-01
2.140000000000000000e+02 3.706666946411132812e+01 1.026576995849609375e+01 3.029162406921386719e+00 2.676039457321166992e+00 1.711560606956481934e+00 3.732353210449218750e+00
2.150000000000000000e+02 3.700102615356445312e+01 1.175408458709716797e+01 4.306359887123107910e-01 2.542710602283477783e-01 2.054721117019653320e-01 6.028904020786285400e-02
2.160000000000000000e+02 3.726950073242187500e+01 1.193808937072753906e+01 1.654263257980346680e+00 1.405604124069213867e+00 9.179602265357971191e-01 -1.275912523269653320e+00
2.170000000000000000e+02 3.758548736572265625e+01 1.245419311523437500e+01 1.483261823654174805e+00 5.150082588195800781e+00 1.990003228187561035e+00 -3.361117839813232422e+00
2.180000000000000000e+02 3.697902297973632812e+01 1.048501014709472656e+01 2.788429498672485352e+00 1.807583928108215332e+00 1.378804087638854980e+00 2.400553226470947266e+00
2.190000000000000000e+02 3.659369277954101562e+01 1.290328884124755859e+01 7.094484567642211914e-01 6.346626281738281250e-01 4.032333195209503174e-01 -4.265656173229217529e-01
2.200000000000000000e+02 3.626424407958984375e+01 1.020254135131835938e+01 9.388965368270874023e-01 1.051106333732604980e+00 5.970008969306945801e-01 1.487854361534118652e+00
2.210000000000000000e+02 3.678335571289062500e+01 1.286749362945556641e+01 6.631103754043579102e-01 2.379142761230468750e+00 9.126759171485900879e-01 -1.591946601867675781e+00
2.220000000000000000e+02 3.663016891479492188e+01 1.272421360015869141e+01 9.935799837112426758e-01 1.569545984268188477e+00 7.689377665519714355e-01 -1.501281499862670898e+00
2.230000000000000000e+02 3.697730255126953125e+01 1.283294677734375000e+01 6.847984194755554199e-01 2.214235544204711914e+00 8.697102069854736328e-01 -1.664969801902770996e+00
2.240000000000000000e+02 3.651839065551757812e+01 1.008778190612792969e+01 1.896751880645751953e+00 1.683429121971130371e+00 1.074054241180419922e+00 2.270405292510986328e+00
2.250000000000000000e+02 3.673069381713867188e+01 1.040099906921386719e+01 1.987647652626037598e+00 1.433328270912170410e+00 1.026292800903320312e+00 2.116582155227661133e+00
2.260000000000000000e+02 3.736287307739257812e+01 1.277983856201171875e+01 7.202466726303100586e-01 4.062379837036132812e+00 1.434787988662719727e+00 -2.431454658508300781e+00
2.270000000000000000e+02 3.769197463989257812e+01 1.255253314971923828e+01 8.954381346702575684e-01 6.667273998260498047e+00 2.268813610076904297e+00 -3.431428432464599609e+00
2.280000000000000000e+02 3.774119186401367188e+01 1.271383666992187500e+01 5.033357143402099609e-01 6.794379234313964844e+00 2.189314603805541992e+00 -3.225843906402587891e+00
2.290000000000000000e+02 3.785999298095703125e+01 1.243637561798095703e+01 1.154446125030517578e+00 7.932669639587402344e+00 2.726134777069091797e+00 -3.961959600448608398e+00
2.300000000000000000e+02 3.769773864746093750e+01 1.230543136596679688e+01 1.817554116249084473e+00 6.075570583343505859e+00 2.367937326431274414e+00 -3.777377367019653320e+00
2.310000000000000000e+02 3.721591186523437500e+01 1.172010803222656250e+01 7.550218105316162109e-01 1.094449535012245178e-01 2.593400180339813232e-01 -1.380745321512222290e-01
2.320000000000000000e+02 3.680680847167968750e+01 1.221792316436767578e+01 2.550028562545776367e-01 3.750075995922088623e-01 1.890031397342681885e-01 -3.596490621566772461e-01
2.330000000000000000e+02 3.659459304809570312e+01 1.179271030426025391e+01 2.152105048298835754e-02 -3.719112575054168701e-01 -1.051170602440834045e-01 1.311480104923248291e-01
2.340000000000000000e+02 3.636097717285156250e+01 1.034263896942138672e+01 1.387498974800109863e+00 8.556326031684875488e-01 6.729394793510437012e-01 1.248288750648498535e+00
2.350000000000000000e+02 3.639906692504882812e+01 1.076334571838378906e+01 -1.124676689505577087e-01 -5.078250169754028320e-01 -1.860878020524978638e-01 -2.046906389296054840e-02
2.360000000000000000e+02 3.702612304687500000e+01 1.103217887878417969e+01 1.379184842109680176e+00 5.334020256996154785e-01 5.737760663032531738e-01 1.965440958738327026e-01
2.370000000000000000e+02 3.739176559448242188e+01 1.081000614166259766e+01 4.177765369415283203e+00 1.069775104522705078e+00 1.574262142181396484e+00 2.465242624282836914e+00
2.380000000000000000e+02 3.742481994628906250e+01 1.166239738464355469e+01 1.104433536529541016e+00 6.362450718879699707e-01 5.222036242485046387e-01 -6.583770513534545898e-01
2.390000000000000000e+02 3.732987213134765625e+01 9.949669837951660156e+00 3.479251861572265625e+00 5.916473388671875000e+00 2.818717479705810547e+00 5.540442943572998047e+00
2.400000000000000000e+02 3.743527221679687500e+01 1.029925155639648438e+01 5.331704139709472656e+00 4.769908428192138672e+00 3.030483722686767578e+00 5.478700637817382812e+00
2.410000000000000000e+02 3.956766510009765625e+01 1.097740650177001953e+01 9.307076454162597656e+00 1.299238109588623047e+01 6.689836978912353516e+00 2.278306722640991211e+00
2.420000000000000000e+02 3.916496658325195312e+01 1.007697963714599609e+01 2.163762569427490234e+00 1.704796600341796875e+01 5.763518810272216797e+00 5.405973792076110840e-01
2.430000000000000000e+02 3.953115081787109375e+01 1.068205070495605469e+01 8.469346046447753906e+00 1.380766487121582031e+01 6.683103561401367188e+00 1.532891690731048584e-01
2.440000000000000000e+02 3.860472106933593750e+01 1.013365745544433594e+01 1.196209549903869629e+00 2.013785171508789062e+01 6.400218486785888672e+00 4.767308712005615234e+00
2.450000000000000000e+02 3.701383590698242188e+01 1.241440963745117188e+01 9.568585753440856934e-01 1.506924867630004883e+00 7.391350269317626953e-01 -1.401132225990295410e+00
2.460000000000000000e+02 3.750498962402343750e+01 1.220516681671142578e+01 2.216418504714965820e+00 3.421033620834350586e+00 1.691235661506652832e+00 -2.985416650772094727e+00
2.470000000000000000e+02 3.742148208618164062e+01 1.240655422210693359e+01 1.452914595603942871e+00 3.741594552993774414e+00 1.558352708816528320e+00 -2.600550174713134766e+00
2.480000000000000000e+02 3.737663650512695312e+01 1.259772205352783203e+01 1.033079981803894043e+00 4.302117824554443359e+00 1.600559353828430176e+00 -2.689216136932373047e+00
2.490000000000000000e+02 3.722454071044921875e+01 1.239270019531250000e+01 1.421885609626770020e+00 2.819331407546997070e+00 1.272365093231201172e+00 -2.236201286315917969e+00
2.500000000000000000e+02 3.669560623168945312e+01 1.110600185394287109e+01 9.977887570858001709e-02 3.881515935063362122e-02 4.157821089029312134e-02 -2.397768646478652954e-01
2.510000000000000000e+02 3.720349502563476562e+01 1.073844814300537109e+01 3.766321420669555664e+00 1.156023025512695312e+00 1.476703286170959473e+00 2.174402236938476562e+00
2.520000000000000000e+02 3.700656127929687500e+01 1.073540496826171875e+01 2.671759366989135742e+00 1.059786796569824219e+00 1.119463801383972168e+00 1.316247940063476562e+00
2.530000000000000000e+02 3.727019119262695312e+01 1.216622161865234375e+01 1.605024456977844238e+00 1.936707615852355957e+00 1.062519669532775879e+00 -1.627640604972839355e+00
2.540000000000000000e+02 3.725488281250000000e+01 1.034361362457275391e+01 3.670704603195190430e+00 3.490451812744140625e+00 2.148346900939941406e+00 4.246311187744140625e+00
2.550000000000000000e+02 3.720834350585937500e+01 1.017687606811523438e+01 4.041384220123291016e+00 4.342608451843261719e+00 2.515197753906250000e+00 5.057335853576660156e+00
2.560000000000000000e+02 3.680771636962890625e+01 1.198816776275634766e+01 4.715804159641265869e-01 1.821375489234924316e-01 1.961153894662857056e-01 -1.404826194047927856e-01
2.570000000000000000e+02 3.645385742187500000e+01 1.048725795745849609e+01 7.927471995353698730e-01 6.287551522254943848e-01 4.264506995677947998e-01 1.472551584243774414e+00
2.580000000000000000e+02 3.702536773681640625e+01 1.218793964385986328e+01 1.095325231552124023e+00 1.278966188430786133e+00 7.122874259948730469e-01 -1.190271139144897461e+00
2.590000000000000000e+02 3.600131225585937500e+01 9.849914550781250000e+00 1.246619939804077148e+00 1.076996564865112305e+00 6.970849633216857910e-01 1.712390542030334473e+00
2.600000000000000000e+02 3.361364364624023438e+01 7.317632198333740234e+00 -1.203631520271301270e+00 9.134244918823242188e-02 -3.336867094039916992e-01 -9.071937799453735352e-01
2.610000000000000000e+02 3.794046020507812500e+01 5.403836727142333984e+00 1.315971732139587402e+00 1.202188491821289062e+01 4.001357078552246094e+00 3.867295503616333008e+00
2.620000000000000000e+02 3.882744598388671875e+01 4.978515148162841797e+00 2.001362323760986328e+00 1.257390213012695312e+01 4.372579574584960938e+00 5.872624874114990234e+00
2.630000000000000000e+02 4.012015151977539062e+01 7.271792411804199219e+00 -1.613918840885162354e-01 7.420534610748291016e+00 2.177742719650268555e+00 2.702999353408813477e+00
2.640000000000000000e+02 3.545326614379882812e+01 8.485943794250488281e+00 -2.590199112892150879e-01 2.378339290618896484e+00 6.357957720756530762e-01 1.297930836677551270e+00
2.650000000000000000e+02 3.462187576293945312e+01 8.073329925537109375e+00 -7.630890607833862305e-01 8.807408809661865234e-01 3.529554978013038635e-02 2.995041310787200928e-01
2.660000000000000000e+02 2.834829902648925781e+01 2.355829000473022461e+00 -4.721113204956054688e+00 1.115856170654296875e+00 -1.081577062606811523e+00 -2.023931741714477539e+00
2.670000000000000000e+02 2.246532249450683594e+01 2.473965734243392944e-01 -4.327380955219268799e-01 7.349092006683349609e+00 2.074906110763549805e+00 -3.451060056686401367e+00
2.680000000000000000e+02 2.202261924743652344e+01 1.240347981452941895e+00 -1.197987794876098633e+00 8.769505500793457031e+00 2.271455287933349609e+00 -1.576795697212219238e+00
2.690000000000000000e+02 2.062629890441894531e+01 8.436662554740905762e-01 2.505977451801300049e-01 2.540060520172119141e+00 8.371974825859069824e-01 -6.208733916282653809e-01
2.700000000000000000e+02 2.486988258361816406e+01 1.284510135650634766e+00 -8.186410665512084961e-01 9.351548552513122559e-01 3.495413064956665039e-02 -5.868253707885742188e+00
2.710000000000000000e+02 2.141265106201171875e+01 -2.935099601745605469e-01 3.572737574577331543e-01 4.688546657562255859e+00 1.513746023178100586e+00 -2.304291486740112305e+00
2.720000000000000000e+02 2.391059684753417969e+01 -3.656832456588745117e+00 2.986886024475097656e+00 8.287869453430175781e+00 3.382426500320434570e+00 -5.360009193420410156e+00
2.730000000000000000e+02 2.559555053710937500e+01 -4.289103031158447266e+00 2.302566528320312500e+00 1.096805095672607422e+01 3.981185197830200195e+00 -1.800315260887145996e+00
2.740000000000000000e+02 2.662443923950195312e+01 -6.593682765960693359e+00 3.133114576339721680e+00 1.254761981964111328e+01 4.704220294952392578e+00 6.292940974235534668e-01
2.750000000000000000e+02 2.553447914123535156e+01 -7.392796516418457031e+00 2.125858068466186523e+00 2.156514549255371094e+01 7.107301235198974609e+00 2.155543491244316101e-02
2.760000000000000000e+02 2.287281227111816406e+01 -9.377948760986328125e+00 5.006601810455322266e-01 -2.304217219352722168e-01 8.107153326272964478e-02 1.311015963554382324e+00
2.770000000000000000e+02 2.497372436523437500e+01 -9.298501968383789062e+00 4.747996330261230469e+00 1.208229732513427734e+01 5.049088001251220703e+00 4.494540691375732422e+00
2.780000000000000000e+02 3.032153320312500000e+01 -7.662834644317626953e+00 1.096035122871398926e+00 3.831221580505371094e+00 1.478176951408386230e+00 -1.454856395721435547e+00
2.790000000000000000e+02 3.399674606323242188e+01 -1.164581871032714844e+01 9.503560662269592285e-01 1.717371463775634766e+00 8.003183007240295410e-01 -1.236604213714599609e+00
2.800000000000000000e+02 3.808511352539062500e+01 -1.589029407501220703e+01 -6.024120450019836426e-01 5.746005848050117493e-02 -1.634856015443801880e-01 -4.350584745407104492e-01
2.810000000000000000e+02 2.083713531494140625e+01 2.878997325897216797e+00 7.100400924682617188e+00 2.552927255630493164e+00 2.895998477935791016e+00 -9.471415877342224121e-01
2.820000000000000000e+02 2.268745231628417969e+01 3.640906572341918945e+00 5.371133804321289062e+00 2.165419197082519531e+01 8.107597351074218750e+00 -1.290072321891784668e+00
2.830000000000000000e+02 2.292058753967285156e+01 4.855143070220947266e+00 3.073686838150024414e+00 1.817808532714843750e+01 6.375531673431396484e+00 4.904777050018310547e+00
2.840000000000000000e+02 2.279108619689941406e+01 6.169947147369384766e+00 3.382929086685180664e+00 1.226612377166748047e+01 4.694715976715087891e+00 3.808011531829833984e+00
2.850000000000000000e+02 2.682412910461425781e+01 1.119451332092285156e+01 -2.887954235076904297e+00 4.874110698699951172e+00 5.958469510078430176e-01 -3.728654384613037109e-01
2.860000000000000000e+02 2.781542778015136719e+01 1.044293308258056641e+01 -2.959567546844482422e+00 -3.205781802535057068e-02 -8.974875807762145996e-01 -2.095773220062255859e+00
2.870000000000000000e+02 2.904327774047851562e+01 1.332507896423339844e+01 -1.518023729324340820e+00 -6.307321786880493164e-01 -6.446267962455749512e-01 -8.951950073242187500e-01
2.880000000000000000e+02 2.805248641967773438e+01 1.649259376525878906e+01 5.746982693672180176e-01 4.284958839416503906e+00 1.457897186279296875e+00 2.664740562438964844e+00
2.890000000000000000e+02 3.051470184326171875e+01 1.964154815673828125e+01 -2.537238299846649170e-01 1.437054276466369629e+00 3.549991250038146973e-01 1.301011323928833008e+00
2.900000000000000000e+02 2.983159446716308594e+01 2.489698982238769531e+01 -4.573515951633453369e-01 2.298267364501953125e+00 5.522747039794921875e-01 2.219177633523941040e-01
2.910000000000000000e+02 2.976478385925292969e+01 2.910033798217773438e+01 -2.712514996528625488e-01 2.241539478302001953e+00 5.910863876342773438e-01 -1.025701686739921570e-01
2.920000000000000000e+02 3.074576759338378906e+01 3.064356994628906250e+01 -1.684359461069107056e-01 2.281907320022583008e+00 6.340413689613342285e-01 -9.035518765449523926e-02
2.930000000000000000e+02 3.115452384948730469e+01 3.316092300415039062e+01 -6.031272932887077332e-02 2.275230169296264648e+00 6.644752621650695801e-01 -1.300746947526931763e-01
2.940000000000000000e+02 3.189421653747558594e+01 3.639207839965820312e+01 -1.601797342300415039e-02 2.419803619384765625e+00 7.211356759071350098e-01 -7.919981330633163452e-02
2.950000000000000000e+02 3.245479965209960938e+01 4.034805297851562500e+01 1.805323548614978790e-02 2.465484380722045898e+00 7.450612783432006836e-01 -3.773944079875946045e-02
2.960000000000000000e+02 2.734560585021972656e+01 4.035646057128906250e+01 1.005326732993125916e-01 1.897030711174011230e+00 5.992690324783325195e-01 -2.798527665436267853e-02
2.970000000000000000e+02 2.764425849914550781e+01 3.638892364501953125e+01 5.231048166751861572e-02 1.921125292778015137e+00 5.920307636260986328e-01 -9.820444881916046143e-02
2.980000000000000000e+02 2.586347389221191406e+01 3.204835510253906250e+01 -7.731889933347702026e-02 1.800444483757019043e+00 5.169376730918884277e-01 -1.711806207895278931e-01
2.990000000000000000e+02 2.394142723083496094e+01 3.031162452697753906e+01 -1.415623724460601807e-01 1.640789747238159180e+00 4.497682154178619385e-01 -2.257431894540786743e-01
3.000000000000000000e+02 2.893921089172363281e+01 2.668651962280273438e+01 -5.228436589241027832e-01 2.378103256225585938e+00 5.565778613090515137e-01 -6.740937475115060806e-03
3.010000000000000000e+02 2.711000633239746094e+01 1.935647773742675781e+01 -1.541333198547363281e+00 4.065257072448730469e+00 7.571771144866943359e-01 1.270878791809082031e+00
3.020000000000000000e+02 2.495112419128417969e+01 1.650635147094726562e+01 6.878037005662918091e-02 1.000933456420898438e+01 3.023434400558471680e+00 -1.913005352020263672e+00
3.030000000000000000e+02 2.686738586425781250e+01 1.612002944946289062e+01 1.762597680091857910e+00 5.759119510650634766e+00 2.256515264511108398e+00 3.053083896636962891e+00
3.040000000000000000e+02 2.585387802124023438e+01 1.558537101745605469e+01 3.836629867553710938e+00 1.375614070892333984e+01 5.277831077575683594e+00 1.329525947570800781e+00
3.050000000000000000e+02 2.635156440734863281e+01 1.388867092132568359e+01 2.168815612792968750e+00 6.992557525634765625e+00 2.748412132263183594e+00 5.737614631652832031e-01
3.060000000000000000e+02 2.469351387023925781e+01 1.328521347045898438e+01 1.861666917800903320e+00 1.204784870147705078e+01 4.172854423522949219e+00 5.087070941925048828e+00
3.070000000000000000e+02 2.372402954101562500e+01 1.219128990173339844e+01 3.241463899612426758e-01 6.446131706237792969e+00 2.031083345413208008e+00 2.501056432723999023e+00
3.080000000000000000e+02 2.230617713928222656e+01 9.363451004028320312e+00 -3.744634151458740234e+00 4.500957012176513672e+00 2.268968373537063599e-01 3.088882267475128174e-01
3.090000000000000000e+02 1.824170112609863281e+01 7.793661117553710938e+00 -6.105781555175781250e+00 -3.116816997528076172e+00 -2.766779661178588867e+00 -4.329428672790527344e+00
3.100000000000000000e+02 1.373495101928710938e+01 1.917372703552246094e+00 1.061533093452453613e+00 -1.283154368400573730e+00 -6.648638099431991577e-02 -2.351233005523681641e+00
3.110000000000000000e+02 1.229816818237304688e+01 2.511318206787109375e+00 2.066689729690551758e+00 1.311133980751037598e+00 1.013347148895263672e+00 -2.996781826019287109e+00
3.120000000000000000e+02 1.041126823425292969e+01 1.787719488143920898e+00 -1.541143298149108887e+00 1.606304287910461426e+00 1.954828202724456787e-02 -1.127678379416465759e-01
3.130000000000000000e+02 1.390813446044921875e+01 4.061563014984130859e+00 7.783820152282714844e+00 -4.270845890045166016e+00 1.053892254829406738e+00 -2.281931161880493164e+00
3.140000000000000000e+02 1.506945419311523438e+01 4.577252864837646484e+00 5.275129795074462891e+00 -3.542411088943481445e+00 5.198155641555786133e-01 -3.638996601104736328e+00
3.150000000000000000e+02 1.655405044555664062e+01 3.657509803771972656e+00 1.359883499145507812e+01 1.270084261894226074e+00 4.460675716400146484e+00 -7.912296652793884277e-01
3.160000000000000000e+02 1.865454673767089844e+01 2.904922246932983398e+00 7.797218799591064453e+00 4.628408253192901611e-01 2.478018045425415039e+00 -1.665612339973449707e+00
3.170000000000000000e+02 1.798516654968261719e+01 4.128965854644775391e+00 9.814844131469726562e+00 4.535083174705505371e-01 3.080505847930908203e+00 -1.912551969289779663e-01
3.180000000000000000e+02 2.000315093994140625e+01 3.744148492813110352e+00 8.394349098205566406e+00 -8.801782503724098206e-03 2.515664100646972656e+00 3.013691902160644531e-01
3.190000000000000000e+02 2.395510864257812500e+01 6.739193439483642578e+00 3.574563026428222656e+00 1.128032970428466797e+01 4.456467628479003906e+00 5.587255477905273438e+00
3.200000000000000000e+02 2.489843368530273438e+01 7.643941879272460938e+00 2.156861543655395508e+00 6.888555526733398438e+00 2.713625192642211914e+00 4.488948822021484375e+00
3.210000000000000000e+02 3.196298408508300781e+01 1.394360733032226562e+01 -4.452509403228759766e+00 -1.823006272315979004e+00 -1.882654666900634766e+00 -2.559659242630004883e+00
3.220000000000000000e+02 3.265695190429687500e+01 1.526433277130126953e+01 -3.448380470275878906e+00 -1.426469445228576660e+00 -1.462454915046691895e+00 -8.146094679832458496e-01
3.230000000000000000e+02 3.415178680419921875e+01 1.664167785644531250e+01 -2.791504859924316406e-01 -3.076924681663513184e-01 -1.760528981685638428e-01 -1.244642376899719238e+00
3.240000000000000000e+02 3.349277496337890625e+01 2.244498062133789062e+01 -1.235776692628860474e-01 1.956173896789550781e+00 5.497788786888122559e-01 1.049464643001556396e-01
3.250000000000000000e+02 3.356878662109375000e+01 3.222917938232421875e+01 -9.584807604551315308e-02 2.548336744308471680e+00 7.357466220855712891e-01 -1.004189252853393555e-01
3.260000000000000000e+02 3.509216690063476562e+01 3.482296752929687500e+01 -6.016644835472106934e-02 2.747397184371948242e+00 8.061692118644714355e-01 -1.079423725605010986e-01
3.270000000000000000e+02 3.807437133789062500e+01 3.655436706542968750e+01 -7.655095309019088745e-02 3.092620134353637695e+00 9.048207998275756836e-01 -8.522321283817291260e-02
3.280000000000000000e+02 3.395437240600585938e+01 1.480672740936279297e+01 -5.192495346069335938e+00 -1.545069932937622070e+00 -2.021269559860229492e+00 -1.175983190536499023e+00
3.290000000000000000e+02 3.683691406250000000e+01 1.312279796600341797e+01 3.481918871402740479e-01 2.355512142181396484e+00 8.111112117767333984e-01 -1.475709319114685059e+00
3.300000000000000000e+02 3.703185653686523438e+01 1.308872509002685547e+01 3.272716701030731201e-01 3.428252458572387695e+00 1.126657247543334961e+00 -1.856300234794616699e+00
3.310000000000000000e+02 3.849409484863281250e+01 1.316253662109375000e+01 -1.771108508110046387e+00 1.212093639373779297e+01 3.104948282241821289e+00 -1.061452031135559082e+00
3.320000000000000000e+02 4.124225997924804688e+01 1.287052536010742188e+01 2.282506942749023438e+00 5.246381759643554688e+00 2.258666515350341797e+00 4.398320674896240234e+00
3.330000000000000000e+02 4.439638519287109375e+01 1.252422237396240234e+01 8.991062641143798828e-01 6.423805952072143555e-01 4.624460637569427490e-01 7.006940841674804688e-01
3.340000000000000000e+02 4.408121871948242188e+01 1.440689659118652344e+01 6.628463268280029297e-01 2.189448833465576172e+00 8.556885719299316406e-01 1.767568469047546387e+00
3.350000000000000000e+02 4.504315185546875000e+01 1.556946372985839844e+01 3.612874746322631836e-01 2.080888509750366211e+00 7.326527833938598633e-01 1.533753514289855957e+00
3.360000000000000000e+02 5.067227554321289062e+01 1.558973026275634766e+01 1.412944912910461426e+00 1.127012825012207031e+01 3.804921865463256836e+00 -1.640817165374755859e+00
3.370000000000000000e+02 4.609902191162109375e+01 1.651193428039550781e+01 1.150343894958496094e+00 2.282958745956420898e+00 1.029990792274475098e+00 6.421014070510864258e-01
3.380000000000000000e+02 5.014109420776367188e+01 1.690680885314941406e+01 -7.324609756469726562e-01 7.789585590362548828e+00 2.117137432098388672e+00 -1.203161239624023438e+00
3.390000000000000000e+02 5.081658172607421875e+01 1.260374832153320312e+01 9.260032773017883301e-01 2.078391456604003906e+01 6.512975215911865234e+00 -1.123844087123870850e-01
3.400000000000000000e+02 5.210149765014648438e+01 1.279376125335693359e+01 3.162015438079833984e+00 1.348552513122558594e+01 4.994262218475341797e+00 9.616389870643615723e-02
3.410000000000000000e+02 5.441804122924804688e+01 9.638263702392578125e+00 -2.494732141494750977e-01 8.584068298339843750e+00 2.500378608703613281e+00 3.228983581066131592e-01
3.420000000000000000e+02 5.703584671020507812e+01 9.807313919067382812e+00 -4.834873080253601074e-01 7.637271285057067871e-01 8.407193422317504883e-02 -1.037717014551162720e-01
3.430000000000000000e+02 5.795490264892578125e+01 1.066932392120361328e+01 -7.694377303123474121e-01 -2.025106102228164673e-01 -2.915844917297363281e-01 -5.760184526443481445e-01
3.440000000000000000e+02 5.829018402099609375e+01 1.247627544403076172e+01 -4.008395075798034668e-01 8.846388459205627441e-01 1.451397985219955444e-01 4.102119207382202148e-01
3.450000000000000000e+02 5.833983230590820312e+01 1.582581520080566406e+01 8.996468782424926758e-01 2.696621179580688477e+00 1.078880429267883301e+00 1.691744804382324219e+00
3.460000000000000000e+02 5.663262557983398438e+01 2.119385528564453125e+01 3.842457830905914307e-01 5.136803150177001953e+00 1.656314611434936523e+00 1.173550367355346680e+00
3.470000000000000000e+02 5.414919662475585938e+01 2.561988639831542969e+01 -1.692944914102554321e-01 5.327091693878173828e+00 1.547339081764221191e+00 4.626326262950897217e-01
3.480000000000000000e+02 5.699958801269531250e+01 3.008882141113281250e+01 -6.097630783915519714e-02 5.266502857208251953e+00 1.561658024787902832e+00 2.697173058986663818e-01
3.490000000000000000e+02 6.007208251953125000e+01 3.167774581909179688e+01 -1.829068362712860107e-02 5.438042640686035156e+00 1.625925660133361816e+00 1.608237773180007935e-01
3.500000000000000000e+02 5.987099075317382812e+01 3.402109146118164062e+01 -5.952320992946624756e-02 5.416983127593994141e+00 1.607238054275512695e+00 1.217617765069007874e-01
3.510000000000000000e+02 5.861738967895507812e+01 3.684450149536132812e+01 -1.231688112020492554e-01 5.326570510864257812e+00 1.561020493507385254e+00 6.284335255622863770e-02
3.520000000000000000e+02 5.765321731567382812e+01 4.048939132690429688e+01 -1.487816870212554932e-01 5.250141143798828125e+00 1.530407905578613281e+00 2.743435464799404144e-02
3.530000000000000000e+02 5.579038238525390625e+01 3.472719192504882812e+01 -1.561686545610427856e-01 5.147510528564453125e+00 1.497402548789978027e+00 1.154496446251869202e-01
3.540000000000000000e+02 5.441104888916015625e+01 3.170044136047363281e+01 -1.788207888603210449e-01 5.053571224212646484e+00 1.462425112724304199e+00 1.508054137229919434e-01
3.550000000000000000e+02 5.337075042724609375e+01 2.906070327758789062e+01 -2.016947716474533081e-01 5.135865211486816406e+00 1.480251073837280273e+00 2.279062122106552124e-01
3.560000000000000000e+02 5.246682357788085938e+01 2.690526771545410156e+01 -2.134899049997329712e-01 5.163938999176025391e+00 1.485134720802307129e+00 2.148893475532531738e-01
3.570000000000000000e+02 5.167260360717773438e+01 2.262103462219238281e+01 -3.976432085037231445e-01 5.821903705596923828e+00 1.627278208732604980e+00 3.298284113407135010e-01
3.580000000000000000e+02 5.505178070068359375e+01 2.074577522277832031e+01 4.201376438140869141e-02 5.735466957092285156e+00 1.733244299888610840e+00 1.308136820793151855e+00
3.590000000000000000e+02 5.622464752197265625e+01 1.620990943908691406e+01 9.542538523674011230e-01 4.709789752960205078e+00 1.699213147163391113e+00 2.352927207946777344e+00
3.600000000000000000e+02 5.331678771972656250e+01 1.264427280426025391e+01 2.482414007186889648e+00 9.081537246704101562e+00 3.469185352325439453e+00 1.170588612556457520e+00
3.610000000000000000e+02 5.371306610107421875e+01 1.413742351531982422e+01 1.455120205879211426e+00 8.360100746154785156e+00 2.944566249847412109e+00 2.246798515319824219e+00
3.620000000000000000e+02 5.891940689086914062e+01 1.156341266632080078e+01 -1.258045315742492676e+00 -6.344325542449951172e-01 -5.677433609962463379e-01 -7.904345393180847168e-01
3.630000000000000000e+02 4.044036483764648438e+01 1.157063865661621094e+01 6.441783905029296875e+00 7.660861492156982422e+00 4.230793476104736328e+00 4.306255817413330078e+00
3.640000000000000000e+02 4.158340072631835938e+01 1.206593227386474609e+01 3.366605758666992188e+00 3.449240446090698242e+00 2.044753789901733398e+00 3.903029203414916992e+00
3.650000000000000000e+02 4.023683166503906250e+01 9.824491500854492188e+00 1.606691956520080566e+00 8.388757705688476562e+00 2.998634815216064453e+00 4.851061105728149414e-01
3.660000000000000000e+02 3.937206268310546875e+01 9.378979682922363281e+00 -8.415828347206115723e-01 1.455734062194824219e+01 4.114727497100830078e+00 1.625046133995056152e+00
3.670000000000000000e+02 3.991921615600585938e+01 8.500219345092773438e+00 -1.916628241539001465e+00 1.028689384460449219e+01 2.511079788208007812e+00 1.313364505767822266e+00
3.680000000000000000e+02 1.500281620025634766e+01 -2.003039598464965820e+00 -1.411219239234924316e-01 -2.786351181566715240e-02 -5.069563165307044983e-02 9.937327355146408081e-02
3.690000000000000000e+02 1.567545795440673828e+01 -3.157020330429077148e+00 -2.329327017068862915e-01 -1.975179463624954224e-02 -7.580535113811492920e-02 1.735307574272155762e-01
3.700000000000000000e+02 1.570945930480957031e+01 -2.019075155258178711e+00 -9.036913514137268066e-02 -1.393985003232955933e-01 -6.893029063940048218e-02 1.417923718690872192e-01
3.710000000000000000e+02 1.144160842895507812e+01 -3.483672857284545898e+00 -2.057396918535232544e-01 9.650816768407821655e-02 -3.276946023106575012e-02 1.110199838876724243e-03
3.720000000000000000e+02 1.179671859741210938e+01 -1.950689792633056641e+00 -1.800471246242523193e-01 4.925436899065971375e-02 -3.923782706260681152e-02 3.361109644174575806e-02
3.730000000000000000e+02 1.231347370147705078e+01 -6.174370765686035156e+00 -2.524185478687286377e-01 1.409995704889297485e-01 -3.342569619417190552e-02 -7.564064860343933105e-02
3.740000000000000000e+02 1.289526939392089844e+01 -1.122612953186035156e+01 8.252039551734924316e-02 2.538152337074279785e-01 1.009006872773170471e-01 -1.826782226562500000e-01
3.750000000000000000e+02 1.284864807128906250e+01 -1.366051864624023438e+01 2.283566743135452271e-01 3.818379938602447510e-01 1.830583959817886353e-01 -4.301754757761955261e-02
3.760000000000000000e+02 1.062403392791748047e+01 -1.687557411193847656e+01 2.010915726423263550e-01 2.867508232593536377e-01 1.463527083396911621e-01 -1.672286167740821838e-02
3.770000000000000000e+02 8.248961448669433594e+00 -2.131611442565917969e+01 1.047219708561897278e-01 1.702925711870193481e-01 8.250436186790466309e-02 3.564080223441123962e-02
3.780000000000000000e+02 9.646087646484375000e+00 -2.492662239074707031e+01 6.149011850357055664e-02 4.728638231754302979e-01 1.603061854839324951e-01 1.065924614667892456e-01
3.790000000000000000e+02 1.113649654388427734e+01 -2.896429634094238281e+01 4.589489661157131195e-03 7.450999021530151367e-01 2.249068170785903931e-01 1.473856866359710693e-01
3.800000000000000000e+02 5.388452053070068359e+00 -3.183919906616210938e+01 1.390280015766620636e-02 1.200183760374784470e-02 7.771391421556472778e-03 4.405916109681129456e-02
3.810000000000000000e+02 8.989135742187500000e+00 -3.559750366210937500e+01 -4.108512774109840393e-02 5.173065662384033203e-01 1.428664326667785645e-01 6.620138138532638550e-02
3.820000000000000000e+02 8.872859954833984375e+00 -3.844667816162109375e+01 -4.049465432763099670e-02 4.746071100234985352e-01 1.302337348461151123e-01 3.776796534657478333e-02
3.830000000000000000e+02 8.082472801208496094e+00 -4.116670227050781250e+01 -5.082898586988449097e-02 3.607808351516723633e-01 9.298555552959442139e-02 1.719601638615131378e-02
3.840000000000000000e+02 1.249576282501220703e+01 -4.114752578735351562e+01 -9.348072111606597900e-02 9.616300463676452637e-01 2.604447901248931885e-01 3.275447757914662361e-03
3.850000000000000000e+02 1.224789142608642578e+01 -3.830631637573242188e+01 -9.199205785989761353e-02 9.364491105079650879e-01 2.533371150493621826e-01 4.763458669185638428e-02
3.860000000000000000e+02 1.173979949951171875e+01 -3.537097549438476562e+01 -5.277583748102188110e-02 8.557969927787780762e-01 2.409063428640365601e-01 8.706944435834884644e-02
3.870000000000000000e+02 1.079116916656494141e+01 -2.679712104797363281e+01 4.569999128580093384e-02 6.337411999702453613e-01 2.038323581218719482e-01 1.310508251190185547e-01
3.880000000000000000e+02 1.319017028808593750e+01 -1.942223739624023438e+01 2.464708387851715088e-01 7.475683689117431641e-01 2.982117533683776855e-01 2.003485858440399170e-01
3.890000000000000000e+02 1.473171520233154297e+01 -1.595548629760742188e+01 3.729897439479827881e-01 6.309947967529296875e-01 3.011953532695770264e-01 1.533930003643035889e-01
3.900000000000000000e+02 1.582992553710937500e+01 -1.093499851226806641e+01 1.151180714368820190e-01 3.946765661239624023e-01 1.529383957386016846e-01 -6.044076010584831238e-02
3.910000000000000000e+02 1.518103981018066406e+01 -5.473839282989501953e+00 -4.048286378383636475e-01 8.168762922286987305e-02 -9.694230556488037109e-02 9.182675927877426147e-02
3.920000000000000000e+02 1.837558937072753906e+01 -5.624536514282226562e+00 -5.611091256141662598e-01 -3.508734107017517090e-01 -2.735947668552398682e-01 3.477995097637176514e-01
3.930000000000000000e+02 1.656087493896484375e+01 -3.682159423828125000e+00 -3.109194934368133545e-01 -2.460245788097381592e-01 -1.670832186937332153e-01 1.880575567483901978e-01
3.940000000000000000e+02 1.011742877960205078e+01 -2.630195379257202148e+00 -1.741816252470016479e-01 2.189397066831588745e-02 -4.568629711866378784e-02 -2.275280654430389404e-02
3.950000000000000000e+02 7.081309318542480469e+00 -3.285639286041259766e+00 -1.126708611845970154e-01 2.289687655866146088e-02 -2.693219669163227081e-02 -7.781215012073516846e-02
3.960000000000000000e+02 8.466699600219726562e+00 -5.595152378082275391e+00 -1.223231106996536255e-01 7.094451785087585449e-02 -1.541357673704624176e-02 -1.150643080472946167e-01
3.970000000000000000e+02 8.143127441406250000e+00 -1.116503334045410156e+01 1.921436004340648651e-02 6.464422494173049927e-02 2.515757456421852112e-02 -1.983225494623184204e-01
3.980000000000000000e+02 1.060644912719726562e+01 -1.404062557220458984e+01 1.431384384632110596e-01 2.071335315704345703e-01 1.050815880298614502e-01 -1.270705759525299072e-01
3.990000000000000000e+02 6.384217739105224609e+00 -1.849514579772949219e+01 9.048791229724884033e-02 -5.524723604321479797e-02 1.057220343500375748e-02 -6.746574491262435913e-02
4.000000000000000000e+02 6.939329147338867188e+00 -2.113712310791015625e+01 7.603926956653594971e-02 3.708229213953018188e-02 3.393646702170372009e-02 -1.492426451295614243e-02
4.010000000000000000e+02 6.784175395965576172e+00 -2.436658287048339844e+01 6.330761313438415527e-02 8.440710604190826416e-02 4.431441798806190491e-02 4.333778098225593567e-02
4.020000000000000000e+02 5.284256458282470703e+00 -2.768918991088867188e+01 7.627470884472131729e-03 -7.256797701120376587e-02 -1.948215067386627197e-02 6.363717466592788696e-02
4.030000000000000000e+02 5.500089168548583984e+00 -3.047253036499023438e+01 -3.667629091069102287e-03 2.845926443114876747e-03 -2.465108409523963928e-04 6.540277600288391113e-02
4.040000000000000000e+02 4.585306644439697266e+00 -3.643464660644531250e+01 -5.611978936940431595e-03 -9.409078955650329590e-02 -2.991083078086376190e-02 2.768491767346858978e-02
4.050000000000000000e+02 6.256050586700439453e+00 -3.824760055541992188e+01 -2.672743238508701324e-02 1.672230958938598633e-01 4.214869812130928040e-02 2.868914045393466949e-02
4.060000000000000000e+02 9.947824478149414062e+00 -3.387884616851806641e+00 -1.729853153228759766e-01 7.456547766923904419e-02 -2.952595241367816925e-02 -4.031283408403396606e-02
4.070000000000000000e+02 4.198306560516357422e+00 -1.880751252174377441e+00 -5.447798222303390503e-02 -3.679994726553559303e-03 -1.744739338755607605e-02 -4.278462007641792297e-02
4.080000000000000000e+02 4.908348083496093750e+00 -2.638536214828491211e+00 -6.933029741048812866e-02 -3.976332023739814758e-03 -2.199198864400386810e-02 -6.330088526010513306e-02
4.090000000000000000e+02 6.283396244049072266e+00 -4.854486942291259766e+00 -7.999022305011749268e-02 -7.954567670822143555e-03 -2.638343721628189087e-02 -1.175381764769554138e-01
4.100000000000000000e+02 4.257452964782714844e+00 -9.190676689147949219e+00 -1.354280300438404083e-02 -1.134088486433029175e-01 -3.808549419045448303e-02 -1.515923589468002319e-01
4.110000000000000000e+02 5.854221343994140625e+00 -1.303092384338378906e+01 4.043852537870407104e-02 -8.996345847845077515e-02 -1.485748030245304108e-02 -1.679530590772628784e-01
4.120000000000000000e+02 3.397015333175659180e+00 -1.615559196472167969e+01 3.108876012265682220e-02 -3.136148750782012939e-01 -8.475783467292785645e-02 -9.437663853168487549e-02
4.130000000000000000e+02 7.353584766387939453e-01 -2.057851600646972656e+01 -6.643796805292367935e-03 -6.808698177337646484e-01 -2.062540948390960693e-01 -8.356755599379539490e-03
4.140000000000000000e+02 2.221328735351562500e+00 -2.052894973754882812e+01 1.880780048668384552e-02 -4.880822598934173584e-01 -1.407823413610458374e-01 -2.569743990898132324e-02
4.150000000000000000e+02 7.567478418350219727e-01 -2.199946022033691406e+01 1.206141058355569839e-02 -6.939150691032409668e-01 -2.045561075210571289e-01 -3.566160332411527634e-03
4.160000000000000000e+02 2.374174833297729492e+00 -2.340443992614746094e+01 1.531534362584352493e-02 -4.839068949222564697e-01 -1.405774652957916260e-01 -9.596245363354682922e-04
4.170000000000000000e+02 7.467834353446960449e-01 -2.765231513977050781e+01 3.558712080121040344e-03 -6.700388193130493164e-01 -1.999440342187881470e-01 7.979881949722766876e-03
4.180000000000000000e+02 2.261114597320556641e+00 -2.766083908081054688e+01 -5.814110860228538513e-03 -4.583678841590881348e-01 -1.392545998096466064e-01 2.383286133408546448e-02
4.190000000000000000e+02 7.931420803070068359e-01 -3.459971237182617188e+01 -6.379279308021068573e-03 -5.786192417144775391e-01 -1.754995584487915039e-01 1.284860819578170776e-02
4.200000000000000000e+02 8.632351160049438477e-01 -3.596369552612304688e+01 1.348626520484685898e-02 -5.476614236831665039e-01 -1.602525562047958374e-01 2.189264073967933655e-02
4.210000000000000000e+02 1.357453465461730957e+00 -4.010021972656250000e+01 2.530800923705101013e-02 -4.179302453994750977e-01 -1.177866682410240173e-01 4.481529816985130310e-02
4.220000000000000000e+02 9.451364278793334961e-01 -3.733088302612304688e+01 1.169479568488895893e-03 -5.040134787559509277e-01 -1.508531868457794189e-01 3.124312683939933777e-02
4.230000000000000000e+02 3.339353561401367188e+00 -3.475503921508789062e+00 -3.534752503037452698e-02 -3.406197205185890198e-02 -2.082284912467002869e-02 -6.370589137077331543e-02
4.240000000000000000e+02 1.806034088134765625e+00 -9.262946128845214844e+00 1.010869280435144901e-03 -2.147315591573715210e-01 -6.411620229482650757e-02 -8.219908922910690308e-02
4.250000000000000000e+02 3.032478570938110352e+00 -9.237829208374023438e+00 -9.892216883599758148e-03 -1.610463857650756836e-01 -5.128157883882522583e-02 -1.271284222602844238e-01
4.260000000000000000e+02 2.043966770172119141e+00 -1.626228904724121094e+01 3.830545581877231598e-03 -4.373206794261932373e-01 -1.300470381975173950e-01 -6.437932699918746948e-02
4.270000000000000000e+02 1.957391023635864258e+00 -1.342891216278076172e+01 -2.750911808107048273e-04 -3.598937094211578369e-01 -1.080506443977355957e-01 -8.427278697490692139e-02
4.280000000000000000e+02 2.032091617584228516e+00 -4.164868545532226562e+01 -5.577097460627555847e-02 -3.953514695167541504e-01 -1.353367418050765991e-01 1.565433479845523834e-02
4.290000000000000000e+02 1.586168575286865234e+01 -3.758110046386718750e+01 -1.330147683620452881e-01 1.460723757743835449e+00 3.983126878738403320e-01 5.920241028070449829e-02
4.300000000000000000e+02 1.604723930358886719e+01 -3.332889938354492188e+01 -1.078869774937629700e-01 1.418640613555908203e+00 3.932260870933532715e-01 1.182206422090530396e-01
4.310000000000000000e+02 1.809968757629394531e+01 -2.990324783325195312e+01 -1.161774024367332458e-01 1.779531717300415039e+00 4.990063011646270752e-01 1.685700267553329468e-01
4.320000000000000000e+02 1.567560100555419922e+01 -2.810686874389648438e+01 -2.298026718199253082e-02 1.359771370887756348e+00 4.010373353958129883e-01 2.161491662263870239e-01
4.330000000000000000e+02 1.531809329986572266e+01 -2.598831367492675781e+01 3.693614527583122253e-02 1.263594388961791992e+00 3.901591598987579346e-01 2.136687040328979492e-01
4.340000000000000000e+02 1.643252182006835938e+01 -1.980871391296386719e+01 2.241505384445190430e-01 1.278216838836669922e+00 4.507102072238922119e-01 3.861515522003173828e-01
4.350000000000000000e+02 1.956391716003417969e+01 -1.592225170135498047e+01 4.925044476985931396e-01 1.703616976737976074e+00 6.588364243507385254e-01 7.716319561004638672e-01
4.360000000000000000e+02 1.761208534240722656e+01 -1.381514549255371094e+01 6.283027529716491699e-01 8.449868559837341309e-01 4.419868886470794678e-01 4.272674918174743652e-01
4.370000000000000000e+02 1.830418014526367188e+01 -9.271047592163085938e+00 -2.830843925476074219e-01 8.730529248714447021e-02 -5.873373150825500488e-02 2.934555895626544952e-02
4.380000000000000000e+02 2.037949562072753906e+01 -7.842910766601562500e+00 -1.038535833358764648e+00 -4.990586042404174805e-01 -4.612783193588256836e-01 5.906687974929809570e-01
4.390000000000000000e+02 1.929797935485839844e+01 -6.780329227447509766e+00 -7.054485082626342773e-01 -3.299377858638763428e-01 -3.106158971786499023e-01 5.379856228828430176e-01
4.400000000000000000e+02 1.717344856262207031e+01 -4.082240676879882812e+01 -1.587385684251785278e-01 1.638025283813476562e+00 4.437860250473022461e-01 3.179942816495895386e-02
4.410000000000000000e+02 1.845437049865722656e+01 -3.567082977294921875e+01 -1.530946940183639526e-01 1.795027971267700195e+00 4.925799667835235596e-01 6.706240028142929077e-02
4.420000000000000000e+02 1.971241188049316406e+01 -3.302284240722656250e+01 -1.684487164020538330e-01 1.989143133163452148e+00 5.462083220481872559e-01 1.187084168195724487e-01
4.430000000000000000e+02 2.033936691284179688e+01 -3.044124412536621094e+01 -1.433416604995727539e-01 2.093498945236206055e+00 5.850471854209899902e-01 1.454219818115234375e-01
4.440000000000000000e+02 2.046377754211425781e+01 -2.783561325073242188e+01 -1.431668102741241455e-01 2.153701305389404297e+00 6.031603813171386719e-01 1.932823807001113892e-01
4.450000000000000000e+02 1.948605728149414062e+01 -2.238337326049804688e+01 2.135626971721649170e-03 2.029019594192504883e+00 6.093465685844421387e-01 4.066918492317199707e-01
4.460000000000000000e+02 1.999240112304687500e+01 -1.740840721130371094e+01 2.837369740009307861e-01 1.866105675697326660e+00 6.449527740478515625e-01 7.372205853462219238e-01
4.470000000000000000e+02 2.159109687805175781e+01 -1.659752845764160156e+01 2.113838195800781250e-01 2.628278017044067383e+00 8.518984913825988770e-01 9.110188484191894531e-01
4.480000000000000000e+02 2.344560241699218750e+01 -1.166640853881835938e+01 9.203022718429565430e-01 3.546403408050537109e+00 1.340011715888977051e+00 2.347021102905273438e+00
4.490000000000000000e+02 2.098855400085449219e+01 -1.006873989105224609e+01 6.105078458786010742e-01 -1.213216558098793030e-01 1.467558443546295166e-01 3.510536253452301025e-01
4.500000000000000000e+02 2.223504638671875000e+01 -1.080429553985595703e+01 1.572225689888000488e+00 1.084730744361877441e+00 7.970869541168212891e-01 1.941358923912048340e+00
4.510000000000000000e+02 2.162309265136718750e+01 -8.655191421508789062e+00 -1.210354447364807129e+00 -3.904984891414642334e-01 -4.802558720111846924e-01 7.824708819389343262e-01
4.520000000000000000e+02 2.199863815307617188e+01 -4.073951721191406250e+01 -2.044096291065216064e-01 2.199136257171630859e+00 5.984179973602294922e-01 7.539647631347179413e-03
4.530000000000000000e+02 2.190153121948242188e+01 -3.731383132934570312e+01 -1.921830624341964722e-01 2.203183174133300781e+00 6.033000349998474121e-01 6.342268735170364380e-02
4.540000000000000000e+02 2.259631538391113281e+01 -3.412541198730468750e+01 -1.915745139122009277e-01 2.311707019805908203e+00 6.360397934913635254e-01 7.756838202476501465e-02
4.550000000000000000e+02 2.296258544921875000e+01 -3.112297439575195312e+01 -1.946133524179458618e-01 2.407486915588378906e+00 6.638620495796203613e-01 1.065119653940200806e-01
4.560000000000000000e+02 2.305466651916503906e+01 -2.821722412109375000e+01 -1.530482620000839233e-01 2.504950523376464844e+00 7.055706381797790527e-01 1.138970628380775452e-01
4.570000000000000000e+02 2.332759094238281250e+01 -1.977727699279785156e+01 -2.282471954822540283e-01 3.198698043823242188e+00 8.911352157592773438e-01 5.409157872200012207e-01
4.580000000000000000e+02 2.554392433166503906e+01 -1.639331626892089844e+01 -4.801450669765472412e-01 4.449942588806152344e+00 1.190939188003540039e+00 4.220492541790008545e-01
4.590000000000000000e+02 2.462647247314453125e+01 -1.255032539367675781e+01 1.670520380139350891e-02 5.317982673645019531e+00 1.600406289100646973e+00 2.373311281204223633e+00
4.600000000000000000e+02 2.647312927246093750e+01 -4.091894912719726562e+01 -2.354581356048583984e-01 2.755861520767211914e+00 7.561210393905639648e-01 1.160778012126684189e-02
4.610000000000000000e+02 2.559779930114746094e+01 -3.791888046264648438e+01 -2.333773225545883179e-01 2.624492406845092773e+00 7.173345088958740234e-01 -7.578794378787279129e-03
4.620000000000000000e+02 2.592321777343750000e+01 -3.488492965698242188e+01 -2.140005528926849365e-01 2.672480821609497070e+00 7.375440597534179688e-01 2.493918314576148987e-02
4.630000000000000000e+02 2.587510681152343750e+01 -3.167857933044433594e+01 -1.874262392520904541e-01 2.762245178222656250e+00 7.724456787109375000e-01 4.507668316364288330e-03
4.640000000000000000e+02 2.803728294372558594e+01 -2.906274604797363281e+01 -1.793335676193237305e-01 3.035941600799560547e+00 8.569824099540710449e-01 -6.814780086278915405e-02
4.650000000000000000e+02 2.589550590515136719e+01 -2.609668922424316406e+01 -1.777697056531906128e-01 2.985343456268310547e+00 8.422721028327941895e-01 1.427773013710975647e-02
4.660000000000000000e+02 2.776937103271484375e+01 -1.487752342224121094e+01 -5.297994613647460938e-01 5.075701236724853516e+00 1.363770484924316406e+00 -7.386655211448669434e-01
4.670000000000000000e+02 3.099305915832519531e+01 -1.212992858886718750e+01 6.826747655868530273e-01 3.590400695800781250e+00 1.281922578811645508e+00 -2.055238723754882812e+00
4.680000000000000000e+02 2.984148788452148438e+01 -1.291379165649414062e+01 6.206164835020899773e-04 4.999696254730224609e+00 1.500095009803771973e+00 -1.657679915428161621e+00
4.690000000000000000e+02 2.883882904052734375e+01 -3.922812652587890625e+01 -2.164364010095596313e-01 2.952989339828491211e+00 8.209658861160278320e-01 8.585568139096722007e-05
4.700000000000000000e+02 2.918936538696289062e+01 -3.596466827392578125e+01 -2.240784317255020142e-01 3.063397645950317383e+00 8.517957925796508789e-01 -4.486793652176856995e-02
4.710000000000000000e+02 3.030074501037597656e+01 -3.368230819702148438e+01 -1.750663518905639648e-01 3.152677536010742188e+00 8.932833075523376465e-01 -5.946420133113861084e-02
4.720000000000000000e+02 2.844785308837890625e+01 -3.142403984069824219e+01 -2.434136569499969482e-01 3.041522741317749023e+00 8.394327163696289062e-01 -1.349768787622451782e-02
4.730000000000000000e+02 3.102221488952636719e+01 -2.793680763244628906e+01 -1.679163724184036255e-01 3.330487966537475586e+00 9.487714767456054688e-01 -1.447425931692123413e-01
4.740000000000000000e+02 2.903010559082031250e+01 -2.439373779296875000e+01 -9.201062470674514771e-02 3.304965734481811523e+00 9.638865590095520020e-01 -1.971375048160552979e-01
4.750000000000000000e+02 2.850769424438476562e+01 -1.840367698669433594e+01 -4.087775647640228271e-01 4.034266471862792969e+00 1.087646722793579102e+00 -6.072196960449218750e-01
4.760000000000000000e+02 3.326506805419921875e+01 -1.760240936279296875e+01 2.479233890771865845e-01 2.803712844848632812e+00 9.154909253120422363e-01 -1.173056125640869141e+00
4.770000000000000000e+02 3.166492462158203125e+01 -1.342997932434082031e+01 2.556778490543365479e-01 3.593561172485351562e+00 1.154771685600280762e+00 -1.524783968925476074e+00
4.780000000000000000e+02 3.275380325317382812e+01 -4.022661590576171875e+01 -2.006540447473526001e-01 3.320307970046997070e+00 9.358962178230285645e-01 -3.728226944804191589e-02
4.790000000000000000e+02 3.228758621215820312e+01 -3.631688308715820312e+01 -2.100898772478103638e-01 3.333424091339111328e+00 9.370002746582031250e-01 -3.333840146660804749e-02
4.800000000000000000e+02 3.218934631347656250e+01 -3.191624641418457031e+01 -2.222053557634353638e-01 3.359161853790283203e+00 9.410869479179382324e-01 -8.370491117238998413e-02
4.810000000000000000e+02 3.359129333496093750e+01 -2.965798950195312500e+01 -9.100606292486190796e-02 3.481330156326293945e+00 1.017097234725952148e+00 -1.352510899305343628e-01
4.820000000000000000e+02 3.472779464721679688e+01 -2.725580787658691406e+01 -7.671184092760086060e-02 3.562260389328002930e+00 1.045664548873901367e+00 -1.680301725864410400e-01
4.830000000000000000e+02 3.272567367553710938e+01 -2.310021972656250000e+01 1.808906793594360352e-01 3.300268173217773438e+00 1.044347643852233887e+00 -3.738349378108978271e-01
4.840000000000000000e+02 3.250783920288085938e+01 -2.003844833374023438e+01 2.929231524467468262e-01 3.066844701766967773e+00 1.007930397987365723e+00 -7.984350323677062988e-01
4.850000000000000000e+02 3.622255325317382812e+01 -1.700729560852050781e+01 2.561955153942108154e-01 1.658937811851501465e+00 5.745400190353393555e-01 -1.063088417053222656e+00
4.860000000000000000e+02 3.754597091674804688e+01 -4.041539382934570312e+01 -1.304598897695541382e-01 3.664367437362670898e+00 1.060172319412231445e+00 -2.893945015966892242e-02
4.870000000000000000e+02 3.480459976196289062e+01 -3.445106506347656250e+01 -1.442071795463562012e-01 3.511889457702636719e+00 1.010304689407348633e+00 -1.042992398142814636e-01
4.880000000000000000e+02 3.640383529663085938e+01 -3.161116409301757812e+01 -1.631118357181549072e-01 3.695652723312377930e+00 1.059762239456176758e+00 -1.564480662345886230e-01
4.890000000000000000e+02 3.756353759765625000e+01 -2.902420806884765625e+01 -5.032360926270484924e-02 3.862948179244995117e+00 1.143787384033203125e+00 -1.651344001293182373e-01
4.900000000000000000e+02 3.847373199462890625e+01 -2.673436355590820312e+01 -1.732992231845855713e-01 3.926420688629150391e+00 1.125936388969421387e+00 -1.928423494100570679e-01
4.910000000000000000e+02 3.728593826293945312e+01 -2.362403678894042969e+01 4.235098138451576233e-03 3.783248186111450195e+00 1.136245012283325195e+00 -1.049392390996217728e-02
4.920000000000000000e+02 3.666399765014648438e+01 -2.104816246032714844e+01 4.885863661766052246e-01 3.289895772933959961e+00 1.133544564247131348e+00 -5.344717577099800110e-02
4.930000000000000000e+02 3.758342361450195312e+01 -1.760578918457031250e+01 1.812218546867370605e+00 1.632630944252014160e+00 1.033454775810241699e+00 7.258208841085433960e-02
4.940000000000000000e+02 3.830749893188476562e+01 -3.656415939331054688e+01 -1.482644081115722656e-01 3.730542898178100586e+00 1.074683547019958496e+00 -1.093479767441749573e-01
4.950000000000000000e+02 3.961176300048828125e+01 -3.326712799072265625e+01 -5.846783891320228577e-02 3.856063604354858398e+00 1.139278650283813477e+00 -1.862730383872985840e-01
4.960000000000000000e+02 4.071080780029296875e+01 -3.034810256958007812e+01 -1.376379728317260742e-01 3.952719211578369141e+00 1.144524335861206055e+00 -2.796213328838348389e-01
4.970000000000000000e+02 4.185455703735351562e+01 -1.918362808227539062e+01 -1.298387199640274048e-01 7.041038036346435547e+00 2.073359727859497070e+00 -1.620995402336120605e-01
4.980000000000000000e+02 4.065214920043945312e+01 -1.713179016113281250e+01 1.789464831352233887e+00 9.258624076843261719e+00 3.314426660537719727e+00 2.041671514511108398e+00
4.990000000000000000e+02 4.233072662353515625e+01 -4.085597991943359375e+01 -4.612602293491363525e-02 3.966002941131591797e+00 1.175963163375854492e+00 -3.207985311746597290e-02
5.000000000000000000e+02 4.242428970336914062e+01 -3.759695816040039062e+01 -2.255567535758018494e-02 3.971649885177612305e+00 1.184728264808654785e+00 -1.083867624402046204e-01
5.010000000000000000e+02 4.311610412597656250e+01 -3.448488998413085938e+01 -5.251867696642875671e-02 3.980106115341186523e+00 1.178276181221008301e+00 -1.815198808908462524e-01
5.020000000000000000e+02 4.403335189819335938e+01 -3.159998512268066406e+01 7.191502302885055542e-02 4.037430763244628906e+00 1.232803821563720703e+00 -2.959352731704711914e-01
5.030000000000000000e+02 4.609027099609375000e+01 -2.727121162414550781e+01 2.220990806818008423e-01 4.040449142456054688e+00 1.278764486312866211e+00 -5.951746702194213867e-01
5.040000000000000000e+02 4.546448135375976562e+01 -2.313117027282714844e+01 1.135404556989669800e-01 4.297050952911376953e+00 1.323177456855773926e+00 -1.101612329483032227e+00
5.050000000000000000e+02 4.678784561157226562e+01 -1.673646354675292969e+01 1.144746094942092896e-01 3.088086366653442383e+00 9.607682824134826660e-01 -1.253236055374145508e+00
5.060000000000000000e+02 4.996382522583007812e+01 -1.558071231842041016e+01 -5.082783699035644531e-01 -2.154796570539474487e-01 -2.171274125576019287e-01 4.957702457904815674e-01
5.070000000000000000e+02 4.716898727416992188e+01 -1.225239944458007812e+01 -1.981209069490432739e-01 9.782894253730773926e-01 2.340505570173263550e-01 -2.005646079778671265e-01
5.080000000000000000e+02 4.604519653320312500e+01 -1.272673511505126953e+01 1.211159676313400269e-01 3.671252489089965820e+00 1.137710452079772949e+00 -3.519233763217926025e-01
5.090000000000000000e+02 4.804208755493164062e+01 -1.345412635803222656e+01 -2.111038714647293091e-01 3.229673504829406738e-01 3.355904296040534973e-02 1.825533658266067505e-01
5.100000000000000000e+02 4.523637771606445312e+01 -8.372877120971679688e+00 4.243779182434082031e-01 8.832908630371093750e+00 2.777186155319213867e+00 -1.485736012458801270e+00
5.110000000000000000e+02 4.280126190185546875e+01 -7.206677436828613281e+00 9.054621458053588867e-01 8.551744461059570312e+00 2.837162017822265625e+00 1.081833958625793457e+00
5.120000000000000000e+02 4.408772659301757812e+01 -4.799428939819335938e+00 3.201567649841308594e+00 1.417641162872314453e+01 5.213393688201904297e+00 1.956529974937438965e+00
5.130000000000000000e+02 4.485673522949218750e+01 -3.813491582870483398e+00 3.647053956985473633e+00 1.517034721374511719e+01 5.645220279693603516e+00 4.660922527313232422e+00
5.140000000000000000e+02 4.723253250122070312e+01 -1.804826021194458008e+00 -1.350452303886413574e+00 1.699938178062438965e+00 1.048457548022270203e-01 5.440838813781738281e+00
5.150000000000000000e+02 4.938341903686523438e+01 -3.706080913543701172e+00 -7.846846580505371094e+00 -1.353082537651062012e+00 -2.759978771209716797e+00 2.926502704620361328e+00
5.160000000000000000e+02 5.060232162475585938e+01 -4.533379077911376953e+00 -5.017251968383789062e+00 -7.646918296813964844e-01 -1.734583258628845215e+00 2.118906736373901367e+00
5.170000000000000000e+02 5.160676574707031250e+01 -5.606437683105468750e+00 -1.780690073966979980e+00 4.723920524120330811e-01 -3.924894034862518311e-01 5.396601557731628418e-01
5.180000000000000000e+02 5.252732849121093750e+01 -6.684811115264892578e+00 -1.962779313325881958e-01 2.082200765609741211e+00 5.657768249511718750e-01 -6.578474044799804688e-01
5.190000000000000000e+02 5.334046173095703125e+01 -7.831034660339355469e+00 5.216062664985656738e-01 3.364522933959960938e+00 1.165838718414306641e+00 -1.449107408523559570e+00
5.200000000000000000e+02 5.490897369384765625e+01 -1.025425529479980469e+01 9.175694584846496582e-01 7.027874946594238281e+00 2.383633375167846680e+00 -2.034611940383911133e+00
5.210000000000000000e+02 5.626164627075195312e+01 -1.726400566101074219e+01 1.841350317001342773e+00 1.533550930023193359e+01 5.153057575225830078e+00 1.717562675476074219e+00
5.220000000000000000e+02 5.712025833129882812e+01 -1.425177097320556641e+01 4.982070922851562500e-01 1.117693042755126953e+01 3.502541303634643555e+00 -3.265601694583892822e-01
5.230000000000000000e+02 6.090541458129882812e+01 -1.937102890014648438e+01 9.071528315544128418e-01 6.634899616241455078e+00 2.262615680694580078e+00 -1.279160499572753906e+00
5.240000000000000000e+02 6.531378173828125000e+01 -2.354558372497558594e+01 6.132699251174926758e-01 4.821284294128417969e+00 1.630366325378417969e+00 -5.032341480255126953e-01
5.250000000000000000e+02 6.727712249755859375e+01 -2.548063468933105469e+01 5.181044340133666992e-01 5.069041728973388672e+00 1.676143884658813477e+00 -5.704927071928977966e-02
5.260000000000000000e+02 7.038063812255859375e+01 -2.969310760498046875e+01 2.416215538978576660e-01 5.775256633758544922e+00 1.805063486099243164e+00 1.294457614421844482e-01
5.270000000000000000e+02 7.530534362792968750e+01 -3.381809616088867188e+01 3.660134971141815186e-02 6.400609016418457031e+00 1.931163191795349121e+00 1.028708070516586304e-01
5.280000000000000000e+02 7.934664916992187500e+01 -3.332589340209960938e+01 -1.656693033874034882e-02 6.756163597106933594e+00 2.021878957748413086e+00 2.002293989062309265e-02
5.290000000000000000e+02 7.794535064697265625e+01 -3.442070770263671875e+01 -1.185753941535949707e-02 6.628971099853515625e+00 1.985134005546569824e+00 4.280231893062591553e-02
5.300000000000000000e+02 7.936638641357421875e+01 -3.195178794860839844e+01 2.963791973888874054e-02 6.808046340942382812e+00 2.051305294036865234e+00 2.674343436956405640e-02
5.310000000000000000e+02 7.811173248291015625e+01 -3.176908683776855469e+01 -1.587672531604766846e-02 6.717530250549316406e+00 2.010496139526367188e+00 7.599360495805740356e-02
5.320000000000000000e+02 7.421401214599609375e+01 -2.828071403503417969e+01 1.069552153348922729e-01 6.365139007568359375e+00 1.941628217697143555e+00 3.072251975536346436e-01
5.330000000000000000e+02 7.137792205810546875e+01 -2.465040397644042969e+01 2.321053445339202881e-01 5.808675765991210938e+00 1.812234282493591309e+00 5.746724605560302734e-01
5.340000000000000000e+02 6.568660736083984375e+01 -2.129835700988769531e+01 8.233383297920227051e-01 4.187544345855712891e+00 1.503264784812927246e+00 -6.764352321624755859e-01
5.350000000000000000e+02 6.409517669677734375e+01 -1.616858863830566406e+01 -2.970776557922363281e-01 4.415470600128173828e+00 1.235517978668212891e+00 -9.777729511260986328e-01
5.360000000000000000e+02 6.079368209838867188e+01 -1.532270336151123047e+01 3.526541590690612793e-01 7.448545932769775391e+00 2.340360164642333984e+00 -3.985502421855926514e-01
5.370000000000000000e+02 5.548443603515625000e+01 -1.167178535461425781e+01 9.129878878593444824e-01 9.547459602355957031e+00 3.138134241104125977e+00 -1.827247262001037598e+00
5.380000000000000000e+02 5.576613235473632812e+01 -1.315743637084960938e+01 2.571944892406463623e-01 1.174387550354003906e+01 3.600320816040039062e+00 -1.879005074501037598e+00
5.390000000000000000e+02 4.669849014282226562e+01 -4.102590942382812500e+01 5.575124174356460571e-02 4.221828937530517578e+00 1.283274054527282715e+00 -2.903079241514205933e-02
5.400000000000000000e+02 4.612124633789062500e+01 -3.821907806396484375e+01 2.238907478749752045e-02 4.146078586578369141e+00 1.250540375709533691e+00 -6.840004771947860718e-02
5.410000000000000000e+02 4.666146469116210938e+01 -3.548042678833007812e+01 9.024149179458618164e-02 4.152769565582275391e+00 1.272903323173522949e+00 -1.410157829523086548e-01
5.420000000000000000e+02 4.734244918823242188e+01 -3.277220916748046875e+01 1.132124364376068115e-01 4.092783451080322266e+00 1.261798858642578125e+00 -1.969017833471298218e-01
5.430000000000000000e+02 4.857191467285156250e+01 -2.783492279052734375e+01 3.229929208755493164e-01 3.752324342727661133e+00 1.222595214843750000e+00 -3.575683534145355225e-01
5.440000000000000000e+02 4.784555053710937500e+01 -2.424433708190917969e+01 4.293146431446075439e-01 3.506421804428100586e+00 1.180720925331115723e+00 -8.761059641838073730e-01
5.450000000000000000e+02 4.715639495849609375e+01 -2.033814811706542969e+01 2.935214042663574219e-01 3.309670209884643555e+00 1.080957531929016113e+00 -1.456030964851379395e+00
5.460000000000000000e+02 4.882100296020507812e+01 -1.670479774475097656e+01 -3.482195734977722168e-01 1.171327233314514160e+00 2.469322979450225830e-01 -5.543946623802185059e-01
5.470000000000000000e+02 4.788095092773437500e+01 -1.560047054290771484e+01 1.321864426136016846e-01 1.492847681045532227e+00 4.875102341175079346e-01 -6.268832087516784668e-01
5.480000000000000000e+02 4.926457214355468750e+01 -3.951641845703125000e+01 7.699010521173477173e-02 4.369624614715576172e+00 1.333984375000000000e+00 -4.293477907776832581e-02
5.490000000000000000e+02 5.010172653198242188e+01 -3.649309539794921875e+01 1.240132451057434082e-01 4.370168685913085938e+00 1.348254680633544922e+00 -4.817890748381614685e-02
5.500000000000000000e+02 5.070134735107421875e+01 -3.361226272583007812e+01 1.880295723676681519e-01 4.348231792449951172e+00 1.360878467559814453e+00 -5.772604420781135559e-02
5.510000000000000000e+02 5.120288848876953125e+01 -3.086905860900878906e+01 2.473969906568527222e-01 4.187032699584960938e+00 1.330328822135925293e+00 -4.537076130509376526e-02
5.520000000000000000e+02 5.144675445556640625e+01 -2.643166923522949219e+01 5.051565766334533691e-01 3.680901765823364258e+00 1.255817532539367676e+00 4.685735702514648438e-02
5.530000000000000000e+02 5.205454254150390625e+01 -2.474330711364746094e+01 6.422629356384277344e-01 3.425498008728027344e+00 1.220328211784362793e+00 3.273383677005767822e-01
5.540000000000000000e+02 4.974047851562500000e+01 -1.782060623168945312e+01 -3.830931186676025391e-01 1.018176078796386719e+00 1.905248761177062988e-01 -3.252516686916351318e-01
5.550000000000000000e+02 5.292351531982421875e+01 -4.076027679443359375e+01 1.116268038749694824e-01 4.597052574157714844e+00 1.412603735923767090e+00 1.197249442338943481e-02
5.560000000000000000e+02 5.362944412231445312e+01 -3.743073654174804688e+01 1.257517337799072266e-01 4.651597976684570312e+00 1.433205008506774902e+00 -1.027887780219316483e-02
5.570000000000000000e+02 5.417765808105468750e+01 -3.436902618408203125e+01 1.440120339393615723e-01 4.657277107238769531e+00 1.440386772155761719e+00 3.272429108619689941e-02
5.580000000000000000e+02 5.468267822265625000e+01 -3.151261711120605469e+01 1.674800515174865723e-01 4.657537460327148438e+00 1.447505235671997070e+00 1.464468389749526978e-01
5.590000000000000000e+02 5.319443893432617188e+01 -2.765524482727050781e+01 3.905490934848785400e-01 4.014326095581054688e+00 1.321462512016296387e+00 3.324105739593505859e-01
5.600000000000000000e+02 5.356841659545898438e+01 -2.461929702758789062e+01 5.485932826995849609e-01 3.520534038543701172e+00 1.220738172531127930e+00 6.567326188087463379e-01
5.610000000000000000e+02 5.759422683715820312e+01 -1.979823112487792969e+01 -4.826356768608093262e-01 8.360589981079101562e+00 2.363386392593383789e+00 -4.476802945137023926e-01
5.620000000000000000e+02 5.404040145874023438e+01 -1.987968063354492188e+01 -3.441451862454414368e-02 9.529983997344970703e-01 2.755751609802246094e-01 2.209473609924316406e+00
5.630000000000000000e+02 5.295009231567382812e+01 -1.862410354614257812e+01 -1.793941855430603027e+00 -8.389615416526794434e-01 -7.898709774017333984e-01 9.333639144897460938e-01
5.640000000000000000e+02 5.738770294189453125e+01 -4.104449081420898438e+01 1.104781925678253174e-01 4.962395668029785156e+00 1.521862149238586426e+00 -1.202064193785190582e-02
5.650000000000000000e+02 5.740675354003906250e+01 -3.807590866088867188e+01 1.080873012542724609e-01 4.962213516235351562e+00 1.521090269088745117e+00 2.203928492963314056e-02
5.660000000000000000e+02 5.779429244995117188e+01 -3.511010360717773438e+01 9.791967272758483887e-02 5.001064300537109375e+00 1.529695153236389160e+00 3.631014376878738403e-02
5.670000000000000000e+02 5.838319396972656250e+01 -3.221990966796875000e+01 4.998887330293655396e-02 5.175762653350830078e+00 1.567725419998168945e+00 3.665198013186454773e-02
5.680000000000000000e+02 5.828357315063476562e+01 -2.517093467712402344e+01 -4.007367789745330811e-01 5.878026485443115234e+00 1.643186926841735840e+00 2.340358495712280273e-02
5.690000000000000000e+02 5.842485427856445312e+01 -2.305495071411132812e+01 -5.906412005424499512e-01 6.686666011810302734e+00 1.828807473182678223e+00 -3.284881636500358582e-02
5.700000000000000000e+02 5.816994476318359375e+01 -1.792257690429687500e+01 1.431418538093566895e+00 8.875916481018066406e+00 3.092200517654418945e+00 -4.397991895675659180e-01
5.710000000000000000e+02 5.768380737304687500e+01 -1.677307891845703125e+01 1.841140508651733398e+00 9.752311706542968750e+00 3.478035688400268555e+00 4.134580194950103760e-01
5.720000000000000000e+02 6.165328979492187500e+01 -4.114156723022460938e+01 8.998350799083709717e-02 5.321012973785400391e+00 1.623299002647399902e+00 1.852967031300067902e-02
5.730000000000000000e+02 6.132501602172851562e+01 -3.594888687133789062e+01 9.745017439126968384e-02 5.289514541625976562e+00 1.616089463233947754e+00 -5.749385803937911987e-03
5.740000000000000000e+02 6.330269622802734375e+01 -3.079972648620605469e+01 1.793316453695297241e-01 5.430884838104248047e+00 1.683064937591552734e+00 -8.609888702630996704e-02
5.750000000000000000e+02 6.098165893554687500e+01 -2.680420112609863281e+01 5.701593309640884399e-02 5.447692394256591797e+00 1.651412487030029297e+00 -3.213967382907867432e-01
5.760000000000000000e+02 6.193270492553710938e+01 -2.237964248657226562e+01 1.954957544803619385e-01 5.733891487121582031e+00 1.778816223144531250e+00 -1.013563036918640137e+00
5.770000000000000000e+02 6.402056121826171875e+01 -3.975929260253906250e+01 1.121606081724166870e-01 5.497467041015625000e+00 1.682888269424438477e+00 -4.062067251652479172e-03
5.780000000000000000e+02 6.458741760253906250e+01 -3.700195312500000000e+01 1.032650470733642578e-01 5.524706840515136719e+00 1.688391566276550293e+00 -1.311857625842094421e-02
5.790000000000000000e+02 6.506976318359375000e+01 -3.440167617797851562e+01 1.492237448692321777e-01 5.567572116851806641e+00 1.715038657188415527e+00 -1.071899291127920151e-02
5.800000000000000000e+02 6.522850036621093750e+01 -2.593765640258789062e+01 3.945212960243225098e-01 5.180901050567626953e+00 1.672626733779907227e+00 -3.283420205116271973e-01
5.810000000000000000e+02 6.301353454589843750e+01 -2.353224945068359375e+01 2.700861096382141113e-01 5.491353511810302734e+00 1.728431820869445801e+00 -7.461057901382446289e-01
5.820000000000000000e+02 6.764509582519531250e+01 -4.090129470825195312e+01 8.640444278717041016e-02 5.749421596527099609e+00 1.750747799873352051e+00 8.466544095426797867e-04
5.830000000000000000e+02 6.783571624755859375e+01 -3.784677886962890625e+01 1.121970266103744507e-01 5.777599811553955078e+00 1.766939043998718262e+00 3.030588850378990173e-02
5.840000000000000000e+02 6.795541381835937500e+01 -3.515377807617187500e+01 1.393424123525619507e-01 5.724510669708251953e+00 1.759155988693237305e+00 1.796151697635650635e-02
5.850000000000000000e+02 6.680084228515625000e+01 -3.028490257263183594e+01 2.898468077182769775e-01 5.520172595977783203e+00 1.743005752563476562e+00 4.458651877939701080e-03
5.860000000000000000e+02 6.778422546386718750e+01 -2.883092689514160156e+01 2.899441719055175781e-01 5.494202136993408203e+00 1.735243797302246094e+00 2.992490539327263832e-03
5.870000000000000000e+02 7.192639923095703125e+01 -4.101346588134765625e+01 5.686595663428306580e-02 6.118166923522949219e+00 1.852509856224060059e+00 1.509634498506784439e-02
5.880000000000000000e+02 7.112242889404296875e+01 -3.805669403076171875e+01 7.875371724367141724e-02 6.016096591949462891e+00 1.828454971313476562e+00 3.275076299905776978e-02
5.890000000000000000e+02 7.034490966796875000e+01 -3.122044754028320312e+01 2.112573385238647461e-01 5.877607822418212891e+00 1.826659560203552246e+00 1.699037104845046997e-01
5.900000000000000000e+02 7.500795745849609375e+01 -4.029071807861328125e+01 4.046408087015151978e-02 6.352418899536132812e+00 1.917864799499511719e+00 2.074284479022026062e-03
5.910000000000000000e+02 7.371028900146484375e+01 -3.796731948852539062e+01 5.247401818633079529e-02 6.238913059234619141e+00 1.887416243553161621e+00 4.755471274256706238e-02
5.920000000000000000e+02 7.498133087158203125e+01 -3.506034088134765625e+01 7.053568214178085327e-02 6.339709758758544922e+00 1.923073649406433105e+00 8.259999006986618042e-02
5.930000000000000000e+02 7.796862030029296875e+01 -4.163766098022460938e+01 2.726328000426292419e-02 6.548456668853759766e+00 1.972715973854064941e+00 7.536730263382196426e-03
5.940000000000000000e+02 7.921987915039062500e+01 -3.742231750488281250e+01 6.311913602985441685e-04 6.634571075439453125e+00 1.990560650825500488e+00 1.863874495029449463e-02
5.950000000000000000e+02 7.741878509521484375e+01 -3.803692626953125000e+01 3.542894730344414711e-03 6.528604507446289062e+00 1.959644198417663574e+00 4.300812631845474243e-02
5.960000000000000000e+02 7.932652282714843750e+01 -2.919801902770996094e+01 3.829034045338630676e-02 6.966616153717041016e+00 2.101471900939941406e+00 4.160687327384948730e-02
5.970000000000000000e+02 7.790717315673828125e+01 -2.769639205932617188e+01 6.123087182641029358e-02 6.891813278198242188e+00 2.085913181304931641e+00 1.553054749965667725e-01
5.980000000000000000e+02 7.508331298828125000e+01 -2.713531684875488281e+01 1.106274053454399109e-01 6.486310482025146484e+00 1.979081273078918457e+00 3.051798939704895020e-01
5.990000000000000000e+02 7.103672027587890625e+01 -2.123302268981933594e+01 3.305972516536712646e-01 5.323300838470458984e+00 1.696169495582580566e+00 1.172894239425659180e+00
6.000000000000000000e+02 6.665568542480468750e+01 -1.724621582031250000e+01 1.971572488546371460e-01 2.069318294525146484e+00 6.799426674842834473e-01 -7.593073248863220215e-01
6.010000000000000000e+02 6.734878540039062500e+01 -1.422877597808837891e+01 -1.327926158905029297e+00 -5.904049873352050781e-01 -5.754993557929992676e-01 8.275941610336303711e-01
6.020000000000000000e+02 6.641173553466796875e+01 -1.329663753509521484e+01 -7.700948119163513184e-01 2.903861701488494873e-01 -1.439125835895538330e-01 4.522551894187927246e-01
6.030000000000000000e+02 6.549242401123046875e+01 -1.245691585540771484e+01 -3.251366317272186279e-01 1.476984381675720215e+00 3.455543220043182373e-01 -3.980079591274261475e-01
6.040000000000000000e+02 6.317273712158203125e+01 -1.218957901000976562e+01 -5.379639863967895508e-01 6.186271667480468750e+00 1.694492340087890625e+00 -2.752430438995361328e-01
6.050000000000000000e+02 6.300423431396484375e+01 -1.104529380798339844e+01 -4.119397401809692383e-01 7.328649044036865234e+00 2.075012922286987305e+00 8.428975194692611694e-02
6.060000000000000000e+02 6.207899856567382812e+01 -7.183046817779541016e+00 6.448271870613098145e-01 1.084461879730224609e+01 3.446833848953247070e+00 8.282212615013122559e-01
6.070000000000000000e+02 5.649522781372070312e+01 -4.059799671173095703e+00 -9.235970377922058105e-01 4.920972824096679688e+00 1.199212670326232910e+00 -2.432361125946044922e+00
6.080000000000000000e+02 5.480830383300781250e+01 -3.914741277694702148e-01 -3.606215953826904297e+00 1.004709911346435547e+01 1.932264924049377441e+00 -5.822248935699462891e+00
6.090000000000000000e+02 5.288342666625976562e+01 7.667601704597473145e-01 1.783016920089721680e-01 9.453697204589843750e+00 2.889599800109863281e+00 2.170761525630950928e-01
6.100000000000000000e+02 5.350610733032226562e+01 2.080267906188964844e+00 3.969010353088378906e+00 1.601554298400878906e+01 5.995366096496582031e+00 -2.325894355773925781e+00
6.110000000000000000e+02 5.391115570068359375e+01 3.439938068389892578e+00 2.963943958282470703e+00 2.187023353576660156e+01 7.450253486633300781e+00 -1.679780006408691406e+00
6.120000000000000000e+02 5.462942504882812500e+01 6.072747230529785156e+00 1.094756960868835449e+00 1.214778518676757812e+01 3.972762584686279297e+00 2.644457817077636719e+00
6.130000000000000000e+02 5.475652313232421875e+01 1.138972282409667969e+01 9.256858229637145996e-01 7.013325214385986328e+00 2.381703376770019531e+00 1.140196681022644043e+00
6.140000000000000000e+02 5.071885299682617188e+01 1.131300735473632812e+01 1.860633373260498047e+00 1.980145263671875000e+01 6.498625755310058594e+00 2.540039062500000000e+00
6.150000000000000000e+02 5.099404525756835938e+01 1.016868972778320312e+01 1.590665221214294434e+00 1.599899482727050781e+01 5.276897907257080078e+00 1.784049153327941895e+00
6.160000000000000000e+02 4.915755462646484375e+01 8.453313827514648438e+00 1.287531137466430664e+00 5.621821880340576172e+00 2.072805881500244141e+00 2.755139112472534180e+00
6.170000000000000000e+02 5.234837341308593750e+01 6.708397388458251953e+00 -5.090484023094177246e-01 1.223406887054443359e+01 3.517506361007690430e+00 -1.272124052047729492e+00
6.180000000000000000e+02 5.026404190063476562e+01 4.455348968505859375e+00 1.794319033622741699e+00 7.055907726287841797e+00 2.655068159103393555e+00 4.693826138973236084e-01
6.190000000000000000e+02 5.069360351562500000e+01 8.500916481018066406e+00 -9.041948318481445312e-01 1.244999790191650391e+01 3.463741064071655273e+00 3.409109413623809814e-01
6.200000000000000000e+02 4.996095657348632812e+01 9.431810379028320312e+00 1.940000772476196289e+00 1.241528511047363281e+01 4.306585788726806641e+00 3.848012685775756836e+00
6.210000000000000000e+02 7.933798980712890625e+01 -2.500256538391113281e+01 -4.993862658739089966e-02 7.299222469329833984e+00 2.174785137176513672e+00 5.199074372649192810e-02
6.220000000000000000e+02 7.800431823730468750e+01 -2.483453178405761719e+01 3.549872338771820068e-02 7.110187530517578125e+00 2.143705844879150391e+00 1.528743803501129150e-01
6.230000000000000000e+02 7.578796386718750000e+01 -2.026855278015136719e+01 -5.348101854324340820e-01 7.582561492919921875e+00 2.114325523376464844e+00 3.535116910934448242e-01
6.240000000000000000e+02 7.223869323730468750e+01 -1.734179306030273438e+01 -1.498756766319274902e+00 8.084342956542968750e+00 1.975675821304321289e+00 1.945065140724182129e+00
6.250000000000000000e+02 6.945947265625000000e+01 -1.607724189758300781e+01 -2.796680688858032227e+00 -1.095511436462402344e+00 -1.167657613754272461e+00 1.748274326324462891e+00
6.260000000000000000e+02 7.936791229248046875e+01 -2.224004745483398438e+01 -8.554243296384811401e-02 7.446843624114990234e+00 2.208390474319458008e+00 4.116269701626151800e-05
6.270000000000000000e+02 7.816048431396484375e+01 -2.074612045288085938e+01 -2.014587223529815674e-01 7.384682655334472656e+00 2.154967069625854492e+00 -8.637337386608123779e-02
6.280000000000000000e+02 7.338753509521484375e+01 -1.705736160278320312e+01 -2.479898184537887573e-01 9.583067893981933594e+00 2.800523281097412109e+00 5.697806477546691895e-01
6.290000000000000000e+02 7.386021423339843750e+01 -1.430034446716308594e+01 1.279935240745544434e+00 1.016308689117431641e+01 3.432906627655029297e+00 2.215953469276428223e-01
6.300000000000000000e+02 7.221213531494140625e+01 -1.315747928619384766e+01 9.742441028356552124e-02 1.538196945190429688e+01 4.643818378448486328e+00 1.219599962234497070e+00
6.310000000000000000e+02 7.203118133544921875e+01 -1.440839767456054688e+01 2.494961738586425781e+00 1.536235141754150391e+01 5.357193946838378906e+00 3.161899089813232422e+00
6.320000000000000000e+02 7.199890136718750000e+01 -1.583301258087158203e+01 1.181207299232482910e+00 1.133760452270507812e+01 3.755643606185913086e+00 2.595378637313842773e+00
6.330000000000000000e+02 7.076902770996093750e+01 -1.615067863464355469e+01 6.516203880310058594e-01 4.590979099273681641e+00 1.572779893875122070e+00 3.888284683227539062e+00
6.340000000000000000e+02 7.523381805419921875e+01 -1.527486705780029297e+01 6.916638612747192383e-01 8.971050262451171875e+00 2.898814439773559570e+00 -8.725752681493759155e-02
6.350000000000000000e+02 7.941147613525390625e+01 -1.946809387207031250e+01 -1.046341806650161743e-01 7.234434127807617188e+00 2.138939857482910156e+00 -1.051361635327339172e-01
6.360000000000000000e+02 7.834568786621093750e+01 -1.538739490509033203e+01 5.622874200344085693e-02 7.055135250091552734e+00 2.133409261703491211e+00 -2.345659583806991577e-01
6.370000000000000000e+02 7.836212921142578125e+01 -1.669172286987304688e+01 9.816012531518936157e-02 7.086651802062988281e+00 2.155443429946899414e+00 -3.666419386863708496e-01
6.380000000000000000e+02 7.816431427001953125e+01 -1.400139141082763672e+01 3.119772076606750488e-01 7.140974044799804688e+00 2.235885381698608398e+00 -2.532873116433620453e-02
6.390000000000000000e+02 7.693153381347656250e+01 -1.225534725189208984e+01 6.156326532363891602e-01 8.151219367980957031e+00 2.630055665969848633e+00 6.243327260017395020e-01
6.400000000000000000e+02 7.844028472900390625e+01 -6.933144569396972656e+00 5.961711332201957703e-02 9.510411262512207031e+00 2.871008634567260742e+00 1.215831518173217773e+00
6.410000000000000000e+02 7.668902587890625000e+01 -4.596084594726562500e+00 -1.774190217256546021e-01 8.908978462219238281e+00 2.619467735290527344e+00 1.600352048873901367e+00
6.420000000000000000e+02 7.642259979248046875e+01 -1.160102248191833496e+00 -8.742291927337646484e-01 8.172105789184570312e+00 2.189362764358520508e+00 8.519914746284484863e-01
6.430000000000000000e+02 7.768470001220703125e+01 3.775686025619506836e+00 -1.402200758457183838e-01 1.168845081329345703e+01 3.464469194412231445e+00 -2.734757661819458008e+00
6.440000000000000000e+02 7.935784149169921875e+01 8.398272514343261719e+00 2.934648394584655762e-01 6.592088222503662109e+00 2.065665960311889648e+00 3.394763171672821045e-01
6.450000000000000000e+02 7.694421386718750000e+01 1.156524467468261719e+01 -8.351716995239257812e-01 8.612703323364257812e+00 2.333259582519531250e+00 -5.001050233840942383e-01
6.460000000000000000e+02 7.918647003173828125e+01 1.527454853057861328e+01 4.290676862001419067e-02 7.172898292541503906e+00 2.164741516113281250e+00 -1.689124554395675659e-01
6.470000000000000000e+02 7.772768402099609375e+01 1.706450080871582031e+01 1.470699608325958252e-01 6.714830398559570312e+00 2.058570146560668945e+00 -2.873425781726837158e-01
6.480000000000000000e+02 7.672962951660156250e+01 2.087223052978515625e+01 9.099539369344711304e-02 6.623812198638916016e+00 2.014442205429077148e+00 -2.003807108849287033e-03
6.490000000000000000e+02 7.802183532714843750e+01 2.357497787475585938e+01 -1.308666542172431946e-02 6.669072151184082031e+00 1.996795654296875000e+00 4.468224942684173584e-02
6.500000000000000000e+02 7.797712707519531250e+01 2.627596855163574219e+01 -1.899031363427639008e-02 6.701438426971435547e+00 2.004734516143798828e+00 4.506768658757209778e-02
6.510000000000000000e+02 7.930010223388671875e+01 3.054015350341796875e+01 -1.358966622501611710e-02 6.830960750579833984e+00 2.045211315155029297e+00 1.121400389820337296e-02
6.520000000000000000e+02 7.763432312011718750e+01 3.299103546142578125e+01 6.598783656954765320e-04 6.740062713623046875e+00 2.022216796875000000e+00 2.560896798968315125e-02
6.530000000000000000e+02 7.722479248046875000e+01 3.564505767822265625e+01 2.255174098536372185e-03 6.741760730743408203e+00 2.023204803466796875e+00 1.603256538510322571e-02
6.540000000000000000e+02 7.856230926513671875e+01 4.029589843750000000e+01 -1.418081391602754593e-02 6.838810920715332031e+00 2.047389030456542969e+00 -3.113512136042118073e-02
6.550000000000000000e+02 7.581175994873046875e+01 3.838913345336914062e+01 -1.970244199037551880e-02 6.637987613677978516e+00 1.985485434532165527e+00 1.624053157866001129e-02
6.560000000000000000e+02 7.555834197998046875e+01 3.554324340820312500e+01 -2.764408104121685028e-02 6.588203907012939453e+00 1.968167901039123535e+00 4.057711735367774963e-02
6.570000000000000000e+02 7.410037994384765625e+01 3.336051940917968750e+01 -1.295223552733659744e-02 6.499660968780517578e+00 1.946012616157531738e+00 2.401719242334365845e-02
6.580000000000000000e+02 7.477920532226562500e+01 3.215795516967773438e+01 -9.329283609986305237e-03 6.532989025115966797e+00 1.957098007202148438e+00 3.121645748615264893e-02
6.590000000000000000e+02 7.503073120117187500e+01 2.735615539550781250e+01 -1.231009885668754578e-02 6.575617790222167969e+00 1.968992352485656738e+00 4.128701239824295044e-02
6.600000000000000000e+02 7.518717193603515625e+01 2.469647979736328125e+01 7.642136421054601669e-03 6.587554454803466797e+00 1.978559017181396484e+00 5.160704627633094788e-02
6.610000000000000000e+02 7.384198760986328125e+01 2.323295974731445312e+01 3.216741234064102173e-02 6.546625137329101562e+00 1.973637819290161133e+00 4.663239791989326477e-02
6.620000000000000000e+02 7.578978729248046875e+01 1.438732624053955078e+01 2.943533658981323242e-01 6.448853015899658203e+00 2.022961854934692383e+00 -1.037276864051818848e+00
6.630000000000000000e+02 7.429328155517578125e+01 1.147766590118408203e+01 -2.370982989668846130e-02 4.737375736236572266e+00 1.414099812507629395e+00 -2.637081384658813477e+00
6.640000000000000000e+02 7.321587371826171875e+01 1.134552860260009766e+01 1.520544290542602539e+00 3.109272003173828125e+00 1.388944864273071289e+00 -2.159552335739135742e+00
6.650000000000000000e+02 7.511769104003906250e+01 8.885606765747070312e+00 1.727124214172363281e+00 8.173136711120605469e+00 2.970078229904174805e+00 -4.098381519317626953e+00
6.660000000000000000e+02 7.582424163818359375e+01 7.862157344818115234e+00 3.239342212677001953e+00 1.606777191162109375e+01 5.792134284973144531e+00 -4.293124675750732422e+00
6.670000000000000000e+02 7.833021545410156250e+01 6.809997558593750000e+00 1.262712836265563965e+00 9.879384994506835938e+00 3.342629432678222656e+00 -8.641628026962280273e-01
6.680000000000000000e+02 7.612064361572265625e+01 5.888302326202392578e+00 8.875604867935180664e-01 1.754331970214843750e+01 5.529263973236083984e+00 -1.313694596290588379e+00
6.690000000000000000e+02 7.597997283935546875e+01 4.700539588928222656e+00 -9.305135346949100494e-03 1.540791225433349609e+01 4.619582176208496094e+00 1.912111341953277588e-01
6.700000000000000000e+02 7.590664672851562500e+01 2.244893312454223633e+00 -2.119205474853515625e+00 8.120870590209960938e+00 1.800499439239501953e+00 -3.086961209774017334e-01
6.710000000000000000e+02 7.488421630859375000e+01 1.834543466567993164e+00 -2.991333484649658203e+00 2.357909679412841797e+00 -1.900271326303482056e-01 -6.939609050750732422e-01
6.720000000000000000e+02 7.476448822021484375e+01 -1.574771285057067871e+00 -9.544681310653686523e-01 5.185616493225097656e+00 1.269344568252563477e+00 6.677708029747009277e-01
6.730000000000000000e+02 7.391776275634765625e+01 1.160161614418029785e+00 -6.077111244201660156e+00 -9.828484654426574707e-01 -2.117987871170043945e+00 -2.126828193664550781e+00
6.740000000000000000e+02 7.313127136230468750e+01 2.364008128643035889e-01 -4.324395179748535156e+00 -3.785168826580047607e-01 -1.410873651504516602e+00 -1.919538736343383789e+00
6.750000000000000000e+02 7.210848236083984375e+01 7.776174545288085938e-01 -3.975688934326171875e+00 6.974410414695739746e-01 -9.834743142127990723e-01 -2.377560615539550781e+00
6.760000000000000000e+02 7.104500579833984375e+01 1.264011383056640625e+00 1.176027655601501465e+00 6.061171054840087891e+00 2.171159505844116211e+00 -3.537278652191162109e+00
6.770000000000000000e+02 7.075832366943359375e+01 2.206656336784362793e-02 -4.152079105377197266e+00 6.314914703369140625e+00 6.488506197929382324e-01 -3.583655834197998047e+00
6.780000000000000000e+02 6.990769958496093750e+01 1.412524819374084473e+00 9.992263913154602051e-01 8.409812927246093750e+00 2.822711706161499023e+00 -3.178214073181152344e+00
6.790000000000000000e+02 6.967786407470703125e+01 2.690271139144897461e+00 2.921586990356445312e+00 1.286813926696777344e+01 4.736917972564697266e+00 -4.886606216430664062e+00
6.800000000000000000e+02 6.860773468017578125e+01 4.752755641937255859e+00 1.743993878364562988e+00 1.412951660156250000e+01 4.762053012847900391e+00 -1.473626017570495605e+00
6.810000000000000000e+02 6.929659271240234375e+01 5.832545757293701172e+00 6.622354388236999512e-01 1.382022094726562500e+01 4.344737052917480469e+00 3.038577139377593994e-01
6.820000000000000000e+02 7.057996368408203125e+01 8.147381782531738281e+00 -1.435507535934448242e+00 2.414669513702392578e+00 2.937485873699188232e-01 -3.773420453071594238e-01
6.830000000000000000e+02 7.055392456054687500e+01 9.596716880798339844e+00 -6.507912874221801758e-01 4.086088657379150391e+00 1.030589103698730469e+00 1.208305835723876953e+00
6.840000000000000000e+02 7.212588500976562500e+01 1.143575382232666016e+01 2.084511280059814453e+00 2.505708932876586914e+00 1.377066135406494141e+00 -4.462770223617553711e-01
6.850000000000000000e+02 7.094753265380859375e+01 1.042370605468750000e+01 8.720573186874389648e-01 3.007873296737670898e+00 1.163979172706604004e+00 1.011382102966308594e+00
6.860000000000000000e+02 7.320552825927734375e+01 1.269741725921630859e+01 1.265641331672668457e+00 4.445719242095947266e+00 1.713408112525939941e+00 -8.691991567611694336e-01
6.870000000000000000e+02 7.110527038574218750e+01 1.452303600311279297e+01 1.384248733520507812e+00 5.728415966033935547e+00 2.133799552917480469e+00 8.332914710044860840e-01
6.880000000000000000e+02 6.985331726074218750e+01 1.504093742370605469e+01 1.084834456443786621e+00 6.930899143218994141e+00 2.404720067977905273e+00 1.064284086227416992e+00
6.890000000000000000e+02 6.693504333496093750e+01 1.902892684936523438e+01 -2.283796817064285278e-01 6.823503494262695312e+00 1.978537082672119141e+00 -5.526894927024841309e-01
6.900000000000000000e+02 6.199752044677734375e+01 2.281994819641113281e+01 5.844072699546813965e-01 4.839022159576416016e+00 1.627028822898864746e+00 3.174989670515060425e-02
6.910000000000000000e+02 5.981924057006835938e+01 2.624688148498535156e+01 2.423235177993774414e-01 5.172390460968017578e+00 1.624414086341857910e+00 3.010837137699127197e-01
6.920000000000000000e+02 5.736249542236328125e+01 2.564443206787109375e+01 1.178220435976982117e-01 5.191065311431884766e+00 1.592666149139404297e+00 5.593603849411010742e-01
6.930000000000000000e+02 6.119488143920898438e+01 1.871659851074218750e+01 1.164318323135375977e+00 3.175675630569458008e+00 1.301998138427734375e+00 1.829255931079387665e-02
6.940000000000000000e+02 6.456057739257812500e+01 1.970339393615722656e+01 3.682861626148223877e-01 5.268602848052978516e+00 1.691066741943359375e+00 -9.273815751075744629e-01
6.950000000000000000e+02 6.542881774902343750e+01 1.294663906097412109e+01 4.125976562500000000e+00 1.396012496948242188e+01 5.425830841064453125e+00 -3.984591245651245117e+00
6.960000000000000000e+02 6.756367492675781250e+01 1.589892673492431641e+01 -2.631455063819885254e-01 8.437209129333496094e+00 2.452219009399414062e+00 2.321666926145553589e-01
6.970000000000000000e+02 6.748847961425781250e+01 1.733603096008300781e+01 -2.054819613695144653e-01 7.310135841369628906e+00 2.131396055221557617e+00 -1.447911858558654785e-01
6.980000000000000000e+02 7.213736724853515625e+01 4.069406127929687500e+01 -2.048163674771785736e-02 6.355025291442871094e+00 1.900363087654113770e+00 4.852585494518280029e-03
6.990000000000000000e+02 6.648050689697265625e+01 3.703485870361328125e+01 -4.789692163467407227e-02 5.949244499206542969e+00 1.770404338836669922e+00 2.654402889311313629e-02
7.000000000000000000e+02 7.124814605712890625e+01 3.355216979980468750e+01 -2.257046476006507874e-02 6.322527885437011719e+00 1.889987230300903320e+00 3.508768230676651001e-02
7.010000000000000000e+02 7.265642547607421875e+01 3.214804840087890625e+01 -1.381737552583217621e-02 6.393852710723876953e+00 1.914010524749755859e+00 2.955661714076995850e-02
7.020000000000000000e+02 7.025344848632812500e+01 2.776190567016601562e+01 4.950336180627346039e-03 6.244266033172607422e+00 1.874764919281005859e+00 7.220930885523557663e-03
7.030000000000000000e+02 7.370572662353515625e+01 2.454869651794433594e+01 -2.065239939838647842e-03 6.545220375061035156e+00 1.962946534156799316e+00 5.111302435398101807e-02
7.040000000000000000e+02 7.221294403076171875e+01 2.013704681396484375e+01 1.743041127920150757e-01 6.548677444458007812e+00 2.016894578933715820e+00 1.062322184443473816e-01
7.050000000000000000e+02 7.202229309082031250e+01 1.736312675476074219e+01 5.394746065139770508e-01 6.317886352539062500e+00 2.057208299636840820e+00 2.723380923271179199e-01
7.060000000000000000e+02 6.732901763916015625e+01 4.064041519165039062e+01 -4.471786320209503174e-02 6.006194114685058594e+00 1.788442850112915039e+00 1.609434932470321655e-02
7.070000000000000000e+02 7.244355773925781250e+01 3.754051589965820312e+01 -2.575177885591983795e-02 6.383049488067626953e+00 1.907189249992370605e+00 2.609399333596229553e-02
7.080000000000000000e+02 6.781065368652343750e+01 3.274697113037109375e+01 -1.862306892871856689e-02 6.008630275726318359e+00 1.797002077102661133e+00 2.740153111517429352e-02
7.090000000000000000e+02 6.673002624511718750e+01 3.034922790527343750e+01 5.006597191095352173e-02 5.868964672088623047e+00 1.775709152221679688e+00 1.886492222547531128e-02
7.100000000000000000e+02 6.578131866455078125e+01 2.842105102539062500e+01 8.227697759866714478e-02 5.787162780761718750e+00 1.760831952095031738e+00 -3.199522197246551514e-02
7.110000000000000000e+02 6.662557220458984375e+01 2.360066795349121094e+01 1.240064352750778198e-01 5.846365928649902344e+00 1.791111707687377930e+00 -2.746474444866180420e-01
7.120000000000000000e+02 6.953600311279296875e+01 1.877434539794921875e+01 5.032096430659294128e-02 6.785455226898193359e+00 2.050732851028442383e+00 9.482730925083160400e-02
7.130000000000000000e+02 6.538327026367187500e+01 3.382810211181640625e+01 -1.739698462188243866e-02 5.802724361419677734e+00 1.735598087310791016e+00 5.917075276374816895e-02
7.140000000000000000e+02 6.234976959228515625e+01 3.152464294433593750e+01 3.837663307785987854e-02 5.526106834411621094e+00 1.669345021247863770e+00 1.220957636833190918e-01
7.150000000000000000e+02 6.211436462402343750e+01 2.900512695312500000e+01 1.220170035958290100e-01 5.455759525299072266e+00 1.673332929611206055e+00 1.328742653131484985e-01
7.160000000000000000e+02 6.488803863525390625e+01 2.249031639099121094e+01 3.161022961139678955e-01 5.461721897125244141e+00 1.733347296714782715e+00 -3.845067918300628662e-01
7.170000000000000000e+02 6.251330184936523438e+01 4.077880096435546875e+01 -8.920609205961227417e-02 5.641888618469238281e+00 1.665804743766784668e+00 1.384964864701032639e-02
7.180000000000000000e+02 6.256309890747070312e+01 3.739165115356445312e+01 -7.451392710208892822e-02 5.622622489929199219e+00 1.664432644844055176e+00 6.145322322845458984e-02
7.190000000000000000e+02 6.256567764282226562e+01 3.426346969604492188e+01 -4.563535377383232117e-02 5.608209609985351562e+00 1.668772220611572266e+00 8.458441495895385742e-02
7.200000000000000000e+02 5.265322494506835938e+01 4.035450363159179688e+01 -1.984602212905883789e-01 4.864081382751464844e+00 1.399686336517333984e+00 1.829786598682403564e-02
7.210000000000000000e+02 5.239023971557617188e+01 3.631182861328125000e+01 -2.003864645957946777e-01 4.843505859375000000e+00 1.392935872077941895e+00 3.707226365804672241e-02
7.220000000000000000e+02 5.166618347167968750e+01 3.285450744628906250e+01 -2.336479127407073975e-01 4.842918872833251953e+00 1.382781386375427246e+00 6.405308842658996582e-02
7.230000000000000000e+02 4.854536437988281250e+01 3.072956466674804688e+01 -2.570353746414184570e-01 4.611535549163818359e+00 1.306349992752075195e+00 -1.818714663386344910e-02
7.240000000000000000e+02 5.048653030395507812e+01 2.729299545288085938e+01 -3.024919629096984863e-01 5.047371387481689453e+00 1.423463821411132812e+00 7.331491261720657349e-02
7.250000000000000000e+02 4.760627365112304688e+01 4.034510803222656250e+01 -1.949359625577926636e-01 4.292777538299560547e+00 1.229352355003356934e+00 -1.898719556629657745e-02
7.260000000000000000e+02 4.896448135375976562e+01 3.323955917358398438e+01 -2.231345176696777344e-01 4.585865974426269531e+00 1.308819413185119629e+00 -3.681173548102378845e-02
7.270000000000000000e+02 4.514189529418945312e+01 3.050929260253906250e+01 -2.101839333772659302e-01 4.108281135559082031e+00 1.169429183006286621e+00 -1.199061349034309387e-01
7.280000000000000000e+02 4.507126998901367188e+01 2.682752227783203125e+01 -2.063852548599243164e-01 4.144882202148437500e+00 1.181549072265625000e+00 -1.575142443180084229e-01
7.290000000000000000e+02 4.585157012939453125e+01 2.333113288879394531e+01 -7.394359260797500610e-02 4.204995155334472656e+00 1.239315509796142578e+00 -1.023575291037559509e-01
7.300000000000000000e+02 4.847901916503906250e+01 2.020271682739257812e+01 7.682693004608154297e-02 5.273324012756347656e+00 1.605045318603515625e+00 -7.634172439575195312e-01
7.310000000000000000e+02 4.733815765380859375e+01 1.530704879760742188e+01 1.788796335458755493e-01 4.277220368385314941e-01 1.819805055856704712e-01 4.402888566255569458e-02
7.320000000000000000e+02 4.700242614746093750e+01 1.749544715881347656e+01 1.031828403472900391e+00 2.777094364166259766e+00 1.142676830291748047e+00 -1.051065921783447266e-01
7.330000000000000000e+02 4.515259170532226562e+01 3.479919052124023438e+01 -1.908056885004043579e-01 4.045493602752685547e+00 1.156406402587890625e+00 -7.814208418130874634e-02
7.340000000000000000e+02 4.333037948608398438e+01 3.231705856323242188e+01 -2.092989683151245117e-01 3.812941312789916992e+00 1.081092715263366699e+00 -1.374246627092361450e-01
7.350000000000000000e+02 4.173935317993164062e+01 3.032924842834472656e+01 -1.796201765537261963e-01 3.585089206695556641e+00 1.021640777587890625e+00 -1.990697979927062988e-01
7.360000000000000000e+02 4.339633560180664062e+01 2.865528297424316406e+01 -2.348271161317825317e-01 3.896051168441772461e+00 1.098367214202880859e+00 -1.650077104568481445e-01
7.370000000000000000e+02 4.537500381469726562e+01 1.966259956359863281e+01 3.160122036933898926e-01 3.542231798171997070e+00 1.157473206520080566e+00 2.611582279205322266e-01
7.380000000000000000e+02 4.317918777465820312e+01 1.815032196044921875e+01 -3.260215222835540771e-01 3.917112350463867188e+00 1.077327251434326172e+00 1.117154240608215332e+00
7.390000000000000000e+02 4.505577468872070312e+01 1.769462776184082031e+01 5.163161158561706543e-01 2.906148433685302734e+00 1.026739358901977539e+00 8.068785071372985840e-01
7.400000000000000000e+02 4.255950927734375000e+01 4.037440490722656250e+01 -1.436958163976669312e-01 3.718791723251342773e+00 1.072528719902038574e+00 -2.806249447166919708e-02
7.410000000000000000e+02 4.209901046752929688e+01 3.653644180297851562e+01 -1.590909659862518311e-01 3.674499988555908203e+00 1.054622769355773926e+00 -9.636183828115463257e-02
7.420000000000000000e+02 4.123848724365234375e+01 3.364971160888671875e+01 -1.545935273170471191e-01 3.513798713684082031e+00 1.007761597633361816e+00 -1.443539261817932129e-01
7.430000000000000000e+02 3.897275543212890625e+01 2.690347099304199219e+01 -2.132389843463897705e-01 3.195719242095947266e+00 8.947440981864929199e-01 -2.301533073186874390e-01
7.440000000000000000e+02 3.864513778686523438e+01 2.503034210205078125e+01 -3.450478911399841309e-01 3.204921007156372070e+00 8.579619526863098145e-01 -2.609775364398956299e-01
7.450000000000000000e+02 4.203833770751953125e+01 2.035425567626953125e+01 -5.435516238212585449e-01 4.000656127929687500e+00 1.037131309509277344e+00 3.287801146507263184e-01
7.460000000000000000e+02 4.035911178588867188e+01 1.627427482604980469e+01 -1.592620372772216797e+00 6.110747337341308594e+00 1.355438113212585449e+00 1.377340555191040039e+00
7.470000000000000000e+02 3.751155090332031250e+01 4.037406158447265625e+01 -6.168405711650848389e-02 3.035185813903808594e+00 8.920505046844482422e-01 -3.581891953945159912e-02
7.480000000000000000e+02 3.698348999023437500e+01 3.244651031494140625e+01 -1.104744374752044678e-01 3.006593704223632812e+00 8.688358068466186523e-01 -1.144840866327285767e-01
7.490000000000000000e+02 3.543922424316406250e+01 3.091021728515625000e+01 -1.195599660277366638e-01 2.780156850814819336e+00 7.981790900230407715e-01 -1.320428997278213501e-01
7.500000000000000000e+02 3.427843856811523438e+01 2.721628952026367188e+01 -1.635006219148635864e-01 2.479449987411499023e+00 6.947848200798034668e-01 -1.060101613402366638e-01
7.510000000000000000e+02 3.672465133666992188e+01 2.496069145202636719e+01 -2.385206818580627441e-01 2.780312299728393555e+00 7.625374794006347656e-01 -2.271496504545211792e-01
7.520000000000000000e+02 3.688597106933593750e+01 1.971784019470214844e+01 -7.762633562088012695e-01 2.738713502883911133e+00 5.887350440025329590e-01 -9.516214132308959961e-01
7.530000000000000000e+02 3.605853652954101562e+01 1.537460708618164062e+01 -2.151978969573974609e+00 2.444797992706298828e+00 8.784567564725875854e-02 -1.758583426475524902e+00
7.540000000000000000e+02 3.570748138427734375e+01 1.385588073730468750e+01 -2.533027410507202148e+00 5.765637159347534180e-01 -5.869390964508056641e-01 3.070486336946487427e-02
7.550000000000000000e+02 2.415632438659667969e+01 3.472951889038085938e+01 4.851201921701431274e-02 1.631867885589599609e+00 5.041139721870422363e-01 -1.199193969368934631e-01
7.560000000000000000e+02 2.198519897460937500e+01 3.214988708496093750e+01 2.907939627766609192e-02 1.337450861930847168e+00 4.099590778350830078e-01 -1.756110340356826782e-01
7.570000000000000000e+02 2.054859542846679688e+01 2.985923576354980469e+01 -2.874662354588508606e-02 1.197262883186340332e+00 3.505548834800720215e-01 -2.272955626249313354e-01
7.580000000000000000e+02 2.121441459655761719e+01 2.666592788696289062e+01 -2.289103716611862183e-01 1.201946616172790527e+00 2.919108867645263672e-01 -3.971826732158660889e-01
7.590000000000000000e+02 2.457062721252441406e+01 2.388245773315429688e+01 -8.044623732566833496e-01 2.041713476181030273e+00 3.711753189563751221e-01 -5.280642509460449219e-01
7.600000000000000000e+02 2.129448509216308594e+01 1.903557586669921875e+01 -1.108660340309143066e+00 2.203712910413742065e-01 -2.664867341518402100e-01 -1.103391528129577637e+00
7.610000000000000000e+02 1.910239791870117188e+01 1.508490085601806641e+01 -2.859843492507934570e+00 -6.385493874549865723e-01 -1.049517869949340820e+00 -1.422088384628295898e+00
7.620000000000000000e+02 1.548450183868408203e+01 1.283477687835693359e+01 -2.102425336837768555e+00 -1.012215018272399902e+00 -9.343920946121215820e-01 -1.278615355491638184e+00
7.630000000000000000e+02 1.254449081420898438e+01 1.208252906799316406e+01 -1.343584895133972168e+00 5.050013214349746704e-02 -3.879254460334777832e-01 -6.544439196586608887e-01
7.640000000000000000e+02 8.186326026916503906e+00 1.374618911743164062e+01 -9.656327366828918457e-01 1.396426677703857422e+00 1.292382031679153442e-01 -6.623745560646057129e-01
7.650000000000000000e+02 4.509978294372558594e+00 1.468784427642822266e+01 -4.652619659900665283e-01 1.306632637977600098e+00 2.524111866950988770e-01 -6.504506468772888184e-01
7.660000000000000000e+02 6.459102630615234375e-01 1.349083518981933594e+01 -6.224684789776802063e-02 1.117372751235961914e+00 3.165377676486968994e-01 -1.862632930278778076e-01
7.670000000000000000e+02 1.958099842071533203e+00 1.485217571258544922e+01 -1.513167619705200195e-01 1.325992584228515625e+00 3.524027168750762939e-01 -3.806656002998352051e-01
7.680000000000000000e+02 5.932025909423828125e-01 9.257764816284179688e+00 6.350634992122650146e-02 -4.391598701477050781e-01 -1.126960515975952148e-01 -2.338432967662811279e-01
7.690000000000000000e+02 1.821367263793945312e+00 1.061361980438232422e+01 1.742815040051937103e-02 3.677403330802917480e-01 1.155505478382110596e-01 -6.671152114868164062e-01
7.700000000000000000e+02 5.604392290115356445e-01 6.434187412261962891e+00 6.626832485198974609e-02 -1.147992610931396484e+00 -3.245172798633575439e-01 -6.323137879371643066e-02
7.710000000000000000e+02 5.811885833740234375e+00 2.667058467864990234e+00 3.788143992424011230e-01 -4.898324608802795410e-01 -3.330542147159576416e-02 1.196489453315734863e+00
7.720000000000000000e+02 7.329546451568603516e+00 1.863016128540039062e+00 -9.369220733642578125e-01 -1.396046578884124756e-01 -3.229580223560333252e-01 1.520344018936157227e+00
7.730000000000000000e+02 1.134246540069580078e+01 2.690206766128540039e+00 1.868054866790771484e+00 2.913181066513061523e+00 1.434370756149291992e+00 -2.816249132156372070e+00
7.740000000000000000e+02 8.881360054016113281e+00 1.853115439414978027e+00 -1.297985076904296875e+00 6.762875914573669434e-01 -1.865092366933822632e-01 1.320941448211669922e+00
7.750000000000000000e+02 8.101180076599121094e+00 3.199953317642211914e+00 2.667480468750000000e+00 6.712207943201065063e-02 8.203807473182678223e-01 1.017890214920043945e+00
7.760000000000000000e+02 9.659860610961914062e+00 1.838076710700988770e+00 -1.241708636283874512e+00 9.927358627319335938e-01 -7.469182461500167847e-02 5.134963989257812500e-01
7.770000000000000000e+02 1.112581634521484375e+01 1.724228382110595703e+00 -1.311713576316833496e+00 1.518854856491088867e+00 6.214240193367004395e-02 -1.641115784645080566e+00
7.780000000000000000e+02 2.227964782714843750e+01 4.051601028442382812e+01 1.709308028221130371e-01 1.486318707466125488e+00 4.971748590469360352e-01 -3.731587156653404236e-02
7.790000000000000000e+02 2.107725334167480469e+01 3.682460403442382812e+01 1.578723192214965820e-01 1.366272687911987305e+00 4.572435021400451660e-01 -6.482539325952529907e-02
7.800000000000000000e+02 1.941573905944824219e+01 3.367156219482421875e+01 1.156703010201454163e-01 1.199151992797851562e+00 3.944466710090637207e-01 -1.044261157512664795e-01
7.810000000000000000e+02 1.828998184204101562e+01 3.097648811340332031e+01 8.443163335323333740e-02 1.007579445838928223e+00 3.276033401489257812e-01 -1.132596954703330994e-01
7.820000000000000000e+02 1.951454925537109375e+01 2.789130210876464844e+01 -6.651838868856430054e-02 9.599435925483703613e-01 2.680275738239288330e-01 -2.661551237106323242e-01
7.830000000000000000e+02 1.945142745971679688e+01 2.259031295776367188e+01 -4.443692564964294434e-01 4.409526288509368896e-01 -1.024988479912281036e-03 -5.296025872230529785e-01
7.840000000000000000e+02 2.035334014892578125e+01 1.936296272277832031e+01 -1.076483726501464844e+00 9.513190388679504395e-02 -2.944055497646331787e-01 -8.381981253623962402e-01
7.850000000000000000e+02 2.045622253417968750e+01 1.841048049926757812e+01 -1.299471497535705566e+00 -1.913900822401046753e-01 -4.472584724426269531e-01 -8.165588378906250000e-01
7.860000000000000000e+02 1.853094482421875000e+01 1.645839691162109375e+01 -2.343376159667968750e+00 -4.655867218971252441e-01 -8.426888585090637207e-01 -8.080921769142150879e-01
7.870000000000000000e+02 1.740339660644531250e+01 4.094294738769531250e+01 2.176657766103744507e-01 1.167777061462402344e+00 4.156328439712524414e-01 1.002885866910219193e-02
7.880000000000000000e+02 1.695833587646484375e+01 3.777639389038085938e+01 2.029518038034439087e-01 1.142921924591064453e+00 4.037621021270751953e-01 -3.571463283151388168e-03
7.890000000000000000e+02 1.624613380432128906e+01 3.461541748046875000e+01 1.836728304624557495e-01 1.049283742904663086e+00 3.698869645595550537e-01 5.196617916226387024e-03
7.900000000000000000e+02 1.569009017944335938e+01 2.675828170776367188e+01 -3.849760815501213074e-02 7.029361128807067871e-01 1.993315666913986206e-01 -4.568314924836158752e-02
7.910000000000000000e+02 1.657542419433593750e+01 2.329046630859375000e+01 -3.021056354045867920e-01 4.060243070125579834e-01 3.117560036480426788e-02 -1.701089292764663696e-01
7.920000000000000000e+02 1.799264526367187500e+01 1.950543022155761719e+01 -9.584779739379882812e-01 -1.224384754896163940e-01 -3.242749273777008057e-01 -3.148077428340911865e-01
7.930000000000000000e+02 1.562578010559082031e+01 1.469998359680175781e+01 -1.981719970703125000e+00 -4.820388853549957275e-01 -7.391276359558105469e-01 -7.462509274482727051e-01
7.940000000000000000e+02 1.482034301757812500e+01 1.557739067077636719e+01 -1.600458383560180664e+00 -1.131015345454216003e-01 -5.140680074691772461e-01 -4.682250022888183594e-01
7.950000000000000000e+02 1.270380115509033203e+01 4.112077331542968750e+01 1.906832754611968994e-01 1.055903077125549316e+00 3.739759027957916260e-01 5.133882630616426468e-03
7.960000000000000000e+02 1.294973278045654297e+01 3.821879577636718750e+01 1.923079639673233032e-01 1.039320707321166992e+00 3.694885969161987305e-01 5.151252448558807373e-02
7.970000000000000000e+02 1.284439849853515625e+01 3.503519821166992188e+01 1.695073395967483521e-01 9.998058676719665527e-01 3.507939577102661133e-01 8.296779543161392212e-02
7.980000000000000000e+02 1.326725006103515625e+01 2.901187324523925781e+01 5.843507871031761169e-02 8.068324923515319824e-01 2.595802545547485352e-01 8.732996135950088501e-02
7.990000000000000000e+02 1.181429767608642578e+01 2.673717117309570312e+01 -4.046093672513961792e-02 7.603228092193603516e-01 2.159585505723953247e-01 1.517987996339797974e-01
8.000000000000000000e+02 1.342955017089843750e+01 2.376911735534667969e+01 -2.670627236366271973e-01 5.511329770088195801e-01 8.522107452154159546e-02 1.048468872904777527e-01
8.010000000000000000e+02 1.254930400848388672e+01 1.926432037353515625e+01 -8.543267250061035156e-01 4.474238157272338867e-01 -1.220708787441253662e-01 4.235785454511642456e-02
8.020000000000000000e+02 1.220339488983154297e+01 1.720617485046386719e+01 -1.114537000656127930e+00 4.809739589691162109e-01 -1.900689154863357544e-01 -7.802369445562362671e-02
8.030000000000000000e+02 1.304154014587402344e+01 1.601705169677734375e+01 -1.308209180831909180e+00 3.109223246574401855e-01 -2.991860508918762207e-01 -2.408828735351562500e-01
8.040000000000000000e+02 8.261943817138671875e+00 4.110610961914062500e+01 1.128827407956123352e-01 1.066233515739440918e+00 3.537348806858062744e-01 3.240845724940299988e-02
8.050000000000000000e+02 9.399785995483398438e+00 3.834304809570312500e+01 1.346428692340850830e-01 1.042856454849243164e+00 3.532498180866241455e-01 7.554524391889572144e-02
8.060000000000000000e+02 7.234466552734375000e+00 3.162819290161132812e+01 7.050067931413650513e-02 1.055012345314025879e+00 3.376539051532745361e-01 1.962725371122360229e-01
8.070000000000000000e+02 7.180025100708007812e+00 2.819629096984863281e+01 2.901056967675685883e-02 1.062843084335327148e+00 3.275560736656188965e-01 2.314096540212631226e-01
8.080000000000000000e+02 9.131453514099121094e+00 2.519517326354980469e+01 -1.029863879084587097e-01 9.068673849105834961e-01 2.411642968654632568e-01 2.037191390991210938e-01
8.090000000000000000e+02 8.478575706481933594e+00 2.292318153381347656e+01 -2.562655210494995117e-01 9.498727917671203613e-01 2.080821841955184937e-01 1.594251841306686401e-01
8.100000000000000000e+02 9.346196174621582031e+00 1.609762001037597656e+01 -9.765887260437011719e-01 1.034248471260070801e+00 1.729792542755603790e-02 -2.921354174613952637e-01
8.110000000000000000e+02 1.007280731201171875e+01 1.701565742492675781e+01 -9.973593354225158691e-01 8.552723526954650879e-01 -4.262611269950866699e-02 -1.229565888643264771e-01
8.120000000000000000e+02 5.215601444244384766e+00 4.031465148925781250e+01 5.283711105585098267e-02 1.061942815780639648e+00 3.344339728355407715e-01 3.914980590343475342e-02
8.130000000000000000e+02 6.834787368774414062e+00 3.808025741577148438e+01 9.537769854068756104e-02 1.078661799430847168e+00 3.522118330001831055e-01 1.015451624989509583e-01
8.140000000000000000e+02 7.119979381561279297e+00 3.446543121337890625e+01 9.691518545150756836e-02 1.064494848251342773e+00 3.484230041503906250e-01 1.449083685874938965e-01
8.150000000000000000e+02 4.209990978240966797e+00 2.957275199890136719e+01 2.930086106061935425e-02 1.258572101593017578e+00 3.863618969917297363e-01 1.946771740913391113e-01
8.160000000000000000e+02 5.850280284881591797e+00 2.201380920410156250e+01 -2.043065577745437622e-01 1.232044458389282227e+00 3.083213865756988525e-01 1.031728684902191162e-01
8.170000000000000000e+02 6.132039070129394531e+00 1.745166397094726562e+01 -4.967763423919677734e-01 1.280854344367980957e+00 2.352234125137329102e-01 -2.689879536628723145e-01
8.180000000000000000e+02 4.632331848144531250e+00 1.610704803466796875e+01 -3.653968274593353271e-01 1.345718145370483398e+00 2.940963804721832275e-01 -4.442209601402282715e-01
8.190000000000000000e+02 2.073167800903320312e+00 4.162714767456054688e+01 1.272147707641124725e-02 1.068841457366943359e+00 3.244688808917999268e-01 3.781813429668545723e-03
8.200000000000000000e+02 2.948997020721435547e+00 3.781289291381835938e+01 2.078421041369438171e-02 1.111561298370361328e+00 3.397036492824554443e-01 5.722758173942565918e-02
8.210000000000000000e+02 2.055010795593261719e+00 3.408749008178710938e+01 6.215157336555421352e-04 1.210810780525207520e+00 3.634296655654907227e-01 7.969203591346740723e-02
8.220000000000000000e+02 1.909258246421813965e+00 3.150306701660156250e+01 -4.523549694567918777e-03 1.312858462333679199e+00 3.925004601478576660e-01 9.625048190355300903e-02
8.230000000000000000e+02 2.009754657745361328e+00 2.751848220825195312e+01 2.302283979952335358e-02 1.494834423065185547e+00 4.553571641445159912e-01 1.221562996506690979e-01
8.240000000000000000e+02 1.943944573402404785e+00 2.472373771667480469e+01 1.388310641050338745e-02 1.622231841087341309e+00 4.908344745635986328e-01 1.094276085495948792e-01
8.250000000000000000e+02 1.948593020439147949e+00 2.052459526062011719e+01 -7.865314185619354248e-02 1.722818970680236816e+00 4.932497441768646240e-01 6.397327873855829239e-03
8.260000000000000000e+02 1.991003036499023438e+00 1.769629287719726562e+01 -1.157991811633110046e-01 1.621974468231201172e+00 4.518525600433349609e-01 -1.507807821035385132e-01
8.270000000000000000e+02 6.622852087020874023e-01 1.773896789550781250e+01 1.930169574916362762e-02 1.874739885330200195e+00 5.682124495506286621e-01 -5.504371598362922668e-02
8.280000000000000000e+02 1.796978712081909180e+00 7.785103797912597656e+00 2.239803820848464966e-01 -4.158755540847778320e-01 -5.756855010986328125e-02 -4.518429934978485107e-01
8.290000000000000000e+02 4.685030579566955566e-01 3.577697753906250000e+00 -8.061920292675495148e-03 -7.869492173194885254e-01 -2.385033369064331055e-01 1.482924818992614746e-01
8.300000000000000000e+02 3.491511583328247070e+00 1.910095810890197754e+00 -3.947173655033111572e-01 -2.504255771636962891e-01 -1.935428828001022339e-01 7.774596810340881348e-01
8.310000000000000000e+02 2.384284257888793945e+00 3.759921312332153320e+00 1.802502423524856567e-01 -5.569027066230773926e-01 -1.129957363009452820e-01 4.949225485324859619e-01
8.320000000000000000e+02 6.221641921997070312e+01 1.396313190460205078e+01 -1.974463224411010742e+00 -4.129970371723175049e-01 -7.162380814552307129e-01 -1.221322417259216309e+00
8.330000000000000000e+02 5.928493118286132812e+01 1.515207386016845703e+01 9.043654799461364746e-01 1.465506434440612793e+00 7.109615802764892578e-01 1.145279407501220703e+00
8.340000000000000000e+02 5.995641708374023438e+01 1.241645431518554688e+01 -1.668439149856567383e+00 -5.906909108161926270e-01 -6.777390241622924805e-01 -9.817543625831604004e-01
8.350000000000000000e+02 6.104648590087890625e+01 1.323971557617187500e+01 -2.202043771743774414e+00 -6.559368371963500977e-01 -8.573942184448242188e-01 -1.032625675201416016e+00
8.360000000000000000e+02 6.615175628662109375e+01 9.141253471374511719e+00 1.182927489280700684e+00 1.443357849121093750e+01 4.684951782226562500e+00 1.492019414901733398e+00
8.370000000000000000e+02 6.434777832031250000e+01 7.360722541809082031e+00 9.865587353706359863e-01 5.423394680023193359e+00 1.922986030578613281e+00 2.467343330383300781e+00
8.380000000000000000e+02 6.182611465454101562e+01 4.204612255096435547e+00 -4.358006417751312256e-01 1.215966582298278809e+00 2.340497970581054688e-01 3.562563657760620117e-01
8.390000000000000000e+02 6.081681060791015625e+01 -5.519474744796752930e-01 -2.713155508041381836e+00 4.498555660247802734e+00 5.356200933456420898e-01 7.815661430358886719e-01
8.400000000000000000e+02 5.656338500976562500e+01 -1.144114322960376740e-02 -3.520499944686889648e+00 9.849413633346557617e-01 -7.606676220893859863e-01 -4.267379760742187500e+00
8.410000000000000000e+02 5.760282135009765625e+01 9.065762758255004883e-01 -7.070291519165039062e+00 -1.160971164703369141e+00 -2.469378709793090820e+00 -3.431068658828735352e+00
8.420000000000000000e+02 2.281786727905273438e+01 1.688470840454101562e+01 -3.252171754837036133e+00 -5.085557699203491211e-01 -1.128218293190002441e+00 -1.615497350692749023e+00
8.430000000000000000e+02 2.412824440002441406e+01 1.773746109008789062e+01 -2.199543237686157227e+00 2.766990661621093750e+00 1.702342331409454346e-01 -2.585737705230712891e+00
8.440000000000000000e+02 9.063434600830078125e+00 5.964667797088623047e+00 4.776655197143554688e+00 3.156081676483154297e+00 2.379821062088012695e+00 -3.787264108657836914e+00
8.450000000000000000e+02 1.010700988769531250e+01 6.141893386840820312e+00 1.115977525711059570e+00 8.497833251953125000e+00 2.884143352508544922e+00 -2.314874172210693359e+00
8.460000000000000000e+02 1.064612102508544922e+01 8.116827964782714844e+00 -2.648463547229766846e-01 2.098099946975708008e+00 5.499761104583740234e-01 -1.601715385913848877e-01
8.470000000000000000e+02 1.148704624176025391e+01 9.106485366821289062e+00 -7.061019539833068848e-01 -1.124645862728357315e-02 -2.152045220136642456e-01 -3.394124805927276611e-01
8.480000000000000000e+02 1.241978645324707031e+01 1.009125900268554688e+01 -9.608833193778991699e-01 -3.723884522914886475e-01 -3.999815285205841064e-01 -7.780024409294128418e-01
8.490000000000000000e+02 1.442440509796142578e+01 1.195276451110839844e+01 -1.592413902282714844e+00 -8.406904935836791992e-01 -7.299313545227050781e-01 -1.217394351959228516e+00
8.500000000000000000e+02 1.463671112060546875e+01 1.382047748565673828e+01 -1.833764791488647461e+00 -3.839563429355621338e-01 -6.653163433074951172e-01 -8.072259426116943359e-01
8.510000000000000000e+02 2.928024101257324219e+01 3.810760736465454102e+00 -5.662213802337646484e+00 -9.343398809432983398e-01 -1.978965997695922852e+00 -2.562908649444580078e+00
8.520000000000000000e+02 3.047298049926757812e+01 4.388615489006042480e-02 1.029019737243652344e+01 1.267755794525146484e+01 6.890326499938964844e+00 5.766049861907958984e+00
8.530000000000000000e+02 3.020146179199218750e+01 -1.125226497650146484e+00 8.766816139221191406e+00 1.689761734008789062e+01 7.699329853057861328e+00 8.137000083923339844e+00
8.540000000000000000e+02 2.575801086425781250e+01 2.056299448013305664e+00 -6.403787612915039062e+00 -1.582273602485656738e+00 -2.395818471908569336e+00 -3.396111249923706055e+00
8.550000000000000000e+02 3.164403343200683594e+01 -1.869373023509979248e-01 8.436655044555664062e+00 2.049364566802978516e+00 3.145805835723876953e+00 6.357114791870117188e+00
8.560000000000000000e+02 3.169531250000000000e+01 1.130832076072692871e+00 3.047413110733032227e+00 4.015595436096191406e+00 2.118902683258056641e+00 7.757519721984863281e+00
8.570000000000000000e+02 3.720569992065429688e+01 4.416782855987548828e+00 1.707939147949218750e+00 1.242175102233886719e+01 4.238906860351562500e+00 2.918262004852294922e+00
8.580000000000000000e+02 3.228321456909179688e+01 4.793988704681396484e+00 -7.446406483650207520e-01 4.712583422660827637e-01 -8.201468735933303833e-02 4.003605544567108154e-01
8.590000000000000000e+02 3.347227478027343750e+01 -1.136605024337768555e+00 -3.339542150497436523e+00 -3.132965803146362305e+00 -1.941752433776855469e+00 3.289928674697875977e+00
8.600000000000000000e+02 3.294184494018554688e+01 -6.324949860572814941e-02 3.049233198165893555e+00 -2.975918531417846680e+00 2.199443988502025604e-02 3.684592485427856445e+00
8.610000000000000000e+02 3.772238540649414062e+01 2.405461549758911133e+00 2.649800300598144531e+00 2.054749298095703125e+01 6.959187984466552734e+00 2.259791374206542969e+00
8.620000000000000000e+02 3.436095809936523438e+01 -2.036461591720581055e+00 -4.142194271087646484e+00 -2.699866056442260742e+00 -2.052618026733398438e+00 3.999836444854736328e+00
8.630000000000000000e+02 3.528161239624023438e+01 -2.992168664932250977e+00 -3.769175767898559570e+00 -1.280611515045166016e+00 -1.514936208724975586e+00 2.290824890136718750e+00
8.640000000000000000e+02 3.620183944702148438e+01 -3.996397256851196289e+00 -1.790805578231811523e+00 1.968801021575927734e-01 -4.781776368618011475e-01 1.013961315155029297e+00
8.650000000000000000e+02 3.841716384887695312e+01 -7.490377902984619141e+00 5.753272175788879395e-01 1.998182177543640137e+00 7.720528244972229004e-01 -8.950999379158020020e-01
8.660000000000000000e+02 3.999055862426757812e+01 -8.012109756469726562e+00 2.667534351348876953e-01 4.911383628845214844e+00 1.553441166877746582e+00 -6.641014814376831055e-01
8.670000000000000000e+02 4.085922241210937500e+01 -1.226550292968750000e+01 8.573701381683349609e-01 1.277385330200195312e+01 4.089366912841796875e+00 -1.315241336822509766e+00
8.680000000000000000e+02 4.111888885498046875e+01 -1.442945766448974609e+01 8.222630023956298828e-01 1.454106903076171875e+01 4.608999729156494141e+00 4.783280491828918457e-01
8.690000000000000000e+02 4.091664505004882812e+01 -1.570017242431640625e+01 2.429024457931518555e+00 1.390206336975097656e+01 4.899326324462890625e+00 2.504492521286010742e+00
8.700000000000000000e+02 4.200812149047851562e+01 -1.758479881286621094e+01 1.363249272108078003e-01 7.987666130065917969e+00 2.437197446823120117e+00 -7.365048527717590332e-01
8.710000000000000000e+02 4.220670700073242188e+01 -1.619786071777343750e+01 1.929606914520263672e+00 8.325289726257324219e+00 3.076468944549560547e+00 -6.950010657310485840e-01
8.720000000000000000e+02 4.246259307861328125e+01 -1.499024105072021484e+01 2.297531604766845703e+00 9.001138687133789062e+00 3.389600992202758789e+00 4.100956320762634277e-01
8.730000000000000000e+02 4.289329528808593750e+01 -1.389303207397460938e+01 1.160687327384948730e+00 8.956239700317382812e+00 3.035078287124633789e+00 4.103989005088806152e-01
8.740000000000000000e+02 4.365682601928710938e+01 -1.105074119567871094e+01 -4.519360363483428955e-01 8.205809593200683594e+00 2.326162099838256836e+00 7.202492356300354004e-01
8.750000000000000000e+02 4.278999328613281250e+01 -1.028925514221191406e+01 -5.599036812782287598e-01 8.935274124145507812e+00 2.512611150741577148e+00 8.300300240516662598e-01
8.760000000000000000e+02 3.722219467163085938e+01 -3.112088918685913086e+00 -3.304795503616333008e+00 3.982055187225341797e+00 2.031778991222381592e-01 -9.712824225425720215e-01
8.770000000000000000e+02 3.578623580932617188e+01 -1.398099040985107422e+01 1.423474401235580444e-01 1.130747556686401367e+00 3.819285035133361816e-01 -8.464793562889099121e-01
8.780000000000000000e+02 3.144605445861816406e+01 -1.006344032287597656e+01 1.197962403297424316e+00 2.581610202789306641e+00 1.133871793746948242e+00 -2.083743810653686523e+00
8.790000000000000000e+02 3.183112716674804688e+01 -8.096591949462890625e+00 5.240669846534729004e-01 1.200292706489562988e+00 5.173079371452331543e-01 -9.357143640518188477e-01
8.800000000000000000e+02 2.970006942749023438e+01 -6.578760623931884766e+00 1.105649113655090332e+00 6.356985092163085938e+00 2.238790273666381836e+00 -4.272853136062622070e-01
8.810000000000000000e+02 3.124027824401855469e+01 -6.877142429351806641e+00 5.127312541007995605e-01 1.601641297340393066e+00 6.343117356300354004e-01 -4.086307585239410400e-01
8.820000000000000000e+02 2.800252914428710938e+01 -1.047679996490478516e+01 5.438899993896484375e-01 8.335969924926757812e+00 2.663957834243774414e+00 -1.767585992813110352e+00
8.830000000000000000e+02 3.012764549255371094e+01 -4.512567520141601562e+00 4.835915863513946533e-01 6.699748992919921875e+00 2.155002117156982422e+00 4.983088076114654541e-01
8.840000000000000000e+02 2.912807655334472656e+01 -3.631462574005126953e+00 1.488932609558105469e+00 8.452330589294433594e+00 2.982378959655761719e+00 1.834114432334899902e+00
8.850000000000000000e+02 2.665304946899414062e+01 1.221989512443542480e+00 -5.955611467361450195e-01 -5.133267045021057129e-01 -3.326663672924041748e-01 -2.971628904342651367e+00
8.860000000000000000e+02 2.489912986755371094e+01 -3.087727546691894531e+00 3.065876960754394531e+00 8.760514259338378906e+00 3.547917366027832031e+00 -3.185904741287231445e+00
8.870000000000000000e+02 2.464708137512207031e+01 -4.861854553222656250e+00 3.673840284347534180e+00 1.301736736297607422e+01 5.007362365722656250e+00 -4.846528053283691406e+00
8.880000000000000000e+02 2.986931991577148438e+01 -2.336567401885986328e+00 8.281158208847045898e-01 1.224433803558349609e+01 3.921736001968383789e+00 3.015510082244873047e+00
8.890000000000000000e+02 2.863210868835449219e+01 -1.773318171501159668e+00 6.466360569000244141e+00 6.846447944641113281e+00 3.993842601776123047e+00 4.833003997802734375e+00
8.900000000000000000e+02 5.671165084838867188e+01 -1.853919029235839844e+01 2.604369163513183594e+00 1.168581485748291016e+01 4.287055015563964844e+00 9.556138515472412109e-01
8.910000000000000000e+02 5.737467575073242188e+01 -2.183118820190429688e+01 -1.834453642368316650e-01 6.843045711517333984e+00 1.997880101203918457e+00 4.087114334106445312e-01
8.920000000000000000e+02 4.756011962890625000e+01 4.681205749511718750e+00 1.313147544860839844e+00 2.395472764968872070e+00 1.112586140632629395e+00 1.460314393043518066e+00
8.930000000000000000e+02 4.486635208129882812e+01 3.360902309417724609e+00 4.273273348808288574e-01 1.059527754783630371e+00 4.460565149784088135e-01 8.077926635742187500e-01
8.940000000000000000e+02 4.779566955566406250e+01 -7.096022963523864746e-01 -9.262617826461791992e-01 1.588934779167175293e+00 1.988019049167633057e-01 4.020363330841064453e+00
8.950000000000000000e+02 4.665449523925781250e+01 -3.015648841857910156e+00 -1.719570994377136230e+00 9.903823733329772949e-01 -2.187565714120864868e-01 3.663406372070312500e+00
8.960000000000000000e+02 4.888094329833984375e+01 -1.000831723213195801e+00 -8.346455097198486328e-01 1.718842625617980957e+00 2.652591466903686523e-01 2.987168788909912109e+00
8.970000000000000000e+02 5.034469985961914062e+01 2.987384796142578125e-02 -1.272297948598861694e-01 4.668313026428222656e+00 1.362324953079223633e+00 1.762752056121826172e+00
8.980000000000000000e+02 4.393545150756835938e+01 2.406373977661132812e+00 -6.427944898605346680e-01 8.730695843696594238e-01 6.908252835273742676e-02 3.157550692558288574e-01
8.990000000000000000e+02 4.392034912109375000e+01 -1.022246837615966797e+00 -2.475374937057495117e+00 6.052948951721191406e+00 1.073272109031677246e+00 1.790453553199768066e+00
9.000000000000000000e+02 4.202367401123046875e+01 6.285701394081115723e-01 -5.073404312133789062e+00 -9.847324490547180176e-01 -1.817441105842590332e+00 -2.399108409881591797e+00
9.010000000000000000e+02 4.300496292114257812e+01 1.491437911987304688e+00 -2.870384454727172852e+00 -2.270921133458614349e-03 -8.617965579032897949e-01 -1.114145278930664062e+00
9.020000000000000000e+02 3.840609359741210938e+01 -2.177669286727905273e+00 -2.186458349227905273e+00 5.568106651306152344e+00 1.014494419097900391e+00 -3.900773763656616211e+00
9.030000000000000000e+02 3.875417327880859375e+01 -1.436568796634674072e-01 -1.034391447901725769e-01 6.269547939300537109e+00 1.849832653999328613e+00 -5.138964176177978516e+00
9.040000000000000000e+02 3.794458770751953125e+01 9.593395590782165527e-01 5.516692161560058594e+00 1.782903480529785156e+01 7.003718376159667969e+00 -4.369194030761718750e+00
9.050000000000000000e+02 3.816275787353515625e+01 3.787794113159179688e+00 3.336606979370117188e+00 1.563666248321533203e+01 5.691980838775634766e+00 5.387990474700927734e+00
9.060000000000000000e+02 6.623883819580078125e+01 -2.512722253799438477e+00 -7.683373451232910156e+00 -1.834354400634765625e+00 -2.855318307876586914e+00 3.284095287322998047e+00
9.070000000000000000e+02 6.817723846435546875e+01 -4.351984024047851562e+00 -2.441874980926513672e+00 1.943293958902359009e-01 -6.742636561393737793e-01 8.092300295829772949e-01
9.080000000000000000e+02 6.720836639404296875e+01 -3.376034975051879883e+00 -4.392559051513671875e+00 -7.939431071281433105e-01 -1.555950641632080078e+00 2.386191844940185547e+00
9.090000000000000000e+02 7.099652099609375000e+01 -5.716092586517333984e+00 -6.476235389709472656e-01 4.482864379882812500e+00 1.150572180747985840e+00 -1.018243551254272461e+00
9.100000000000000000e+02 7.161353302001953125e+01 -8.641848564147949219e+00 1.379367470741271973e+00 8.931974411010742188e+00 3.093402624130249023e+00 -2.730210542678833008e+00
9.110000000000000000e+02 7.239277648925781250e+01 -1.195101261138916016e+01 5.755463242530822754e-01 1.397239589691162109e+01 4.364382743835449219e+00 2.164407819509506226e-01
9.120000000000000000e+02 7.420875549316406250e+01 -1.176892280578613281e+01 1.255279660224914551e+00 1.049898529052734375e+01 3.526279449462890625e+00 9.496211409568786621e-01
9.130000000000000000e+02 7.489055633544921875e+01 -1.083942794799804688e+01 1.106488347053527832e+00 9.765954971313476562e+00 3.261733055114746094e+00 9.986132979393005371e-01
9.140000000000000000e+02 7.362631225585937500e+01 -1.269088077545166016e+01 1.218765377998352051e+00 1.152912998199462891e+01 3.824368715286254883e+00 9.574376344680786133e-01
9.150000000000000000e+02 6.912216186523437500e+01 -5.366563796997070312e+00 -7.492872476577758789e-01 1.203908324241638184e+00 1.363863199949264526e-01 -2.035924792289733887e-01
9.160000000000000000e+02 6.380104827880859375e+01 -9.576360702514648438e+00 6.544736027717590332e-01 8.124066352844238281e+00 2.633562088012695312e+00 -1.585070490837097168e+00
9.170000000000000000e+02 6.324052047729492188e+01 -6.879843711853027344e+00 3.641344308853149414e-01 1.265977954864501953e+01 3.907174348831176758e+00 -4.373860359191894531e-01
9.180000000000000000e+02 6.324395751953125000e+01 -4.013166427612304688e+00 3.129208326339721680e+00 1.620156288146972656e+01 5.799231529235839844e+00 3.793631076812744141e+00
9.190000000000000000e+02 5.568621826171875000e+01 -1.180471062660217285e+00 -1.657942652702331543e+00 5.265267848968505859e+00 1.082197546958923340e+00 -5.898500442504882812e+00
9.200000000000000000e+02 5.569411087036132812e+01 -3.123686552047729492e+00 -1.825150012969970703e+00 5.395812988281250000e+00 1.071198821067810059e+00 -3.758255720138549805e+00
9.210000000000000000e+02 6.308582687377929688e+01 -5.417201995849609375e+00 8.312489986419677734e-01 1.501646614074707031e+01 4.754314422607421875e+00 1.002924084663391113e+00
9.220000000000000000e+02 6.222750473022460938e+01 -3.320396661758422852e+00 1.049878120422363281e+00 9.487485885620117188e+00 3.161209106445312500e+00 7.210044264793395996e-01
9.230000000000000000e+02 6.040671539306640625e+01 1.368607044219970703e+00 -4.591974258422851562e+00 2.278768062591552734e+00 -6.939618587493896484e-01 3.509853407740592957e-02
9.240000000000000000e+02 5.979706573486328125e+01 2.383288383483886719e+00 -4.339771747589111328e+00 -4.648676514625549316e-01 -1.441391825675964355e+00 -2.113872766494750977e+00
9.250000000000000000e+02 6.434994506835937500e+01 -2.231659173965454102e+00 -2.310199975967407227e+00 6.489533901214599609e+00 1.253800034523010254e+00 5.458540439605712891e+00
9.260000000000000000e+02 6.320863723754882812e+01 -2.617633581161499023e+00 3.979510962963104248e-01 1.231599044799804688e+01 3.814182519912719727e+00 2.838894605636596680e+00
9.270000000000000000e+02 6.934307098388671875e+01 -1.546907067298889160e+00 -3.505236625671386719e+00 4.950065612792968750e+00 4.334486424922943115e-01 -1.975226521492004395e+00
9.280000000000000000e+02 6.693321990966796875e+01 6.963150978088378906e+00 -4.728726446628570557e-01 1.108750534057617188e+01 3.184389829635620117e+00 -8.797146081924438477e-01
9.290000000000000000e+02 6.591597747802734375e+01 1.166635990142822266e+01 2.760834217071533203e+00 2.101555061340332031e+01 7.132915496826171875e+00 -1.038420677185058594e+00
9.300000000000000000e+02 6.584877014160156250e+01 1.032235908508300781e+01 1.376329898834228516e+00 1.885481262207031250e+01 6.069343090057373047e+00 2.518689870834350586e+00
9.310000000000000000e+02 6.277723693847656250e+01 1.623670005798339844e+01 7.778502702713012695e-01 2.252748966217041016e+00 9.091797471046447754e-01 -1.598625898361206055e+00
9.320000000000000000e+02 6.203690719604492188e+01 1.755589675903320312e+01 1.131029248237609863e+00 2.930356025695800781e+00 1.218415617942810059e+00 -6.007963418960571289e-01
9.330000000000000000e+02 6.004219055175781250e+01 1.908343505859375000e+01 1.094487667083740234e+00 3.547027826309204102e+00 1.392454624176025391e+00 5.203806757926940918e-01
9.340000000000000000e+02 6.575160980224609375e+00 1.041146564483642578e+01 -3.771947622299194336e-01 1.546701550483703613e+00 3.508520424365997314e-01 -1.328842639923095703e+00
9.350000000000000000e+02 3.925996541976928711e+00 5.396767616271972656e+00 1.132435441017150879e+00 -5.214501619338989258e-01 1.832955628633499146e-01 -1.124481391161680222e-02
9.360000000000000000e+02 6.997179985046386719e+00 7.736495971679687500e+00 9.831900596618652344e-01 1.624016761779785156e+00 7.821620702743530273e-01 -2.167389869689941406e+00
9.370000000000000000e+02 5.792231559753417969e+00 1.887563109397888184e+00 -7.642077803611755371e-01 -2.555772066116333008e-01 -3.059355020523071289e-01 1.198188543319702148e+00
9.380000000000000000e+02 1.887450408935546875e+01 6.294682025909423828e+00 1.118033885955810547e+00 -2.458117157220840454e-01 2.616666555404663086e-01 -9.546515345573425293e-01
9.390000000000000000e+02 1.938271903991699219e+01 8.706932067871093750e+00 -5.788114547729492188e+00 -2.648506402969360352e+00 -2.530986309051513672e+00 -4.134051799774169922e+00
9.400000000000000000e+02 1.469909667968750000e+01 5.615622520446777344e+00 -2.933699607849121094e+00 -1.873935103416442871e+00 -1.442290425300598145e+00 -4.054652214050292969e+00
9.410000000000000000e+02 2.150045204162597656e+01 1.048931121826171875e+01 -4.210381507873535156e+00 4.615831077098846436e-01 -1.124639511108398438e+00 -2.015396356582641602e+00
9.420000000000000000e+02 2.258357429504394531e+01 1.132093429565429688e+01 -2.443305492401123047e+00 1.894943475723266602e+00 -1.645085960626602173e-01 4.282388091087341309e-01
9.430000000000000000e+02 2.611896514892578125e+01 1.034516716003417969e+01 -3.534180641174316406e+00 5.745461940765380859e+00 6.633844375610351562e-01 8.414482474327087402e-01
9.440000000000000000e+02 7.930467987060546875e+01 1.382624053955078125e+01 -5.520432814955711365e-02 7.504497528076171875e+00 2.234787940979003906e+00 -1.712926924228668213e-01
9.450000000000000000e+02 7.635239410400390625e+01 1.250876426696777344e+01 -2.789237201213836670e-01 7.410802841186523438e+00 2.139563798904418945e+00 -1.447755575180053711e+00
9.460000000000000000e+02 5.409983062744140625e+01 1.674130249023437500e+01 6.442891955375671387e-01 7.066493511199951172e+00 2.313234806060791016e+00 2.144472360610961914e+00
9.470000000000000000e+02 3.174005699157714844e+01 1.758622932434082031e+01 -5.181541442871093750e-01 -1.428396999835968018e-01 -1.982981562614440918e-01 7.637127041816711426e-01
9.480000000000000000e+02 2.991413116455078125e+01 1.419336986541748047e+01 -1.144905924797058105e+00 -3.685251772403717041e-01 -4.540293216705322266e-01 -8.369790315628051758e-01
9.490000000000000000e+02 8.756926536560058594e+00 -1.857323646545410156e+00 -1.525777876377105713e-01 2.947237528860569000e-02 -3.693162277340888977e-02 -3.373256698250770569e-02
9.500000000000000000e+02 5.278530597686767578e+00 -5.652485847473144531e+00 -5.892974138259887695e-02 -3.075512312352657318e-02 -2.690545842051506042e-02 -1.247321814298629761e-01
9.510000000000000000e+02 9.213439941406250000e+00 -5.764011383056640625e+00 -1.432220488786697388e-01 6.459843367338180542e-02 -2.358708530664443970e-02 -1.276119798421859741e-01
9.520000000000000000e+02 1.629404067993164062e+01 -7.162795066833496094e+00 -4.386709034442901611e-01 1.743953973054885864e-01 -7.928265631198883057e-02 3.053371794521808624e-02
9.530000000000000000e+02 1.331625080108642578e+01 -5.358352184295654297e+00 -3.375878036022186279e-01 1.406243592500686646e-01 -5.908903107047080994e-02 -1.646750490181148052e-03
9.540000000000000000e+02 2.744349956512451172e+00 -2.621107101440429688e+00 -3.073490038514137268e-02 -2.022326365113258362e-02 -1.528744865208864212e-02 -4.014747217297554016e-02
9.550000000000000000e+02 4.351996421813964844e+00 -1.049026489257812500e+01 -3.085476346313953400e-03 -1.283262968063354492e-01 -3.942352905869483948e-02 -1.631784737110137939e-01
9.560000000000000000e+02 6.641178607940673828e+00 -8.960427284240722656e+00 -3.677374869585037231e-02 -9.622223675251007080e-03 -1.391879096627235413e-02 -1.827935725450515747e-01
9.570000000000000000e+02 1.695363235473632812e+01 -1.083342170715332031e+01 1.422531753778457642e-01 2.600107192993164062e-01 1.206791698932647705e-01 -4.869846254587173462e-02
9.580000000000000000e+02 1.156186008453369141e+01 -8.950811386108398438e+00 -9.863527119159698486e-02 1.858049184083938599e-01 2.615089528262615204e-02 -1.852128505706787109e-01
9.590000000000000000e+02 1.771811723709106445e+00 -7.903837680816650391e+00 -8.389757014811038971e-03 -1.623415350914001465e-01 -5.121938511729240417e-02 -7.837890833616256714e-02
9.600000000000000000e+02 4.456638813018798828e+00 -1.183164882659912109e+01 1.459521986544132233e-02 -1.568319350481033325e-01 -4.267101362347602844e-02 -1.576714068651199341e-01
9.610000000000000000e+02 9.964635848999023438e+00 -1.322692680358886719e+01 1.147283911705017090e-01 1.523069590330123901e-01 8.011060208082199097e-02 -1.512003093957901001e-01
9.620000000000000000e+02 1.636765670776367188e+01 -1.424720573425292969e+01 4.677804708480834961e-01 6.281706094741821289e-01 3.287853300571441650e-01 2.490239441394805908e-01
9.630000000000000000e+02 1.239160728454589844e+01 -1.221401405334472656e+01 1.239792779088020325e-01 3.007963299751281738e-01 1.274326890707015991e-01 -1.243619322776794434e-01
9.640000000000000000e+02 1.925199508666992188e+01 -1.106403255462646484e+01 6.191565394401550293e-01 2.346588373184204102e-01 2.561446130275726318e-01 2.330840378999710083e-01
9.650000000000000000e+02 4.860920429229736328e+00 -1.738444519042968750e+01 5.559100583195686340e-02 -1.955887526273727417e-01 -4.199932515621185303e-02 -9.173253923654556274e-02
9.660000000000000000e+02 7.654108047485351562e+00 -1.820749092102050781e+01 1.219247281551361084e-01 6.785400956869125366e-02 5.693362280726432800e-02 -5.020553618669509888e-02
9.670000000000000000e+02 1.279090881347656250e+01 -1.789860725402832031e+01 2.727282643318176270e-01 5.222592353820800781e-01 2.384962588548660278e-01 9.813842177391052246e-02
9.680000000000000000e+02 1.113946628570556641e+01 -1.846800041198730469e+01 2.055616378784179688e-01 4.221560955047607422e-01 1.883153170347213745e-01 4.246941208839416504e-02
9.690000000000000000e+02 2.161611366271972656e+01 -1.216141414642333984e+01 9.649645686149597168e-01 1.624983191490173340e+00 7.769843339920043945e-01 1.443772554397583008e+00
9.700000000000000000e+02 2.686812973022460938e+01 -1.350250148773193359e+01 -5.542619824409484863e-01 5.865129470825195312e+00 1.593260169029235840e+00 -4.712218046188354492e-01
9.710000000000000000e+02 5.207645893096923828e+00 -2.015151596069335938e+01 5.618206411600112915e-02 -1.618831455707550049e-01 -3.171032667160034180e-02 -3.803193196654319763e-02
9.720000000000000000e+02 8.883350372314453125e+00 -2.011121940612792969e+01 1.269827336072921753e-01 2.233798503875732422e-01 1.051087751984596252e-01 -7.959425449371337891e-03
9.730000000000000000e+02 1.644517326354980469e+01 -1.599565982818603516e+01 4.652838408946990967e-01 9.592066407203674316e-01 4.273471534252166748e-01 3.915085196495056152e-01
9.740000000000000000e+02 2.777253532409667969e+01 -1.709469604492187500e+01 -5.284826159477233887e-01 4.582845687866210938e+00 1.216308951377868652e+00 -4.922368824481964111e-01
9.750000000000000000e+02 2.932982444763183594e+01 -1.625843811035156250e+01 -3.859754800796508789e-01 4.383365154266357422e+00 1.199216842651367188e+00 -1.027638316154479980e+00
9.760000000000000000e+02 5.991746902465820312e+01 -1.579783344268798828e+01 8.590566515922546387e-01 7.926301956176757812e+00 2.635607719421386719e+00 2.898759767413139343e-02
9.770000000000000000e+02 6.295926666259765625e+01 -1.645977973937988281e+01 -3.807620331645011902e-02 5.390924930572509766e+00 1.605854630470275879e+00 -9.206605553627014160e-01
9.780000000000000000e+02 6.311652374267578125e+01 -2.128683853149414062e+01 5.233922004699707031e-01 5.312912464141845703e+00 1.750891327857971191e+00 -1.065467000007629395e+00
9.790000000000000000e+02 6.389683532714843750e+01 -2.010963439941406250e+01 5.536824464797973633e-01 4.737061500549316406e+00 1.587223172187805176e+00 -1.217682600021362305e+00
9.800000000000000000e+02 6.834431457519531250e+01 -1.942065238952636719e+01 9.195976257324218750e-01 2.690162658691406250e+00 1.082928061485290527e+00 4.031310677528381348e-01
9.810000000000000000e+02 7.032075500488281250e+01 -1.985111427307128906e+01 1.626904755830764771e-01 4.816161632537841797e+00 1.493655681610107422e+00 1.593326210975646973e+00
9.820000000000000000e+02 7.508239746093750000e+01 -1.940504837036132812e+01 -7.633414864540100098e-01 7.802556037902832031e+00 2.111764430999755859e+00 2.551618218421936035e-01
9.830000000000000000e+02 6.758621215820312500e+01 -1.621955871582031250e+01 -1.520970821380615234e+00 7.358914613723754883e-01 -2.355238199234008789e-01 -2.883948087692260742e-01
9.840000000000000000e+02 6.156873703002929688e+01 -1.013285255432128906e+01 -2.191558293998241425e-02 8.539092063903808594e+00 2.555153131484985352e+00 1.012507557868957520e+00
9.850000000000000000e+02 5.743470001220703125e+01 -6.723361968994140625e+00 1.005107313394546509e-01 6.247111320495605469e+00 1.904286623001098633e+00 -2.337580323219299316e-01
9.860000000000000000e+02 5.718556976318359375e+01 -9.870215415954589844e+00 4.318471848964691162e-01 7.915496349334716797e+00 2.504203081130981445e+00 1.842513680458068848e-01
9.870000000000000000e+02 7.356649398803710938e+00 -2.230838394165039062e+01 9.051131457090377808e-02 1.240796148777008057e-01 6.437727808952331543e-02 2.758510783314704895e-02
9.880000000000000000e+02 1.557857990264892578e+01 -2.155263519287109375e+01 1.815559715032577515e-01 1.223219037055969238e+00 4.214324951171875000e-01 3.069671392440795898e-01
9.890000000000000000e+02 2.065310668945312500e+01 -1.920232582092285156e+01 8.209719508886337280e-02 2.288726329803466797e+00 7.112470865249633789e-01 6.441007852554321289e-01
9.900000000000000000e+02 2.238597869873046875e+01 -1.816366958618164062e+01 -8.830201812088489532e-03 2.754329681396484375e+00 8.236498832702636719e-01 7.104389667510986328e-01
9.910000000000000000e+02 2.891629409790039062e+01 -1.981983566284179688e+01 -2.063976228237152100e-01 3.787098169326782227e+00 1.074210166931152344e+00 -4.435581266880035400e-01
9.920000000000000000e+02 3.358543777465820312e+01 -2.125997543334960938e+01 2.565348148345947266e-01 3.275973796844482422e+00 1.059752583503723145e+00 -3.368750214576721191e-01
9.930000000000000000e+02 4.174479293823242188e+01 -2.097503280639648438e+01 -5.427740812301635742e-01 5.280187129974365234e+00 1.421223878860473633e+00 -9.333710372447967529e-02
9.940000000000000000e+02 4.346636962890625000e+01 -2.108829116821289062e+01 -1.941625028848648071e-01 5.348281383514404297e+00 1.546235680580139160e+00 -9.515689611434936523e-01
9.950000000000000000e+02 4.630110931396484375e+01 -1.807677078247070312e+01 2.542366087436676025e-01 3.834623813629150391e+00 1.226658105850219727e+00 -1.468399405479431152e+00
9.960000000000000000e+02 5.511537170410156250e+01 -2.135343742370605469e+01 3.863933682441711426e-01 6.057709693908691406e+00 1.933230996131896973e+00 2.692357778549194336e+00
9.970000000000000000e+02 6.832530212402343750e+01 -2.471691322326660156e+01 6.233078837394714355e-01 4.986911296844482422e+00 1.683065772056579590e+00 1.648837476968765259e-01
9.980000000000000000e+02 6.657116699218750000e+01 -2.248108291625976562e+01 7.804578542709350586e-01 4.421716690063476562e+00 1.560652375221252441e+00 -3.149368166923522949e-01
9.990000000000000000e+02 7.178533172607421875e+01 -2.257508850097656250e+01 8.508865535259246826e-02 5.896423339843750000e+00 1.794453501701354980e+00 8.686918020248413086e-01
1.000000000000000000e+03 7.513457489013671875e+01 -2.318400001525878906e+01 -2.238907814025878906e-01 6.806671142578125000e+00 1.974834084510803223e+00 4.019108712673187256e-01
1.001000000000000000e+03 6.374916553497314453e+00 -2.626448631286621094e+01 1.968289911746978760e-02 5.469522252678871155e-02 2.231343649327754974e-02 7.372944056987762451e-02
1.002000000000000000e+03 1.426765537261962891e+01 -3.114618682861328125e+01 -5.358804762363433838e-02 1.160573124885559082e+00 3.320955336093902588e-01 1.581139564514160156e-01
1.003000000000000000e+03 7.971681594848632812e+00 -2.738177299499511719e+01 1.955900527536869049e-02 2.700948715209960938e-01 8.689615875482559204e-02 8.902881294488906860e-02
1.004000000000000000e+03 2.030916404724121094e+01 -2.510851097106933594e+01 -9.488179534673690796e-02 2.191964149475097656e+00 6.291247010231018066e-01 2.752760350704193115e-01
1.005000000000000000e+03 3.593217086791992188e+01 -2.255298995971679688e+01 3.966048955917358398e-01 3.629570007324218750e+00 1.207852482795715332e+00 -1.036876626312732697e-02
1.006000000000000000e+03 4.359655380249023438e+01 -2.308427047729492188e+01 -3.380179107189178467e-01 4.528642177581787109e+00 1.257187247276306152e+00 -7.466236352920532227e-01
1.007000000000000000e+03 6.083421707153320312e+01 -2.129077720642089844e+01 1.875747293233871460e-01 6.494277000427246094e+00 2.004555463790893555e+00 -9.220367074012756348e-01
1.008000000000000000e+03 6.944815826416015625e+01 -2.723048973083496094e+01 4.022273123264312744e-01 5.478418350219726562e+00 1.764193654060363770e+00 1.875174790620803833e-01
1.009000000000000000e+03 1.234224033355712891e+01 -3.283993911743164062e+01 -5.081905052065849304e-02 9.071644544601440430e-01 2.569036185741424561e-01 1.231409832835197449e-01
1.010000000000000000e+03 8.311944961547851562e+00 -2.989501762390136719e+01 -4.484986886382102966e-03 3.111258447170257568e-01 9.199225902557373047e-02 9.233865886926651001e-02
1.011000000000000000e+03 1.620428848266601562e+01 -3.011855125427246094e+01 -6.631503999233245850e-02 1.437629461288452148e+00 4.113943278789520264e-01 1.726754456758499146e-01
1.012000000000000000e+03 2.568452835083007812e+01 -2.871011352539062500e+01 -2.318447530269622803e-01 2.828919172286987305e+00 7.791223526000976562e-01 7.237861305475234985e-02
1.013000000000000000e+03 4.126029586791992188e+01 -2.762692642211914062e+01 -2.407398633658885956e-02 4.165060997009277344e+00 1.242296099662780762e+00 -3.260043859481811523e-01
1.014000000000000000e+03 4.525896072387695312e+01 -2.930676269531250000e+01 4.089870303869247437e-02 4.008200645446777344e+00 1.214729905128479004e+00 -3.697335124015808105e-01
1.015000000000000000e+03 4.804736328125000000e+01 -3.027348899841308594e+01 2.473323792219161987e-01 4.054893016815185547e+00 1.290667653083801270e+00 -2.673233747482299805e-01
1.016000000000000000e+03 5.121366119384765625e+01 -2.841413307189941406e+01 4.087410271167755127e-01 4.075316905975341797e+00 1.345217466354370117e+00 -1.150251846411265433e-04
1.017000000000000000e+03 5.539781570434570312e+01 -2.905751609802246094e+01 8.574671298265457153e-02 4.886135578155517578e+00 1.491564750671386719e+00 2.506024539470672607e-01
1.018000000000000000e+03 5.857629013061523438e+01 -2.947940254211425781e+01 4.108813777565956116e-02 5.228204727172851562e+00 1.580787897109985352e+00 3.728071600198745728e-02
1.019000000000000000e+03 6.154313278198242188e+01 -2.878640556335449219e+01 4.382859915494918823e-03 5.487034797668457031e+00 1.647425293922424316e+00 -1.976607143878936768e-01
1.020000000000000000e+03 6.375828170776367188e+01 -2.742127990722656250e+01 2.874338626861572266e-01 5.365738391876220703e+00 1.695951700210571289e+00 -3.020493686199188232e-01
1.021000000000000000e+03 7.583252716064453125e+01 -3.107915306091308594e+01 3.687332570552825928e-02 6.528541088104248047e+00 1.969624280929565430e+00 1.629883795976638794e-01
1.022000000000000000e+03 7.352948760986328125e+01 -3.058868789672851562e+01 1.270051598548889160e-01 6.249775409698486328e+00 1.913034200668334961e+00 2.237836122512817383e-01
1.023000000000000000e+03 2.250121831893920898e+00 -2.904284095764160156e+01 4.493095446377992630e-03 -4.562517404556274414e-01 -1.355275958776473999e-01 1.841505616903305054e-02
1.024000000000000000e+03 4.317621231079101562e+00 -3.505597305297851562e+01 -2.079637022688984871e-03 -1.509435325860977173e-01 -4.590694978833198547e-02 2.863456867635250092e-02
1.025000000000000000e+03 1.416524600982666016e+01 -3.480272293090820312e+01 -8.743635565042495728e-02 1.229440927505493164e+00 3.426013588905334473e-01 1.072240248322486877e-01
1.026000000000000000e+03 6.193913269042968750e+01 -3.319184112548828125e+01 9.110488742589950562e-02 5.319051265716552734e+00 1.623046875000000000e+00 -5.880592390894889832e-02
1.027000000000000000e+03 6.580989837646484375e+01 -3.214347076416015625e+01 1.702061146497726440e-01 5.510480403900146484e+00 1.704205989837646484e+00 -6.106403097510337830e-02
1.028000000000000000e+03 2.238732337951660156e+00 -3.039820098876953125e+01 -8.360451902262866497e-04 -4.473497867584228516e-01 -1.344557404518127441e-01 2.653826586902141571e-02
1.029000000000000000e+03 6.558218955993652344e+00 -3.609365081787109375e+01 -1.701950654387474060e-02 1.549366414546966553e-01 4.137513786554336548e-02 3.780751302838325500e-02
1.030000000000000000e+03 2.583178758621215820e+00 -3.556933975219726562e+01 1.490302267484366894e-03 -3.474506437778472900e-01 -1.037881001830101013e-01 3.543834760785102844e-02
1.031000000000000000e+03 6.094918060302734375e+01 -3.854828643798828125e+01 9.092594683170318604e-02 5.232051372528076172e+00 1.596893191337585449e+00 2.059859223663806915e-03
1.032000000000000000e+03 7.827403259277343750e+01 -1.114258670806884766e+01 2.816797494888305664e-01 7.573226451873779297e+00 2.356471776962280273e+00 6.774367690086364746e-01
1.033000000000000000e+03 7.301699066162109375e+01 -1.089580535888671875e+01 1.013588428497314453e+00 1.235780429840087891e+01 4.011417865753173828e+00 2.908758819103240967e-02
1.034000000000000000e+03 7.335285949707031250e+01 -7.329288482666015625e+00 -5.620446428656578064e-02 7.987643718719482422e+00 2.379431724548339844e+00 6.380485296249389648e-01
1.035000000000000000e+03 7.176387023925781250e+01 -6.852621555328369141e+00 -2.913413047790527344e-01 6.392817497253417969e+00 1.830442905426025391e+00 -1.051846623420715332e+00
1.036000000000000000e+03 7.830130767822265625e+01 -5.767183303833007812e+00 -2.398462779819965363e-02 9.952070236206054688e+00 2.978425741195678711e+00 1.231177210807800293e+00
1.037000000000000000e+03 7.524420928955078125e+01 -2.657038450241088867e+00 -4.237973690032958984e-01 6.550284862518310547e+00 1.837946295738220215e+00 8.080147504806518555e-01
1.038000000000000000e+03 7.124925994873046875e+01 -3.822223186492919922e+00 -1.714966297149658203e+00 4.627098560333251953e+00 8.736395835876464844e-01 -1.287981867790222168e+00
1.039000000000000000e+03 6.923086547851562500e+01 -3.486197948455810547e+00 -3.082889556884765625e+00 3.048066616058349609e+00 -1.044688653200864792e-02 -4.739400446414947510e-01
1.040000000000000000e+03 7.801815795898437500e+01 -4.406931400299072266e+00 2.386209927499294281e-02 1.020951366424560547e+01 3.070012807846069336e+00 1.368053078651428223e+00
1.041000000000000000e+03 7.275026702880859375e+01 -6.230163574218750000e+00 -5.245361328125000000e-01 7.006973743438720703e+00 1.944731354713439941e+00 1.919388188980519772e-03
1.042000000000000000e+03 6.769784545898437500e+01 -5.106580853462219238e-01 -3.162804365158081055e+00 4.846605300903320312e+00 5.051403045654296875e-01 3.881927132606506348e-01
1.043000000000000000e+03 5.961794281005859375e+01 -4.075039863586425781e+00 1.263255476951599121e+00 5.902401447296142578e+00 2.149697065353393555e+00 -2.247852087020874023e-01
1.044000000000000000e+03 6.404482269287109375e+01 -7.629438042640686035e-01 -3.939591169357299805e+00 6.854526519775390625e+00 8.744806051254272461e-01 5.219437122344970703e+00
1.045000000000000000e+03 6.270647811889648438e+01 5.237812519073486328e+00 3.739215433597564697e-01 2.115671157836914062e+00 7.468778491020202637e-01 1.055013775825500488e+00
1.046000000000000000e+03 5.328813552856445312e+01 -5.906384944915771484e+00 -1.555717825889587402e+00 3.595269680023193359e+00 6.118655800819396973e-01 -7.346046566963195801e-01
1.047000000000000000e+03 5.325765228271484375e+01 -4.059483051300048828e+00 -3.649483203887939453e+00 5.048682212829589844e+00 4.197597205638885498e-01 -1.644651889801025391e+00
1.048000000000000000e+03 4.033974075317382812e+01 -4.647234916687011719e+00 1.112908005714416504e+00 3.621184587478637695e+00 1.420227766036987305e+00 -1.273466587066650391e+00
1.049000000000000000e+03 3.935089492797851562e+01 -3.514401674270629883e+00 -7.928994297981262207e-01 2.837766170501708984e+00 6.134600639343261719e-01 -3.025434494018554688e+00
1.050000000000000000e+03 5.655970382690429688e+01 -5.948093414306640625e+00 -3.899457156658172607e-01 5.668200492858886719e+00 1.583476424217224121e+00 -9.718596339225769043e-01
1.051000000000000000e+03 6.182648468017578125e+01 -5.725322723388671875e+00 1.708358764648437500e+00 1.056657791137695312e+01 3.682481050491333008e+00 1.850883960723876953e+00
1.052000000000000000e+03 6.517399597167968750e+01 -2.675931155681610107e-01 -1.415743350982666016e+00 4.453579902648925781e+00 9.113510251045227051e-01 5.081754207611083984e+00
1.053000000000000000e+03 7.830049896240234375e+01 1.295825362205505371e+00 -8.192989230155944824e-01 1.218712329864501953e+01 3.410347461700439453e+00 -1.086419582366943359e+00
1.054000000000000000e+03 7.582781982421875000e+01 3.495369434356689453e+00 1.765299439430236816e-01 1.101427745819091797e+01 3.357242107391357422e+00 2.776619493961334229e-01
1.055000000000000000e+03 7.702174377441406250e+01 2.381186723709106445e+00 -1.487346649169921875e+00 1.137280368804931641e+01 2.965636968612670898e+00 -1.910358905792236328e+00
1.056000000000000000e+03 7.666847991943359375e+01 6.905589580535888672e+00 2.682297468185424805e+00 1.570033645629882812e+01 5.514790058135986328e+00 -2.507520914077758789e+00
1.057000000000000000e+03 6.731903076171875000e+01 9.609847068786621094e+00 4.576966762542724609e-01 1.320370197296142578e+01 4.098419666290283203e+00 -5.053735971450805664e-01
1.058000000000000000e+03 6.896157836914062500e+01 9.612430572509765625e+00 3.256660699844360352e-02 8.809073448181152344e+00 2.652492046356201172e+00 2.619191706180572510e-01
1.059000000000000000e+03 7.149435424804687500e+01 9.009124755859375000e+00 -3.469605684280395508e+00 -3.729626536369323730e-01 -1.152770519256591797e+00 -1.195264577865600586e+00
1.060000000000000000e+03 7.838662719726562500e+01 1.096441936492919922e+01 -4.336248040199279785e-01 8.029727935791015625e+00 2.278831005096435547e+00 2.247195094823837280e-01
1.061000000000000000e+03 7.918956756591796875e+01 1.674736595153808594e+01 5.601522512733936310e-03 6.936896324157714844e+00 2.082749366760253906e+00 -1.315400153398513794e-01
1.062000000000000000e+03 7.619976043701171875e+01 1.524093151092529297e+01 3.702422678470611572e-01 6.419033527374267578e+00 2.036782741546630859e+00 -7.288165092468261719e-01
1.063000000000000000e+03 6.344514465332031250e+01 2.126154708862304688e+01 6.057529449462890625e-01 4.770666122436523438e+00 1.612925767898559570e+00 -4.719354212284088135e-01
1.064000000000000000e+03 5.326543807983398438e+01 2.237976646423339844e+01 -2.640494108200073242e-01 5.728698253631591797e+00 1.639394640922546387e+00 5.977530479431152344e-01
1.065000000000000000e+03 5.690170669555664062e+01 1.959299850463867188e+01 6.505621671676635742e-01 4.778386116027832031e+00 1.628684401512145996e+00 1.556279778480529785e+00
1.066000000000000000e+03 5.234133529663085938e+01 1.614203262329101562e+01 6.024220213294029236e-02 9.754795074462890625e+00 2.944511175155639648e+00 1.540990233421325684e+00
1.067000000000000000e+03 4.115808486938476562e+01 1.694375419616699219e+01 -1.128791689872741699e+00 5.109374046325683594e+00 1.194174647331237793e+00 1.517735123634338379e+00
1.068000000000000000e+03 3.550277709960937500e+01 1.782984542846679688e+01 -5.203459262847900391e-01 1.445845007896423340e+00 2.776497304439544678e-01 -1.144813537597656250e+00
1.069000000000000000e+03 3.260734176635742188e+01 2.083410644531250000e+01 -9.489782899618148804e-02 1.346762299537658691e+00 3.755593299865722656e-01 2.212552875280380249e-01
1.070000000000000000e+03 2.656662368774414062e+01 2.097225952148437500e+01 -1.652098059654235840e+00 4.120550155639648438e+00 7.405356168746948242e-01 1.399620026350021362e-01
1.071000000000000000e+03 7.805748748779296875e+01 2.090046119689941406e+01 1.057226583361625671e-02 6.655161857604980469e+00 1.999720215797424316e+00 3.700792323797941208e-03
1.072000000000000000e+03 7.535214233398437500e+01 2.210310554504394531e+01 6.051404029130935669e-02 6.596088409423828125e+00 1.996980786323547363e+00 3.719748184084892273e-02
1.073000000000000000e+03 5.271746063232421875e+01 2.409387969970703125e+01 -2.232677489519119263e-01 5.486072063446044922e+00 1.578841328620910645e+00 3.714569807052612305e-01
1.074000000000000000e+03 5.558378982543945312e+01 2.427178001403808594e+01 -3.428960591554641724e-02 5.357184410095214844e+00 1.596868515014648438e+00 6.265799403190612793e-01
1.075000000000000000e+03 4.924456024169921875e+01 2.188308525085449219e+01 -2.187624722719192505e-01 5.226666927337646484e+00 1.502371311187744141e+00 -1.879960149526596069e-01
1.076000000000000000e+03 4.701951599121093750e+01 2.092852592468261719e+01 2.756213545799255371e-01 4.102502822875976562e+00 1.313437223434448242e+00 -2.835075855255126953e-01
1.077000000000000000e+03 4.542300033569335938e+01 2.130524635314941406e+01 7.289484888315200806e-02 4.087882995605468750e+00 1.248233318328857422e+00 4.749039933085441589e-02
1.078000000000000000e+03 4.036870193481445312e+01 2.170763587951660156e+01 -6.577037572860717773e-01 3.740215063095092773e+00 9.247534275054931641e-01 -1.021278277039527893e-01
1.079000000000000000e+03 3.703383636474609375e+01 2.189615249633789062e+01 -4.159213006496429443e-01 2.727224349975585938e+00 6.933909058570861816e-01 -5.109730958938598633e-01
1.080000000000000000e+03 3.166269874572753906e+01 2.344738769531250000e+01 -3.618167042732238770e-01 2.109750032424926758e+00 5.243799686431884766e-01 2.443430423736572266e-01
1.081000000000000000e+03 2.606027984619140625e+01 2.539765930175781250e+01 -6.337031722068786621e-01 2.100423336029052734e+00 4.400160312652587891e-01 -3.133451342582702637e-01
1.082000000000000000e+03 2.775966072082519531e+01 2.364926338195800781e+01 -9.294049739837646484e-01 2.746302843093872070e+00 5.450693368911743164e-01 1.328120231628417969e-01
1.083000000000000000e+03 2.043548202514648438e+01 2.148727989196777344e+01 -6.284604072570800781e-01 4.216761291027069092e-01 -6.203528121113777161e-02 -6.842998266220092773e-01
1.084000000000000000e+03 1.455273437500000000e+01 2.175494384765625000e+01 -5.155246853828430176e-01 3.665030300617218018e-01 -4.470649734139442444e-02 2.032556012272834778e-02
1.085000000000000000e+03 6.128756999969482422e+00 2.062280273437500000e+01 -2.782559990882873535e-01 1.211224198341369629e+00 2.798904478549957275e-01 3.637720644474029541e-02
1.086000000000000000e+03 6.458753347396850586e-01 2.056596946716308594e+01 2.371311374008655548e-02 1.971967697143554688e+00 5.987042188644409180e-01 8.802562369965016842e-04
1.087000000000000000e+03 7.934640502929687500e+01 2.365135383605957031e+01 2.615619823336601257e-02 6.686895370483398438e+00 2.013915300369262695e+00 1.849435456097126007e-02
1.088000000000000000e+03 7.666109466552734375e+01 2.349362945556640625e+01 2.368689142167568207e-02 6.635559082031250000e+00 1.997773766517639160e+00 4.741948097944259644e-02
1.089000000000000000e+03 7.075917816162109375e+01 2.486057472229003906e+01 -2.399565884843468666e-03 6.391298294067382812e+00 1.916669607162475586e+00 -3.305116551928222179e-04
1.090000000000000000e+03 5.011145019531250000e+01 2.380148124694824219e+01 -2.895012199878692627e-01 5.360806465148925781e+00 1.521391510963439941e+00 -7.331403344869613647e-02
1.091000000000000000e+03 4.761319732666015625e+01 2.268002700805664062e+01 -9.555586427450180054e-02 4.815341472625732422e+00 1.415935635566711426e+00 -2.948012351989746094e-01
1.092000000000000000e+03 4.018458938598632812e+01 2.338958740234375000e+01 -4.321876466274261475e-01 3.505203008651733398e+00 9.219046235084533691e-01 -2.433142066001892090e-01
1.093000000000000000e+03 3.666943359375000000e+01 2.706134796142578125e+01 -2.158135771751403809e-01 2.882291555404663086e+00 7.999433875083923340e-01 -1.923453807830810547e-01
1.094000000000000000e+03 3.152492904663085938e+01 2.623945617675781250e+01 -2.616735994815826416e-01 2.245270013809204102e+00 5.950788855552673340e-01 3.224971890449523926e-02
1.095000000000000000e+03 2.422006797790527344e+01 2.689211654663085938e+01 -4.152227044105529785e-01 1.776237010955810547e+00 4.083043038845062256e-01 -3.584948778152465820e-01
1.096000000000000000e+03 2.825420379638671875e+01 2.820998382568359375e+01 -3.306682407855987549e-01 2.120693922042846680e+00 5.370077490806579590e-01 -1.173794195055961609e-01
1.097000000000000000e+03 1.619637680053710938e+01 2.498452568054199219e+01 -1.447157412767410278e-01 5.579335093498229980e-01 1.239653229713439941e-01 -1.082350835204124451e-01
1.098000000000000000e+03 1.261873817443847656e+01 2.560356521606445312e+01 -1.173089742660522461e-01 6.628116369247436523e-01 1.636507958173751831e-01 1.355851739645004272e-01
1.099000000000000000e+03 8.338109970092773438e+00 2.673815155029296875e+01 -3.480945527553558350e-02 9.829016923904418945e-01 2.844276726245880127e-01 2.373779118061065674e-01
1.100000000000000000e+03 4.460030555725097656e+00 2.319305229187011719e+01 -1.169602423906326294e-01 1.359700560569763184e+00 3.728221058845520020e-01 1.383200585842132568e-01
1.101000000000000000e+03 6.366335153579711914e-01 2.338625335693359375e+01 2.641357481479644775e-02 1.881896495819091797e+00 5.724930167198181152e-01 3.224853053689002991e-02
1.102000000000000000e+03 7.932617950439453125e+01 2.778758811950683594e+01 -1.788045093417167664e-02 6.783780097961425781e+00 2.029769897460937500e+00 1.517246197909116745e-02
1.103000000000000000e+03 7.510654449462890625e+01 2.602411270141601562e+01 -1.953163370490074158e-02 6.590407371520996094e+00 1.971262693405151367e+00 6.182217597961425781e-02
1.104000000000000000e+03 7.172313690185546875e+01 3.041956901550292969e+01 -1.838819496333599091e-02 6.352253437042236328e+00 1.900159597396850586e+00 1.888249255716800690e-02
1.105000000000000000e+03 6.464817047119140625e+01 3.117315673828125000e+01 3.747554123401641846e-02 5.705504894256591797e+00 1.722894072532653809e+00 5.305692180991172791e-02
1.106000000000000000e+03 5.087982177734375000e+01 2.991610717773437500e+01 -2.555641829967498779e-01 4.872117519378662109e+00 1.384966015815734863e+00 2.204589545726776123e-02
1.107000000000000000e+03 3.844580078125000000e+01 3.032375907897949219e+01 -1.621551364660263062e-01 3.167620897293090820e+00 9.016397595405578613e-01 -2.127451002597808838e-01
1.108000000000000000e+03 3.656250000000000000e+01 2.923472023010253906e+01 -1.495679467916488647e-01 2.906579256057739258e+00 8.271033763885498047e-01 -1.386622786521911621e-01
1.109000000000000000e+03 2.838407516479492188e+01 3.314359283447265625e+01 -7.617226988077163696e-02 2.073290348052978516e+00 5.991353988647460938e-01 -1.260827779769897461e-01
1.110000000000000000e+03 2.890215110778808594e+01 3.073389816284179688e+01 -1.671865284442901611e-01 2.096045255661010742e+00 5.786576271057128906e-01 -1.429082900285720825e-01
1.111000000000000000e+03 1.866666221618652344e+01 2.633527565002441406e+01 -1.125717461109161377e-01 8.119302392005920410e-01 2.098075598478317261e-01 -2.558082938194274902e-01
1.112000000000000000e+03 5.602014064788818359e+00 2.904622840881347656e+01 1.298786699771881104e-02 1.168446779251098633e+00 3.544304072856903076e-01 2.148470133543014526e-01
1.113000000000000000e+03 6.575087308883666992e-01 2.760428619384765625e+01 -2.374877780675888062e-02 1.608442306518554688e+00 4.754080772399902344e-01 4.684668779373168945e-02
1.114000000000000000e+03 7.926325988769531250e+01 3.191993522644042969e+01 1.128005422651767731e-02 6.849979877471923828e+00 2.058377981185913086e+00 1.251751091331243515e-02
1.115000000000000000e+03 7.500141143798828125e+01 2.993675804138183594e+01 -9.830431081354618073e-03 6.570331573486328125e+00 1.968150377273559570e+00 3.114416263997554779e-02
1.116000000000000000e+03 5.804048156738281250e+01 3.261562347412109375e+01 -6.744292378425598145e-02 5.306001663208007812e+00 1.571567535400390625e+00 1.482800543308258057e-01
1.117000000000000000e+03 4.011030578613281250e+01 3.177806472778320312e+01 -1.677544564008712769e-01 3.412382602691650391e+00 9.733884930610656738e-01 -1.855212599039077759e-01
1.118000000000000000e+03 3.897923278808593750e+01 3.367830657958984375e+01 -1.256627142429351807e-01 3.257811069488525391e+00 9.396445155143737793e-01 -1.661686748266220093e-01
1.119000000000000000e+03 5.719132423400878906e+00 3.081621742248535156e+01 5.290417373180389404e-02 1.143029808998107910e+00 3.587801754474639893e-01 2.112086266279220581e-01
1.120000000000000000e+03 6.286730170249938965e-01 3.038123130798339844e+01 -2.006397768855094910e-02 1.424831032752990723e+00 4.214301109313964844e-01 4.162405803799629211e-02
1.121000000000000000e+03 7.341814422607421875e+01 3.512425231933593750e+01 -1.572985574603080750e-02 6.444579601287841797e+00 1.928654909133911133e+00 1.809363067150115967e-02
1.122000000000000000e+03 6.945895385742187500e+01 3.553208923339843750e+01 -2.133678831160068512e-02 6.141347885131835938e+00 1.836003422737121582e+00 3.500720858573913574e-02
1.123000000000000000e+03 4.900663375854492188e+00 3.434017181396484375e+01 7.483333349227905273e-02 1.118435978889465332e+00 3.579807877540588379e-01 1.373452693223953247e-01
1.124000000000000000e+03 6.896817088127136230e-01 3.452327346801757812e+01 1.002176944166421890e-02 1.211023926734924316e+00 3.663136959075927734e-01 2.613370493054389954e-02
1.125000000000000000e+03 7.883271026611328125e+01 3.744380187988281250e+01 3.696111263707280159e-03 6.870470523834228516e+00 2.062249898910522461e+00 1.781281433068215847e-03
1.126000000000000000e+03 7.659861755371093750e+01 3.684194564819335938e+01 -1.461630966514348984e-02 6.674498081207275391e+00 1.997964501380920410e+00 1.050281152129173279e-02
1.127000000000000000e+03 4.825769042968750000e+01 3.639262390136718750e+01 -2.210466414690017700e-01 4.422690868377685547e+00 1.260493278503417969e+00 -2.578536793589591980e-02
1.128000000000000000e+03 8.708688616752624512e-01 3.727024078369140625e+01 6.344479508697986603e-03 1.122266173362731934e+00 3.385832011699676514e-01 1.925471983850002289e-02
1.129000000000000000e+03 3.243611335754394531e+00 1.478219127655029297e+01 -2.034111171960830688e-01 1.278915524482727051e+00 3.226513266563415527e-01 -5.434186458587646484e-01
1.130000000000000000e+03 4.131953239440917969e+00 9.996101379394531250e+00 -8.621700108051300049e-03 8.172742724418640137e-01 2.425957769155502319e-01 -1.272571802139282227e+00
1.131000000000000000e+03 8.272369384765625000e+00 9.790789604187011719e+00 -4.988489151000976562e-01 2.036982059478759766e+00 4.614399671554565430e-01 -1.309193015098571777e+00
1.132000000000000000e+03 9.832945823669433594e+00 1.435364627838134766e+01 -1.184395074844360352e+00 1.097767829895019531e+00 -2.598816901445388794e-02 -4.118099510669708252e-01
1.133000000000000000e+03 6.808541107177734375e+01 6.543458938598632812e+00 -3.171136379241943359e-01 1.108833122253417969e+01 3.231365203857421875e+00 -2.149691343307495117e+00
1.134000000000000000e+03 6.340234375000000000e+01 4.328525543212890625e+00 7.530755549669265747e-02 3.654251098632812500e+00 1.118867635726928711e+00 1.222076416015625000e+00
1.135000000000000000e+03 6.927570343017578125e+01 3.800900459289550781e+00 2.639217138290405273e+00 1.761236190795898438e+01 6.075473785400390625e+00 -2.744221925735473633e+00
1.136000000000000000e+03 4.836585998535156250e+01 5.739490985870361328e+00 1.051321268081665039e+00 3.848176002502441406e+00 1.469849228858947754e+00 1.367050647735595703e+00
1.137000000000000000e+03 5.099248123168945312e+01 2.587624549865722656e+00 2.623176574707031250e+00 7.068889141082763672e+00 2.907619714736938477e+00 6.773307323455810547e-01
1.138000000000000000e+03 4.574938201904296875e+01 -9.725153923034667969e+00 1.786331683397293091e-01 5.849067687988281250e+00 1.808310270309448242e+00 -1.172719597816467285e+00
1.139000000000000000e+03 3.911426925659179688e+01 -8.671676635742187500e+00 4.813457429409027100e-01 3.213622331619262695e+00 1.108490467071533203e+00 -1.137573957443237305e+00
1.140000000000000000e+03 4.368566894531250000e+01 -5.865448951721191406e+00 2.264815807342529297e+00 1.010125064849853516e+01 3.709820032119750977e+00 1.349530220031738281e+00
1.141000000000000000e+03 6.269612503051757812e+01 -9.837306976318359375e+00 1.080993711948394775e-01 8.120641708374023438e+00 2.468622446060180664e+00 2.460745126008987427e-01
1.142000000000000000e+03 6.204054641723632812e+01 -1.241038036346435547e+01 -4.381358325481414795e-01 7.391973495483398438e+00 2.086151361465454102e+00 4.023794233798980713e-01
1.143000000000000000e+03 6.441132354736328125e+01 1.383668327331542969e+01 3.817234337329864502e-01 3.455483436584472656e+00 1.151162147521972656e+00 -3.431575775146484375e+00
1.144000000000000000e+03 3.324516296386718750e+01 5.655056953430175781e+00 -2.790427505970001221e-01 1.131181478500366211e+00 2.556416094303131104e-01 1.174010708928108215e-01
1.145000000000000000e+03 3.562390899658203125e+01 9.405234336853027344e+00 1.059988021850585938e+00 1.571703314781188965e+00 7.895073890686035156e-01 1.047990560531616211e+00
1.146000000000000000e+03 3.045984268188476562e+01 4.652865886688232422e+00 -3.532476186752319336e+00 -1.322093486785888672e+00 -1.456370830535888672e+00 -1.512344717979431152e+00
1.147000000000000000e+03 2.805377006530761719e+01 3.183324575424194336e+00 -9.056062698364257812e+00 -1.959023714065551758e+00 -3.304526090621948242e+00 -4.073240756988525391e+00
1.148000000000000000e+03 2.688459205627441406e+01 2.598818302154541016e+00 -9.732368469238281250e+00 -1.970673441886901855e+00 -3.510912656784057617e+00 -4.578835487365722656e+00
1.149000000000000000e+03 2.589078140258789062e+01 8.543111801147460938e+00 4.716007709503173828e-01 4.628426074981689453e+00 1.530008077621459961e+00 2.182679891586303711e+00
1.150000000000000000e+03 2.687435913085937500e+01 9.448155403137207031e+00 -1.886228084564208984e+00 1.903656959533691406e+00 5.228644236922264099e-03 2.508859336376190186e-01
1.151000000000000000e+03 2.884296989440917969e+01 1.140639019012451172e+01 -3.907953262329101562e+00 -1.834524154663085938e+00 -1.722743272781372070e+00 -2.560528278350830078e+00
1.152000000000000000e+03 3.095407676696777344e+01 1.312875175476074219e+01 -4.169194221496582031e+00 -2.638780117034912109e+00 -2.042392253875732422e+00 -2.807137012481689453e+00
1.153000000000000000e+03 3.665168762207031250e+01 1.321960639953613281e+01 9.785936027765274048e-02 2.369768381118774414e+00 7.402883172035217285e-01 -1.038293838500976562e+00
1.154000000000000000e+03 3.796872329711914062e+01 1.288124370574951172e+01 -4.516082108020782471e-01 8.877302169799804688e+00 2.527708292007446289e+00 -2.835561990737915039e+00
1.155000000000000000e+03 3.858002090454101562e+01 1.285608577728271484e+01 -1.662262320518493652e+00 1.338161754608154297e+01 3.515806674957275391e+00 -1.232001543045043945e+00
1.156000000000000000e+03 3.815572357177734375e+01 1.288785171508789062e+01 -8.453867435455322266e-01 1.036676025390625000e+01 2.856412172317504883e+00 -2.585643529891967773e+00
1.157000000000000000e+03 3.778404235839843750e+01 1.290729141235351562e+01 2.644034661352634430e-02 7.947403907775878906e+00 2.392153263092041016e+00 -3.033768892288208008e+00
1.158000000000000000e+03 3.722764205932617188e+01 1.304995632171630859e+01 3.091776371002197266e-01 3.793346405029296875e+00 1.230757236480712891e+00 -2.156768321990966797e+00
1.159000000000000000e+03 3.614888381958007812e+01 9.871423721313476562e+00 1.091652393341064453e+00 1.837176680564880371e+00 8.786487579345703125e-01 1.811176657676696777e+00
1.160000000000000000e+03 3.706168365478515625e+01 9.663051605224609375e+00 2.224417924880981445e+00 5.607680320739746094e+00 2.349629402160644531e+00 4.687688350677490234e+00
1.161000000000000000e+03 3.750178527832031250e+01 9.581574440002441406e+00 1.928810715675354004e+00 8.677722930908203125e+00 3.181960105895996094e+00 6.044204235076904297e+00
1.162000000000000000e+03 1.336181735992431641e+01 -1.993044734001159668e+00 -1.780670136213302612e-01 4.774379730224609375e-02 -3.909696638584136963e-02 7.742468267679214478e-02
1.163000000000000000e+03 1.256866931915283203e+01 -1.983532905578613281e+00 -1.886399984359741211e-01 1.267914567142724991e-02 -5.278825387358665466e-02 4.633885249495506287e-02
1.164000000000000000e+03 1.027287101745605469e+01 -1.886229276657104492e+00 -1.736063659191131592e-01 4.125778377056121826e-02 -3.970457240939140320e-02 -7.353874389082193375e-03
1.165000000000000000e+03 1.163121223449707031e+01 -2.698733091354370117e+00 -2.021963447332382202e-01 3.321235254406929016e-02 -5.069519951939582825e-02 1.640988141298294067e-02
1.166000000000000000e+03 7.997180938720703125e+00 -1.853125810623168945e+00 -1.339616030454635620e-01 -2.381521277129650116e-03 -4.090293869376182556e-02 -4.181204363703727722e-02
1.167000000000000000e+03 6.479282855987548828e+00 -1.857511043548583984e+00 -1.000961735844612122e-01 -8.210187777876853943e-03 -3.249190747737884521e-02 -5.110199376940727234e-02
1.168000000000000000e+03 5.717279434204101562e+00 -1.865312218666076660e+00 -8.972080051898956299e-02 6.753534544259309769e-03 -2.489018067717552185e-02 -5.002399161458015442e-02
1.169000000000000000e+03 4.955645561218261719e+00 -1.874173283576965332e+00 -6.567724049091339111e-02 -1.222038920968770981e-02 -2.336928993463516235e-02 -4.664965346455574036e-02
1.170000000000000000e+03 3.427343368530273438e+00 -2.657222270965576172e+00 -3.923019394278526306e-02 -1.529989577829837799e-02 -1.635902561247348785e-02 -4.838703572750091553e-02
1.171000000000000000e+03 1.957023978233337402e+00 -1.949938058853149414e+00 -1.523864269256591797e-02 -1.637933962047100067e-02 -9.485394693911075592e-03 -1.898341067135334015e-02
1.172000000000000000e+03 1.838866949081420898e+00 -5.181741714477539062e+00 -1.109315082430839539e-02 -7.353649288415908813e-02 -2.538889274001121521e-02 -5.786095187067985535e-02
1.173000000000000000e+03 1.200983166694641113e+00 -2.073391675949096680e+00 -7.956689223647117615e-03 -1.519657019525766373e-02 -6.945977918803691864e-03 -1.381922699511051178e-02
1.174000000000000000e+03 4.075939953327178955e-01 -2.175107479095458984e+00 -1.684261718764901161e-03 -6.300173234194517136e-03 -2.395330462604761124e-03 -2.970005851238965988e-03
1.175000000000000000e+03 4.980853557586669922e+00 -4.043421173095703125e+01 -2.814446762204170227e-02 -4.724322631955146790e-02 -2.261630818247795105e-02 -2.451216429471969604e-02
1.176000000000000000e+03 1.069455146789550781e+00 -3.871078109741210938e+01 -6.294210907071828842e-03 -4.652080833911895752e-01 -1.414506882429122925e-01 2.513992041349411011e-02
1.177000000000000000e+03 7.492665648460388184e-01 -3.322283935546875000e+01 6.558613851666450500e-03 -6.031670570373535156e-01 -1.789825260639190674e-01 1.380916964262723923e-02
1.178000000000000000e+03 7.348480820655822754e-01 -3.183805847167968750e+01 -4.786670615430921316e-04 -6.238377690315246582e-01 -1.872949302196502686e-01 7.865686900913715363e-03
1.179000000000000000e+03 7.397355437278747559e-01 -2.905576133728027344e+01 -2.405442995950579643e-03 -6.535348892211914062e-01 -1.967820972204208374e-01 9.614318609237670898e-03
1.180000000000000000e+03 7.588861584663391113e-01 -2.623830032348632812e+01 -1.637236680835485458e-03 -6.826394200325012207e-01 -2.052829861640930176e-01 6.706677377223968506e-03
1.181000000000000000e+03 2.305489063262939453e+00 -2.196707916259765625e+01 9.433145634829998016e-03 -4.831271469593048096e-01 -1.421082019805908203e-01 -9.512909688055515289e-03
1.182000000000000000e+03 7.138279676437377930e-01 -1.915869903564453125e+01 1.196247152984142303e-02 -6.590065360069274902e-01 -1.941132247447967529e-01 -1.372733153402805328e-02
1.183000000000000000e+03 6.835570931434631348e-01 -1.632448768615722656e+01 1.222372520714998245e-02 -5.833830237388610840e-01 -1.713477820158004761e-01 -2.254633419215679169e-02
1.184000000000000000e+03 2.001404285430908203e+00 -1.484356594085693359e+01 1.572399586439132690e-02 -4.057313501834869385e-01 -1.170022040605545044e-01 -7.472145557403564453e-02
1.185000000000000000e+03 1.908405065536499023e+00 -1.202497482299804688e+01 9.104209020733833313e-03 -3.162773847579956055e-01 -9.215195477008819580e-02 -8.626914024353027344e-02
1.186000000000000000e+03 5.980485677719116211e-01 -9.273351669311523438e+00 -6.961343809962272644e-03 -2.581064403057098389e-01 -7.952033728361129761e-02 -3.037518262863159180e-02
1.187000000000000000e+03 7.582078552246093750e+01 4.054561614990234375e+01 -5.889193154871463776e-03 6.690335273742675781e+00 2.005333900451660156e+00 4.349149763584136963e-02
1.188000000000000000e+03 7.862055206298828125e+01 3.885918045043945312e+01 -2.445792034268379211e-02 6.861937999725341797e+00 2.051244020462036133e+00 -1.288756355643272400e-02
1.189000000000000000e+03 7.913253021240234375e+01 3.468178176879882812e+01 6.696878001093864441e-03 6.867344379425048828e+00 2.062212467193603516e+00 2.665766282007098198e-03
1.190000000000000000e+03 7.931826019287109375e+01 2.916468048095703125e+01 1.387075055390596390e-02 6.808801174163818359e+00 2.046801567077636719e+00 1.448150444775819778e-02
1.191000000000000000e+03 7.795821380615234375e+01 2.762421798706054688e+01 8.539271540939807892e-03 6.714711189270019531e+00 2.016975164413452148e+00 3.425174206495285034e-02
1.192000000000000000e+03 7.799905395507812500e+01 2.492446327209472656e+01 1.490370836108922958e-02 6.681812286376953125e+00 2.009014844894409180e+00 4.129797592759132385e-02
1.193000000000000000e+03 7.804138946533203125e+01 2.223189926147460938e+01 3.505894914269447327e-02 6.654860973358154297e+00 2.006976127624511719e+00 2.750718593597412109e-02
1.194000000000000000e+03 7.935178375244140625e+01 1.953560447692871094e+01 -2.375464886426925659e-02 6.654899120330810547e+00 1.989343285560607910e+00 -7.787066977471113205e-03
1.195000000000000000e+03 7.799833679199218750e+01 1.832758331298828125e+01 8.493477851152420044e-02 6.712527275085449219e+00 2.039238691329956055e+00 -1.156816184520721436e-01
1.196000000000000000e+03 7.775973510742187500e+01 1.493590831756591797e+01 1.286349259316921234e-02 7.009507656097412109e+00 2.106711387634277344e+00 -5.423016548156738281e-01
1.197000000000000000e+03 7.812392425537109375e+01 1.216807937622070312e+01 -1.351798325777053833e-01 7.749821186065673828e+00 2.284392356872558594e+00 -3.620365858078002930e-01
1.198000000000000000e+03 7.943926239013671875e+01 9.763452529907226562e+00 -3.489605188369750977e-01 7.367660045623779297e+00 2.105609893798828125e+00 3.176686465740203857e-01
1.199000000000000000e+03 7.810353088378906250e+01 8.665501594543457031e+00 -1.490435600280761719e-01 9.500979423522949219e+00 2.805580854415893555e+00 4.468964636325836182e-01
1.200000000000000000e+03 7.849198150634765625e+01 5.762702465057373047e+00 1.719100177288055420e-01 9.792255401611328125e+00 2.989249706268310547e+00 -1.833075165748596191e+00
1.201000000000000000e+03 7.814133453369140625e+01 2.652765750885009766e+00 -5.997106432914733887e-01 1.139397525787353516e+01 3.238279342651367188e+00 -2.036524295806884766e+00
1.202000000000000000e+03 7.943823242187500000e+01 -1.686477661132812500e-02 -1.817702203989028931e-01 1.458461952209472656e+01 4.320854663848876953e+00 -5.557540059089660645e-02
1.203000000000000000e+03 7.835263824462890625e+01 -4.726609587669372559e-02 -8.071675300598144531e-01 1.220824432373046875e+01 3.420322895050048828e+00 1.413836926221847534e-01
1.204000000000000000e+03 7.946130371093750000e+01 -6.962533950805664062e+00 -4.032288491725921631e-02 9.675231933593750000e+00 2.890472650527954102e+00 4.720893800258636475e-01
1.205000000000000000e+03 7.823975372314453125e+01 -8.256032943725585938e+00 3.988547623157501221e-02 8.774856567382812500e+00 2.644422769546508789e+00 1.219018697738647461e+00
1.206000000000000000e+03 7.945097351074218750e+01 -1.671268844604492188e+01 -8.933527767658233643e-02 6.579459667205810547e+00 1.947037339210510254e+00 -1.488801389932632446e-01
1.207000000000000000e+03 7.807704162597656250e+01 -2.210560989379882812e+01 -1.534203905612230301e-02 7.300226688385009766e+00 2.185465574264526367e+00 4.504583030939102173e-02
1.208000000000000000e+03 7.932089233398437500e+01 -2.640211677551269531e+01 3.737649321556091309e-02 7.181443214416503906e+00 2.165645837783813477e+00 5.404799804091453552e-02
1.209000000000000000e+03 7.795236968994140625e+01 -2.911472129821777344e+01 -1.616157032549381256e-02 6.822779655456542969e+00 2.041985511779785156e+00 1.239100098609924316e-01
1.210000000000000000e+03 7.685096740722656250e+01 -3.050288009643554688e+01 6.538683664985001087e-04 6.618991374969482422e+00 1.985893607139587402e+00 1.351845711469650269e-01
1.211000000000000000e+03 7.803793334960937500e+01 -3.308052825927734375e+01 4.045529663562774658e-02 6.657382965087890625e+00 2.009351491928100586e+00 7.149375975131988525e-02
1.212000000000000000e+03 7.928173065185546875e+01 -3.606954574584960938e+01 -2.731778193265199661e-03 6.670013427734375000e+00 2.000184535980224609e+00 1.712592504918575287e-02
1.213000000000000000e+03 7.867082214355468750e+01 -4.008336639404296875e+01 2.327059861272573471e-03 6.560201644897460938e+00 1.968758702278137207e+00 2.635360136628150940e-02
1.214000000000000000e+03 3.960047960281372070e-01 2.180589675903320312e+00 -1.519919279962778091e-02 -3.260355889797210693e-01 -1.023704335093498230e-01 1.144524589180946350e-01
1.215000000000000000e+03 5.298523902893066406e-01 5.015918731689453125e+00 4.864321649074554443e-02 -1.107779860496520996e+00 -3.177409768104553223e-01 9.476070851087570190e-02
1.216000000000000000e+03 1.719409227371215820e+00 6.368880271911621094e+00 2.203822582960128784e-01 -6.603915095329284668e-01 -1.320027858018875122e-01 -1.285287439823150635e-01
1.217000000000000000e+03 1.749891757965087891e+00 9.224684715270996094e+00 3.997966274619102478e-02 -3.186246380209922791e-02 2.435159171000123024e-03 -6.000688672065734863e-01
1.218000000000000000e+03 6.327678561210632324e-01 1.207827854156494141e+01 3.012204729020595551e-02 6.630623340606689453e-01 2.079553157091140747e-01 -2.287596166133880615e-01
1.219000000000000000e+03 1.899241685867309570e+00 1.200804805755615234e+01 -1.142103523015975952e-01 7.402599453926086426e-01 1.878148764371871948e-01 -6.103344559669494629e-01
1.220000000000000000e+03 6.613274216651916504e-01 1.632323074340820312e+01 -5.938768014311790466e-02 1.720582246780395508e+00 4.983583688735961914e-01 -9.327157586812973022e-02
1.221000000000000000e+03 6.565751433372497559e-01 1.915354347229003906e+01 -4.750420898199081421e-02 1.953156113624572754e+00 5.716955661773681641e-01 -2.086632326245307922e-02
1.222000000000000000e+03 6.376646161079406738e-01 2.197562599182128906e+01 -3.950772061944007874e-02 1.944646358489990234e+00 5.715416073799133301e-01 2.237210795283317566e-02
1.223000000000000000e+03 6.438778638839721680e-01 2.479787445068359375e+01 -3.114483319222927094e-02 1.799407362937927246e+00 5.304787755012512207e-01 4.171039536595344543e-02
1.224000000000000000e+03 6.555109620094299316e-01 2.620502853393554688e+01 2.515431307256221771e-02 1.705264329910278320e+00 5.191255807876586914e-01 4.387183487415313721e-02
1.225000000000000000e+03 6.422182321548461914e-01 2.899266624450683594e+01 2.515684626996517181e-02 1.515312433242797852e+00 4.621407985687255859e-01 3.937391191720962524e-02
1.226000000000000000e+03 1.883208632469177246e+00 3.018547058105468750e+01 2.561161667108535767e-02 1.366448640823364258e+00 4.176180958747863770e-01 1.089676395058631897e-01
1.227000000000000000e+03 6.546563506126403809e-01 3.314754867553710938e+01 -1.134266797453165054e-02 1.271118521690368652e+00 3.779327571392059326e-01 3.170260414481163025e-02
1.228000000000000000e+03 7.532867789268493652e-01 3.589909744262695312e+01 -4.065667744725942612e-03 1.160375356674194336e+00 3.468929231166839600e-01 2.558453381061553955e-02
1.229000000000000000e+03 1.426162362098693848e+00 4.003671264648437500e+01 9.047271683812141418e-03 1.074076414108276367e+00 3.249371051788330078e-01 1.330587174743413925e-02
1.230000000000000000e+03 7.343104839324951172e+00 2.584037303924560547e+00 7.442904710769653320e-01 -2.796906828880310059e-01 1.393799334764480591e-01 1.368182897567749023e+00
1.231000000000000000e+03 4.253844261169433594e+00 1.897178769111633301e+00 -5.173256397247314453e-01 -2.173736840486526489e-01 -2.204097956418991089e-01 8.679904937744140625e-01
1.232000000000000000e+03 4.283638000488281250e+00 2.695948600769042969e+00 6.304106116294860840e-02 -4.282513558864593506e-01 -1.095630899071693420e-01 9.511839747428894043e-01
1.233000000000000000e+03 1.958819866180419922e+00 2.003077507019042969e+00 -1.738750338554382324e-01 -2.852138280868530273e-01 -1.377266645431518555e-01 4.832344949245452881e-01
1.234000000000000000e+03 1.182515263557434082e+00 2.100446939468383789e+00 -8.979283273220062256e-02 -3.343138098716735840e-01 -1.272320002317428589e-01 3.111125528812408447e-01
1.235000000000000000e+03 1.315092658996582031e+01 1.823621511459350586e+00 4.847387373447418213e-01 1.512472778558731079e-01 1.907958090305328369e-01 -2.650360345840454102e+00
1.236000000000000000e+03 1.428938293457031250e+01 3.127223014831542969e+00 4.684907913208007812e+00 -4.155373096466064453e+00 1.588604301214218140e-01 -1.892834424972534180e+00
1.237000000000000000e+03 1.530909633636474609e+01 3.458757162094116211e+00 1.011966800689697266e+01 -2.514799118041992188e+00 2.281460762023925781e+00 -9.597487449645996094e-01
1.238000000000000000e+03 1.969675254821777344e+01 1.943804383277893066e+00 2.332004308700561523e+00 1.146994829177856445e+00 1.043699741363525391e+00 -4.503695964813232422e-01
1.239000000000000000e+03 2.310993957519531250e+01 -2.492716312408447266e+00 3.244490623474121094e+00 7.185868740081787109e+00 3.129107713699340820e+00 -4.326010704040527344e+00
1.240000000000000000e+03 2.519265937805175781e+01 -6.121020317077636719e+00 1.476819753646850586e+00 1.735124015808105469e+01 5.648417472839355469e+00 -4.173949718475341797e+00
1.241000000000000000e+03 1.746052742004394531e+01 -4.602472782135009766e+00 -3.459896147251129150e-01 -1.885645091533660889e-01 -1.603662371635437012e-01 3.437673151493072510e-01
1.242000000000000000e+03 6.511605834960937500e+01 8.410902976989746094e+00 1.623624086380004883e+00 1.146182250976562500e+01 3.925633907318115234e+00 3.089745044708251953e+00
1.243000000000000000e+03 6.354268264770507812e+01 6.290455818176269531e+00 7.667289972305297852e-01 3.637237548828125000e+00 1.321189999580383301e+00 1.494322538375854492e+00
1.244000000000000000e+03 6.439329528808593750e+01 5.296374320983886719e+00 1.826660633087158203e-01 5.236931800842285156e+00 1.625879406929016113e+00 1.313474178314208984e+00
1.245000000000000000e+03 6.084573364257812500e+01 3.253026008605957031e+00 -2.407251358032226562e+00 2.059054374694824219e-01 -6.604037880897521973e-01 -5.430574417114257812e-01
1.246000000000000000e+03 5.831530380249023438e+01 -2.725100219249725342e-01 -2.018959760665893555e+00 7.280746698379516602e-01 -3.872655630111694336e-01 -1.661911845207214355e+00
1.247000000000000000e+03 5.526575088500976562e+01 7.273325920104980469e+00 5.502094626426696777e-01 6.975976467132568359e+00 2.257855892181396484e+00 2.063188552856445312e+00
1.248000000000000000e+03 5.598168945312500000e+01 8.286199569702148438e+00 -1.931517273187637329e-01 3.197895526885986328e+00 9.014231562614440918e-01 7.403286099433898926e-01
1.249000000000000000e+03 5.732457351684570312e+01 1.166598320007324219e+01 -5.813508108258247375e-02 1.649978518486022949e+00 4.775530099868774414e-01 6.859177947044372559e-01
1.250000000000000000e+03 2.044225120544433594e+01 9.646825790405273438e+00 -5.332918643951416016e+00 -1.699972510337829590e+00 -2.109867334365844727e+00 -3.421291112899780273e+00
1.251000000000000000e+03 2.033762741088867188e+01 7.762678623199462891e+00 -2.633835554122924805e+00 1.481156826019287109e+00 -3.458035588264465332e-01 -1.529710054397583008e+00
1.252000000000000000e+03 1.705012321472167969e+01 7.008934020996093750e+00 -5.690266132354736328e+00 -3.207763195037841797e+00 -2.669408798217773438e+00 -4.959212303161621094e+00
1.253000000000000000e+03 1.588451957702636719e+01 6.281281471252441406e+00 -5.605605602264404297e+00 -4.110542297363281250e+00 -2.914844274520874023e+00 -3.978874444961547852e+00
1.254000000000000000e+03 1.340251064300537109e+01 1.103919601440429688e+01 -1.326545476913452148e+00 -7.773586511611938477e-01 -6.311712265014648438e-01 -9.320221543312072754e-01
1.255000000000000000e+03 1.659831237792968750e+01 1.372746849060058594e+01 -2.391281127929687500e+00 -8.030962347984313965e-01 -9.583132266998291016e-01 -1.330065608024597168e+00
1.256000000000000000e+03 1.782843399047851562e+01 1.448666572570800781e+01 -2.586534023284912109e+00 -7.667557001113891602e-01 -1.005986928939819336e+00 -1.257017374038696289e+00
1.257000000000000000e+03 3.701550292968750000e+01 -5.131212711334228516e+00 -7.170385122299194336e-01 1.070923924446105957e+00 1.061656326055526733e-01 -1.867044866085052490e-01
1.258000000000000000e+03 3.771833038330078125e+01 -6.321506023406982422e+00 2.369525730609893799e-01 1.385382294654846191e+00 4.867004752159118652e-01 -7.693414688110351562e-01
1.259000000000000000e+03 3.975767517089843750e+01 -9.884046554565429688e+00 5.836927294731140137e-01 5.669734477996826172e+00 1.876028060913085938e+00 -1.541737675666809082e+00
1.260000000000000000e+03 3.316960906982421875e+01 -1.050945091247558594e+01 1.005906343460083008e+00 1.838284611701965332e+00 8.532572984695434570e-01 -1.425430178642272949e+00
1.261000000000000000e+03 3.066268348693847656e+01 -5.669283390045166016e+00 7.593482732772827148e-02 2.662686824798583984e+00 8.215864896774291992e-01 -4.775971770286560059e-01
1.262000000000000000e+03 4.799871826171875000e+01 -3.293597221374511719e+00 -7.786710262298583984e+00 -1.029337525367736816e+00 -2.644814252853393555e+00 2.140153169631958008e+00
1.263000000000000000e+03 5.410690689086914062e+01 -9.017291069030761719e+00 8.244395852088928223e-01 4.685587882995605469e+00 1.653008341789245605e+00 -1.817718982696533203e+00
1.264000000000000000e+03 5.614332962036132812e+01 -1.593877506256103516e+01 -7.515911757946014404e-02 1.454392910003662109e+01 4.340631008148193359e+00 -4.719747602939605713e-01
1.265000000000000000e+03 5.092552947998046875e+01 -1.662337684631347656e+01 -1.036236166954040527e+00 -4.940447211265563965e-01 -4.590842723846435547e-01 4.806642532348632812e-01
1.266000000000000000e+03 4.900688171386718750e+01 -1.453268623352050781e+01 -4.871162176132202148e-01 -1.586175411939620972e-01 -1.937201172113418579e-01 2.196657508611679077e-01
1.267000000000000000e+03 4.640852737426757812e+01 -1.099834442138671875e+01 1.923129409551620483e-01 3.000978708267211914e+00 9.579874873161315918e-01 -5.710763931274414062e-01
1.268000000000000000e+03 4.467355728149414062e+01 -5.693453788757324219e+00 1.340246438980102539e+00 1.775232505798339844e+01 5.727771282196044922e+00 6.125200986862182617e-01
1.269000000000000000e+03 4.835173034667968750e+01 7.433089733123779297e+00 9.090793132781982422e-01 3.249320983886718750e+00 1.247520089149475098e+00 1.555469036102294922e+00
1.270000000000000000e+03 4.752921295166015625e+01 6.403040409088134766e+00 9.064627289772033691e-01 1.792506217956542969e+00 8.096906542778015137e-01 1.109969139099121094e+00
1.271000000000000000e+03 4.565269470214843750e+01 2.494848966598510742e+00 -2.213183492422103882e-01 1.880665898323059082e+00 4.978042840957641602e-01 1.411188721656799316e+00
1.272000000000000000e+03 4.576958465576171875e+01 4.370014667510986328e+00 6.841378808021545410e-01 1.037107944488525391e+00 5.163737535476684570e-01 8.740196824073791504e-01
1.273000000000000000e+03 3.943847274780273438e+01 6.145406246185302734e+00 2.087883949279785156e+00 1.079112339019775391e+01 3.863702297210693359e+00 4.334561347961425781e+00
1.274000000000000000e+03 4.104891204833984375e+01 9.156068801879882812e+00 -1.381512522697448730e+00 2.237245321273803711e+00 2.567198574542999268e-01 -6.140789985656738281e-01
1.275000000000000000e+03 4.261091613769531250e+01 1.060173034667968750e+01 5.638276934623718262e-01 -1.032897472381591797e+00 -1.407209187746047974e-01 -3.276535272598266602e-01
1.276000000000000000e+03 4.351757431030273438e+01 1.154962062835693359e+01 7.200434803962707520e-01 -6.863575428724288940e-02 1.954223066568374634e-01 6.847462058067321777e-01
1.277000000000000000e+03 4.530899810791015625e+01 1.353003978729248047e+01 4.414176344871520996e-01 6.598696708679199219e-01 3.303861916065216064e-01 8.053061366081237793e-01
1.278000000000000000e+03 7.001846313476562500e+01 -6.416191101074218750e+00 2.823311090469360352e-01 2.341672658920288086e+00 7.872011065483093262e-01 -1.180964946746826172e+00
1.279000000000000000e+03 7.086994171142578125e+01 -7.495027065277099609e+00 1.136286377906799316e+00 4.602179050445556641e+00 1.721539735794067383e+00 -2.129498004913330078e+00
1.280000000000000000e+03 7.215786743164062500e+01 -9.837975502014160156e+00 1.139411568641662598e+00 1.273176860809326172e+01 4.161354064941406250e+00 -1.461736321449279785e+00
1.281000000000000000e+03 6.439376068115234375e+01 -1.209562492370605469e+01 -2.838331758975982666e-01 4.054539203643798828e+00 1.131211876869201660e+00 -6.070725917816162109e-01
1.282000000000000000e+03 6.426725006103515625e+01 -1.080186748504638672e+01 2.575882077217102051e-01 4.825828075408935547e+00 1.525024890899658203e+00 -1.239760518074035645e+00
1.283000000000000000e+03 6.345971679687500000e+01 -8.252820968627929688e+00 4.645253419876098633e-01 1.078381538391113281e+01 3.374502182006835938e+00 -1.163578510284423828e+00
1.284000000000000000e+03 6.982192993164062500e+01 7.039727210998535156e+00 -1.326967924833297729e-01 8.038578033447265625e+00 2.371764421463012695e+00 9.246573448181152344e-01
1.285000000000000000e+03 3.599245452880859375e+01 9.216508865356445312e+00 6.723353266716003418e-01 2.894117355346679688e+00 1.069935798645019531e+00 1.627703309059143066e+00
1.286000000000000000e+03 3.686759948730468750e+01 9.316027641296386719e+00 1.358255028724670410e+00 5.583397865295410156e+00 2.082495689392089844e+00 4.489689826965332031e+00
1.287000000000000000e+03 3.724827194213867188e+01 1.385574531555175781e+01 -2.007424354553222656e+00 5.102364540100097656e+00 9.284820556640625000e-01 -1.444100260734558105e+00
1.288000000000000000e+03 3.744235992431640625e+01 1.325227737426757812e+01 -4.286858737468719482e-01 5.428945064544677734e+00 1.500077724456787109e+00 -2.246865272521972656e+00
1.289000000000000000e+03 3.761303329467773438e+01 1.295817661285400391e+01 3.139774203300476074e-01 5.875076770782470703e+00 1.856716275215148926e+00 -2.786440372467041016e+00
1.290000000000000000e+03 3.742387390136718750e+01 1.300328254699707031e+01 2.572944164276123047e-01 5.251975536346435547e+00 1.652780890464782715e+00 -2.564528942108154297e+00
1.291000000000000000e+03 3.687140655517578125e+01 9.772910118103027344e+00 1.884231686592102051e+00 3.921887159347534180e+00 1.741835594177246094e+00 3.891370534896850586e+00
1.292000000000000000e+03 3.727957153320312500e+01 9.615455627441406250e+00 1.898631215095520020e+00 6.677006244659423828e+00 2.572691202163696289e+00 5.414053440093994141e+00
1.293000000000000000e+03 3.703982162475585938e+01 1.336426067352294922e+01 -3.605095744132995605e-01 3.735184192657470703e+00 1.012402415275573730e+00 -1.671143054962158203e+00
1.294000000000000000e+03 3.651353454589843750e+01 9.823542594909667969e+00 1.822582602500915527e+00 2.495943069458007812e+00 1.295557737350463867e+00 2.522252321243286133e+00
1.295000000000000000e+03 3.792308044433593750e+01 9.556231498718261719e+00 9.648547768592834473e-01 1.247112083435058594e+01 4.030792713165283203e+00 6.328284740447998047e+00
1.296000000000000000e+03 3.653480911254882812e+01 9.538263320922851562e+00 1.689453840255737305e+00 3.740619182586669922e+00 1.629021883010864258e+00 3.320759534835815430e+00
1.297000000000000000e+03 3.779329299926757812e+01 1.309699058532714844e+01 -5.154141783714294434e-01 7.598060131072998047e+00 2.124793767929077148e+00 -2.392116069793701172e+00
1.298000000000000000e+03 3.673958969116210938e+01 9.592540740966796875e+00 1.942111253738403320e+00 3.994610548019409180e+00 1.781016469001770020e+00 3.491753339767456055e+00
1.299000000000000000e+03 3.771258163452148438e+01 9.558306694030761719e+00 1.164544820785522461e+00 9.804272651672363281e+00 3.290645360946655273e+00 6.362143993377685547e+00
1.300000000000000000e+03 3.631978225708007812e+01 9.843556404113769531e+00 1.817424178123474121e+00 1.835901498794555664e+00 1.095997691154479980e+00 2.100505828857421875e+00
1.301000000000000000e+03 3.901602935791015625e+01 1.281420421600341797e+01 -8.174947500228881836e-01 1.426974582672119141e+01 4.035675048828125000e+00 2.213878631591796875e+00
1.302000000000000000e+03 1.184000682830810547e+01 3.086406469345092773e+00 3.416541814804077148e+00 1.457314252853393555e+00 1.462156772613525391e+00 -3.217783451080322266e+00
1.303000000000000000e+03 1.436323451995849609e+01 2.048942804336547852e+00 2.709083080291748047e+00 -1.858150124549865723e+00 2.552798390388488770e-01 -6.264340281486511230e-01
1.304000000000000000e+03 1.310577583312988281e+01 3.414401292800903320e+00 5.979159355163574219e+00 -1.506088376045227051e+00 1.341921329498291016e+00 -3.848452806472778320e+00
1.305000000000000000e+03 1.182471275329589844e+01 1.713546156883239746e+00 -8.777254819869995117e-01 1.378284811973571777e+00 1.501677781343460083e-01 -2.254666090011596680e+00
1.306000000000000000e+03 1.251698017120361328e+01 1.759733080863952637e+00 -1.266448795795440674e-01 1.357581615447998047e-01 2.733983332291245461e-03 -2.783563375473022461e+00
1.307000000000000000e+03 1.129303550720214844e+01 3.574157238006591797e+00 5.850277423858642578e+00 5.205914497375488281e+00 3.316857576370239258e+00 -2.346604108810424805e+00
1.308000000000000000e+03 9.827339172363281250e+00 3.284712314605712891e+00 4.416956901550292969e+00 3.155154943466186523e+00 2.271633625030517578e+00 1.639868170022964478e-01
1.309000000000000000e+03 1.399495983123779297e+01 -2.854214668273925781e+00 -2.183762788772583008e-01 5.661382153630256653e-02 -4.852873831987380981e-02 1.018932387232780457e-01
1.310000000000000000e+03 9.515916824340820312e+00 -1.865232706069946289e+00 -1.628920882940292358e-01 4.848840180784463882e-03 -4.741297289729118347e-02 -2.191497012972831726e-02
1.311000000000000000e+03 1.086748123168945312e+01 -2.665556669235229492e+00 -1.841625422239303589e-01 6.606344878673553467e-02 -3.542972728610038757e-02 -1.308653270825743675e-03
1.312000000000000000e+03 1.103194713592529297e+01 -1.918858289718627930e+00 -1.818108111619949341e-01 1.007071789354085922e-02 -5.152202770113945007e-02 7.614175323396921158e-03
1.313000000000000000e+03 4.161356449127197266e+00 -2.665722370147705078e+00 -4.893239960074424744e-02 -1.986806280910968781e-02 -2.064013853669166565e-02 -5.794826894998550415e-02
1.314000000000000000e+03 3.447007417678833008e+00 -1.880328893661499023e+00 -3.884967043995857239e-02 -1.176488678902387619e-02 -1.518436707556247711e-02 -3.648529201745986938e-02
1.315000000000000000e+03 2.700223684310913086e+00 -1.887148857116699219e+00 -2.745800465345382690e-02 -1.251850742846727371e-02 -1.199295371770858765e-02 -3.204970434308052063e-02
1.316000000000000000e+03 7.238658428192138672e+00 -1.852896571159362793e+00 -1.219781190156936646e-01 1.706749387085437775e-02 -3.147318586707115173e-02 -4.749612882733345032e-02
1.317000000000000000e+03 5.351026654243469238e-01 -3.563746213912963867e+00 -5.026399157941341400e-03 -3.479285165667533875e-02 -1.194577477872371674e-02 -1.414898782968521118e-02
1.318000000000000000e+03 6.133372783660888672e-01 -5.020323276519775391e+00 -2.059943835774902254e-05 -7.348881661891937256e-02 -2.205282635986804962e-02 -1.958674378693103790e-02
1.319000000000000000e+03 8.635996818542480469e+00 -2.573505163192749023e+00 -1.429864913225173950e-01 9.073961526155471802e-03 -4.017375782132148743e-02 -4.899035766720771790e-02
1.320000000000000000e+03 7.892788887023925781e+00 -2.562614440917968750e+00 -1.326096653938293457e-01 2.963943593204021454e-02 -3.089106641709804535e-02 -5.776007473468780518e-02
1.321000000000000000e+03 6.411934375762939453e+00 -2.579192876815795898e+00 -1.012527495622634888e-01 1.170348934829235077e-02 -2.686477825045585632e-02 -6.594630330801010132e-02
1.322000000000000000e+03 5.660917282104492188e+00 -2.604176759719848633e+00 -7.818214595317840576e-02 -1.203753612935543060e-02 -2.706590481102466583e-02 -6.610316783189773560e-02
1.323000000000000000e+03 8.101139068603515625e+00 1.854893207550048828e+00 -9.577583074569702148e-01 1.220086067914962769e-01 -2.507249116897583008e-01 1.567451357841491699e+00
1.324000000000000000e+03 5.041323184967041016e+00 2.679375410079956055e+00 1.347741335630416870e-01 -3.931426703929901123e-01 -7.751056551933288574e-02 1.003501534461975098e+00
1.325000000000000000e+03 6.562685966491699219e+00 1.877599239349365234e+00 -8.006754517555236816e-01 -3.422710895538330078e-01 -3.428839743137359619e-01 1.394412040710449219e+00
1.326000000000000000e+03 7.425829887390136719e+00 3.298094987869262695e+00 2.019126176834106445e+00 -2.172649800777435303e-01 5.405583381652832031e-01 9.998448491096496582e-01
1.327000000000000000e+03 2.098677396774291992e+00 2.963980674743652344e+00 6.973207462579011917e-03 -4.219731688499450684e-01 -1.244999840855598450e-01 5.352666378021240234e-01
1.328000000000000000e+03 2.728300809860229492e+00 1.939484477043151855e+00 -2.839823365211486816e-01 -2.147671580314636230e-01 -1.496248543262481689e-01 6.027875542640686035e-01
1.329000000000000000e+03 8.897598266601562500e+00 2.560917854309082031e+00 1.415037870407104492e+00 1.006264448165893555e+00 7.263906598091125488e-01 1.312289118766784668e+00
1.330000000000000000e+03 8.101464271545410156e+00 2.550728321075439453e+00 9.587848782539367676e-01 1.469972431659698486e-01 3.317346274852752686e-01 1.462245345115661621e+00
1.331000000000000000e+03 5.021726131439208984e+00 1.892071485519409180e+00 -6.054411530494689941e-01 -3.184241354465484619e-01 -2.771595716476440430e-01 1.092872500419616699e+00
1.332000000000000000e+03 3.621533632278442383e+00 3.555152654647827148e+00 3.600004911422729492e-01 -5.134059190750122070e-01 -4.602163285017013550e-02 7.124251127243041992e-01
1.333000000000000000e+03 3.979769134521484375e+01 1.297761154174804688e+01 3.205878436565399170e-01 1.137354087829589844e+01 3.508238554000854492e+00 4.117171287536621094e+00
1.334000000000000000e+03 4.054905319213867188e+01 1.478699016571044922e+01 -1.187991976737976074e+00 7.291935920715332031e+00 1.831183195114135742e+00 2.677204847335815430e+00
1.335000000000000000e+03 4.082492446899414062e+01 1.076568984985351562e+01 4.752723217010498047e+00 5.342568397521972656e+00 3.028587579727172852e+00 1.845107674598693848e+00
1.336000000000000000e+03 3.959220123291015625e+01 9.893935203552246094e+00 1.707702755928039551e+00 1.469006156921386719e+01 4.919329166412353516e+00 2.609723210334777832e-01
1.337000000000000000e+03 3.999996948242187500e+01 1.036509704589843750e+01 5.707255840301513672e+00 9.972625732421875000e+00 4.703964233398437500e+00 5.144819617271423340e-01
1.338000000000000000e+03 4.013134384155273438e+01 1.229270172119140625e+01 3.633308172225952148e+00 1.040454101562500000e+01 4.211354732513427734e+00 5.559762954711914062e+00
1.339000000000000000e+03 4.281748962402343750e+01 1.493590450286865234e+01 3.353182971477508545e-01 3.409096240997314453e+00 1.123324394226074219e+00 2.563252687454223633e+00
1.340000000000000000e+03 4.016703033447265625e+01 9.204469680786132812e+00 -2.943103313446044922e-01 9.230340957641601562e+00 2.680809020996093750e+00 3.092471659183502197e-01
1.341000000000000000e+03 3.863684082031250000e+01 9.029520988464355469e+00 -1.664667248725891113e+00 1.413147068023681641e+01 3.740041017532348633e+00 3.514482498168945312e+00
1.342000000000000000e+03 3.862999343872070312e+01 9.501598358154296875e+00 -4.320834279060363770e-01 1.613792610168457031e+01 4.711752891540527344e+00 4.163639068603515625e+00
1.343000000000000000e+03 1.417532634735107422e+01 -1.987380623817443848e+00 -1.715738624334335327e-01 -1.152933482080698013e-02 -5.493095889687538147e-02 7.902728766202926636e-02
1.344000000000000000e+03 1.449611949920654297e+01 -3.847192764282226562e+00 -2.790812849998474121e-01 7.844065129756927490e-02 -6.019219011068344116e-02 1.335434019565582275e-01
1.345000000000000000e+03 1.240833091735839844e+01 -2.737155914306640625e+00 -2.017640024423599243e-01 7.353664189577102661e-02 -3.846820443868637085e-02 4.891949519515037537e-02
1.346000000000000000e+03 3.663516998291015625e+01 2.492872714996337891e+00 5.305595397949218750e+00 1.066163444519042969e+01 4.790168762207031250e+00 1.033745765686035156e+00
1.347000000000000000e+03 6.128748321533203125e+01 -4.355381011962890625e+00 2.201224327087402344e+00 8.170186996459960938e+00 3.111423492431640625e+00 9.329829812049865723e-01
1.348000000000000000e+03 2.375287437438964844e+01 2.010217428207397461e+00 2.930866479873657227e+00 1.096716308593750000e+01 4.169408798217773438e+00 -6.900463581085205078e+00
1.349000000000000000e+03 2.230975914001464844e+01 2.404732942581176758e+00 6.196156501770019531e+00 1.450444698333740234e+01 6.210180759429931641e+00 -2.414568185806274414e+00
1.350000000000000000e+03 2.527578926086425781e+01 -1.129717445373535156e+01 -2.522503137588500977e-01 1.009959411621093750e+01 2.954203128814697266e+00 2.433275938034057617e+00
1.351000000000000000e+03 2.605328178405761719e+01 -1.033094215393066406e+01 -5.436813235282897949e-01 1.122426795959472656e+01 3.204175949096679688e+00 -4.871176779270172119e-01
1.352000000000000000e+03 2.555097007751464844e+01 1.869324302673339844e+01 -2.179389715194702148e+00 6.599002838134765625e+00 1.325883865356445312e+00 -7.158982157707214355e-01
1.353000000000000000e+03 6.643238067626953125e+01 1.382934761047363281e+01 -1.065201759338378906e-01 1.198778343200683594e+01 3.564379215240478516e+00 4.031609892845153809e-01
1.354000000000000000e+03 6.554880523681640625e+01 1.483184719085693359e+01 -9.341068267822265625e-01 1.017187786102294922e+01 2.771331310272216797e+00 -2.706563234329223633e+00
1.355000000000000000e+03 6.831209564208984375e+01 -1.520448684692382812e+01 -2.430545806884765625e+00 -9.278001189231872559e-01 -1.007503747940063477e+00 1.514903545379638672e+00
1.356000000000000000e+03 1.047974014282226562e+01 5.053690910339355469e+00 1.107073497772216797e+01 1.042911624908447266e+01 6.449955463409423828e+00 -7.487549781799316406e+00
1.357000000000000000e+03 4.539951705932617188e+01 -2.522812604904174805e+00 -1.736646741628646851e-01 8.157590866088867188e+00 2.395178079605102539e+00 5.259429454803466797e+00
1.358000000000000000e+03 4.387075805664062500e+01 -3.195203065872192383e+00 7.834291458129882812e-01 8.275949478149414062e+00 2.717813730239868164e+00 -8.156336843967437744e-02
1.359000000000000000e+03 5.213030624389648438e+01 1.067163753509521484e+01 1.291638851165771484e+00 1.331544589996337891e+01 4.382125377655029297e+00 -7.873717695474624634e-02
1.360000000000000000e+03 5.603575515747070312e+01 9.290885925292968750e+00 -1.354588270187377930e-01 3.280672311782836914e+00 9.435640573501586914e-01 5.259980559349060059e-01
1.361000000000000000e+03 5.557442474365234375e+01 8.037588596343994141e-01 -1.482090711593627930e+00 3.811357021331787109e+00 6.987799406051635742e-01 -5.245608329772949219e+00
1.362000000000000000e+03 5.459168624877929688e+01 1.473809242248535156e+00 4.297011852264404297e+00 1.545395469665527344e+01 5.925290107727050781e+00 -5.811134338378906250e+00
1.363000000000000000e+03 5.074845123291015625e+01 1.399380397796630859e+01 3.084495782852172852e+00 1.746238899230957031e+01 6.164065837860107422e+00 -2.594624996185302734e+00
1.364000000000000000e+03 4.940273666381835938e+01 1.548515319824218750e+01 2.676472663879394531e+00 6.563457489013671875e+00 2.771979093551635742e+00 -3.775168180465698242e+00
1.365000000000000000e+03 4.095789718627929688e+01 -2.363144606351852417e-01 -5.376650810241699219e+00 -1.440990328788757324e+00 -2.045292377471923828e+00 -3.144097805023193359e+00
1.366000000000000000e+03 3.588161087036132812e+01 -4.978759959340095520e-02 8.513557314872741699e-01 4.916513919830322266e+00 1.730360865592956543e+00 1.705666899681091309e+00
1.367000000000000000e+03 3.532636260986328125e+01 -1.451263666152954102e+00 -2.514310598373413086e+00 1.457819342613220215e+00 -3.169473707675933838e-01 1.402322053909301758e+00
1.368000000000000000e+03 5.388103103637695312e+01 2.614896595478057861e-01 -3.827556371688842773e+00 1.095893192291259766e+01 2.139412879943847656e+00 -1.591121315956115723e+00
1.369000000000000000e+03 5.233322906494140625e+01 1.434528160095214844e+01 2.298169374465942383e+00 1.037636184692382812e+01 3.802359342575073242e+00 1.701360464096069336e+00
1.370000000000000000e+03 4.777436828613281250e+01 1.872222709655761719e+01 7.742033600807189941e-01 3.663867235183715820e+00 1.331421136856079102e+00 -8.424000144004821777e-01
1.371000000000000000e+03 6.685707855224609375e+01 8.051550865173339844e+00 -5.502440333366394043e-01 1.158869743347167969e+01 3.311535835266113281e+00 -1.014665961265563965e+00
1.372000000000000000e+03 3.973826599121093750e+01 -1.217190265655517578e+00 -2.357836246490478516e+00 1.633793592453002930e+00 -2.172128111124038696e-01 -4.331472873687744141e+00
1.373000000000000000e+03 7.165997314453125000e+01 -4.509328007698059082e-01 -2.155759572982788086e+00 4.205536365509033203e+00 6.149330735206604004e-01 -4.582511425018310547e+00
1.374000000000000000e+03 2.932439422607421875e+01 1.698814779520034790e-01 4.667263507843017578e+00 4.941886901855468750e+00 2.882745265960693359e+00 1.195733666419982910e+00
1.375000000000000000e+03 2.681735038757324219e+01 -2.617745697498321533e-01 3.355703115463256836e+00 2.557285308837890625e+00 1.773896455764770508e+00 -1.393881320953369141e+00
1.376000000000000000e+03 5.193659973144531250e+01 1.158326816558837891e+01 1.936154484748840332e+00 1.388447475433349609e+01 4.746188640594482422e+00 2.071360945701599121e-01
1.377000000000000000e+03 6.144915390014648438e+01 1.533554172515869141e+01 9.759402275085449219e-01 8.480136990547180176e-01 5.471861362457275391e-01 -3.177742063999176025e-01
1.378000000000000000e+03 6.350802230834960938e+01 1.487012481689453125e+01 -9.036173112690448761e-03 2.229716539382934570e+00 6.662040948867797852e-01 -2.140122890472412109e+00
1.379000000000000000e+03 7.326204681396484375e+01 9.781703948974609375e+00 -1.486596703529357910e+00 1.235668540000915527e+00 -7.527847588062286377e-02 -2.095589637756347656e+00
1.380000000000000000e+03 7.454670715332031250e+01 1.009412193298339844e+01 -2.641966044902801514e-01 5.186583518981933594e+00 1.476716041564941406e+00 -2.903377294540405273e+00
1.381000000000000000e+03 6.823350524902343750e+01 3.209924221038818359e+00 2.660724878311157227e+00 8.730076789855957031e+00 3.417240381240844727e+00 -7.199994325637817383e-01
1.382000000000000000e+03 3.626034164428710938e+01 3.678414821624755859e+00 3.224259614944458008e+00 9.465762138366699219e+00 3.807006359100341797e+00 1.197032690048217773e+00
1.383000000000000000e+03 7.681854248046875000e+01 3.463756561279296875e+00 -6.780076026916503906e-01 1.133706855773925781e+01 3.197718143463134766e+00 -1.911579608917236328e+00
1.384000000000000000e+03 5.416370391845703125e+01 4.763657569885253906e+00 9.055184125900268555e-01 1.808443450927734375e+01 5.696985721588134766e+00 2.421176433563232422e+00
1.385000000000000000e+03 5.263131332397460938e+01 3.698285341262817383e+00 3.839743852615356445e+00 1.150206756591796875e+01 4.602543354034423828e+00 -1.200142741203308105e+00
1.386000000000000000e+03 5.305417251586914062e+01 5.054161071777343750e+00 1.343426823616027832e+00 1.446344184875488281e+01 4.742060661315917969e+00 -1.419970035552978516e+00
1.387000000000000000e+03 5.872053909301757812e+01 1.581209421157836914e+00 -6.819148540496826172e+00 -1.638899207115173340e+00 -2.537414312362670898e+00 -2.863449096679687500e+00
1.388000000000000000e+03 5.737951660156250000e+01 -1.131768226623535156e+00 -1.511764049530029297e+00 1.832550883293151855e+00 9.623605757951736450e-02 -3.631044864654541016e+00
1.389000000000000000e+03 7.746014404296875000e+01 1.045751380920410156e+01 -3.269372582435607910e-01 8.657287597656250000e+00 2.499104976654052734e+00 1.336366590112447739e-02
1.390000000000000000e+03 7.581701660156250000e+01 1.078854465484619141e+01 -6.935743689537048340e-01 8.752882957458496094e+00 2.417792797088623047e+00 -2.553616523742675781e+00
1.391000000000000000e+03 4.383401870727539062e+01 8.572430610656738281e-01 -3.266290426254272461e+00 2.682213068008422852e+00 -1.752232164144515991e-01 5.463821887969970703e-01
1.392000000000000000e+03 4.457818222045898438e+01 1.720243811607360840e+00 -1.776801824569702148e+00 1.993434786796569824e+00 6.498992443084716797e-02 9.063740968704223633e-01
1.393000000000000000e+03 7.471903228759765625e+01 -5.175124406814575195e-01 -2.090900182723999023e+00 4.514230728149414062e+00 7.269991636276245117e-01 4.391428530216217041e-01
1.394000000000000000e+03 7.530260467529296875e+01 7.194175720214843750e-01 -3.843686580657958984e+00 6.062674522399902344e+00 6.656964421272277832e-01 7.277684211730957031e-01
1.395000000000000000e+03 4.665844726562500000e+01 5.391046524047851562e+00 8.134436011314392090e-01 1.159130454063415527e+00 5.917721986770629883e-01 9.580981731414794922e-01
1.396000000000000000e+03 4.628481292724609375e+01 1.450184917449951172e+01 6.663712114095687866e-02 7.418637871742248535e-01 2.425502687692642212e-01 4.675386548042297363e-01
1.397000000000000000e+03 6.245495986938476562e+01 3.304110765457153320e+00 -1.802666664123535156e+00 2.739513397216796875e+00 2.810539901256561279e-01 1.289036154747009277e+00
1.398000000000000000e+03 6.402763366699218750e+01 3.344951391220092773e+00 -1.107938051223754883e+00 4.582819938659667969e+00 1.042464494705200195e+00 1.902722358703613281e+00
1.399000000000000000e+03 4.082013702392578125e+01 8.290781021118164062e+00 -4.361470341682434082e-01 2.865266561508178711e+00 7.287358641624450684e-01 -9.995328634977340698e-02
1.400000000000000000e+03 3.937263870239257812e+01 7.717937469482421875e+00 -1.781185865402221680e+00 1.099428272247314453e+01 2.763929128646850586e+00 2.212902784347534180e+00
1.401000000000000000e+03 5.123019790649414062e+01 7.645815849304199219e+00 -3.217051923274993896e-01 1.127516555786132812e+01 3.286037921905517578e+00 -3.964395821094512939e-01
1.402000000000000000e+03 5.510103988647460938e+01 8.784682273864746094e+00 -3.830424845218658447e-01 6.987538337707519531e+00 1.981348752975463867e+00 9.325476288795471191e-01
1.403000000000000000e+03 4.326415634155273438e+01 1.316443634033203125e+01 1.433172821998596191e+00 1.483843088150024414e+00 8.751047849655151367e-01 2.197205543518066406e+00
1.404000000000000000e+03 4.261557006835937500e+01 1.209168720245361328e+01 2.298522949218750000e+00 7.822785377502441406e-01 9.242404699325561523e-01 2.051369428634643555e+00
1.405000000000000000e+03 4.201059722900390625e+01 -1.003399968147277832e+00 -2.204679965972900391e+00 2.266491651535034180e+00 1.854350231587886810e-02 -6.987211704254150391e-01
1.406000000000000000e+03 4.423284149169921875e+01 -2.189331054687500000e+00 -2.016836166381835938e+00 8.389434814453125000e+00 1.911779642105102539e+00 1.408214330673217773e+00
1.407000000000000000e+03 4.669285964965820312e+01 3.531240701675415039e+00 9.209208488464355469e-01 1.924860715866088867e+00 8.537344932556152344e-01 1.613044381141662598e+00
1.408000000000000000e+03 4.912271881103515625e+01 6.762920856475830078e+00 6.958189010620117188e-01 5.524437427520751953e+00 1.866076946258544922e+00 1.689652800559997559e+00
1.409000000000000000e+03 5.926657867431640625e+01 1.336133003234863281e+01 -5.774603486061096191e-01 5.315628051757812500e-01 -1.376926247030496597e-02 2.560285627841949463e-01
1.410000000000000000e+03 4.398582839965820312e+01 1.682695579528808594e+01 3.919112682342529297e-01 3.242642641067504883e+00 1.090366125106811523e+00 1.499676704406738281e+00
1.411000000000000000e+03 4.183648300170898438e+01 9.645709991455078125e+00 -4.226680099964141846e-01 -1.150404930114746094e+00 -4.719218909740447998e-01 -9.784817695617675781e-01
1.412000000000000000e+03 6.143701171875000000e+01 2.321618795394897461e+00 -3.172717332839965820e+00 2.723823547363281250e+00 -1.346681565046310425e-01 5.112399458885192871e-01
1.413000000000000000e+03 6.026569747924804688e+01 1.437160301208496094e+01 -4.050136208534240723e-01 5.025395750999450684e-01 2.925779297947883606e-02 4.625081419944763184e-01
1.414000000000000000e+03 5.637785720825195312e+01 1.095860671997070312e+01 2.396150380373001099e-01 3.469503641128540039e+00 1.112735629081726074e+00 9.325959682464599609e-01
1.415000000000000000e+03 6.528713989257812500e+01 6.388450622558593750e+00 -1.051995307207107544e-01 8.824195861816406250e+00 2.615699052810668945e+00 1.007801771163940430e+00
1.416000000000000000e+03 5.527892303466796875e+01 -1.906754302978515625e+01 8.022661805152893066e-01 6.776782035827636719e+00 2.273714542388916016e+00 3.337456226348876953e+00
1.417000000000000000e+03 6.988246917724609375e+01 9.692072868347167969e-02 -3.545533418655395508e+00 7.108675956726074219e+00 1.068942785263061523e+00 -2.027391672134399414e+00
1.418000000000000000e+03 7.205439758300781250e+01 1.005399036407470703e+01 -1.380585908889770508e+00 -1.034887414425611496e-02 -4.172804653644561768e-01 -6.356974840164184570e-01
1.419000000000000000e+03 1.221367931365966797e+01 4.486348152160644531e+00 1.334428882598876953e+01 9.537004232406616211e-01 4.289396762847900391e+00 -1.387588977813720703e+00
1.420000000000000000e+03 7.972320079803466797e+00 8.212170600891113281e+00 4.894521236419677734e-01 2.297423362731933594e+00 8.360626101493835449e-01 -1.974117040634155273e+00
1.421000000000000000e+03 6.777686309814453125e+01 3.904757976531982422e+00 2.971735954284667969e+00 9.685715675354003906e+00 3.797235488891601562e+00 -1.068027257919311523e+00
1.422000000000000000e+03 6.882422637939453125e+01 7.726544380187988281e+00 -1.397481918334960938e+00 1.060515499114990234e+01 2.762301921844482422e+00 -1.220544576644897461e+00
1.423000000000000000e+03 6.553238677978515625e+01 -1.519583940505981445e+00 -4.292612075805664062e+00 -1.589555740356445312e-01 -1.335470318794250488e+00 3.992842912673950195e+00
1.424000000000000000e+03 6.362145996093750000e+01 1.703033328056335449e+00 -2.560879707336425781e+00 5.022158145904541016e+00 7.383834719657897949e-01 3.013777017593383789e+00
1.425000000000000000e+03 7.097832489013671875e+01 -1.772479057312011719e+01 -7.610726952552795410e-01 5.370578765869140625e+00 1.382851839065551758e+00 3.086674213409423828e+00
1.426000000000000000e+03 2.526017570495605469e+01 1.454286575317382812e+01 3.042475700378417969e+00 1.841119003295898438e+01 6.436099529266357422e+00 2.917228698730468750e+00
1.427000000000000000e+03 4.010460662841796875e+01 -2.057914924621582031e+01 3.180039823055267334e-01 5.033471107482910156e+00 1.605442523956298828e+00 4.319453537464141846e-01
1.428000000000000000e+03 3.932100296020507812e+01 -1.658336639404296875e+01 1.723524212837219238e+00 1.947810411453247070e+00 1.101400375366210938e+00 2.107835054397583008e+00
1.429000000000000000e+03 3.801252365112304688e+01 8.442288398742675781e+00 -1.529482364654541016e+00 1.199653530120849609e+01 3.140115976333618164e+00 4.438622951507568359e+00
1.430000000000000000e+03 2.514093399047851562e+01 9.662769317626953125e+00 -3.313670396804809570e+00 7.086172103881835938e+00 1.131750464439392090e+00 1.765186071395874023e+00
1.431000000000000000e+03 2.584544754028320312e+01 1.267436408996582031e+01 -9.890181422233581543e-01 9.293446540832519531e+00 2.491328477859497070e+00 2.261137366294860840e-01
1.432000000000000000e+03 7.317234802246093750e+01 -9.042901992797851562e+00 9.037843346595764160e-01 9.532550811767578125e+00 3.130900382995605469e+00 5.396000742912292480e-01
1.433000000000000000e+03 2.785368347167968750e+01 -2.812643766403198242e+00 3.186644792556762695e+00 8.028482437133789062e+00 3.364538192749023438e+00 3.156282424926757812e+00
1.434000000000000000e+03 6.235432434082031250e+01 -8.539299964904785156e+00 5.583493709564208984e-01 9.592428207397460938e+00 3.045233249664306641e+00 4.197184741497039795e-01
1.435000000000000000e+03 6.231728744506835938e+01 -1.350148582458496094e+01 -4.091605544090270996e-01 6.562451839447021484e+00 1.845987439155578613e+00 2.860652050003409386e-03
1.436000000000000000e+03 2.323811340332031250e+01 1.925893211364746094e+01 -1.234481573104858398e+00 1.668722033500671387e+00 1.302721649408340454e-01 -1.611973404884338379e+00
1.437000000000000000e+03 2.097034645080566406e+01 1.741332817077636719e+01 -2.333204746246337891e+00 -5.096670985221862793e-01 -8.528615236282348633e-01 -7.469186782836914062e-01
1.438000000000000000e+03 6.665109252929687500e+01 -1.526061916351318359e+01 -1.239973425865173340e+00 1.390064120292663574e+00 4.502719268202781677e-02 6.275489181280136108e-02
1.439000000000000000e+03 3.245339584350585938e+01 -9.313098907470703125e+00 9.231303930282592773e-01 1.721287727355957031e+00 7.933254241943359375e-01 -1.116661548614501953e+00
1.440000000000000000e+03 3.213315582275390625e+01 -1.132279586791992188e+01 1.077437758445739746e+00 2.743212461471557617e+00 1.146195054054260254e+00 -1.568582296371459961e+00
1.441000000000000000e+03 6.497499847412109375e+01 -1.372602367401123047e+01 -7.763819694519042969e-01 3.468997001647949219e+00 8.077844977378845215e-01 -3.828419446945190430e-01
1.442000000000000000e+03 6.827067565917968750e+01 -2.405775547027587891e+00 -4.821307659149169922e+00 3.139729022979736328e+00 -5.044736266136169434e-01 -4.790483117103576660e-01
1.443000000000000000e+03 6.579084777832031250e+01 -1.439336299896240234e+01 -8.890002369880676270e-01 1.965311169624328613e+00 3.228932917118072510e-01 -4.422317743301391602e-01
1.444000000000000000e+03 1.065419292449951172e+01 1.017519664764404297e+01 -1.068802714347839355e+00 1.408687114715576172e+00 1.019653156399726868e-01 -3.955487012863159180e-01
1.445000000000000000e+03 9.797075271606445312e+00 9.315922737121582031e+00 -1.045635581016540527e+00 2.403895378112792969e+00 4.074779152870178223e-01 -9.289311766624450684e-01
1.446000000000000000e+03 1.348248577117919922e+01 4.952335834503173828e+00 2.363057136535644531e+00 -3.058731079101562500e+00 -2.087021619081497192e-01 -1.302841186523437500e+00
1.447000000000000000e+03 6.082035446166992188e+01 -7.578352451324462891e+00 1.040235400199890137e+00 8.765229225158691406e+00 2.941639423370361328e+00 1.559435486793518066e+00
1.448000000000000000e+03 7.015437316894531250e+01 -4.585002899169921875e+00 -1.959643483161926270e+00 3.352740287780761719e+00 4.179290831089019775e-01 -8.936322331428527832e-01
1.449000000000000000e+03 3.473880767822265625e+01 -5.193547606468200684e-01 1.442589282989501953e+00 2.926398217678070068e-01 5.205687284469604492e-01 1.762210845947265625e+00
1.450000000000000000e+03 3.423017501831054688e+01 4.407954514026641846e-01 3.300200700759887695e+00 -1.534853279590606689e-01 9.440146088600158691e-01 3.385044574737548828e+00
1.451000000000000000e+03 3.688167572021484375e+01 -1.504987144470214844e+01 1.127438023686408997e-01 1.148367524147033691e+00 3.783334195613861084e-01 -2.544691264629364014e-01
1.452000000000000000e+03 1.721704292297363281e+01 1.605671691894531250e+01 -2.066798925399780273e+00 -3.557531535625457764e-01 -7.267656326293945312e-01 -7.743576765060424805e-01
1.453000000000000000e+03 1.629675102233886719e+01 5.048391819000244141e+00 1.579279541969299316e+00 -9.282058477401733398e-01 1.953221112489700317e-01 -2.851706027984619141e+00
1.454000000000000000e+03 1.358836650848388672e+01 1.296763801574707031e+01 -1.638917446136474609e+00 -2.955659925937652588e-01 -5.803450345993041992e-01 -7.143431305885314941e-01
1.455000000000000000e+03 8.919710159301757812e+00 8.691150665283203125e+00 -6.027702689170837402e-01 2.495834112167358398e+00 5.679191350936889648e-01 -1.740707397460937500e+00
1.456000000000000000e+03 9.680534362792968750e+00 7.451200485229492188e+00 3.283765912055969238e-01 4.045498847961425781e+00 1.312162637710571289e+00 -1.103261590003967285e+00
1.457000000000000000e+03 1.977266502380371094e+01 1.688586997985839844e+01 -2.521047830581665039e+00 -3.291023373603820801e-01 -8.550450205802917480e-01 -8.748744726181030273e-01
1.458000000000000000e+03 2.156838226318359375e+01 1.628416442871093750e+01 -3.788718461990356445e+00 -6.734014749526977539e-01 -1.338635921478271484e+00 -1.537724614143371582e+00
1.459000000000000000e+03 3.617415237426757812e+01 -2.209991216659545898e+00 -3.476059675216674805e+00 3.610674142837524414e+00 4.038435965776443481e-02 8.036423921585083008e-01
1.460000000000000000e+03 2.825685119628906250e+01 -4.891161441802978516e+00 1.616046667098999023e+00 9.017080307006835938e+00 3.189938068389892578e+00 1.714781761169433594e+00
1.461000000000000000e+03 4.035118103027343750e+01 -1.109501266479492188e+01 5.847276449203491211e-01 9.104024887084960938e+00 2.906625986099243164e+00 -2.094330549240112305e+00
1.462000000000000000e+03 2.033397865295410156e+01 1.567782592773437500e+01 -3.292078256607055664e+00 -8.065642118453979492e-01 -1.229592680931091309e+00 -1.462269902229309082e+00
1.463000000000000000e+03 1.757170295715332031e+01 5.612908840179443359e+00 4.890006780624389648e-01 -1.218345880508422852e+00 -2.188035696744918823e-01 -4.066590368747711182e-01
1.464000000000000000e+03 2.815897178649902344e+01 -6.640412807464599609e+00 2.435403585433959961e+00 9.356350898742675781e+00 3.537526130676269531e+00 2.477491945028305054e-01
1.465000000000000000e+03 1.156363487243652344e+01 1.114140510559082031e+01 -1.206045866012573242e+00 3.461060225963592529e-01 -2.579819560050964355e-01 -4.709806442260742188e-01
1.466000000000000000e+03 2.006628036499023438e+01 6.676064968109130859e+00 4.473426043987274170e-01 6.978262066841125488e-01 3.435506522655487061e-01 -5.797763466835021973e-01
1.467000000000000000e+03 2.129063796997070312e+01 8.604013442993164062e+00 -4.099152565002441406e+00 3.486268758773803711e+00 -1.838650703430175781e-01 -7.695180177688598633e-01
1.468000000000000000e+03 4.171755218505859375e+01 -1.321052742004394531e+01 1.185550093650817871e+00 1.210454559326171875e+01 3.987028598785400391e+00 -1.250673532485961914e-01
1.469000000000000000e+03 3.978376770019531250e+01 -5.859960079193115234e+00 5.679509639739990234e-01 3.512663364410400391e+00 1.224184274673461914e+00 -1.018820881843566895e+00
1.470000000000000000e+03 3.487862777709960938e+01 -1.276264953613281250e+01 6.750540137290954590e-01 1.340224027633666992e+00 6.045834422111511230e-01 -1.021445989608764648e+00
1.471000000000000000e+03 4.192663574218750000e+01 -1.128565883636474609e+01 -3.702228888869285583e-02 9.371598243713378906e+00 2.800372838973999023e+00 7.947555780410766602e-01
1.472000000000000000e+03 3.435462188720703125e+01 -1.524988269805908203e+01 1.736444085836410522e-01 2.148931980133056641e+00 6.967729330062866211e-01 -1.218080997467041016e+00
1.473000000000000000e+03 3.087668037414550781e+01 -8.836279869079589844e+00 1.628772974014282227e+00 3.188505172729492188e+00 1.445183515548706055e+00 -1.609063029289245605e+00
1.474000000000000000e+03 3.288035964965820312e+01 -1.257469749450683594e+01 6.677686572074890137e-01 2.402659654617309570e+00 9.211285114288330078e-01 -1.534644484519958496e+00
1.475000000000000000e+03 3.362535476684570312e+01 -1.384175300598144531e+01 2.403558343648910522e-01 2.469774007797241211e+00 8.130389451980590820e-01 -1.236248731613159180e+00
1.476000000000000000e+03 3.638800048828125000e+01 -1.173315644264221191e+00 -1.137784123420715332e+00 5.323654651641845703e+00 1.255761146545410156e+00 -1.427011936902999878e-01
1.477000000000000000e+03 3.475637817382812500e+01 -1.696442794799804688e+01 4.022741615772247314e-01 2.592185020446777344e+00 8.983377218246459961e-01 -9.844534397125244141e-01
1.478000000000000000e+03 4.095873641967773438e+01 -7.534542560577392578e+00 5.906874537467956543e-01 5.901229858398437500e+00 1.947575211524963379e+00 1.350167542695999146e-01
1.479000000000000000e+03 3.516035079956054688e+01 1.651628303527832031e+01 -1.854946255683898926e+00 5.946603417396545410e-01 -3.780857622623443604e-01 -2.179986953735351562e+00
1.480000000000000000e+03 2.108524322509765625e+01 6.962484359741210938e+00 1.043891549110412598e+00 5.574762821197509766e+00 1.985596299171447754e+00 -3.572076261043548584e-01
1.481000000000000000e+03 2.148698997497558594e+01 4.961274147033691406e+00 5.206681251525878906e+00 7.951435089111328125e+00 3.947434902191162109e+00 -1.218929648399353027e+00
1.482000000000000000e+03 3.072579193115234375e+01 1.506015300750732422e+01 -1.127860903739929199e+00 -9.849700927734375000e-01 -6.338493227958679199e-01 5.227054357528686523e-01
1.483000000000000000e+03 2.952500534057617188e+01 2.603418350219726562e+00 -4.424712657928466797e+00 1.491309762001037598e+00 -8.800208568572998047e-01 4.773215651512145996e-01
1.484000000000000000e+03 2.309980964660644531e+01 8.142106056213378906e+00 -2.537642478942871094e+00 8.513788223266601562e+00 1.792843818664550781e+00 1.662345051765441895e+00
1.485000000000000000e+03 2.208415412902832031e+01 7.502412796020507812e+00 -8.911725282669067383e-01 6.447771549224853516e+00 1.666979789733886719e+00 7.828895449638366699e-01
1.486000000000000000e+03 3.485431671142578125e+01 5.523775100708007812e+00 7.589161992073059082e-01 4.337484836578369141e+00 1.528920292854309082e+00 1.182714462280273438e+00
1.487000000000000000e+03 3.587326049804687500e+01 7.554467678070068359e+00 -6.195948719978332520e-01 5.225623130798339844e+00 1.381808519363403320e+00 2.279687643051147461e+00
1.488000000000000000e+03 2.589913940429687500e+01 4.735292196273803711e-01 1.338079810142517090e+00 1.083161830902099609e+00 7.263724803924560547e-01 -3.929246902465820312e+00
1.489000000000000000e+03 3.133840179443359375e+01 3.803624629974365234e+00 -2.622210264205932617e+00 1.278235673904418945e+00 -4.031923413276672363e-01 9.286178946495056152e-01
1.490000000000000000e+03 2.410780906677246094e+01 8.892775535583496094e+00 -2.870614290237426758e+00 8.894737243652343750e+00 1.807236909866333008e+00 2.395699262619018555e+00
1.491000000000000000e+03 3.256816482543945312e+01 6.499523639678955078e+00 -1.711670160293579102e+00 -9.348134398460388184e-01 -7.939450740814208984e-01 -9.429790973663330078e-01
1.492000000000000000e+03 3.420090866088867188e+01 6.416391372680664062e+00 -3.348158001899719238e-01 2.155367136001586914e+00 5.461654067039489746e-01 7.672575116157531738e-01
1.493000000000000000e+03 3.152502250671386719e+01 5.621708393096923828e+00 -1.861294627189636230e+00 -7.409691810607910156e-01 -7.806791663169860840e-01 -1.497399687767028809e+00
1.494000000000000000e+03 3.225654602050781250e+01 3.179056167602539062e+00 1.957870125770568848e+00 1.626283049583435059e+00 1.075245976448059082e+00 3.820425271987915039e+00
1.495000000000000000e+03 2.992971229553222656e+01 1.227002429962158203e+01 -3.757804632186889648e+00 -2.070926427841186523e+00 -1.748619318008422852e+00 -3.310177326202392578e+00
1.496000000000000000e+03 5.152475357055664062e+01 -3.747918367385864258e+00 -4.709905624389648438e+00 2.761114358901977539e+00 -5.846373438835144043e-01 -3.382031023502349854e-01
1.497000000000000000e+03 4.845235061645507812e+01 -2.173812389373779297e+00 -1.883160948753356934e+00 -9.674915671348571777e-01 -8.551957607269287109e-01 3.110754489898681641e+00
1.498000000000000000e+03 7.785471343994140625e+01 -3.574568557739257812e+01 1.189901120960712433e-02 6.601620674133300781e+00 1.984055995941162109e+00 5.635372176766395569e-02
1.499000000000000000e+03 7.931645202636718750e+01 -3.470093536376953125e+01 1.003380306065082550e-02 6.709513664245605469e+00 2.015864372253417969e+00 2.210025303065776825e-02
1.500000000000000000e+03 7.935724639892578125e+01 -3.057778739929199219e+01 -2.749119512736797333e-02 6.881036281585693359e+00 2.056063413619995117e+00 3.700598701834678650e-02
1.501000000000000000e+03 7.652045440673828125e+01 -3.903941726684570312e+01 6.932248361408710480e-03 6.519609928131103516e+00 1.957962632179260254e+00 3.120568767189979553e-02
1.502000000000000000e+03 7.904061889648437500e+01 -3.874272537231445312e+01 -6.999500095844268799e-03 6.594110012054443359e+00 1.976133108139038086e+00 2.580430172383785248e-02
1.503000000000000000e+03 7.931037902832031250e+01 -2.780607986450195312e+01 -3.141921386122703552e-02 7.067641735076904297e+00 2.110866785049438477e+00 5.481439456343650818e-02
1.504000000000000000e+03 7.807786560058593750e+01 -3.046640205383300781e+01 4.925037920475006104e-02 6.764230251312255859e+00 2.044044256210327148e+00 1.051998734474182129e-01
1.505000000000000000e+03 7.935179138183593750e+01 -2.361814689636230469e+01 4.299666360020637512e-02 7.397387027740478516e+00 2.232115030288696289e+00 3.294038027524948120e-02
1.506000000000000000e+03 7.796106719970703125e+01 -2.625085830688476562e+01 -4.957807809114456177e-02 6.998541831970214844e+00 2.084689140319824219e+00 1.621544063091278076e-01
1.507000000000000000e+03 7.938842010498046875e+01 -2.085732460021972656e+01 4.901073873043060303e-02 7.399944782257080078e+00 2.234686613082885742e+00 -5.230058357119560242e-02
1.508000000000000000e+03 7.802622222900390625e+01 -2.346170806884765625e+01 -1.142199486494064331e-01 7.211789131164550781e+00 2.129270792007446289e+00 1.068802699446678162e-01
1.509000000000000000e+03 7.902673339843750000e+01 3.606343078613281250e+01 -5.443937145173549652e-03 6.869524955749511719e+00 2.059224367141723633e+00 2.212528372183442116e-03
1.510000000000000000e+03 7.648034667968750000e+01 -2.917407417297363281e+01 8.447625488042831421e-02 6.649670124053955078e+00 2.020243883132934570e+00 2.108648270368576050e-01
1.511000000000000000e+03 7.778999328613281250e+01 -3.699439239501953125e+01 1.926121913129463792e-04 6.563812255859375000e+00 1.969201445579528809e+00 4.875329136848449707e-02
1.512000000000000000e+03 7.944992828369140625e+01 1.109820556640625000e+01 9.790386259555816650e-02 7.765793800354003906e+00 2.359109163284301758e+00 3.815747098997235298e-03
1.513000000000000000e+03 7.938032531738281250e+01 1.244619560241699219e+01 -9.590682387351989746e-02 7.738022327423095703e+00 2.292634725570678711e+00 -1.918847300112247467e-02
1.514000000000000000e+03 7.795574951171875000e+01 1.353672218322753906e+01 -1.119947955012321472e-01 7.428246974945068359e+00 2.194875717163085938e+00 -3.593721985816955566e-01
1.515000000000000000e+03 7.935717773437500000e+01 2.090256118774414062e+01 3.498128429055213928e-02 6.643551349639892578e+00 2.003559827804565430e+00 3.035382600501179695e-03
1.516000000000000000e+03 7.935285186767578125e+01 2.227498626708984375e+01 -2.397324517369270325e-02 6.657869338989257812e+00 1.990168809890747070e+00 1.432157214730978012e-02
1.517000000000000000e+03 7.931305694580078125e+01 1.816397476196289062e+01 6.982124596834182739e-02 6.738103389739990234e+00 2.042377471923828125e+00 -6.313963979482650757e-02
1.518000000000000000e+03 7.933947753906250000e+01 2.502950286865234375e+01 -2.310502715408802032e-02 6.722014904022216797e+00 2.009672880172729492e+00 1.884886436164379120e-02
1.519000000000000000e+03 7.933257293701171875e+01 2.640831756591796875e+01 1.886761933565139771e-02 6.754073143005371094e+00 2.031882286071777344e+00 1.759694330394268036e-02
1.520000000000000000e+03 7.788976287841796875e+01 3.029972076416015625e+01 6.587352603673934937e-03 6.738484859466552734e+00 2.023521661758422852e+00 2.930058166384696960e-02
1.521000000000000000e+03 7.793531036376953125e+01 2.896627616882324219e+01 -1.486101001501083374e-02 6.729650020599365234e+00 2.014436721801757812e+00 3.559073433279991150e-02
1.522000000000000000e+03 7.920579528808593750e+01 3.330297470092773438e+01 -1.419693697243928909e-02 6.863532543182373047e+00 2.054800748825073242e+00 6.102766841650009155e-03
1.523000000000000000e+03 7.702994537353515625e+01 1.601322937011718750e+01 2.669065892696380615e-01 6.740056037902832031e+00 2.102088689804077148e+00 -4.017320275306701660e-01
1.524000000000000000e+03 7.943408203125000000e+01 -1.808421707153320312e+01 8.139102905988693237e-02 6.939248561859130859e+00 2.106191873550415039e+00 -1.478274911642074585e-01
1.525000000000000000e+03 7.694062042236328125e+01 -2.057563209533691406e+01 -1.834689378738403320e-01 7.386869907379150391e+00 2.161020278930664062e+00 -2.870898228138685226e-03
1.526000000000000000e+03 7.943933868408203125e+01 -1.533689117431640625e+01 1.163984313607215881e-01 6.242345333099365234e+00 1.907623052597045898e+00 -1.150220111012458801e-01
1.527000000000000000e+03 7.939798736572265625e+01 -1.394779777526855469e+01 -1.127162016928195953e-02 6.124117851257324219e+00 1.833853840827941895e+00 1.206807419657707214e-02
1.528000000000000000e+03 7.938848114013671875e+01 -1.255373382568359375e+01 9.489615261554718018e-02 6.246269226074218750e+00 1.902349591255187988e+00 1.048703268170356750e-01
1.529000000000000000e+03 7.941010284423828125e+01 -1.115255165100097656e+01 8.136643469333648682e-02 6.727847099304199219e+00 2.042763948440551758e+00 3.135136663913726807e-01
1.530000000000000000e+03 7.940721130371093750e+01 -9.743389129638671875e+00 -7.212008349597454071e-04 7.561957359313964844e+00 2.268370866775512695e+00 4.061394035816192627e-01
1.531000000000000000e+03 7.942272949218750000e+01 -8.342335700988769531e+00 4.983646795153617859e-02 8.537352561950683594e+00 2.576156616210937500e+00 4.624378979206085205e-01
1.532000000000000000e+03 7.942838287353515625e+01 -5.608400344848632812e+00 8.123713731765747070e-02 1.096356773376464844e+01 3.313441514968872070e+00 5.289729833602905273e-01
1.533000000000000000e+03 7.935924530029296875e+01 -4.236668109893798828e+00 -6.033722683787345886e-02 1.213226509094238281e+01 3.621578454971313477e+00 5.349019765853881836e-01
1.534000000000000000e+03 7.936454772949218750e+01 -2.825836420059204102e+00 2.081424742937088013e-02 1.320467758178710938e+01 3.967647552490234375e+00 5.003317594528198242e-01
1.535000000000000000e+03 7.941475677490234375e+01 -1.414220452308654785e+00 -1.437783539295196533e-01 1.417828941345214844e+01 4.210353374481201172e+00 3.489198386669158936e-01
1.536000000000000000e+03 7.942299652099609375e+01 1.375581741333007812e+00 -1.784751564264297485e-01 1.394263839721679688e+01 4.129249095916748047e+00 -5.108917355537414551e-01
1.537000000000000000e+03 7.935478210449218750e+01 2.813237428665161133e+00 -2.494923770427703857e-01 1.223485469818115234e+01 3.595608472824096680e+00 -1.023499608039855957e+00
1.538000000000000000e+03 7.938509368896484375e+01 4.256039142608642578e+00 1.530997604131698608e-01 1.013002204895019531e+01 3.084936380386352539e+00 -1.169909119606018066e+00
1.539000000000000000e+03 7.947563171386718750e+01 5.630860805511474609e+00 1.896588802337646484e-01 7.665729045867919922e+00 2.356616497039794922e+00 -7.325458526611328125e-01
1.540000000000000000e+03 7.824787139892578125e+01 4.659770965576171875e+00 4.160657823085784912e-01 1.025859832763671875e+01 3.202399015426635742e+00 -2.137737989425659180e+00
1.541000000000000000e+03 7.939791107177734375e+01 6.999967098236083984e+00 2.229460328817367554e-01 6.447260856628417969e+00 2.001062154769897461e+00 -1.824230253696441650e-01
1.542000000000000000e+03 7.804441070556640625e+01 4.175170135498046875e+01 4.289994388818740845e-02 6.817766189575195312e+00 2.058199882507324219e+00 -1.180684566497802734e-02
1.543000000000000000e+03 7.779627227783203125e+01 3.164082336425781250e+01 -1.262727938592433929e-02 6.742454528808593750e+00 2.018948078155517578e+00 2.796073816716670990e-02
1.544000000000000000e+03 7.742852783203125000e+01 3.432931518554687500e+01 -1.936406642198562622e-02 6.749176502227783203e+00 2.018943786621093750e+00 2.428820356726646423e-02
1.545000000000000000e+03 7.760538482666015625e+01 7.687831401824951172e+00 1.771852374076843262e+00 9.808923721313476562e+00 3.474232912063598633e+00 -3.244635462760925293e-01
1.546000000000000000e+03 7.829299163818359375e+01 -1.414884328842163086e+00 -2.667522132396697998e-01 1.163659667968750000e+01 3.410953283309936523e+00 7.451367378234863281e-01
1.547000000000000000e+03 7.829319763183593750e+01 -1.800354003906250000e+01 -1.208213940262794495e-01 7.254528522491455078e+00 2.140112161636352539e+00 -3.432122468948364258e-01
1.548000000000000000e+03 5.687032318115234375e+01 -1.141016674041748047e+01 3.436264395713806152e-01 8.987781524658203125e+00 2.799422264099121094e+00 -3.444145321846008301e-01
1.549000000000000000e+03 5.598880386352539062e+01 -9.133114814758300781e+00 1.696847230195999146e-01 7.123425483703613281e+00 2.187933206558227539e+00 -6.187239289283752441e-01
1.550000000000000000e+03 5.598231887817382812e+01 -1.455920982360839844e+01 8.457423448562622070e-01 1.378245258331298828e+01 4.388458728790283203e+00 -9.946396350860595703e-01
1.551000000000000000e+03 5.822367477416992188e+01 -1.152779769897460938e+01 4.078947305679321289e-01 8.966387748718261719e+00 2.812284708023071289e+00 8.204414248466491699e-01
1.552000000000000000e+03 4.541690063476562500e+01 -1.149457073211669922e+01 -4.348248243331909180e-01 5.261096000671386719e+00 1.447881460189819336e+00 -1.623790562152862549e-01
1.553000000000000000e+03 5.240110778808593750e+01 -4.840854167938232422e+00 -3.421805381774902344e+00 3.040591001510620117e+00 -1.143643036484718323e-01 -1.042974665760993958e-01
1.554000000000000000e+03 5.103897476196289062e+01 -2.534286022186279297e+00 -3.962390661239624023e+00 2.819925069808959961e+00 -3.427396714687347412e-01 -1.107232570648193359e-01
1.555000000000000000e+03 4.409521102905273438e+01 -8.770726203918457031e+00 -4.095494449138641357e-01 9.072683334350585938e+00 2.598940372467041016e+00 2.900208532810211182e-01
1.556000000000000000e+03 4.486609268188476562e+01 -6.992480754852294922e+00 3.776943683624267578e-01 1.265124702453613281e+01 3.908682346343994141e+00 -1.660210728645324707e+00
1.557000000000000000e+03 5.735534286499023438e+01 -1.555154991149902344e+01 1.267906904220581055e+00 1.201492881774902344e+01 3.984850645065307617e+00 6.433605551719665527e-01
1.558000000000000000e+03 4.206375885009765625e+01 -9.610872268676757812e+00 -2.559384405612945557e-01 8.427348136901855469e+00 2.451422929763793945e+00 9.892318844795227051e-01
1.559000000000000000e+03 4.605119705200195312e+01 -1.493502712249755859e+01 3.576061427593231201e-01 3.526329517364501953e+00 1.165180683135986328e+00 -8.836456537246704102e-01
1.560000000000000000e+03 5.415263748168945312e+01 -6.983855247497558594e+00 -4.257854223251342773e-01 4.323639392852783203e+00 1.169356226921081543e+00 -1.101706624031066895e+00
1.561000000000000000e+03 5.072188568115234375e+01 -1.890537261962890625e+01 -6.850470304489135742e-01 9.357731342315673828e-01 7.521782815456390381e-02 -4.794512689113616943e-01
1.562000000000000000e+03 5.502512359619140625e+01 -8.060986518859863281e+00 6.915525346994400024e-02 5.565016746520996094e+00 1.690251708030700684e+00 -1.226901531219482422e+00
1.563000000000000000e+03 2.608824348449707031e+01 -8.489157676696777344e+00 5.956888675689697266e+00 1.685577201843261719e+01 6.843798637390136719e+00 1.478854537010192871e+00
1.564000000000000000e+03 2.719479370117187500e+01 -7.560626983642578125e+00 3.069057941436767578e+00 1.042260265350341797e+01 4.047498226165771484e+00 -1.560609638690948486e-01
1.565000000000000000e+03 2.673967933654785156e+01 -3.666325330734252930e+00 2.781458139419555664e+00 9.346377372741699219e+00 3.638350725173950195e+00 5.001114010810852051e-01
1.566000000000000000e+03 2.226648712158203125e+01 -1.374264121055603027e+00 2.036700248718261719e+00 5.781039237976074219e+00 2.345321893692016602e+00 -3.979064226150512695e+00
1.567000000000000000e+03 1.521967029571533203e+01 -4.151114940643310547e+00 -3.710289895534515381e-01 -2.424851432442665100e-02 -1.185832470655441284e-01 1.070460304617881775e-01
1.568000000000000000e+03 2.419857406616210938e+01 2.159722447395324707e-01 8.633471727371215820e-01 7.451765537261962891e+00 2.494533777236938477e+00 -7.225021839141845703e+00
1.569000000000000000e+03 2.416872215270996094e+01 -1.852928400039672852e+00 1.984794020652770996e+00 7.147899627685546875e+00 2.739808082580566406e+00 -4.567166805267333984e+00
1.570000000000000000e+03 1.804983329772949219e+01 -7.730404376983642578e+00 -5.621587634086608887e-01 1.177319660782814026e-01 -1.333280354738235474e-01 1.333319544792175293e-01
1.571000000000000000e+03 3.360385417938232422e+00 2.602533721923828125e+01 7.732289843261241913e-03 1.410905480384826660e+00 4.255913197994232178e-01 1.743333786725997925e-01
1.572000000000000000e+03 1.941800236701965332e+00 2.886395645141601562e+01 -1.688207872211933136e-02 1.434460520744323730e+00 4.252735376358032227e-01 1.205992251634597778e-01
1.573000000000000000e+03 1.969446778297424316e+00 3.279769897460937500e+01 2.286480739712715149e-02 1.257146000862121582e+00 3.840032219886779785e-01 8.952141553163528442e-02
1.574000000000000000e+03 6.343368291854858398e-01 3.176943397521972656e+01 2.009532414376735687e-02 1.341533064842224121e+00 4.084885120391845703e-01 3.313175216317176819e-02
1.575000000000000000e+03 2.195944547653198242e+00 3.536899185180664062e+01 1.930306665599346161e-02 1.170391798019409180e+00 3.569084703922271729e-01 7.092661410570144653e-02
1.576000000000000000e+03 3.781435251235961914e+00 3.898517990112304688e+01 2.983726561069488525e-02 1.099207639694213867e+00 3.387134671211242676e-01 5.394016206264495850e-02
1.577000000000000000e+03 1.076572299003601074e+00 3.863672256469726562e+01 -3.352544968947768211e-03 1.092113256454467773e+00 3.266282379627227783e-01 2.092522382736206055e-02
1.578000000000000000e+03 2.939950704574584961e+00 -3.813904953002929688e+01 1.759276539087295532e-02 -3.250235021114349365e-01 -9.222921729087829590e-02 6.427201628684997559e-02
1.579000000000000000e+03 1.915746927261352539e+00 2.332135009765625000e+01 -4.929759353399276733e-02 1.683027148246765137e+00 4.901188611984252930e-01 8.846805244684219360e-02
1.580000000000000000e+03 1.992904901504516602e+00 2.612696266174316406e+01 -2.734365500509738922e-02 1.556769013404846191e+00 4.588276147842407227e-01 1.206407099962234497e-01
1.581000000000000000e+03 2.458520412445068359e+00 3.662105560302734375e+01 1.282622199505567551e-02 1.134574770927429199e+00 3.442203104496002197e-01 6.657305359840393066e-02
1.582000000000000000e+03 7.350925803184509277e-01 -3.044982337951660156e+01 5.063479184173047543e-04 -6.383260488510131836e-01 -1.913459151983261108e-01 7.310184184461832047e-03
1.583000000000000000e+03 7.722578048706054688e-01 -2.341601753234863281e+01 -5.489444825798273087e-03 -6.946895718574523926e-01 -2.100537121295928955e-01 3.088732715696096420e-03
1.584000000000000000e+03 2.296899318695068359e+00 -2.624651908874511719e+01 1.074267644435167313e-02 -4.684500992298126221e-01 -1.373122185468673706e-01 2.129763737320899963e-02
1.585000000000000000e+03 2.242855787277221680e+00 -3.303265380859375000e+01 4.296583589166402817e-03 -4.121256470680236816e-01 -1.223487183451652527e-01 2.478250302374362946e-02
1.586000000000000000e+03 2.777817487716674805e+00 -3.685140609741210938e+01 1.119325868785381317e-02 -3.567947447299957275e-01 -1.036804467439651489e-01 2.387993596494197845e-02
1.587000000000000000e+03 5.853338241577148438e-01 -6.469490528106689453e+00 -4.686206113547086716e-03 -1.260665804147720337e-01 -3.922583535313606262e-02 -2.489049546420574188e-02
1.588000000000000000e+03 6.160852313041687012e-01 -1.067498588562011719e+01 7.052790373563766479e-03 -3.307347297668457031e-01 -9.710458666086196899e-02 -3.039124980568885803e-02
1.589000000000000000e+03 6.359025239944458008e-01 -1.208144760131835938e+01 -8.023401722311973572e-03 -4.009396135807037354e-01 -1.226889044046401978e-01 -3.176075965166091919e-02
1.590000000000000000e+03 6.538474559783935547e-01 -1.349257373809814453e+01 1.023275684565305710e-02 -4.693841934204101562e-01 -1.377454251050949097e-01 -2.902305498719215393e-02
1.591000000000000000e+03 6.979187130928039551e-01 -1.774062538146972656e+01 -7.670243270695209503e-03 -6.251738071441650391e-01 -1.898532211780548096e-01 -1.807773858308792114e-02
1.592000000000000000e+03 1.981405735015869141e+00 1.627446174621582031e+01 -5.784178525209426880e-02 1.501702070236206055e+00 4.331580698490142822e-01 -2.588818073272705078e-01
1.593000000000000000e+03 6.551029682159423828e-01 1.490713310241699219e+01 1.770879514515399933e-02 1.471023440361022949e+00 4.466196596622467041e-01 -1.431511193513870239e-01
1.594000000000000000e+03 6.102671623229980469e-01 1.067087268829345703e+01 -4.887258261442184448e-02 1.286907494068145752e-01 2.394544892013072968e-02 -2.446887046098709106e-01
1.595000000000000000e+03 5.911867618560791016e-01 7.839076042175292969e+00 6.775419693440198898e-03 -8.961785435676574707e-01 -2.668209373950958252e-01 -1.443946212530136108e-01
1.596000000000000000e+03 1.977549195289611816e+00 1.911524391174316406e+01 -2.865274995565414429e-02 1.693235874176025391e+00 4.993749558925628662e-01 -6.508155912160873413e-02
1.597000000000000000e+03 1.520564556121826172e+00 5.088811874389648438e+00 2.235682904720306396e-01 -7.762820720672607422e-01 -1.658141314983367920e-01 1.602371931076049805e-01
1.598000000000000000e+03 1.922001361846923828e+00 2.192271804809570312e+01 -2.810650737956166267e-03 1.715207457542419434e+00 5.137190222740173340e-01 5.162989348173141479e-02
1.599000000000000000e+03 3.510681390762329102e+00 -3.926375198364257812e+01 -5.523657891899347305e-03 -3.145136535167694092e-01 -9.601119160652160645e-02 1.730324514210224152e-02
1.600000000000000000e+03 2.224126338958740234e+00 -3.172828483581542969e+01 3.132128389552235603e-03 -4.275643229484558105e-01 -1.273296624422073364e-01 2.699500508606433868e-02
1.601000000000000000e+03 2.363794326782226562e+00 -2.482389259338378906e+01 4.602713510394096375e-03 -4.772721827030181885e-01 -1.418008357286453247e-01 1.652885228395462036e-02
1.602000000000000000e+03 7.731887698173522949e-01 -2.482516479492187500e+01 5.527546629309654236e-03 -6.909797191619873047e-01 -2.056356519460678101e-01 2.631798153743147850e-03
1.603000000000000000e+03 2.146373987197875977e+00 -1.910104370117187500e+01 5.164297763258218765e-03 -4.805288314819335938e-01 -1.426093578338623047e-01 -3.698877990245819092e-02
1.604000000000000000e+03 6.693467497825622559e-01 -1.490751361846923828e+01 -8.072210475802421570e-03 -5.294993519783020020e-01 -1.612714678049087524e-01 -2.714542299509048462e-02
1.605000000000000000e+03 2.968734979629516602e+00 -6.655061721801757812e+00 -2.084594033658504486e-02 -9.375545382499694824e-02 -3.438041731715202332e-02 -1.038767844438552856e-01
1.606000000000000000e+03 5.860336422920227051e-01 -7.874704360961914062e+00 3.691375721246004105e-03 -1.900591552257537842e-01 -5.591033399105072021e-02 -2.671302109956741333e-02
1.607000000000000000e+03 2.170759201049804688e+00 -4.049236774444580078e+00 -1.887478865683078766e-02 -5.507282912731170654e-02 -2.218428626656532288e-02 -5.192767456173896790e-02
1.608000000000000000e+03 1.932410836219787598e+00 1.342777442932128906e+01 -5.798532068729400635e-02 1.066144943237304688e+00 3.024478852748870850e-01 -5.181618928909301758e-01
1.609000000000000000e+03 5.191266250610351562e+01 -1.764600753784179688e+01 -1.212313890457153320e+00 -4.295240342617034912e-01 -4.925513565540313721e-01 9.839690923690795898e-01
1.610000000000000000e+03 2.336144447326660156e+01 1.014271163940429688e+01 -4.034740447998046875e+00 6.881295680999755859e+00 8.539665341377258301e-01 1.377829909324645996e+00
1.611000000000000000e+03 6.636672973632812500e+01 5.775797367095947266e+00 2.268270254135131836e-01 8.946852684020996094e+00 2.752103805541992188e+00 -7.909390926361083984e-01
1.612000000000000000e+03 3.631120681762695312e+01 1.445380401611328125e+01 -2.512558221817016602e+00 2.705352067947387695e+00 5.783813074231147766e-02 -1.593168735504150391e+00
1.613000000000000000e+03 3.508121109008789062e+01 1.504803943634033203e+01 -3.674425601959228516e+00 3.709507882595062256e-01 -9.910424351692199707e-01 -1.180308699607849121e+00
1.614000000000000000e+03 5.175276947021484375e+01 -1.997140502929687500e+01 3.910663425922393799e-01 1.066629290580749512e+00 4.373086988925933838e-01 -8.595062047243118286e-02
1.615000000000000000e+03 5.390494155883789062e+01 -2.233618927001953125e+01 6.471598744392395020e-01 2.815323114395141602e+00 1.038744926452636719e+00 1.483650088310241699e+00
1.616000000000000000e+03 3.610918426513671875e+01 9.605237007141113281e+00 1.692609906196594238e+00 1.665774345397949219e+00 1.007515311241149902e+00 1.772088766098022461e+00
1.617000000000000000e+03 3.604072570800781250e+01 8.632464408874511719e+00 3.972921371459960938e-01 4.427803993225097656e+00 1.447528839111328125e+00 2.310643434524536133e+00
1.618000000000000000e+03 3.803945159912109375e+01 1.307213115692138672e+01 -7.922930121421813965e-01 9.597441673278808594e+00 2.641544580459594727e+00 -2.400367021560668945e+00
1.619000000000000000e+03 3.735525894165039062e+01 1.352504634857177734e+01 -7.005019187927246094e-01 5.137766838073730469e+00 1.331179499626159668e+00 -1.979091167449951172e+00
1.620000000000000000e+03 3.738462829589843750e+01 8.628217697143554688e+00 -3.769436180591583252e-01 9.091793060302734375e+00 2.614454746246337891e+00 4.780794620513916016e+00
1.621000000000000000e+03 3.789162826538085938e+01 9.204936027526855469e+00 -4.140782356262207031e-01 1.140055656433105469e+01 3.295943737030029297e+00 5.942760944366455078e+00
1.622000000000000000e+03 3.631622314453125000e+01 9.544217109680175781e+00 1.134667754173278809e+00 2.938635826110839844e+00 1.221991062164306641e+00 2.300885915756225586e+00
1.623000000000000000e+03 3.630578231811523438e+01 9.208751678466796875e+00 9.017715454101562500e-01 4.027827739715576172e+00 1.478879809379577637e+00 2.679003000259399414e+00
1.624000000000000000e+03 3.641953659057617188e+01 1.335157775878906250e+01 -1.689971387386322021e-01 1.208694696426391602e+00 3.119092583656311035e-01 -8.164128065109252930e-01
1.625000000000000000e+03 3.916429138183593750e+01 1.409326076507568359e+01 -2.029588222503662109e+00 9.298031806945800781e+00 2.180533170700073242e+00 1.155573010444641113e+00
1.626000000000000000e+03 1.068602561950683594e+01 -3.438878536224365234e+00 -1.938566863536834717e-01 4.737013950943946838e-02 -4.394596442580223083e-02 -2.525593712925910950e-02
1.627000000000000000e+03 9.377302169799804688e+00 -2.597026586532592773e+00 -1.611816287040710449e-01 4.923700541257858276e-02 -3.358338400721549988e-02 -3.704042360186576843e-02
1.628000000000000000e+03 1.095165538787841797e+01 4.229639053344726562e+00 1.286185455322265625e+01 7.001970291137695312e+00 5.959147453308105469e+00 -3.537189245223999023e+00
1.629000000000000000e+03 1.113491344451904297e+01 2.249299764633178711e+00 1.790843307971954346e-01 3.144096136093139648e+00 9.969541430473327637e-01 -1.836267948150634766e+00
1.630000000000000000e+03 8.887112617492675781e+00 3.271840810775756836e+00 3.190917730331420898e+00 1.118648529052734375e+00 1.292869925498962402e+00 9.997064471244812012e-01
1.631000000000000000e+03 1.070357131958007812e+01 3.060424327850341797e+00 3.704442262649536133e+00 4.677065372467041016e+00 2.514452219009399414e+00 -9.877401590347290039e-01
1.632000000000000000e+03 1.295658111572265625e+01 2.649813652038574219e+00 2.985656261444091797e+00 -1.114281639456748962e-01 8.622684478759765625e-01 -3.557209968566894531e+00
1.633000000000000000e+03 1.224316787719726562e+01 3.700218439102172852e+00 6.360440731048583984e+00 1.578188896179199219e+00 2.381588697433471680e+00 -4.197880268096923828e+00
1.634000000000000000e+03 1.297600173950195312e+01 -3.601522684097290039e+00 -2.369655072689056396e-01 9.804079681634902954e-02 -4.167741164565086365e-02 6.011598557233810425e-02
1.635000000000000000e+03 6.328906059265136719e+00 -4.066453933715820312e+00 -9.154384583234786987e-02 9.146355092525482178e-03 -2.471924759447574615e-02 -9.232172369956970215e-02
1.636000000000000000e+03 4.129635810852050781e+00 -3.507984161376953125e+00 -5.181733146309852600e-02 -1.949317008256912231e-02 -2.139315009117126465e-02 -7.170519232749938965e-02
1.637000000000000000e+03 2.133082866668701172e+00 -2.773700714111328125e+00 -1.883490383625030518e-02 -3.144500404596328735e-02 -1.508397236466407776e-02 -3.814005106687545776e-02
1.638000000000000000e+03 3.177467346191406250e+00 -4.379757881164550781e+00 -3.099818527698516846e-02 -4.403537511825561523e-02 -2.251006849110126495e-02 -7.561474293470382690e-02
1.639000000000000000e+03 9.748266220092773438e+00 -4.165157318115234375e+00 -1.710710972547531128e-01 5.025515332818031311e-02 -3.624478355050086975e-02 -6.707990914583206177e-02
1.640000000000000000e+03 7.153473377227783203e+00 -2.564677953720092773e+00 -1.106920614838600159e-01 -2.291970886290073395e-03 -3.389520943164825439e-02 -6.391520053148269653e-02
1.641000000000000000e+03 5.639462947845458984e+00 -4.079228401184082031e+00 -7.766703516244888306e-02 -9.423555806279182434e-03 -2.612717635929584503e-02 -9.580796957015991211e-02
1.642000000000000000e+03 7.795745372772216797e+00 -3.273663282394409180e+00 -1.200108826160430908e-01 7.758941035717725754e-03 -3.367558121681213379e-02 -7.491982728242874146e-02
1.643000000000000000e+03 8.513590812683105469e+00 -3.289383172988891602e+00 -1.436544358730316162e-01 4.871260747313499451e-02 -2.848254889249801636e-02 -6.598635762929916382e-02
1.644000000000000000e+03 6.587347030639648438e+00 2.640082120895385742e+00 4.493406116962432861e-01 -3.879088759422302246e-01 1.842952333390712738e-02 1.289957165718078613e+00
1.645000000000000000e+03 6.637911796569824219e+00 4.231003284454345703e+00 2.473393201828002930e+00 -3.497692048549652100e-01 6.370871663093566895e-01 1.809856444597244263e-01
1.646000000000000000e+03 2.892899990081787109e+00 4.312992095947265625e+00 3.828682899475097656e-01 -5.273873805999755859e-01 -4.335572570562362671e-02 4.350975453853607178e-01
1.647000000000000000e+03 2.823576927185058594e+00 2.792771100997924805e+00 -9.476998820900917053e-03 -3.951920270919799805e-01 -1.214007064700126648e-01 6.848539710044860840e-01
1.648000000000000000e+03 6.671163558959960938e+00 3.435340166091918945e+00 1.808729529380798340e+00 -5.077979564666748047e-01 3.902794718742370605e-01 8.586407899856567383e-01
1.649000000000000000e+03 5.116425514221191406e+00 4.267561912536621094e+00 1.341919302940368652e+00 -4.867632687091827393e-01 2.565468251705169678e-01 3.470690846443176270e-01
1.650000000000000000e+03 3.548647165298461914e+00 2.728376626968383789e+00 7.041392847895622253e-03 -3.477844893932342529e-01 -1.022229269146919250e-01 7.609222531318664551e-01
1.651000000000000000e+03 4.334766387939453125e+00 3.499738216400146484e+00 5.305233597755432129e-01 -4.504792392253875732e-01 2.401323430240154266e-02 6.995642781257629395e-01
1.652000000000000000e+03 1.048389148712158203e+01 2.412197351455688477e+00 5.914896130561828613e-01 2.530114173889160156e+00 9.364811778068542480e-01 -5.614650249481201172e-01
1.653000000000000000e+03 8.454567909240722656e+00 4.785003662109375000e+00 5.001356601715087891e+00 1.024937868118286133e+00 1.807888269424438477e+00 -1.300294280052185059e+00
1.654000000000000000e+03 9.782649040222167969e+00 4.072466850280761719e+00 6.109293460845947266e+00 3.897159099578857422e+00 3.001935720443725586e+00 -5.431511998176574707e-01
1.655000000000000000e+03 1.220810222625732422e+01 -3.534088611602783203e+00 -2.368418425321578979e-01 6.224679574370384216e-02 -5.237851291894912720e-02 2.026369236409664154e-02
1.656000000000000000e+03 1.373956489562988281e+01 -3.689388990402221680e+00 -2.736620008945465088e-01 4.410984367132186890e-02 -6.886564940214157104e-02 5.990891531109809875e-02
1.657000000000000000e+03 6.978280639648437500e+01 1.282054996490478516e+01 1.930134296417236328e+00 6.015335083007812500e+00 2.383640766143798828e+00 1.495643138885498047e+00
1.658000000000000000e+03 6.993750762939453125e+01 1.033586406707763672e+01 4.805257022380828857e-01 5.630842685699462891e+00 1.833410501480102539e+00 1.007452726364135742e+00
1.659000000000000000e+03 7.734043884277343750e+01 -7.485461980104446411e-02 -1.340137004852294922e+00 1.023114299774169922e+01 2.667301893234252930e+00 3.071314096450805664e-01
1.660000000000000000e+03 7.622229003906250000e+01 9.975076913833618164e-01 -3.165878772735595703e+00 8.257920265197753906e+00 1.527612447738647461e+00 -3.368699550628662109e-01
1.661000000000000000e+03 6.077409362792968750e+01 1.669507026672363281e+01 1.068014740943908691e+00 1.953518629074096680e+00 9.064599871635437012e-01 1.706216484308242798e-01
1.662000000000000000e+03 3.075539398193359375e+01 2.568394899368286133e+00 -4.228349924087524414e-01 2.903040885925292969e+00 7.440617680549621582e-01 3.210344552993774414e+00
1.663000000000000000e+03 2.760423851013183594e+01 5.311833620071411133e-01 2.711747646331787109e+00 6.992169618606567383e-01 1.023289442062377930e+00 -4.649599194526672363e-01
1.664000000000000000e+03 3.950758361816406250e+01 1.360275459289550781e+01 -1.490621447563171387e+00 1.021242523193359375e+01 2.616541147232055664e+00 2.177242994308471680e+00
1.665000000000000000e+03 2.707608413696289062e+01 1.231004142761230469e+01 -1.586208224296569824e+00 3.704019546508789062e+00 6.353434324264526367e-01 -2.160596251487731934e-01
1.666000000000000000e+03 2.449231147766113281e+01 1.094655132293701172e+01 -3.804370880126953125e+00 8.622365951538085938e+00 1.445398569107055664e+00 1.930630683898925781e+00
1.667000000000000000e+03 7.026113128662109375e+01 -8.619778752326965332e-01 -2.856826066970825195e+00 5.236684322357177734e+00 7.139574289321899414e-01 -3.311200618743896484e+00
1.668000000000000000e+03 6.865722656250000000e+01 1.046031594276428223e+00 -1.398911237716674805e+00 8.628934860229492188e+00 2.169007062911987305e+00 -5.307983160018920898e-01
1.669000000000000000e+03 3.569974517822265625e+01 6.140103816986083984e+00 2.871923148632049561e-02 6.104254722595214844e+00 1.839892268180847168e+00 1.909647464752197266e+00
1.670000000000000000e+03 3.343935775756835938e+01 1.862680625915527344e+01 -2.222758680582046509e-01 5.797985792160034180e-01 1.072568148374557495e-01 -3.925686478614807129e-01
1.671000000000000000e+03 3.302273941040039062e+01 1.702021026611328125e+01 -4.495854079723358154e-01 -5.861133337020874023e-01 -3.107096254825592041e-01 -1.514348536729812622e-01
1.672000000000000000e+03 6.293647384643554688e+01 -1.089151263236999512e+00 -4.529546260833740234e+00 7.808618545532226562e+00 9.837216734886169434e-01 2.881236314773559570e+00
1.673000000000000000e+03 4.724229812622070312e+01 5.696862936019897461e-01 -4.144410789012908936e-01 2.266861915588378906e+00 5.557262897491455078e-01 3.578241109848022461e+00
1.674000000000000000e+03 4.947253417968750000e+01 -2.019663429260253906e+01 4.129639863967895508e-01 1.973176956176757812e+00 7.158422470092773438e-01 -9.564599990844726562e-01
1.675000000000000000e+03 3.848605728149414062e+01 6.379123210906982422e+00 -4.675928354263305664e-01 1.112111759185791016e+01 3.196057558059692383e+00 3.595766067504882812e+00
1.676000000000000000e+03 3.640072250366210938e+01 5.275293827056884766e+00 1.228814244270324707e+00 8.268156051635742188e+00 2.849091053009033203e+00 1.849516749382019043e+00
1.677000000000000000e+03 7.459413909912109375e+01 -1.353559780120849609e+01 1.634889721870422363e+00 9.673147201538085938e+00 3.392410993576049805e+00 7.638644576072692871e-01
1.678000000000000000e+03 7.396392059326171875e+01 -9.989489555358886719e+00 1.288307070732116699e+00 9.849823951721191406e+00 3.341439485549926758e+00 7.041040062904357910e-01
1.679000000000000000e+03 5.338183212280273438e+01 8.715348243713378906e+00 -6.173443794250488281e-01 1.098540306091308594e+01 3.110417604446411133e+00 -4.964708685874938965e-01
1.680000000000000000e+03 6.701171875000000000e+01 4.375758647918701172e+00 1.735926270484924316e+00 9.364982604980468750e+00 3.330272674560546875e+00 -4.198249578475952148e-01
1.681000000000000000e+03 6.845352172851562500e+01 2.219688892364501953e+00 9.127061367034912109e-01 9.422405242919921875e+00 3.100533485412597656e+00 5.026287436485290527e-01
1.682000000000000000e+03 2.151620292663574219e+01 5.952424049377441406e+00 1.462112188339233398e+00 8.022562026977539062e+00 2.845402240753173828e+00 5.385735034942626953e-01
1.683000000000000000e+03 4.850443267822265625e+01 4.067888736724853516e+00 1.649365901947021484e+00 3.874285697937011719e+00 1.657095551490783691e+00 1.381726384162902832e+00
1.684000000000000000e+03 4.056993484497070312e+01 -2.554325819015502930e+00 -4.818457663059234619e-01 2.318438529968261719e+00 5.509778261184692383e-01 -3.028780221939086914e+00
1.685000000000000000e+03 4.177013778686523438e+01 -2.038763999938964844e+00 -2.624531686305999756e-01 2.434482812881469727e+00 6.516088843345642090e-01 -1.487562775611877441e+00
1.686000000000000000e+03 4.598918151855468750e+01 -1.951157379150390625e+01 3.607921302318572998e-02 3.894184827804565430e+00 1.179079174995422363e+00 -1.657438397407531738e+00
1.687000000000000000e+03 4.761951828002929688e+01 -1.777483749389648438e+01 1.223541945219039917e-01 2.339652538299560547e+00 7.386019825935363770e-01 -1.183254122734069824e+00
1.688000000000000000e+03 2.981621360778808594e+01 -9.482680320739746094e+00 1.230284690856933594e+00 4.910109996795654297e+00 1.842118382453918457e+00 -2.676443815231323242e+00
1.689000000000000000e+03 3.623292541503906250e+01 1.496544599533081055e+00 5.870018482208251953e+00 8.263492584228515625e+00 4.240053176879882812e+00 1.897728800773620605e+00
1.690000000000000000e+03 4.497865295410156250e+01 -1.473662471771240234e+01 7.703371644020080566e-01 4.950993537902832031e+00 1.716399192810058594e+00 -9.893817901611328125e-01
1.691000000000000000e+03 4.394519805908203125e+01 -1.441347885131835938e+01 1.352030277252197266e+00 6.786251544952392578e+00 2.441484689712524414e+00 -2.655547857284545898e-01
1.692000000000000000e+03 4.610598373413085938e+01 1.419876694679260254e+00 -8.148974180221557617e-01 2.634770870208740234e+00 5.459620356559753418e-01 2.813655376434326172e+00
1.693000000000000000e+03 7.205985260009765625e+01 -5.059654712677001953e+00 -1.346044063568115234e+00 5.676705837249755859e+00 1.299198508262634277e+00 -6.295433044433593750e-01
1.694000000000000000e+03 4.297182464599609375e+01 -9.114509582519531250e+00 -3.843818008899688721e-01 9.061772346496582031e+00 2.603217363357543945e+00 1.009067177772521973e+00
1.695000000000000000e+03 4.270951461791992188e+01 -1.210923290252685547e+01 4.354182183742523193e-01 8.922407150268554688e+00 2.807347774505615234e+00 5.658468604087829590e-01
1.696000000000000000e+03 3.760594177246093750e+01 -8.560273051261901855e-01 -2.876578569412231445e+00 9.317537307739257812e+00 1.932287693023681641e+00 -1.814301252365112305e+00
1.697000000000000000e+03 7.889459133148193359e+00 3.791776895523071289e+00 3.305585622787475586e+00 1.070852130651473999e-01 1.023801326751708984e+00 3.141627609729766846e-01
1.698000000000000000e+03 2.624057197570800781e+01 1.735038185119628906e+01 -2.149303913116455078e+00 7.214813709259033203e+00 1.519652962684631348e+00 2.049381971359252930e+00
1.699000000000000000e+03 2.411824989318847656e+01 -1.029627323150634766e+01 1.721884846687316895e+00 3.946894407272338867e+00 1.700633764266967773e+00 3.896316289901733398e+00
1.700000000000000000e+03 3.227373123168945312e+01 -1.473022460937500000e+01 1.569586396217346191e-01 3.088294506072998047e+00 9.735759496688842773e-01 -1.531109929084777832e+00
1.701000000000000000e+03 3.058308219909667969e+01 1.246204376220703125e+00 -4.502046704292297363e-01 5.568619251251220703e+00 1.535524368286132812e+00 4.454266071319580078e+00
1.702000000000000000e+03 7.499256896972656250e+01 1.294869804382324219e+01 5.117635130882263184e-01 5.639205455780029297e+00 1.845290660858154297e+00 -1.738299012184143066e+00
1.703000000000000000e+03 4.489203262329101562e+01 8.244387507438659668e-01 -2.596668243408203125e+00 3.734893321990966797e+00 3.414675593376159668e-01 1.958551049232482910e+00
1.704000000000000000e+03 4.995172500610351562e+01 6.138833999633789062e+00 5.411255955696105957e-01 7.848922729492187500e+00 2.517014503479003906e+00 8.423909544944763184e-01
1.705000000000000000e+03 4.987071228027343750e+01 7.713190555572509766e+00 2.641992177814245224e-03 9.360489845275878906e+00 2.808939695358276367e+00 1.816835284233093262e+00
1.706000000000000000e+03 6.868458557128906250e+01 -1.722910881042480469e+01 3.900056779384613037e-01 6.272466182708740234e-01 3.051756918430328369e-01 7.407769560813903809e-01
1.707000000000000000e+03 6.731424713134765625e+01 -1.582099676132202148e+00 -3.149787187576293945e+00 3.040717840194702148e+00 -3.272083029150962830e-02 -7.193312793970108032e-02
1.708000000000000000e+03 6.632489013671875000e+01 2.882683277130126953e-01 -1.614208340644836426e+00 3.124511003494262695e+00 4.530907869338989258e-01 2.373150110244750977e+00
1.709000000000000000e+03 2.125696563720703125e+01 3.922940969467163086e+00 7.601281166076660156e+00 5.060174465179443359e+00 3.798436641693115234e+00 -4.393400251865386963e-01
1.710000000000000000e+03 6.608876800537109375e+01 4.551010608673095703e+00 7.363203763961791992e-01 7.491772174835205078e+00 2.468427658081054688e+00 2.654545009136199951e-01
1.711000000000000000e+03 7.316293334960937500e+01 -1.357803344726562500e+01 2.209176778793334961e+00 1.214947700500488281e+01 4.307596206665039062e+00 1.787333488464355469e+00
1.712000000000000000e+03 6.412147521972656250e+01 -1.336718082427978516e+01 -8.293054699897766113e-01 4.300693511962890625e+00 1.041416406631469727e+00 -4.007590413093566895e-01
1.713000000000000000e+03 6.380827331542968750e+01 -1.433776664733886719e+01 -3.947281241416931152e-01 4.833927631378173828e+00 1.331759810447692871e+00 -4.207557737827301025e-01
1.714000000000000000e+03 5.672529220581054688e+01 1.262277793884277344e+01 3.371952772140502930e-01 3.342559576034545898e+00 1.103926420211791992e+00 1.506455540657043457e+00
1.715000000000000000e+03 2.319347572326660156e+01 9.574609994888305664e-01 -2.076673984527587891e+00 1.280671119689941406e+01 3.219011068344116211e+00 -4.906599998474121094e+00
1.716000000000000000e+03 7.247791290283203125e+01 -7.983898639678955078e+00 3.080807626247406006e-01 8.696203231811523438e+00 2.701285362243652344e+00 -2.544707357883453369e-01
1.717000000000000000e+03 5.632154464721679688e+01 -2.053514289855957031e+01 -1.188629031181335449e+00 8.256853103637695312e+00 2.120467424392700195e+00 1.331947207450866699e+00
1.718000000000000000e+03 3.466542816162109375e+01 4.032989025115966797e+00 2.431063175201416016e+00 4.236510753631591797e+00 2.000272274017333984e+00 1.668954133987426758e+00
1.719000000000000000e+03 3.395882797241210938e+01 4.830940246582031250e+00 1.143519639968872070e+00 2.755488872528076172e+00 1.169702529907226562e+00 1.546151518821716309e+00
1.720000000000000000e+03 6.795666503906250000e+01 8.652318000793457031e+00 -4.778878688812255859e-01 1.168806266784667969e+01 3.363052368164062500e+00 -1.161691069602966309e+00
1.721000000000000000e+03 1.937046241760253906e+01 1.813632583618164062e+01 -1.606148719787597656e+00 -3.242110908031463623e-01 -5.791079401969909668e-01 -5.042967200279235840e-01
1.722000000000000000e+03 4.132609939575195312e+01 1.428599357604980469e+01 8.243156224489212036e-02 5.859257221221923828e+00 1.782506585121154785e+00 3.497853994369506836e+00
1.723000000000000000e+03 1.943488502502441406e+01 4.894526481628417969e+00 4.592567920684814453e+00 -4.381938576698303223e-01 1.246312260627746582e+00 9.963619709014892578e-01
1.724000000000000000e+03 6.851403808593750000e+01 1.152836036682128906e+01 1.853096365928649902e+00 8.435338973999023438e+00 3.086530447006225586e+00 1.256583452224731445e+00
1.725000000000000000e+03 6.200384902954101562e+01 2.637910842895507812e-01 -4.169739723205566406e+00 5.699895858764648438e+00 4.590467810630798340e-01 2.584166288375854492e+00
1.726000000000000000e+03 7.691438293457031250e+01 -3.159355926513671875e+01 7.162204384803771973e-02 6.589114665985107422e+00 1.998221039772033691e+00 1.289947032928466797e-01
1.727000000000000000e+03 7.671660614013671875e+01 -3.277927017211914062e+01 1.141517609357833862e-02 6.573101043701171875e+00 1.975354790687561035e+00 9.095305949449539185e-02
1.728000000000000000e+03 7.663789367675781250e+01 -2.329068946838378906e+01 -4.133344814181327820e-02 7.084545612335205078e+00 2.112963676452636719e+00 2.375702559947967529e-01
1.729000000000000000e+03 7.667864227294921875e+01 -2.467144203186035156e+01 -1.201130971312522888e-01 6.929576396942138672e+00 2.042839050292968750e+00 2.694095969200134277e-01
1.730000000000000000e+03 7.643833160400390625e+01 -2.760364532470703125e+01 -8.469846099615097046e-03 6.699575424194335938e+00 2.007331848144531250e+00 2.106602042913436890e-01
1.731000000000000000e+03 7.650474548339843750e+01 -3.690572738647460938e+01 1.341554615646600723e-02 6.503612995147705078e+00 1.955108642578125000e+00 6.367564946413040161e-02
1.732000000000000000e+03 7.664707946777343750e+01 -2.607678985595703125e+01 8.585899323225021362e-02 6.778512001037597656e+00 2.059311389923095703e+00 2.618518471717834473e-01
1.733000000000000000e+03 7.541352844238281250e+01 2.080007934570312500e+01 1.157333925366401672e-01 6.583604335784912109e+00 2.009801387786865234e+00 2.757461369037628174e-02
1.734000000000000000e+03 7.661824035644531250e+01 2.481517410278320312e+01 -1.236855704337358475e-02 6.644999504089355469e+00 1.989789247512817383e+00 6.044375151395797729e-02
1.735000000000000000e+03 7.670098114013671875e+01 1.449083900451660156e+01 1.128623932600021362e-01 6.878712654113769531e+00 2.097472429275512695e+00 -7.317953109741210938e-01
1.736000000000000000e+03 7.672894287109375000e+01 -2.190590476989746094e+01 -2.774723768234252930e-01 7.242071628570556641e+00 2.089379787445068359e+00 1.382500678300857544e-01
1.737000000000000000e+03 7.657447052001953125e+01 2.614614677429199219e+01 2.014514291658997536e-03 6.643290042877197266e+00 1.993591427803039551e+00 4.854514449834823608e-02
1.738000000000000000e+03 7.681596374511718750e+01 1.343002128601074219e+01 -2.436305582523345947e-01 7.461075782775878906e+00 2.165233612060546875e+00 -9.235516786575317383e-01
1.739000000000000000e+03 7.646263122558593750e+01 3.007246398925781250e+01 -1.231722813099622726e-02 6.651651859283447266e+00 1.991800308227539062e+00 4.263056442141532898e-02
1.740000000000000000e+03 7.830844116210937500e+01 9.856723785400390625e+00 -1.256618350744247437e-01 8.421038627624511719e+00 2.488613128662109375e+00 2.456612139940261841e-01
1.741000000000000000e+03 7.729194641113281250e+01 -1.660845756530761719e+01 8.411182463169097900e-02 7.659240245819091797e+00 2.323005676269531250e+00 -3.957510590553283691e-01
1.742000000000000000e+03 7.700944519042968750e+01 -1.435509204864501953e+01 4.028427302837371826e-01 7.848238468170166016e+00 2.475324392318725586e+00 -5.590284615755081177e-02
1.743000000000000000e+03 7.609534454345703125e+01 -1.496935367584228516e+01 6.634646654129028320e-01 8.407088279724121094e+00 2.721165895462036133e+00 -1.027823984622955322e-02
1.744000000000000000e+03 7.627098846435546875e+01 -1.334115695953369141e+01 1.031073331832885742e+00 8.361862182617187500e+00 2.817880630493164062e+00 4.529889822006225586e-01
1.745000000000000000e+03 7.813896179199218750e+01 -1.255772590637207031e+01 3.082061707973480225e-01 7.340799331665039062e+00 2.294701814651489258e+00 4.130020141601562500e-01
1.746000000000000000e+03 7.752953338623046875e+01 -6.523298263549804688e+00 -5.047105252742767334e-02 9.216080665588378906e+00 2.749682664871215820e+00 1.614995956420898438e+00
1.747000000000000000e+03 7.722863006591796875e+01 1.164408087730407715e+00 -2.045979976654052734e+00 1.051604747772216797e+01 2.541020393371582031e+00 -6.891795992851257324e-01
1.748000000000000000e+03 7.681492614746093750e+01 1.850940322875976562e+01 1.687029898166656494e-01 6.638317584991455078e+00 2.042106151580810547e+00 -1.394517570734024048e-01
1.749000000000000000e+03 7.806221771240234375e+01 1.959860038757324219e+01 6.295299530029296875e-02 6.687478065490722656e+00 2.025129318237304688e+00 -5.039776489138603210e-02
1.750000000000000000e+03 7.669859313964843750e+01 2.217869186401367188e+01 2.479918487370014191e-02 6.634827613830566406e+00 1.997888088226318359e+00 4.125711321830749512e-02
1.751000000000000000e+03 7.722444152832031250e+01 5.292037963867187500e+00 9.294498562812805176e-01 1.250323009490966797e+01 4.029804229736328125e+00 -2.650345087051391602e+00
1.752000000000000000e+03 7.809424591064453125e+01 -2.859102010726928711e+00 -2.513689398765563965e-01 1.080591297149658203e+01 3.166363239288330078e+00 1.197805047035217285e+00
1.753000000000000000e+03 7.694054412841796875e+01 -2.561326503753662109e+00 -2.866032421588897705e-01 9.064188957214355469e+00 2.633275747299194336e+00 1.234152317047119141e+00
1.754000000000000000e+03 7.710064697265625000e+01 -7.830544948577880859e+00 1.799577027559280396e-01 8.771624565124511719e+00 2.685474634170532227e+00 1.683582663536071777e+00
1.755000000000000000e+03 7.821580505371093750e+01 -9.712695121765136719e+00 1.834412813186645508e-01 8.119875907897949219e+00 2.490995168685913086e+00 1.119494318962097168e+00
1.756000000000000000e+03 7.553006744384765625e+01 -8.239158630371093750e+00 4.217000901699066162e-01 8.700160980224609375e+00 2.736558198928833008e+00 1.626986145973205566e+00
1.757000000000000000e+03 7.710612487792968750e+01 -1.785306930541992188e+01 -7.303053885698318481e-02 7.693851947784423828e+00 2.286246299743652344e+00 -4.144105613231658936e-01
1.758000000000000000e+03 7.823473358154296875e+01 -1.936945152282714844e+01 -3.420379012823104858e-02 7.357585906982421875e+00 2.197014808654785156e+00 -2.459531426429748535e-01
1.759000000000000000e+03 7.637369537353515625e+01 3.133969497680664062e+01 -2.873275196179747581e-03 6.646961212158203125e+00 1.993226408958435059e+00 3.332429006695747375e-02
1.760000000000000000e+03 7.656520080566406250e+01 1.759494209289550781e+01 3.027585148811340332e-01 6.583301544189453125e+00 2.065818071365356445e+00 -2.057148814201354980e-01
1.761000000000000000e+03 7.689394378662109375e+01 4.388106346130371094e+00 5.447192192077636719e-01 1.231548881530761719e+01 3.858062505722045898e+00 -2.097739219665527344e+00
1.762000000000000000e+03 7.607498931884765625e+01 -1.990344643592834473e+00 -7.565395832061767578e-01 7.471965312957763672e+00 2.014627695083618164e+00 1.265210628509521484e+00
1.763000000000000000e+03 7.644418334960937500e+01 -8.975422859191894531e+00 3.099768161773681641e-01 8.670771598815917969e+00 2.694224596023559570e+00 1.617416381835937500e+00
1.764000000000000000e+03 7.602169799804687500e+01 -1.915460395812988281e+01 -3.955156803131103516e-01 7.895468235015869141e+00 2.249985694885253906e+00 -1.528784334659576416e-01
1.765000000000000000e+03 5.936024093627929688e+01 4.839323759078979492e-01 -4.415302276611328125e+00 1.591131210327148438e+00 -8.472513556480407715e-01 -4.441964328289031982e-01
1.766000000000000000e+03 6.133473587036132812e+01 -2.278365850448608398e+00 -2.639448940753936768e-01 7.256809711456298828e+00 2.097859382629394531e+00 5.414775013923645020e-01
1.767000000000000000e+03 1.664471244812011719e+01 -5.472587585449218750e+00 -4.680746793746948242e-01 -6.146315485239028931e-02 -1.588613539934158325e-01 1.997219175100326538e-01
1.768000000000000000e+03 3.194764137268066406e+00 3.119898796081542969e+01 2.805943787097930908e-02 1.270582914352416992e+00 3.895927071571350098e-01 1.487762629985809326e-01
1.769000000000000000e+03 3.305150985717773438e+00 3.239934921264648438e+01 1.183009333908557892e-02 1.227088570594787598e+00 3.716756105422973633e-01 1.408982425928115845e-01
1.770000000000000000e+03 3.198916435241699219e+00 2.324781227111816406e+01 -2.593824267387390137e-02 1.504191160202026367e+00 4.434758722782135010e-01 1.212247163057327271e-01
1.771000000000000000e+03 3.248548746109008789e+00 2.462043380737304688e+01 -5.408188700675964355e-02 1.469550967216491699e+00 4.246407151222229004e-01 1.528750807046890259e-01
1.772000000000000000e+03 3.094073295593261719e+00 3.001687622070312500e+01 8.193380199372768402e-03 1.311524152755737305e+00 3.959152698516845703e-01 1.493908911943435669e-01
1.773000000000000000e+03 5.276893615722656250e+00 3.747081756591796875e+01 5.734131485223770142e-02 1.080461740493774414e+00 3.413409292697906494e-01 8.391542732715606689e-02
1.774000000000000000e+03 4.989337444305419922e+00 2.734576988220214844e+01 1.374559756368398666e-02 1.230386018753051758e+00 3.732394874095916748e-01 2.160883098840713501e-01
1.775000000000000000e+03 3.284333229064941406e+00 2.887380790710449219e+01 2.574642002582550049e-02 1.328746080398559570e+00 4.063477516174316406e-01 1.782818287611007690e-01
1.776000000000000000e+03 3.794953823089599609e+00 -2.769792556762695312e+01 6.503123790025711060e-03 -2.659043371677398682e-01 -7.782036066055297852e-02 3.049785085022449493e-02
1.777000000000000000e+03 3.822280168533325195e+00 -3.039166069030761719e+01 1.122756768018007278e-02 -2.331617623567581177e-01 -6.658025830984115601e-02 3.375674039125442505e-02
1.778000000000000000e+03 3.219751834869384766e+00 2.187582206726074219e+01 -1.110817864537239075e-01 1.531234502792358398e+00 4.260458052158355713e-01 7.167012244462966919e-02
1.779000000000000000e+03 3.720293760299682617e+00 -2.039602279663085938e+01 2.695702202618122101e-02 -3.099417984485626221e-01 -8.489543199539184570e-02 -2.917912974953651428e-02
1.780000000000000000e+03 3.581385612487792969e+00 -1.897702026367187500e+01 3.532961010932922363e-02 -3.272129893302917480e-01 -8.756501227617263794e-02 -5.456293374300003052e-02
1.781000000000000000e+03 4.135499477386474609e+00 -2.335730934143066406e+01 2.934593334794044495e-02 -2.486479431390762329e-01 -6.579060107469558716e-02 1.386338379234075546e-02
1.782000000000000000e+03 3.903134107589721680e+00 -2.184338569641113281e+01 3.575123474001884460e-02 -2.899028956890106201e-01 -7.624550163745880127e-02 -1.343166641891002655e-02
1.783000000000000000e+03 1.855231642723083496e+00 -1.063611125946044922e+01 -4.834087099879980087e-03 -2.630612254142761230e-01 -8.036859333515167236e-02 -8.944077789783477783e-02
1.784000000000000000e+03 1.768501520156860352e+00 -6.548804759979248047e+00 -5.321281962096691132e-03 -1.198890730738639832e-01 -3.756310790777206421e-02 -6.543946266174316406e-02
1.785000000000000000e+03 2.090782165527343750e+00 -1.767874908447265625e+01 1.921863667666912079e-02 -4.677488803863525391e-01 -1.345590800046920776e-01 -5.181183293461799622e-02
1.786000000000000000e+03 3.257665395736694336e+00 -1.333607387542724609e+01 1.967256516218185425e-02 -2.666470110416412354e-01 -7.409233599901199341e-02 -1.212555021047592163e-01
1.787000000000000000e+03 3.184338569641113281e+00 -1.194333362579345703e+01 4.073186777532100677e-03 -2.287901341915130615e-01 -6.741508096456527710e-02 -1.315663158893585205e-01
1.788000000000000000e+03 3.195441246032714844e+00 1.335807228088378906e+01 -2.975105047225952148e-01 1.144098043441772461e+00 2.539762556552886963e-01 -7.216864228248596191e-01
1.789000000000000000e+03 3.302499055862426758e+00 1.620808029174804688e+01 -2.689161896705627441e-01 1.394289135932922363e+00 3.376118838787078857e-01 -3.796340227127075195e-01
1.790000000000000000e+03 3.336461067199707031e+00 1.764557838439941406e+01 -1.615707278251647949e-01 1.466515064239501953e+00 3.914833068847656250e-01 -2.249336391687393188e-01
1.791000000000000000e+03 2.869512796401977539e+00 5.954193115234375000e+00 5.707492232322692871e-01 -4.334582984447479248e-01 4.118727147579193115e-02 -1.620504707098007202e-01
1.792000000000000000e+03 2.904317855834960938e+00 7.935284614562988281e+00 3.668062686920166016e-01 -7.517828047275543213e-02 8.748839795589447021e-02 -6.681930422782897949e-01
1.793000000000000000e+03 3.032023906707763672e+00 -5.442986488342285156e+00 -2.262198552489280701e-02 -7.397612184286117554e-02 -2.897943183779716492e-02 -8.685630559921264648e-02
1.794000000000000000e+03 3.104872226715087891e+00 -1.057664871215820312e+01 2.713481429964303970e-03 -2.004977166652679443e-01 -5.933526903390884399e-02 -1.279485672712326050e-01
1.795000000000000000e+03 2.368700265884399414e+00 -3.431152725219726562e+01 7.786357309669256210e-03 -3.818619549274444580e-01 -1.122226789593696594e-01 3.631158918142318726e-02
1.796000000000000000e+03 4.075187683105468750e+00 -2.487033653259277344e+01 2.915199846029281616e-02 -2.431203126907348633e-01 -6.419049203395843506e-02 2.587624080479145050e-02
1.797000000000000000e+03 3.326490879058837891e+00 -1.474569416046142578e+01 1.635913737118244171e-02 -2.861611843109130859e-01 -8.094061911106109619e-02 -1.105475872755050659e-01
1.798000000000000000e+03 2.980332136154174805e+00 -7.930748462677001953e+00 -1.179889496415853500e-02 -1.314226686954498291e-01 -4.296646639704704285e-02 -1.127643734216690063e-01
1.799000000000000000e+03 3.037448167800903320e+00 1.048153209686279297e+01 -8.701595664024353027e-02 6.326854825019836426e-01 1.637008488178253174e-01 -9.446050524711608887e-01
1.800000000000000000e+03 3.477453708648681641e+00 -1.756394195556640625e+01 2.533711306750774384e-02 -3.185590803623199463e-01 -8.796658366918563843e-02 -7.371839880943298340e-02
1.801000000000000000e+03 3.193980932235717773e+00 1.189294242858886719e+01 -1.284552663564682007e-01 9.027428627014160156e-01 2.322862744331359863e-01 -9.138600230216979980e-01
1.802000000000000000e+03 3.744691848754882812e+00 8.235632896423339844e+00 6.330243945121765137e-01 1.562325656414031982e-01 2.367770969867706299e-01 -1.050539612770080566e+00
1.803000000000000000e+03 2.815862655639648438e+00 9.195557594299316406e+00 1.964495331048965454e-01 2.121333330869674683e-01 1.225748583674430847e-01 -9.382898807525634766e-01
1.804000000000000000e+03 3.327783823013305664e+00 1.908094978332519531e+01 -1.845030486583709717e-01 1.505979776382446289e+00 3.964430093765258789e-01 -9.655679762363433838e-02
1.805000000000000000e+03 3.278348207473754883e+00 2.049376296997070312e+01 -8.283460140228271484e-02 1.525828361511230469e+00 4.328981041908264160e-01 -2.874966012313961983e-03
1.806000000000000000e+03 1.791827321052551270e+00 4.219707965850830078e+00 8.118986338376998901e-02 -6.368296146392822266e-01 -1.666919291019439697e-01 3.810678422451019287e-01
1.807000000000000000e+03 2.369303703308105469e+00 4.933855533599853516e+00 4.327899813652038574e-01 -6.549261212348937988e-01 -6.664083898067474365e-02 2.629241347312927246e-01
1.808000000000000000e+03 5.166172790527343750e+01 9.122065544128417969e+00 -1.441818773746490479e-01 1.234819507598876953e+01 3.661203861236572266e+00 -2.865444421768188477e-01
1.809000000000000000e+03 2.802819824218750000e+01 1.433267116546630859e+01 1.471985936164855957e+00 3.210204362869262695e+00 1.404657125473022461e+00 4.523375928401947021e-01
1.810000000000000000e+03 3.857353973388671875e+01 7.245223522186279297e+00 -9.038464426994323730e-01 1.123925209045410156e+01 3.100621700286865234e+00 3.113017082214355469e+00
1.811000000000000000e+03 3.509762573242187500e+01 7.055530548095703125e+00 -1.940299570560455322e-01 3.772027492523193359e+00 1.073399305343627930e+00 1.119119048118591309e+00
1.812000000000000000e+03 3.178262519836425781e+01 2.282415390014648438e+00 8.830910921096801758e-01 2.228266716003417969e+00 9.334073066711425781e-01 3.971602916717529297e+00
1.813000000000000000e+03 5.130113601684570312e+01 6.727190494537353516e+00 -3.859368711709976196e-02 1.078765392303466797e+01 3.224718093872070312e+00 -3.177936971187591553e-01
1.814000000000000000e+03 5.424253082275390625e+01 7.814318656921386719e+00 -9.743599295616149902e-01 1.050153064727783203e+01 2.858151197433471680e+00 2.420195937156677246e-01
1.815000000000000000e+03 5.949260711669921875e+01 -1.161476612091064453e+01 1.188311502337455750e-01 8.433544158935546875e+00 2.565712690353393555e+00 9.308915734291076660e-01
1.816000000000000000e+03 6.557286071777343750e+01 2.836761713027954102e+00 -3.602937757968902588e-01 5.905204772949218750e+00 1.663473248481750488e+00 1.886096119880676270e+00
1.817000000000000000e+03 5.408411407470703125e+01 -5.041464328765869141e+00 -2.329793214797973633e+00 4.852465152740478516e+00 7.568015456199645996e-01 -1.367498636245727539e+00
1.818000000000000000e+03 5.204196929931640625e+01 -2.243698596954345703e+00 -3.761716365814208984e+00 5.228232383728027344e+00 4.399546980857849121e-01 -1.475009322166442871e+00
1.819000000000000000e+03 4.631602096557617188e+01 3.583633303642272949e-01 -1.176356196403503418e+00 2.799980640411376953e+00 4.870873391628265381e-01 3.674411296844482422e+00
1.820000000000000000e+03 5.579332733154296875e+01 1.196622085571289062e+01 6.050040125846862793e-01 4.505076408386230469e+00 1.533024072647094727e+00 1.271240472793579102e+00
1.821000000000000000e+03 4.575512695312500000e+01 -1.605163192749023438e+01 6.192073822021484375e-01 3.833919286727905273e+00 1.335937976837158203e+00 -1.215519189834594727e+00
1.822000000000000000e+03 4.347462463378906250e+01 -1.654536437988281250e+01 7.144350409507751465e-01 6.781934738159179688e+00 2.248910903930664062e+00 -1.200327038764953613e+00
1.823000000000000000e+03 3.895619583129882812e+01 -1.823725509643554688e+01 1.566863298416137695e+00 3.835940599441528320e+00 1.620841145515441895e+00 1.524326086044311523e+00
1.824000000000000000e+03 9.066230773925781250e+00 1.028876781463623047e+01 -9.082414507865905762e-01 1.872692465782165527e+00 2.893353104591369629e-01 -1.081991910934448242e+00
1.825000000000000000e+03 9.778567314147949219e+00 1.117379665374755859e+01 -1.270013093948364258e+00 1.581012368202209473e+00 9.329979866743087769e-02 -7.700157761573791504e-01
1.826000000000000000e+03 2.525409698486328125e+01 -1.425601959228515625e+00 3.265406847000122070e+00 5.404285907745361328e+00 2.600907802581787109e+00 -3.885142803192138672e+00
1.827000000000000000e+03 4.468660736083984375e+01 -1.023312473297119141e+01 -3.203121721744537354e-01 7.334494113922119141e+00 2.104254484176635742e+00 1.743487119674682617e-01
1.828000000000000000e+03 6.665631866455078125e+01 -8.096469640731811523e-01 -2.206651687622070312e+00 2.393525123596191406e+00 5.606199800968170166e-02 1.460951566696166992e+00
1.829000000000000000e+03 3.612048339843750000e+01 1.649953079223632812e+01 -2.253345727920532227e+00 2.491565942764282227e+00 7.146602123975753784e-02 -1.798239588737487793e+00
1.830000000000000000e+03 4.381506729125976562e+01 -7.234878063201904297e+00 6.171673536300659180e-01 1.085137844085693359e+01 3.440563678741455078e+00 1.076651334762573242e+00
1.831000000000000000e+03 5.938523483276367188e+01 -1.732777595520019531e+01 1.229228734970092773e+00 8.274799346923828125e+00 2.851208448410034180e+00 -4.610701203346252441e-01
1.832000000000000000e+03 5.887533187866210938e+01 -1.627463531494140625e+01 1.289642930030822754e+00 9.016684532165527344e+00 3.091898441314697266e+00 -2.363583296537399292e-01
1.833000000000000000e+03 6.974193572998046875e+01 8.772567749023437500e+00 -1.699609041213989258e+00 6.805624961853027344e+00 1.531804680824279785e+00 3.140386641025543213e-01
1.834000000000000000e+03 6.719693756103515625e+01 1.177685832977294922e+01 3.995622396469116211e+00 1.203561401367187500e+01 4.809370994567871094e+00 4.392121434211730957e-01
1.835000000000000000e+03 7.029635620117187500e+01 -2.645578145980834961e+00 -3.397152662277221680e+00 4.428381919860839844e+00 3.093687891960144043e-01 -2.062355756759643555e+00
1.836000000000000000e+03 5.763582992553710938e+01 1.335729598999023438e+01 3.647578954696655273e-01 2.267318487167358398e+00 7.896229028701782227e-01 1.232335448265075684e+00
1.837000000000000000e+03 1.680724525451660156e+01 1.771096229553222656e+01 -1.480655431747436523e+00 -2.209474444389343262e-01 -5.104808807373046875e-01 -3.260200321674346924e-01
1.838000000000000000e+03 5.849832153320312500e+01 -1.516211605072021484e+01 1.157176852226257324e+00 9.053150177001953125e+00 3.063098192214965820e+00 2.624413669109344482e-01
1.839000000000000000e+03 5.828931427001953125e+01 -1.400435924530029297e+01 8.196138143539428711e-01 1.004825210571289062e+01 3.260359764099121094e+00 6.387428641319274902e-01
1.840000000000000000e+03 1.381431865692138672e+01 1.486254692077636719e+01 -1.572213530540466309e+00 -4.371934011578559875e-02 -4.847798347473144531e-01 -4.174639582633972168e-01
1.841000000000000000e+03 5.352823257446289062e+01 6.497805118560791016e+00 -4.545081853866577148e-01 1.277146816253662109e+01 3.695087909698486328e+00 1.625850200653076172e-01
1.842000000000000000e+03 7.641227722167968750e+01 9.673766136169433594e+00 -1.164412736892700195e+00 1.116713809967041016e+01 3.000817537307739258e+00 -8.583217859268188477e-01
1.843000000000000000e+03 1.592273139953613281e+01 1.587950515747070312e+01 -1.765022993087768555e+00 -4.069146513938903809e-01 -6.515812873840332031e-01 -6.010148525238037109e-01
1.844000000000000000e+03 2.789334297180175781e+01 -8.475631713867187500e+00 3.951801300048828125e+00 9.500283241271972656e+00 4.035625457763671875e+00 -9.908254742622375488e-01
1.845000000000000000e+03 1.059824085235595703e+01 1.223893737792968750e+01 -1.287639260292053223e+00 1.100515365600585938e+00 -5.613715946674346924e-02 -4.802083373069763184e-01
1.846000000000000000e+03 5.696226882934570312e+01 -1.290017890930175781e+01 7.874126434326171875e-01 1.061799049377441406e+01 3.421620845794677734e+00 -2.067171931266784668e-01
1.847000000000000000e+03 5.785029602050781250e+01 -8.496990203857421875e+00 2.187988609075546265e-01 7.267879009246826172e+00 2.246003389358520508e+00 4.259434938430786133e-01
1.848000000000000000e+03 6.751340484619140625e+01 5.382226467132568359e+00 1.285489439964294434e+00 1.015867137908935547e+01 3.433248281478881836e+00 -1.241961359977722168e+00
1.849000000000000000e+03 3.269594573974609375e+01 2.325952053070068359e+00 1.647606611251831055e+00 2.555946111679077148e+00 1.261065840721130371e+00 4.843622207641601562e+00
1.850000000000000000e+03 3.279198455810546875e+01 1.190255403518676758e+00 6.752365589141845703e+00 2.451414465904235840e-01 2.099252223968505859e+00 6.784770011901855469e+00
1.851000000000000000e+03 2.614275360107421875e+01 -5.487404823303222656e+00 2.318855285644531250e+00 1.395739269256591797e+01 4.882874488830566406e+00 -4.627839326858520508e-01
1.852000000000000000e+03 4.704048919677734375e+01 -1.448471927642822266e+01 2.332536578178405762e-01 2.123804807662963867e+00 7.071175575256347656e-01 -7.189275026321411133e-01
1.853000000000000000e+03 7.473323822021484375e+01 -7.600339412689208984e+00 2.948747202754020691e-02 8.558590888977050781e+00 2.576423406600952148e+00 1.428229570388793945e+00
1.854000000000000000e+03 2.332909011840820312e+01 -6.991357803344726562e-01 2.307892292737960815e-01 7.731196880340576172e+00 2.388595819473266602e+00 -3.764744520187377930e+00
1.855000000000000000e+03 2.905747985839843750e+01 -5.640780925750732422e+00 1.016319632530212402e+00 7.159318923950195312e+00 2.452691555023193359e+00 8.070577979087829590e-01
1.856000000000000000e+03 6.320526885986328125e+01 -1.325239372253417969e+01 -6.300148963928222656e-01 5.672805309295654297e+00 1.512837171554565430e+00 -2.882446348667144775e-01
1.857000000000000000e+03 6.709123992919921875e+01 1.055064582824707031e+01 2.416891813278198242e+00 1.350044822692871094e+01 4.775201797485351562e+00 -7.849156260490417480e-01
1.858000000000000000e+03 6.812760162353515625e+01 1.036121368408203125e+01 2.098676681518554688e+00 9.911439895629882812e+00 3.603034973144531250e+00 -1.654064655303955078e-01
1.859000000000000000e+03 6.598199462890625000e+01 7.447667598724365234e+00 -6.825689077377319336e-01 1.084610748291015625e+01 3.049061775207519531e+00 -3.995363116264343262e-01
1.860000000000000000e+03 5.494165420532226562e+01 -6.034604549407958984e+00 -1.173047661781311035e+00 5.177020072937011719e+00 1.201191782951354980e+00 -1.250655412673950195e+00
1.861000000000000000e+03 4.169626617431640625e+01 -6.262759685516357422e+00 1.455935835838317871e+00 6.219317436218261719e+00 2.302576065063476562e+00 4.863096773624420166e-01
1.862000000000000000e+03 4.598063278198242188e+01 1.848400115966796875e+01 6.556565761566162109e-01 3.323675870895385742e+00 1.193799734115600586e+00 2.088129371404647827e-01
1.863000000000000000e+03 6.507190704345703125e+01 -1.538865184783935547e+01 -7.631645798683166504e-01 3.426882505416870117e+00 7.991153597831726074e-01 -6.049345135688781738e-01
1.864000000000000000e+03 6.753479003906250000e+01 -1.828878021240234375e+01 6.382470130920410156e-01 2.365523815155029297e+00 9.011312127113342285e-01 -6.269460916519165039e-02
1.865000000000000000e+03 3.134232139587402344e+01 1.616180419921875000e+01 -5.031874775886535645e-01 -6.120513081550598145e-01 -3.345716297626495361e-01 2.321922183036804199e-01
1.866000000000000000e+03 5.271770858764648438e+01 9.780627250671386719e+00 3.132534921169281006e-01 1.266475296020507812e+01 3.893401861190795898e+00 -3.979117274284362793e-01
1.867000000000000000e+03 5.238031387329101562e+01 -3.734881579875946045e-01 -2.726563930511474609e+00 8.071202278137207031e+00 1.603391528129577637e+00 -9.179614186286926270e-01
1.868000000000000000e+03 4.977326583862304688e+01 -2.502907752990722656e+00 -3.909483671188354492e+00 6.774393916130065918e-01 -9.696132540702819824e-01 7.437040209770202637e-01
1.869000000000000000e+03 8.580399513244628906e+00 7.092158317565917969e+00 1.194548249244689941e+00 3.562519788742065430e+00 1.427120447158813477e+00 -2.868078708648681641e+00
1.870000000000000000e+03 5.253236389160156250e+01 -3.122033834457397461e+00 -3.752255678176879883e+00 4.843809127807617188e+00 3.274661302566528320e-01 -1.240131258964538574e+00
1.871000000000000000e+03 3.592954635620117188e+01 -1.884597969055175781e+01 1.440723896026611328e+00 2.338933467864990234e+00 1.133897185325622559e+00 -4.130799472332000732e-01
1.872000000000000000e+03 2.720996093750000000e+01 -4.854578495025634766e+00 2.327405214309692383e+00 9.484614372253417969e+00 3.543605804443359375e+00 1.281443476676940918e+00
1.873000000000000000e+03 1.572618484497070312e+01 -6.233935356140136719e+00 -4.523082375526428223e-01 1.478314548730850220e-01 -9.134303778409957886e-02 9.165829420089721680e-02
1.874000000000000000e+03 1.592128276824951172e+01 -4.681237220764160156e+00 -3.429998457431793213e-01 2.088488265872001648e-02 -9.663448482751846313e-02 1.840169280767440796e-01
1.875000000000000000e+03 7.641611480712890625e+01 -1.064457893371582031e+01 7.143417596817016602e-01 8.665747642517089844e+00 2.814026594161987305e+00 1.252304553985595703e+00
1.876000000000000000e+03 2.738754463195800781e+01 1.333454322814941406e+01 -3.175694122910499573e-02 4.432280063629150391e+00 1.320157051086425781e+00 -1.475785672664642334e-01
1.877000000000000000e+03 7.450074005126953125e+01 -1.678850364685058594e+01 -6.024819985032081604e-02 8.861146926879882812e+00 2.640269756317138672e+00 -9.609291702508926392e-02
1.878000000000000000e+03 7.313840484619140625e+01 -1.572921657562255859e+01 7.466136217117309570e-01 1.038193416595458984e+01 3.338564395904541016e+00 4.126675426959991455e-01
1.879000000000000000e+03 5.651013565063476562e+01 -2.116619586944580078e+00 -1.470192432403564453e+00 3.608099699020385742e+00 6.413721442222595215e-01 -4.025471687316894531e+00
1.880000000000000000e+03 5.001596832275390625e+01 -1.203388690948486328e+00 -1.252382040023803711e+00 2.510434627532958984e+00 3.774158060550689697e-01 1.530716061592102051e+00
1.881000000000000000e+03 5.939237213134765625e+01 -5.628999233245849609e+00 1.069576621055603027e+00 6.641716003417968750e+00 2.313387870788574219e+00 3.044919669628143311e-01
1.882000000000000000e+03 5.878066253662109375e+01 -4.849774837493896484e+00 7.680658102035522461e-01 5.795160293579101562e+00 1.968967795372009277e+00 -3.568103313446044922e-01
1.883000000000000000e+03 5.582770156860351562e+01 -6.995518684387207031e+00 -4.237900078296661377e-01 5.869157314300537109e+00 1.633610129356384277e+00 -8.349717855453491211e-01
1.884000000000000000e+03 5.571670913696289062e+01 -5.047942638397216797e+00 -1.313680410385131836e+00 5.470068931579589844e+00 1.246916532516479492e+00 -1.829769849777221680e+00
1.885000000000000000e+03 4.232433319091796875e+01 -3.101793527603149414e+00 2.086755335330963135e-01 4.797166824340820312e+00 1.501752614974975586e+00 -1.357206344604492188e+00
1.886000000000000000e+03 4.265605926513671875e+01 -5.945395946502685547e+00 1.925335764884948730e+00 8.384728431701660156e+00 3.093019247055053711e+00 9.249297976493835449e-01
1.887000000000000000e+03 7.097904205322265625e+01 1.155474853515625000e+01 1.252956867218017578e+00 3.148391008377075195e+00 1.320404410362243652e+00 1.020049810409545898e+00
1.888000000000000000e+03 6.883195495605468750e+01 -2.824955880641937256e-01 -2.670161485671997070e+00 6.125707149505615234e+00 1.036663651466369629e+00 -1.292940616607666016e+00
1.889000000000000000e+03 1.967570686340332031e+01 -9.444412231445312500e+00 -2.085459977388381958e-01 2.007902711629867554e-01 -2.326715504750609398e-03 1.227966770529747009e-01
1.890000000000000000e+03 7.264788055419921875e+01 -9.607571363449096680e-01 -9.914819598197937012e-01 2.236766338348388672e+00 3.735852837562561035e-01 -2.708200454711914062e+00
1.891000000000000000e+03 7.553231811523437500e+01 -3.068269789218902588e-01 -1.696810841560363770e+00 6.102065563201904297e+00 1.321576356887817383e+00 6.879319548606872559e-01
1.892000000000000000e+03 6.721877288818359375e+01 1.484120178222656250e+01 1.423619538545608521e-01 9.045258522033691406e+00 2.756285905838012695e+00 3.906796574592590332e-01
1.893000000000000000e+03 5.139978408813476562e+01 3.975811958312988281e+00 2.469659805297851562e+00 8.905150413513183594e+00 3.412442922592163086e+00 -8.103247731924057007e-02
1.894000000000000000e+03 5.088659286499023438e+01 5.649726867675781250e+00 7.768359780311584473e-01 9.293714523315429688e+00 3.021165132522583008e+00 -2.958269119262695312e-01
1.895000000000000000e+03 4.944678878784179688e+01 3.467602729797363281e+00 1.927821516990661621e+00 4.903195858001708984e+00 2.049305200576782227e+00 1.337562680244445801e+00
1.896000000000000000e+03 5.222851562500000000e+01 2.372524261474609375e+00 3.214311122894287109e+00 9.976901054382324219e+00 3.957363605499267578e+00 5.595197081565856934e-01
1.897000000000000000e+03 4.190134048461914062e+01 -7.251846313476562500e+00 7.879960536956787109e-01 7.598577022552490234e+00 2.515971899032592773e+00 8.755003213882446289e-01
1.898000000000000000e+03 4.078950881958007812e+01 -6.341418743133544922e+00 9.128428697586059570e-01 5.186704635620117188e+00 1.829864263534545898e+00 -2.207470834255218506e-01
1.899000000000000000e+03 6.755161285400390625e+01 1.312660312652587891e+01 1.926537871360778809e+00 1.023945426940917969e+01 3.649797677993774414e+00 1.936236381530761719e+00
1.900000000000000000e+03 3.768616104125976562e+01 8.903126716613769531e+00 -2.973582744598388672e-01 1.038277626037597656e+01 3.025625467300415039e+00 4.812420368194580078e+00
1.901000000000000000e+03 3.822384262084960938e+01 9.094047546386718750e+00 -5.421243906021118164e-01 1.392684173583984375e+01 4.015415191650390625e+00 5.284267425537109375e+00
1.902000000000000000e+03 3.665967178344726562e+01 1.390595817565917969e+01 -2.395014524459838867e+00 2.807671785354614258e+00 1.237971633672714233e-01 -1.074613451957702637e+00
1.903000000000000000e+03 3.688789367675781250e+01 1.360592269897460938e+01 -6.657482981681823730e-01 3.430348396301269531e+00 8.293800354003906250e-01 -1.347593545913696289e+00
1.904000000000000000e+03 3.867078399658203125e+01 1.384698390960693359e+01 -2.274835109710693359e+00 9.740385055541992188e+00 2.239665031433105469e+00 2.610923163592815399e-02
1.905000000000000000e+03 9.228863716125488281e+00 -3.333095788955688477e+00 -1.559132486581802368e-01 2.635477483272552490e-02 -3.886754438281059265e-02 -5.583587661385536194e-02
1.906000000000000000e+03 1.122013187408447266e+01 -4.309077739715576172e+00 -2.188095450401306152e-01 7.846830040216445923e-02 -4.210237413644790649e-02 -3.470107913017272949e-02
1.907000000000000000e+03 8.238446235656738281e+00 -4.665269851684570312e+00 -1.309820860624313354e-01 6.183198094367980957e-02 -2.074503339827060699e-02 -1.004756391048431396e-01
1.908000000000000000e+03 1.096691608428955078e+01 -5.164729595184326172e+00 -2.022566348314285278e-01 1.409970372915267944e-01 -1.837787963449954987e-02 -6.441558897495269775e-02
1.909000000000000000e+03 1.197676181793212891e+01 -4.374481678009033203e+00 -2.341990470886230469e-01 1.325016468763351440e-01 -3.050922043621540070e-02 -6.547092460095882416e-03
1.910000000000000000e+03 1.047490692138671875e+01 -4.242856025695800781e+00 -1.882146596908569336e-01 1.050614118576049805e-01 -2.494597434997558594e-02 -4.830826073884963989e-02
1.911000000000000000e+03 4.167111873626708984e+00 -4.456825256347656250e+00 -4.306194186210632324e-02 -3.897533565759658813e-02 -2.461118251085281372e-02 -9.086568653583526611e-02
1.912000000000000000e+03 4.182429313659667969e+00 -5.546383380889892578e+00 -4.428692162036895752e-02 -4.439837485551834106e-02 -2.660558745265007019e-02 -1.105255857110023499e-01
1.913000000000000000e+03 4.891360759735107422e+00 -3.434325695037841797e+00 -5.752596631646156311e-02 -2.256975695490837097e-02 -2.402871660888195038e-02 -7.802302390336990356e-02
1.914000000000000000e+03 9.501461982727050781e+00 -4.963891506195068359e+00 -1.599240452051162720e-01 9.743595123291015625e-02 -1.874643005430698395e-02 -8.851753175258636475e-02
1.915000000000000000e+03 6.363350391387939453e+00 -3.312211036682128906e+00 -9.092115610837936401e-02 -5.405004601925611496e-03 -2.889784798026084900e-02 -8.218276500701904297e-02
1.916000000000000000e+03 7.715674877166748047e+00 -3.976498365402221680e+00 -1.250230371952056885e-01 4.038245230913162231e-02 -2.539217285811901093e-02 -9.059207141399383545e-02
1.917000000000000000e+03 5.630766868591308594e+00 -3.352729082107543945e+00 -8.162036538124084473e-02 -3.022733144462108612e-04 -2.457679249346256256e-02 -8.280371129512786865e-02
1.918000000000000000e+03 7.031194686889648438e+00 -4.020206928253173828e+00 -9.702660143375396729e-02 1.384257338941097260e-03 -2.869270369410514832e-02 -9.701997786760330200e-02
1.919000000000000000e+03 7.499255180358886719e+00 4.504638195037841797e+00 3.434287548065185547e+00 -6.515625119209289551e-02 1.010739445686340332e+00 -6.928344815969467163e-02
1.920000000000000000e+03 4.418684005737304688e+00 4.281344413757324219e+00 9.603531360626220703e-01 -5.529020428657531738e-01 1.222353279590606689e-01 4.494665861129760742e-01
1.921000000000000000e+03 5.077501296997070312e+00 3.467787742614746094e+00 8.569863438606262207e-01 -5.578914284706115723e-01 8.972847461700439453e-02 8.350817561149597168e-01
1.922000000000000000e+03 6.216084957122802734e+00 4.907483100891113281e+00 2.314396142959594727e+00 -2.860895395278930664e-01 6.084919571876525879e-01 -1.828428208827972412e-01
1.923000000000000000e+03 5.845312595367431641e+00 3.449932098388671875e+00 1.122544050216674805e+00 -4.778489470481872559e-01 1.934085488319396973e-01 8.054786324501037598e-01
1.924000000000000000e+03 8.752996444702148438e+00 3.989164590835571289e+00 4.893699645996093750e+00 7.212256193161010742e-01 1.684477567672729492e+00 2.029654085636138916e-01
1.925000000000000000e+03 8.036340713500976562e+00 5.710232257843017578e+00 3.795431137084960938e+00 1.184352755546569824e+00 1.493935108184814453e+00 -1.760013580322265625e+00
1.926000000000000000e+03 9.464238166809082031e+00 4.937446117401123047e+00 7.203504562377929688e+00 2.911722660064697266e+00 3.034568309783935547e+00 -1.570896744728088379e+00
1.927000000000000000e+03 4.219397735595703125e+01 1.374376678466796875e+01 1.289302587509155273e+00 3.656708955764770508e+00 1.483803510665893555e+00 3.389967918395996094e+00
1.928000000000000000e+03 4.065472412109375000e+01 1.353320884704589844e+01 4.750668704509735107e-01 7.796484470367431641e+00 2.481465578079223633e+00 4.237143516540527344e+00
1.929000000000000000e+03 1.251793003082275391e+01 -5.315715312957763672e+00 -2.593951821327209473e-01 1.729897409677505493e-01 -2.592163532972335815e-02 -3.024259023368358612e-02
1.930000000000000000e+03 1.416792774200439453e+01 -4.598417758941650391e+00 -3.479177355766296387e-01 7.648549973964691162e-02 -8.142966777086257935e-02 3.818074613809585571e-02
1.931000000000000000e+03 3.884080886840820312e+01 8.252061843872070312e+00 -2.157489299774169922e+00 1.253845119476318359e+01 3.114288568496704102e+00 3.075969934463500977e+00
1.932000000000000000e+03 1.470987510681152344e+01 -4.892838954925537109e+00 -3.141035139560699463e-01 1.001676395535469055e-01 -6.418076157569885254e-02 9.756814688444137573e-02
1.933000000000000000e+03 3.778191757202148438e+01 7.189315795898437500e+00 -1.373855829238891602e+00 1.069111728668212891e+01 2.795178413391113281e+00 3.696778059005737305e+00
1.934000000000000000e+03 6.044007492065429688e+01 -1.542924761772155762e+00 -1.506405949592590332e+00 5.045545578002929688e+00 1.061741828918457031e+00 -2.771808207035064697e-01
1.935000000000000000e+03 5.898738098144531250e+01 -1.343634963035583496e+00 -1.565316081047058105e+00 2.866640567779541016e+00 3.903973400592803955e-01 -1.500453591346740723e+00
1.936000000000000000e+03 5.372096633911132812e+01 1.064170837402343750e+01 9.158750772476196289e-01 9.343704223632812500e+00 3.077873706817626953e+00 1.370917707681655884e-01
1.937000000000000000e+03 6.560005950927734375e+01 -1.822205734252929688e+01 3.738670349121093750e-01 3.422155141830444336e+00 1.138806700706481934e+00 -9.659951329231262207e-01
1.938000000000000000e+03 6.636209869384765625e+01 -1.926497077941894531e+01 8.012648224830627441e-01 3.183597087860107422e+00 1.195458531379699707e+00 -6.315801143646240234e-01
1.939000000000000000e+03 7.536313629150390625e+01 1.189152622222900391e+01 -3.260374367237091064e-01 6.678852558135986328e+00 1.905844569206237793e+00 -2.075139522552490234e+00
1.940000000000000000e+03 1.162807941436767578e+01 1.321992015838623047e+01 -1.408185958862304688e+00 5.403112173080444336e-01 -2.603624165058135986e-01 -4.108875989913940430e-01
1.941000000000000000e+03 1.276009559631347656e+01 1.405397987365722656e+01 -1.484421610832214355e+00 2.394043207168579102e-01 -3.735051751136779785e-01 -4.361890256404876709e-01
1.942000000000000000e+03 2.594080352783203125e+01 -2.528142929077148438e+00 3.081798553466796875e+00 7.091057777404785156e+00 3.051856994628906250e+00 -9.710438847541809082e-01
1.943000000000000000e+03 3.695674896240234375e+01 4.879325926303863525e-01 2.581784009933471680e+00 9.957553863525390625e+00 3.761801242828369141e+00 9.161088466644287109e-01
1.944000000000000000e+03 7.423068237304687500e+01 -1.546250534057617188e+01 1.013836622238159180e+00 9.463567733764648438e+00 3.143221378326416016e+00 2.504606842994689941e-01
1.945000000000000000e+03 7.546527099609375000e+01 -1.423307228088378906e+01 9.297491312026977539e-01 8.772800445556640625e+00 2.910764932632446289e+00 1.470017526298761368e-02
1.946000000000000000e+03 3.025972747802734375e+01 -1.079223346710205078e+01 1.133552908897399902e+00 4.734475135803222656e+00 1.760408401489257812e+00 -1.948535323143005371e+00
1.947000000000000000e+03 7.566049194335937500e+01 -1.257779240608215332e+00 -1.212400913238525391e+00 6.904693603515625000e+00 1.707687854766845703e+00 1.019266128540039062e+00
1.948000000000000000e+03 7.618490600585937500e+01 -3.517935991287231445e+00 -4.210382103919982910e-01 8.141819953918457031e+00 2.316234588623046875e+00 1.372578501701354980e+00
1.949000000000000000e+03 1.356913661956787109e+01 2.796835660934448242e+00 4.350086688995361328e+00 -1.817802429199218750e+00 7.596852779388427734e-01 -2.663626194000244141e+00
1.950000000000000000e+03 5.409458541870117188e+01 -1.446114420890808105e+00 -3.232444286346435547e+00 7.236037254333496094e+00 1.201077818870544434e+00 -2.873718500137329102e+00
1.951000000000000000e+03 7.388732910156250000e+01 -5.692482948303222656e+00 -5.729779601097106934e-01 7.093734741210937500e+00 1.956226944923400879e+00 7.249917387962341309e-01
1.952000000000000000e+03 2.044363784790039062e+01 -1.149189853668212891e+01 1.073707222938537598e+00 6.332474350929260254e-01 5.120863914489746094e-01 9.499863386154174805e-01
1.953000000000000000e+03 4.323334503173828125e+01 -2.505172014236450195e+00 -1.687931716442108154e-01 5.778810024261474609e+00 1.683005094528198242e+00 3.721227943897247314e-01
1.954000000000000000e+03 4.919947147369384766e+00 1.075215148925781250e+01 -1.748243421316146851e-01 1.099257707595825195e+00 2.773299813270568848e-01 -1.206273198127746582e+00
1.955000000000000000e+03 6.035125350952148438e+01 -1.439314556121826172e+01 4.537927210330963135e-01 7.866321563720703125e+00 2.496034383773803711e+00 4.833673834800720215e-01
1.956000000000000000e+03 6.129280471801757812e+01 -1.391307544708251953e+01 -1.274221837520599365e-01 7.367695331573486328e+00 2.172081947326660156e+00 1.424055099487304688e-01
1.957000000000000000e+03 6.289590835571289062e+01 3.109995722770690918e-01 -2.925487279891967773e+00 5.523721218109130859e+00 7.794700860977172852e-01 3.606064319610595703e+00
1.958000000000000000e+03 6.384803009033203125e+01 5.538368821144104004e-01 -2.515453100204467773e+00 5.501568317413330078e+00 8.958346247673034668e-01 3.575800180435180664e+00
1.959000000000000000e+03 7.113838195800781250e+01 -1.639734029769897461e+00 -2.508412837982177734e+00 4.555734157562255859e+00 6.141963601112365723e-01 -2.610519409179687500e+00
1.960000000000000000e+03 7.397236633300781250e+01 -2.096040153503417969e+01 -5.574938058853149414e-01 7.123983860015869141e+00 1.969947099685668945e+00 7.834373712539672852e-01
1.961000000000000000e+03 1.737047004699707031e+01 -6.485437870025634766e+00 -5.662547945976257324e-01 -8.069720119237899780e-03 -1.722973585128784180e-01 2.514229714870452881e-01
1.962000000000000000e+03 1.698418426513671875e+01 -9.505311965942382812e+00 -1.278288513422012329e-01 3.487060666084289551e-01 6.626316159963607788e-02 -4.894188046455383301e-02
1.963000000000000000e+03 4.534021854400634766e+00 2.187667655944824219e+01 -1.135386303067207336e-01 1.361289978027343750e+00 3.743254244327545166e-01 8.946699649095535278e-02
1.964000000000000000e+03 7.094610595703125000e+01 1.296666336059570312e+01 2.389954090118408203e+00 4.829767227172851562e+00 2.165916442871093750e+00 8.919661641120910645e-01
1.965000000000000000e+03 6.977995300292968750e+01 1.147840309143066406e+01 1.712637424468994141e+00 6.199836254119873047e+00 2.373742103576660156e+00 1.444953441619873047e+00
1.966000000000000000e+03 5.053516387939453125e+01 7.058112621307373047e+00 -2.484960556030273438e-01 9.872771263122558594e+00 2.887282609939575195e+00 1.640592068433761597e-01
1.967000000000000000e+03 4.982765197753906250e+01 2.550209045410156250e+00 1.983742356300354004e+00 5.159231185913085938e+00 2.142892122268676758e+00 1.643944144248962402e+00
1.968000000000000000e+03 4.774032592773437500e+01 2.924607276916503906e+00 1.118577361106872559e+00 2.599950313568115234e+00 1.115558266639709473e+00 2.072197675704956055e+00
1.969000000000000000e+03 7.401664733886718750e+01 -8.290160179138183594e+00 5.033323764801025391e-01 8.932408332824707031e+00 2.830722332000732422e+00 1.099974393844604492e+00
1.970000000000000000e+03 3.712255859375000000e+01 5.964101791381835938e+00 -3.108519911766052246e-01 1.042995452880859375e+01 3.035730838775634766e+00 2.563049793243408203e+00
1.971000000000000000e+03 3.763872146606445312e+01 6.603194236755371094e+00 -5.905301570892333984e-01 1.080245399475097656e+01 3.063577175140380859e+00 3.209576368331909180e+00
1.972000000000000000e+03 3.133987045288085938e+01 -1.693155670166015625e+01 -4.572111368179321289e-02 3.508597612380981445e+00 1.038862943649291992e+00 -1.245831012725830078e+00
1.973000000000000000e+03 3.282072448730468750e+01 -1.610380935668945312e+01 1.553471088409423828e-01 3.220059633255004883e+00 1.012621998786926270e+00 -1.333060026168823242e+00
1.974000000000000000e+03 3.775936126708984375e+01 1.492611122131347656e+01 -2.497788429260253906e+00 6.050245285034179688e+00 1.065737009048461914e+00 -1.291993260383605957e+00
1.975000000000000000e+03 5.952800750732421875e+01 -1.485408210754394531e+01 8.583239316940307617e-01 8.638860702514648438e+00 2.849155426025390625e+00 1.144663393497467041e-01
1.976000000000000000e+03 3.840489196777343750e+01 8.685074806213378906e+00 -2.091310977935791016e+00 1.290040683746337891e+01 3.242728710174560547e+00 3.722870349884033203e+00
1.977000000000000000e+03 7.436322784423828125e+01 1.364499855041503906e+01 8.052951693534851074e-01 5.576512813568115234e+00 1.914542436599731445e+00 -9.458205103874206543e-01
1.978000000000000000e+03 6.817314147949218750e+01 1.434796047210693359e+01 4.296828508377075195e-01 8.895423889160156250e+00 2.797532081604003906e+00 1.135859251022338867e+00
1.979000000000000000e+03 2.915876197814941406e+01 -8.046823143959045410e-01 8.136786460876464844e+00 4.969788074493408203e+00 3.931972265243530273e+00 2.622204542160034180e+00
1.980000000000000000e+03 7.652458953857421875e+01 -1.599988365173339844e+01 2.355793416500091553e-01 7.969263076782226562e+00 2.461452722549438477e+00 -3.611415326595306396e-01
1.981000000000000000e+03 7.525536346435546875e+01 -1.256921672821044922e+01 1.075193166732788086e+00 9.406525611877441406e+00 3.144515514373779297e+00 7.880595326423645020e-01
1.982000000000000000e+03 2.914218521118164062e+01 1.689847564697265625e+01 4.236283302307128906e-01 1.606430530548095703e+00 6.090176701545715332e-01 1.848421216011047363e+00
1.983000000000000000e+03 7.491181182861328125e+01 1.748424911499023438e+01 5.077407956123352051e-01 6.392950057983398438e+00 2.070207357406616211e+00 -1.005309596657752991e-01
1.984000000000000000e+03 7.427791595458984375e+01 1.633881568908691406e+01 6.900014877319335938e-01 6.041207790374755859e+00 2.019362688064575195e+00 -2.775290608406066895e-01
1.985000000000000000e+03 3.681496858596801758e+00 -3.287025070190429688e+01 5.931767169386148453e-03 -2.215470820665359497e-01 -6.468459218740463257e-02 4.649014025926589966e-02
1.986000000000000000e+03 2.823992919921875000e+01 1.427427530288696289e+00 -2.396185323596000671e-02 7.960814833641052246e-01 2.316358834505081177e-01 -8.066827058792114258e-01
1.987000000000000000e+03 6.313082885742187500e+01 2.533061027526855469e+00 -1.479551911354064941e+00 4.068878650665283203e+00 7.767980694770812988e-01 1.889323949813842773e+00
1.988000000000000000e+03 3.528437376022338867e+00 6.905117988586425781e+00 7.344096302986145020e-01 -2.304129451513290405e-01 1.511990129947662354e-01 -5.731762647628784180e-01
1.989000000000000000e+03 4.214433288574218750e+01 -4.797875404357910156e+00 2.470907211303710938e+00 6.304043292999267578e+00 2.632485151290893555e+00 4.955212399363517761e-02
1.990000000000000000e+03 7.324436187744140625e+01 -4.435928821563720703e+00 -8.381898403167724609e-01 6.180048942565917969e+00 1.602557778358459473e+00 -1.596575975418090820e-01
1.991000000000000000e+03 7.238546752929687500e+01 -3.262687206268310547e+00 -1.834375262260437012e+00 4.971776008605957031e+00 9.412202239036560059e-01 -1.137256860733032227e+00
1.992000000000000000e+03 4.443760395050048828e+00 3.083474922180175781e+01 2.302691899240016937e-02 1.208889842033386230e+00 3.695750236511230469e-01 1.957322955131530762e-01
1.993000000000000000e+03 1.926365089416503906e+01 1.941094970703125000e+01 -9.525650143623352051e-01 9.297176264226436615e-03 -2.829803526401519775e-01 -5.437863469123840332e-01
1.994000000000000000e+03 6.747428894042968750e+01 7.041315436363220215e-01 -9.189132452011108398e-01 5.864158153533935547e+00 1.483573555946350098e+00 9.530252218246459961e-01
1.995000000000000000e+03 4.175603485107421875e+01 1.512911796569824219e+01 -2.296149879693984985e-01 5.218051433563232422e+00 1.496531009674072266e+00 2.949068069458007812e+00
1.996000000000000000e+03 2.567819213867187500e+01 1.139942073822021484e+01 -3.255686998367309570e+00 8.237639427185058594e+00 1.494585871696472168e+00 9.546351432800292969e-01
1.997000000000000000e+03 2.624938583374023438e+01 -1.203271007537841797e+01 -4.758357107639312744e-01 7.379913806915283203e+00 2.071223497390747070e+00 -4.270661771297454834e-01
1.998000000000000000e+03 2.698707008361816406e+01 -1.127248573303222656e+01 5.946559309959411621e-01 7.710536479949951172e+00 2.491557836532592773e+00 -7.968697547912597656e-01
1.999000000000000000e+03 7.762997436523437500e+01 6.173533916473388672e+00 1.466562151908874512e+00 1.087383937835693359e+01 3.702120542526245117e+00 -1.605175256729125977e+00
2.000000000000000000e+03 6.024858093261718750e+01 1.791736412048339844e+01 1.326592683792114258e+00 2.871163845062255859e+00 1.259326934814453125e+00 4.769350886344909668e-01
2.001000000000000000e+03 4.356447601318359375e+01 -1.290036106109619141e+01 8.601193428039550781e-01 8.163218498229980469e+00 2.707001447677612305e+00 2.905255258083343506e-01
2.002000000000000000e+03 3.526944732666015625e+01 3.194537639617919922e+00 4.581319808959960938e+00 4.832528591156005859e+00 2.824154615402221680e+00 2.273589849472045898e+00
2.003000000000000000e+03 3.308219528198242188e+01 4.000829696655273438e+00 4.645521938800811768e-01 2.086505174636840820e+00 7.653172016143798828e-01 1.852285504341125488e+00
2.004000000000000000e+03 4.443063735961914062e+01 -1.208512687683105469e+01 -5.630028992891311646e-02 6.727329254150390625e+00 2.001308679580688477e+00 3.011679947376251221e-01
2.005000000000000000e+03 4.302156448364257812e+01 -9.469866007566452026e-02 -4.179535388946533203e+00 2.690902471542358398e+00 -4.465899467468261719e-01 2.657985985279083252e-01
2.006000000000000000e+03 5.468741226196289062e+01 1.358298301696777344e+01 1.575290083885192871e+00 6.650566101074218750e+00 2.467756748199462891e+00 1.913013696670532227e+00
2.007000000000000000e+03 4.733518981933593750e+01 1.670735716819763184e+00 3.902170956134796143e-01 2.510052919387817383e+00 8.700810074806213379e-01 2.544383049011230469e+00
2.008000000000000000e+03 4.326427459716796875e+01 2.008715057373046875e+01 -2.385719120502471924e-01 3.936050891876220703e+00 1.109243631362915039e+00 4.654260873794555664e-01
2.009000000000000000e+03 4.213108444213867188e+01 1.750967788696289062e+01 -5.425614714622497559e-01 4.360383987426757812e+00 1.145346879959106445e+00 1.301629066467285156e+00
2.010000000000000000e+03 4.656033039093017578e+00 -1.460427665710449219e+01 4.135617986321449280e-02 -1.907160729169845581e-01 -4.480797052383422852e-02 -1.335775703191757202e-01
2.011000000000000000e+03 3.815157318115234375e+01 -4.399100303649902344e+00 -9.227576851844787598e-01 3.015472173690795898e+00 6.278143525123596191e-01 -1.511488795280456543e+00
2.012000000000000000e+03 7.405494689941406250e+01 -2.633230972290039062e+01 5.556615814566612244e-02 6.364378452301025391e+00 1.925983428955078125e+00 3.604595363140106201e-01
2.013000000000000000e+03 4.439912796020507812e+00 1.194925117492675781e+01 -3.992167115211486816e-01 1.148756384849548340e+00 2.248618900775909424e-01 -1.071510672569274902e+00
2.014000000000000000e+03 7.340002536773681641e+00 1.565130138397216797e+01 -7.708305120468139648e-01 1.281883478164672852e+00 1.533159017562866211e-01 -4.444742500782012939e-01
2.015000000000000000e+03 7.501631927490234375e+01 -2.978948020935058594e+01 9.208428114652633667e-02 6.383330345153808594e+00 1.942624449729919434e+00 1.905514001846313477e-01
2.016000000000000000e+03 3.546044921875000000e+01 -2.042254638671875000e+01 4.056754410266876221e-01 3.238256692886352539e+00 1.093179702758789062e+00 -3.989675641059875488e-02
2.017000000000000000e+03 3.718139266967773438e+01 -1.936076164245605469e+01 9.653078913688659668e-01 3.081704616546630859e+00 1.214103817939758301e+00 4.406233727931976318e-01
2.018000000000000000e+03 7.658313751220703125e+01 -3.411921691894531250e+01 4.723703116178512573e-02 6.513432502746582031e+00 1.968200922012329102e+00 9.753416478633880615e-02
2.019000000000000000e+03 7.607543945312500000e+01 -7.201591491699218750e+00 -3.224266692996025085e-02 8.596523284912109375e+00 2.569284200668334961e+00 1.756649732589721680e+00
2.020000000000000000e+03 7.526806640625000000e+01 2.339282417297363281e+01 1.677620038390159607e-02 6.600966453552246094e+00 1.985322833061218262e+00 5.655241385102272034e-02
2.021000000000000000e+03 3.019037818908691406e+01 1.679976463317871094e+01 -3.093445301055908203e-01 6.147701740264892578e-01 9.162769466638565063e-02 1.626843333244323730e+00
2.022000000000000000e+03 2.884687805175781250e+01 1.524971389770507812e+01 8.426827192306518555e-01 1.083634614944458008e+00 5.778952240943908691e-01 1.696963071823120117e+00
2.023000000000000000e+03 3.544156551361083984e+00 3.479970169067382812e+01 2.170592732727527618e-02 1.158331632614135742e+00 3.540112674236297607e-01 1.081964969635009766e-01
2.024000000000000000e+03 4.737846851348876953e+00 1.905925750732421875e+01 -2.457703948020935059e-01 1.369046092033386230e+00 3.369827270507812500e-01 -1.118939146399497986e-01
2.025000000000000000e+03 7.479092407226562500e+01 -9.129743576049804688e+00 6.048902869224548340e-01 9.115321159362792969e+00 2.916063547134399414e+00 1.380611538887023926e+00
2.026000000000000000e+03 5.193856430053710938e+01 5.329540729522705078e+00 1.507216334342956543e+00 1.070993804931640625e+01 3.665146350860595703e+00 -9.953030943870544434e-01
2.027000000000000000e+03 1.546824645996093750e+01 1.735701370239257812e+01 -1.429345846176147461e+00 -3.684465587139129639e-02 -4.398571550846099854e-01 -3.018037974834442139e-01
2.028000000000000000e+03 4.822854995727539062e+01 1.637203025817871094e+01 1.449148774147033691e+00 2.212868452072143555e+00 1.098605155944824219e+00 -1.538337945938110352e+00
2.029000000000000000e+03 5.888784408569335938e+01 -1.907015037536621094e+01 1.385172605514526367e+00 8.386923789978027344e+00 2.931628942489624023e+00 -9.856146574020385742e-01
2.030000000000000000e+03 6.723838043212890625e+01 1.927005648612976074e+00 6.772787123918533325e-02 6.486368656158447266e+00 1.966228961944580078e+00 1.014492869377136230e+00
2.031000000000000000e+03 6.504300689697265625e+01 4.118990898132324219e+00 3.913747370243072510e-01 6.311865329742431641e+00 2.010972023010253906e+00 1.334734439849853516e+00
2.032000000000000000e+03 6.375245285034179688e+01 -1.517850208282470703e+01 -5.509516000747680664e-01 4.696924209594726562e+00 1.243791818618774414e+00 -6.965605020523071289e-01
2.033000000000000000e+03 5.109419631958007812e+01 -1.299749135971069336e+00 -2.474368572235107422e+00 4.412631034851074219e+00 5.814787149429321289e-01 -2.080284208059310913e-01
2.034000000000000000e+03 4.926875686645507812e+01 1.906992793083190918e-01 2.818929851055145264e-01 3.026410341262817383e+00 9.924910068511962891e-01 2.585757732391357422e+00
2.035000000000000000e+03 2.756538009643554688e+01 -5.836518287658691406e+00 2.289022207260131836e+00 9.931230545043945312e+00 3.666075706481933594e+00 5.451626181602478027e-01
2.036000000000000000e+03 5.180327224731445312e+01 1.078323841094970703e+00 1.433367729187011719e+00 8.377909660339355469e+00 2.943383216857910156e+00 8.374159932136535645e-01
2.037000000000000000e+03 6.963330078125000000e+01 -1.844782447814941406e+01 8.392847776412963867e-01 2.906125783920288086e+00 1.123623132705688477e+00 2.125908374786376953e+00
2.038000000000000000e+03 7.262749481201171875e+01 -1.871988868713378906e+01 -6.893089413642883301e-01 7.325547218322753906e+00 1.990871429443359375e+00 1.864821434020996094e+00
2.039000000000000000e+03 3.555183410644531250e+01 4.638808727264404297e+00 1.911620140075683594e+00 6.471238136291503906e+00 2.514857530593872070e+00 1.944229841232299805e+00
2.040000000000000000e+03 3.568772888183593750e+01 2.290104389190673828e+00 4.598859786987304688e+00 5.078104496002197266e+00 2.903089284896850586e+00 1.831022977828979492e+00
2.041000000000000000e+03 4.310425186157226562e+01 -4.057624816894531250e+00 3.104756832122802734e+00 7.146125316619873047e+00 3.075264692306518555e+00 3.816952407360076904e-01
2.042000000000000000e+03 4.686565399169921875e+01 -3.199875652790069580e-01 -9.766589403152465820e-01 2.574268579483032227e+00 4.792829155921936035e-01 4.231584072113037109e+00
2.043000000000000000e+03 4.608831787109375000e+01 -1.257562041282653809e+00 -2.482386350631713867e+00 3.969716310501098633e+00 4.461989700794219971e-01 4.973488330841064453e+00
2.044000000000000000e+03 2.943093681335449219e+01 -8.409906387329101562e+00 2.727497577667236328e+00 5.917762279510498047e+00 2.593577861785888672e+00 -1.439551830291748047e+00
2.045000000000000000e+03 2.697283554077148438e+01 -9.443244934082031250e+00 2.683257579803466797e+00 9.399236679077148438e+00 3.624748468399047852e+00 -1.736046910285949707e+00
2.046000000000000000e+03 4.927256774902343750e+01 5.104547023773193359e+00 1.202699899673461914e+00 5.358192443847656250e+00 1.968267679214477539e+00 1.213088035583496094e+00
2.047000000000000000e+03 5.069849777221679688e+01 1.262001991271972656e+00 1.592324733734130859e+00 5.579210758209228516e+00 2.151460647583007812e+00 1.730339407920837402e+00
2.048000000000000000e+03 5.677962493896484375e+01 -7.848912239074707031e+00 1.263325959444046021e-01 6.539143085479736328e+00 1.999642729759216309e+00 -1.848008930683135986e-01
2.049000000000000000e+03 4.149131393432617188e+01 -8.655023574829101562e+00 -2.687930762767791748e-01 7.968835353851318359e+00 2.310012578964233398e+00 5.744479894638061523e-01
2.050000000000000000e+03 6.871224212646484375e+01 1.276914119720458984e+01 2.387364864349365234e+00 8.184185028076171875e+00 3.171464920043945312e+00 1.710078239440917969e+00
2.051000000000000000e+03 5.859940338134765625e+01 -2.101435470581054688e+01 -2.832221686840057373e-01 7.692065238952636719e+00 2.222652912139892578e+00 -1.959026604890823364e-01
2.052000000000000000e+03 2.196769142150878906e+01 2.021935272216796875e+01 -1.036639332771301270e+00 8.193047642707824707e-01 -6.520038098096847534e-02 -1.212671160697937012e+00
2.053000000000000000e+03 3.872151184082031250e+01 -5.730499744415283203e+00 1.714453548192977905e-01 2.387183666229248047e+00 7.675886750221252441e-01 -1.280938506126403809e+00
2.054000000000000000e+03 6.657115173339843750e+01 1.561269664764404297e+01 -4.411953687667846680e-01 8.695667266845703125e+00 2.476341485977172852e+00 -1.969055384397506714e-01
2.055000000000000000e+03 5.730038070678710938e+01 -3.086423158645629883e+00 -4.950612783432006836e-01 4.069049358367919922e+00 1.072196483612060547e+00 -2.695746898651123047e+00
2.056000000000000000e+03 6.296160888671875000e+01 -1.416004562377929688e+01 -5.855593681335449219e-01 5.602883815765380859e+00 1.505197286605834961e+00 -4.210676252841949463e-01
2.057000000000000000e+03 4.502532577514648438e+01 -1.299618148803710938e+01 4.910343289375305176e-01 5.496550559997558594e+00 1.796275496482849121e+00 -2.229089736938476562e-01
2.058000000000000000e+03 5.489398956298828125e+01 -2.230827808380126953e+00 -3.358993530273437500e+00 6.989187240600585938e+00 1.089058160781860352e+00 -3.925185203552246094e+00
2.059000000000000000e+03 5.327233123779296875e+01 -8.076575994491577148e-01 -2.526956319808959961e+00 8.160829544067382812e+00 1.690162062644958496e+00 -2.779030084609985352e+00
2.060000000000000000e+03 5.337031555175781250e+01 -2.367633819580078125e+00 -3.636308193206787109e+00 6.717361450195312500e+00 9.243159294128417969e-01 -2.689239978790283203e+00
2.061000000000000000e+03 6.107196807861328125e+00 3.583368682861328125e+01 7.455255091190338135e-02 1.113882541656494141e+00 3.565305173397064209e-01 1.433387994766235352e-01
2.062000000000000000e+03 5.378945541381835938e+01 1.845357131958007812e+01 -1.335092335939407349e-01 7.112646102905273438e+00 2.093741178512573242e+00 1.669629812240600586e+00
2.063000000000000000e+03 8.796713829040527344e+00 1.194489288330078125e+01 -1.029914498329162598e+00 1.552645802497863770e+00 1.568194031715393066e-01 -8.451676368713378906e-01
2.064000000000000000e+03 3.478056335449218750e+01 -1.861590576171875000e+01 4.006569683551788330e-01 2.470608472824096680e+00 8.613796234130859375e-01 -9.935655593872070312e-01
2.065000000000000000e+03 5.987289047241210938e+01 -6.372304558753967285e-01 -2.061712026596069336e+00 3.285955429077148438e+00 3.672729730606079102e-01 -1.251415163278579712e-01
2.066000000000000000e+03 6.049126815795898438e+01 -3.274455547332763672e+00 6.177759170532226562e-01 6.500821113586425781e+00 2.135579109191894531e+00 -2.711704075336456299e-01
2.067000000000000000e+03 5.728620910644531250e+01 -4.951939105987548828e+00 -1.374719738960266113e-01 5.351975917816162109e+00 1.564351201057434082e+00 -1.266831994056701660e+00
2.068000000000000000e+03 5.847476577758789062e+01 -1.023104572296142578e+01 1.242387890815734863e-01 8.402776718139648438e+00 2.558104753494262695e+00 7.976024150848388672e-01
2.069000000000000000e+03 7.528306579589843750e+01 -3.749441528320312500e+01 3.262513130903244019e-02 6.383280754089355469e+00 1.924771785736083984e+00 2.662151120603084564e-02
2.070000000000000000e+03 6.183810043334960938e+01 -1.129265689849853516e+01 -1.785578578710556030e-01 7.645454406738281250e+00 2.240068912506103516e+00 6.119813919067382812e-01
2.071000000000000000e+03 5.957044601440429688e+01 -1.051133155822753906e+01 2.996344268321990967e-01 8.400263786315917969e+00 2.609969377517700195e+00 1.260089635848999023e+00
2.072000000000000000e+03 2.276531600952148438e+01 -1.305454730987548828e+01 6.714707612991333008e-01 2.744714736938476562e+00 1.024855732917785645e+00 1.888682961463928223e+00
2.073000000000000000e+03 4.277533340454101562e+01 1.625927352905273438e+01 -1.158327311277389526e-01 3.858773708343505859e+00 1.122882246971130371e+00 2.070719003677368164e+00
2.074000000000000000e+03 6.100440502166748047e+00 -3.424942398071289062e+01 -1.019880082458257675e-02 1.113016605377197266e-01 3.033085726201534271e-02 4.977462068200111389e-02
2.075000000000000000e+03 4.183609485626220703e+00 -7.937310218811035156e+00 -2.565211988985538483e-02 -8.620076626539230347e-02 -3.355586528778076172e-02 -1.447763890027999878e-01
2.076000000000000000e+03 5.350247383117675781e+00 -7.904705524444580078e+00 -3.817476704716682434e-02 -4.960240051150321960e-02 -2.633314952254295349e-02 -1.584225594997406006e-01
2.077000000000000000e+03 4.356781482696533203e+00 8.616110801696777344e+00 4.356547594070434570e-01 5.861634016036987305e-01 3.065454363822937012e-01 -1.290029406547546387e+00
2.078000000000000000e+03 5.576332569122314453e+00 -2.530332565307617188e+01 2.852339483797550201e-02 -7.832982391119003296e-02 -1.494192983955144882e-02 5.020179226994514465e-02
2.079000000000000000e+03 3.385849380493164062e+01 1.455287337303161621e+00 4.698548793792724609e+00 -4.127346277236938477e-01 1.285744309425354004e+00 4.002077102661132812e+00
2.080000000000000000e+03 3.834404706954956055e+00 -2.906027984619140625e+01 -4.288692492991685867e-03 -2.444456219673156738e-01 -7.462029159069061279e-02 4.021605849266052246e-02
2.081000000000000000e+03 6.113273620605468750e+01 -8.911251068115234375e+00 3.546018600463867188e-01 8.729626655578613281e+00 2.725268602371215820e+00 1.176014780998229980e+00
2.082000000000000000e+03 6.066388320922851562e+01 -6.235054969787597656e+00 1.373489022254943848e+00 8.031560897827148438e+00 2.821515083312988281e+00 9.768469929695129395e-01
2.083000000000000000e+03 5.054298400878906250e+01 -2.389118957519531250e+01 7.439107894897460938e-01 2.887304782867431641e+00 1.089364647865295410e+00 -3.053401112556457520e-01
2.084000000000000000e+03 4.364516830444335938e+01 -1.541659259796142578e+01 1.393794655799865723e+00 6.526640415191650391e+00 2.376130580902099609e+00 -9.374393820762634277e-01
2.085000000000000000e+03 4.880442047119140625e+01 2.579802036285400391e+00 1.431542634963989258e+00 3.713833093643188477e+00 1.543612718582153320e+00 1.971686363220214844e+00
2.086000000000000000e+03 2.970249366760253906e+01 1.593961906433105469e+01 2.339571565389633179e-01 9.681565165519714355e-01 3.606340885162353516e-01 1.061677694320678711e+00
2.087000000000000000e+03 2.757324600219726562e+01 1.788340377807617188e+01 -6.143217682838439941e-01 4.760704994201660156e+00 1.243914961814880371e+00 1.762486219406127930e+00
2.088000000000000000e+03 5.805935668945312500e+01 -5.723163604736328125e+00 4.264252483844757080e-01 5.969232559204101562e+00 1.918697357177734375e+00 -3.572266101837158203e-01
2.089000000000000000e+03 7.586684417724609375e+01 -1.160177230834960938e+01 1.041467785835266113e+00 8.954843521118164062e+00 2.998893499374389648e+00 1.001594424247741699e+00
2.090000000000000000e+03 2.612152290344238281e+01 -9.800592660903930664e-01 3.211828470230102539e+00 3.487431526184082031e+00 2.009778022766113281e+00 -1.896966099739074707e+00
2.091000000000000000e+03 2.813529968261718750e+01 1.249743843078613281e+01 -1.600210666656494141e+00 1.992669939994812012e+00 1.177377775311470032e-01 -1.191811680793762207e+00
2.092000000000000000e+03 7.448573303222656250e+01 3.185248374938964844e-01 -2.411821126937866211e+00 2.826904773712158203e+00 1.245251446962356567e-01 1.072347879409790039e+00
2.093000000000000000e+03 7.369779205322265625e+01 -1.470720052719116211e+00 -1.294288992881774902e+00 3.115597724914550781e+00 5.463926196098327637e-01 -4.194843471050262451e-01
2.094000000000000000e+03 4.475193405151367188e+01 -1.665497016906738281e+01 6.161943674087524414e-01 5.121259212493896484e+00 1.721236109733581543e+00 -1.262363076210021973e+00
2.095000000000000000e+03 5.540719223022460938e+01 1.034757232666015625e+01 3.878070041537284851e-02 5.333465099334716797e+00 1.611673712730407715e+00 7.580398321151733398e-01
2.096000000000000000e+03 5.201575851440429688e+01 -1.362536311149597168e+00 -2.687110900878906250e+00 5.488523960113525391e+00 8.404238820075988770e-01 -8.277954459190368652e-01
2.097000000000000000e+03 5.004805564880371094e+00 -1.877120208740234375e+01 5.691487714648246765e-02 -1.731410175561904907e-01 -3.486784547567367554e-02 -5.843074247241020203e-02
2.098000000000000000e+03 5.409930419921875000e+01 -3.193050384521484375e+00 -2.996952295303344727e+00 5.796444892883300781e+00 8.398478031158447266e-01 -2.616936683654785156e+00
2.099000000000000000e+03 2.689146232604980469e+01 1.497392177581787109e+01 3.206067562103271484e+00 6.396209716796875000e+00 2.880683183670043945e+00 1.654346108436584473e+00
2.100000000000000000e+03 1.420277309417724609e+01 1.677642822265625000e+01 -1.346716046333312988e+00 5.349493399262428284e-02 -3.879663348197937012e-01 -2.268238961696624756e-01
2.101000000000000000e+03 3.843564605712890625e+01 1.432734870910644531e+01 -2.409275293350219727e+00 7.961061954498291016e+00 1.665536046028137207e+00 -6.323957443237304688e-01
2.102000000000000000e+03 3.802712249755859375e+01 1.416015720367431641e+01 -2.341000318527221680e+00 7.528351783752441406e+00 1.556205391883850098e+00 -1.137233018875122070e+00
2.103000000000000000e+03 3.641670227050781250e+01 8.039660453796386719e+00 -3.560289740562438965e-01 6.527788639068603516e+00 1.851527810096740723e+00 2.687249183654785156e+00
2.104000000000000000e+03 3.818298721313476562e+01 1.372986888885498047e+01 -1.963958024978637695e+00 8.790261268615722656e+00 2.047890901565551758e+00 -1.302494883537292480e+00
2.105000000000000000e+03 3.699523162841796875e+01 1.479700183868408203e+01 -2.069674491882324219e+00 4.156514167785644531e+00 6.260519623756408691e-01 -1.803249835968017578e+00
2.106000000000000000e+03 4.010120391845703125e+01 1.407816410064697266e+01 -1.299608588218688965e+00 9.059722900390625000e+00 2.328034400939941406e+00 2.820888042449951172e+00
2.107000000000000000e+03 1.022758293151855469e+01 -5.073513507843017578e+00 -1.848411858081817627e-01 7.784046977758407593e-02 -3.210021555423736572e-02 -8.506381511688232422e-02
2.108000000000000000e+03 9.056669235229492188e+00 -4.075316905975341797e+00 -1.532244384288787842e-01 7.267099618911743164e-02 -2.416603267192840576e-02 -7.459083944559097290e-02
2.109000000000000000e+03 8.387114524841308594e+00 -3.994711399078369141e+00 -1.324262171983718872e-01 2.396409586071968079e-02 -3.253863751888275146e-02 -8.532913774251937866e-02
2.110000000000000000e+03 8.822919845581054688e+00 -4.828016757965087891e+00 -1.436742842197418213e-01 4.380835220217704773e-02 -2.995977737009525299e-02 -1.026741415262222290e-01
2.111000000000000000e+03 4.981641769409179688e+00 -4.260509014129638672e+00 -6.678792089223861694e-02 -2.137018926441669464e-02 -2.644743397831916809e-02 -1.017370969057083130e-01
2.112000000000000000e+03 7.033165931701660156e+00 -4.783899307250976562e+00 -1.075849086046218872e-01 2.584635652601718903e-02 -2.452156506478786469e-02 -1.087694391608238220e-01
2.113000000000000000e+03 4.148504734039306641e+00 -6.724495887756347656e+00 -3.227564319968223572e-02 -7.193792611360549927e-02 -3.126407042145729065e-02 -1.261659711599349976e-01
2.114000000000000000e+03 7.052205562591552734e+00 5.361364841461181641e+00 3.229024887084960938e+00 7.289410382509231567e-02 9.905757308006286621e-01 -1.045906305313110352e+00
2.115000000000000000e+03 4.966617584228515625e+00 7.124959468841552734e+00 1.187249898910522461e+00 1.602321863174438477e-01 4.042446315288543701e-01 -1.037558317184448242e+00
2.116000000000000000e+03 5.858519077301025391e+00 4.247185707092285156e+00 1.796273231506347656e+00 -5.703113079071044922e-01 3.677885830402374268e-01 4.062648117542266846e-01
2.117000000000000000e+03 4.782233238220214844e+00 4.938483238220214844e+00 1.319662451744079590e+00 -4.461339712142944336e-01 2.620585560798645020e-01 1.197009235620498657e-01
2.118000000000000000e+03 1.172714900970458984e+01 -5.244202613830566406e+00 -2.403607070446014404e-01 1.116039976477622986e-01 -3.862701356410980225e-02 -5.416236445307731628e-02
2.119000000000000000e+03 5.479860782623291016e+00 -4.773710250854492188e+00 -6.480764597654342651e-02 -9.407114237546920776e-03 -2.226442843675613403e-02 -1.032635718584060669e-01
2.120000000000000000e+03 6.455643177032470703e+00 6.265092849731445312e+00 2.196704864501953125e+00 3.812166750431060791e-01 7.733764648437500000e-01 -1.310444712638854980e+00
2.121000000000000000e+03 3.712069702148437500e+01 1.424333572387695312e+01 -2.254220962524414062e+00 4.869628906250000000e+00 7.846224308013916016e-01 -1.949258923530578613e+00
2.122000000000000000e+03 1.407960510253906250e+01 -5.285897731781005859e+00 -3.251072466373443604e-01 1.341587305068969727e-01 -5.728456005454063416e-02 5.904223024845123291e-02
2.123000000000000000e+03 1.348178577423095703e+01 -4.511694908142089844e+00 -2.777544260025024414e-01 1.227931529283523560e-01 -4.648837819695472717e-02 6.520146876573562622e-02
2.124000000000000000e+03 3.830038070678710938e+01 7.901395320892333984e+00 -2.245581388473510742e+00 1.162371063232421875e+01 2.813438653945922852e+00 3.295076370239257812e+00
2.125000000000000000e+03 5.489147949218750000e+01 -4.105776309967041016e+00 -2.520433902740478516e+00 5.702971458435058594e+00 9.547613263130187988e-01 -2.442310810089111328e+00
2.126000000000000000e+03 3.702286911010742188e+01 7.741644382476806641e+00 -1.162450790405273438e+00 8.353021621704101562e+00 2.157171487808227539e+00 3.259100675582885742e+00
2.127000000000000000e+03 3.644935989379882812e+01 6.708500862121582031e+00 -1.879316568374633789e-01 7.507654190063476562e+00 2.195916652679443359e+00 2.321133136749267578e+00
2.128000000000000000e+03 6.489213562011718750e+01 1.001753568649291992e+00 -2.331891298294067383e+00 5.247594833374023438e+00 8.747111558914184570e-01 3.506953001022338867e+00
2.129000000000000000e+03 2.525311470031738281e+01 -3.937347531318664551e-01 1.780624270439147949e+00 3.380991935729980469e+00 1.548484802246093750e+00 -4.389158725738525391e+00
2.130000000000000000e+03 3.038212203979492188e+01 -1.421579074859619141e+01 8.221926540136337280e-02 4.028487682342529297e+00 1.233212113380432129e+00 -1.641957283020019531e+00
2.131000000000000000e+03 5.947484588623046875e+01 -1.391104125976562500e+01 4.644480943679809570e-01 8.297362327575683594e+00 2.628542900085449219e+00 3.439321517944335938e-01
2.132000000000000000e+03 3.701177215576171875e+01 1.649559402465820312e+01 -2.068181276321411133e+00 3.812443017959594727e+00 5.232785344123840332e-01 -1.602455019950866699e+00
2.133000000000000000e+03 3.783423614501953125e+01 1.647817230224609375e+01 -2.143212795257568359e+00 4.774041652679443359e+00 7.892487049102783203e-01 -1.026629805564880371e+00
2.134000000000000000e+03 6.274375534057617188e+01 -1.521988964080810547e+01 -1.626807600259780884e-01 5.787577629089355469e+00 1.687469124794006348e+00 -5.946135520935058594e-01
2.135000000000000000e+03 1.324198150634765625e+01 -6.268888473510742188e+00 -2.679317593574523926e-01 2.149584591388702393e-01 -1.589199155569076538e-02 -6.029627472162246704e-02
2.136000000000000000e+03 1.467550754547119141e+01 -6.904569149017333984e+00 -3.343424797058105469e-01 1.856971830129623413e-01 -4.459358751773834229e-02 -3.213719651103019714e-02
2.137000000000000000e+03 9.427283287048339844e+00 1.312345409393310547e+01 -1.267468571662902832e+00 1.273472785949707031e+00 1.801258651539683342e-03 -5.820663571357727051e-01
2.138000000000000000e+03 4.960165405273437500e+01 1.369546175003051758e+00 1.322349667549133301e+00 4.386403560638427734e+00 1.712625980377197266e+00 2.036337614059448242e+00
2.139000000000000000e+03 4.850152969360351562e+01 1.505408048629760742e+00 1.003829240798950195e+00 2.962590456008911133e+00 1.189925909042358398e+00 2.608653306961059570e+00
2.140000000000000000e+03 2.689209938049316406e+01 -1.854764699935913086e+00 4.786629676818847656e+00 5.137901782989501953e+00 2.977359294891357422e+00 2.089499384164810181e-01
2.141000000000000000e+03 5.888611221313476562e+01 -3.138444900512695312e+00 1.611133962869644165e-01 4.602608680725097656e+00 1.429116606712341309e+00 -1.328540325164794922e+00
2.142000000000000000e+03 5.813697433471679688e+01 -2.167667627334594727e+00 -5.749564170837402344e-01 3.281690120697021484e+00 8.120200634002685547e-01 -2.090772390365600586e+00
2.143000000000000000e+03 4.821519470214843750e+01 3.895568549633026123e-01 1.996787488460540771e-01 2.515915632247924805e+00 8.146783113479614258e-01 3.069177150726318359e+00
2.144000000000000000e+03 3.036864471435546875e+01 1.805572700500488281e+01 -1.638970710337162018e-02 1.117507219314575195e+00 3.303352296352386475e-01 1.212468504905700684e+00
2.145000000000000000e+03 6.728262329101562500e+01 3.035963773727416992e+00 1.112272143363952637e+00 7.833758354187011719e+00 2.683809280395507812e+00 1.069744944572448730e+00
2.146000000000000000e+03 7.728071594238281250e+01 -1.310911417007446289e+00 -7.396613359451293945e-01 9.809018135070800781e+00 2.720807075500488281e+00 1.085268616676330566e+00
2.147000000000000000e+03 6.086407852172851562e+01 -1.269869995117187500e+01 1.197361480444669724e-02 7.666047573089599609e+00 2.303406476974487305e+00 6.337133646011352539e-01
2.148000000000000000e+03 7.221849822998046875e+01 -2.123153924942016602e+00 -1.879615426063537598e+00 4.163900375366210938e+00 6.852853894233703613e-01 -2.533788681030273438e+00
2.149000000000000000e+03 5.472933197021484375e+01 1.540255355834960938e+01 1.161740779876708984e+00 6.860749244689941406e+00 2.406747102737426758e+00 2.268859148025512695e+00
2.150000000000000000e+03 5.097620773315429688e+01 1.828279495239257812e+01 -2.478329688310623169e-01 7.259837150573730469e+00 2.103601217269897461e+00 -4.502093493938446045e-01
2.151000000000000000e+03 1.522082710266113281e+01 -7.750008106231689453e+00 -3.177624642848968506e-01 2.360041588544845581e-01 -2.452749572694301605e-02 -5.240201205015182495e-02
2.152000000000000000e+03 3.728250885009765625e+01 1.748454475402832031e+01 -1.845924854278564453e+00 3.730090856552124023e+00 5.652498006820678711e-01 -1.229237079620361328e+00
2.153000000000000000e+03 3.641280746459960938e+01 1.762362098693847656e+01 -1.425641417503356934e+00 2.486067771911621094e+00 3.181278705596923828e-01 -1.736446022987365723e+00
2.154000000000000000e+03 1.675881195068359375e+01 -8.254314422607421875e+00 -3.437507748603820801e-01 1.889023631811141968e-01 -4.645452648401260376e-02 7.714641280472278595e-03
2.155000000000000000e+03 6.602488708496093750e+01 1.554701328277587891e+00 -2.473023235797882080e-01 5.656970500946044922e+00 1.622900485992431641e+00 2.929480552673339844e+00
2.156000000000000000e+03 6.183642578125000000e+01 -9.991875886917114258e-01 -2.806621551513671875e+00 7.344782352447509766e+00 1.361448287963867188e+00 1.363234281539916992e+00
2.157000000000000000e+03 5.488660335540771484e+00 1.212489986419677734e+01 -4.465517699718475342e-01 1.320230603218078613e+00 2.621036469936370850e-01 -1.062715172767639160e+00
2.158000000000000000e+03 2.060829162597656250e+01 2.040446281433105469e+01 -7.937810420989990234e-01 4.105287790298461914e-01 -1.149756833910942078e-01 -7.242992520332336426e-01
2.159000000000000000e+03 7.481122589111328125e+01 1.469352817535400391e+01 8.124049305915832520e-01 5.786890029907226562e+00 1.979788541793823242e+00 -8.595178127288818359e-01
2.160000000000000000e+03 4.556591033935546875e+00 -1.320838737487792969e+01 2.439189329743385315e-02 -1.657418459653854370e-01 -4.240498319268226624e-02 -1.524108797311782837e-01
2.161000000000000000e+03 5.580116271972656250e+00 -1.036200714111328125e+01 -5.478997714817523956e-03 -7.239913195371627808e-02 -2.336343936622142792e-02 -1.782036870718002319e-01
2.162000000000000000e+03 3.713291883468627930e+00 9.065237045288085938e+00 2.676936089992523193e-01 4.304881393909454346e-01 2.094545215368270874e-01 -1.062634468078613281e+00
2.163000000000000000e+03 7.590998840332031250e+01 -1.785007286071777344e+01 -2.821936607360839844e-01 8.076628684997558594e+00 2.338330507278442383e+00 -2.863986790180206299e-01
2.164000000000000000e+03 3.405724334716796875e+01 2.013087081909179688e+01 -1.905331015586853027e-01 1.472041368484497070e+00 3.844524919986724854e-01 -2.121370136737823486e-01
2.165000000000000000e+03 3.455152893066406250e+01 1.816344261169433594e+01 -8.548864722251892090e-01 9.729017019271850586e-01 3.540457040071487427e-02 -7.671719789505004883e-01
2.166000000000000000e+03 4.898332977294921875e+01 1.780443000793457031e+01 6.047487258911132812e-01 6.020978927612304688e+00 1.987718224525451660e+00 -1.856272697448730469e+00
2.167000000000000000e+03 2.766909980773925781e+01 -1.042011260986328125e+00 4.830628871917724609e+00 3.281817913055419922e+00 2.433734178543090820e+00 9.110442996025085449e-01
2.168000000000000000e+03 7.214263916015625000e+01 1.282749748229980469e+01 1.642656326293945312e+00 4.077057361602783203e+00 1.715914130210876465e+00 -3.473179638385772705e-01
2.169000000000000000e+03 4.662555217742919922e+00 2.050636863708496094e+01 -2.326613962650299072e-01 1.372120976448059082e+00 3.418378829956054688e-01 5.740039050579071045e-03
2.170000000000000000e+03 5.641428470611572266e+00 2.321412658691406250e+01 -1.135109141469001770e-01 1.235472083091735840e+00 3.365883231163024902e-01 1.544855982065200806e-01
2.171000000000000000e+03 4.521551895141601562e+01 -3.187562227249145508e-01 -2.580851078033447266e+00 4.507527828216552734e+00 5.780030488967895508e-01 3.622639894485473633e+00
2.172000000000000000e+03 2.904357528686523438e+01 -1.164641857147216797e+01 7.615455389022827148e-01 5.507624626159667969e+00 1.880751132965087891e+00 -2.034751415252685547e+00
2.173000000000000000e+03 2.786898994445800781e+01 -1.369908905029296875e+01 -4.867971837520599365e-01 6.354979515075683594e+00 1.760454773902893066e+00 -8.760003447532653809e-01
2.174000000000000000e+03 6.053555679321289062e+01 -1.046513938903808594e+01 9.868760406970977783e-02 8.347165107727050781e+00 2.533755779266357422e+00 1.142485380172729492e+00
2.175000000000000000e+03 4.422323608398437500e+01 1.902895355224609375e+01 1.359123885631561279e-01 3.722396373748779297e+00 1.157492637634277344e+00 6.552562117576599121e-01
2.176000000000000000e+03 4.435586929321289062e+01 -1.355220890045166016e+01 6.199636459350585938e-01 6.477046966552734375e+00 2.129103183746337891e+00 -1.318186819553375244e-01
2.177000000000000000e+03 7.559953308105468750e+01 -1.651230812072753906e+01 2.842845916748046875e-01 8.534340858459472656e+00 2.645587682723999023e+00 -2.655205726623535156e-01
2.178000000000000000e+03 7.399444580078125000e+01 -3.623202133178710938e+01 2.711910568177700043e-02 6.273788452148437500e+00 1.890272259712219238e+00 5.885889753699302673e-02
2.179000000000000000e+03 7.638876342773437500e+01 -3.550685882568359375e+01 -5.919393151998519897e-03 6.479784011840820312e+00 1.942159414291381836e+00 5.077731236815452576e-02
2.180000000000000000e+03 7.479215240478515625e+01 -1.809145355224609375e+01 -4.153189659118652344e-01 8.559963226318359375e+00 2.443393468856811523e+00 1.043388545513153076e-01
2.181000000000000000e+03 6.418320178985595703e+00 8.780824661254882812e+00 4.299277067184448242e-01 1.335277795791625977e+00 5.295616388320922852e-01 -1.746510148048400879e+00
2.182000000000000000e+03 4.809937000274658203e+00 7.919605731964111328e+00 9.619663953781127930e-01 4.182182252407073975e-01 4.140554070472717285e-01 -1.398074865341186523e+00
2.183000000000000000e+03 5.440409088134765625e+01 1.251886272430419922e+01 1.325962424278259277e+00 7.569868564605712891e+00 2.668749332427978516e+00 1.307222008705139160e+00
2.184000000000000000e+03 7.594821166992187500e+01 1.673733329772949219e+01 3.768385946750640869e-01 6.386754035949707031e+00 2.029077768325805664e+00 -3.968409001827239990e-01
2.185000000000000000e+03 7.150531768798828125e+01 -1.920035362243652344e+01 -2.362480759620666504e-02 5.657728672027587891e+00 1.690231084823608398e+00 1.784128665924072266e+00
2.186000000000000000e+03 6.007186889648437500e+01 -9.552049636840820312e+00 2.271156013011932373e-01 8.474757194519042969e+00 2.610561847686767578e+00 1.370786190032958984e+00
2.187000000000000000e+03 5.530625534057617188e+01 1.289221858978271484e+01 9.649246335029602051e-01 5.595789909362792969e+00 1.968214392662048340e+00 1.895577311515808105e+00
2.188000000000000000e+03 5.612985610961914062e+01 1.354039096832275391e+01 9.695459008216857910e-01 4.288874149322509766e+00 1.577526092529296875e+00 1.782064080238342285e+00
2.189000000000000000e+03 5.762176895141601562e+01 1.494534206390380859e+01 1.096709966659545898e+00 2.929973602294921875e+00 1.208005070686340332e+00 1.853770971298217773e+00
2.190000000000000000e+03 5.698557281494140625e+01 1.416597747802734375e+01 6.774170994758605957e-01 3.538738727569580078e+00 1.264846801757812500e+00 2.016260385513305664e+00
2.191000000000000000e+03 4.123771286010742188e+01 -5.434059143066406250e+00 1.418616533279418945e+00 5.034489154815673828e+00 1.935931682586669922e+00 -3.880181908607482910e-01
2.192000000000000000e+03 6.025942993164062500e+01 -5.070141315460205078e+00 1.385715961456298828e+00 7.376555919647216797e+00 2.628681659698486328e+00 6.571385264396667480e-01
2.193000000000000000e+03 6.481262969970703125e+01 1.594434833526611328e+01 1.238919720053672791e-01 5.865371704101562500e+00 1.796779155731201172e+00 -2.917955636978149414e+00
2.194000000000000000e+03 4.333203506469726562e+01 -1.935521316528320312e+01 -2.679678499698638916e-01 5.801891326904296875e+00 1.660176992416381836e+00 -1.270111322402954102e+00
2.195000000000000000e+03 4.338395690917968750e+01 -1.784419250488281250e+01 5.524196624755859375e-01 6.540266036987304688e+00 2.127805709838867188e+00 -1.151656150817871094e+00
2.196000000000000000e+03 8.236907958984375000e+00 1.085920047760009766e+01 -1.037839174270629883e+00 1.870407342910766602e+00 2.497704774141311646e-01 -1.151576757431030273e+00
2.197000000000000000e+03 1.808649444580078125e+01 -1.087082672119140625e+01 3.351463675498962402e-01 3.840610682964324951e-01 2.157622277736663818e-01 7.142101973295211792e-02
2.198000000000000000e+03 7.453039550781250000e+01 -2.523525428771972656e+01 1.027926877140998840e-01 6.442591190338134766e+00 1.963615179061889648e+00 4.032167196273803711e-01
2.199000000000000000e+03 5.573566436767578125e+00 1.323978805541992188e+01 -6.321911215782165527e-01 1.345528602600097656e+00 2.140012532472610474e-01 -9.218378663063049316e-01
2.200000000000000000e+03 4.410866737365722656e+00 1.331572055816650391e+01 -3.477374017238616943e-01 1.214499354362487793e+00 2.600286006927490234e-01 -8.279720544815063477e-01
2.201000000000000000e+03 6.646229553222656250e+01 3.526958227157592773e+00 1.193164467811584473e+00 7.328344345092773438e+00 2.556452751159667969e+00 1.053522944450378418e+00
2.202000000000000000e+03 6.000811576843261719e+00 -1.441292095184326172e+01 5.706492438912391663e-02 -7.539023458957672119e-02 -5.497592967003583908e-03 -1.510595381259918213e-01
2.203000000000000000e+03 5.713537216186523438e+00 -1.167381000518798828e+01 1.643989235162734985e-02 -7.102336734533309937e-02 -1.637504249811172485e-02 -1.825810521841049194e-01
2.204000000000000000e+03 5.905885696411132812e+01 -8.953890800476074219e+00 5.721323490142822266e-01 7.883039474487304688e+00 2.536551475524902344e+00 1.120960593223571777e+00
2.205000000000000000e+03 5.470417976379394531e+00 -2.154724121093750000e+01 5.666242912411689758e-02 -1.177031993865966797e-01 -1.831223070621490479e-02 -3.552946494892239571e-03
2.206000000000000000e+03 5.980128479003906250e+01 -2.019886589050292969e+01 -6.687492132186889648e-02 7.151232719421386719e+00 2.125307321548461914e+00 -1.204355835914611816e+00
2.207000000000000000e+03 2.576736640930175781e+01 -1.318916893005371094e+01 -7.975758314132690430e-01 7.424289703369140625e+00 1.988014221191406250e+00 8.696040511131286621e-01
2.208000000000000000e+03 7.327799224853515625e+01 -2.588314056396484375e+00 -6.284939646720886230e-01 4.477777481079101562e+00 1.154785037040710449e+00 -1.087007880210876465e+00
2.209000000000000000e+03 7.417250823974609375e+01 2.072808265686035156e+01 1.251159608364105225e-01 6.550923824310302734e+00 2.002811908721923828e+00 3.751269727945327759e-02
2.210000000000000000e+03 5.964818954467773438e+01 -2.218309211730957031e+01 -1.360755264759063721e-01 6.516668319702148438e+00 1.914177775382995605e+00 -7.034487724304199219e-01
2.211000000000000000e+03 4.483951187133789062e+01 -1.789571189880371094e+01 2.664108872413635254e-01 4.899377346038818359e+00 1.549736499786376953e+00 -1.623637318611145020e+00
2.212000000000000000e+03 3.085489463806152344e+01 -1.553660106658935547e+01 -7.827500253915786743e-02 4.075212001800537109e+00 1.199081182479858398e+00 -1.405646920204162598e+00
2.213000000000000000e+03 7.093554973602294922e+00 -2.863617134094238281e+01 7.596493698656558990e-03 1.847873777151107788e-01 5.771515890955924988e-02 8.326947689056396484e-02
2.214000000000000000e+03 5.543529033660888672e+00 -2.908135604858398438e+01 3.896957496181130409e-03 -2.123225294053554535e-02 -5.200588610023260117e-03 6.399057060480117798e-02
2.215000000000000000e+03 7.411676025390625000e+01 -3.396494674682617188e+01 7.117318361997604370e-02 6.312637329101562500e+00 1.915143132209777832e+00 1.258532553911209106e-01
2.216000000000000000e+03 7.534967803955078125e+01 -3.236991119384765625e+01 8.400396257638931274e-02 6.434173583984375000e+00 1.955453276634216309e+00 1.618382185697555542e-01
2.217000000000000000e+03 5.550028610229492188e+01 1.444451427459716797e+01 1.141137361526489258e+00 5.596730709075927734e+00 2.021360397338867188e+00 2.394794702529907227e+00
2.218000000000000000e+03 5.573096466064453125e+01 1.751790618896484375e+01 5.930714011192321777e-01 5.475667476654052734e+00 1.820621609687805176e+00 2.129972457885742188e+00
2.219000000000000000e+03 1.114135837554931641e+01 1.626155853271484375e+01 -1.098217964172363281e+00 7.536464929580688477e-01 -1.033714413642883301e-01 -1.833536475896835327e-01
2.220000000000000000e+03 4.754914760589599609e+00 -1.599654293060302734e+01 4.263286665081977844e-02 -1.851322203874588013e-01 -4.274980351328849792e-02 -1.119447872042655945e-01
2.221000000000000000e+03 6.043020629882812500e+01 -1.672773361206054688e+01 8.049664497375488281e-01 7.145914077758789062e+00 2.385264158248901367e+00 -6.767120957374572754e-01
2.222000000000000000e+03 5.821154785156250000e+01 -1.279926490783691406e+01 4.594157338142395020e-01 9.206035614013671875e+00 2.899635553359985352e+00 4.064546227455139160e-01
2.223000000000000000e+03 5.201872825622558594e+00 -2.643722724914550781e+01 1.084816828370094299e-02 -1.192165315151214600e-01 -3.251050785183906555e-02 4.459399357438087463e-02
2.224000000000000000e+03 7.795988559722900391e+00 -2.578764533996582031e+01 5.121709033846855164e-02 2.198242694139480591e-01 8.131240308284759521e-02 6.272040307521820068e-02
2.225000000000000000e+03 7.746473312377929688e+00 1.251858615875244141e+01 -1.039368033409118652e+00 1.544121980667114258e+00 1.514262109994888306e-01 -8.770238757133483887e-01
2.226000000000000000e+03 7.215730285644531250e+01 -2.058143424987792969e+01 -3.112017214298248291e-01 6.373205661773681641e+00 1.818601131439208984e+00 1.388013124465942383e+00
2.227000000000000000e+03 5.974173545837402344e+00 7.273009777069091797e+00 1.553649306297302246e+00 5.315316915512084961e-01 6.255543231964111328e-01 -1.627713084220886230e+00
2.228000000000000000e+03 7.534266948699951172e+00 6.708839893341064453e+00 2.695106029510498047e+00 1.241636633872985840e+00 1.181022763252258301e+00 -2.413980245590209961e+00
2.229000000000000000e+03 5.615672302246093750e+01 -2.269035148620605469e+01 -7.127194404602050781e-01 6.079518318176269531e+00 1.610039591789245605e+00 7.424444556236267090e-01
2.230000000000000000e+03 4.717144012451171875e+00 1.757504653930664062e+01 -3.811649978160858154e-01 1.359179854393005371e+00 2.934044599533081055e-01 -2.655985653400421143e-01
2.231000000000000000e+03 7.548146057128906250e+01 -2.583264541625976562e+01 -2.522344142198562622e-02 6.675952434539794922e+00 1.995218634605407715e+00 2.900473475456237793e-01
2.232000000000000000e+03 5.973811149597167969e+00 1.593810844421386719e+01 -6.300352215766906738e-01 1.316881179809570312e+00 2.060537636280059814e-01 -4.693067073822021484e-01
2.233000000000000000e+03 7.562260437011718750e+01 -9.910552024841308594e+00 8.889299035072326660e-01 8.904882431030273438e+00 2.938143730163574219e+00 1.361279845237731934e+00
2.234000000000000000e+03 7.296108245849609375e+01 -2.899065780639648438e+01 1.748648881912231445e-01 6.088176727294921875e+00 1.878912448883056641e+00 2.148423343896865845e-01
2.235000000000000000e+03 6.108953857421875000e+01 -1.763322257995605469e+01 8.354373574256896973e-01 6.790339946746826172e+00 2.287733078002929688e+00 -9.859382510185241699e-01
2.236000000000000000e+03 1.198789691925048828e+01 1.518475627899169922e+01 -1.330943346023559570e+00 4.674479365348815918e-01 -2.590486109256744385e-01 -2.466915398836135864e-01
2.237000000000000000e+03 1.641962242126464844e+01 1.948109245300292969e+01 -9.495707750320434570e-01 4.846619814634323120e-02 -2.703313827514648438e-01 -1.904267668724060059e-01
2.238000000000000000e+03 1.481971740722656250e+01 1.895231819152832031e+01 -9.803910851478576660e-01 1.169290319085121155e-01 -2.590386271476745605e-01 -6.620589643716812134e-02
2.239000000000000000e+03 4.842351150512695312e+01 -1.902233505249023438e+01 -1.352670490741729736e-01 2.318135738372802734e+00 6.548606157302856445e-01 -1.240117430686950684e+00
2.240000000000000000e+03 7.421650695800781250e+01 -6.820193290710449219e+00 -3.599972650408744812e-02 8.130642890930175781e+00 2.428393125534057617e+00 1.172934055328369141e+00
2.241000000000000000e+03 7.653358459472656250e+01 2.747546386718750000e+01 -1.976585388183593750e-02 6.651523590087890625e+00 1.989527344703674316e+00 5.465871095657348633e-02
2.242000000000000000e+03 7.196654510498046875e+01 2.572949790954589844e+01 -1.969595625996589661e-02 6.432584285736083984e+00 1.923866510391235352e+00 1.516951620578765869e-02
2.243000000000000000e+03 7.544036102294921875e+01 -4.403164386749267578e+00 -3.049498498439788818e-01 7.604669094085693359e+00 2.189915895462036133e+00 1.247175574302673340e+00
2.244000000000000000e+03 4.701663970947265625e+00 3.194448661804199219e+01 4.882466793060302734e-02 1.163408160209655762e+00 3.636698722839355469e-01 1.773307174444198608e-01
2.245000000000000000e+03 7.648121643066406250e+01 -5.963194847106933594e+00 2.683799155056476593e-02 8.775712013244628906e+00 2.640764951705932617e+00 1.707302212715148926e+00
2.246000000000000000e+03 7.518354034423828125e+01 -5.621007919311523438e+00 -3.244252800941467285e-01 7.863584518432617188e+00 2.261747837066650391e+00 1.391924381256103516e+00
2.247000000000000000e+03 7.512478828430175781e+00 3.602050399780273438e+01 9.124771505594253540e-02 1.068364739418029785e+00 3.478837311267852783e-01 1.273962557315826416e-01
2.248000000000000000e+03 4.947633743286132812e+00 3.555611801147460938e+01 4.622166603803634644e-02 1.113656997680664062e+00 3.479636013507843018e-01 1.097198203206062317e-01
2.249000000000000000e+03 5.037417888641357422e+00 -3.312655639648437500e+01 -2.398155629634857178e-03 -3.675482049584388733e-02 -1.174589246511459351e-02 4.929469525814056396e-02
2.250000000000000000e+03 2.472972297668457031e+01 2.027326011657714844e+01 -1.693004727363586426e+00 2.914542436599731445e+00 3.664613068103790283e-01 -1.316238284111022949e+00
2.251000000000000000e+03 7.629057407379150391e+00 -1.696690368652343750e+01 1.158829852938652039e-01 3.334124758839607239e-02 4.476727172732353210e-02 -9.902394562959671021e-02
2.252000000000000000e+03 6.865996551513671875e+01 1.562585639953613281e+01 3.612853884696960449e-01 7.643178939819335938e+00 2.401339292526245117e+00 8.411317467689514160e-01
2.253000000000000000e+03 6.922278594970703125e+01 1.380872821807861328e+01 1.681305289268493652e+00 7.255013942718505859e+00 2.680895805358886719e+00 1.914332866668701172e+00
2.254000000000000000e+03 7.029749298095703125e+01 1.656791496276855469e+01 5.548632740974426270e-01 6.602940082550048828e+00 2.147341012954711914e+00 6.261041164398193359e-01
2.255000000000000000e+03 6.894599151611328125e+01 1.720025253295898438e+01 6.338152289390563965e-02 7.291127204895019531e+00 2.206352472305297852e+00 3.640111088752746582e-01
2.256000000000000000e+03 7.545059204101562500e+01 1.946636199951171875e+01 2.450670003890991211e-01 6.520449161529541016e+00 2.029654741287231445e+00 -3.635971248149871826e-02
2.257000000000000000e+03 7.318162536621093750e+01 1.685842132568359375e+01 8.125733733177185059e-01 6.176252841949462891e+00 2.096647739410400391e+00 1.275548338890075684e-01
2.258000000000000000e+03 2.096651268005371094e+01 -1.338148784637451172e+01 7.927886247634887695e-01 1.579129338264465332e+00 7.115753889083862305e-01 1.213873744010925293e+00
2.259000000000000000e+03 2.025266075134277344e+01 -1.434663009643554688e+01 6.968935132026672363e-01 1.689424037933349609e+00 7.158952951431274414e-01 1.003081083297729492e+00
2.260000000000000000e+03 6.707651519775390625e+01 -2.037545013427734375e+01 8.945810794830322266e-01 3.563204288482666016e+00 1.337335586547851562e+00 -2.040792256593704224e-01
2.261000000000000000e+03 2.878587722778320312e+01 -7.513479709625244141e+00 1.894983172416687012e+00 6.862578392028808594e+00 2.627268552780151367e+00 -5.606634020805358887e-01
2.262000000000000000e+03 3.481856107711791992e+00 2.752061462402343750e+01 -1.557241473346948624e-02 1.357010364532470703e+00 4.024313986301422119e-01 1.793799996376037598e-01
2.263000000000000000e+03 4.523768424987792969e+00 2.448972320556640625e+01 -3.260109946131706238e-02 1.329230189323425293e+00 3.889887332916259766e-01 1.780288666486740112e-01
2.264000000000000000e+03 5.947348403930664062e+01 1.627093505859375000e+01 1.128203034400939941e+00 1.995025992393493652e+00 9.369686841964721680e-01 9.212291836738586426e-01
2.265000000000000000e+03 5.658575439453125000e+01 1.507460880279541016e+01 1.149024963378906250e+00 4.230724811553955078e+00 1.613924860954284668e+00 2.098299503326416016e+00
2.266000000000000000e+03 3.676318740844726562e+01 8.546233177185058594e+00 1.370873898267745972e-01 6.663743495941162109e+00 2.040249347686767578e+00 3.800194263458251953e+00
2.267000000000000000e+03 3.644137954711914062e+01 8.875755310058593750e+00 7.933032512664794922e-01 5.270065307617187500e+00 1.819010496139526367e+00 3.084046602249145508e+00
2.268000000000000000e+03 3.778508377075195312e+01 1.567187881469726562e+01 -2.296163082122802734e+00 5.488434314727783203e+00 9.576814174652099609e-01 -1.184133648872375488e+00
2.269000000000000000e+03 3.925848388671875000e+01 1.485112190246582031e+01 -2.268212556838989258e+00 8.006842613220214844e+00 1.721588969230651855e+00 6.553379297256469727e-01
2.270000000000000000e+03 3.885045242309570312e+01 1.452509593963623047e+01 -2.421948432922363281e+00 8.366167068481445312e+00 1.783265471458435059e+00 1.334197968244552612e-01
2.271000000000000000e+03 3.692921447753906250e+01 1.557343959808349609e+01 -2.317731618881225586e+00 3.973134994506835938e+00 4.966210722923278809e-01 -1.651597976684570312e+00
2.272000000000000000e+03 1.041605091094970703e+01 -6.998291492462158203e+00 -1.502588838338851929e-01 1.619831323623657227e-01 3.517276607453823090e-03 -1.336528509855270386e-01
2.273000000000000000e+03 1.205601024627685547e+01 -6.987429141998291016e+00 -2.071307152509689331e-01 2.166145294904708862e-01 2.845144597813487053e-03 -1.055485531687736511e-01
2.274000000000000000e+03 7.884635448455810547e+00 -5.245637416839599609e+00 -1.235950514674186707e-01 3.538936376571655273e-02 -2.646170742809772491e-02 -1.283780336380004883e-01
2.275000000000000000e+03 5.496224403381347656e+00 5.619031906127929688e+00 1.969614744186401367e+00 -3.085635602474212646e-01 4.983153343200683594e-01 -5.312274098396301270e-01
2.276000000000000000e+03 1.289671421051025391e+01 -7.228306770324707031e+00 -2.583822309970855713e-01 1.801060289144515991e-01 -2.348286285996437073e-02 -1.010683849453926086e-01
2.277000000000000000e+03 3.915170288085937500e+01 1.625509262084960938e+01 -2.144066810607910156e+00 6.250440120697021484e+00 1.231912016868591309e+00 1.362647712230682373e-01
2.278000000000000000e+03 9.948354721069335938e+00 -5.922969818115234375e+00 -1.628541350364685059e-01 1.299678832292556763e-01 -9.865877218544483185e-03 -1.097639575600624084e-01
2.279000000000000000e+03 3.443903350830078125e+01 2.706172704696655273e+00 4.346179485321044922e+00 2.124304533004760742e+00 1.941145181655883789e+00 2.790853738784790039e+00
2.280000000000000000e+03 3.482352828979492188e+01 1.838194727897644043e+00 5.291527748107910156e+00 2.852241992950439453e+00 2.443130970001220703e+00 2.613616943359375000e+00
2.281000000000000000e+03 3.711781311035156250e+01 7.095433235168457031e+00 -7.850343585014343262e-01 9.477751731872558594e+00 2.607815027236938477e+00 3.001285791397094727e+00
2.282000000000000000e+03 3.926793289184570312e+01 -6.868552684783935547e+00 6.776832342147827148e-01 3.207539319992065430e+00 1.165566802024841309e+00 -7.425934672355651855e-01
2.283000000000000000e+03 1.459539985656738281e+01 -1.010078430175781250e+01 -2.569649182260036469e-02 3.395006060600280762e-01 9.414123743772506714e-02 -1.412708014249801636e-01
2.284000000000000000e+03 6.365996837615966797e+00 1.192954158782958984e+01 -6.961368918418884277e-01 1.485718965530395508e+00 2.368745952844619751e-01 -1.105000734329223633e+00
2.285000000000000000e+03 7.329641819000244141e+00 9.364916801452636719e+00 -3.641929030418395996e-01 1.889596939086914062e+00 4.576211869716644287e-01 -1.762912511825561523e+00
2.286000000000000000e+03 7.265949249267578125e+00 1.134225845336914062e+01 -7.091813087463378906e-01 1.617229700088500977e+00 2.724145054817199707e-01 -1.237217426300048828e+00
2.287000000000000000e+03 5.965170669555664062e+01 -6.511531829833984375e+00 1.136029362678527832e+00 7.390268325805664062e+00 2.557889461517333984e+00 9.200115799903869629e-01
2.288000000000000000e+03 5.839876174926757812e+01 -7.314991474151611328e+00 5.671289563179016113e-01 6.891674995422363281e+00 2.237641334533691406e+00 4.853887856006622314e-01
2.289000000000000000e+03 6.371045684814453125e+01 -1.825189781188964844e+01 3.196630179882049561e-01 4.654871940612792969e+00 1.492360472679138184e+00 -1.181345105171203613e+00
2.290000000000000000e+03 1.451300334930419922e+01 -9.098419189453125000e+00 -1.336259543895721436e-01 2.226516753435134888e-01 2.670771442353725433e-02 -1.155217215418815613e-01
2.291000000000000000e+03 1.425609302520751953e+01 -6.069103717803955078e+00 -3.618689775466918945e-01 1.712269037961959839e-01 -5.719262734055519104e-02 5.516500677913427353e-03
2.292000000000000000e+03 7.430136108398437500e+01 -3.549234628677368164e+00 -6.965317130088806152e-01 5.945264816284179688e+00 1.574619889259338379e+00 5.316109061241149902e-01
2.293000000000000000e+03 5.273658275604248047e+00 -6.753159046173095703e+00 -5.013579875230789185e-02 -3.272734582424163818e-02 -2.485894225537776947e-02 -1.438196152448654175e-01
2.294000000000000000e+03 7.585982513427734375e+01 1.337460708618164062e+01 2.149951010942459106e-01 6.499481678009033203e+00 2.014343023300170898e+00 -1.343271613121032715e+00
2.295000000000000000e+03 6.483798980712890625e+00 -7.805811882019042969e+00 -5.554222688078880310e-02 8.417125354753807187e-05 -1.663741655647754669e-02 -1.701319664716720581e-01
2.296000000000000000e+03 7.409923553466796875e+01 -1.968943023681640625e+01 -4.142580330371856689e-01 7.527711868286132812e+00 2.134036302566528320e+00 7.975502610206604004e-01
2.297000000000000000e+03 6.680382728576660156e+00 1.297916412353515625e+01 -7.268523573875427246e-01 1.466387510299682617e+00 2.218605279922485352e-01 -9.254967570304870605e-01
2.298000000000000000e+03 1.951606178283691406e+01 -1.385329914093017578e+01 7.575951218605041504e-01 1.169695973396301270e+00 5.781872868537902832e-01 7.725759744644165039e-01
2.299000000000000000e+03 1.994770240783691406e+01 -1.278080749511718750e+01 7.947078347206115723e-01 1.044085264205932617e+00 5.516379475593566895e-01 8.658547997474670410e-01
2.300000000000000000e+03 2.818574523925781250e+01 -1.265603733062744141e+01 -4.590479731559753418e-01 6.439781188964843750e+00 1.794219970703125000e+00 -1.605864524841308594e+00
2.301000000000000000e+03 4.658940124511718750e+01 1.947826766967773438e+01 4.676702320575714111e-01 3.937568426132202148e+00 1.321571588516235352e+00 -1.188219860196113586e-01
2.302000000000000000e+03 2.299881935119628906e+01 -1.551353740692138672e+01 6.515434477478265762e-03 3.214716434478759766e+00 9.663695693016052246e-01 1.181411743164062500e+00
2.303000000000000000e+03 2.399259948730468750e+01 -1.408292293548583984e+01 -5.880317257833667099e-05 4.517789363861083984e+00 1.355319142341613770e+00 1.445123672485351562e+00
2.304000000000000000e+03 7.511351013183593750e+01 -6.774059295654296875e+00 -5.200154613703489304e-03 8.245706558227539062e+00 2.472151756286621094e+00 1.533434271812438965e+00
2.305000000000000000e+03 6.198322296142578125e+01 -1.684631729125976562e+01 3.889760076999664307e-01 5.968039989471435547e+00 1.907104849815368652e+00 -9.122392535209655762e-01
2.306000000000000000e+03 1.095558738708496094e+01 1.440764427185058594e+01 -1.291013836860656738e+00 8.391766548156738281e-01 -1.355511546134948730e-01 -3.334197402000427246e-01
2.307000000000000000e+03 3.680550384521484375e+01 1.867086029052734375e+01 -1.005434751510620117e+00 2.867177248001098633e+00 5.585227608680725098e-01 -8.558256030082702637e-01
2.308000000000000000e+03 3.601900863647460938e+01 1.894294548034667969e+01 -1.006760358810424805e+00 2.225034952163696289e+00 3.654824197292327881e-01 -9.753713011741638184e-01
2.309000000000000000e+03 5.953613281250000000e+01 -7.670881748199462891e+00 6.377923488616943359e-01 7.633384227752685547e+00 2.481352806091308594e+00 9.868274927139282227e-01
2.310000000000000000e+03 5.970168685913085938e+01 -2.331016063690185547e+00 -1.643322706222534180e-01 4.834664821624755859e+00 1.401099801063537598e+00 -5.395213961601257324e-01
2.311000000000000000e+03 1.346049976348876953e+01 1.806166648864746094e+01 -1.070305228233337402e+00 3.316279947757720947e-01 -2.216031700372695923e-01 -8.175417035818099976e-02
2.312000000000000000e+03 7.231186676025390625e+01 1.422403335571289062e+01 1.727965950965881348e+00 5.137575626373291016e+00 2.059662580490112305e+00 1.891368031501770020e-01
2.313000000000000000e+03 6.167797088623046875e+01 -1.511939716339111328e+01 2.649506786838173866e-03 6.432313442230224609e+00 1.930488824844360352e+00 -2.800069749355316162e-01
2.314000000000000000e+03 5.954591369628906250e+01 -1.280789279937744141e+01 2.898378372192382812e-01 8.787001609802246094e+00 2.723052024841308594e+00 9.273847341537475586e-01
2.315000000000000000e+03 6.069139862060546875e+01 -1.153178215026855469e+01 -7.631225138902664185e-02 8.421896934509277344e+00 2.503675460815429688e+00 1.120375514030456543e+00
2.316000000000000000e+03 5.881662368774414062e+01 -6.320657730102539062e+00 7.030398845672607422e-01 6.566614151000976562e+00 2.180896282196044922e+00 3.158794641494750977e-01
2.317000000000000000e+03 6.114910888671875000e+01 5.672523379325866699e-01 -4.160304069519042969e+00 4.659593582153320312e+00 1.497869640588760376e-01 1.129987478256225586e+00
2.318000000000000000e+03 3.387182998657226562e+01 3.354282855987548828e+00 3.011815071105957031e+00 2.725936651229858398e+00 1.721325516700744629e+00 3.886826753616333008e+00
2.319000000000000000e+03 3.183671569824218750e+01 -1.846380043029785156e+01 -2.005775645375251770e-02 3.553033351898193359e+00 1.059892654418945312e+00 -9.659731984138488770e-01
2.320000000000000000e+03 3.368115997314453125e+01 -1.901359939575195312e+01 3.109551966190338135e-01 3.070514678955078125e+00 1.014440894126892090e+00 -8.509200811386108398e-01
2.321000000000000000e+03 4.615461730957031250e+01 -1.388079166412353516e+01 2.675746977329254150e-01 3.171076297760009766e+00 1.031595349311828613e+00 -7.391993999481201172e-01
2.322000000000000000e+03 7.312813568115234375e+01 -1.998778152465820312e+01 -3.946982920169830322e-01 6.784625053405761719e+00 1.916978120803833008e+00 1.064435839653015137e+00
2.323000000000000000e+03 6.129634380340576172e+00 -1.579571914672851562e+01 7.399743050336837769e-02 -8.980144560337066650e-02 -4.741203039884567261e-03 -1.257277727127075195e-01
2.324000000000000000e+03 6.609517669677734375e+01 1.679017257690429688e+01 -7.481401562690734863e-01 7.982053756713867188e+00 2.170174121856689453e+00 -1.181470990180969238e+00
2.325000000000000000e+03 6.544963073730468750e+01 1.819149971008300781e+01 -4.689368605613708496e-02 6.092958450317382812e+00 1.813819527626037598e+00 -1.393650770187377930e+00
2.326000000000000000e+03 6.408660888671875000e+01 1.723442268371582031e+01 4.009960591793060303e-01 4.595694541931152344e+00 1.499007105827331543e+00 -1.830106377601623535e+00
2.327000000000000000e+03 6.132606887817382812e+01 -1.607199668884277344e+01 4.873323440551757812e-01 6.812197685241699219e+00 2.189859151840209961e+00 -5.913805365562438965e-01
2.328000000000000000e+03 1.953482246398925781e+01 2.062137222290039062e+01 -7.275180816650390625e-01 1.373983472585678101e-01 -1.770359128713607788e-01 -6.132596731185913086e-01
2.329000000000000000e+03 4.242381668090820312e+01 1.923696517944335938e+01 -3.978350460529327393e-01 4.044964313507080078e+00 1.094138860702514648e+00 6.592115163803100586e-01
2.330000000000000000e+03 4.137949752807617188e+01 1.866744422912597656e+01 -9.744749665260314941e-01 4.448454856872558594e+00 1.042193889617919922e+00 7.121905088424682617e-01
2.331000000000000000e+03 6.985919952392578125e+01 -2.195814895629882812e+01 4.785910546779632568e-01 4.892971992492675781e+00 1.611468911170959473e+00 8.330344557762145996e-01
2.332000000000000000e+03 6.909661865234375000e+01 -2.065744781494140625e+01 8.881964087486267090e-01 3.876269340515136719e+00 1.429339766502380371e+00 1.005705952644348145e+00
2.333000000000000000e+03 7.403050231933593750e+01 2.197223281860351562e+01 7.628102600574493408e-02 6.558602809906005859e+00 1.990465164184570312e+00 4.834076017141342163e-02
2.334000000000000000e+03 7.339247894287109375e+01 -2.709522628784179688e+01 1.642652451992034912e-01 6.139580726623535156e+00 1.891153812408447266e+00 3.080637753009796143e-01
2.335000000000000000e+03 7.338879394531250000e+01 1.395020675659179688e+01 1.307118415832519531e+00 5.007305622100830078e+00 1.894327282905578613e+00 -7.249850630760192871e-01
2.336000000000000000e+03 7.167259979248046875e+01 -2.943472099304199219e+01 2.057988196611404419e-01 5.994783401489257812e+00 1.860174655914306641e+00 2.473015338182449341e-01
2.337000000000000000e+03 2.701691055297851562e+01 -1.585208225250244141e+01 -6.529177427291870117e-01 5.167520046234130859e+00 1.354380607604980469e+00 -1.717258542776107788e-01
2.338000000000000000e+03 4.695694446563720703e+00 2.583188438415527344e+01 -4.890127107501029968e-02 1.296847820281982422e+00 3.743839859962463379e-01 2.030417323112487793e-01
2.339000000000000000e+03 6.311369419097900391e+00 2.678764533996582031e+01 -2.822113037109375000e-02 1.142618060111999512e+00 3.343190848827362061e-01 2.330159097909927368e-01
2.340000000000000000e+03 7.415367889404296875e+01 1.942387962341308594e+01 2.944595515727996826e-01 6.501435279846191406e+00 2.038768529891967773e+00 4.304810985922813416e-02
2.341000000000000000e+03 7.575946044921875000e+01 1.831259727478027344e+01 2.668176889419555664e-01 6.470914363861083984e+00 2.021319627761840820e+00 -1.434018909931182861e-01
2.342000000000000000e+03 5.903334426879882812e+01 1.746921920776367188e+01 1.160508751869201660e+00 2.854317665100097656e+00 1.204447984695434570e+00 1.140258789062500000e+00
2.343000000000000000e+03 5.769254302978515625e+01 1.688644981384277344e+01 1.042308688163757324e+00 3.609720468521118164e+00 1.395608782768249512e+00 1.813263773918151855e+00
2.344000000000000000e+03 2.895712089538574219e+01 1.816537475585937500e+01 -3.493702113628387451e-01 2.620765924453735352e+00 6.814187169075012207e-01 2.281811475753784180e+00
2.345000000000000000e+03 2.720647048950195312e+01 -1.232950401306152344e+01 -2.330149859189987183e-01 7.728457450866699219e+00 2.248632907867431641e+00 -3.663550019264221191e-01
2.346000000000000000e+03 6.191115570068359375e+01 -2.034492301940917969e+01 2.889173030853271484e-01 5.879481315612792969e+00 1.850519537925720215e+00 -1.350214123725891113e+00
2.347000000000000000e+03 6.282924270629882812e+01 -1.933938026428222656e+01 7.384144067764282227e-01 5.405567169189453125e+00 1.843194484710693359e+00 -1.275664687156677246e+00
2.348000000000000000e+03 2.879820442199707031e+01 1.972438621520996094e+01 -7.895967960357666016e-01 3.159933328628540039e+00 7.111009955406188965e-01 1.301710247993469238e+00
2.349000000000000000e+03 2.587055015563964844e+01 2.261123466491699219e+01 -1.270110487937927246e+00 2.756901264190673828e+00 4.460372328758239746e-01 -4.501708149909973145e-01
2.350000000000000000e+03 7.152457427978515625e+01 1.601508522033691406e+01 1.041472196578979492e+00 6.241337776184082031e+00 2.184843063354492188e+00 5.157486200332641602e-01
2.351000000000000000e+03 7.082180786132812500e+01 1.797702026367187500e+01 3.762784898281097412e-01 6.696870803833007812e+00 2.121944904327392578e+00 3.577544391155242920e-01
2.352000000000000000e+03 5.077713012695312500e+01 2.088002777099609375e+01 -3.084424436092376709e-01 6.095500946044921875e+00 1.736117482185363770e+00 -1.133376359939575195e-01
2.353000000000000000e+03 5.720088958740234375e+01 -2.394811439514160156e+01 -1.062608882784843445e-01 6.036825180053710938e+00 1.779169321060180664e+00 6.010932922363281250e-01
2.354000000000000000e+03 7.498795318603515625e+01 2.866612625122070312e+01 -1.994089037179946899e-02 6.571936130523681641e+00 1.965598464012145996e+00 5.094337090849876404e-02
2.355000000000000000e+03 9.409535408020019531e+00 -2.815630340576171875e+01 1.556383538991212845e-02 4.667738974094390869e-01 1.447013169527053833e-01 9.615377336740493774e-02
2.356000000000000000e+03 3.857512283325195312e+01 -1.999531364440917969e+01 3.520333766937255859e-01 3.825481653213500977e+00 1.253254532814025879e+00 5.791206955909729004e-01
2.357000000000000000e+03 3.483758544921875000e+01 -2.187644767761230469e+01 5.925389528274536133e-01 3.080829620361328125e+00 1.102010607719421387e+00 -3.983220756053924561e-01
2.358000000000000000e+03 1.649276542663574219e+01 2.142660331726074219e+01 -5.456086397171020508e-01 1.727643609046936035e-01 -1.118532791733741760e-01 -1.550798714160919189e-01
2.359000000000000000e+03 5.490676879882812500e+01 -2.364556312561035156e+01 8.229294419288635254e-02 5.348724365234375000e+00 1.629305243492126465e+00 1.444644212722778320e+00
2.360000000000000000e+03 5.592954635620117188e+01 -2.492564964294433594e+01 -2.055872827768325806e-01 5.194291591644287109e+00 1.496611237525939941e+00 5.795953273773193359e-01
2.361000000000000000e+03 3.209207534790039062e+01 1.918011665344238281e+01 3.704927861690521240e-02 8.327671289443969727e-01 2.609449326992034912e-01 3.951527774333953857e-01
2.362000000000000000e+03 4.558485984802246094e+00 6.274714469909667969e+00 1.210552334785461426e+00 -1.262274831533432007e-01 3.252974450588226318e-01 -6.642486453056335449e-01
2.363000000000000000e+03 1.030841732025146484e+01 1.535007095336914062e+01 -1.187126874923706055e+00 9.142782688140869141e-01 -8.185458928346633911e-02 -2.653727233409881592e-01
2.364000000000000000e+03 6.990240097045898438e+00 1.423171329498291016e+01 -8.836773037910461426e-01 1.385377407073974609e+00 1.505100131034851074e-01 -6.852515339851379395e-01
2.365000000000000000e+03 4.964275360107421875e+00 9.182284355163574219e+00 3.157611191272735596e-01 8.824409842491149902e-01 3.594606220722198486e-01 -1.418969154357910156e+00
2.366000000000000000e+03 1.558818721771240234e+01 -8.712657928466796875e+00 -2.045320123434066772e-01 3.040483295917510986e-01 2.985489554703235626e-02 -1.038753911852836609e-01
2.367000000000000000e+03 1.773072433471679688e+01 -1.235870170593261719e+01 5.231570601463317871e-01 4.558537900447845459e-01 2.937032580375671387e-01 2.165854722261428833e-01
2.368000000000000000e+03 7.035985565185546875e+01 -3.307187271118164062e+01 1.617710739374160767e-01 5.866082668304443359e+00 1.808356165885925293e+00 7.188253104686737061e-02
2.369000000000000000e+03 3.415209770202636719e+00 3.360561752319335938e+01 3.980428352952003479e-02 1.187322139739990234e+00 3.681379258632659912e-01 1.268357336521148682e-01
2.370000000000000000e+03 5.164013290405273438e+01 -2.240188598632812500e+01 7.035961151123046875e-01 2.376581907272338867e+00 9.240534305572509766e-01 1.865148842334747314e-01
2.371000000000000000e+03 5.454622650146484375e+01 -2.609297561645507812e+01 1.902491450309753418e-01 4.823823451995849609e+00 1.504221796989440918e+00 6.377797126770019531e-01
2.372000000000000000e+03 6.091782093048095703e+00 3.338785552978515625e+01 7.154265791177749634e-02 1.120354056358337402e+00 3.575690090656280518e-01 1.773485541343688965e-01
2.373000000000000000e+03 8.903136253356933594e+00 3.316482543945312500e+01 1.143863499164581299e-01 1.016940712928771973e+00 3.393981158733367920e-01 1.778042763471603394e-01
2.374000000000000000e+03 2.053297424316406250e+01 5.540726184844970703e+00 4.928858280181884766e+00 2.915104150772094727e+00 2.353188753128051758e+00 -1.079266548156738281e+00
2.375000000000000000e+03 4.499795532226562500e+01 -2.063439941406250000e+01 -7.568961381912231445e-02 4.505112171173095703e+00 1.328826785087585449e+00 -1.408119559288024902e+00
2.376000000000000000e+03 7.816323280334472656e+00 2.438159942626953125e+01 -1.287169158458709717e-01 1.018503308296203613e+00 2.669359147548675537e-01 2.128211855888366699e-01
2.377000000000000000e+03 7.172585010528564453e+00 2.576976394653320312e+01 -5.279403179883956909e-02 1.067158818244934082e+00 3.043094575405120850e-01 2.160171866416931152e-01
2.378000000000000000e+03 7.529013824462890625e+01 -2.155884742736816406e+01 -1.626138985157012939e-01 7.064139366149902344e+00 2.070457458496093750e+00 4.042223095893859863e-01
2.379000000000000000e+03 5.458765983581542969e+00 -9.105862617492675781e+00 -2.353215776383876801e-02 -5.334359407424926758e-02 -2.306272462010383606e-02 -1.756954938173294067e-01
2.380000000000000000e+03 5.535343551635742188e+01 1.903332901000976562e+01 3.794069290161132812e-01 5.747606277465820312e+00 1.838104009628295898e+00 1.705382943153381348e+00
2.381000000000000000e+03 5.227157211303710938e+01 1.795973396301269531e+01 -3.072458505630493164e-01 8.195303916931152344e+00 2.366417407989501953e+00 6.106126904487609863e-01
2.382000000000000000e+03 2.880661010742187500e+01 -1.355322933197021484e+01 -5.582341924309730530e-02 5.259125709533691406e+00 1.560990810394287109e+00 -1.523882627487182617e+00
2.383000000000000000e+03 6.458058166503906250e+01 -1.910501098632812500e+01 6.893960833549499512e-01 4.143782615661621094e+00 1.449953556060791016e+00 -1.176191687583923340e+00
2.384000000000000000e+03 7.249256134033203125e+01 -2.387193489074707031e+01 2.087815701961517334e-01 5.949440002441406250e+00 1.847466468811035156e+00 6.507204771041870117e-01
2.385000000000000000e+03 7.346808624267578125e+01 -2.464902877807617188e+01 -3.169182687997817993e-02 6.345356464385986328e+00 1.894099354743957520e+00 4.427355527877807617e-01
2.386000000000000000e+03 1.885648918151855469e+01 -1.246639633178710938e+01 7.947736382484436035e-01 7.114270925521850586e-01 4.518602192401885986e-01 5.850673913955688477e-01
2.387000000000000000e+03 7.363449096679687500e+00 -1.416308307647705078e+01 8.161732554435729980e-02 3.159412182867527008e-03 2.543302066624164581e-02 -1.562070548534393311e-01
2.388000000000000000e+03 7.144581317901611328e+00 -1.278697586059570312e+01 5.232609808444976807e-02 8.605264127254486084e-03 1.827940903604030609e-02 -1.832432746887207031e-01
2.389000000000000000e+03 8.365519523620605469e+00 -2.343779373168945312e+01 8.372386544942855835e-02 2.364264726638793945e-01 9.604510664939880371e-02 7.157768309116363525e-02
2.390000000000000000e+03 6.698923587799072266e+00 -1.982012557983398438e+01 8.745720237493515015e-02 1.014838833361864090e-02 2.928167767822742462e-02 -2.187147922813892365e-02
2.391000000000000000e+03 6.835061645507812500e+01 2.002876663208007812e+01 -6.758984923362731934e-02 6.588564395904541016e+00 1.956292390823364258e+00 -1.450439244508743286e-01
2.392000000000000000e+03 1.223620700836181641e+01 2.137179756164550781e+01 -5.013986229896545410e-01 5.682338476181030273e-01 2.005056478083133698e-02 1.184496879577636719e-01
2.393000000000000000e+03 1.147739124298095703e+01 1.838060188293457031e+01 -9.001705646514892578e-01 6.520578265190124512e-01 -7.443381845951080322e-02 -2.850693278014659882e-02
2.394000000000000000e+03 3.765403366088867188e+01 1.436674022674560547e+01 -2.161403417587280273e+00 6.256123065948486328e+00 1.228415846824645996e+00 -1.554433226585388184e+00
2.395000000000000000e+03 3.856483459472656250e+01 1.583008384704589844e+01 -2.353100776672363281e+00 6.274122714996337891e+00 1.176306605339050293e+00 -3.977552950382232666e-01
2.396000000000000000e+03 3.758936691284179688e+01 8.253021240234375000e+00 -1.496073722839355469e+00 1.008016681671142578e+01 2.575227737426757812e+00 3.893257617950439453e+00
2.397000000000000000e+03 4.099111175537109375e+01 1.553474617004394531e+01 -1.109559416770935059e+00 6.146500587463378906e+00 1.511082410812377930e+00 2.286621332168579102e+00
2.398000000000000000e+03 8.460362434387207031e+00 -7.196458339691162109e+00 -1.137261614203453064e-01 6.656113266944885254e-02 -1.414950937032699585e-02 -1.628199070692062378e-01
2.399000000000000000e+03 1.069210529327392578e+01 -6.045388221740722656e+00 -1.930022686719894409e-01 1.056711599230766296e-01 -2.619933336973190308e-02 -1.097988262772560120e-01
2.400000000000000000e+03 1.223386096954345703e+01 -8.111270904541015625e+00 -1.447276920080184937e-01 2.304455935955047607e-01 2.571536786854267120e-02 -1.492104381322860718e-01
2.401000000000000000e+03 1.370187187194824219e+01 -7.673938274383544922e+00 -2.500613629817962646e-01 2.682893574237823486e-01 5.468395538628101349e-03 -9.678012132644653320e-02
2.402000000000000000e+03 8.930964469909667969e+00 -6.534258842468261719e+00 -1.244819089770317078e-01 9.869331121444702148e-02 -7.736577652394771576e-03 -1.367989331483840942e-01
2.403000000000000000e+03 7.178299903869628906e+00 -5.602125167846679688e+00 -8.779154717922210693e-02 1.612024195492267609e-02 -2.150139212608337402e-02 -1.282114088535308838e-01
2.404000000000000000e+03 3.857010269165039062e+01 1.647039222717285156e+01 -2.166105747222900391e+00 5.582345008850097656e+00 1.024871826171875000e+00 -4.942370951175689697e-01
2.405000000000000000e+03 6.343877315521240234e+00 -6.713340282440185547e+00 -6.693629175424575806e-02 -5.800500977784395218e-03 -2.182103693485260010e-02 -1.505253463983535767e-01
2.406000000000000000e+03 6.273645877838134766e+00 -5.720677375793457031e+00 -8.218237757682800293e-02 6.360542960464954376e-03 -2.274655178189277649e-02 -1.301307231187820435e-01
2.407000000000000000e+03 5.812305927276611328e+00 1.123820209503173828e+01 -5.120199322700500488e-01 1.388378620147705078e+00 2.629075944423675537e-01 -1.314387083053588867e+00
2.408000000000000000e+03 1.147304058074951172e+01 -6.110607147216796875e+00 -2.098415046930313110e-01 1.791496723890304565e-01 -9.207552298903465271e-03 -8.659127354621887207e-02
2.409000000000000000e+03 5.806330490112304688e+01 -4.007427215576171875e+00 2.806957960128784180e-01 4.860066413879394531e+00 1.542228698730468750e+00 -1.394060015678405762e+00
2.410000000000000000e+03 7.371611785888671875e+01 -1.837433624267578125e+01 -1.208662152290344238e+00 8.278450965881347656e+00 2.120936632156372070e+00 8.185554146766662598e-01
2.411000000000000000e+03 7.366510772705078125e+01 -2.328872299194335938e+01 7.093028631061315536e-03 6.510852336883544922e+00 1.955383658409118652e+00 6.844746470451354980e-01
2.412000000000000000e+03 3.856322860717773438e+01 1.806682968139648438e+01 -1.602278232574462891e+00 4.376456737518310547e+00 8.322534561157226562e-01 -5.851557254791259766e-01
2.413000000000000000e+03 3.983388137817382812e+01 1.502975082397460938e+01 -1.934147477149963379e+00 7.676383972167968750e+00 1.722670912742614746e+00 1.464281082153320312e+00
2.414000000000000000e+03 4.132762908935546875e+01 -3.765522956848144531e+00 1.127146482467651367e+00 4.025150299072265625e+00 1.545688986778259277e+00 -1.566647529602050781e+00
2.415000000000000000e+03 6.275782012939453125e+01 -1.756215286254882812e+01 5.858833193778991699e-01 5.392265796661376953e+00 1.793444752693176270e+00 -1.162815570831298828e+00
2.416000000000000000e+03 3.963991928100585938e+01 1.702407073974609375e+01 -1.879288196563720703e+00 5.565981864929199219e+00 1.106008052825927734e+00 3.462725877761840820e-01
2.417000000000000000e+03 5.570557117462158203e+00 8.282443046569824219e+00 5.827226042747497559e-01 9.482862949371337891e-01 4.593026638031005859e-01 -1.647956967353820801e+00
2.418000000000000000e+03 3.491580581665039062e+01 2.150199890136718750e+01 -2.413129061460494995e-01 1.990940213203430176e+00 5.248882174491882324e-01 -3.801980912685394287e-01
2.419000000000000000e+03 3.519425201416015625e+01 1.949382781982421875e+01 -3.119508028030395508e-01 1.614929318428039551e+00 3.908935487270355225e-01 -8.903571963310241699e-01
2.420000000000000000e+03 7.300511932373046875e+01 -2.189110565185546875e+01 -6.968406587839126587e-02 6.352536678314208984e+00 1.884855747222900391e+00 7.498018741607666016e-01
2.421000000000000000e+03 6.453417205810546875e+01 2.228139638900756836e+00 -9.209422469139099121e-01 5.361947536468505859e+00 1.332301616668701172e+00 2.801190853118896484e+00
2.422000000000000000e+03 6.784794616699218750e+01 -2.154032135009765625e+01 9.047250151634216309e-01 3.925587177276611328e+00 1.449093699455261230e+00 9.881207346916198730e-02
2.423000000000000000e+03 3.616645431518554688e+01 2.065637969970703125e+01 -5.840581059455871582e-01 2.478177785873413086e+00 5.682358741760253906e-01 -5.285963416099548340e-01
2.424000000000000000e+03 1.469816207885742188e+01 -1.122868919372558594e+01 1.109177768230438232e-01 2.921517491340637207e-01 1.209208592772483826e-01 -1.087908446788787842e-01
2.425000000000000000e+03 2.537191390991210938e+01 -1.468229770660400391e+01 -5.450011491775512695e-01 5.043984889984130859e+00 1.349695086479187012e+00 8.782091736793518066e-01
2.426000000000000000e+03 4.597263717651367188e+01 -2.164072418212890625e+01 -7.525707036256790161e-02 4.109151840209960938e+00 1.210168480873107910e+00 -1.267818450927734375e+00
2.427000000000000000e+03 2.901131248474121094e+01 -1.483736515045166016e+01 -4.029847979545593262e-01 5.234304904937744141e+00 1.449396133422851562e+00 -1.198216915130615234e+00
2.428000000000000000e+03 4.377566909790039062e+01 2.157537269592285156e+01 -1.220567747950553894e-01 3.889020919799804688e+00 1.130089282989501953e+00 1.773500740528106689e-01
2.429000000000000000e+03 2.121757698059082031e+01 2.372488021850585938e+01 -4.546600878238677979e-01 1.123693346977233887e+00 2.007099837064743042e-01 -6.385267972946166992e-01
2.430000000000000000e+03 1.830304908752441406e+01 2.116180419921875000e+01 -6.181210279464721680e-01 2.126717567443847656e-01 -1.216347888112068176e-01 -3.848473131656646729e-01
2.431000000000000000e+03 2.407085227966308594e+01 2.212181091308593750e+01 -1.039045453071594238e+00 2.150116682052612305e+00 3.333213329315185547e-01 -8.635611534118652344e-01
2.432000000000000000e+03 6.740911865234375000e+01 2.170035362243652344e+01 -2.343293651938438416e-02 6.275479316711425781e+00 1.875613927841186523e+00 -3.519529402256011963e-01
2.433000000000000000e+03 6.596360778808593750e+01 2.073793792724609375e+01 1.145572215318679810e-01 5.835269451141357422e+00 1.784947991371154785e+00 -6.670600771903991699e-01
2.434000000000000000e+03 6.512089538574218750e+01 -2.009771728515625000e+01 6.603000760078430176e-01 4.210447788238525391e+00 1.461224317550659180e+00 -9.513657093048095703e-01
2.435000000000000000e+03 6.218202590942382812e+01 1.994739723205566406e+01 9.060789942741394043e-01 4.124192714691162109e+00 1.509081482887268066e+00 -2.686303257942199707e-01
2.436000000000000000e+03 1.140162849426269531e+01 2.027608489990234375e+01 -6.075126528739929199e-01 6.467202901840209961e-01 1.176228467375040054e-02 8.210565894842147827e-02
2.437000000000000000e+03 5.341901016235351562e+01 2.032305717468261719e+01 -2.718437016010284424e-01 6.455808162689208984e+00 1.855189323425292969e+00 8.203178048133850098e-01
2.438000000000000000e+03 1.018778514862060547e+01 -2.052851295471191406e+01 1.641219109296798706e-01 4.125140607357025146e-01 1.729907840490341187e-01 7.712247967720031738e-02
2.439000000000000000e+03 7.987507820129394531e+00 -1.925728225708007812e+01 1.241425573825836182e-01 1.153055876493453979e-01 7.183444499969482422e-02 -2.055707573890686035e-02
2.440000000000000000e+03 6.947299957275390625e+00 -1.145460891723632812e+01 1.612401753664016724e-02 -1.336010638624429703e-02 8.291736594401299953e-04 -1.902186423540115356e-01
2.441000000000000000e+03 8.175037384033203125e+00 -3.313663864135742188e+01 -7.856438867747783661e-03 3.856246173381805420e-01 1.133304536342620850e-01 7.893471419811248779e-02
2.442000000000000000e+03 6.907737255096435547e+00 -3.133973884582519531e+01 -6.491817533969879150e-03 2.017246037721633911e-01 5.856983736157417297e-02 7.735753059387207031e-02
2.443000000000000000e+03 3.440077590942382812e+01 -1.990199851989746094e+01 9.270486831665039062e-01 2.661273241043090820e+00 1.076496601104736328e+00 -6.255818605422973633e-01
2.444000000000000000e+03 7.062211608886718750e+01 -2.328522491455078125e+01 4.539207816123962402e-01 5.308654785156250000e+00 1.728772759437561035e+00 7.016106247901916504e-01
2.445000000000000000e+03 1.860205650329589844e+01 -1.365763473510742188e+01 6.758003234863281250e-01 8.797973990440368652e-01 4.666793048381805420e-01 6.471312046051025391e-01
2.446000000000000000e+03 1.936419677734375000e+01 -1.479207992553710938e+01 5.175358653068542480e-01 1.378009200096130371e+00 5.686635375022888184e-01 8.342861533164978027e-01
2.447000000000000000e+03 8.255949974060058594e+00 2.021183967590332031e+01 -5.034441947937011719e-01 1.017874717712402344e+00 1.543291658163070679e-01 4.454922303557395935e-02
2.448000000000000000e+03 3.074656295776367188e+01 2.153545761108398438e+01 -3.492823839187622070e-01 2.130322694778442383e+00 5.343120694160461426e-01 6.944714188575744629e-01
2.449000000000000000e+03 4.038405227661132812e+01 -1.878879928588867188e+01 -2.765662670135498047e-01 5.481978893280029297e+00 1.561623692512512207e+00 1.275875210762023926e+00
2.450000000000000000e+03 4.979413986206054688e+01 1.929337310791015625e+01 -3.329370319843292236e-01 6.055000305175781250e+00 1.716619014739990234e+00 -4.859007596969604492e-01
2.451000000000000000e+03 1.296511554718017578e+01 2.252017974853515625e+01 -3.633578419685363770e-01 5.258969664573669434e-01 4.876173287630081177e-02 9.021072089672088623e-02
2.452000000000000000e+03 1.370019054412841797e+01 2.034192085266113281e+01 -6.823713779449462891e-01 3.567307293415069580e-01 -9.769219905138015747e-02 1.224298402667045593e-02
2.453000000000000000e+03 6.912345123291015625e+01 -2.943471527099609375e+01 3.287103772163391113e-01 5.630542278289794922e+00 1.787775754928588867e+00 1.283498704433441162e-01
2.454000000000000000e+03 7.196675872802734375e+01 -3.102149391174316406e+01 1.764371693134307861e-01 5.981761932373046875e+00 1.847459793090820312e+00 1.325596123933792114e-01
2.455000000000000000e+03 8.577057838439941406e+00 2.968304824829101562e+01 5.801181495189666748e-02 1.002508878707885742e+00 3.181562125682830811e-01 2.268719971179962158e-01
2.456000000000000000e+03 3.470473861694335938e+01 -2.350888252258300781e+01 -3.448946028947830200e-02 3.458458185195922852e+00 1.027190566062927246e+00 -1.891537159681320190e-01
2.457000000000000000e+03 3.807256698608398438e+01 -2.181317901611328125e+01 4.688986837863922119e-01 3.994563579559326172e+00 1.339038729667663574e+00 2.429174035787582397e-01
2.458000000000000000e+03 8.730910301208496094e+00 -1.382620906829833984e+01 1.035190671682357788e-01 1.160016357898712158e-01 6.585621088743209839e-02 -1.601084917783737183e-01
2.459000000000000000e+03 2.396931838989257812e+01 -1.710080528259277344e+01 -2.633883357048034668e-01 3.841263055801391602e+00 1.073362350463867188e+00 7.778427004814147949e-01
2.460000000000000000e+03 7.267939758300781250e+01 1.557444953918457031e+01 1.038341403007507324e+00 5.746489048004150391e+00 2.035449028015136719e+00 9.322510659694671631e-02
2.461000000000000000e+03 8.635990142822265625e+00 1.505972099304199219e+01 -1.064375758171081543e+00 1.216088891029357910e+00 4.551393538713455200e-02 -4.160859584808349609e-01
2.462000000000000000e+03 7.307371520996093750e+01 2.061941146850585938e+01 1.764359772205352783e-01 6.517246723175048828e+00 2.008104801177978516e+00 6.061062961816787720e-02
2.463000000000000000e+03 7.123608398437500000e+01 -2.799348831176757812e+01 2.816605567932128906e-01 5.800161361694335938e+00 1.824546575546264648e+00 2.384897917509078979e-01
2.464000000000000000e+03 7.238415527343750000e+01 -2.755089950561523438e+01 2.025163769721984863e-01 6.076603889465332031e+00 1.883736014366149902e+00 3.599099516868591309e-01
2.465000000000000000e+03 6.189485549926757812e+01 -1.850784301757812500e+01 4.022684097290039062e-01 5.871283054351806641e+00 1.882065534591674805e+00 -1.196955442428588867e+00
2.466000000000000000e+03 7.376972961425781250e+01 1.515620517730712891e+01 1.093212008476257324e+00 5.706912517547607422e+00 2.040037393569946289e+00 -2.439704537391662598e-01
2.467000000000000000e+03 7.377576446533203125e+01 1.811524581909179688e+01 4.176582098007202148e-01 6.332660675048828125e+00 2.025095701217651367e+00 -2.204923424869775772e-03
2.468000000000000000e+03 7.274079132080078125e+01 2.168272399902343750e+01 6.944621354341506958e-02 6.531702518463134766e+00 1.980344533920288086e+00 5.813166871666908264e-02
2.469000000000000000e+03 3.890249633789062500e+01 1.530860042572021484e+01 -2.450766086578369141e+00 7.203671455383300781e+00 1.425871610641479492e+00 -7.196894288063049316e-02
2.470000000000000000e+03 4.036494445800781250e+01 1.793331909179687500e+01 -1.330877065658569336e+00 4.947455406188964844e+00 1.084973573684692383e+00 5.549683570861816406e-01
2.471000000000000000e+03 9.622725486755371094e+00 -6.787503242492675781e+00 -1.401834934949874878e-01 8.757861703634262085e-02 -1.578146591782569885e-02 -1.518141776323318481e-01
2.472000000000000000e+03 1.072301006317138672e+01 -8.493113517761230469e+00 -9.220500290393829346e-02 1.737832278013229370e-01 2.447346784174442291e-02 -1.689311116933822632e-01
2.473000000000000000e+03 1.150784397125244141e+01 -7.673574924468994141e+00 -1.846486926078796387e-01 1.744886785745620728e-01 -3.048004349693655968e-03 -1.473763138055801392e-01
2.474000000000000000e+03 1.125804901123046875e+01 -6.990226268768310547e+00 -1.770535707473754883e-01 1.348081976175308228e-01 -1.267361361533403397e-02 -1.330882757902145386e-01
2.475000000000000000e+03 3.962617111206054688e+01 1.570339488983154297e+01 -2.090525150299072266e+00 6.920711517333984375e+00 1.449055910110473633e+00 9.084516167640686035e-01
2.476000000000000000e+03 3.880816650390625000e+01 1.727863311767578125e+01 -1.884318947792053223e+00 5.009784698486328125e+00 9.376397132873535156e-01 -3.400495350360870361e-01
2.477000000000000000e+03 6.429602050781250000e+01 -2.236077880859375000e+01 5.478700399398803711e-01 4.895105838775634766e+00 1.632892847061157227e+00 -9.013503193855285645e-01
2.478000000000000000e+03 5.866859054565429688e+01 1.870231437683105469e+01 1.102659225463867188e+00 3.671529769897460938e+00 1.432256698608398438e+00 1.220555663108825684e+00
2.479000000000000000e+03 5.724860000610351562e+01 1.816593742370605469e+01 9.170891642570495605e-01 4.264058589935302734e+00 1.554344296455383301e+00 1.745371937751770020e+00
2.480000000000000000e+03 1.301880645751953125e+01 -9.885352134704589844e+00 -3.538789972662925720e-02 2.334680408239364624e-01 5.942403897643089294e-02 -1.788306981325149536e-01
2.481000000000000000e+03 1.583503055572509766e+01 -1.201307392120361328e+01 2.422900050878524780e-01 3.341498076915740967e-01 1.729319393634796143e-01 -5.019032955169677734e-02
2.482000000000000000e+03 1.990867805480957031e+01 2.516258049011230469e+01 -2.512364685535430908e-01 8.574604988098144531e-01 1.818672120571136475e-01 -4.360697865486145020e-01
2.483000000000000000e+03 1.835728836059570312e+01 2.394219017028808594e+01 -2.755871713161468506e-01 5.544356107711791992e-01 8.365452289581298828e-02 -3.148594498634338379e-01
2.484000000000000000e+03 6.783401012420654297e+00 -1.017444038391113281e+01 -1.025359425693750381e-02 -8.462566765956580639e-04 -3.329955274239182472e-03 -1.940845102071762085e-01
2.485000000000000000e+03 1.576933097839355469e+01 -9.790815353393554688e+00 -6.065629422664642334e-02 2.412339895963668823e-01 5.417330935597419739e-02 -8.472499251365661621e-02
2.486000000000000000e+03 1.047946643829345703e+01 3.107980728149414062e+01 1.036694347858428955e-01 9.326184988021850586e-01 3.108863830566406250e-01 1.639555692672729492e-01
2.487000000000000000e+03 3.821200180053710938e+01 1.983443260192871094e+01 -8.956643342971801758e-01 3.421962976455688477e+00 7.578896284103393555e-01 -5.156494975090026855e-01
2.488000000000000000e+03 3.943773651123046875e+01 1.905637168884277344e+01 -1.309962272644042969e+00 4.253965854644775391e+00 8.832010626792907715e-01 -1.725321561098098755e-01
2.489000000000000000e+03 3.602753448486328125e+01 -2.529347801208496094e+01 1.796850115060806274e-01 3.718109846115112305e+00 1.169338464736938477e+00 -8.828011155128479004e-02
2.490000000000000000e+03 3.920278930664062500e+01 -2.458506202697753906e+01 7.666870951652526855e-02 4.213040828704833984e+00 1.286912918090820312e+00 -1.018233373761177063e-01
2.491000000000000000e+03 8.881859779357910156e+00 1.717489433288574219e+01 -8.238777518272399902e-01 1.062681198120117188e+00 7.164103537797927856e-02 -1.704863458871841431e-01
2.492000000000000000e+03 1.605080223083496094e+01 -1.296889877319335938e+01 4.776047170162200928e-01 4.958769381046295166e-01 2.920444905757904053e-01 1.209933981299400330e-01
2.493000000000000000e+03 1.672912597656250000e+01 -1.213716506958007812e+01 4.140950441360473633e-01 4.619027972221374512e-01 2.627993524074554443e-01 1.043780595064163208e-01
2.494000000000000000e+03 3.485139846801757812e+01 2.401159858703613281e+01 -2.445667237043380737e-01 2.378946065902709961e+00 6.403138041496276855e-01 -1.677711457014083862e-01
2.495000000000000000e+03 8.982872962951660156e+00 -1.536992549896240234e+01 1.408830434083938599e-01 1.266255974769592285e-01 8.025259524583816528e-02 -1.149120852351188660e-01
2.496000000000000000e+03 1.099747467041015625e+01 -1.296632194519042969e+01 1.269055008888244629e-01 2.408846765756607056e-01 1.103370562195777893e-01 -1.474162638187408447e-01
2.497000000000000000e+03 6.860535430908203125e+01 -3.100497245788574219e+01 2.101040780544281006e-01 5.657701969146728516e+00 1.760341882705688477e+00 3.378853946924209595e-02
2.498000000000000000e+03 7.179882812500000000e+01 2.713699150085449219e+01 -1.786706037819385529e-02 6.379614353179931641e+00 1.908524274826049805e+00 -2.270069206133484840e-03
2.499000000000000000e+03 6.992226409912109375e+01 2.344809722900390625e+01 -9.029110893607139587e-03 6.375547409057617188e+00 1.909955501556396484e+00 -5.119276419281959534e-02
2.500000000000000000e+03 6.946591949462890625e+01 -2.399378395080566406e+01 5.026183724403381348e-01 5.149745464324951172e+00 1.695709228515625000e+00 4.384968876838684082e-01
2.501000000000000000e+03 7.193341827392578125e+01 -2.609856796264648438e+01 2.562552988529205322e-01 5.854607582092285156e+00 1.833258867263793945e+00 3.672444820404052734e-01
2.502000000000000000e+03 1.017481422424316406e+01 -3.133791160583496094e+01 -2.201075851917266846e-02 6.496386528015136719e-01 1.882883608341217041e-01 1.190832033753395081e-01
2.503000000000000000e+03 6.103491210937500000e+01 2.117957496643066406e+01 9.020464420318603516e-01 4.123296260833740234e+00 1.507602930068969727e+00 1.972927153110504150e-01
2.504000000000000000e+03 5.985548019409179688e+01 2.037383651733398438e+01 9.973635673522949219e-01 3.995489597320556641e+00 1.497856020927429199e+00 6.143009662628173828e-01
2.505000000000000000e+03 1.085106563568115234e+01 2.235912895202636719e+01 -3.459009230136871338e-01 7.281933426856994629e-01 1.146877333521842957e-01 1.348445266485214233e-01
2.506000000000000000e+03 6.899092864990234375e+01 -2.590289115905761719e+01 4.510075747966766357e-01 5.344079494476318359e+00 1.738526105880737305e+00 2.286560386419296265e-01
2.507000000000000000e+03 5.193160247802734375e+01 1.958832740783691406e+01 -5.218197703361511230e-01 6.653105258941650391e+00 1.839385628700256348e+00 4.848249256610870361e-01
2.508000000000000000e+03 9.702077865600585938e+00 2.779617500305175781e+01 1.610043644905090332e-02 9.030457139015197754e-01 2.757438421249389648e-01 2.044062912464141846e-01
2.509000000000000000e+03 7.087491607666015625e+01 2.224943733215332031e+01 2.440696768462657928e-02 6.460743904113769531e+00 1.945545315742492676e+00 2.791877463459968567e-02
2.510000000000000000e+03 1.125292873382568359e+01 -2.328460311889648438e+01 1.177498400211334229e-01 6.078913807868957520e-01 2.176923602819442749e-01 1.483152061700820923e-01
2.511000000000000000e+03 9.648838043212890625e+00 -2.211376190185546875e+01 1.277271956205368042e-01 3.824019432067871094e-01 1.530387401580810547e-01 6.800749152898788452e-02
2.512000000000000000e+03 7.051874542236328125e+01 2.004447364807128906e+01 7.890070229768753052e-02 6.587913036346435547e+00 2.000044107437133789e+00 9.073376655578613281e-02
2.513000000000000000e+03 1.048185062408447266e+01 2.599740791320800781e+01 -7.411227375268936157e-02 8.174946308135986328e-01 2.230147123336791992e-01 2.069551050662994385e-01
2.514000000000000000e+03 4.160643005371093750e+01 -2.296099853515625000e+01 -9.768468886613845825e-02 4.858138084411621094e+00 1.428135991096496582e+00 -3.207795619964599609e-01
2.515000000000000000e+03 2.209854698181152344e+01 2.194337272644042969e+01 -7.695189714431762695e-01 1.202000260353088379e+00 1.297443658113479614e-01 -9.802892208099365234e-01
2.516000000000000000e+03 5.722445487976074219e+00 9.775245666503906250e+00 -1.360492110252380371e-01 1.299566507339477539e+00 3.490552008152008057e-01 -1.581836581230163574e+00
2.517000000000000000e+03 2.859435844421386719e+01 2.160010147094726562e+01 -8.624639511108398438e-01 2.623161792755126953e+00 5.282093286514282227e-01 7.693044543266296387e-01
2.518000000000000000e+03 2.630907440185546875e+01 -1.814455413818359375e+01 -4.701823592185974121e-01 4.099416255950927734e+00 1.088770270347595215e+00 9.525217115879058838e-02
2.519000000000000000e+03 5.053333663940429688e+01 -2.133004570007324219e+01 6.054465770721435547e-01 1.944688081741333008e+00 7.650403976440429688e-01 -4.668183028697967529e-01
2.520000000000000000e+03 4.929042434692382812e+01 -2.275827217102050781e+01 5.600626468658447266e-01 2.802212238311767578e+00 1.008682489395141602e+00 -6.513098478317260742e-01
2.521000000000000000e+03 7.257244873046875000e+01 1.857312965393066406e+01 4.338737428188323975e-01 6.478308200836181641e+00 2.073654651641845703e+00 1.878122687339782715e-01
2.522000000000000000e+03 2.667373847961425781e+01 -1.470805358886718750e+01 -8.204925060272216797e-01 6.071989536285400391e+00 1.575449109077453613e+00 -1.117276474833488464e-01
2.523000000000000000e+03 4.822260284423828125e+01 -2.150592422485351562e+01 2.924076616764068604e-01 2.914701938629150391e+00 9.621328711509704590e-01 -1.142887830734252930e+00
2.524000000000000000e+03 1.027422904968261719e+01 -1.042342281341552734e+01 1.573151792399585247e-03 1.511977463960647583e-01 4.583127051591873169e-02 -1.965329498052597046e-01
2.525000000000000000e+03 8.397287368774414062e+00 -1.245203113555908203e+01 5.495628714561462402e-02 6.222922354936599731e-02 3.515565395355224609e-02 -1.826255470514297485e-01
2.526000000000000000e+03 3.715494537353515625e+01 2.331290054321289062e+01 -4.275314211845397949e-01 2.892561435699462891e+00 7.395090460777282715e-01 -3.422807455062866211e-01
2.527000000000000000e+03 9.935400009155273438e+00 -7.999982833862304688e+00 -1.221615672111511230e-01 1.193766370415687561e-01 -8.354792953468859196e-04 -1.813295334577560425e-01
2.528000000000000000e+03 1.032793617248535156e+01 1.817619323730468750e+01 -8.500554561614990234e-01 8.117021322250366211e-01 -1.150601077824831009e-02 -5.493684113025665283e-02
2.529000000000000000e+03 4.696070861816406250e+01 -2.267974281311035156e+01 2.504111528396606445e-01 3.509690046310424805e+00 1.128030300140380859e+00 -1.127864837646484375e+00
2.530000000000000000e+03 1.100786209106445312e+01 2.442895317077636719e+01 -1.881917417049407959e-01 7.450348138809204102e-01 1.670529246330261230e-01 1.638403832912445068e-01
2.531000000000000000e+03 7.354365348815917969e+00 -6.551495552062988281e+00 -9.932756423950195312e-02 3.838470950722694397e-02 -1.828285492956638336e-02 -1.458680033683776855e-01
2.532000000000000000e+03 7.828805446624755859e+00 -8.734748840332031250e+00 -5.502809584140777588e-02 5.347916483879089355e-02 -4.646789166145026684e-04 -1.867766678333282471e-01
2.533000000000000000e+03 1.229504299163818359e+01 -9.414507865905761719e+00 -8.141453564167022705e-02 2.603538036346435547e-01 5.368177965283393860e-02 -1.608738601207733154e-01
2.534000000000000000e+03 1.296332645416259766e+01 -8.554074287414550781e+00 -1.334227770566940308e-01 1.962517499923706055e-01 1.884868927299976349e-02 -1.569864451885223389e-01
2.535000000000000000e+03 2.284450340270996094e+01 2.516214561462402344e+01 -4.937449395656585693e-01 1.464544892311096191e+00 2.912400066852569580e-01 -5.393265485763549805e-01
2.536000000000000000e+03 1.367456150054931641e+01 -1.142873764038085938e+01 1.058896631002426147e-01 3.596336245536804199e-01 1.396569907665252686e-01 -1.136198565363883972e-01
2.537000000000000000e+03 1.419736957550048828e+01 -1.295498943328857422e+01 2.608858346939086914e-01 4.168072640895843506e-01 2.033079266548156738e-01 -1.291489042341709137e-02
2.538000000000000000e+03 1.827523040771484375e+01 -1.468302536010742188e+01 5.838012099266052246e-01 1.079767942428588867e+00 4.990707337856292725e-01 5.514615774154663086e-01
2.539000000000000000e+03 3.864769744873046875e+01 2.332658767700195312e+01 -3.747274577617645264e-01 3.159113883972167969e+00 8.353159427642822266e-01 -2.391935586929321289e-01
2.540000000000000000e+03 4.588047027587890625e+01 -2.508809852600097656e+01 1.740610226988792419e-02 3.911134481430053711e+00 1.178562164306640625e+00 -7.246870994567871094e-01
2.541000000000000000e+03 7.539977073669433594e+00 -1.558046150207519531e+01 9.979681670665740967e-02 4.482950270175933838e-02 4.338789731264114380e-02 -1.256604641675949097e-01
2.542000000000000000e+03 8.830460548400878906e+00 -1.830771827697753906e+01 1.512991636991500854e-01 2.048530280590057373e-01 1.068456545472145081e-01 -4.370743036270141602e-02
2.543000000000000000e+03 7.017076873779296875e+01 -2.529030418395996094e+01 4.437588453292846680e-01 5.413076877593994141e+00 1.757050752639770508e+00 3.794197738170623779e-01
2.544000000000000000e+03 6.866429901123046875e+01 -2.274751472473144531e+01 7.704191207885742188e-01 4.558690071105957031e+00 1.598732829093933105e+00 4.215524196624755859e-01
2.545000000000000000e+03 1.037382793426513672e+01 -1.531551074981689453e+01 1.920913904905319214e-01 2.549301385879516602e-01 1.341064572334289551e-01 -8.606711775064468384e-02
2.546000000000000000e+03 1.155898380279541016e+01 -1.426070022583007812e+01 2.018398940563201904e-01 2.939888536930084229e-01 1.487486213445663452e-01 -7.402436435222625732e-02
2.547000000000000000e+03 9.072095870971679688e+00 1.850549316406250000e+01 -7.460329532623291016e-01 9.687587022781372070e-01 6.681771576404571533e-02 -6.503855437040328979e-02
2.548000000000000000e+03 9.830782890319824219e+00 2.364334678649902344e+01 -2.264422476291656494e-01 8.387420773506164551e-01 1.836899518966674805e-01 1.891013681888580322e-01
2.549000000000000000e+03 3.229198837280273438e+01 2.784581184387207031e+01 -2.232998013496398926e-01 2.370235681533813477e+00 6.440808176994323730e-01 -5.051969364285469055e-02
2.550000000000000000e+03 3.323706054687500000e+01 2.523671913146972656e+01 -2.118346393108367920e-01 2.336405038833618164e+00 6.373711228370666504e-01 -3.335467074066400528e-03
2.551000000000000000e+03 4.066579818725585938e+01 1.999091529846191406e+01 -8.043227195739746094e-01 4.089135646820068359e+00 9.854439496994018555e-01 9.322313964366912842e-02
2.552000000000000000e+03 6.352325439453125000e+01 2.433988571166992188e+01 3.798649907112121582e-01 5.200981616973876953e+00 1.674254059791564941e+00 -1.078336834907531738e-01
2.553000000000000000e+03 1.217293167114257812e+01 2.440893745422363281e+01 -1.767551600933074951e-01 6.418679952621459961e-01 1.395338475704193115e-01 1.464282870292663574e-01
2.554000000000000000e+03 3.973972320556640625e+01 -2.251387214660644531e+01 -2.130658924579620361e-01 4.395620346069335938e+00 1.254766345024108887e+00 1.019330173730850220e-01
2.555000000000000000e+03 2.478765869140625000e+01 -1.889881134033203125e+01 -3.382040560245513916e-01 3.623693704605102539e+00 9.856468439102172852e-01 2.886314094066619873e-01
2.556000000000000000e+03 2.177686119079589844e+01 -2.126381111145019531e+01 -1.037366911768913269e-01 2.525534868240356445e+00 7.265394330024719238e-01 4.426024854183197021e-01
2.557000000000000000e+03 6.325128555297851562e+01 1.860689926147460938e+01 8.142794370651245117e-01 3.954717636108398438e+00 1.430699110031127930e+00 -1.073216676712036133e+00
2.558000000000000000e+03 1.805860710144042969e+01 -1.603099250793457031e+01 4.777102172374725342e-01 1.194293737411499023e+00 5.016011595726013184e-01 5.846763849258422852e-01
2.559000000000000000e+03 7.563693523406982422e+00 1.723071098327636719e+01 -7.420327067375183105e-01 1.182030200958251953e+00 1.319992393255233765e-01 -2.455741614103317261e-01
2.560000000000000000e+03 5.839659881591796875e+01 2.006467819213867188e+01 8.659604787826538086e-01 4.234616279602050781e+00 1.530173063278198242e+00 1.071893215179443359e+00
2.561000000000000000e+03 1.488490772247314453e+01 -1.225520706176757812e+01 2.568956315517425537e-01 4.091258049011230469e-01 1.998064219951629639e-01 -5.011251568794250488e-02
2.562000000000000000e+03 1.357928657531738281e+01 -1.051270580291748047e+01 -2.464320510625839233e-03 2.712430059909820557e-01 8.063361048698425293e-02 -1.250713914632797241e-01
2.563000000000000000e+03 1.486490345001220703e+01 2.332811355590820312e+01 -2.860904633998870850e-01 3.966902494430541992e-01 3.317992761731147766e-02 8.265621028840541840e-03
2.564000000000000000e+03 5.762470245361328125e+00 1.452748584747314453e+01 -5.825648307800292969e-01 1.349979043006896973e+00 2.302242666482925415e-01 -6.806488633155822754e-01
2.565000000000000000e+03 1.066182136535644531e+01 1.925246620178222656e+01 -7.460864782333374023e-01 7.521420717239379883e-01 1.816686708480119705e-03 2.765284106135368347e-02
2.566000000000000000e+03 9.156022071838378906e+00 -9.633269309997558594e+00 -3.693532943725585938e-02 1.133520305156707764e-01 2.292500995099544525e-02 -1.926035732030868530e-01
2.567000000000000000e+03 7.965462207794189453e+00 -9.925251007080078125e+00 -2.428772114217281342e-02 4.275678470730781555e-02 5.540719721466302872e-03 -1.986443847417831421e-01
2.568000000000000000e+03 9.008271217346191406e+00 -8.547636985778808594e+00 -7.707255333662033081e-02 9.139981865882873535e-02 4.298179876059293747e-03 -1.890161782503128052e-01
2.569000000000000000e+03 9.153773307800292969e+00 -7.642288208007812500e+00 -9.620770066976547241e-02 9.849598258733749390e-02 6.864842143841087818e-04 -1.516877710819244385e-01
2.570000000000000000e+03 1.158359718322753906e+01 -1.030765628814697266e+01 -2.429080894216895103e-03 1.960495710372924805e-01 5.808614566922187805e-02 -1.944113224744796753e-01
2.571000000000000000e+03 7.583226680755615234e+00 -7.609799385070800781e+00 -7.268223166465759277e-02 3.820585086941719055e-02 -1.034291554242372513e-02 -1.723833829164505005e-01
2.572000000000000000e+03 1.498507785797119141e+01 -1.440175056457519531e+01 3.861382007598876953e-01 5.904644131660461426e-01 2.929807901382446289e-01 1.286299824714660645e-01
2.573000000000000000e+03 6.239685821533203125e+01 2.652874946594238281e+01 2.878338694572448730e-01 5.306476593017578125e+00 1.678293228149414062e+00 1.225038617849349976e-01
2.574000000000000000e+03 6.747310638427734375e+01 -2.360624694824218750e+01 7.148139476776123047e-01 4.655128955841064453e+00 1.610982894897460938e+00 -2.182298712432384491e-02
2.575000000000000000e+03 1.297214412689208984e+01 -2.630577659606933594e+01 3.908687084913253784e-02 9.029730558395385742e-01 2.826179862022399902e-01 1.926864236593246460e-01
2.576000000000000000e+03 1.303313636779785156e+01 -2.425545310974121094e+01 9.624705463647842407e-02 8.933177590370178223e-01 2.968694567680358887e-01 1.815472096204757690e-01
2.577000000000000000e+03 1.439023208618164062e+01 2.610807228088378906e+01 -4.832100495696067810e-02 6.504554152488708496e-01 1.806403249502182007e-01 3.456451743841171265e-02
2.578000000000000000e+03 1.488637924194335938e+01 2.476095199584960938e+01 -1.630024015903472900e-01 5.482981204986572266e-01 1.155887171626091003e-01 -2.333045005798339844e-02
2.579000000000000000e+03 2.210405540466308594e+01 1.815325355529785156e+01 -1.331851601600646973e+00 1.126786768436431885e-01 -3.657518625259399414e-01 -1.391751766204833984e+00
2.580000000000000000e+03 5.132367324829101562e+01 2.539283370971679688e+01 -3.090356290340423584e-01 5.215485095977783203e+00 1.471934914588928223e+00 2.092836499214172363e-01
2.581000000000000000e+03 4.670106506347656250e+01 2.535432052612304688e+01 -2.484372854232788086e-01 4.528145790100097656e+00 1.283912539482116699e+00 -1.845833063125610352e-01
2.582000000000000000e+03 1.147349071502685547e+01 -1.184068107604980469e+01 8.922701328992843628e-02 2.021384984254837036e-01 8.740965276956558228e-02 -1.765086799860000610e-01
2.583000000000000000e+03 1.131946468353271484e+01 2.867126846313476562e+01 5.932510644197463989e-02 8.440887331962585449e-01 2.710241377353668213e-01 1.796427965164184570e-01
2.584000000000000000e+03 6.172406768798828125e+01 -2.457407188415527344e+01 1.333587020635604858e-01 5.610810756683349609e+00 1.723250865936279297e+00 -6.113337278366088867e-01
2.585000000000000000e+03 9.503985404968261719e+00 1.977481460571289062e+01 -5.760993361473083496e-01 8.755497932434082031e-01 8.983513712882995605e-02 4.357041046023368835e-02
2.586000000000000000e+03 1.007401752471923828e+01 2.111104202270507812e+01 -4.644623100757598877e-01 8.075830936431884766e-01 1.029362305998802185e-01 1.205193847417831421e-01
2.587000000000000000e+03 6.673742294311523438e+00 2.363001060485839844e+01 -1.463819593191146851e-01 1.126269578933715820e+00 2.939662933349609375e-01 1.741438060998916626e-01
2.588000000000000000e+03 2.379791069030761719e+01 -2.285642242431640625e+01 -2.041611373424530029e-01 2.936237335205078125e+00 8.196228742599487305e-01 2.403012216091156006e-01
2.589000000000000000e+03 3.591409683227539062e+01 2.270647811889648438e+01 -2.780461311340332031e-01 2.452008962631225586e+00 6.521888375282287598e-01 -2.887829840183258057e-01
2.590000000000000000e+03 9.802823066711425781e+00 -1.913933563232421875e+01 1.716174483299255371e-01 2.986615300178527832e-01 1.410836875438690186e-01 2.043250203132629395e-02
2.591000000000000000e+03 1.193734645843505859e+01 -1.327045822143554688e+01 1.675899028778076172e-01 2.504291534423828125e-01 1.254057139158248901e-01 -1.394010931253433228e-01
2.592000000000000000e+03 1.235771560668945312e+01 -1.466244792938232422e+01 2.328281253576278687e-01 3.537589609622955322e-01 1.759761273860931396e-01 -7.282182574272155762e-02
2.593000000000000000e+03 1.332681274414062500e+01 -1.253372669219970703e+01 1.885661780834197998e-01 3.169038295745849609e-01 1.516409963369369507e-01 -1.253598779439926147e-01
2.594000000000000000e+03 4.257009124755859375e+01 2.356746101379394531e+01 -2.967501580715179443e-01 3.787359237670898438e+00 1.047182798385620117e+00 -6.967277079820632935e-02
2.595000000000000000e+03 1.097196578979492188e+01 -9.803153991699218750e+00 -4.329359531402587891e-02 2.073752731084823608e-01 4.922450333833694458e-02 -1.772890686988830566e-01
2.596000000000000000e+03 9.623954772949218750e+00 -1.198136901855468750e+01 6.216770783066749573e-02 1.432773470878601074e-01 6.163351610302925110e-02 -1.910962313413619995e-01
2.597000000000000000e+03 9.284210205078125000e+00 -1.081670856475830078e+01 5.531226284801959991e-03 1.079941540956497192e-01 3.405761346220970154e-02 -1.996196359395980835e-01
2.598000000000000000e+03 1.318949985504150391e+01 2.694205665588378906e+01 -4.189947620034217834e-03 6.979190111160278320e-01 2.081187218427658081e-01 9.182085096836090088e-02
2.599000000000000000e+03 1.545309543609619141e+01 2.896952438354492188e+01 6.446895003318786621e-02 8.065770864486694336e-01 2.613138258457183838e-01 -6.645029876381158829e-03
2.600000000000000000e+03 1.216676235198974609e+01 -1.641115760803222656e+01 2.645281553268432617e-01 4.532891511917114258e-01 2.153451889753341675e-01 1.823127642273902893e-02
2.601000000000000000e+03 6.267981719970703125e+01 -2.592866325378417969e+01 1.027252301573753357e-01 5.531483173370361328e+00 1.690262436866760254e+00 -4.504294693470001221e-01
2.602000000000000000e+03 6.632570648193359375e+01 -2.460762596130371094e+01 6.229052543640136719e-01 4.914004325866699219e+00 1.661072850227355957e+00 -2.637834846973419189e-01
2.603000000000000000e+03 1.328289604187011719e+01 -1.543173503875732422e+01 3.012183904647827148e-01 4.863662421703338623e-01 2.362753897905349731e-01 6.957770884037017822e-02
2.604000000000000000e+03 1.375838947296142578e+01 2.500156593322753906e+01 -1.289056688547134399e-01 5.581540465354919434e-01 1.287745237350463867e-01 8.705707639455795288e-02
2.605000000000000000e+03 6.070154953002929688e+01 -2.334501266479492188e+01 -1.433011740446090698e-01 6.210698127746582031e+00 1.820219159126281738e+00 -5.711134076118469238e-01
2.606000000000000000e+03 1.072652626037597656e+01 -1.123691272735595703e+01 3.920093923807144165e-02 1.914905309677124023e-01 6.920743733644485474e-02 -1.723276078701019287e-01
2.607000000000000000e+03 1.021491050720214844e+01 -9.518411636352539062e+00 -6.037472561001777649e-02 1.292015016078948975e-01 2.064803242683410645e-02 -1.947279721498489380e-01
2.608000000000000000e+03 7.727613449096679688e+00 1.884995460510253906e+01 -5.368376374244689941e-01 1.102039933204650879e+00 1.695607006549835205e-01 -6.873685866594314575e-02
2.609000000000000000e+03 6.239571094512939453e+00 1.905397987365722656e+01 -4.486339390277862549e-01 1.230268478393554688e+00 2.344903647899627686e-01 -9.228406101465225220e-02
2.610000000000000000e+03 1.645843887329101562e+01 -1.784779739379882812e+01 3.577221930027008057e-01 1.106004118919372559e+00 4.391178786754608154e-01 4.039802253246307373e-01
2.611000000000000000e+03 1.824970626831054688e+01 -1.782446479797363281e+01 3.321316838264465332e-01 1.513053417205810547e+00 5.535555481910705566e-01 5.681318044662475586e-01
2.612000000000000000e+03 6.406860351562500000e+01 -2.475075912475585938e+01 4.072549045085906982e-01 5.203353404998779297e+00 1.683182477951049805e+00 -5.836904048919677734e-01
2.613000000000000000e+03 1.172329998016357422e+01 -2.015271949768066406e+01 2.012890875339508057e-01 5.314830541610717773e-01 2.198316454887390137e-01 1.036097779870033264e-01
2.614000000000000000e+03 1.460277271270751953e+01 -1.768665122985839844e+01 3.283433616161346436e-01 8.220330476760864258e-01 3.451129198074340820e-01 2.378963679075241089e-01
2.615000000000000000e+03 6.669873809814453125e+01 -2.791380119323730469e+01 4.007442295551300049e-01 5.311867237091064453e+00 1.713783502578735352e+00 -9.876574575901031494e-02
2.616000000000000000e+03 6.656626892089843750e+01 -2.656839561462402344e+01 4.749102592468261719e-01 5.240412712097167969e+00 1.714596986770629883e+00 -1.269620507955551147e-01
2.617000000000000000e+03 1.266232872009277344e+01 -2.167755317687988281e+01 1.898586452007293701e-01 7.841916680335998535e-01 2.922151088714599609e-01 1.900852471590042114e-01
2.618000000000000000e+03 1.405523872375488281e+01 -2.280659294128417969e+01 1.137540414929389954e-01 9.893226623535156250e-01 3.309229910373687744e-01 2.328328043222427368e-01
2.619000000000000000e+03 1.505557346343994141e+01 -1.319313335418701172e+01 3.519185483455657959e-01 4.341787695884704590e-01 2.358291894197463989e-01 3.533082827925682068e-02
2.620000000000000000e+03 6.513190460205078125e+01 -2.900516891479492188e+01 2.335927337408065796e-01 5.411525249481201172e+00 1.693535327911376953e+00 -1.707096546888351440e-01
2.621000000000000000e+03 1.859434127807617188e+01 -1.990752410888671875e+01 1.709533929824829102e-01 1.693691492080688477e+00 5.593934655189514160e-01 5.004840493202209473e-01
2.622000000000000000e+03 6.819302368164062500e+01 -3.289306259155273438e+01 1.989082098007202148e-01 5.737399578094482422e+00 1.780892372131347656e+00 7.483970373868942261e-02
2.623000000000000000e+03 7.577053070068359375e+01 3.397239303588867188e+01 -3.704024478793144226e-03 6.591323375701904297e+00 1.976285815238952637e+00 3.470019996166229248e-02
2.624000000000000000e+03 4.140677642822265625e+01 -2.515029335021972656e+01 -2.809888720512390137e-01 4.301039218902587891e+00 1.206015110015869141e+00 -3.643514215946197510e-01
2.625000000000000000e+03 1.729115676879882812e+01 2.686943626403808594e+01 -4.439781233668327332e-02 7.504848241806030273e-01 2.118261158466339111e-01 -1.434210985898971558e-01
2.626000000000000000e+03 4.411819458007812500e+01 2.348477363586425781e+01 -1.949165761470794678e-01 4.075921058654785156e+00 1.164301276206970215e+00 -8.835050463676452637e-02
2.627000000000000000e+03 2.480616188049316406e+01 -2.077496147155761719e+01 -3.406889438629150391e-01 3.262816190719604492e+00 8.766381740570068359e-01 1.920033395290374756e-01
2.628000000000000000e+03 4.939068222045898438e+01 -2.564194107055664062e+01 5.077462196350097656e-01 3.502880811691284180e+00 1.203188061714172363e+00 -3.876940011978149414e-01
2.629000000000000000e+03 3.040494346618652344e+01 -1.930655860900878906e+01 -1.300768107175827026e-01 3.481920719146728516e+00 1.005553126335144043e+00 -8.565503954887390137e-01
2.630000000000000000e+03 2.988289451599121094e+01 -1.769338417053222656e+01 -2.781010866165161133e-01 4.096864700317382812e+00 1.145629167556762695e+00 -8.558850288391113281e-01
2.631000000000000000e+03 6.880278778076171875e+01 2.248241043090820312e+01 -3.781812498345971107e-03 6.298547744750976562e+00 1.888429760932922363e+00 -1.289236098527908325e-01
2.632000000000000000e+03 7.505437469482421875e+01 3.110550498962402344e+01 -1.033580116927623749e-02 6.562736511230468750e+00 1.965720176696777344e+00 3.948649019002914429e-02
2.633000000000000000e+03 2.635357666015625000e+01 -2.372119522094726562e+01 -3.052389025688171387e-01 3.134782552719116211e+00 8.488631248474121094e-01 -5.124961212277412415e-02
2.634000000000000000e+03 2.683163452148437500e+01 -2.139953422546386719e+01 -2.953144013881683350e-01 3.547540903091430664e+00 9.756679534912109375e-01 -6.479419022798538208e-02
2.635000000000000000e+03 6.557106018066406250e+01 2.552310562133789062e+01 1.525672823190689087e-01 5.728849887847900391e+00 1.764425158500671387e+00 -1.261404901742935181e-01
2.636000000000000000e+03 4.837315368652343750e+01 2.460737419128417969e+01 -2.297416329383850098e-01 4.864392757415771484e+00 1.390395402908325195e+00 -6.319855153560638428e-02
2.637000000000000000e+03 3.189833068847656250e+01 -2.548453712463378906e+01 -4.533555358648300171e-02 3.389925956726074219e+00 1.003377079963684082e+00 -2.067056149244308472e-01
2.638000000000000000e+03 5.975004959106445312e+01 2.178605270385742188e+01 7.251670360565185547e-01 4.541568279266357422e+00 1.580020666122436523e+00 5.620475411415100098e-01
2.639000000000000000e+03 6.005089950561523438e+01 2.366850471496582031e+01 5.467080473899841309e-01 4.794219970703125000e+00 1.602278470993041992e+00 4.418549239635467529e-01
2.640000000000000000e+03 4.354832839965820312e+01 2.511726188659667969e+01 -2.669179141521453857e-01 4.005025386810302734e+00 1.121432185173034668e+00 -1.673777848482131958e-01
2.641000000000000000e+03 1.292113685607910156e+01 3.183044624328613281e+01 1.445212960243225098e-01 9.137608408927917480e-01 3.174846470355987549e-01 1.066130250692367554e-01
2.642000000000000000e+03 1.569649791717529297e+01 3.165062332153320312e+01 1.220110282301902771e-01 9.495753049850463867e-01 3.214758932590484619e-01 -2.747287508100271225e-03
2.643000000000000000e+03 1.334430789947509766e+01 -2.875874328613281250e+01 -4.981510341167449951e-03 9.953485131263732910e-01 2.971100807189941406e-01 1.638634055852890015e-01
2.644000000000000000e+03 1.770798492431640625e+01 -2.550139999389648438e+01 -8.639443665742874146e-03 1.689953565597534180e+00 5.043942332267761230e-01 3.040171265602111816e-01
2.645000000000000000e+03 1.699312591552734375e+01 -2.323578453063964844e+01 7.009794563055038452e-02 1.480614304542541504e+00 4.652136564254760742e-01 3.103520572185516357e-01
2.646000000000000000e+03 5.802297210693359375e+01 2.347127342224121094e+01 3.487416803836822510e-01 5.052601814270019531e+00 1.620403051376342773e+00 7.015433907508850098e-01
2.647000000000000000e+03 7.064578247070312500e+01 -3.533329391479492188e+01 1.174509450793266296e-01 5.985487461090087891e+00 1.830881595611572266e+00 9.106302261352539062e-02
2.648000000000000000e+03 9.751726150512695312e+00 3.552211761474609375e+01 1.463880091905593872e-01 1.008185863494873047e+00 3.463721573352813721e-01 1.257019937038421631e-01
2.649000000000000000e+03 2.712024688720703125e+01 2.985156059265136719e+01 -2.461087107658386230e-01 2.042443990707397461e+00 5.389006137847900391e-01 -1.647081524133682251e-01
2.650000000000000000e+03 5.570370101928710938e+01 2.763929176330566406e+01 -4.765381664037704468e-02 5.199510097503662109e+00 1.545556902885437012e+00 3.419125080108642578e-01
2.651000000000000000e+03 2.313125991821289062e+01 -2.536448478698730469e+01 -2.142739742994308472e-01 2.616656064987182617e+00 7.207146286964416504e-01 1.976052969694137573e-01
2.652000000000000000e+03 4.381995010375976562e+01 -2.753573226928710938e+01 -5.480514839291572571e-02 4.039478302001953125e+00 1.195401906967163086e+00 -5.079251527786254883e-01
2.653000000000000000e+03 4.696085739135742188e+01 2.870181274414062500e+01 -2.726088762283325195e-01 4.534092426300048828e+00 1.278445005416870117e+00 -1.052668318152427673e-01
2.654000000000000000e+03 2.247169494628906250e+01 2.843372344970703125e+01 -1.813581436872482300e-01 1.367240548133850098e+00 3.557647168636322021e-01 -3.289048671722412109e-01
2.655000000000000000e+03 3.269692230224609375e+01 2.990140724182128906e+01 -1.265782266855239868e-01 2.385543823242187500e+00 6.776896715164184570e-01 -1.075109541416168213e-01
2.656000000000000000e+03 4.835616683959960938e+01 2.672341728210449219e+01 -2.574057281017303467e-01 4.716845512390136719e+00 1.337831854820251465e+00 -8.271151036024093628e-02
2.657000000000000000e+03 4.008748245239257812e+01 2.869053649902343750e+01 -2.017603814601898193e-01 3.401286602020263672e+00 9.598578810691833496e-01 -2.084397673606872559e-01
2.658000000000000000e+03 4.134037780761718750e+01 2.424126243591308594e+01 -3.977658450603485107e-01 3.735454320907592773e+00 1.001306533813476562e+00 -1.650795340538024902e-01
2.659000000000000000e+03 4.475173473358154297e+00 -3.794526290893554688e+01 8.559746667742729187e-03 -1.509354561567306519e-01 -4.271271452307701111e-02 -2.772701717913150787e-02
2.660000000000000000e+03 6.729551696777343750e+01 2.711806106567382812e+01 7.786158472299575806e-02 5.922120094299316406e+00 1.799994587898254395e+00 -6.029313057661056519e-02
2.661000000000000000e+03 2.911392974853515625e+01 -2.188059234619140625e+01 -2.426993697881698608e-01 3.408705949783325195e+00 9.498019218444824219e-01 -4.190773367881774902e-01
2.662000000000000000e+03 5.487696456909179688e+01 2.259451675415039062e+01 -8.498250693082809448e-02 5.665256023406982422e+00 1.674082159996032715e+00 8.291794657707214355e-01
2.663000000000000000e+03 7.613146972656250000e+01 3.262612915039062500e+01 -1.508693676441907883e-02 6.632019996643066406e+00 1.985080003738403320e+00 3.374985605478286743e-02
2.664000000000000000e+03 3.109797859191894531e+01 -2.130699920654296875e+01 -2.205634303390979767e-02 3.505423069000244141e+00 1.045009970664978027e+00 -4.895862042903900146e-01
2.665000000000000000e+03 3.061330223083496094e+01 2.761011123657226562e+01 -2.772337794303894043e-01 2.238389253616333008e+00 5.883466601371765137e-01 2.878338098526000977e-02
2.666000000000000000e+03 5.617266082763671875e+01 -2.725034523010253906e+01 4.447498917579650879e-02 4.940708160400390625e+00 1.495554924011230469e+00 3.489457070827484131e-01
2.667000000000000000e+03 6.862834167480468750e+01 2.913314437866210938e+01 2.430142136290669441e-03 6.105912685394287109e+00 1.832502841949462891e+00 -1.548631209880113602e-02
2.668000000000000000e+03 5.962723922729492188e+01 2.911334800720214844e+01 8.329726755619049072e-02 5.309977531433105469e+00 1.617982387542724609e+00 2.425130605697631836e-01
2.669000000000000000e+03 2.849720001220703125e+01 -2.681309318542480469e+01 -1.988154351711273193e-01 3.149557352066040039e+00 8.852226138114929199e-01 -6.654164195060729980e-02
2.670000000000000000e+03 1.801654624938964844e+01 -2.777779960632324219e+01 -7.191730290651321411e-02 1.777702331542968750e+00 5.117354989051818848e-01 2.173983454704284668e-01
2.671000000000000000e+03 1.759183883666992188e+01 2.868947601318359375e+01 1.508904155343770981e-02 8.868701457977294922e-01 2.705877423286437988e-01 -1.227763146162033081e-01
2.672000000000000000e+03 6.043869400024414062e+01 -2.542872238159179688e+01 -1.768651157617568970e-01 5.884986877441406250e+00 1.712436556816101074e+00 -2.956863343715667725e-01
2.673000000000000000e+03 6.961544799804687500e+01 2.117567634582519531e+01 1.574700884521007538e-02 6.499032020568847656e+00 1.954433798789978027e+00 -6.053398549556732178e-02
2.674000000000000000e+03 5.709890747070312500e+01 -2.607991409301757812e+01 -1.806081645190715790e-02 5.487170219421386719e+00 1.640732765197753906e+00 4.194237291812896729e-01
2.675000000000000000e+03 6.845010375976562500e+01 2.405336761474609375e+01 9.312555193901062012e-03 6.195512771606445312e+00 1.861447691917419434e+00 -1.208328083157539368e-01
2.676000000000000000e+03 6.912121582031250000e+01 2.590924453735351562e+01 6.375701632350683212e-04 6.185218811035156250e+00 1.855756878852844238e+00 -8.673045039176940918e-02
2.677000000000000000e+03 7.387035369873046875e+01 3.130881690979003906e+01 -1.587019674479961395e-02 6.494298934936523438e+00 1.943528652191162109e+00 2.590582706034183502e-02
2.678000000000000000e+03 7.346511077880859375e+01 3.004265022277832031e+01 -1.254025939851999283e-02 6.467370986938476562e+00 1.936449289321899414e+00 3.933914750814437866e-02
2.679000000000000000e+03 7.345487976074218750e+01 2.725651550292968750e+01 -2.625172398984432220e-02 6.494151115417480469e+00 1.940369844436645508e+00 4.858424514532089233e-02
2.680000000000000000e+03 6.982549285888671875e+01 3.135346221923828125e+01 -3.914389759302139282e-03 6.178822994232177734e+00 1.852472662925720215e+00 3.719239309430122375e-02
2.681000000000000000e+03 7.649969482421875000e+01 2.878927803039550781e+01 -1.704871770925819874e-03 6.651794910430908203e+00 1.995026946067810059e+00 3.746919333934783936e-02
2.682000000000000000e+03 3.669931793212890625e+01 9.816311836242675781e+00 2.031191825866699219e+00 3.367743492126464844e+00 1.619680523872375488e+00 3.528808832168579102e+00
2.683000000000000000e+03 3.738145828247070312e+01 9.248118400573730469e+00 8.193598389625549316e-01 8.266516685485839844e+00 2.725763082504272461e+00 5.905123710632324219e+00
2.684000000000000000e+03 3.816331481933593750e+01 9.512727737426757812e+00 -4.837906956672668457e-01 1.356862449645996094e+01 3.925450086593627930e+00 6.577225685119628906e+00
2.685000000000000000e+03 1.511840724945068359e+01 2.195906639099121094e+00 1.775009989738464355e+00 -1.787114620208740234e+00 -3.631389699876308441e-03 6.464643776416778564e-02
2.686000000000000000e+03 3.835851287841796875e+01 1.287666988372802734e+01 -1.232845783233642578e+00 1.117905807495117188e+01 2.983863592147827148e+00 -1.700824022293090820e+00
2.687000000000000000e+03 3.890538787841796875e+01 1.335672664642333984e+01 -1.664692759513854980e+00 1.124151611328125000e+01 2.873046875000000000e+00 1.028073787689208984e+00
2.688000000000000000e+03 1.481398010253906250e+01 -2.980842828750610352e+00 -2.248421013355255127e-01 -3.794413059949874878e-02 -7.883586734533309937e-02 1.114095672965049744e-01
2.689000000000000000e+03 7.299742126464843750e+01 -1.453793716430664062e+01 1.934805035591125488e+00 1.107770538330078125e+01 3.903753042221069336e+00 1.128506422042846680e+00
2.690000000000000000e+03 7.693978881835937500e+01 8.584630012512207031e+00 6.811293959617614746e-01 1.018749523162841797e+01 3.260587215423583984e+00 4.138516485691070557e-01
2.691000000000000000e+03 3.657765960693359375e+01 9.207277297973632812e+00 7.879791259765625000e-01 5.090552806854248047e+00 1.763559460639953613e+00 3.581660747528076172e+00
2.692000000000000000e+03 3.708812713623046875e+01 8.963402748107910156e+00 5.555766820907592773e-01 7.572609424591064453e+00 2.438455820083618164e+00 4.385625839233398438e+00
2.693000000000000000e+03 5.282519912719726562e+01 -2.109627342224121094e+01 8.795309662818908691e-01 1.782024621963500977e+00 7.984666824340820312e-01 6.980658173561096191e-01
2.694000000000000000e+03 1.319648075103759766e+01 -2.785020351409912109e+00 -2.208592593669891357e-01 2.847378700971603394e-02 -5.771563947200775146e-02 5.902292206883430481e-02
2.695000000000000000e+03 1.456913590431213379e+00 -3.226585865020751953e+00 -7.785925641655921936e-03 -3.009960800409317017e-02 -1.136566046625375748e-02 -2.561985328793525696e-02
2.696000000000000000e+03 4.191154098510742188e+01 1.126330947875976562e+01 3.220861434936523438e+00 8.648932576179504395e-01 1.225726366043090820e+00 2.295009851455688477e+00
2.697000000000000000e+03 2.937593460083007812e+01 1.299488782882690430e+00 1.970935583114624023e+00 5.396687030792236328e+00 2.210286855697631836e+00 1.560640692710876465e+00
2.698000000000000000e+03 6.005790328979492188e+01 -1.836112594604492188e+01 7.553284764289855957e-01 7.094998359680175781e+00 2.355098009109497070e+00 -9.083304405212402344e-01
2.699000000000000000e+03 3.765865564346313477e+00 -3.168050575256347656e+01 2.771914470940828323e-03 -2.392092943191528320e-01 -7.093121111392974854e-02 4.397548735141754150e-02
2.700000000000000000e+03 2.605952024459838867e+00 -3.286606550216674805e+00 -2.180138789117336273e-02 -2.691131085157394409e-02 -1.461380906403064728e-02 -4.868919029831886292e-02
2.701000000000000000e+03 7.640367126464843750e+01 -1.376469284296035767e-01 -1.874496340751647949e+00 8.391239166259765625e+00 1.955023050308227539e+00 9.027131199836730957e-01
2.702000000000000000e+03 2.838880348205566406e+01 -2.073237150907516479e-01 4.660844326019287109e+00 4.488255023956298828e+00 2.744729757308959961e+00 1.593521833419799805e+00
2.703000000000000000e+03 4.104287719726562500e+01 9.945709228515625000e+00 1.501929998397827148e+00 3.845697164535522461e+00 1.604288101196289062e+00 4.237174093723297119e-01
2.704000000000000000e+03 3.921051788330078125e+01 8.792622566223144531e+00 -1.894990801811218262e+00 1.328398799896240234e+01 3.416699409484863281e+00 2.332577943801879883e+00
2.705000000000000000e+03 4.279479980468750000e+01 -1.646469473838806152e+00 -1.679968357086181641e+00 4.219384670257568359e+00 7.618249058723449707e-01 -4.622545838356018066e-01
2.706000000000000000e+03 9.714458465576171875e+00 2.534822463989257812e+00 8.748965263366699219e-01 1.990650296211242676e+00 8.596640229225158691e-01 7.236613035202026367e-01
2.707000000000000000e+03 5.224539566040039062e+01 8.017817497253417969e+00 -1.165468692779541016e+00 1.276301383972167969e+01 3.479263544082641602e+00 -4.097980558872222900e-01
2.708000000000000000e+03 5.292019653320312500e+01 1.141897106170654297e+01 1.560358166694641113e+00 1.163873863220214844e+01 3.959729194641113281e+00 3.964945673942565918e-02
2.709000000000000000e+03 3.960681152343750000e+01 1.446865081787109375e+01 -1.837020039558410645e+00 8.529922485351562500e+00 2.007870674133300781e+00 1.581575512886047363e+00
2.710000000000000000e+03 3.777542114257812500e+01 1.333783340454101562e+01 -8.455986976623535156e-01 7.078209400177001953e+00 1.869783282279968262e+00 -2.279541254043579102e+00
2.711000000000000000e+03 3.774290847778320312e+01 1.365544509887695312e+01 -1.686988711357116699e+00 6.914810180664062500e+00 1.568346500396728516e+00 -1.744450211524963379e+00
2.712000000000000000e+03 3.765544509887695312e+01 1.399021911621093750e+01 -2.034482002258300781e+00 6.699409008026123047e+00 1.399478077888488770e+00 -1.968360662460327148e+00
2.713000000000000000e+03 2.744016075134277344e+01 1.907624006271362305e+00 -3.575947046279907227e+00 -1.741715312004089355e+00 -1.595298647880554199e+00 -1.432829856872558594e+00
2.714000000000000000e+03 4.124522399902343750e+01 -1.035233306884765625e+01 -4.302845001220703125e-01 9.378730773925781250e+00 2.684534072875976562e+00 1.351109594106674194e-01
2.715000000000000000e+03 3.816669082641601562e+01 1.333587646484375000e+01 -1.487569332122802734e+00 9.446771621704101562e+00 2.387760639190673828e+00 -1.386707305908203125e+00
2.716000000000000000e+03 1.273823070526123047e+01 -4.444918155670166016e+00 -2.840125560760498047e-01 9.777238219976425171e-02 -5.587204918265342712e-02 1.381810382008552551e-02
2.717000000000000000e+03 5.276140213012695312e+01 -2.339731025695800781e+01 8.230167031288146973e-01 3.115605592727661133e+00 1.181586623191833496e+00 5.804667472839355469e-01
2.718000000000000000e+03 3.716054916381835938e+01 8.275948524475097656e+00 -4.100727438926696777e-01 8.608208656311035156e+00 2.459440708160400391e+00 3.648140907287597656e+00
2.719000000000000000e+03 1.169610881805419922e+01 2.268240690231323242e+00 1.060469150543212891e+00 9.289360642433166504e-01 5.968215465545654297e-01 -2.779617071151733398e+00
2.720000000000000000e+03 1.337614774703979492e+00 3.312938690185546875e+00 3.270063921809196472e-02 -5.929019451141357422e-01 -1.680603921413421631e-01 3.879254460334777832e-01
2.721000000000000000e+03 4.278060913085937500e+00 3.678647994995117188e+01 4.405776411294937134e-02 1.118639588356018066e+00 3.488091826438903809e-01 9.408894181251525879e-02
2.722000000000000000e+03 7.395233917236328125e+01 -3.747461438179016113e-01 -1.448102474212646484e+00 1.949293613433837891e+00 1.503573507070541382e-01 -7.826247811317443848e-02
2.723000000000000000e+03 2.876452255249023438e+01 -9.349059104919433594e+00 2.166781902313232422e+00 6.393117904663085938e+00 2.567970037460327148e+00 -2.185803890228271484e+00
2.724000000000000000e+03 4.061128997802734375e+01 -9.251385688781738281e+00 -4.115774855017662048e-02 7.001678466796875000e+00 2.088156223297119141e+00 -3.608955144882202148e-01
2.725000000000000000e+03 7.676864624023437500e+01 1.961949729919433594e+01 1.143652796745300293e-01 6.619896888732910156e+00 2.020278692245483398e+00 -7.360941916704177856e-02
2.726000000000000000e+03 3.861874103546142578e+00 -3.392696762084960938e+01 7.804817520081996918e-03 -1.788888722658157349e-01 -5.132521688938140869e-02 3.781675919890403748e-02
2.727000000000000000e+03 3.833670139312744141e+00 -2.630793952941894531e+01 -1.012499677017331123e-03 -2.610560953617095947e-01 -7.862058281898498535e-02 3.472781181335449219e-02
2.728000000000000000e+03 5.894470214843750000e+00 -2.299364089965820312e+01 5.659417808055877686e-02 -5.440276861190795898e-02 6.574228755198419094e-04 1.744376122951507568e-02
2.729000000000000000e+03 6.191035842895507812e+01 1.333444833755493164e+00 -3.505726099014282227e+00 3.866438627243041992e+00 1.082137972116470337e-01 2.026374578475952148e+00
2.730000000000000000e+03 7.414852905273437500e+01 1.264966201782226562e+01 1.216468214988708496e+00 4.823348522186279297e+00 1.811945080757141113e+00 -1.506797075271606445e+00
2.731000000000000000e+03 7.725926208496093750e+01 -1.106190776824951172e+01 4.885129332542419434e-01 8.143058776855468750e+00 2.589471578598022461e+00 9.923221468925476074e-01
2.732000000000000000e+03 5.139596557617187500e+01 -1.304332166910171509e-01 -9.190984964370727539e-01 5.903359889984130859e+00 1.495278358459472656e+00 1.014271855354309082e+00
2.733000000000000000e+03 4.684436035156250000e+01 3.236164474487304688e+01 -2.515195906162261963e-01 4.386162281036376953e+00 1.240392684936523438e+00 -7.196416705846786499e-02
2.734000000000000000e+03 5.272584533691406250e+01 -1.694810986518859863e+00 -3.647290229797363281e+00 6.606929779052734375e+00 8.878919482231140137e-01 -1.363172650337219238e+00
2.735000000000000000e+03 3.530834960937500000e+01 9.251368641853332520e-01 4.139382362365722656e+00 3.380149602890014648e+00 2.255859613418579102e+00 2.636130332946777344e+00
2.736000000000000000e+03 7.714902496337890625e+01 -9.939434051513671875e+00 4.662765264511108398e-01 8.387622833251953125e+00 2.656169891357421875e+00 1.315086126327514648e+00
2.737000000000000000e+03 4.474611282348632812e+01 -1.566827011108398438e+01 8.131952285766601562e-01 5.358021736145019531e+00 1.851365089416503906e+00 -1.148637413978576660e+00
2.738000000000000000e+03 7.272844696044921875e+01 -3.476082611083984375e+01 1.127172186970710754e-01 6.115260601043701172e+00 1.868393301963806152e+00 8.384024351835250854e-02
2.739000000000000000e+03 4.516703033447265625e+01 -1.384354782104492188e+01 5.260470509529113770e-01 5.017793178558349609e+00 1.663152098655700684e+00 -3.942241966724395752e-01
2.740000000000000000e+03 3.768553161621093750e+01 7.755920886993408203e+00 -1.195726990699768066e+00 1.097853755950927734e+01 2.934843063354492188e+00 3.654324054718017578e+00
2.741000000000000000e+03 3.360993957519531250e+01 2.479925632476806641e+00 4.819402217864990234e+00 1.379588246345520020e+00 1.859697103500366211e+00 4.181642055511474609e+00
2.742000000000000000e+03 3.464119338989257812e+01 2.922643280029296875e+01 -1.525459885597229004e-01 2.642780542373657227e+00 7.470703721046447754e-01 -1.232502311468124390e-01
2.743000000000000000e+03 2.557529258728027344e+01 2.850412559509277344e+01 -3.089163899421691895e-01 1.840226292610168457e+00 4.593929946422576904e-01 -2.517971396446228027e-01
2.744000000000000000e+03 3.003566169738769531e+01 -3.001888656616210938e+01 -1.535636782646179199e-01 3.216363906860351562e+00 9.188401103019714355e-01 -7.928157597780227661e-02
2.745000000000000000e+03 3.654766082763671875e+00 4.455859184265136719e+00 6.518250107765197754e-01 -4.795562922954559326e-01 5.168062075972557068e-02 3.408548533916473389e-01
2.746000000000000000e+03 2.960185050964355469e+00 3.572557210922241211e+00 2.749432027339935303e-01 -4.556192159652709961e-01 -5.420280620455741882e-02 5.860572457313537598e-01
2.747000000000000000e+03 6.580877685546875000e+01 -1.627606391906738281e+01 -8.164215683937072754e-01 2.749286174774169922e+00 5.798593759536743164e-01 -9.350979924201965332e-01
2.748000000000000000e+03 4.471929550170898438e+01 -1.930257797241210938e+01 4.777046293020248413e-02 5.148633480072021484e+00 1.558921217918395996e+00 -1.345266819000244141e+00
2.749000000000000000e+03 3.843569183349609375e+01 1.483579921722412109e+01 -2.454775333404541016e+00 7.290266036987304688e+00 1.450647234916687012e+00 -5.828861594200134277e-01
2.750000000000000000e+03 7.384886169433593750e+01 -3.234457397460937500e+01 9.583610296249389648e-02 6.234539508819580078e+00 1.899112701416015625e+00 1.192727461457252502e-01
2.751000000000000000e+03 7.221290588378906250e+01 -3.278795242309570312e+01 1.242587938904762268e-01 6.103462219238281250e+00 1.868316292762756348e+00 1.584665924310684204e-01
2.752000000000000000e+03 2.193804550170898438e+01 -1.430767059326171875e+01 5.525650382041931152e-01 2.660872936248779297e+00 9.640313982963562012e-01 1.375942826271057129e+00
2.753000000000000000e+03 2.087633705139160156e+01 -1.530453586578369141e+01 4.002558588981628418e-01 2.014696359634399414e+00 7.244856953620910645e-01 1.054070591926574707e+00
2.754000000000000000e+03 4.363863372802734375e+01 -2.524739456176757812e+01 -2.051811106503009796e-02 4.389227867126464844e+00 1.310612916946411133e+00 -6.113497614860534668e-01
2.755000000000000000e+03 1.748223876953125000e+01 -3.170506858825683594e+01 -1.152607277035713196e-01 1.653081893920898438e+00 4.613463580608367920e-01 1.256300508975982666e-01
2.756000000000000000e+03 4.172768402099609375e+01 2.734092521667480469e+01 -2.065293043851852417e-01 3.643660783767700195e+00 1.031139492988586426e+00 -2.420964837074279785e-01
2.757000000000000000e+03 3.772248077392578125e+01 1.852313041687011719e+01 -1.468614578247070312e+00 3.634706497192382812e+00 6.498275995254516602e-01 -1.040947556495666504e+00
2.758000000000000000e+03 7.735427856445312500e+01 -1.552887916564941406e+01 2.524320781230926514e-01 7.567909240722656250e+00 2.346102476119995117e+00 -2.893224954605102539e-01
2.759000000000000000e+03 4.238637924194335938e+01 -8.103462219238281250e+00 1.675290018320083618e-01 8.331134796142578125e+00 2.549599170684814453e+00 1.155807852745056152e+00
2.760000000000000000e+03 4.170215225219726562e+01 1.600349044799804688e+01 -6.821800470352172852e-01 4.990930080413818359e+00 1.292624950408935547e+00 2.226686716079711914e+00
2.761000000000000000e+03 6.279237747192382812e+01 1.526754617691040039e+00 -3.538696765899658203e+00 4.768903255462646484e+00 3.690619468688964844e-01 2.266493320465087891e+00
2.762000000000000000e+03 5.946031188964843750e+01 -2.425000953674316406e+01 -8.796285092830657959e-02 6.005362033843994141e+00 1.775219798088073730e+00 -2.605482041835784912e-01
2.763000000000000000e+03 6.446391296386718750e+01 -1.467925453186035156e+01 -6.960750818252563477e-01 3.848912477493286133e+00 9.458512067794799805e-01 -6.622481346130371094e-01
2.764000000000000000e+03 6.475397491455078125e+01 -1.722616577148437500e+01 1.979931443929672241e-01 3.847295999526977539e+00 1.213586688041687012e+00 -1.203141093254089355e+00
2.765000000000000000e+03 3.753863334655761719e+00 3.591302871704101562e+01 3.639851510524749756e-02 1.138615131378173828e+00 3.525040745735168457e-01 9.906855970621109009e-02
2.766000000000000000e+03 4.841808319091796875e+00 3.312605667114257812e+01 4.176134988665580750e-02 1.145801663398742676e+00 3.562688827514648438e-01 1.655733436346054077e-01
2.767000000000000000e+03 5.848515319824218750e+01 1.419380283355712891e+01 1.254909783601760864e-01 1.703012943267822266e+00 5.485512018203735352e-01 1.278960466384887695e+00
2.768000000000000000e+03 7.530310821533203125e+01 1.578454017639160156e+01 5.818357467651367188e-01 6.307608604431152344e+00 2.066833257675170898e+00 -4.199537932872772217e-01
2.769000000000000000e+03 1.813859558105468750e+01 1.793431854248046875e+01 -1.568380713462829590e+00 -1.816057711839675903e-01 -5.249959230422973633e-01 -4.544097185134887695e-01
2.770000000000000000e+03 7.708026885986328125e+01 -1.924489974975585938e+01 -3.321420848369598389e-01 7.621263027191162109e+00 2.186736345291137695e+00 -1.884637475013732910e-01
2.771000000000000000e+03 7.164975738525390625e+01 2.866483116149902344e+01 -2.239831909537315369e-02 6.344832420349121094e+00 1.896730184555053711e+00 3.270163759589195251e-02
2.772000000000000000e+03 5.636977767944335938e+01 2.286052703857421875e+01 2.198290377855300903e-01 5.225806713104248047e+00 1.633690714836120605e+00 9.451111555099487305e-01
2.773000000000000000e+03 5.821171951293945312e+01 2.162755775451660156e+01 6.600830554962158203e-01 4.634613513946533203e+00 1.588408946990966797e+00 9.250049591064453125e-01
2.774000000000000000e+03 3.804419326782226562e+01 1.730929946899414062e+01 -1.969002127647399902e+00 4.440290451049804688e+00 7.413864731788635254e-01 -1.021147608757019043e+00
2.775000000000000000e+03 4.206725692749023438e+01 2.580065345764160156e+01 -2.195786833763122559e-01 3.714415311813354492e+00 1.048451066017150879e+00 -1.650183796882629395e-01
2.776000000000000000e+03 2.719484901428222656e+01 2.696234512329101562e+01 -5.260684490203857422e-01 2.207224369049072266e+00 5.043467879295349121e-01 -1.886224001646041870e-01
2.777000000000000000e+03 1.428166961669921875e+01 -8.306621551513671875e+00 -2.014735788106918335e-01 2.287400960922241211e-01 8.179954253137111664e-03 -1.193045303225517273e-01
2.778000000000000000e+03 1.365226173400878906e+01 -9.025800704956054688e+00 -1.387001723051071167e-01 3.204274177551269531e-01 5.451817438006401062e-02 -1.326347738504409790e-01
2.779000000000000000e+03 5.944028091430664062e+01 -2.645873260498046875e+01 -1.434308383613824844e-02 5.663482666015625000e+00 1.694741845130920410e+00 6.929954513907432556e-03
2.780000000000000000e+03 5.807604217529296875e+01 -2.739952087402343750e+01 -2.018747925758361816e-01 5.526200294494628906e+00 1.597297668457031250e+00 5.760387331247329712e-02
2.781000000000000000e+03 4.200347423553466797e+00 7.519908905029296875e+00 7.582705616950988770e-01 1.305277049541473389e-01 2.666394710540771484e-01 -9.319925904273986816e-01
2.782000000000000000e+03 6.416485595703125000e+01 2.900214195251464844e+01 1.486850529909133911e-01 5.567591667175292969e+00 1.714882969856262207e+00 6.028106063604354858e-02
2.783000000000000000e+03 6.443232727050781250e+01 2.721776962280273438e+01 1.926492005586624146e-01 5.542058944702148438e+00 1.720412373542785645e+00 -4.236980155110359192e-02
2.784000000000000000e+03 6.624359130859375000e+00 -2.745212936401367188e+01 1.092145591974258423e-02 7.129883766174316406e-02 2.466608770191669464e-02 6.418088823556900024e-02
2.785000000000000000e+03 7.338385772705078125e+01 2.864335823059082031e+01 -2.143929153680801392e-02 6.475419044494628906e+00 1.936193943023681641e+00 2.455429919064044952e-02
2.786000000000000000e+03 4.064905548095703125e+01 2.620872688293457031e+01 -3.030578196048736572e-01 3.515984058380126953e+00 9.638778567314147949e-01 -2.163249105215072632e-01
2.787000000000000000e+03 7.357199859619140625e+01 2.589896774291992188e+01 -1.040803734213113785e-02 6.505718231201171875e+00 1.948593139648437500e+00 3.420021384954452515e-02
2.788000000000000000e+03 7.231457519531250000e+01 2.295954322814941406e+01 2.730357833206653595e-02 6.518245220184326172e+00 1.963664650917053223e+00 2.968495711684226990e-02
2.789000000000000000e+03 2.744262123107910156e+01 -1.948453903198242188e+01 -4.334893226623535156e-01 3.799392938613891602e+00 1.009771108627319336e+00 -2.665907442569732666e-01
2.790000000000000000e+03 6.238156318664550781e+00 -1.715882873535156250e+01 7.794918864965438843e-02 -6.204590201377868652e-02 4.770986735820770264e-03 -9.043851494789123535e-02
2.791000000000000000e+03 7.302766418457031250e+01 1.963667869567871094e+01 2.165784686803817749e-01 6.483657836914062500e+00 2.010070800781250000e+00 9.016617387533187866e-02
2.792000000000000000e+03 1.381427764892578125e+01 -1.412765502929687500e+01 3.154821097850799561e-01 4.228951036930084229e-01 2.215131521224975586e-01 -1.208755467087030411e-02
2.793000000000000000e+03 5.984681606292724609e+00 2.552523803710937500e+01 -3.578244149684906006e-02 1.174533486366271973e+00 3.416253328323364258e-01 2.120882868766784668e-01
2.794000000000000000e+03 5.774523735046386719e+00 2.431670951843261719e+01 -1.089694723486900330e-01 1.208799839019775391e+00 3.299490809440612793e-01 1.960305869579315186e-01
2.795000000000000000e+03 1.494767951965332031e+01 -2.412343215942382812e+01 7.495530694723129272e-02 1.176954746246337891e+00 3.755730092525482178e-01 2.461558580398559570e-01
2.796000000000000000e+03 7.072817993164062500e+01 -2.663077545166015625e+01 3.079990446567535400e-01 5.737627029418945312e+00 1.813687801361083984e+00 3.636246621608734131e-01
2.797000000000000000e+03 1.758735084533691406e+01 2.540648841857910156e+01 -1.533034592866897583e-01 6.562470197677612305e-01 1.508830785751342773e-01 -2.026843279600143433e-01
2.798000000000000000e+03 7.217035675048828125e+01 2.436295509338378906e+01 -2.429253363516181707e-04 6.466586589813232422e+00 1.939903020858764648e+00 1.140395831316709518e-02
2.799000000000000000e+03 3.856637954711914062e+01 2.155421257019042969e+01 -7.360607981681823730e-01 3.347225427627563477e+00 7.833494544029235840e-01 -4.258048534393310547e-01
2.800000000000000000e+03 1.223298645019531250e+01 -1.079119682312011719e+01 1.884264685213565826e-02 2.763168513774871826e-01 8.854785561561584473e-02 -1.622903198003768921e-01
2.801000000000000000e+03 4.015945434570312500e+01 2.480004882812500000e+01 -2.896910607814788818e-01 3.390379905700683594e+00 9.302066564559936523e-01 -2.076545953750610352e-01
2.802000000000000000e+03 7.156405639648437500e+01 2.104697418212890625e+01 9.706481546163558960e-02 6.520361900329589844e+00 1.985227942466735840e+00 5.039459466934204102e-02
2.803000000000000000e+03 7.149424743652343750e+01 1.918564033508300781e+01 2.018979638814926147e-01 6.548681259155273438e+00 2.025173664093017578e+00 1.658255904912948608e-01
2.804000000000000000e+03 6.809799957275390625e+01 -2.758332443237304688e+01 4.331325888633728027e-01 5.406785964965820312e+00 1.751975536346435547e+00 7.223210483789443970e-02
2.805000000000000000e+03 6.783834075927734375e+01 -2.641271400451660156e+01 5.005321502685546875e-01 5.212130546569824219e+00 1.713798880577087402e+00 6.623621284961700439e-02
2.806000000000000000e+03 7.541230773925781250e+01 -2.463267898559570312e+01 6.001361086964607239e-02 6.691957950592041016e+00 2.025591373443603516e+00 4.116598069667816162e-01
2.807000000000000000e+03 4.212411499023437500e+01 2.185874557495117188e+01 -4.527367353439331055e-01 3.941965103149414062e+00 1.046768546104431152e+00 7.172427326440811157e-02
2.808000000000000000e+03 7.307808685302734375e+01 -2.589953804016113281e+01 2.007378786802291870e-01 6.170269489288330078e+00 1.911302208900451660e+00 5.015349984169006348e-01
2.809000000000000000e+03 9.091806411743164062e+00 -1.696562767028808594e+01 1.569957286119461060e-01 2.076102346181869507e-01 1.093817874789237976e-01 -5.562578886747360229e-02
2.810000000000000000e+03 1.402665328979492188e+01 -2.055310630798339844e+01 2.202132046222686768e-01 8.598107695579528809e-01 3.240072131156921387e-01 2.425632774829864502e-01
2.811000000000000000e+03 7.001618194580078125e+01 -2.847108078002929688e+01 2.929586470127105713e-01 5.703719615936279297e+00 1.799003481864929199e+00 2.051971107721328735e-01
2.812000000000000000e+03 1.172344970703125000e+01 2.332376670837402344e+01 -2.874356508255004883e-01 6.677023172378540039e-01 1.140799969434738159e-01 1.649705171585083008e-01
2.813000000000000000e+03 7.682109832763671875e+00 -4.651375293731689453e+00 -1.032151132822036743e-01 1.576799526810646057e-02 -2.623413689434528351e-02 -1.052916646003723145e-01
2.814000000000000000e+03 8.230624198913574219e+00 -6.413203239440917969e+00 -1.018515378236770630e-01 4.138105735182762146e-02 -1.814114302396774292e-02 -1.457626968622207642e-01
2.815000000000000000e+03 8.710033416748046875e+00 2.148037528991699219e+01 -3.577181398868560791e-01 9.269762635231018066e-01 1.707774400711059570e-01 1.266726404428482056e-01
2.816000000000000000e+03 7.459458351135253906e+00 2.109111404418945312e+01 -3.461162745952606201e-01 1.086406588554382324e+00 2.220870852470397949e-01 7.238990813493728638e-02
2.817000000000000000e+03 7.121811389923095703e+00 2.240304374694824219e+01 -2.213586270809173584e-01 1.098967552185058594e+00 2.632826864719390869e-01 1.412888765335083008e-01
2.818000000000000000e+03 1.463183116912841797e+01 -1.929706954956054688e+01 2.706641256809234619e-01 8.730839490890502930e-01 3.431244194507598877e-01 2.416986972093582153e-01
2.819000000000000000e+03 1.156145381927490234e+01 -1.524047660827636719e+01 2.238380759954452515e-01 2.926194071769714355e-01 1.549372524023056030e-01 -5.068390443921089172e-02
2.820000000000000000e+03 1.463219356536865234e+01 1.208772420883178711e+00 -3.319680929183959961e+00 -2.439085960388183594e+00 -1.727630138397216797e+00 -2.393345832824707031e+00
2.821000000000000000e+03 1.413865852355957031e+01 3.089686632156372070e-01 -1.230703830718994141e+00 6.932209134101867676e-01 -1.612448841333389282e-01 -7.690958380699157715e-01
2.822000000000000000e+03 1.413591098785400391e+01 8.441513180732727051e-01 -4.996739029884338379e-01 -3.980138599872589111e-01 -2.693063318729400635e-01 -2.123498201370239258e+00
2.823000000000000000e+03 1.324289608001708984e+01 1.113969683647155762e+00 -1.522090673446655273e+00 -4.618839025497436523e-01 -5.951923727989196777e-01 -2.187492370605468750e+00
2.824000000000000000e+03 1.484628582000732422e+01 5.796153545379638672e-01 -1.762007921934127808e-01 -1.043347001075744629e+00 -3.658643364906311035e-01 -4.256981909275054932e-01
2.825000000000000000e+03 1.338759136199951172e+01 2.497024983167648315e-01 -2.752253770828247070e+00 -5.876566171646118164e-01 -1.001973032951354980e+00 -6.722385287284851074e-01
2.826000000000000000e+03 1.422421169281005859e+01 1.250681281089782715e+00 -3.024028778076171875e+00 3.504232466220855713e-01 -8.020816445350646973e-01 -9.410045742988586426e-01
2.827000000000000000e+03 1.355335903167724609e+01 8.086416125297546387e-01 -1.504564404487609863e+00 5.003251433372497559e-01 -3.012717664241790771e-01 -1.342238903045654297e+00
2.828000000000000000e+03 1.374464988708496094e+01 1.230049014091491699e+00 -4.500821530818939209e-01 1.372854858636856079e-01 -9.383900463581085205e-02 -1.322136998176574707e+00
2.829000000000000000e+03 1.038163661956787109e+01 3.719484806060791016e-01 -7.440806865692138672e+00 4.341492801904678345e-02 -2.219217538833618164e+00 2.420678436756134033e-01
2.830000000000000000e+03 1.112833786010742188e+01 3.352923989295959473e-01 -6.821764945983886719e+00 3.307323455810546875e-01 -1.947309851646423340e+00 -1.407200098037719727e-01
2.831000000000000000e+03 1.187404060363769531e+01 3.023687005043029785e-01 -5.715486526489257812e+00 -1.600080728530883789e-01 -1.762648344039916992e+00 -2.986951470375061035e-01
2.832000000000000000e+03 1.187335777282714844e+01 1.043116807937622070e+00 -2.947822809219360352e+00 6.408127546310424805e-01 -6.921029686927795410e-01 -1.782075166702270508e+00
2.833000000000000000e+03 1.261872673034667969e+01 2.733090519905090332e-01 -4.187837600708007812e+00 5.902900695800781250e-01 -1.079264283180236816e+00 -6.826404333114624023e-01
2.834000000000000000e+03 1.261125278472900391e+01 1.014356493949890137e+00 -2.187357664108276367e+00 1.958370655775070190e-01 -5.974562168121337891e-01 -1.694505572319030762e+00
2.835000000000000000e+03 1.039453697204589844e+01 1.112098097801208496e+00 -3.889086246490478516e+00 6.250573992729187012e-01 -9.792086482048034668e-01 -2.933219373226165771e-01
2.836000000000000000e+03 1.113444709777832031e+01 1.075741291046142578e+00 -3.705345630645751953e+00 7.514042854309082031e-01 -8.861824274063110352e-01 -8.261273503303527832e-01
2.837000000000000000e+03 9.623786926269531250e+00 3.900898993015289307e-01 -7.286013603210449219e+00 -1.218707649968564510e-03 -2.186169862747192383e+00 2.935495376586914062e-01
2.838000000000000000e+03 8.869092941284179688e+00 1.130121707916259766e+00 -3.679054260253906250e+00 1.687642931938171387e-01 -1.053086996078491211e+00 9.921068549156188965e-01
2.839000000000000000e+03 9.639455795288085938e+00 1.130089879035949707e+00 -3.948297262191772461e+00 4.453681111335754395e-01 -1.050878763198852539e+00 6.720181703567504883e-01
2.840000000000000000e+03 6.556201934814453125e+00 1.130103111267089844e+00 -2.257640838623046875e+00 -7.983717322349548340e-02 -7.012434005737304688e-01 1.104284405708312988e+00
2.841000000000000000e+03 7.314821243286132812e+00 3.901119828224182129e-01 -4.595538139343261719e+00 9.894228726625442505e-02 -1.348978757858276367e+00 4.978120923042297363e-01
2.842000000000000000e+03 4.234930038452148438e+00 3.901281952857971191e-01 -1.438668489456176758e+00 1.413733884692192078e-02 -4.273593723773956299e-01 2.511633038520812988e-01
2.843000000000000000e+03 5.005080699920654297e+00 3.903138041496276855e-01 -2.027940988540649414e+00 -8.633387833833694458e-02 -6.342824101448059082e-01 3.237941265106201172e-01
2.844000000000000000e+03 2.698928356170654297e+00 1.130043506622314453e+00 -4.802138507366180420e-01 -1.172450780868530273e-01 -1.792376786470413208e-01 4.540194869041442871e-01
2.845000000000000000e+03 2.694541215896606445e+00 3.900435268878936768e-01 -5.513014793395996094e-01 -1.288506668061017990e-02 -1.692559570074081421e-01 1.634187996387481689e-01
2.846000000000000000e+03 1.927357912063598633e+00 1.130177497863769531e+00 -2.816172540187835693e-01 -1.111250817775726318e-01 -1.178226992487907410e-01 3.117569386959075928e-01
2.847000000000000000e+03 1.924224138259887695e+00 3.901774585247039795e-01 -2.555471956729888916e-01 -3.175219520926475525e-02 -8.618981391191482544e-02 1.160899549722671509e-01
2.848000000000000000e+03 1.154332518577575684e+00 3.901924192905426025e-01 -8.401442319154739380e-02 -2.835084125399589539e-02 -3.370958194136619568e-02 5.446380749344825745e-02
2.849000000000000000e+03 3.854947686195373535e-01 1.130104899406433105e+00 -3.383928537368774414e-02 -6.897109001874923706e-02 -3.084311261773109436e-02 4.836678877472877502e-02
2.850000000000000000e+03 3.848679959774017334e-01 3.901049494743347168e-01 -9.612726047635078430e-03 -1.184151042252779007e-02 -6.436270661652088165e-03 1.188660133630037308e-02
2.851000000000000000e+03 3.464860916137695312e+00 3.899480998516082764e-01 -9.435933232307434082e-01 -4.259946197271347046e-02 -2.958578169345855713e-01 2.200075834989547729e-01
2.852000000000000000e+03 4.241824626922607422e+00 1.130128264427185059e+00 -1.028614163398742676e+00 -1.458189189434051514e-01 -3.523299098014831543e-01 7.039768695831298828e-01
2.853000000000000000e+03 5.775665760040283203e+00 3.902668058872222900e-01 -2.754382371902465820e+00 4.251448065042495728e-02 -8.135603666305541992e-01 3.724343478679656982e-01
2.854000000000000000e+03 5.785067081451416016e+00 1.130266785621643066e+00 -1.787311077117919922e+00 -2.054867148399353027e-01 -5.978393554687500000e-01 9.854711294174194336e-01
2.855000000000000000e+03 6.545547008514404297e+00 3.901031017303466797e-01 -3.605272769927978516e+00 -1.309982985258102417e-01 -1.120881319046020508e+00 4.589318931102752686e-01
2.856000000000000000e+03 8.084894180297851562e+00 3.901273906230926514e-01 -5.600980281829833984e+00 -1.022812649607658386e-01 -1.710978507995605469e+00 4.934182167053222656e-01
2.857000000000000000e+03 7.326729297637939453e+00 1.130111932754516602e+00 -2.711304187774658203e+00 -1.380365937948226929e-01 -8.548022508621215820e-01 1.257160782814025879e+00
2.858000000000000000e+03 8.854677200317382812e+00 3.901217579841613770e-01 -6.560609817504882812e+00 1.471219062805175781e-01 -1.924046397209167480e+00 4.538236558437347412e-01
2.859000000000000000e+03 8.098055839538574219e+00 1.130127429962158203e+00 -3.295358419418334961e+00 1.542740911245346069e-01 -9.423252940177917480e-01 1.243753194808959961e+00
2.860000000000000000e+03 5.013228416442871094e+00 1.130313754081726074e+00 -1.405558705329895020e+00 -7.577583193778991699e-02 -4.444003701210021973e-01 7.889405488967895508e-01
2.861000000000000000e+03 3.470501661300659180e+00 1.129948139190673828e+00 -7.340213656425476074e-01 -7.250926643610000610e-02 -2.419591844081878662e-01 5.391506552696228027e-01
2.862000000000000000e+03 1.156212806701660156e+00 1.130192399024963379e+00 -1.123736202716827393e-01 -1.367177963256835938e-01 -7.472742348909378052e-02 1.761076450347900391e-01
2.863000000000000000e+03 7.947788715362548828e+00 -3.796155154705047607e-01 -1.548302769660949707e-01 -8.649045601487159729e-03 -4.904379695653915405e-02 -7.556501310318708420e-03
2.864000000000000000e+03 8.799200057983398438e+00 -1.121476769447326660e+00 -1.581404805183410645e-01 -2.712881192564964294e-03 -4.825600981712341309e-02 -1.659387163817882538e-02
2.865000000000000000e+03 9.582886695861816406e+00 -3.863955438137054443e-01 -1.825277209281921387e-01 -5.762889981269836426e-03 -5.648718029260635376e-02 -8.933190256357192993e-04
2.866000000000000000e+03 7.128690242767333984e+00 -3.785993754863739014e-01 -1.319833248853683472e-01 9.890448302030563354e-03 -3.662786260247230530e-02 -1.246480643749237061e-02
2.867000000000000000e+03 6.303002834320068359e+00 -3.777079284191131592e-01 -1.058356463909149170e-01 -8.423790335655212402e-03 -3.427783027291297913e-02 -1.013690419495105743e-02
2.868000000000000000e+03 5.439651966094970703e+00 -3.838033080101013184e-01 -8.057063072919845581e-02 6.737214513123035431e-03 -2.215002477169036865e-02 -1.194646395742893219e-02
2.869000000000000000e+03 4.550192832946777344e+00 -3.404171466827392578e-01 -5.483151972293853760e-02 -7.005795370787382126e-03 -1.855119504034519196e-02 -1.066440157592296600e-02
2.870000000000000000e+03 4.366222858428955078e+00 -8.724825382232666016e-01 -5.074642226099967957e-02 1.143269939348101616e-03 -1.488094590604305267e-02 -1.943551935255527496e-02
2.871000000000000000e+03 2.784379720687866211e+00 -7.812200784683227539e-01 -1.964833214879035950e-02 -1.970744691789150238e-03 -6.485723424702882767e-03 -1.128708664327859879e-02
2.872000000000000000e+03 1.180937051773071289e+00 -3.614223301410675049e-01 2.484811993781477213e-04 -1.274176407605409622e-03 -3.077085711993277073e-04 5.535620948649011552e-05
2.873000000000000000e+03 4.100893437862396240e-01 -5.529974699020385742e-01 -1.375885040033608675e-04 1.085572002921253443e-04 -8.709391295269597322e-06 -1.430456322850659490e-04
2.874000000000000000e+03 7.476370930671691895e-01 -1.101422309875488281e+00 9.259846992790699005e-04 1.705607282929122448e-03 7.894776063039898872e-04 1.103227143175899982e-03
2.875000000000000000e+03 9.583242416381835938e+00 -1.126395583152770996e+00 -1.718526035547256470e-01 2.064896933734416962e-02 -4.536109045147895813e-02 -1.286714896559715271e-02
2.876000000000000000e+03 8.014751434326171875e+00 -1.119615554809570312e+00 -1.443282663822174072e-01 1.316007226705551147e-02 -3.935046121478080750e-02 -2.886387519538402557e-02
2.877000000000000000e+03 7.228956699371337891e+00 -1.118599414825439453e+00 -1.250252425670623779e-01 -5.024270620197057724e-03 -3.901485353708267212e-02 -2.843016572296619415e-02
2.878000000000000000e+03 6.436572551727294922e+00 -1.117707967758178711e+00 -1.072804331779479980e-01 7.144424598664045334e-03 -3.004080243408679962e-02 -3.387748822569847107e-02
2.879000000000000000e+03 5.606524944305419922e+00 -1.123803257942199707e+00 -8.189854770898818970e-02 -5.853028967976570129e-03 -2.632547356188297272e-02 -3.034931980073451996e-02
2.880000000000000000e+03 4.871310234069824219e+00 -1.221886396408081055e+00 -7.086671888828277588e-02 -1.063775154761970043e-03 -2.157914824783802032e-02 -3.688458353281021118e-02
2.881000000000000000e+03 4.215992450714111328e+00 -1.292065382003784180e+00 -5.044307187199592590e-02 -5.999585147947072983e-03 -1.693279668688774109e-02 -3.027401491999626160e-02
2.882000000000000000e+03 3.483979225158691406e+00 -1.264481186866760254e+00 -3.771977871656417847e-02 -3.611515276134014130e-03 -1.239938754588365555e-02 -2.704861946403980255e-02
2.883000000000000000e+03 2.720374822616577148e+00 -1.259622693061828613e+00 -2.280785515904426575e-02 -9.108105674386024475e-03 -9.574787691235542297e-03 -2.056198939681053162e-02
2.884000000000000000e+03 1.356143712997436523e+00 -1.203356504440307617e+00 -5.923499818891286850e-03 -1.081137824803590775e-02 -5.020463373512029648e-03 -5.044362973421812057e-03
2.885000000000000000e+03 3.578934192657470703e+00 -7.873688340187072754e-01 -3.618280217051506042e-02 -4.709800705313682556e-03 -1.226778049021959305e-02 -1.867653243243694305e-02
2.886000000000000000e+03 3.694924592971801758e+00 -2.828876674175262451e-01 -3.038366138935089111e-02 3.434248734265565872e-03 -8.084824308753013611e-03 -4.961454309523105621e-03
2.887000000000000000e+03 2.863981246948242188e+00 -2.815973162651062012e-01 -1.364700309932231903e-02 -3.001840552315115929e-03 -4.994653165340423584e-03 -4.940181039273738861e-03
2.888000000000000000e+03 1.994186639785766602e+00 -3.323911726474761963e-01 -3.021078417077660561e-03 1.407192758051678538e-04 -8.641077438369393349e-04 -1.953939441591501236e-03
2.889000000000000000e+03 1.979022502899169922e+00 -1.275412678718566895e+00 -1.507464051246643066e-02 -5.099791567772626877e-03 -6.052329670637845993e-03 -1.353653520345687866e-02
2.890000000000000000e+03 8.765540122985839844e+00 -3.814768195152282715e-01 -1.730505228042602539e-01 1.046832464635372162e-02 -4.877465963363647461e-02 -8.132856339216232300e-03
2.891000000000000000e+03 1.973226070404052734e+00 -8.478038311004638672e-01 -6.455233786255121231e-03 -2.752683823928236961e-03 -2.762375399470329285e-03 -8.433504030108451843e-03
2.892000000000000000e+03 1.112103080749511719e+01 -4.428110718727111816e-01 -1.896080076694488525e-01 -6.195692345499992371e-03 -5.874110758304595947e-02 1.085724215954542160e-02
2.893000000000000000e+03 1.187371921539306641e+01 -4.752737879753112793e-01 -1.793489605188369751e-01 1.152373757213354111e-02 -5.034756660461425781e-02 1.588089764118194580e-02
2.894000000000000000e+03 1.111492252349853516e+01 -1.183259963989257812e+00 -1.783472001552581787e-01 2.462363988161087036e-02 -4.611706733703613281e-02 1.108047366142272949e-02
2.895000000000000000e+03 1.262644767761230469e+01 -5.069373250007629395e-01 -1.565284430980682373e-01 -1.029792893677949905e-02 -5.004790797829627991e-02 2.038075216114521027e-02
2.896000000000000000e+03 1.035515594482421875e+01 -1.148333072662353516e+00 -1.780562251806259155e-01 -8.321764471475034952e-05 -5.344183370471000671e-02 1.955718966200947762e-03
2.897000000000000000e+03 1.036805534362792969e+01 -4.081833958625793457e-01 -1.884623616933822632e-01 1.164316944777965546e-02 -5.304575711488723755e-02 3.478503087535500526e-03
2.898000000000000000e+03 1.263392257690429688e+01 -1.248021602630615234e+00 -1.583801209926605225e-01 2.820999361574649811e-02 -3.905103728175163269e-02 4.771793633699417114e-02
2.899000000000000000e+03 1.187440204620361328e+01 -1.216021895408630371e+00 -1.739787757396697998e-01 -1.521543134003877640e-03 -5.265009403228759766e-02 2.785170823335647583e-02
2.900000000000000000e+03 1.483313274383544922e+01 -3.616165518760681152e-01 4.859771113842725754e-03 4.169612005352973938e-02 1.396676804870367050e-02 2.776022814214229584e-02
2.901000000000000000e+03 1.534506702423095703e+01 -8.866766691207885742e-01 -1.509002968668937683e-02 -5.593650043010711670e-02 -2.130796015262603760e-02 -1.293728780001401901e-02
2.902000000000000000e+03 1.413932895660400391e+01 -4.292643368244171143e-01 -4.562924057245254517e-02 -2.817751653492450714e-02 -2.214202657341957092e-02 1.885125972330570221e-02
2.903000000000000000e+03 1.338562393188476562e+01 -4.926638007164001465e-01 -1.067284643650054932e-01 2.039925195276737213e-02 -2.589876577258110046e-02 2.729403972625732422e-02
2.904000000000000000e+03 1.341033267974853516e+01 -1.234521746635437012e+00 -1.440794914960861206e-01 -2.928788540884852409e-03 -4.410248622298240662e-02 5.773346126079559326e-02
2.905000000000000000e+03 1.419171237945556641e+01 -1.172296047210693359e+00 -1.140578463673591614e-01 1.443123351782560349e-02 -2.988798357546329498e-02 7.295657694339752197e-02
2.906000000000000000e+03 1.491319084167480469e+01 -1.105822205543518066e+00 -7.480642199516296387e-02 -5.303597450256347656e-02 -3.835272043943405151e-02 4.809556528925895691e-02
2.907000000000000000e+03 3.831947326660156250e+01 1.119236564636230469e+01 3.653752517700195312e+01 2.508752346038818359e+00 1.171388339996337891e+01 6.316594600677490234e+00
2.908000000000000000e+03 3.832051467895507812e+01 1.117294502258300781e+01 3.733030700683593750e+01 1.055110263824462891e+01 1.436442279815673828e+01 1.813467597961425781e+01
2.909000000000000000e+03 3.832531356811523438e+01 1.115409946441650391e+01 3.621872329711914062e+01 1.986206054687500000e+01 1.682423591613769531e+01 2.360284042358398438e+01
2.910000000000000000e+03 3.833368682861328125e+01 1.113654613494873047e+01 3.247186279296875000e+01 2.975825881958007812e+01 1.866903686523437500e+01 2.715305900573730469e+01
2.911000000000000000e+03 3.834531402587890625e+01 1.112095546722412109e+01 2.927176094055175781e+01 4.044367218017578125e+01 2.091462898254394531e+01 2.740323066711425781e+01
2.912000000000000000e+03 3.835974884033203125e+01 1.110792446136474609e+01 2.391021919250488281e+01 4.909372711181640625e+01 2.190118408203125000e+01 2.579714393615722656e+01
2.913000000000000000e+03 3.837644195556640625e+01 1.109794902801513672e+01 2.182071495056152344e+01 5.716594314575195312e+01 2.369599723815917969e+01 2.150632286071777344e+01
2.914000000000000000e+03 3.839476013183593750e+01 1.109141063690185547e+01 1.805059623718261719e+01 6.169443893432617188e+01 2.392350959777832031e+01 1.595384979248046875e+01
2.915000000000000000e+03 3.841399765014648438e+01 1.108856010437011719e+01 1.911401557922363281e+01 6.452296447753906250e+01 2.509109306335449219e+01 9.996851921081542969e+00
2.916000000000000000e+03 3.843342208862304688e+01 1.108950424194335938e+01 1.936662292480468750e+01 6.362113571166992188e+01 2.489632797241210938e+01 3.634103536605834961e+00
2.917000000000000000e+03 3.845229339599609375e+01 1.109420871734619141e+01 2.279248237609863281e+01 6.163912582397460938e+01 2.532948303222656250e+01 -7.250844240188598633e-01
2.918000000000000000e+03 3.846988677978515625e+01 1.110249233245849609e+01 2.685750961303710938e+01 5.721472167968750000e+01 2.522166824340820312e+01 -4.271999359130859375e+00
2.919000000000000000e+03 3.848553466796875000e+01 1.111404037475585938e+01 3.096595191955566406e+01 5.264630126953125000e+01 2.508367538452148438e+01 -5.679296016693115234e+00
2.920000000000000000e+03 3.849863815307617188e+01 1.112841129302978516e+01 3.502638244628906250e+01 4.794883728027343750e+01 2.489256668090820312e+01 -5.381979942321777344e+00
2.921000000000000000e+03 3.850869750976562500e+01 1.114505577087402344e+01 3.881602096557617188e+01 4.450000762939453125e+01 2.499480819702148438e+01 -3.384999275207519531e+00
2.922000000000000000e+03 3.851532745361328125e+01 1.116333866119384766e+01 4.115884780883789062e+01 4.131865692138671875e+01 2.474324989318847656e+01 -3.133412003517150879e-01
2.923000000000000000e+03 3.851827239990234375e+01 1.118256092071533203e+01 4.210456466674804688e+01 3.989839553833007812e+01 2.460088729858398438e+01 3.185635328292846680e+00
2.924000000000000000e+03 3.851742553710937500e+01 1.120199012756347656e+01 4.220909881591796875e+01 4.136285400390625000e+01 2.507158470153808594e+01 7.184691905975341797e+00
2.925000000000000000e+03 3.851281738281250000e+01 1.122088432312011719e+01 3.972806549072265625e+01 4.267531585693359375e+01 2.472101593017578125e+01 1.131422424316406250e+01
2.926000000000000000e+03 3.850461959838867188e+01 1.123852062225341797e+01 3.688451766967773438e+01 4.616179656982421875e+01 2.491389465332031250e+01 1.380307102203369141e+01
2.927000000000000000e+03 3.849315261840820312e+01 1.125422573089599609e+01 3.207310867309570312e+01 5.160595703125000000e+01 2.510371971130371094e+01 1.530447196960449219e+01
2.928000000000000000e+03 3.847884750366210938e+01 1.126740169525146484e+01 2.643535995483398438e+01 5.613716888427734375e+01 2.477175903320312500e+01 1.511613559722900391e+01
2.929000000000000000e+03 3.846225357055664062e+01 1.127754306793212891e+01 2.079642868041992188e+01 6.116968154907226562e+01 2.458983230590820312e+01 1.254945373535156250e+01
2.930000000000000000e+03 3.844400405883789062e+01 1.128426361083984375e+01 1.578447437286376953e+01 6.440912628173828125e+01 2.405808067321777344e+01 8.331540107727050781e+00
2.931000000000000000e+03 3.842479324340820312e+01 1.128730678558349609e+01 1.182669830322265625e+01 6.570529937744140625e+01 2.325959968566894531e+01 2.244929313659667969e+00
2.932000000000000000e+03 3.840536117553710938e+01 1.128655719757080078e+01 9.285481452941894531e+00 6.406872558593750000e+01 2.200626182556152344e+01 -4.173037528991699219e+00
2.933000000000000000e+03 3.838644409179687500e+01 1.128204154968261719e+01 8.962706565856933594e+00 5.970806121826171875e+01 2.060123062133789062e+01 -1.055637931823730469e+01
2.934000000000000000e+03 3.836876678466796875e+01 1.127393436431884766e+01 9.822187423706054688e+00 5.258111953735351562e+01 1.872099304199218750e+01 -1.587454223632812500e+01
2.935000000000000000e+03 3.835300445556640625e+01 1.126254272460937500e+01 1.161737155914306641e+01 4.341533279418945312e+01 1.650981140136718750e+01 -1.944306373596191406e+01
2.936000000000000000e+03 3.833975982666015625e+01 1.124830436706542969e+01 1.451279544830322266e+01 3.308251190185546875e+01 1.427859210968017578e+01 -2.067994689941406250e+01
2.937000000000000000e+03 3.832953643798828125e+01 1.123176097869873047e+01 1.676746177673339844e+01 2.169038009643554688e+01 1.153735256195068359e+01 -1.958679580688476562e+01
2.938000000000000000e+03 3.832272338867187500e+01 1.121354579925537109e+01 2.163433265686035156e+01 9.274258613586425781e+00 9.272577285766601562e+00 -1.261042499542236328e+01
