# el_label, x, y, sXX, sYY, sZZ, sXY
1.000000000000000000e+00 5.727972412109375000e+01 1.119569778442382812e+01 -1.135286808013916016e+00 5.381651595234870911e-02 -3.244410753250122070e-01 3.116392530500888824e-02
2.000000000000000000e+00 5.644150924682617188e+01 1.205179023742675781e+01 -1.307362556457519531e+00 1.256996691226959229e-01 -3.544988632202148438e-01 5.429585650563240051e-02
3.000000000000000000e+00 5.860574722290039062e+01 1.182995128631591797e+01 -1.256528496742248535e+00 1.958459317684173584e-01 -3.182047903537750244e-01 -3.221924901008605957e-01
4.000000000000000000e+00 5.924370574951171875e+01 1.158118247985839844e+01 -1.065218567848205566e+00 -2.379427999258041382e-01 -3.909484148025512695e-01 -6.040177941322326660e-01
5.000000000000000000e+00 5.559459686279296875e+01 1.142423820495605469e+01 -1.493468165397644043e+00 -1.190236210823059082e-02 -4.516111314296722412e-01 2.034648805856704712e-01
6.000000000000000000e+00 5.806417465209960938e+01 1.135896015167236328e+01 -9.792266488075256348e-01 1.557722687721252441e-01 -2.470363080501556396e-01 -1.891957670450210571e-01
7.000000000000000000e+00 5.858418273925781250e+01 1.097886371612548828e+01 -5.849895477294921875e-01 -5.277348309755325317e-02 -1.913289129734039307e-01 -1.746586114168167114e-01
8.000000000000000000e+00 5.564402008056640625e+01 1.216597938537597656e+01 -1.276826500892639160e+00 5.931093543767929077e-02 -3.652546703815460205e-01 1.740404963493347168e-01
9.000000000000000000e+00 5.722159194946289062e+01 1.195763492584228516e+01 -1.312569260597229004e+00 2.344003170728683472e-01 -3.234506845474243164e-01 -1.179499775171279907e-01
1.000000000000000000e+01 5.796007156372070312e+01 1.192360687255859375e+01 -1.357359409332275391e+00 2.794782519340515137e-01 -3.233643472194671631e-01 -1.735308319330215454e-01
1.100000000000000000e+01 5.644586181640625000e+01 1.129995155334472656e+01 -1.386181473731994629e+00 1.280181016772985458e-02 -4.120138883590698242e-01 1.411389559507369995e-01
1.200000000000000000e+01 5.328820800781250000e+01 1.160719490051269531e+01 -9.067841172218322754e-01 -2.851425111293792725e-02 -2.805894911289215088e-01 2.029848694801330566e-01
1.300000000000000000e+01 5.253549957275390625e+01 1.165647983551025391e+01 -5.631068348884582520e-01 2.176155708730220795e-02 -1.624035835266113281e-01 2.275062203407287598e-01
1.400000000000000000e+01 5.479130554199218750e+01 1.151412296295166016e+01 -1.414544701576232910e+00 -3.780996799468994141e-02 -4.357063770294189453e-01 1.989990174770355225e-01
1.500000000000000000e+01 5.334827423095703125e+01 1.234487724304199219e+01 -9.472794532775878906e-01 9.828163310885429382e-03 -2.812353968620300293e-01 4.466231465339660645e-01
1.600000000000000000e+01 5.404014587402343750e+01 1.155970287322998047e+01 -1.179361343383789062e+00 8.569826371967792511e-03 -3.512374758720397949e-01 1.992422342300415039e-01
1.700000000000000000e+01 5.486436843872070312e+01 1.225100231170654297e+01 -1.209901690483093262e+00 1.569910719990730286e-02 -3.582607507705688477e-01 3.055694997310638428e-01
1.800000000000000000e+01 5.258906936645507812e+01 1.239457130432128906e+01 -8.060202598571777344e-01 -4.396125674247741699e-03 -2.431249171495437622e-01 4.743494689464569092e-01
1.900000000000000000e+01 5.410670852661132812e+01 1.229697513580322266e+01 -1.124397754669189453e+00 1.068628393113613129e-02 -3.341134488582611084e-01 3.855658173561096191e-01
2.000000000000000000e+01 5.025956344604492188e+01 1.270665550231933594e+01 3.154247105121612549e-01 7.117292284965515137e-02 1.159792914986610413e-01 -1.530073434114456177e-01
2.100000000000000000e+01 5.046179580688476562e+01 1.225505161285400391e+01 -1.266234517097473145e-01 -3.178068622946739197e-02 -4.752124100923538208e-02 6.093881651759147644e-02
2.200000000000000000e+01 5.075405502319335938e+01 1.260497951507568359e+01 -1.727594807744026184e-02 -3.466587662696838379e-01 -1.091804206371307373e-01 2.371033877134323120e-01
2.300000000000000000e+01 5.163328933715820312e+01 1.171501445770263672e+01 -2.086738198995590210e-01 -9.720964729785919189e-02 -9.176503866910934448e-02 1.422739475965499878e-01
2.400000000000000000e+01 5.168086624145507812e+01 1.245351219177246094e+01 -5.002492666244506836e-01 -1.715023666620254517e-01 -2.015254795551300049e-01 4.425898790359497070e-01
2.500000000000000000e+01 5.063701629638671875e+01 1.172607994079589844e+01 -1.191230118274688721e-02 -5.188920535147190094e-03 -5.130366422235965729e-03 7.749160286039113998e-03
2.600000000000000000e+01 3.225308990478515625e+01 -7.119891643524169922e-01 -1.146478176116943359e+00 1.103814318776130676e-01 -3.108290433883666992e-01 3.693949878215789795e-01
2.700000000000000000e+01 3.262969207763671875e+01 -6.639232486486434937e-02 -1.755991101264953613e+00 3.327180147171020508e-01 -4.269819259643554688e-01 -3.661262989044189453e-01
2.800000000000000000e+01 3.447320938110351562e+01 -3.624396920204162598e-01 -9.308459758758544922e-01 7.522649765014648438e-01 -5.357431620359420776e-02 -8.402293920516967773e-02
2.900000000000000000e+01 3.480959320068359375e+01 -2.743880033493041992e+00 5.322171449661254883e-01 9.907026290893554688e-01 4.568759202957153320e-01 -6.936449408531188965e-01
3.000000000000000000e+01 3.590087509155273438e+01 -3.979842901229858398e+00 7.883194088935852051e-01 1.267527103424072266e+00 6.167539358139038086e-01 -9.479811787605285645e-01
3.100000000000000000e+01 3.682633209228515625e+01 -5.323129177093505859e+00 6.381773948669433594e-01 1.093785285949707031e+00 5.195888280868530273e-01 -8.058893680572509766e-01
3.200000000000000000e+01 3.784720230102539062e+01 -5.551311016082763672e+00 6.251701712608337402e-01 4.385786950588226318e-01 3.191246688365936279e-01 -6.063644886016845703e-01
3.300000000000000000e+01 3.935317230224609375e+01 -7.535882949829101562e+00 4.367718696594238281e-01 1.289900839328765869e-01 1.697285920381546021e-01 -3.371421992778778076e-01
3.400000000000000000e+01 3.997320938110351562e+01 -9.045097351074218750e+00 2.425937801599502563e-01 8.950003981590270996e-02 9.962814301252365112e-02 -2.045485377311706543e-01
3.500000000000000000e+01 4.073243331909179688e+01 -1.037936115264892578e+01 1.329378336668014526e-01 -1.475140568800270557e-03 3.943881019949913025e-02 -1.291971504688262939e-01
3.600000000000000000e+01 4.201634597778320312e+01 -1.149765682220458984e+01 1.097529456019401550e-01 -7.945840246975421906e-03 3.054213151335716248e-02 -1.538088619709014893e-01
3.700000000000000000e+01 4.379082107543945312e+01 -1.385526752471923828e+01 -2.379711419343948364e-01 1.758458465337753296e-01 -1.863758638501167297e-02 -2.223889082670211792e-01
3.800000000000000000e+01 4.603819656372070312e+01 -1.570449829101562500e+01 -5.252069830894470215e-01 5.304894447326660156e-01 1.584735116921365261e-03 -1.041848808526992798e-01
3.900000000000000000e+01 4.677519226074218750e+01 -1.712005043029785156e+01 -6.386097669601440430e-01 5.652743577957153320e-01 -2.200062572956085205e-02 -5.149099603295326233e-02
4.000000000000000000e+01 4.755105209350585938e+01 -1.950022506713867188e+01 -5.654736757278442383e-01 5.905372500419616699e-01 7.519069593399763107e-03 -8.393860608339309692e-02
4.100000000000000000e+01 5.029916763305664062e+01 -2.190742111206054688e+01 -1.612934917211532593e-01 6.652024388313293457e-01 1.511726975440979004e-01 3.985632956027984619e-02
4.200000000000000000e+01 5.094453430175781250e+01 -2.401635169982910156e+01 9.767955541610717773e-02 9.906154274940490723e-01 3.264884948730468750e-01 2.081235945224761963e-01
4.300000000000000000e+01 5.438347625732421875e+01 -2.642681884765625000e+01 8.899645507335662842e-02 1.970595955848693848e+00 6.178777217864990234e-01 3.599192798137664795e-01
4.400000000000000000e+01 5.493769836425781250e+01 -2.760022544860839844e+01 1.130674406886100769e-01 2.080448150634765625e+00 6.580546498298645020e-01 2.804309129714965820e-01
4.500000000000000000e+01 5.538682174682617188e+01 -2.898312950134277344e+01 2.187166661024093628e-01 2.172151803970336914e+00 7.172605395317077637e-01 2.418964058160781860e-01
4.600000000000000000e+01 5.815549087524414062e+01 -3.189656448364257812e+01 3.215914964675903320e-01 2.633782148361206055e+00 8.866121172904968262e-01 1.018644124269485474e-01
4.700000000000000000e+01 5.941320419311523438e+01 -3.392464447021484375e+01 4.323121011257171631e-01 2.867093563079833984e+00 9.898217320442199707e-01 1.135064363479614258e-01
4.800000000000000000e+01 6.781119537353515625e+01 -4.080920791625976562e+01 3.709506392478942871e-01 4.619026184082031250e+00 1.496993064880371094e+00 4.252750054001808167e-02
4.900000000000000000e+01 7.182501983642578125e+01 -3.646652221679687500e+01 2.443860918283462524e-01 5.583474636077880859e+00 1.748358249664306641e+00 2.323769181966781616e-01
5.000000000000000000e+01 7.097785186767578125e+01 -3.402483749389648438e+01 3.080022037029266357e-01 5.392647266387939453e+00 1.710194826126098633e+00 3.428503572940826416e-01
5.100000000000000000e+01 7.184400177001953125e+01 -3.293690872192382812e+01 2.703995704650878906e-01 5.655446052551269531e+00 1.777753710746765137e+00 3.937112390995025635e-01
5.200000000000000000e+01 7.229721069335937500e+01 -3.069831466674804688e+01 2.601674199104309082e-01 5.761600017547607422e+00 1.806530117988586426e+00 4.826934039592742920e-01
5.300000000000000000e+01 7.206133270263671875e+01 -2.941658973693847656e+01 2.829250395298004150e-01 5.651830673217773438e+00 1.780426740646362305e+00 5.398411750793457031e-01
5.400000000000000000e+01 7.185248565673828125e+01 -2.815248870849609375e+01 2.765270471572875977e-01 5.515901088714599609e+00 1.737728476524353027e+00 5.843282938003540039e-01
5.500000000000000000e+01 7.201873016357421875e+01 -2.441657257080078125e+01 1.364938169717788696e-01 5.437275409698486328e+00 1.672130703926086426e+00 8.471098542213439941e-01
5.600000000000000000e+01 7.154476165771484375e+01 -2.264418792724609375e+01 -7.002270221710205078e-02 5.124645233154296875e+00 1.516386747360229492e+00 1.016875505447387695e+00
5.700000000000000000e+01 7.312937164306640625e+01 -2.083852577209472656e+01 -6.598792076110839844e-01 6.463560104370117188e+00 1.741104245185852051e+00 1.097486615180969238e+00
5.800000000000000000e+01 7.074570465087890625e+01 -1.871396827697753906e+01 -8.914946913719177246e-01 3.839854955673217773e+00 8.845080733299255371e-01 2.012393951416015625e+00
5.900000000000000000e+01 7.202956390380859375e+01 -1.724922561645507812e+01 -2.272173643112182617e+00 7.032428741455078125e+00 1.428076505661010742e+00 2.122021913528442383e+00
6.000000000000000000e+01 7.252819061279296875e+01 -1.610187721252441406e+01 -1.654533386230468750e+00 9.073547363281250000e+00 2.225704193115234375e+00 4.441604018211364746e-01
6.100000000000000000e+01 7.072364044189453125e+01 -1.591699123382568359e+01 -2.691485643386840820e+00 1.802568554878234863e+00 -2.666751146316528320e-01 1.353020071983337402e+00
6.200000000000000000e+01 6.997515106201171875e+01 -1.610750007629394531e+01 -6.304179668426513672e+00 -7.828527092933654785e-01 -2.126109838485717773e+00 1.641848802566528320e+00
6.300000000000000000e+01 6.916100311279296875e+01 -1.634635543823242188e+01 -4.439220428466796875e+00 -1.398585319519042969e+00 -1.751341700553894043e+00 1.129646658897399902e+00
6.400000000000000000e+01 6.886202239990234375e+01 -1.837060737609863281e+01 -4.499824643135070801e-01 1.324966788291931152e+00 2.624953091144561768e-01 6.047286391258239746e-01
6.500000000000000000e+01 6.850821685791015625e+01 -2.035137557983398438e+01 2.546911127865314484e-02 2.563047170639038086e+00 7.765548229217529297e-01 4.477936029434204102e-01
6.600000000000000000e+01 6.840566253662109375e+01 -2.219790458679199219e+01 2.482420504093170166e-01 3.359290361404418945e+00 1.082259774208068848e+00 4.144007265567779541e-01
6.700000000000000000e+01 6.857392120361328125e+01 -2.555005264282226562e+01 3.798099160194396973e-01 4.157304286956787109e+00 1.361134171485900879e+00 4.194243848323822021e-01
6.800000000000000000e+01 6.910027313232421875e+01 -2.645788192749023438e+01 3.753265142440795898e-01 4.445116996765136719e+00 1.446133017539978027e+00 4.507613182067871094e-01
6.900000000000000000e+01 6.956713104248046875e+01 -2.854502105712890625e+01 3.838777542114257812e-01 4.773806571960449219e+00 1.547305345535278320e+00 4.636436998844146729e-01
7.000000000000000000e+01 6.839380645751953125e+01 -2.999731445312500000e+01 4.038475155830383301e-01 4.535902976989746094e+00 1.481925129890441895e+00 3.556092381477355957e-01
7.100000000000000000e+01 6.840461730957031250e+01 -3.159431648254394531e+01 3.828327357769012451e-01 4.568814754486083984e+00 1.485494256019592285e+00 3.212186098098754883e-01
7.200000000000000000e+01 6.852925109863281250e+01 -3.356832122802734375e+01 3.644981384277343750e-01 4.735663890838623047e+00 1.530048489570617676e+00 2.724227905273437500e-01
7.300000000000000000e+01 6.545455169677734375e+01 -3.597251892089843750e+01 4.215437471866607666e-01 4.143335342407226562e+00 1.369463682174682617e+00 1.573211699724197388e-01
7.400000000000000000e+01 7.009685516357421875e+01 -3.279018402099609375e+01 3.361559510231018066e-01 5.162206172943115234e+00 1.649508595466613770e+00 3.670883476734161377e-01
7.500000000000000000e+01 6.975057220458984375e+01 -3.132378005981445312e+01 3.397296667098999023e-01 4.974925518035888672e+00 1.594396591186523438e+00 3.607148230075836182e-01
7.600000000000000000e+01 7.086280059814453125e+01 -2.966445350646972656e+01 3.205514848232269287e-01 5.254434585571289062e+00 1.672495722770690918e+00 4.697545170783996582e-01
7.700000000000000000e+01 7.055150604248046875e+01 -2.705027770996093750e+01 3.301197588443756104e-01 4.992305278778076172e+00 1.596727490425109863e+00 5.781209468841552734e-01
7.800000000000000000e+01 7.008524322509765625e+01 -2.592845726013183594e+01 3.184671401977539062e-01 4.725500106811523438e+00 1.513190150260925293e+00 5.893149971961975098e-01
7.900000000000000000e+01 7.048749542236328125e+01 -2.381072235107421875e+01 2.265792042016983032e-01 4.633094787597656250e+00 1.457902312278747559e+00 7.691610455513000488e-01
8.000000000000000000e+01 7.038436889648437500e+01 -2.254804992675781250e+01 1.306158006191253662e-01 4.428812026977539062e+00 1.367828369140625000e+00 8.806982636451721191e-01
8.100000000000000000e+01 7.113070678710937500e+01 -2.073160552978515625e+01 -3.432208001613616943e-01 4.718671798706054688e+00 1.312635183334350586e+00 1.370073437690734863e+00
8.200000000000000000e+01 7.020414733886718750e+01 -1.695520782470703125e+01 -1.402320146560668945e+00 5.688635110855102539e-01 -2.500369846820831299e-01 2.612597703933715820e+00
8.300000000000000000e+01 3.294737243652343750e+01 -1.150730490684509277e+00 -5.596808791160583496e-01 7.744389027357101440e-02 -1.446710973978042603e-01 -6.458503007888793945e-02
8.400000000000000000e+01 3.649764251708984375e+01 -3.473868370056152344e+00 2.952748835086822510e-01 7.802911996841430664e-01 3.226698338985443115e-01 -6.266652345657348633e-01
8.500000000000000000e+01 3.936151504516601562e+01 -9.429830551147460938e+00 1.322026550769805908e-01 1.551720052957534790e-01 8.621239662170410156e-02 -1.432694494724273682e-01
8.600000000000000000e+01 4.060824966430664062e+01 -1.249236106872558594e+01 -4.246319003868848085e-04 -1.947982758283615112e-01 -5.856687203049659729e-02 6.419200915843248367e-03
8.700000000000000000e+01 4.145808792114257812e+01 -1.308077526092529297e+01 -1.786901615560054779e-02 -1.897836327552795410e-01 -6.229579448699951172e-02 -7.276244461536407471e-02
8.800000000000000000e+01 4.091491699218750000e+01 -1.480029487609863281e+01 -1.244991496205329895e-01 -6.046276688575744629e-01 -2.187380492687225342e-01 -1.946282386779785156e-01
8.900000000000000000e+01 4.135591888427734375e+01 -1.553478527069091797e+01 -6.265547871589660645e-01 -5.429092645645141602e-01 -3.508392274379730225e-01 -4.713923037052154541e-01
9.000000000000000000e+01 4.070650100708007812e+01 -1.606724929809570312e+01 -1.485960602760314941e+00 -9.571576118469238281e-01 -7.329354882240295410e-01 -6.249294281005859375e-01
9.100000000000000000e+01 3.994880294799804688e+01 -1.763021469116210938e+01 -7.248594164848327637e-01 -4.976180493831634521e-01 -3.667432367801666260e-01 -2.648312151432037354e-01
9.200000000000000000e+01 3.917960739135742188e+01 -1.716378021240234375e+01 -9.726673960685729980e-01 -3.164514601230621338e-01 -3.867356479167938232e-01 -4.768226444721221924e-01
9.300000000000000000e+01 3.879840469360351562e+01 -1.797491073608398438e+01 -7.220006585121154785e-01 -1.682699918746948242e-01 -2.670812010765075684e-01 -3.508394956588745117e-01
9.400000000000000000e+01 3.804917526245117188e+01 -1.959928321838378906e+01 -4.236729443073272705e-01 -2.632207795977592468e-02 -1.349985152482986450e-01 -3.513757884502410889e-01
9.500000000000000000e+01 3.812558364868164062e+01 -2.205263519287109375e+01 -1.775691807270050049e-01 2.170629613101482391e-02 -4.675886780023574829e-02 -3.284864425659179688e-01
9.600000000000000000e+01 3.831369400024414062e+01 -2.354230690002441406e+01 -4.480157420039176941e-02 4.825983196496963501e-02 1.037477748468518257e-03 -2.884302735328674316e-01
9.700000000000000000e+01 3.841819000244140625e+01 -2.523495292663574219e+01 6.386369466781616211e-02 8.470669388771057129e-02 4.457111656665802002e-02 -2.724274396896362305e-01
9.800000000000000000e+01 3.774440765380859375e+01 -2.815600776672363281e+01 2.229282706975936890e-01 9.906343370676040649e-02 9.659751504659652710e-02 -2.460254281759262085e-01
9.900000000000000000e+01 3.639899063110351562e+01 -2.812014389038085938e+01 2.011928111314773560e-01 8.437417447566986084e-02 8.567009866237640381e-02 -2.497615367174148560e-01
1.000000000000000000e+02 3.641226959228515625e+01 -2.978129577636718750e+01 3.042456507682800293e-01 9.741494059562683105e-02 1.204981803894042969e-01 -2.323441654443740845e-01
1.010000000000000000e+02 3.475450134277343750e+01 -3.867956542968750000e+01 5.025501847267150879e-01 6.290565431118011475e-02 1.696367561817169189e-01 -6.737428903579711914e-02
1.020000000000000000e+02 3.933935546875000000e+01 -3.686261367797851562e+01 5.602333545684814453e-01 2.822222709655761719e-01 2.527366876602172852e-01 -9.744109213352203369e-02
1.030000000000000000e+02 3.649186706542968750e+01 -3.564097213745117188e+01 4.963443279266357422e-01 1.299513429403305054e-01 1.878886967897415161e-01 -1.272311061620712280e-01
1.040000000000000000e+02 3.978952026367187500e+01 -3.380924224853515625e+01 4.957327842712402344e-01 2.937112450599670410e-01 2.368332147598266602e-01 -1.193006038665771484e-01
1.050000000000000000e+02 3.904944229125976562e+01 -3.154117774963378906e+01 4.142046570777893066e-01 2.201576977968215942e-01 1.903087049722671509e-01 -1.746439337730407715e-01
1.060000000000000000e+02 3.901904296875000000e+01 -2.881742858886718750e+01 2.857285737991333008e-01 1.759750247001647949e-01 1.385110765695571899e-01 -2.087648808956146240e-01
1.070000000000000000e+02 3.957327651977539062e+01 -2.729523277282714844e+01 2.102943360805511475e-01 1.599843651056289673e-01 1.110836118459701538e-01 -2.258605211973190308e-01
1.080000000000000000e+02 3.993714904785156250e+01 -2.569077682495117188e+01 1.112010553479194641e-01 1.398905217647552490e-01 7.532747834920883179e-02 -2.291075438261032104e-01
1.090000000000000000e+02 4.047840499877929688e+01 -2.441704559326171875e+01 2.152123115956783295e-02 1.047177314758300781e-01 3.787168860435485840e-02 -2.186290472745895386e-01
1.100000000000000000e+02 3.974479293823242188e+01 -2.216123199462890625e+01 -1.454198360443115234e-01 1.070346496999263763e-02 -4.041491076350212097e-02 -2.552232742309570312e-01
1.110000000000000000e+02 3.989031600952148438e+01 -1.978877067565917969e+01 -4.033400714397430420e-01 -1.733512729406356812e-01 -1.730073988437652588e-01 -2.628394067287445068e-01
1.120000000000000000e+02 4.143824005126953125e+01 -1.672037696838378906e+01 -1.102909684181213379e+00 -7.915333658456802368e-02 -3.546189069747924805e-01 8.562362939119338989e-02
1.130000000000000000e+02 3.884135818481445312e+01 -1.596732521057128906e+01 -8.535352945327758789e-01 -4.004918411374092102e-02 -2.680753469467163086e-01 3.076593279838562012e-01
1.140000000000000000e+02 3.818929290771484375e+01 -1.546417140960693359e+01 -4.454774558544158936e-01 -6.784658133983612061e-02 -1.539972126483917236e-01 1.032660380005836487e-01
1.150000000000000000e+02 3.704912185668945312e+01 -1.567131519317626953e+01 -4.886565804481506348e-01 1.673448085784912109e-01 -9.639352560043334961e-02 -5.720409099012613297e-03
1.160000000000000000e+02 3.579246139526367188e+01 -1.459228420257568359e+01 -2.040914595127105713e-01 2.532480359077453613e-01 1.474697422236204147e-02 -6.904219835996627808e-02
1.170000000000000000e+02 3.577941894531250000e+01 -1.325135707855224609e+01 7.165142893791198730e-02 2.525303661823272705e-01 9.725453704595565796e-02 -1.667061299085617065e-01
1.180000000000000000e+02 3.304341506958007812e+01 -1.233341503143310547e+01 -5.364486575126647949e-02 5.325704813003540039e-01 1.436776816844940186e-01 -1.143414005637168884e-01
1.190000000000000000e+02 3.252283096313476562e+01 -1.054826927185058594e+01 1.338834166526794434e-01 7.670878767967224121e-01 2.702913880348205566e-01 -2.785017490386962891e-01
1.200000000000000000e+02 3.050562095642089844e+01 -8.844208717346191406e+00 -2.487790212035179138e-02 5.425353050231933594e-01 1.552972197532653809e-01 -2.320914268493652344e-01
1.210000000000000000e+02 3.039920616149902344e+01 -6.854836463928222656e+00 1.851550042629241943e-01 6.077288389205932617e-01 2.378651648759841919e-01 -4.631260633468627930e-01
1.220000000000000000e+02 2.916616249084472656e+01 -5.327847957611083984e+00 3.004625439643859863e-01 -1.395533829927444458e-01 4.827274754643440247e-02 -6.066246628761291504e-01
1.230000000000000000e+02 2.753127288818359375e+01 -3.911666870117187500e+00 1.015024036169052124e-01 -4.978701472282409668e-01 -1.189103201031684875e-01 -7.072944045066833496e-01
1.240000000000000000e+02 2.519578170776367188e+01 -1.484407186508178711e+00 -1.899845600128173828e-01 3.501371666789054871e-02 -4.649125412106513977e-02 -1.106584593653678894e-01
1.250000000000000000e+02 2.157612037658691406e+01 -9.658789634704589844e-02 -1.646181941032409668e-02 3.209944069385528564e-02 4.691286943852901459e-03 -2.231367863714694977e-03
1.260000000000000000e+02 2.019039535522460938e+01 2.363177776336669922e+00 3.811560338363051414e-03 -3.393351333215832710e-03 1.254627277376130223e-04 -7.751096272841095924e-04
1.270000000000000000e+02 1.884667205810546875e+01 1.821935415267944336e+00 9.385085664689540863e-03 8.805574849247932434e-03 5.457198247313499451e-03 6.895476952195167542e-03
1.280000000000000000e+02 1.797468948364257812e+01 2.673718690872192383e+00 8.354287594556808472e-03 1.593806664459407330e-03 2.984428312629461288e-03 8.922253618948161602e-04
1.290000000000000000e+02 3.472825622558593750e+01 -1.195205211639404297e+01 1.942526549100875854e-01 3.792420923709869385e-01 1.720484197139739990e-01 -2.935508787631988525e-01
1.300000000000000000e+02 3.306586074829101562e+01 -1.121712970733642578e+01 1.035903394222259521e-01 6.731889247894287109e-01 2.330337911844253540e-01 -2.442643493413925171e-01
1.310000000000000000e+02 3.316427612304687500e+01 -1.009636306762695312e+01 3.306811153888702393e-01 9.172239303588867188e-01 3.743715286254882812e-01 -5.142328143119812012e-01
1.320000000000000000e+02 3.272844696044921875e+01 -9.403319358825683594e+00 3.007828295230865479e-01 1.045134782791137695e+00 4.037752747535705566e-01 -5.301317572593688965e-01
1.330000000000000000e+02 3.232083892822265625e+01 -8.692655563354492188e+00 2.865898609161376953e-01 1.158248424530029297e+00 4.334514737129211426e-01 -5.753842592239379883e-01
1.340000000000000000e+02 3.156950378417968750e+01 -7.247487545013427734e+00 2.548919320106506348e-01 1.162793278694152832e+00 4.253055453300476074e-01 -5.868496894836425781e-01
1.350000000000000000e+02 3.048521614074707031e+01 -4.209552764892578125e+00 1.060441732406616211e-01 5.036081075668334961e-01 1.828956902027130127e-01 -3.266398310661315918e-01
1.360000000000000000e+02 3.012056541442871094e+01 -2.442231178283691406e+00 -1.690448969602584839e-01 -7.789305448532104492e-01 -2.843926250934600830e-01 -3.328354060649871826e-01
1.370000000000000000e+02 3.042583465576171875e+01 -8.834440708160400391e-01 -2.193157911300659180e+00 -2.226938247680664062e+00 -1.326028823852539062e+00 -1.559679031372070312e+00
1.380000000000000000e+02 3.018680191040039062e+01 -1.658268690109252930e+00 -1.951243132352828979e-01 -1.653363347053527832e+00 -5.545462965965270996e-01 -6.608710289001464844e-01
1.390000000000000000e+02 2.691145896911621094e+01 2.743824005126953125e+00 8.580865859985351562e-01 2.632501125335693359e-01 3.364010155200958252e-01 4.327667057514190674e-01
1.400000000000000000e+02 2.546174049377441406e+01 2.270020723342895508e+00 4.107727706432342529e-01 7.184760272502899170e-02 1.447861194610595703e-01 1.806100606918334961e-01
1.410000000000000000e+02 3.013179206848144531e+01 -6.020467758178710938e+00 2.843742668628692627e-01 4.433117508888244629e-01 2.183057963848114014e-01 -4.854931533336639404e-01
1.420000000000000000e+02 3.029602241516113281e+01 8.238558769226074219e-01 -1.006852149963378906e+00 -1.164747238159179688e+00 -6.514798402786254883e-01 -1.274102777242660522e-01
1.430000000000000000e+02 2.970429801940917969e+01 1.663640499114990234e+00 -3.656952083110809326e-01 -5.357071757316589355e-01 -2.704207301139831543e-01 7.484856247901916504e-02
1.440000000000000000e+02 2.854247093200683594e+01 3.590173482894897461e+00 9.292637109756469727e-01 3.944891393184661865e-01 3.971258699893951416e-01 6.006817221641540527e-01
1.450000000000000000e+02 3.096867942810058594e+01 5.515247344970703125e+00 3.894884288311004639e-01 1.603352129459381104e-01 1.649470925331115723e-01 2.496937960386276245e-01
1.460000000000000000e+02 3.311845779418945312e+01 6.386852741241455078e+00 1.786522865295410156e-01 -1.416670437902212143e-02 4.934567213058471680e-02 3.854053094983100891e-02
1.470000000000000000e+02 3.504405593872070312e+01 6.888759613037109375e+00 8.615335077047348022e-02 -3.078106790781021118e-02 1.661168411374092102e-02 -2.114437706768512726e-02
1.480000000000000000e+02 3.711494064331054688e+01 6.173790454864501953e+00 1.481960620731115341e-02 1.290969178080558777e-02 8.318789303302764893e-03 -5.013211071491241455e-02
1.490000000000000000e+02 3.976801681518554688e+01 7.633154869079589844e+00 -2.085964893922209740e-03 2.249724930152297020e-03 4.912802251055836678e-05 2.073179930448532104e-03
1.500000000000000000e+02 4.035832595825195312e+01 7.368994712829589844e+00 5.731492768973112106e-03 1.319521572440862656e-03 2.115304348990321159e-03 -4.693740978837013245e-03
1.510000000000000000e+02 4.055645751953125000e+01 8.834220886230468750e+00 -1.524216029793024063e-03 -3.131703473627567291e-03 -1.396775827743113041e-03 1.886530546471476555e-03
1.520000000000000000e+02 4.080853271484375000e+01 8.012557029724121094e+00 -4.830290097743272781e-03 -3.100135829299688339e-03 -2.379127778112888336e-03 1.765815424732863903e-03
1.530000000000000000e+02 3.960147476196289062e+01 8.453862190246582031e+00 1.055676955729722977e-03 -2.770790597423911095e-03 -5.145340692251920700e-04 -6.210659630596637726e-04
1.540000000000000000e+02 3.840734481811523438e+01 9.292461395263671875e+00 6.978551391512155533e-03 3.325313096866011620e-03 3.091159276664257050e-03 3.470864612609148026e-05
1.550000000000000000e+02 3.913697052001953125e+01 9.155159950256347656e+00 -3.619354451075196266e-03 -3.828748303931206465e-04 -1.200668863020837307e-03 -3.031917382031679153e-03
1.560000000000000000e+02 3.759573745727539062e+01 9.454024314880371094e+00 3.815184812992811203e-03 -3.136639483273029327e-03 2.035636134678497910e-04 -1.932523446157574654e-03
1.570000000000000000e+02 3.750738525390625000e+01 6.981730937957763672e+00 8.671564050018787384e-03 8.185725659132003784e-03 5.057187285274267197e-03 -2.682169154286384583e-02
1.580000000000000000e+02 6.767765045166015625e+01 -2.071965789794921875e+01 7.436297833919525146e-02 2.689157009124755859e+00 8.290560245513916016e-01 1.022641211748123169e-01
1.590000000000000000e+02 6.506815338134765625e+01 -2.016010475158691406e+01 -3.885577321052551270e-01 2.932517766952514648e+00 7.631880044937133789e-01 -6.366042494773864746e-01
1.600000000000000000e+02 6.378459548950195312e+01 -1.996658897399902344e+01 -5.266540646553039551e-01 3.246549129486083984e+00 8.159685134887695312e-01 -6.877323389053344727e-01
1.610000000000000000e+02 6.243740463256835938e+01 -2.104842567443847656e+01 -4.185938835144042969e-01 3.473054885864257812e+00 9.163383245468139648e-01 -6.160843372344970703e-01
1.620000000000000000e+02 6.046188354492187500e+01 -2.010525703430175781e+01 -4.431553483009338379e-01 3.929425001144409180e+00 1.045880913734436035e+00 -3.764409124851226807e-01
1.630000000000000000e+02 5.945864868164062500e+01 -2.123236083984375000e+01 -6.023833751678466797e-01 3.881204366683959961e+00 9.836463332176208496e-01 -3.060790002346038818e-01
1.640000000000000000e+02 5.723582458496093750e+01 -2.055573081970214844e+01 -5.036515593528747559e-01 3.923137664794921875e+00 1.025845885276794434e+00 3.363822400569915771e-01
1.650000000000000000e+02 5.538607025146484375e+01 -2.115881538391113281e+01 -4.988617002964019775e-01 2.474243402481079102e+00 5.926144719123840332e-01 1.261568665504455566e+00
1.660000000000000000e+02 5.306644058227539062e+01 -2.177921485900878906e+01 -9.585909545421600342e-03 9.833493828773498535e-01 2.921290397644042969e-01 5.704823136329650879e-01
1.670000000000000000e+02 5.018310165405273438e+01 -2.095015907287597656e+01 -3.442875742912292480e-01 5.571787953376770020e-01 6.386736035346984863e-02 -4.607231542468070984e-02
1.680000000000000000e+02 4.826753234863281250e+01 -2.030998611450195312e+01 -4.731018245220184326e-01 5.965078473091125488e-01 3.702181205153465271e-02 -9.099579602479934692e-02
1.690000000000000000e+02 6.469464874267578125e+01 -1.838805198669433594e+01 -9.143345952033996582e-01 3.040779829025268555e+00 6.379335522651672363e-01 -6.796821951866149902e-01
1.700000000000000000e+02 6.450057220458984375e+01 -1.949116897583007812e+01 -5.941635370254516602e-01 3.061414718627929688e+00 7.401753664016723633e-01 -6.896790266036987305e-01
1.710000000000000000e+02 6.134731674194335938e+01 -1.822553062438964844e+01 -6.072545647621154785e-01 3.928061246871948242e+00 9.962420463562011719e-01 -3.063468933105468750e-01
1.720000000000000000e+02 5.908010482788085938e+01 -1.871450424194335938e+01 -1.058962289243936539e-02 4.247932434082031250e+00 1.271202802658081055e+00 -1.812407821416854858e-01
1.730000000000000000e+02 5.780846786499023438e+01 -1.996315193176269531e+01 -6.006492972373962402e-01 4.494007110595703125e+00 1.168007373809814453e+00 8.153650164604187012e-02
1.740000000000000000e+02 5.500406646728515625e+01 -1.953325653076171875e+01 -5.887980461120605469e-01 1.841533541679382324e+00 3.758206367492675781e-01 1.645249485969543457e+00
1.750000000000000000e+02 5.629806900024414062e+01 -1.845201683044433594e+01 1.026390790939331055e+00 6.114091396331787109e+00 2.142144680023193359e+00 8.093060851097106934e-01
1.760000000000000000e+02 5.413057708740234375e+01 -1.894302177429199219e+01 -1.417634487152099609e+00 -1.553926020860671997e-01 -4.719081223011016846e-01 1.034687280654907227e+00
1.770000000000000000e+02 5.265822982788085938e+01 -1.800075340270996094e+01 -1.265930652618408203e+00 -5.068257451057434082e-01 -5.318269133567810059e-01 6.505004763603210449e-01
1.780000000000000000e+02 5.293190765380859375e+01 -1.965818405151367188e+01 -4.794237315654754639e-01 -8.150667417794466019e-04 -1.440716385841369629e-01 2.274164706468582153e-01
1.790000000000000000e+02 5.088383483886718750e+01 -1.899263763427734375e+01 -7.652698159217834473e-01 4.207829833030700684e-01 -1.033460572361946106e-01 -7.146279327571392059e-03
1.800000000000000000e+02 4.895317840576171875e+01 -1.796639251708984375e+01 -6.967492103576660156e-01 5.465437769889831543e-01 -4.506163671612739563e-02 -2.672347798943519592e-02
1.810000000000000000e+02 4.744494628906250000e+01 -1.883812141418457031e+01 -6.494212150573730469e-01 6.021426916122436523e-01 -1.418355759233236313e-02 -6.727100908756256104e-02
1.820000000000000000e+02 6.242922210693359375e+01 -1.612146568298339844e+01 -1.127213358879089355e+00 4.125645160675048828e+00 8.995295166969299316e-01 -3.675289824604988098e-02
1.830000000000000000e+02 6.018127822875976562e+01 -1.729607009887695312e+01 -3.057704865932464600e-01 4.255908966064453125e+00 1.185041546821594238e+00 8.338701725006103516e-02
1.840000000000000000e+02 5.831555557250976562e+01 -1.684750366210937500e+01 1.871047616004943848e-01 4.606184482574462891e+00 1.437986731529235840e+00 4.490423798561096191e-01
1.850000000000000000e+02 5.589517974853515625e+01 -1.699418067932128906e+01 -1.298564672470092773e-01 7.537993907928466797e+00 2.222441196441650391e+00 1.892182230949401855e-01
1.860000000000000000e+02 5.553620910644531250e+01 -1.884102439880371094e+01 1.452902704477310181e-01 4.188128948211669922e+00 1.300025701522827148e+00 1.742266535758972168e+00
1.870000000000000000e+02 6.433706665039062500e+01 -1.771340179443359375e+01 -1.067280888557434082e+00 3.167457342147827148e+00 6.300529837608337402e-01 -6.492743492126464844e-01
1.880000000000000000e+02 5.963474273681640625e+01 -1.474827289581298828e+01 -5.375716686248779297e-01 4.695734500885009766e+00 1.247448921203613281e+00 9.835037589073181152e-01
1.890000000000000000e+02 5.852753067016601562e+01 -1.460248279571533203e+01 -3.002672195434570312e-01 4.707304954528808594e+00 1.322111368179321289e+00 1.095855593681335449e+00
1.900000000000000000e+02 5.587457656860351562e+01 -1.546077346801757812e+01 5.363480746746063232e-02 6.167700290679931641e+00 1.866400480270385742e+00 -1.059468537569046021e-01
1.910000000000000000e+02 5.587648010253906250e+01 -1.623929595947265625e+01 1.762224286794662476e-01 6.610669612884521484e+00 2.036067485809326172e+00 1.466052383184432983e-01
1.920000000000000000e+02 5.763258361816406250e+01 -1.334457778930664062e+01 -4.221848249435424805e-01 4.488528251647949219e+00 1.219902992248535156e+00 1.196743726730346680e+00
1.930000000000000000e+02 5.709793853759765625e+01 -1.370304107666015625e+01 -2.662149965763092041e-01 4.393751144409179688e+00 1.238260865211486816e+00 9.110975265502929688e-01
1.940000000000000000e+02 5.567953491210937500e+01 -1.388466072082519531e+01 -4.942270927131175995e-03 4.283641815185546875e+00 1.283609867095947266e+00 -2.801504135131835938e-01
1.950000000000000000e+02 5.580636596679687500e+01 -1.467167282104492188e+01 1.197605580091476440e-01 5.290687084197998047e+00 1.623134255409240723e+00 -2.389889955520629883e-01
1.960000000000000000e+02 5.542163467407226562e+01 -1.225805759429931641e+01 -2.355144321918487549e-01 2.143150568008422852e+00 5.722908973693847656e-01 3.870549425482749939e-02
1.970000000000000000e+02 5.515213012695312500e+01 -1.143890190124511719e+01 -1.894200593233108521e-01 1.218244791030883789e+00 3.086474239826202393e-01 2.743679583072662354e-01
1.980000000000000000e+02 5.606066894531250000e+01 -9.694990158081054688e+00 -3.437410891056060791e-01 1.938027143478393555e+00 4.782858192920684814e-01 6.696727275848388672e-01
1.990000000000000000e+02 5.943130874633789062e+01 -1.099799633026123047e+01 -4.204729497432708740e-01 4.941008567810058594e+00 1.356160759925842285e+00 1.494119524955749512e+00
2.000000000000000000e+02 6.037438583374023438e+01 -1.078512287139892578e+01 -3.648126721382141113e-01 5.490709781646728516e+00 1.537769079208374023e+00 1.436864972114562988e+00
2.010000000000000000e+02 6.173557281494140625e+01 -1.014554882049560547e+01 -4.581937566399574280e-02 6.498742103576660156e+00 1.935876727104187012e+00 9.675247073173522949e-01
2.020000000000000000e+02 6.427422332763671875e+01 -1.021192359924316406e+01 1.026731133460998535e+00 6.458215713500976562e+00 2.245484113693237305e+00 -2.153274059295654297e+00
2.030000000000000000e+02 6.374966049194335938e+01 -8.699193000793457031e+00 7.122534513473510742e-01 1.024125957489013672e+01 3.286053895950317383e+00 -1.787953495979309082e+00
2.040000000000000000e+02 6.360401535034179688e+01 -7.915938854217529297e+00 3.274081349372863770e-01 1.124802112579345703e+01 3.472628593444824219e+00 -1.328440785408020020e+00
2.050000000000000000e+02 6.202056884765625000e+01 -5.834493160247802734e+00 1.269730448722839355e+00 9.920244216918945312e+00 3.356992244720458984e+00 1.558786630630493164e+00
2.060000000000000000e+02 5.996573638916015625e+01 -3.963076829910278320e+00 1.210776805877685547e+00 4.964639186859130859e+00 1.852624773979187012e+00 8.629435896873474121e-01
2.070000000000000000e+02 5.839709472656250000e+01 -2.056049346923828125e+00 -1.059651300311088562e-01 2.260219812393188477e+00 6.462764143943786621e-01 4.735136926174163818e-01
2.080000000000000000e+02 5.700288391113281250e+01 2.798820734024047852e-01 -2.501697063446044922e+00 -4.058930575847625732e-01 -8.722770810127258301e-01 8.674306422472000122e-02
2.090000000000000000e+02 5.676132965087890625e+01 9.940195679664611816e-01 -5.096019744873046875e+00 -4.708426594734191895e-01 -1.670058727264404297e+00 -6.199118494987487793e-01
2.100000000000000000e+02 5.597283554077148438e+01 9.357011914253234863e-01 -4.681083679199218750e+00 -5.957492589950561523e-01 -1.583049893379211426e+00 3.476458787918090820e-01
2.110000000000000000e+02 5.474111938476562500e+01 1.480480313301086426e+00 -2.361324071884155273e+00 -7.068876624107360840e-01 -9.204635024070739746e-01 8.441659808158874512e-01
2.120000000000000000e+02 5.430514907836914062e+01 2.257697582244873047e+00 -6.708536148071289062e-01 -5.162565112113952637e-01 -3.561330437660217285e-01 5.454134345054626465e-01
2.130000000000000000e+02 5.420630645751953125e+01 4.032958507537841797e+00 1.094019971787929535e-02 4.596151411533355713e-02 1.707051321864128113e-02 5.667492374777793884e-02
2.140000000000000000e+02 5.407147979736328125e+01 5.772327899932861328e+00 -1.971598155796527863e-02 3.721589967608451843e-02 5.249975249171257019e-03 1.173583882518869359e-06
2.150000000000000000e+02 5.519847488403320312e+01 9.274412155151367188e+00 2.527964534237980843e-03 7.199591025710105896e-03 2.918266691267490387e-03 -6.354292389005422592e-03
2.160000000000000000e+02 5.580909729003906250e+01 9.226880073547363281e+00 -3.504562657326459885e-03 5.558294709771871567e-03 6.161195924505591393e-04 -3.987691365182399750e-03
2.170000000000000000e+02 5.638750457763671875e+01 9.140307426452636719e+00 8.913005003705620766e-04 5.576449912041425705e-03 1.940325135365128517e-03 -3.769432078115642071e-04
2.180000000000000000e+02 5.180995559692382812e+01 -1.864243888854980469e+01 -1.075460433959960938e+00 1.872910559177398682e-01 -2.664508223533630371e-01 2.038008272647857666e-01
2.190000000000000000e+02 5.056250381469726562e+01 -1.555853366851806641e+01 -2.331258952617645264e-01 -2.680377475917339325e-02 -7.797890156507492065e-02 1.148160547018051147e-01
2.200000000000000000e+02 4.890600967407226562e+01 -1.389879703521728516e+01 1.091679856181144714e-01 3.481959402561187744e-01 1.372091770172119141e-01 -2.081467062234878540e-01
2.210000000000000000e+02 4.735248947143554688e+01 -1.204711437225341797e+01 2.969616949558258057e-01 6.292283535003662109e-01 2.778570055961608887e-01 -4.447362124919891357e-01
2.220000000000000000e+02 4.569503402709960938e+01 -9.311300277709960938e+00 1.671489775180816650e-01 6.961497068405151367e-01 2.589896023273468018e-01 -3.324418962001800537e-01
2.230000000000000000e+02 4.462393951416015625e+01 -7.849309921264648438e+00 1.489593684673309326e-01 5.184615254402160645e-01 2.002262771129608154e-01 -2.042197585105895996e-01
2.240000000000000000e+02 4.468761062622070312e+01 -5.179575920104980469e+00 1.017256453633308411e-01 9.253508448600769043e-01 3.081229329109191895e-01 1.298840790987014771e-01
2.250000000000000000e+02 4.387637329101562500e+01 -4.930691242218017578e+00 2.805932164192199707e-01 4.720905721187591553e-01 2.258051335811614990e-01 2.973153591156005859e-01
2.260000000000000000e+02 4.415995407104492188e+01 -2.275460243225097656e+00 -5.646606683731079102e-01 4.417736530303955078e-01 -3.686610981822013855e-02 6.852018833160400391e-02
2.270000000000000000e+02 4.507549285888671875e+01 -2.247073411941528320e+00 -5.396230220794677734e-01 5.410987734794616699e-01 4.427273815963417292e-04 1.743065267801284790e-01
2.280000000000000000e+02 4.708867263793945312e+01 5.907828211784362793e-01 -8.205914497375488281e-01 3.106373250484466553e-01 -1.529862284660339355e-01 -1.727676205337047577e-02
2.290000000000000000e+02 4.622135925292968750e+01 2.249404668807983398e+00 -7.608383297920227051e-01 1.629506051540374756e-01 -1.793663054704666138e-01 -2.016665637493133545e-01
2.300000000000000000e+02 4.788813018798828125e+01 3.547663688659667969e+00 -4.953449070453643799e-01 1.316827237606048584e-01 -1.090986579656600952e-01 -8.858378231525421143e-02
2.310000000000000000e+02 4.658718109130859375e+01 5.609663963317871094e+00 -8.537130057811737061e-02 -9.961788542568683624e-03 -2.859992720186710358e-02 -3.933830186724662781e-02
2.320000000000000000e+02 4.776554489135742188e+01 6.726650714874267578e+00 -1.213466469198465347e-02 3.943035379052162170e-02 8.188706822693347931e-03 1.573811657726764679e-02
2.330000000000000000e+02 4.897130966186523438e+01 7.010047435760498047e+00 -3.135756403207778931e-02 1.340811792761087418e-02 -5.384834017604589462e-03 6.985939107835292816e-03
2.340000000000000000e+02 5.157719802856445312e+01 8.767766952514648438e+00 1.573387719690799713e-02 -2.081483416259288788e-02 -1.524286810308694839e-03 -1.416909391991794109e-03
2.350000000000000000e+02 5.307899856567382812e+01 9.408828735351562500e+00 6.553618237376213074e-03 -7.853678427636623383e-03 -3.900179290212690830e-04 -9.691058658063411713e-03
2.360000000000000000e+02 5.452832412719726562e+01 9.316870689392089844e+00 -3.008805448189377785e-03 4.663824569433927536e-03 4.965057596564292908e-04 -9.038827382028102875e-03
2.370000000000000000e+02 5.380752182006835938e+01 9.364069938659667969e+00 5.953891668468713760e-03 2.475337823852896690e-03 2.528768964111804962e-03 -1.405896246433258057e-02
2.380000000000000000e+02 5.235231399536132812e+01 9.442971229553222656e+00 1.526910718530416489e-02 -1.078528352081775665e-02 1.345147145912051201e-03 -6.754512432962656021e-03
2.390000000000000000e+02 4.514030838012695312e+01 -3.075379371643066406e+00 3.647187352180480957e-02 7.580714821815490723e-01 2.383629977703094482e-01 3.379351794719696045e-01
2.400000000000000000e+02 4.683645248413085938e+01 -3.271428108215332031e+00 -1.931083649396896362e-01 -4.092777520418167114e-02 -7.021084427833557129e-02 7.316689938306808472e-02
2.410000000000000000e+02 4.825633621215820312e+01 -2.511641263961791992e+00 -3.389358818531036377e-01 1.078836396336555481e-01 -6.931567937135696411e-02 1.070210803300142288e-02
2.420000000000000000e+02 4.951207733154296875e+01 -3.895603418350219727e+00 -6.452360749244689941e-02 2.926517836749553680e-02 -1.057752873748540878e-02 -2.837887592613697052e-02
2.430000000000000000e+02 5.065053939819335938e+01 -4.908752918243408203e+00 4.706699028611183167e-02 -1.029882207512855530e-01 -1.677636988461017609e-02 1.857525669038295746e-02
2.440000000000000000e+02 5.176023864746093750e+01 -6.032843112945556641e+00 -1.224630326032638550e-01 -4.647212922573089600e-01 -1.761552989482879639e-01 2.703956663608551025e-01
2.450000000000000000e+02 5.275494384765625000e+01 -7.276661396026611328e+00 -3.261055946350097656e-01 -1.061367273330688477e+00 -4.162418544292449951e-01 5.862037539482116699e-01
2.460000000000000000e+02 5.462633514404296875e+01 -8.836776733398437500e+00 -2.149808108806610107e-01 3.395898034796118736e-03 -6.347547471523284912e-02 4.399355053901672363e-01
2.470000000000000000e+02 5.708692550659179688e+01 -9.601519584655761719e+00 -2.267469763755798340e-01 2.850407123565673828e+00 7.870980501174926758e-01 9.849330782890319824e-01
2.480000000000000000e+02 5.756992340087890625e+01 -8.934017181396484375e+00 7.988417148590087891e-02 3.169060230255126953e+00 9.746833443641662598e-01 1.062823772430419922e+00
2.490000000000000000e+02 5.696731185913085938e+01 -8.626333236694335938e+00 8.260611444711685181e-02 2.520778179168701172e+00 7.810152769088745117e-01 8.510813117027282715e-01
2.500000000000000000e+02 5.779300308227539062e+01 -1.101881694793701172e+01 -4.949158728122711182e-01 3.918278694152832031e+00 1.027008891105651855e+00 1.316362619400024414e+00
2.510000000000000000e+02 6.696414184570312500e+01 -3.531798839569091797e+00 -3.239801645278930664e+00 -1.065917611122131348e+00 -1.291715741157531738e+00 2.290647029876708984e+00
2.520000000000000000e+02 6.618912506103515625e+01 -2.234748601913452148e+00 -7.947505474090576172e+00 -1.403414607048034668e+00 -2.805276155471801758e+00 2.366554737091064453e+00
2.530000000000000000e+02 6.863681030273437500e+01 -1.779058218002319336e+00 -4.112112522125244141e+00 5.669021606445312500e+00 4.670727550983428955e-01 -1.794421792030334473e+00
2.540000000000000000e+02 7.011824035644531250e+01 -1.733228266239166260e-01 -2.498168706893920898e+00 7.817323207855224609e+00 1.595746397972106934e+00 -3.693684816360473633e+00
2.550000000000000000e+02 7.100791931152343750e+01 1.506206035614013672e+00 3.068504571914672852e+00 6.899713039398193359e+00 2.990465164184570312e+00 -5.001861572265625000e+00
2.560000000000000000e+02 6.988849639892578125e+01 1.541264176368713379e+00 1.324626326560974121e+00 1.089395236968994141e+01 3.665573596954345703e+00 -4.163130760192871094e+00
2.570000000000000000e+02 7.045471191406250000e+01 2.110758304595947266e+00 4.580249309539794922e+00 9.298995971679687500e+00 4.163773536682128906e+00 -6.367367267608642578e+00
2.580000000000000000e+02 6.996102142333984375e+01 2.668148279190063477e+00 5.122660636901855469e+00 1.423469924926757812e+01 5.807208061218261719e+00 -7.277307033538818359e+00
2.590000000000000000e+02 6.872530364990234375e+01 4.427155971527099609e+00 3.412017345428466797e+00 1.516470718383789062e+01 5.573017597198486328e+00 -2.875997066497802734e+00
2.600000000000000000e+02 6.691691589355468750e+01 6.954417705535888672e+00 1.111612096428871155e-01 1.401278877258300781e+01 4.237185001373291016e+00 -4.630130529403686523e-01
2.610000000000000000e+02 6.493015289306640625e+01 8.711766242980957031e+00 3.566941738128662109e+00 1.438965988159179688e+01 5.386980533599853516e+00 6.739830970764160156e+00
2.620000000000000000e+02 6.400457000732421875e+01 7.382511138916015625e+00 2.746926307678222656e+00 7.966066360473632812e+00 3.213897943496704102e+00 4.502479553222656250e+00
2.630000000000000000e+02 6.356163787841796875e+01 6.713104724884033203e+00 2.338991165161132812e+00 6.497713088989257812e+00 2.651011228561401367e+00 3.900868177413940430e+00
2.640000000000000000e+02 6.262198257446289062e+01 5.307346343994140625e+00 2.423376083374023438e+00 5.215552330017089844e+00 2.291678428649902344e+00 3.405616998672485352e+00
2.650000000000000000e+02 6.353631591796875000e+01 3.971190929412841797e+00 1.713909983634948730e+00 6.032636165618896484e+00 2.323963880538940430e+00 2.897354125976562500e+00
2.660000000000000000e+02 6.655398559570312500e+01 2.245920896530151367e+00 1.595744729042053223e+00 7.558417320251464844e+00 2.746248483657836914e+00 1.456408262252807617e+00
2.670000000000000000e+02 6.515963745117187500e+01 -1.612056493759155273e-01 -1.167449951171875000e+00 4.088765144348144531e+00 8.763945102691650391e-01 3.834160089492797852e+00
2.680000000000000000e+02 6.472991180419921875e+01 -2.375932931900024414e+00 -5.792892456054687500e+00 3.197063207626342773e+00 -7.787488102912902832e-01 3.576986551284790039e+00
2.690000000000000000e+02 6.697167968750000000e+01 -1.880192279815673828e+00 -4.589359283447265625e+00 2.350613355636596680e+00 -6.716237068176269531e-01 -2.762518227100372314e-01
2.700000000000000000e+02 6.909767150878906250e+01 -5.772883415222167969e+00 7.197110652923583984e-01 2.106005430221557617e+00 8.477149605751037598e-01 -1.315820455551147461e+00
2.710000000000000000e+02 7.119740295410156250e+01 -7.037182331085205078e+00 1.003710985183715820e+00 6.896779060363769531e+00 2.370146989822387695e+00 -2.593266487121582031e+00
2.720000000000000000e+02 7.225283813476562500e+01 -8.594249725341796875e+00 1.731423854827880859e+00 1.066851234436035156e+01 3.719980716705322266e+00 -1.808786153793334961e+00
2.730000000000000000e+02 7.191314697265625000e+01 -9.629261016845703125e+00 1.641536593437194824e+00 1.433894729614257812e+01 4.794145107269287109e+00 -2.952122211456298828e+00
2.740000000000000000e+02 7.281224060058593750e+01 -1.197939777374267578e+01 5.479799509048461914e-01 1.308781051635742188e+01 4.090737342834472656e+00 -2.905877232551574707e-01
2.750000000000000000e+02 7.287313079833984375e+01 -1.348532581329345703e+01 1.306055665016174316e+00 1.218200588226318359e+01 4.046418190002441406e+00 9.576934576034545898e-01
2.760000000000000000e+02 7.218821716308593750e+01 -1.520506286621093750e+01 9.075383543968200684e-01 1.110355091094970703e+01 3.603326797485351562e+00 1.494995832443237305e+00
2.770000000000000000e+02 7.335055541992187500e+01 -1.583843612670898438e+01 -4.381809532642364502e-01 9.983810424804687500e+00 2.863688945770263672e+00 -2.645456194877624512e-01
2.780000000000000000e+02 7.450984191894531250e+01 -1.634043884277343750e+01 -6.176496148109436035e-01 9.361437797546386719e+00 2.623136520385742188e+00 -5.948023796081542969e-01
2.790000000000000000e+02 7.368982696533203125e+01 -1.671931266784667969e+01 -1.511042118072509766e+00 9.164412498474121094e+00 2.296011209487915039e+00 -4.909440875053405762e-02
2.800000000000000000e+02 7.389527130126953125e+01 -1.762112426757812500e+01 -1.438436031341552734e+00 8.692502021789550781e+00 2.176219940185546875e+00 3.522646725177764893e-01
2.810000000000000000e+02 7.422393798828125000e+01 -1.900099945068359375e+01 -1.115194082260131836e+00 7.915413856506347656e+00 2.040066003799438477e+00 6.432849168777465820e-01
2.820000000000000000e+02 7.616813659667968750e+01 -2.026673889160156250e+01 -5.339445471763610840e-01 8.290581703186035156e+00 2.326991081237792969e+00 2.108427584171295166e-01
2.830000000000000000e+02 7.791287994384765625e+01 -2.200874710083007812e+01 -1.209426447749137878e-01 8.685772895812988281e+00 2.569449186325073242e+00 1.996992528438568115e-01
2.840000000000000000e+02 7.958188629150390625e+01 -2.285425949096679688e+01 -1.374913286417722702e-02 9.451346397399902344e+00 2.831279039382934570e+00 4.744029790163040161e-02
2.850000000000000000e+02 7.874596405029296875e+01 -2.366355133056640625e+01 -3.144121170043945312e-02 8.881223678588867188e+00 2.654934644699096680e+00 1.981873959302902222e-01
2.860000000000000000e+02 7.958371734619140625e+01 -2.204880714416503906e+01 -9.114228188991546631e-03 9.553109169006347656e+00 2.863198280334472656e+00 2.518990077078342438e-02
2.870000000000000000e+02 7.874947357177734375e+01 -2.203628540039062500e+01 -6.626092642545700073e-02 9.090194702148437500e+00 2.707180261611938477e+00 1.120537966489791870e-01
2.880000000000000000e+02 7.804225158691406250e+01 -1.954850196838378906e+01 -2.084829658269882202e-01 8.915278434753417969e+00 2.612038612365722656e+00 -1.641414761543273926e-01
2.890000000000000000e+02 7.568177795410156250e+01 -1.641043281555175781e+01 -3.194420337677001953e-01 9.065958976745605469e+00 2.623955011367797852e+00 -8.056744933128356934e-01
2.900000000000000000e+02 7.523238372802734375e+01 -1.955157089233398438e+01 -8.416496515274047852e-01 8.149377822875976562e+00 2.192318439483642578e+00 3.381138145923614502e-01
2.910000000000000000e+02 7.598234558105468750e+01 -1.952625656127929688e+01 -6.892552971839904785e-01 8.408555984497070312e+00 2.315790176391601562e+00 6.305027008056640625e-02
2.920000000000000000e+02 6.832171630859375000e+01 -1.501212692260742188e+01 -1.830981254577636719e+00 -1.121941804885864258e+00 -8.858768939971923828e-01 1.708069205284118652e+00
2.930000000000000000e+02 6.727445983886718750e+01 -1.387234687805175781e+01 -1.042033314704895020e+00 -3.403248190879821777e-01 -4.147074520587921143e-01 8.038466572761535645e-01
2.940000000000000000e+02 6.673674011230468750e+01 -1.330103874206542969e+01 -7.826210856437683105e-01 5.834545940160751343e-02 -2.172826826572418213e-01 3.061444759368896484e-01
2.950000000000000000e+02 6.499578094482421875e+01 -1.257299518585205078e+01 -5.436409115791320801e-01 2.910974979400634766e+00 7.102002501487731934e-01 -5.424476265907287598e-01
2.960000000000000000e+02 6.375748062133789062e+01 -1.233310890197753906e+01 -8.407210707664489746e-01 4.726061344146728516e+00 1.165602207183837891e+00 -1.226728484034538269e-01
2.970000000000000000e+02 6.257286071777343750e+01 -1.188117408752441406e+01 -7.691757678985595703e-01 5.624501228332519531e+00 1.456597566604614258e+00 5.341612100601196289e-01
2.980000000000000000e+02 6.184002685546875000e+01 -1.223080730438232422e+01 -9.270651340484619141e-01 5.526176452636718750e+00 1.379733324050903320e+00 8.704665899276733398e-01
2.990000000000000000e+02 6.271765518188476562e+01 -1.434379959106445312e+01 -1.259887814521789551e+00 4.493454933166503906e+00 9.700700640678405762e-01 2.330268323421478271e-01
3.000000000000000000e+02 6.099211883544921875e+01 -1.653945732116699219e+01 -6.566076874732971191e-01 4.303346633911132812e+00 1.094021797180175781e+00 2.153943628072738647e-01
3.010000000000000000e+02 6.132183837890625000e+01 -1.490432262420654297e+01 -9.719759225845336914e-01 4.657139301300048828e+00 1.105548977851867676e+00 5.444602966308593750e-01
3.020000000000000000e+02 6.356337356567382812e+01 -1.563394927978515625e+01 -1.360016107559204102e+00 3.847272872924804688e+00 7.461770176887512207e-01 -2.082817852497100830e-01
3.030000000000000000e+02 6.306866836547851562e+01 -1.503006839752197266e+01 -1.397115826606750488e+00 4.147784233093261719e+00 8.252004981040954590e-01 3.972948342561721802e-02
3.040000000000000000e+02 6.380913543701171875e+01 -1.354902744293212891e+01 -1.260618925094604492e+00 4.204446792602539062e+00 8.831483721733093262e-01 -2.913261763751506805e-02
3.050000000000000000e+02 6.315013885498046875e+01 -1.339943408966064453e+01 -1.208114743232727051e+00 4.626616477966308594e+00 1.025550603866577148e+00 1.942614167928695679e-01
3.060000000000000000e+02 6.244514083862304688e+01 -1.366331386566162109e+01 -1.285265326499938965e+00 4.898384571075439453e+00 1.083935856819152832e+00 4.422110021114349365e-01
3.070000000000000000e+02 6.879865264892578125e+01 -1.560718822479248047e+01 -4.542710304260253906e+00 -1.732962131500244141e+00 -1.882701635360717773e+00 2.077707529067993164e+00
3.080000000000000000e+02 6.781345367431640625e+01 -1.443298912048339844e+01 -1.694756507873535156e+00 -7.616940140724182129e-01 -7.369351387023925781e-01 1.044587850570678711e+00
3.090000000000000000e+02 6.512463378906250000e+01 -1.157129001617431641e+01 6.242962479591369629e-01 2.656742334365844727e+00 9.843115806579589844e-01 -1.215453386306762695e+00
3.100000000000000000e+02 6.338449096679687500e+01 -5.551062107086181641e+00 4.262106120586395264e-01 1.424129867553710938e+01 4.400252819061279297e+00 2.135059684514999390e-01
3.110000000000000000e+02 6.115087890625000000e+01 -4.044402122497558594e+00 1.586145758628845215e+00 7.137408733367919922e+00 2.617066383361816406e+00 1.143913388252258301e+00
3.120000000000000000e+02 5.950492477416992188e+01 -1.453015089035034180e+00 -7.906682491302490234e-01 3.747727394104003906e+00 8.871178030967712402e-01 1.024458527565002441e+00
3.130000000000000000e+02 5.804876708984375000e+01 7.725114822387695312e-01 -2.728581190109252930e+00 5.126678943634033203e-01 -6.647739410400390625e-01 1.650994867086410522e-01
3.140000000000000000e+02 5.828683471679687500e+01 1.651169776916503906e+00 -2.560868501663208008e+00 -1.962518543004989624e-01 -8.271360993385314941e-01 -8.197682499885559082e-01
3.150000000000000000e+02 5.756192779541015625e+01 1.263607740402221680e+00 -3.930780649185180664e+00 -3.942285478115081787e-01 -1.297502756118774414e+00 -1.065406084060668945e+00
3.160000000000000000e+02 6.276891708374023438e+01 -6.464570999145507812e+00 6.710119247436523438e-01 1.137427520751953125e+01 3.613586187362670898e+00 4.484914243221282959e-01
3.170000000000000000e+02 6.333280944824218750e+01 -3.915488243103027344e+00 2.362692832946777344e+00 1.639961814880371094e+01 5.628693103790283203e+00 3.098774433135986328e+00
3.180000000000000000e+02 6.389327239990234375e+01 -2.319265127182006836e+00 -2.542970657348632812e+00 8.644858360290527344e+00 1.830566406250000000e+00 3.736204862594604492e+00
3.190000000000000000e+02 6.420867156982421875e+01 -8.437359333038330078e-01 -2.557625055313110352e+00 5.233843326568603516e+00 8.028655052185058594e-01 5.363589286804199219e+00
3.200000000000000000e+02 6.365455627441406250e+01 -5.336973667144775391e-01 -3.254519224166870117e+00 6.706873416900634766e+00 1.035706281661987305e+00 4.813929080963134766e+00
3.210000000000000000e+02 6.329446792602539062e+01 1.860507011413574219e+00 -3.394179344177246094e-01 5.873534202575683594e+00 1.660234928131103516e+00 3.389042854309082031e+00
3.220000000000000000e+02 6.278166198730468750e+01 1.466820120811462402e+00 -9.824517965316772461e-01 5.917823791503906250e+00 1.480611562728881836e+00 3.335382223129272461e+00
3.230000000000000000e+02 6.182020568847656250e+01 1.304926395416259766e+00 -1.457352161407470703e+00 5.584236145019531250e+00 1.238065242767333984e+00 2.796493768692016602e+00
3.240000000000000000e+02 5.897251892089843750e+01 2.083751201629638672e+00 -1.182455182075500488e+00 3.839940428733825684e-01 -2.395383417606353760e-01 -1.873370110988616943e-01
3.250000000000000000e+02 6.301245117187500000e+01 -1.959164142608642578e+00 -2.894127845764160156e+00 1.079777240753173828e+01 2.371093511581420898e+00 2.760710477828979492e+00
3.260000000000000000e+02 6.402875518798828125e+01 -1.505034923553466797e+00 -5.181402683258056641e+00 7.014471530914306641e+00 5.499206781387329102e-01 5.158516883850097656e+00
3.270000000000000000e+02 7.276478576660156250e+01 9.443408012390136719e+00 -1.829017519950866699e+00 -2.145439013838768005e-02 -5.551415681838989258e-01 -1.423186302185058594e+00
3.280000000000000000e+02 7.399468994140625000e+01 9.241350173950195312e+00 1.139316439628601074e+00 2.140828609466552734e+00 9.840435385704040527e-01 -2.822528600692749023e+00
3.290000000000000000e+02 7.401455688476562500e+01 1.046596240997314453e+01 1.151504397392272949e+00 4.128471851348876953e+00 1.583992838859558105e+00 -3.378407478332519531e+00
3.300000000000000000e+02 7.423146820068359375e+01 1.165170669555664062e+01 1.023323416709899902e+00 5.170955657958984375e+00 1.858283638954162598e+00 -2.179067373275756836e+00
3.310000000000000000e+02 7.337575531005859375e+01 1.453831005096435547e+01 1.494823217391967773e+00 5.608476161956787109e+00 2.130989789962768555e+00 3.304831385612487793e-01
3.320000000000000000e+02 7.347090148925781250e+01 1.613879203796386719e+01 9.421955347061157227e-01 6.199741363525390625e+00 2.142580986022949219e+00 7.387852072715759277e-01
3.330000000000000000e+02 7.351374053955078125e+01 1.785226440429687500e+01 3.661906719207763672e-01 6.611402034759521484e+00 2.093277692794799805e+00 8.471709489822387695e-01
3.340000000000000000e+02 7.392893218994140625e+01 1.979226303100585938e+01 -2.616076730191707611e-02 6.707386493682861328e+00 2.004367828369140625e+00 7.228615880012512207e-01
3.350000000000000000e+02 7.364173126220703125e+01 2.279051399230957031e+01 -2.915678322315216064e-01 6.730019092559814453e+00 1.931535363197326660e+00 4.765512049198150635e-01
3.360000000000000000e+02 7.367606353759765625e+01 2.557291412353515625e+01 -2.775590717792510986e-01 6.611549854278564453e+00 1.900197267532348633e+00 2.714564204216003418e-01
3.370000000000000000e+02 7.321173858642578125e+01 2.755937194824218750e+01 -2.538598179817199707e-01 6.465692996978759766e+00 1.863550066947937012e+00 1.350398510694503784e-01
3.380000000000000000e+02 7.363414001464843750e+01 2.894317054748535156e+01 -1.944895237684249878e-01 6.461000919342041016e+00 1.879953503608703613e+00 9.476634860038757324e-02
3.390000000000000000e+02 7.365196228027343750e+01 3.058978080749511719e+01 -1.397606432437896729e-01 6.398359298706054688e+00 1.877579569816589355e+00 4.651499167084693909e-02
3.400000000000000000e+02 7.341945648193359375e+01 3.236756134033203125e+01 -9.311275184154510498e-02 6.309530258178710938e+00 1.864925265312194824e+00 -4.569751210510730743e-03
3.410000000000000000e+02 7.328192138671875000e+01 3.418210220336914062e+01 -5.905474349856376648e-02 6.211618423461914062e+00 1.845769047737121582e+00 -1.644472219049930573e-02
3.420000000000000000e+02 7.329529571533203125e+01 3.609002304077148438e+01 -2.591104060411453247e-02 6.196595668792724609e+00 1.851205468177795410e+00 -2.914850041270256042e-02
3.430000000000000000e+02 7.364140319824218750e+01 3.811433410644531250e+01 4.255555104464292526e-03 6.214454174041748047e+00 1.865612864494323730e+00 -1.629588007926940918e-02
3.440000000000000000e+02 7.479706573486328125e+01 4.026844406127929688e+01 1.779089495539665222e-02 6.490766048431396484e+00 1.952567100524902344e+00 7.422620430588722229e-03
3.450000000000000000e+02 7.196398162841796875e+01 4.118323135375976562e+01 3.423824906349182129e-02 5.948707580566406250e+00 1.794883728027343750e+00 -2.926173061132431030e-02
3.460000000000000000e+02 7.124823760986328125e+01 3.629003143310546875e+01 -1.631114259362220764e-02 5.737118721008300781e+00 1.716242194175720215e+00 -7.809704542160034180e-02
3.470000000000000000e+02 7.151305389404296875e+01 3.417891693115234375e+01 -6.007925048470497131e-02 5.867781162261962891e+00 1.742310523986816406e+00 -9.150379151105880737e-02
3.480000000000000000e+02 7.228445434570312500e+01 3.060046195983886719e+01 -1.816116273403167725e-01 6.182166099548339844e+00 1.800166368484497070e+00 -1.704630628228187561e-02
3.490000000000000000e+02 7.155181884765625000e+01 2.900772476196289062e+01 -2.699776887893676758e-01 6.161176681518554688e+00 1.767359733581542969e+00 -2.838413044810295105e-02
3.500000000000000000e+02 7.069305419921875000e+01 2.841541290283203125e+01 -3.205583989620208740e-01 6.065163612365722656e+00 1.723381519317626953e+00 -7.598470151424407959e-02
3.510000000000000000e+02 7.256795501708984375e+01 2.639030838012695312e+01 -3.352571725845336914e-01 6.481178283691406250e+00 1.843776345252990723e+00 1.605297178030014038e-01
3.520000000000000000e+02 7.291439819335937500e+01 2.444573593139648438e+01 -3.648778796195983887e-01 6.657361507415771484e+00 1.887745022773742676e+00 3.278336822986602783e-01
3.530000000000000000e+02 7.292765808105468750e+01 2.255413627624511719e+01 -3.386350274085998535e-01 6.757585048675537109e+00 1.925685048103332520e+00 4.840938746929168701e-01
3.540000000000000000e+02 7.105327606201171875e+01 2.098025894165039062e+01 -4.557808637619018555e-01 7.016755104064941406e+00 1.968292236328125000e+00 4.891580641269683838e-01
3.550000000000000000e+02 7.267041015625000000e+01 1.925520133972167969e+01 -3.548660874366760254e-02 6.902537822723388672e+00 2.060115337371826172e+00 8.086013793945312500e-01
3.560000000000000000e+02 7.169441223144531250e+01 1.761966705322265625e+01 2.895427942276000977e-01 7.154470920562744141e+00 2.233204126358032227e+00 1.091365218162536621e+00
3.570000000000000000e+02 7.267928314208984375e+01 1.547935295104980469e+01 1.316954612731933594e+00 6.151742458343505859e+00 2.240609169006347656e+00 8.922793269157409668e-01
3.580000000000000000e+02 7.252053070068359375e+01 1.299373531341552734e+01 2.283354997634887695e+00 4.733738899230957031e+00 2.105128288269042969e+00 2.196444272994995117e-01
3.590000000000000000e+02 7.223615264892578125e+01 1.136734962463378906e+01 2.498578786849975586e+00 2.770247220993041992e+00 1.580647826194763184e+00 -2.027402669191360474e-01
3.600000000000000000e+02 7.286689758300781250e+01 1.073676776885986328e+01 1.791621327400207520e+00 1.908442139625549316e+00 1.110019087791442871e+00 -1.725831866264343262e+00
3.610000000000000000e+02 7.140713500976562500e+01 8.884131431579589844e+00 -2.534894704818725586e+00 -1.349447760730981827e-02 -7.645167112350463867e-01 -9.675856232643127441e-01
3.620000000000000000e+02 7.461354064941406250e+01 8.815478324890136719e+00 4.402202129364013672e+00 5.950770854949951172e+00 3.105891704559326172e+00 -4.436130523681640625e+00
3.630000000000000000e+02 7.559564208984375000e+01 8.856694221496582031e+00 1.291541457176208496e+00 1.173352241516113281e+01 3.907519102096557617e+00 -3.018038988113403320e+00
3.640000000000000000e+02 7.564521026611328125e+01 1.076375007629394531e+01 -4.688600599765777588e-01 7.943962097167968750e+00 2.242530584335327148e+00 -1.906874418258666992e+00
3.650000000000000000e+02 7.600483703613281250e+01 1.173994255065917969e+01 -2.598298788070678711e-01 7.090708255767822266e+00 2.049263477325439453e+00 -1.129956007003784180e+00
3.660000000000000000e+02 7.563565826416015625e+01 1.421851921081542969e+01 5.121564865112304688e-01 5.977175235748291016e+00 1.946799635887145996e+00 -2.914756536483764648e-01
3.670000000000000000e+02 7.469239807128906250e+01 1.517349910736083984e+01 8.731514811515808105e-01 5.871159076690673828e+00 2.023293256759643555e+00 1.871745884418487549e-01
3.680000000000000000e+02 7.584038543701171875e+01 1.707319068908691406e+01 3.361736834049224854e-01 6.158855438232421875e+00 1.948508739471435547e+00 4.225433766841888428e-01
3.690000000000000000e+02 7.549581146240234375e+01 1.894498825073242188e+01 1.448803246021270752e-01 6.404205322265625000e+00 1.964725732803344727e+00 6.096953153610229492e-01
3.700000000000000000e+02 7.600276947021484375e+01 2.149617958068847656e+01 -7.001766562461853027e-02 6.586379528045654297e+00 1.954908490180969238e+00 5.354529023170471191e-01
3.710000000000000000e+02 7.595523071289062500e+01 2.327663040161132812e+01 -1.299488097429275513e-01 6.680016040802001953e+00 1.965020179748535156e+00 4.457156062126159668e-01
3.720000000000000000e+02 7.589105224609375000e+01 2.406091880798339844e+01 -1.531832069158554077e-01 6.703384876251220703e+00 1.965060472488403320e+00 4.056630432605743408e-01
3.730000000000000000e+02 7.607815551757812500e+01 2.703497505187988281e+01 -1.352803558111190796e-01 6.773174762725830078e+00 1.991368293762207031e+00 2.273831516504287720e-01
3.740000000000000000e+02 7.623639678955078125e+01 2.861476707458496094e+01 -9.846927970647811890e-02 6.800592422485351562e+00 2.010637044906616211e+00 1.487376689910888672e-01
3.750000000000000000e+02 7.500366973876953125e+01 3.071429634094238281e+01 -9.641817212104797363e-02 6.608084201812744141e+00 1.953499794006347656e+00 7.054056972265243530e-02
3.760000000000000000e+02 7.485816955566406250e+01 3.234031677246093750e+01 -7.694295793771743774e-02 6.550755500793457031e+00 1.942143797874450684e+00 3.283941373229026794e-02
3.770000000000000000e+02 7.497203826904296875e+01 3.400075149536132812e+01 -4.989176243543624878e-02 6.579342365264892578e+00 1.958835244178771973e+00 9.884615428745746613e-03
3.780000000000000000e+02 7.510765838623046875e+01 3.573874664306640625e+01 -2.232502773404121399e-02 6.577554225921630859e+00 1.966568827629089355e+00 5.022390279918909073e-03
3.790000000000000000e+02 7.532039642333984375e+01 3.744313812255859375e+01 -1.912220008671283722e-02 6.654566764831542969e+00 1.990633368492126465e+00 1.650900952517986298e-02
3.800000000000000000e+02 7.602082061767578125e+01 3.890439987182617188e+01 1.055129244923591614e-02 6.816998481750488281e+00 2.048264980316162109e+00 -2.589240670204162598e-02
3.810000000000000000e+02 7.729879760742187500e+01 7.860778331756591797e+00 2.264852523803710938e+00 1.040410518646240234e+01 3.800687313079833984e+00 -7.545652389526367188e-01
3.820000000000000000e+02 7.963876342773437500e+01 6.002210617065429688e+00 -8.329972624778747559e-02 4.504795551300048828e+00 1.326448678970336914e+00 -5.147663950920104980e-01
3.830000000000000000e+02 7.961360168457031250e+01 6.798742771148681641e+00 2.494544982910156250e-01 3.638313293457031250e+00 1.166330337524414062e+00 -3.233475685119628906e-01
3.840000000000000000e+02 7.892440032958984375e+01 5.958913803100585938e+00 4.471882283687591553e-01 6.547504425048828125e+00 2.098407745361328125e+00 -1.382463932037353516e+00
3.850000000000000000e+02 7.872750854492187500e+01 9.198163032531738281e+00 1.458295881748199463e-01 5.923069477081298828e+00 1.820669770240783691e+00 5.444931983947753906e-01
3.860000000000000000e+02 7.782147216796875000e+01 1.018026924133300781e+01 -3.150673508644104004e-01 7.354285717010498047e+00 2.111765384674072266e+00 2.313414365053176880e-01
3.870000000000000000e+02 7.758987426757812500e+01 8.487994194030761719e+00 9.244737029075622559e-01 8.563927650451660156e+00 2.846520423889160156e+00 1.436444222927093506e-01
3.880000000000000000e+02 7.707464599609375000e+01 8.788350105285644531e+00 6.183074116706848145e-01 9.953629493713378906e+00 3.171581029891967773e+00 -2.978044152259826660e-01
3.890000000000000000e+02 7.612948608398437500e+01 8.447149276733398438e+00 1.457041859626770020e+00 1.188182640075683594e+01 4.001660823822021484e+00 -1.305609822273254395e+00
3.900000000000000000e+02 7.597611236572265625e+01 6.605105400085449219e+00 1.868673563003540039e+00 1.910112571716308594e+01 6.290939807891845703e+00 -2.530275106430053711e+00
3.910000000000000000e+02 7.596009063720703125e+01 5.052503585815429688e+00 2.994408905506134033e-01 1.423083400726318359e+01 4.359082698822021484e+00 -8.442407846450805664e-01
3.920000000000000000e+02 7.534487915039062500e+01 2.740685224533081055e+00 -8.974031209945678711e-01 4.428334712982177734e+00 1.059279441833496094e+00 2.207938730716705322e-01
3.930000000000000000e+02 7.430678558349609375e+01 1.578389286994934082e+00 -5.295979022979736328e+00 -1.142486095428466797e+00 -1.931539535522460938e+00 -2.623863697052001953e+00
3.940000000000000000e+02 7.302302551269531250e+01 -1.906833797693252563e-01 -1.374313473701477051e+00 8.730197548866271973e-01 -1.503880918025970459e-01 -2.708600759506225586e+00
3.950000000000000000e+02 7.476614379882812500e+01 -6.048095226287841797e-01 -1.570225954055786133e+00 3.791529417037963867e+00 6.663910746574401855e-01 2.771954834461212158e-01
3.960000000000000000e+02 7.250012207031250000e+01 8.897121548652648926e-01 -5.571653842926025391e+00 -3.812654316425323486e-01 -1.785875797271728516e+00 -2.498026132583618164e+00
3.970000000000000000e+02 7.171453094482421875e+01 1.066727161407470703e+00 -1.802188754081726074e-01 3.730947494506835938e+00 1.065218567848205566e+00 -3.171665191650390625e+00
3.980000000000000000e+02 6.827581024169921875e+01 3.609747409820556641e+00 3.761870622634887695e+00 1.251849937438964844e+01 4.884110927581787109e+00 -1.662301540374755859e+00
3.990000000000000000e+02 6.966338348388671875e+01 5.839771747589111328e+00 5.539426803588867188e-01 1.374240779876708984e+01 4.288905143737792969e+00 1.715234398841857910e+00
4.000000000000000000e+02 6.989949035644531250e+01 6.844201087951660156e+00 3.985434174537658691e-01 8.977774620056152344e+00 2.812895536422729492e+00 1.361968278884887695e+00
4.010000000000000000e+02 7.059065246582031250e+01 8.059559822082519531e+00 -1.277075171470642090e+00 1.985446810722351074e+00 2.125114649534225464e-01 -6.904127448797225952e-02
4.020000000000000000e+02 7.065091705322265625e+01 8.727316856384277344e+00 -1.426806926727294922e+00 2.442599773406982422e+00 3.047378659248352051e-01 2.178186923265457153e-01
4.030000000000000000e+02 7.039828491210937500e+01 9.460050582885742188e+00 -9.996653534471988678e-03 4.805850505828857422e+00 1.438756108283996582e+00 1.103685855865478516e+00
4.040000000000000000e+02 6.985941314697265625e+01 8.719124794006347656e+00 -5.188640356063842773e-01 7.422617435455322266e+00 2.071125984191894531e+00 8.892872333526611328e-01
4.050000000000000000e+02 6.928915405273437500e+01 1.137174320220947266e+01 3.329306840896606445e+00 8.230940818786621094e+00 3.468074321746826172e+00 2.124894380569458008e+00
4.060000000000000000e+02 6.672592163085937500e+01 1.386549949645996094e+01 1.076922178268432617e+00 1.477629947662353516e+01 4.755966186523437500e+00 8.042480349540710449e-01
4.070000000000000000e+02 6.546374511718750000e+01 1.457250213623046875e+01 -6.932021975517272949e-01 1.151502895355224609e+01 3.246548175811767578e+00 -2.406048536300659180e+00
4.080000000000000000e+02 6.386762619018554688e+01 1.378209304809570312e+01 1.042050957679748535e+00 2.328049898147583008e+00 1.011030316352844238e+00 -2.512466192245483398e+00
4.090000000000000000e+02 6.455120086669921875e+01 1.343257331848144531e+01 4.939220428466796875e+00 4.965033054351806641e+00 2.971276044845581055e+00 -5.294867992401123047e+00
4.100000000000000000e+02 5.164941787719726562e+01 9.466691970825195312e+00 1.560639683157205582e-02 -1.545228529721498489e-02 4.623346831067465246e-05 5.842100363224744797e-04
4.110000000000000000e+02 4.964823150634765625e+01 9.584609031677246094e+00 1.931510679423809052e-02 2.745725028216838837e-02 1.403170730918645859e-02 2.185835689306259155e-02
4.120000000000000000e+02 5.086187362670898438e+01 8.734056472778320312e+00 1.526899356395006180e-02 -2.152008004486560822e-02 -1.875325920991599560e-03 4.438976291567087173e-03
4.130000000000000000e+02 4.880208587646484375e+01 8.120841026306152344e+00 2.304999344050884247e-02 3.746229037642478943e-02 1.815368607640266418e-02 3.291838243603706360e-02
4.140000000000000000e+02 4.716881179809570312e+01 6.152153491973876953e+00 -3.865461796522140503e-02 2.134672924876213074e-02 -5.192366894334554672e-03 -9.629765525460243225e-03
4.150000000000000000e+02 4.602342224121093750e+01 5.071338653564453125e+00 -1.148464903235435486e-01 -4.472630843520164490e-02 -4.787183925509452820e-02 -9.248576313257217407e-02
4.160000000000000000e+02 4.596560287475585938e+01 4.050774574279785156e+00 -3.252412676811218262e-01 -3.464135900139808655e-02 -1.079647913575172424e-01 -1.961017996072769165e-01
4.170000000000000000e+02 4.532424545288085938e+01 1.929382324218750000e+00 -8.774985074996948242e-01 8.958642184734344482e-02 -2.363736331462860107e-01 -2.935746312141418457e-01
4.180000000000000000e+02 4.451166152954101562e+01 3.275374412536621094e+00 -4.129422903060913086e-01 -3.293223381042480469e-01 -2.226793915033340454e-01 -3.520424962043762207e-01
4.190000000000000000e+02 4.288725662231445312e+01 1.384767532348632812e+00 -1.285215735435485840e+00 -5.652756094932556152e-01 -5.551474094390869141e-01 -8.260479569435119629e-01
4.200000000000000000e+02 4.089813995361328125e+01 5.772461742162704468e-02 -3.023947477340698242e+00 -7.840937376022338867e-01 -1.142412304878234863e+00 -1.182794809341430664e+00
4.210000000000000000e+02 4.196814727783203125e+01 -2.576198279857635498e-01 -1.948444008827209473e+00 -3.065679371356964111e-01 -6.765035986900329590e-01 -5.146586894989013672e-01
4.220000000000000000e+02 3.981243133544921875e+01 -3.041737973690032959e-01 -4.383007526397705078e+00 -7.455496191978454590e-01 -1.538567066192626953e+00 -8.595338463783264160e-02
4.230000000000000000e+02 3.841344833374023438e+01 3.192172944545745850e-01 -1.815260410308837891e+00 -8.124766945838928223e-01 -7.883211374282836914e-01 1.030639290809631348e+00
4.240000000000000000e+02 3.886985015869140625e+01 -7.295967936515808105e-01 -2.362838506698608398e+00 -6.164108514785766602e-01 -8.937748074531555176e-01 -1.478691250085830688e-01
4.250000000000000000e+02 3.374827194213867188e+01 9.596013277769088745e-02 -1.286747455596923828e+00 6.341170072555541992e-01 -1.957891583442687988e-01 -2.425532639026641846e-01
4.260000000000000000e+02 3.333809661865234375e+01 -5.360026955604553223e-01 -8.996495008468627930e-01 5.047941803932189941e-01 -1.184566095471382141e-01 -6.316604465246200562e-02
4.270000000000000000e+02 3.699282455444335938e+01 5.995734930038452148e-01 -1.149598836898803711e+00 3.452826142311096191e-01 -2.412948608398437500e-01 4.198541939258575439e-01
4.280000000000000000e+02 3.775109863281250000e+01 5.740895867347717285e-01 -1.278308629989624023e+00 -1.997400522232055664e-01 -4.434146285057067871e-01 6.481751203536987305e-01
4.290000000000000000e+02 3.734059906005859375e+01 3.390906572341918945e+00 -5.338136479258537292e-02 1.123368442058563232e-01 1.768664456903934479e-02 -2.344968542456626892e-02
4.300000000000000000e+02 3.803143310546875000e+01 3.072880506515502930e+00 1.688509620726108551e-02 2.167897671461105347e-01 7.010246068239212036e-02 4.949041083455085754e-02
4.310000000000000000e+02 3.681501388549804688e+01 5.383024215698242188e+00 -8.335833437740802765e-03 1.182515360414981842e-02 1.046796096488833427e-03 -7.038313150405883789e-02
4.320000000000000000e+02 3.745565414428710938e+01 5.147676944732666016e+00 -1.030259300023317337e-02 5.020967125892639160e-02 1.197212375700473785e-02 -5.763256922364234924e-02
4.330000000000000000e+02 3.637459945678710938e+01 6.291763782501220703e+00 2.268053963780403137e-02 -1.778175681829452515e-02 1.469634938985109329e-03 -5.361390486359596252e-02
4.340000000000000000e+02 3.592002105712890625e+01 4.855850219726562500e+00 -2.607194520533084869e-02 -1.580957695841789246e-02 -1.256445609033107758e-02 -8.203178644180297852e-02
4.350000000000000000e+02 3.587179565429687500e+01 3.431987762451171875e+00 -1.522672474384307861e-01 1.564525999128818512e-02 -4.098659381270408630e-02 -6.097048148512840271e-02
4.360000000000000000e+02 3.626580810546875000e+01 1.341438174247741699e+00 -7.842096090316772461e-01 3.363132476806640625e-01 -1.343689113855361938e-01 2.473804801702499390e-01
4.370000000000000000e+02 3.636808013916015625e+01 2.007841587066650391e+00 -5.805546641349792480e-01 1.745872050523757935e-01 -1.217902302742004395e-01 2.181579619646072388e-01
4.380000000000000000e+02 3.704134368896484375e+01 1.374876499176025391e+00 -7.610976099967956543e-01 1.487314105033874512e-01 -1.837098598480224609e-01 4.996244609355926514e-01
4.390000000000000000e+02 3.876266860961914062e+01 4.578476905822753906e+00 9.865718893706798553e-03 8.259918540716171265e-02 2.773947082459926605e-02 1.222907844930887222e-02
4.400000000000000000e+02 3.951865386962890625e+01 6.009887695312500000e+00 7.330025546252727509e-03 1.898269914090633392e-02 7.893817499279975891e-03 -2.166474936529994011e-03
4.410000000000000000e+02 3.913468933105468750e+01 5.298491001129150391e+00 -8.297117426991462708e-03 3.928319364786148071e-02 9.295823052525520325e-03 9.172078222036361694e-03
4.420000000000000000e+02 3.670478439331054688e+01 8.938110351562500000e+00 1.256282813847064972e-02 -3.999670967459678650e-03 2.568947151303291321e-03 -2.733781700953841209e-03
4.430000000000000000e+02 3.614796447753906250e+01 9.700075149536132812e+00 1.615233340999111533e-04 -1.631574146449565887e-02 -4.846265073865652084e-03 4.668107256293296814e-03
4.440000000000000000e+02 3.577319717407226562e+01 9.472687721252441406e+00 6.986671593040227890e-03 7.220041006803512573e-03 4.262013826519250870e-03 -2.263962989673018456e-03
4.450000000000000000e+02 3.612273406982421875e+01 9.098464012145996094e+00 1.902447454631328583e-02 -1.203529885970056057e-03 5.346283316612243652e-03 9.826937457546591759e-04
4.460000000000000000e+02 3.495689010620117188e+01 7.619078636169433594e+00 6.069723889231681824e-02 -2.308055572211742401e-02 1.128500420600175858e-02 2.190982922911643982e-03
4.470000000000000000e+02 3.470457077026367188e+01 8.346185684204101562e+00 4.231030493974685669e-02 7.840909063816070557e-03 1.504536438733339310e-02 1.554508693516254425e-02
4.480000000000000000e+02 3.403834533691406250e+01 7.889926910400390625e+00 6.965691596269607544e-02 1.079321186989545822e-02 2.413503825664520264e-02 3.528786823153495789e-02
4.490000000000000000e+02 3.279637145996093750e+01 6.957996368408203125e+00 1.526203602552413940e-01 4.218988865613937378e-02 5.844307690858840942e-02 8.715031296014785767e-02
4.500000000000000000e+02 2.976324844360351562e+01 4.528383731842041016e+00 6.947237253189086914e-01 2.946066856384277344e-01 2.967991232872009277e-01 4.432770311832427979e-01
4.510000000000000000e+02 2.915572547912597656e+01 4.040086746215820312e+00 8.440867662429809570e-01 3.484333753585815430e-01 3.577560484409332275e-01 5.508176684379577637e-01
4.520000000000000000e+02 3.013873291015625000e+01 4.054002761840820312e+00 5.688421130180358887e-01 8.338564075529575348e-03 1.731542050838470459e-01 2.275050878524780273e-01
4.530000000000000000e+02 2.795588302612304688e+01 3.169262647628784180e+00 8.991798758506774902e-01 3.747003376483917236e-01 3.821640610694885254e-01 5.809233784675598145e-01
4.540000000000000000e+02 2.381998443603515625e+01 2.057162284851074219e+00 9.457053989171981812e-02 1.413504243828356266e-03 2.879521436989307404e-02 3.290738537907600403e-02
4.550000000000000000e+02 2.270129394531250000e+01 3.699789941310882568e-01 -3.440375439822673798e-04 5.854961648583412170e-02 1.746167242527008057e-02 4.976741224527359009e-02
4.560000000000000000e+02 2.542306137084960938e+01 -9.830057024955749512e-01 -2.311837077140808105e-01 1.141224279999732971e-01 -3.511838614940643311e-02 -7.924826443195343018e-02
4.570000000000000000e+02 2.492178916931152344e+01 -2.027051448822021484e+00 -1.079468056559562683e-01 6.295375525951385498e-03 -3.049542941153049469e-02 -1.118137463927268982e-01
4.580000000000000000e+02 2.799696731567382812e+01 -2.068684577941894531e+00 -4.208391308784484863e-01 -2.307920753955841064e-01 -1.954893618822097778e-01 -7.039801478385925293e-01
4.590000000000000000e+02 2.945487403869628906e+01 -1.662676453590393066e+00 -8.338393568992614746e-01 -8.075301051139831543e-01 -4.924108386039733887e-01 -1.068716526031494141e+00
4.600000000000000000e+02 2.889583587646484375e+01 -7.913553118705749512e-01 -1.364509463310241699e+00 -1.783954650163650513e-01 -4.628714919090270996e-01 -4.815655648708343506e-01
4.610000000000000000e+02 2.931848716735839844e+01 -1.082751274108886719e+00 -1.491172075271606445e+00 -5.359642505645751953e-01 -6.081408858299255371e-01 -8.578369617462158203e-01
4.620000000000000000e+02 2.938092041015625000e+01 3.019467294216156006e-01 -1.209205627441406250e+00 -3.611916303634643555e-01 -4.711191654205322266e-01 -1.771233528852462769e-01
4.630000000000000000e+02 2.266329193115234375e+01 2.138421773910522461e+00 2.619121782481670380e-02 7.096899673342704773e-03 9.986435063183307648e-03 1.352766249328851700e-02
4.640000000000000000e+02 2.096562576293945312e+01 1.459829092025756836e+00 -2.269340213388204575e-03 4.201077390462160110e-03 5.795211181975901127e-04 -4.895883612334728241e-04
4.650000000000000000e+02 1.888634109497070312e+01 2.162320613861083984e+00 -6.914062541909515858e-04 3.427480580285191536e-03 8.208223152905702591e-04 2.744046971201896667e-03
4.660000000000000000e+02 1.951445007324218750e+01 1.887833595275878906e+00 4.812309052795171738e-03 -4.747204482555389404e-03 1.953139872057363391e-05 1.356245949864387512e-03
4.670000000000000000e+02 2.003557395935058594e+01 8.600628376007080078e-01 5.709254764951765537e-04 1.754819764755666256e-03 6.977235316298902035e-04 7.968346588313579559e-03
4.680000000000000000e+02 2.164442253112792969e+01 -1.060626029968261719e+00 -4.338875878602266312e-03 4.704404622316360474e-02 1.281155087053775787e-02 -2.368113026022911072e-02
4.690000000000000000e+02 2.210534858703613281e+01 -6.489164233207702637e-01 -1.676984131336212158e-02 7.999404519796371460e-02 1.896725967526435852e-02 8.179060183465480804e-03
4.700000000000000000e+02 2.213852310180664062e+01 -1.673585534095764160e+00 2.269988320767879486e-02 9.517802298069000244e-02 3.536337241530418396e-02 -3.738005086779594421e-02
4.710000000000000000e+02 2.262267875671386719e+01 -2.297350168228149414e+00 2.979481592774391174e-02 1.285130530595779419e-01 4.749236255884170532e-02 -8.119827508926391602e-02
4.720000000000000000e+02 2.359686470031738281e+01 -3.556559324264526367e+00 7.413909584283828735e-02 1.382826417684555054e-01 6.372652202844619751e-02 -1.258195638656616211e-01
4.730000000000000000e+02 2.408307456970214844e+01 -4.197813510894775391e+00 9.142642468214035034e-02 8.051102049648761749e-03 2.984325774013996124e-02 -1.040230244398117065e-01
4.740000000000000000e+02 2.500908088684082031e+01 -5.613180160522460938e+00 1.492824126034975052e-02 -8.123392462730407715e-01 -2.392233163118362427e-01 -2.461376972496509552e-02
4.750000000000000000e+02 2.691692352294921875e+01 -6.582849979400634766e+00 -1.424451638013124466e-02 -9.534116387367248535e-01 -2.902968525886535645e-01 -6.600790619850158691e-01
4.760000000000000000e+02 2.961948966979980469e+01 -1.054870605468750000e+01 -2.341831028461456299e-01 1.746430546045303345e-01 -1.786201633512973785e-02 5.796233564615249634e-02
4.770000000000000000e+02 3.052964591979980469e+01 -1.142434120178222656e+01 -1.675935387611389160e-01 3.365875184535980225e-01 5.069819465279579163e-02 7.031317800283432007e-02
4.780000000000000000e+02 3.296174240112304688e+01 -1.343369483947753906e+01 -1.743242442607879639e-01 4.455278515815734863e-01 8.136107772588729858e-02 -3.767394647002220154e-02
4.790000000000000000e+02 3.344622421264648438e+01 -1.511193943023681641e+01 -3.245265781879425049e-01 3.560871481895446777e-01 9.468171745538711548e-03 -2.244286797940731049e-02
4.800000000000000000e+02 3.590625000000000000e+01 -1.718981170654296875e+01 -6.176829934120178223e-01 2.963720262050628662e-01 -9.639329463243484497e-02 -1.531576812267303467e-01
4.810000000000000000e+02 3.693957901000976562e+01 -1.971580505371093750e+01 -4.302674531936645508e-01 7.825186848640441895e-02 -1.056046709418296814e-01 -3.393923342227935791e-01
4.820000000000000000e+02 3.770837402343750000e+01 -1.838778877258300781e+01 -6.494662761688232422e-01 4.928601160645484924e-02 -1.800540834665298462e-01 -3.365688621997833252e-01
4.830000000000000000e+02 3.653855514526367188e+01 -1.779690933227539062e+01 -6.020404696464538574e-01 2.005182653665542603e-01 -1.204566657543182373e-01 -2.795699834823608398e-01
4.840000000000000000e+02 3.770763778686523438e+01 -1.621270179748535156e+01 -6.617374420166015625e-01 1.619586497545242310e-01 -1.499336361885070801e-01 3.268006071448326111e-02
4.850000000000000000e+02 2.526326370239257812e+01 -6.448016643524169922e+00 -2.694045193493366241e-02 -1.376319289207458496e+00 -4.209779202938079834e-01 -6.630617380142211914e-02
4.860000000000000000e+02 2.613868331909179688e+01 -7.261310100555419922e+00 -1.551630347967147827e-01 -1.580569028854370117e+00 -5.207196474075317383e-01 -5.651896595954895020e-01
4.870000000000000000e+02 2.693292808532714844e+01 -7.265698909759521484e+00 -3.580695092678070068e-01 -7.806940078735351562e-01 -3.416290581226348877e-01 -6.445045471191406250e-01
4.880000000000000000e+02 2.687933921813964844e+01 -1.051381301879882812e+01 -5.286244153976440430e-01 -7.053851485252380371e-01 -3.702028691768646240e-01 5.593077838420867920e-02
4.890000000000000000e+02 2.805449295043945312e+01 -1.093150329589843750e+01 -3.644187450408935547e-01 -3.030815422534942627e-01 -2.002500891685485840e-01 1.393949538469314575e-01
4.900000000000000000e+02 3.032120132446289062e+01 -1.302152919769287109e+01 -2.261133491992950439e-01 1.932170838117599487e-01 -9.868882596492767334e-03 1.365202367305755615e-01
4.910000000000000000e+02 3.284777450561523438e+01 -1.579250431060791016e+01 -3.279114961624145508e-01 3.088193535804748535e-01 -5.727644544094800949e-03 1.939740846864879131e-03
4.920000000000000000e+02 3.348098373413085938e+01 -1.755797576904296875e+01 -4.341086149215698242e-01 2.818983793258666992e-01 -4.566306993365287781e-02 -9.795919805765151978e-02
4.930000000000000000e+02 3.465027618408203125e+01 -1.869001960754394531e+01 -4.539022147655487061e-01 2.371884584426879883e-01 -6.501412391662597656e-02 -2.047148197889328003e-01
4.940000000000000000e+02 3.691600799560546875e+01 -2.101070404052734375e+01 -2.810690402984619141e-01 5.487249791622161865e-02 -6.785895675420761108e-02 -3.474559783935546875e-01
4.950000000000000000e+02 3.639755249023437500e+01 -1.907134628295898438e+01 -4.979487657546997070e-01 1.488451957702636719e-01 -1.047310754656791687e-01 -3.304330706596374512e-01
4.960000000000000000e+02 2.539289665222167969e+01 -8.082530021667480469e+00 -4.207665622234344482e-01 -2.631682634353637695e+00 -9.157347679138183594e-01 -5.028834342956542969e-01
4.970000000000000000e+02 2.622697067260742188e+01 -8.024732589721679688e+00 -7.369750738143920898e-01 -1.207668900489807129e+00 -5.833932161331176758e-01 -7.279904484748840332e-01
4.980000000000000000e+02 2.500210189819335938e+01 -9.117613792419433594e+00 -1.786486029624938965e+00 -2.318745136260986328e+00 -1.231569409370422363e+00 -1.150091409683227539e+00
4.990000000000000000e+02 2.313632202148437500e+01 -9.088096618652343750e+00 -6.536400318145751953e-01 1.957760564982891083e-02 -1.902187168598175049e-01 1.339112073183059692e-01
5.000000000000000000e+02 2.242805671691894531e+01 -8.718217849731445312e+00 -3.719017505645751953e-01 -5.912657454609870911e-02 -1.293084919452667236e-01 4.827135428786277771e-02
5.010000000000000000e+02 2.206960296630859375e+01 -9.463560104370117188e+00 -5.454500913619995117e-01 1.955263316631317139e-02 -1.577692329883575439e-01 9.150085039436817169e-03
5.020000000000000000e+02 2.172713279724121094e+01 -8.332755088806152344e+00 -1.937516480684280396e-01 1.807709690183401108e-03 -5.758317932486534119e-02 7.141764461994171143e-02
5.030000000000000000e+02 1.974520874023437500e+01 -6.811445713043212891e+00 -2.634748816490173340e-02 1.401898730546236038e-02 -3.698550397530198097e-03 -1.334904693067073822e-02
5.040000000000000000e+02 1.752417182922363281e+01 -5.440582275390625000e+00 -2.758372575044631958e-03 1.068282313644886017e-02 2.377335214987397194e-03 -1.405856478959321976e-02
5.050000000000000000e+02 1.760936546325683594e+01 -4.401111602783203125e+00 2.189640514552593231e-02 2.311879582703113556e-02 1.350456010550260544e-02 -3.008140437304973602e-02
5.060000000000000000e+02 1.603735542297363281e+01 -2.666582584381103516e+00 2.350834198296070099e-02 2.847173251211643219e-02 1.559402234852313995e-02 -1.675656624138355255e-02
5.070000000000000000e+02 1.499164581298828125e+01 -1.904743432998657227e+00 1.319650840014219284e-02 7.195829413831233978e-03 6.117701530456542969e-03 -1.263310201466083527e-02
5.080000000000000000e+02 1.265266513824462891e+01 -1.981127500534057617e+00 1.597786508500576019e-02 -5.236503202468156815e-03 3.222408704459667206e-03 -7.601981051266193390e-03
5.090000000000000000e+02 1.037838172912597656e+01 -1.917350411415100098e+00 1.494568120688199997e-02 -3.275302937254309654e-03 3.501113504171371460e-03 1.206540851853787899e-03
5.100000000000000000e+02 8.961000442504882812e+00 -3.459739446640014648e+00 2.988769207149744034e-03 -5.148915108293294907e-03 -6.480437587015330791e-04 4.166916944086551666e-03
5.110000000000000000e+02 7.014114379882812500e+00 -2.670141458511352539e+00 8.024154230952262878e-03 -2.468744060024619102e-03 1.666622934862971306e-03 6.391082424670457840e-03
5.120000000000000000e+02 6.293083667755126953e+00 -2.348784208297729492e+00 8.147724904119968414e-03 -1.168364775367081165e-03 2.093808259814977646e-03 5.823917221277952194e-03
5.130000000000000000e+02 5.676651954650878906e+00 -2.472923994064331055e+00 8.158473297953605652e-03 1.454702694900333881e-03 2.883952576667070389e-03 6.723303813487291336e-03
5.140000000000000000e+02 5.622296333312988281e+00 -3.128868103027343750e+00 4.247028846293687820e-03 1.359619316644966602e-03 1.681994413956999779e-03 7.680595852434635162e-03
5.150000000000000000e+02 6.374838352203369141e+00 -4.435995578765869141e+00 -3.622430376708507538e-03 -3.417741274461150169e-03 -2.112051472067832947e-03 6.135836243629455566e-03
5.160000000000000000e+02 5.587348461151123047e+00 -6.137669086456298828e+00 -7.107782177627086639e-03 -3.294302849099040031e-03 -3.120625624433159828e-03 4.425660241395235062e-03
5.170000000000000000e+02 6.100386619567871094e+00 -1.021273231506347656e+01 -2.761467359960079193e-02 -1.589756831526756287e-02 -1.305367331951856613e-02 -1.968905143439769745e-02
5.180000000000000000e+02 6.787152290344238281e+00 -1.194684982299804688e+01 -3.825244307518005371e-02 -2.607028186321258545e-02 -1.929681748151779175e-02 -3.795262798666954041e-02
5.190000000000000000e+02 6.737844467163085938e+00 -1.362684726715087891e+01 -3.846944123506546021e-02 -3.887295722961425781e-02 -2.320271916687488556e-02 -5.428729951381683350e-02
5.200000000000000000e+02 7.256718635559082031e+00 -1.616481399536132812e+01 -4.004105553030967712e-02 -6.460521370172500610e-02 -3.139388188719749451e-02 -8.646189421415328979e-02
5.210000000000000000e+02 6.802664279937744141e+00 -1.783098220825195312e+01 -3.024161607027053833e-02 -8.343071490526199341e-02 -3.410169854760169983e-02 -9.570261090993881226e-02
5.220000000000000000e+02 4.614722728729248047e+00 -1.951108741760253906e+01 -1.289864908903837204e-02 -1.007503792643547058e-01 -3.409470617771148682e-02 -7.900587469339370728e-02
5.230000000000000000e+02 3.921588659286499023e+00 -2.118409347534179688e+01 -6.627470254898071289e-03 -1.232047155499458313e-01 -3.894965723156929016e-02 -7.345972210168838501e-02
5.240000000000000000e+02 3.991065979003906250e+00 -2.370653343200683594e+01 -2.328176749870181084e-03 -1.647163778543472290e-01 -5.011336505413055420e-02 -7.934886962175369263e-02
5.250000000000000000e+02 4.238230705261230469e+00 -2.805081558227539062e+01 5.018003284931182861e-03 -2.319587916135787964e-01 -6.808223575353622437e-02 -8.026236295700073242e-02
5.260000000000000000e+02 5.794232368469238281e+00 -3.043923759460449219e+01 1.657596789300441742e-02 -2.507176399230957031e-01 -7.024250179529190063e-02 -9.305342286825180054e-02
5.270000000000000000e+02 4.710958957672119141e+00 -3.171489715576171875e+01 1.436652243137359619e-02 -2.776624858379364014e-01 -7.898878306150436401e-02 -7.333336025476455688e-02
5.280000000000000000e+02 4.482207775115966797e+00 -3.418633651733398438e+01 1.532366871833801270e-02 -3.083781003952026367e-01 -8.791632950305938721e-02 -5.683930590748786926e-02
5.290000000000000000e+02 5.627152919769287109e+00 -3.598665237426757812e+01 2.591559290885925293e-02 -3.064905405044555664e-01 -8.417248725891113281e-02 -5.523781105875968933e-02
5.300000000000000000e+02 5.102009296417236328e+00 -3.761849212646484375e+01 2.023197337985038757e-02 -3.294143378734588623e-01 -9.275471419095993042e-02 -3.687124699354171753e-02
5.310000000000000000e+02 4.324051380157470703e+00 -3.917800903320312500e+01 1.290255133062601089e-02 -3.472808301448822021e-01 -1.003134846687316895e-01 -2.178345061838626862e-02
5.320000000000000000e+02 5.571430683135986328e+00 -4.036061859130859375e+01 2.234569750726222992e-02 -3.292795419692993164e-01 -9.208015352487564087e-02 -1.743972860276699066e-02
5.330000000000000000e+02 7.250631332397460938e+00 -3.631288146972656250e+01 3.840863332152366638e-02 -2.897102832794189453e-01 -7.539049535989761353e-02 -6.084319576621055603e-02
5.340000000000000000e+02 5.863640785217285156e+00 -3.440925216674804688e+01 2.414074353873729706e-02 -2.930720150470733643e-01 -8.067938685417175293e-02 -6.702230870723724365e-02
5.350000000000000000e+02 5.923440456390380859e+00 -3.295432281494140625e+01 2.408847957849502563e-02 -2.790924012660980225e-01 -7.650118321180343628e-02 -7.929489761590957642e-02
5.360000000000000000e+02 7.007466793060302734e+00 -3.152854919433593750e+01 2.726651914417743683e-02 -2.562869787216186523e-01 -6.870613247156143188e-02 -9.757101535797119141e-02
5.370000000000000000e+02 7.051490306854248047e+00 -3.033699989318847656e+01 2.233130298554897308e-02 -2.409902065992355347e-01 -6.559766829013824463e-02 -1.076175346970558167e-01
5.380000000000000000e+02 5.471836566925048828e+00 -2.721900749206542969e+01 7.142504211515188217e-03 -2.134405523538589478e-01 -6.188941374421119690e-02 -1.004115715622901917e-01
5.390000000000000000e+02 5.757294654846191406e+00 -2.634663391113281250e+01 4.784284625202417374e-03 -1.994857639074325562e-01 -5.841044336557388306e-02 -1.061995774507522583e-01
5.400000000000000000e+02 6.589110374450683594e+00 -2.285596466064453125e+01 -9.224568493664264679e-03 -1.494433581829071045e-01 -4.760038107633590698e-02 -1.174029409885406494e-01
5.410000000000000000e+02 5.718027114868164062e+00 -2.040764236450195312e+01 -1.538663636893033981e-02 -1.150138080120086670e-01 -3.912013396620750427e-02 -9.629549086093902588e-02
5.420000000000000000e+02 7.524379730224609375e+00 -1.898313903808593750e+01 -2.976424247026443481e-02 -9.962562471628189087e-02 -3.881695866584777832e-02 -1.124849021434783936e-01
5.430000000000000000e+02 7.896597385406494141e+00 -1.720913696289062500e+01 -4.138033837080001831e-02 -7.751297205686569214e-02 -3.566799312829971313e-02 -1.033254712820053101e-01
5.440000000000000000e+02 8.325469017028808594e+00 -1.549336814880371094e+01 -5.278887227177619934e-02 -5.826217308640480042e-02 -3.331531211733818054e-02 -9.105873107910156250e-02
5.450000000000000000e+02 7.633266448974609375e+00 -1.364460945129394531e+01 -4.940238222479820251e-02 -3.942472860217094421e-02 -2.664813213050365448e-02 -6.476864963769912720e-02
5.460000000000000000e+02 7.664168834686279297e+00 -1.196655845642089844e+01 -4.779794812202453613e-02 -2.700333669781684875e-02 -2.244038507342338562e-02 -4.572319984436035156e-02
5.470000000000000000e+02 7.094337463378906250e+00 -6.933365821838378906e+00 -2.021023444831371307e-02 -8.213686756789684296e-03 -8.527176454663276672e-03 -1.612522872164845467e-03
5.480000000000000000e+02 7.449185848236083984e+00 -4.804890155792236328e+00 -6.419764366000890732e-03 -4.875113256275653839e-03 -3.388463286682963371e-03 4.851536825299263000e-03
5.490000000000000000e+02 8.110943794250488281e+00 -1.872469186782836914e+00 1.480416487902402878e-02 -2.051825402304530144e-03 3.825701773166656494e-03 4.171339329332113266e-03
5.500000000000000000e+02 2.106121063232421875e+01 -7.882544040679931641e+00 -1.067747622728347778e-01 -1.828922145068645477e-02 -3.751919418573379517e-02 1.832915842533111572e-02
5.510000000000000000e+02 1.607050895690917969e+01 -4.797636032104492188e+00 8.462446741759777069e-03 3.772112540900707245e-03 3.670367877930402756e-03 -4.413963295519351959e-03
5.520000000000000000e+02 1.650640106201171875e+01 -3.277150630950927734e+00 2.108497731387615204e-02 2.052382193505764008e-02 1.248263940215110779e-02 -2.649496495723724365e-02
5.530000000000000000e+02 5.055010795593261719e+00 -2.374931812286376953e+00 7.424746174365282059e-03 3.251330461353063583e-03 3.202822990715503693e-03 8.380538783967494965e-03
5.540000000000000000e+02 4.366688728332519531e+00 -2.346539020538330078e+00 8.759520947933197021e-03 9.261969244107604027e-04 2.905715256929397583e-03 8.989186026155948639e-03
5.550000000000000000e+02 3.693286418914794922e+00 -3.050873517990112305e+00 4.807737655937671661e-03 1.275073853321373463e-03 1.824843464419245720e-03 8.749181404709815979e-03
5.560000000000000000e+02 3.819246530532836914e+00 -4.395574092864990234e+00 7.126067066565155983e-04 2.145716222003102303e-03 8.574968669563531876e-04 8.676154538989067078e-03
5.570000000000000000e+02 3.846246480941772461e+00 -7.013400554656982422e+00 -6.534769199788570404e-03 5.580222350545227528e-04 -1.793024130165576935e-03 4.748504608869552612e-03
5.580000000000000000e+02 4.323134899139404297e+00 -9.233368873596191406e+00 -1.291059143841266632e-02 -7.059756666421890259e-03 -5.991104524582624435e-03 -6.127008702605962753e-03
5.590000000000000000e+02 4.195809841156005859e+00 -1.071470069885253906e+01 -1.490165665745735168e-02 -1.138953771442174911e-02 -7.887358777225017548e-03 -1.437068264931440353e-02
5.600000000000000000e+02 5.076185703277587891e+00 -1.213224697113037109e+01 -2.336980402469635010e-02 -2.390856109559535980e-02 -1.418350916355848312e-02 -2.966786362230777740e-02
5.610000000000000000e+02 5.242445468902587891e+00 -1.277718544006347656e+01 -2.486375533044338226e-02 -2.800587378442287445e-02 -1.586088910698890686e-02 -3.612727671861648560e-02
5.620000000000000000e+02 4.689233779907226562e+00 -1.547995662689208984e+01 -2.000466734170913696e-02 -5.016656219959259033e-02 -2.105136774480342865e-02 -5.283918604254722595e-02
5.630000000000000000e+02 4.356898307800292969e+00 -1.817891311645507812e+01 -1.377704646438360214e-02 -8.130051195621490479e-02 -2.852326631546020508e-02 -6.777836382389068604e-02
5.640000000000000000e+02 2.063126087188720703e+00 -1.962600326538085938e+01 -2.872820245102047920e-03 -8.997638523578643799e-02 -2.785476110875606537e-02 -3.828761726617813110e-02
5.650000000000000000e+02 2.147221565246582031e+00 -2.118983459472656250e+01 -2.146081998944282532e-03 -1.180585920810699463e-01 -3.606140241026878357e-02 -4.332140088081359863e-02
5.660000000000000000e+02 2.189925432205200195e+00 -2.279016113281250000e+01 -1.335490145720541477e-03 -1.479048132896423340e-01 -4.477208852767944336e-02 -4.648280143737792969e-02
5.670000000000000000e+02 2.982025384902954102e+00 -2.514849472045898438e+01 4.257952241459861398e-05 -1.909630149602890015e-01 -5.727613344788551331e-02 -6.246320530772209167e-02
5.680000000000000000e+02 3.035964012145996094e+00 -2.668263244628906250e+01 1.690894481725990772e-03 -2.183068990707397461e-01 -6.498480588197708130e-02 -6.308308988809585571e-02
5.690000000000000000e+02 2.319143533706665039e+00 -2.831888580322265625e+01 2.130740322172641754e-03 -2.530828416347503662e-01 -7.528563588857650757e-02 -4.808778315782546997e-02
5.700000000000000000e+02 2.454179763793945312e+00 -2.996221733093261719e+01 3.643659176304936409e-03 -2.801479399204254150e-01 -8.295128494501113892e-02 -4.719817265868186951e-02
5.710000000000000000e+02 2.518358707427978516e+00 -3.169608688354492188e+01 4.943752195686101913e-03 -3.071439564228057861e-01 -9.066005796194076538e-02 -4.317383468151092529e-02
5.720000000000000000e+02 2.311854362487792969e+00 -3.342355346679687500e+01 3.724464215338230133e-03 -3.352115750312805176e-01 -9.944613277912139893e-02 -3.348691761493682861e-02
5.730000000000000000e+02 2.676362276077270508e+00 -3.680167770385742188e+01 3.931666258722543716e-03 -3.615768253803253174e-01 -1.072935461997985840e-01 -2.639543637633323669e-02
5.740000000000000000e+02 2.576576471328735352e+00 -3.981440353393554688e+01 7.197979371994733810e-03 -3.831562101840972900e-01 -1.127874702215194702e-01 -1.154376380145549774e-02
5.750000000000000000e+02 2.130071163177490234e+00 -4.072610855102539062e+01 5.241845734417438507e-03 -3.942742645740509033e-01 -1.167097315192222595e-01 -6.945755798369646072e-03
5.760000000000000000e+02 3.025578022003173828e+00 -4.108783721923828125e+01 2.392535330727696419e-03 -3.817015588283538818e-01 -1.137927025556564331e-01 -1.989871729165315628e-03
5.770000000000000000e+02 3.141984224319458008e+00 -4.202237319946289062e+01 1.020409259945154190e-02 -3.768854141235351562e-01 -1.100043952465057373e-01 -7.773592369630932808e-04
5.780000000000000000e+02 4.231621742248535156e+00 -1.750242352485656738e+00 9.887854568660259247e-03 -3.139024833217263222e-03 2.024648943915963173e-03 6.218470633029937744e-03
5.790000000000000000e+02 3.523626565933227539e+00 -1.804279565811157227e+00 6.458912976086139679e-03 6.318746600300073624e-04 2.127236220985651016e-03 4.631852731108665466e-03
5.800000000000000000e+02 1.596642374992370605e+00 -1.865040779113769531e+00 1.605133409611880779e-03 1.679388689808547497e-03 9.853566298261284828e-04 2.972058486193418503e-03
5.810000000000000000e+02 9.587921500205993652e-01 -1.885240912437438965e+00 5.408458528108894825e-04 2.360742306336760521e-03 8.704764186404645443e-04 1.961116911843419075e-03
5.820000000000000000e+02 3.761239647865295410e-01 -3.492280244827270508e+00 1.994727936107665300e-04 6.863524205982685089e-03 2.118899021297693253e-03 1.545640174299478531e-03
5.830000000000000000e+02 4.526806175708770752e-01 -4.325409889221191406e+00 4.000262124463915825e-04 1.055637281388044357e-02 3.286919556558132172e-03 2.093514660373330116e-03
5.840000000000000000e+02 4.454654157161712646e-01 -5.174034118652343750e+00 -3.188115661032497883e-04 1.400130987167358398e-02 4.104749765247106552e-03 2.261054236441850662e-03
5.850000000000000000e+02 2.526000261306762695e+00 -7.634577274322509766e+00 -4.131568595767021179e-03 6.300097797065973282e-03 6.505587953142821789e-04 3.592279041185975075e-03
5.860000000000000000e+02 2.697613477706909180e+00 -5.823349475860595703e+00 -1.369976554997265339e-03 6.193034350872039795e-03 1.446917420253157616e-03 7.055246271193027496e-03
5.870000000000000000e+02 2.697112083435058594e+00 -5.002559185028076172e+00 3.271334862802177668e-04 5.302248522639274597e-03 1.688814489170908928e-03 7.781866937875747681e-03
5.880000000000000000e+02 2.540572404861450195e+00 -3.710952997207641602e+00 1.361654489301145077e-03 3.157847095280885696e-03 1.355850487016141415e-03 6.988736335188150406e-03
5.890000000000000000e+02 1.958405852317810059e+00 -3.921944856643676758e+00 1.296147354878485203e-03 5.567148793488740921e-03 2.058988902717828751e-03 6.900929845869541168e-03
5.900000000000000000e+02 2.234971761703491211e+00 -1.843131661415100098e+00 3.078800160437822342e-03 1.556021743454039097e-03 1.390446559526026249e-03 4.073317162692546844e-03
5.910000000000000000e+02 1.685664772987365723e+00 -4.875783920288085938e+00 4.878143081441521645e-04 8.696468546986579895e-03 2.755285007879137993e-03 6.174115464091300964e-03
5.920000000000000000e+02 3.396751284599304199e-01 -6.781351089477539062e+00 -1.116994535550475121e-04 2.175860479474067688e-02 6.494071334600448608e-03 1.346445991657674313e-03
5.930000000000000000e+02 1.847952246665954590e+00 -8.396650314331054688e+00 -2.453301800414919853e-03 1.119574904441833496e-02 2.622734056785702705e-03 1.797378296032547951e-03
5.940000000000000000e+02 1.779281616210937500e+00 -7.637873172760009766e+00 -1.662951195612549782e-03 1.194382179528474808e-02 3.084261203184723854e-03 3.350083949044346809e-03
5.950000000000000000e+02 1.056809425354003906e+00 -6.168365001678466797e+00 -2.666570071596652269e-04 1.439383719116449356e-02 4.238154273480176926e-03 4.119911231100559235e-03
5.960000000000000000e+02 3.653768897056579590e-01 -9.147610664367675781e+00 -7.215753430500626564e-05 2.763382531702518463e-02 8.268500678241252899e-03 3.357797686476260424e-04
5.970000000000000000e+02 1.894226074218750000e+00 -9.962519645690917969e+00 -3.247495973482728004e-03 8.436263538897037506e-03 1.556630362756550312e-03 -2.471540588885545731e-03
5.980000000000000000e+02 1.884740710258483887e+00 -9.170907020568847656e+00 -2.512575360015034676e-03 1.030403003096580505e-02 2.337436424568295479e-03 -1.727339695207774639e-04
5.990000000000000000e+02 1.111428141593933105e+00 -9.164018630981445312e+00 -1.170182717032730579e-03 1.819505542516708374e-02 5.107461940497159958e-03 4.855800361838191748e-04
6.000000000000000000e+02 1.102198243141174316e+00 -1.073575973510742188e+01 -1.432478427886962891e-03 1.607714220881462097e-02 4.393398761749267578e-03 -2.393659669905900955e-03
6.010000000000000000e+02 1.799995541572570801e+00 -1.152513790130615234e+01 -3.408154938369989395e-03 4.575258586555719376e-03 3.501310420688241720e-04 -6.819149479269981384e-03
6.020000000000000000e+02 1.875082612037658691e+00 -1.075537490844726562e+01 -3.020346630364656448e-03 6.398743018507957458e-03 1.013518893159925938e-03 -4.766503348946571350e-03
6.030000000000000000e+02 3.623186051845550537e-01 -1.073893642425537109e+01 1.937608903972432017e-04 2.701824530959129333e-02 8.163602091372013092e-03 -5.461737746372818947e-04
6.040000000000000000e+02 1.061767935752868652e+00 -1.150743675231933594e+01 -9.529253002256155014e-04 1.398970186710357666e-02 3.911033272743225098e-03 -3.754120785742998123e-03
6.050000000000000000e+02 2.616912603378295898e+00 -1.326136875152587891e+01 -6.445216480642557144e-03 -1.503364555537700653e-02 -6.443658377975225449e-03 -1.993615366518497467e-02
6.060000000000000000e+02 1.688124418258666992e+00 -1.224627780914306641e+01 -3.217805642634630203e-03 1.681256224401295185e-03 -4.609648312907665968e-04 -9.287213906645774841e-03
6.070000000000000000e+02 3.426473736763000488e-01 -1.310291767120361328e+01 -8.688548696227371693e-04 1.664675399661064148e-02 4.733369685709476471e-03 -2.464778954163193703e-03
6.080000000000000000e+02 1.007876038551330566e+00 -1.298600006103515625e+01 -1.076241023838520050e-03 6.665537133812904358e-03 1.676788786426186562e-03 -7.059349678456783295e-03
6.090000000000000000e+02 2.551172494888305664e+00 -1.428290081024169922e+01 -6.351170595735311508e-03 -2.160584740340709686e-02 -8.387105539441108704e-03 -2.361783571541309357e-02
6.100000000000000000e+02 5.041792988777160645e-01 -1.469954395294189453e+01 -1.458381069824099541e-03 -9.405597811564803123e-04 -7.196822552941739559e-04 -6.022784858942031860e-03
6.110000000000000000e+02 5.304716229438781738e-01 -1.554941844940185547e+01 3.850089269690215588e-04 -9.763258509337902069e-03 -2.813474973663687706e-03 -6.644807290285825729e-03
6.120000000000000000e+02 2.831508636474609375e+00 -1.745517730712890625e+01 -6.917794235050678253e-03 -6.179554760456085205e-02 -2.061400189995765686e-02 -4.235865175724029541e-02
6.130000000000000000e+02 2.903675079345703125e+00 -1.678515052795410156e+01 -7.724532391875982285e-03 -5.364307388663291931e-02 -1.841028220951557159e-02 -4.025181010365486145e-02
6.140000000000000000e+02 1.389357447624206543e+00 -1.437502861022949219e+01 -1.683797105215489864e-03 -1.076967734843492508e-02 -3.736042184755206108e-03 -1.311332266777753830e-02
6.150000000000000000e+02 4.213015437126159668e-01 -1.720111465454101562e+01 -1.717757404549047351e-04 -3.245257958769798279e-02 -9.787307120859622955e-03 -6.513468455523252487e-03
6.160000000000000000e+02 2.029813051223754883e+00 -1.886042976379394531e+01 -3.512368304654955864e-03 -7.667569071054458618e-02 -2.405641786754131317e-02 -3.606815636157989502e-02
6.170000000000000000e+02 2.813973665237426758e+00 -1.815746498107910156e+01 -6.677704397588968277e-03 -7.172560691833496094e-02 -2.352099306881427765e-02 -4.597847536206245422e-02
6.180000000000000000e+02 1.328529953956604004e+00 -1.648677062988281250e+01 -1.487574423663318157e-03 -3.362079709768295288e-02 -1.053251139819622040e-02 -1.895887218415737152e-02
6.190000000000000000e+02 4.088665843009948730e-01 -1.959759521484375000e+01 -1.586284779477864504e-04 -7.502362132072448730e-02 -2.255467325448989868e-02 -8.002541027963161469e-03
6.200000000000000000e+02 1.231442451477050781e+00 -1.961367225646972656e+01 -1.379316905513405800e-03 -8.320475369691848755e-02 -2.537522092461585999e-02 -2.380371280014514923e-02
6.210000000000000000e+02 1.277941584587097168e+00 -2.119224548339843750e+01 -9.972532279789447784e-04 -1.136917397379875183e-01 -3.440669924020767212e-02 -2.684681303799152374e-02
6.220000000000000000e+02 1.305442690849304199e+00 -2.278505897521972656e+01 -5.733744474127888680e-04 -1.461043953895568848e-01 -4.400333017110824585e-02 -2.894285880029201508e-02
6.230000000000000000e+02 4.348341822624206543e-01 -2.439806556701660156e+01 -1.873607980087399483e-04 -1.812800168991088867e-01 -5.444021522998809814e-02 -1.020455732941627502e-02
6.240000000000000000e+02 1.326090455055236816e+00 -2.677956008911132812e+01 1.868881954578682780e-04 -2.310561537742614746e-01 -6.926078349351882935e-02 -2.998061478137969971e-02
6.250000000000000000e+02 1.388652682304382324e+00 -2.838121795654296875e+01 5.615382106043398380e-04 -2.636049687862396240e-01 -7.891303300857543945e-02 -2.986628748476505280e-02
6.260000000000000000e+02 1.462726593017578125e+00 -3.000705909729003906e+01 1.329345162957906723e-03 -2.942264676094055176e-01 -8.786913752555847168e-02 -2.892339602112770081e-02
6.270000000000000000e+02 1.484064459800720215e+00 -3.166313743591308594e+01 1.957204658538103104e-03 -3.234564661979675293e-01 -9.644977748394012451e-02 -2.602004073560237885e-02
6.280000000000000000e+02 1.363025903701782227e+00 -3.328433990478515625e+01 1.832098467275500298e-03 -3.500341773033142090e-01 -1.044606268405914307e-01 -2.143578417599201202e-02
6.290000000000000000e+02 1.261051177978515625e+00 -3.479307174682617188e+01 4.032143042422831059e-04 -3.724886476993560791e-01 -1.116256266832351685e-01 -1.627548597753047943e-02
6.300000000000000000e+02 2.901740312576293945e+00 -3.771232604980468750e+01 8.764015510678291321e-03 -3.631032705307006836e-01 -1.063017696142196655e-01 -2.381421253085136414e-02
6.310000000000000000e+02 1.679791808128356934e+00 -3.789126205444335938e+01 2.243971219286322594e-03 -3.960612416267395020e-01 -1.181451827287673950e-01 -1.406432688236236572e-02
6.320000000000000000e+02 1.366719722747802734e+00 -4.046208190917968750e+01 2.782791620120406151e-03 -4.159708321094512939e-01 -1.239564120769500732e-01 -5.211665295064449310e-03
6.330000000000000000e+02 1.399803876876831055e+00 -4.204184722900390625e+01 1.589561696164309978e-03 -4.250122606754302979e-01 -1.270268112421035767e-01 -4.368482157588005066e-03
6.340000000000000000e+02 3.996129333972930908e-01 -4.208795928955078125e+01 -1.485723652876913548e-03 -4.493327438831329346e-01 -1.352455466985702515e-01 1.773028983734548092e-03
6.350000000000000000e+02 8.152341842651367188e+00 -4.122087097167968750e+01 4.883865639567375183e-02 -3.006452918052673340e-01 -7.554199546575546265e-02 -1.240617129951715469e-02
6.360000000000000000e+02 8.991580009460449219e+00 -3.873711395263671875e+01 6.090443208813667297e-02 -2.829975187778472900e-01 -6.662791967391967773e-02 -4.168312624096870422e-02
6.370000000000000000e+02 7.349560260772705078e+00 -3.449900436401367188e+01 3.921394795179367065e-02 -2.765975892543792725e-01 -7.121509313583374023e-02 -7.956098020076751709e-02
6.380000000000000000e+02 8.560085296630859375e+00 -3.257566833496093750e+01 4.094651713967323303e-02 -2.510467767715454102e-01 -6.303007900714874268e-02 -1.042457297444343567e-01
6.390000000000000000e+02 9.167700767517089844e+00 -3.040285301208496094e+01 3.481433913111686707e-02 -2.304050326347351074e-01 -5.867720767855644226e-02 -1.253534406423568726e-01
6.400000000000000000e+02 8.597704887390136719e+00 -2.880104446411132812e+01 2.583166211843490601e-02 -2.198469340801239014e-01 -5.820458009839057922e-02 -1.305190324783325195e-01
6.410000000000000000e+02 6.771181583404541016e+00 -2.619265747070312500e+01 5.799817852675914764e-03 -1.952037513256072998e-01 -5.682117864489555359e-02 -1.192013099789619446e-01
6.420000000000000000e+02 6.331536293029785156e+00 -2.499056243896484375e+01 8.041530381888151169e-04 -1.793296784162521362e-01 -5.355765670537948608e-02 -1.146747246384620667e-01
6.430000000000000000e+02 7.828527450561523438e+00 -2.231390190124511719e+01 -1.467857416719198227e-02 -1.428781151771545410e-01 -4.726700484752655029e-02 -1.321166008710861206e-01
6.440000000000000000e+02 8.562422752380371094e+00 -2.078879737854003906e+01 -2.581169456243515015e-02 -1.239628344774246216e-01 -4.493235796689987183e-02 -1.366684287786483765e-01
6.450000000000000000e+02 9.427211761474609375e+00 -1.844652175903320312e+01 -4.945784434676170349e-02 -9.458662569522857666e-02 -4.321334138512611389e-02 -1.341499388217926025e-01
6.460000000000000000e+02 9.203716278076171875e+00 -1.570559310913085938e+01 -6.494432687759399414e-02 -6.031621247529983521e-02 -3.757816180586814880e-02 -1.041437983512878418e-01
6.470000000000000000e+02 9.251576423645019531e+00 -1.281777477264404297e+01 -6.640657037496566772e-02 -3.283417969942092896e-02 -2.977222576737403870e-02 -6.389228254556655884e-02
6.480000000000000000e+02 9.629962921142578125e+00 -1.218225574493408203e+01 -7.459149509668350220e-02 -2.758267708122730255e-02 -3.065225109457969666e-02 -6.038368493318557739e-02
6.490000000000000000e+02 8.542376518249511719e+00 -1.041417407989501953e+01 -5.251251161098480225e-02 -1.734069921076297760e-02 -2.095596306025981903e-02 -3.048652969300746918e-02
6.500000000000000000e+02 8.795165061950683594e+00 -8.495148658752441406e+00 -3.810558095574378967e-02 -1.230569370090961456e-02 -1.512338221073150635e-02 -1.454105973243713379e-02
6.510000000000000000e+02 9.959565162658691406e+00 -6.812831401824951172e+00 -3.380843997001647949e-02 -1.061887200921773911e-02 -1.332819368690252304e-02 -4.625704605132341385e-03
6.520000000000000000e+02 8.774703025817871094e+00 -5.078163146972656250e+00 -8.294789120554924011e-03 -7.213505916297435760e-03 -4.652488511055707932e-03 4.103814717382192612e-03
6.530000000000000000e+02 9.712006568908691406e+00 -3.511403322219848633e+00 3.109197132289409637e-03 -6.369158625602722168e-03 -9.779884712770581245e-04 1.091819838620722294e-03
6.540000000000000000e+02 9.617572784423828125e+00 -1.894271731376647949e+00 1.596935093402862549e-02 -2.818206325173377991e-03 3.945343662053346634e-03 1.062282593920826912e-03
6.550000000000000000e+02 9.914341926574707031e+00 -3.206054306030273438e+01 5.008137971162796021e-02 -2.398477643728256226e-01 -5.692991614341735840e-02 -1.195141077041625977e-01
6.560000000000000000e+02 1.049691009521484375e+01 -2.978757095336914062e+01 4.278769716620445251e-02 -2.201005071401596069e-01 -5.319384485483169556e-02 -1.406286209821701050e-01
6.570000000000000000e+02 9.814979553222656250e+00 -2.843236351013183594e+01 2.818258665502071381e-02 -2.101517170667648315e-01 -5.459073930978775024e-02 -1.442522555589675903e-01
6.580000000000000000e+02 9.011433601379394531e+00 -2.492076492309570312e+01 3.461463842540979385e-03 -1.755552589893341064e-01 -5.162813887000083923e-02 -1.485327184200286865e-01
6.590000000000000000e+02 8.781282424926757812e+00 -2.302347755432128906e+01 -9.554060176014900208e-03 -1.528012901544570923e-01 -4.870660230517387390e-02 -1.456962823867797852e-01
6.600000000000000000e+02 9.358525276184082031e+00 -1.996995544433593750e+01 -3.709235042333602905e-02 -1.131631880998611450e-01 -4.507666081190109253e-02 -1.453051865100860596e-01
6.610000000000000000e+02 1.101050853729248047e+01 -1.896474266052246094e+01 -5.787594988942146301e-02 -1.025552898645401001e-01 -4.812937229871749878e-02 -1.579943597316741943e-01
6.620000000000000000e+02 1.084182453155517578e+01 -1.624629211425781250e+01 -8.206578344106674194e-02 -6.725152581930160522e-02 -4.479519277811050415e-02 -1.293602287769317627e-01
6.630000000000000000e+02 1.147884559631347656e+01 -1.486931610107421875e+01 -1.019987985491752625e-01 -4.945628717541694641e-02 -4.543652385473251343e-02 -1.179308891296386719e-01
6.640000000000000000e+02 1.113238811492919922e+01 -1.339448451995849609e+01 -9.504246711730957031e-02 -3.483662754297256470e-02 -3.896372765302658081e-02 -9.216480702161788940e-02
6.650000000000000000e+02 1.166899013519287109e+01 -1.087201881408691406e+01 -1.005637347698211670e-01 -1.389612723141908646e-02 -3.433796018362045288e-02 -5.035935714840888977e-02
6.660000000000000000e+02 1.059213352203369141e+01 -1.094653701782226562e+01 -8.318803459405899048e-02 -1.882979273796081543e-02 -3.060534782707691193e-02 -4.831447452306747437e-02
6.670000000000000000e+02 1.080106353759765625e+01 -7.253865242004394531e+00 -4.294090718030929565e-02 -1.124272681772708893e-02 -1.625509001314640045e-02 -5.940265953540802002e-03
6.680000000000000000e+02 1.074906349182128906e+01 -5.636662483215332031e+00 -1.752933859825134277e-02 -1.047674473375082016e-02 -8.401825092732906342e-03 -3.104496281594038010e-03
6.690000000000000000e+02 1.048667144775390625e+01 -3.549842357635498047e+00 1.449144445359706879e-03 -7.027948275208473206e-03 -1.673641148954629898e-03 1.674762461334466934e-03
6.700000000000000000e+02 1.113824748992919922e+01 -1.945871472358703613e+00 1.631786487996578217e-02 -3.623256227001547813e-03 3.808382200077176094e-03 -2.900793217122554779e-03
6.710000000000000000e+02 1.459306907653808594e+01 -3.787376785278320312e+01 1.320621818304061890e-01 -2.393046766519546509e-01 -3.217275068163871765e-02 -7.528088241815567017e-02
6.720000000000000000e+02 1.125117397308349609e+01 -3.616169357299804688e+01 8.117355406284332275e-02 -2.542351484298706055e-01 -5.191848054528236389e-02 -8.541183918714523315e-02
6.730000000000000000e+02 9.140143394470214844e+00 -3.643390274047851562e+01 6.217227131128311157e-02 -2.718245685100555420e-01 -6.289568543434143066e-02 -7.073718309402465820e-02
6.740000000000000000e+02 1.215781021118164062e+01 -3.327909851074218750e+01 7.865780591964721680e-02 -2.367683202028274536e-01 -4.743315652012825012e-02 -1.208637952804565430e-01
6.750000000000000000e+02 1.129409217834472656e+01 -3.139234733581542969e+01 5.504303425550460815e-02 -2.284037470817565918e-01 -5.200821533799171448e-02 -1.338594257831573486e-01
6.760000000000000000e+02 1.175613880157470703e+01 -2.894737243652343750e+01 4.448674991726875305e-02 -2.095726281404495239e-01 -4.952576383948326111e-02 -1.587086468935012817e-01
6.770000000000000000e+02 1.139901733398437500e+01 -2.669380378723144531e+01 2.426708862185478210e-02 -1.921638995409011841e-01 -5.036904662847518921e-02 -1.680137813091278076e-01
6.780000000000000000e+02 1.203294467926025391e+01 -2.552058029174804688e+01 1.521330792456865311e-02 -1.809943467378616333e-01 -4.973431304097175598e-02 -1.783481985330581665e-01
6.790000000000000000e+02 1.090883350372314453e+01 -2.461922073364257812e+01 3.461564658209681511e-03 -1.702138632535934448e-01 -5.002569034695625305e-02 -1.696350574493408203e-01
6.800000000000000000e+02 1.146860408782958984e+01 -2.256324958801269531e+01 -1.718363352119922638e-02 -1.494922935962677002e-01 -5.000277981162071228e-02 -1.774766147136688232e-01
6.810000000000000000e+02 1.267687129974365234e+01 -1.918298530578613281e+01 -6.598430126905441284e-02 -1.111798882484436035e-01 -5.314925685524940491e-02 -1.842696815729141235e-01
6.820000000000000000e+02 1.287976455688476562e+01 -1.698120880126953125e+01 -9.805173426866531372e-02 -8.155756443738937378e-02 -5.388278886675834656e-02 -1.652247607707977295e-01
6.830000000000000000e+02 1.307270050048828125e+01 -1.428512573242187500e+01 -1.244891956448554993e-01 -4.338608682155609131e-02 -5.036258324980735779e-02 -1.298524588346481323e-01
6.840000000000000000e+02 1.306365013122558594e+01 -1.123727893829345703e+01 -1.213442906737327576e-01 -1.401591952890157700e-02 -4.060806334018707275e-02 -6.611730903387069702e-02
6.850000000000000000e+02 1.333473205566406250e+01 -9.893712997436523438e+00 -1.194355264306068420e-01 -5.658051464706659317e-03 -3.752807155251502991e-02 -4.326931759715080261e-02
6.860000000000000000e+02 1.270655822753906250e+01 -8.092673301696777344e+00 -7.427274435758590698e-02 -6.579580716788768768e-03 -2.425569854676723480e-02 -1.340093743056058884e-02
6.870000000000000000e+02 1.380375862121582031e+01 -6.776347637176513672e+00 -4.842682555317878723e-02 -6.408806424587965012e-03 -1.645069010555744171e-02 -4.615273792296648026e-03
6.880000000000000000e+02 1.322449970245361328e+01 -5.140172481536865234e+00 -1.200994383543729782e-02 -9.397994726896286011e-03 -6.422381382435560226e-03 -2.732413588091731071e-03
6.890000000000000000e+02 1.276605033874511719e+01 -3.527898311614990234e+00 8.527824655175209045e-03 -9.778733365237712860e-03 -3.752725315280258656e-04 -5.887534469366073608e-03
6.900000000000000000e+02 1.343151187896728516e+01 -1.965018510818481445e+00 1.566079258918762207e-02 -3.355570603162050247e-03 3.691566409543156624e-03 -8.790443651378154755e-03
6.910000000000000000e+02 1.266866493225097656e+01 -3.055682945251464844e+01 6.498018652200698853e-02 -2.178919613361358643e-01 -4.587353020906448364e-02 -1.507518589496612549e-01
6.920000000000000000e+02 1.271631908416748047e+01 -2.767765235900878906e+01 4.082777351140975952e-02 -1.986786723136901855e-01 -4.735527187585830688e-02 -1.731268018484115601e-01
6.930000000000000000e+02 1.332278728485107422e+01 -2.622000503540039062e+01 3.094169124960899353e-02 -1.869519799947738647e-01 -4.680308699607849121e-02 -1.878014653921127319e-01
6.940000000000000000e+02 1.272158622741699219e+01 -2.355475425720214844e+01 -6.442338228225708008e-03 -1.604561358690261841e-01 -5.006954073905944824e-02 -1.905374526977539062e-01
6.950000000000000000e+02 1.360163879394531250e+01 -2.127587509155273438e+01 -3.480234742164611816e-02 -1.406345069408416748e-01 -5.263105779886245728e-02 -2.007250338792800903e-01
6.960000000000000000e+02 1.262963676452636719e+01 -2.018478202819824219e+01 -4.816178604960441589e-02 -1.234071254730224609e-01 -5.147067084908485413e-02 -1.855320036411285400e-01
6.970000000000000000e+02 1.512082767486572266e+01 -1.777394294738769531e+01 -1.082296743988990784e-01 -1.055516749620437622e-01 -6.413440406322479248e-02 -2.067084610462188721e-01
6.980000000000000000e+02 1.419831466674804688e+01 -1.613971900939941406e+01 -1.285465359687805176e-01 -7.096193730831146240e-02 -5.985254049301147461e-02 -1.728960573673248291e-01
6.990000000000000000e+02 1.476014423370361328e+01 -1.383542728424072266e+01 -1.696004718542098999e-01 -3.746583312749862671e-02 -6.211989000439643860e-02 -1.420217603445053101e-01
7.000000000000000000e+02 1.455871200561523438e+01 -1.133471012115478516e+01 -1.588037610054016113e-01 -4.207426216453313828e-03 -4.890335351228713989e-02 -7.474429160356521606e-02
7.010000000000000000e+02 1.454328441619873047e+01 -9.964428901672363281e+00 -1.389527320861816406e-01 -1.609036349691450596e-03 -4.216852784156799316e-02 -4.149599745869636536e-02
7.020000000000000000e+02 1.388957023620605469e+01 -8.221796035766601562e+00 -8.906320482492446899e-02 -3.884349251165986061e-03 -2.788426540791988373e-02 -1.689983531832695007e-02
7.030000000000000000e+02 1.457398986816406250e+01 -6.576116561889648438e+00 -4.973757639527320862e-02 -4.533561412245035172e-03 -1.628134213387966156e-02 3.914264496415853500e-03
7.040000000000000000e+02 1.560116386413574219e+01 -4.303553104400634766e+00 3.311565844342112541e-03 1.357186120003461838e-03 1.400625566020607948e-03 -7.028911728411912918e-03
7.050000000000000000e+02 1.417328834533691406e+01 -2.718842744827270508e+00 1.548785716295242310e-02 -3.223386825993657112e-03 3.679340938106179237e-03 -9.659687057137489319e-03
7.060000000000000000e+02 1.322381591796875000e+01 -3.542588806152343750e+01 9.770043939352035522e-02 -2.408840358257293701e-01 -4.295507818460464478e-02 -1.000337824225425720e-01
7.070000000000000000e+02 1.480307102203369141e+01 -3.433451843261718750e+01 1.158571317791938782e-01 -2.291543930768966675e-01 -3.398917987942695618e-02 -1.183648258447647095e-01
7.080000000000000000e+02 1.471125316619873047e+01 -3.156227684020996094e+01 9.435489028692245483e-02 -2.182862907648086548e-01 -3.717941790819168091e-02 -1.493870019912719727e-01
7.090000000000000000e+02 1.406879425048828125e+01 -3.006306266784667969e+01 7.090456783771514893e-02 -2.121526896953582764e-01 -4.237443581223487854e-02 -1.642596274614334106e-01
7.100000000000000000e+02 1.424239730834960938e+01 -2.839952850341796875e+01 6.082301586866378784e-02 -2.022532820701599121e-01 -4.242908209562301636e-02 -1.785392314195632935e-01
7.110000000000000000e+02 1.475634479522705078e+01 -2.676929855346679688e+01 4.281136393547058105e-02 -1.902551949024200439e-01 -4.423315078020095825e-02 -1.939109712839126587e-01
7.120000000000000000e+02 1.509261322021484375e+01 -2.363303947448730469e+01 8.642884204164147377e-04 -1.678852289915084839e-01 -5.010628327727317810e-02 -2.125785797834396362e-01
7.130000000000000000e+02 1.470550155639648438e+01 -2.234037399291992188e+01 -1.844156347215175629e-02 -1.568167507648468018e-01 -5.257749557495117188e-02 -2.115776538848876953e-01
7.140000000000000000e+02 1.535598182678222656e+01 -2.116771316528320312e+01 -3.758507966995239258e-02 -1.491402834653854370e-01 -5.601760745048522949e-02 -2.185972332954406738e-01
7.150000000000000000e+02 1.683540916442871094e+01 -1.924267196655273438e+01 -7.961713522672653198e-02 -1.444325298070907593e-01 -6.721489876508712769e-02 -2.323110103607177734e-01
7.160000000000000000e+02 1.710698318481445312e+01 -1.652894020080566406e+01 -1.420194953680038452e-01 -1.148485764861106873e-01 -7.706042379140853882e-02 -2.328673005104064941e-01
7.170000000000000000e+02 1.648243713378906250e+01 -1.538193035125732422e+01 -1.727365106344223022e-01 -8.215866237878799438e-02 -7.646855711936950684e-02 -2.048420011997222900e-01
7.180000000000000000e+02 1.615948677062988281e+01 -1.464639377593994141e+01 -1.839272826910018921e-01 -6.140283495187759399e-02 -7.359903305768966675e-02 -1.910955756902694702e-01
7.190000000000000000e+02 1.570403003692626953e+01 -1.204885005950927734e+01 -1.934143006801605225e-01 -1.056703925132751465e-02 -6.119440495967864990e-02 -1.108865514397621155e-01
7.200000000000000000e+02 1.605288124084472656e+01 -9.755106925964355469e+00 -1.755306571722030640e-01 1.031058188527822495e-02 -4.956602305173873901e-02 -3.620882332324981689e-02
7.210000000000000000e+02 1.584739303588867188e+01 -9.048304557800292969e+00 -1.377278715372085571e-01 6.909332238137722015e-03 -3.924556076526641846e-02 -2.294435165822505951e-02
7.220000000000000000e+02 1.645163154602050781e+01 -6.875128269195556641e+00 -5.236078426241874695e-02 5.093349027447402477e-04 -1.555543486028909683e-02 3.904573852196335793e-03
7.230000000000000000e+02 1.706876945495605469e+01 -3.839749574661254883e+00 3.016434423625469208e-02 2.814140915870666504e-02 1.749172620475292206e-02 -2.263404801487922668e-02
7.240000000000000000e+02 1.657847404479980469e+01 -4.314245700836181641e+00 1.235881913453340530e-02 1.134130824357271194e-02 7.110037840902805328e-03 -1.794357039034366608e-02
7.250000000000000000e+02 1.601789855957031250e+01 -3.297628021240234375e+01 1.190020665526390076e-01 -2.191456556320190430e-01 -3.004307672381401062e-02 -1.401441693305969238e-01
7.260000000000000000e+02 1.543530941009521484e+01 -3.044993209838867188e+01 9.206080436706542969e-02 -2.089058458805084229e-01 -3.505351021885871887e-02 -1.679206490516662598e-01
7.270000000000000000e+02 1.584542369842529297e+01 -2.895505142211914062e+01 8.047393709421157837e-02 -2.021747380495071411e-01 -3.651024028658866882e-02 -1.833136975765228271e-01
7.280000000000000000e+02 1.628856086730957031e+01 -2.733827972412109375e+01 6.380226463079452515e-02 -1.915304362773895264e-01 -3.831845149397850037e-02 -1.994197070598602295e-01
7.290000000000000000e+02 1.675325584411621094e+01 -2.565194511413574219e+01 3.832738846540451050e-02 -1.831826269626617432e-01 -4.345656931400299072e-02 -2.111166715621948242e-01
7.300000000000000000e+02 1.625411033630371094e+01 -2.307755279541015625e+01 -2.442980185151100159e-03 -1.697852164506912231e-01 -5.166845768690109253e-02 -2.199991047382354736e-01
7.310000000000000000e+02 1.612496185302734375e+01 -2.138145065307617188e+01 -3.303162381052970886e-02 -1.576733440160751343e-01 -5.721149221062660217e-02 -2.237395644187927246e-01
7.320000000000000000e+02 1.880996513366699219e+01 -2.039181137084960938e+01 -4.969228431582450867e-02 -1.783078312873840332e-01 -6.840003281831741333e-02 -2.416892051696777344e-01
7.330000000000000000e+02 1.926017951965332031e+01 -1.737669754028320312e+01 -1.212345138192176819e-01 -1.764331459999084473e-01 -8.930029720067977905e-02 -2.536001503467559814e-01
7.340000000000000000e+02 1.874467468261718750e+01 -1.490080070495605469e+01 -2.016187757253646851e-01 -1.265201270580291748e-01 -9.844167530536651611e-02 -2.510162889957427979e-01
7.350000000000000000e+02 1.844120025634765625e+01 -1.386676597595214844e+01 -2.394427955150604248e-01 -9.131487458944320679e-02 -9.922730177640914917e-02 -2.358705997467041016e-01
7.360000000000000000e+02 1.768195152282714844e+01 -1.182320022583007812e+01 -2.741369307041168213e-01 -8.996939286589622498e-03 -8.494015783071517944e-02 -1.338468044996261597e-01
7.370000000000000000e+02 1.889305877685546875e+01 -1.018281173706054688e+01 -2.945668697357177734e-01 1.560938637703657150e-02 -8.368723839521408081e-02 -7.029345631599426270e-02
7.380000000000000000e+02 1.830302810668945312e+01 -8.660345077514648438e+00 -1.633995920419692993e-01 1.351442653685808182e-02 -4.496555030345916748e-02 -3.488327376544475555e-03
7.390000000000000000e+02 1.842939758300781250e+01 -6.727338790893554688e+00 -4.439092427492141724e-02 8.858830668032169342e-03 -1.065962854772806168e-02 -2.984720049425959587e-03
7.400000000000000000e+02 1.643331909179687500e+01 -4.084283065795898438e+01 1.732754558324813843e-01 -2.311267852783203125e-01 -1.735539920628070831e-02 -2.361982315778732300e-02
7.410000000000000000e+02 1.657203865051269531e+01 -3.642905807495117188e+01 1.443526893854141235e-01 -2.262065708637237549e-01 -2.455616183578968048e-02 -9.596100449562072754e-02
7.420000000000000000e+02 1.685551834106445312e+01 -3.138663673400878906e+01 1.186024025082588196e-01 -2.099946439266204834e-01 -2.741767093539237976e-02 -1.627343297004699707e-01
7.430000000000000000e+02 1.738302040100097656e+01 -2.970291137695312500e+01 1.057476550340652466e-01 -1.979457437992095947e-01 -2.765942737460136414e-02 -1.859497278928756714e-01
7.440000000000000000e+02 1.783092308044433594e+01 -2.803924369812011719e+01 8.274675905704498291e-02 -1.910598278045654297e-01 -3.249391913414001465e-02 -1.994718313217163086e-01
7.450000000000000000e+02 1.833358573913574219e+01 -2.643778610229492188e+01 6.300476193428039551e-02 -1.841780841350555420e-01 -3.635199368000030518e-02 -2.142613232135772705e-01
7.460000000000000000e+02 1.894468879699707031e+01 -2.493123817443847656e+01 4.020350798964500427e-02 -1.818962991237640381e-01 -4.250783845782279968e-02 -2.204237878322601318e-01
7.470000000000000000e+02 1.821124649047851562e+01 -2.270091056823730469e+01 -4.671006929129362106e-03 -1.774248778820037842e-01 -5.462876707315444946e-02 -2.307313531637191772e-01
7.480000000000000000e+02 1.852668571472167969e+01 -2.140346336364746094e+01 -2.282587811350822449e-02 -1.756842732429504395e-01 -5.955304577946662903e-02 -2.396660596132278442e-01
7.490000000000000000e+02 2.097407722473144531e+01 -1.854611015319824219e+01 -7.700161635875701904e-02 -2.168822735548019409e-01 -8.816516399383544922e-02 -2.456708997488021851e-01
7.500000000000000000e+02 1.986425971984863281e+01 -1.553003311157226562e+01 -1.835276931524276733e-01 -1.777559667825698853e-01 -1.083851009607315063e-01 -2.795072197914123535e-01
7.510000000000000000e+02 2.001488113403320312e+01 -1.358903598785400391e+01 -3.011466860771179199e-01 -1.359571069478988647e-01 -1.311311423778533936e-01 -2.702017724514007568e-01
7.520000000000000000e+02 1.935934257507324219e+01 -1.090001106262207031e+01 -3.879841268062591553e-01 1.144141796976327896e-02 -1.129628121852874756e-01 -1.316042691469192505e-01
7.530000000000000000e+02 2.038437843322753906e+01 -9.443444252014160156e+00 -3.794679641723632812e-01 2.770238928496837616e-02 -1.055296733975410461e-01 -3.559241071343421936e-02
7.540000000000000000e+02 1.997119712829589844e+01 -8.313261985778808594e+00 -1.839257329702377319e-01 9.560346603393554688e-03 -5.230961367487907410e-02 1.402997598052024841e-02
7.550000000000000000e+02 1.980509567260742188e+01 -9.133358955383300781e+00 -2.763564586639404297e-01 3.089010901749134064e-02 -7.363990694284439087e-02 -2.025979803875088692e-03
7.560000000000000000e+02 1.781957817077636719e+01 -3.447013473510742188e+01 1.587568968534469604e-01 -2.154173403978347778e-01 -1.699813641607761383e-02 -1.241463571786880493e-01
7.570000000000000000e+02 2.050669288635253906e+01 -3.308338546752929688e+01 1.812459975481033325e-01 -1.905511617660522461e-01 -2.791550010442733765e-03 -1.541718840599060059e-01
7.580000000000000000e+02 1.894012260437011719e+01 -3.045597648620605469e+01 1.301541477441787720e-01 -1.941662579774856567e-01 -1.920363120734691620e-02 -1.814883351325988770e-01
7.590000000000000000e+02 1.932957267761230469e+01 -2.878531074523925781e+01 1.074772551655769348e-01 -1.858706027269363403e-01 -2.351800538599491119e-02 -2.013364583253860474e-01
7.600000000000000000e+02 1.984487915039062500e+01 -2.726520347595214844e+01 8.300513774156570435e-02 -1.821860671043395996e-01 -2.975427918136119843e-02 -2.089652419090270996e-01
7.610000000000000000e+02 2.042331886291503906e+01 -2.578761100769042969e+01 6.395772099494934082e-02 -1.789171099662780762e-01 -3.448781743645668030e-02 -2.195960581302642822e-01
7.620000000000000000e+02 1.963722229003906250e+01 -2.346235084533691406e+01 1.840474270284175873e-02 -1.808761805295944214e-01 -4.874143004417419434e-02 -2.304482012987136841e-01
7.630000000000000000e+02 1.951598548889160156e+01 -2.121520423889160156e+01 -2.396896295249462128e-02 -1.836540251970291138e-01 -6.228689849376678467e-02 -2.390131503343582153e-01
7.640000000000000000e+02 2.177538871765136719e+01 -1.886168098449707031e+01 -6.108471378684043884e-02 -2.222644835710525513e-01 -8.500475436449050903e-02 -2.382749617099761963e-01
7.650000000000000000e+02 2.169837188720703125e+01 -1.675844383239746094e+01 -1.193387359380722046e-01 -2.573246955871582031e-01 -1.129990294575691223e-01 -2.557990550994873047e-01
7.660000000000000000e+02 2.213712501525878906e+01 -1.591768741607666016e+01 -1.393985301256179810e-01 -2.886903882026672363e-01 -1.284266859292984009e-01 -2.710420489311218262e-01
7.670000000000000000e+02 2.174069595336914062e+01 -1.347388744354248047e+01 -2.911577224731445312e-01 -2.713307142257690430e-01 -1.687465310096740723e-01 -3.397369086742401123e-01
7.680000000000000000e+02 2.260873031616210938e+01 -1.185630226135253906e+01 -4.592659771442413330e-01 -3.465048372745513916e-01 -2.417312413454055786e-01 -4.213566780090332031e-01
7.690000000000000000e+02 2.167053604125976562e+01 -1.023801898956298828e+01 -6.878250837326049805e-01 1.012642588466405869e-02 -2.033095955848693848e-01 -1.937622427940368652e-01
7.700000000000000000e+02 2.302024269104003906e+01 -3.636188125610351562e+01 2.581592500209808350e-01 -1.784839034080505371e-01 2.390260249376296997e-02 -1.113746985793113708e-01
7.710000000000000000e+02 2.289369583129882812e+01 -4.032490921020507812e+01 2.787089645862579346e-01 -1.849145591259002686e-01 2.813831716775894165e-02 -4.048884660005569458e-02
7.720000000000000000e+02 2.019147682189941406e+01 -3.579272460937500000e+01 2.132924944162368774e-01 -1.993145942687988281e-01 4.193372093141078949e-03 -1.147715449333190918e-01
7.730000000000000000e+02 2.256427383422851562e+01 -3.308945083618164062e+01 2.073449939489364624e-01 -1.736294925212860107e-01 1.011464744806289673e-02 -1.629440635442733765e-01
7.740000000000000000e+02 2.048678970336914062e+01 -3.098789596557617188e+01 1.568491160869598389e-01 -1.849669516086578369e-01 -8.435354568064212799e-03 -1.836787462234497070e-01
7.750000000000000000e+02 2.072582626342773438e+01 -2.953072547912597656e+01 1.252795159816741943e-01 -1.800648570060729980e-01 -1.643560267984867096e-02 -1.952603906393051147e-01
7.760000000000000000e+02 2.132056427001953125e+01 -2.819836044311523438e+01 1.109743863344192505e-01 -1.758292317390441895e-01 -1.945645362138748169e-02 -2.064574211835861206e-01
7.770000000000000000e+02 2.187997627258300781e+01 -2.668692588806152344e+01 8.595505356788635254e-02 -1.703869998455047607e-01 -2.532958425581455231e-02 -2.138015925884246826e-01
7.780000000000000000e+02 2.243016242980957031e+01 -2.516972732543945312e+01 5.918045714497566223e-02 -1.662622988224029541e-01 -3.212455287575721741e-02 -2.192489206790924072e-01
7.790000000000000000e+02 2.181076240539550781e+01 -2.289040565490722656e+01 1.580347679555416107e-02 -1.804898381233215332e-01 -4.940590634942054749e-02 -2.233290970325469971e-01
7.800000000000000000e+02 2.116281700134277344e+01 -2.095829963684082031e+01 -2.193575911223888397e-02 -1.949219703674316406e-01 -6.505731493234634399e-02 -2.348503768444061279e-01
7.810000000000000000e+02 2.323264694213867188e+01 -1.864899253845214844e+01 -5.892379209399223328e-02 -2.440508455038070679e-01 -9.089238941669464111e-02 -2.043825536966323853e-01
7.820000000000000000e+02 2.403086853027343750e+01 -1.720417594909667969e+01 -7.817100733518600464e-02 -2.948191463947296143e-01 -1.118970513343811035e-01 -1.817261278629302979e-01
7.830000000000000000e+02 2.323492622375488281e+01 -1.555110645294189453e+01 -1.272992491722106934e-01 -3.533474504947662354e-01 -1.441940218210220337e-01 -2.451464533805847168e-01
7.840000000000000000e+02 2.350337982177734375e+01 -1.353496932983398438e+01 -2.147723287343978882e-01 -4.751187562942504883e-01 -2.069673240184783936e-01 -3.043641149997711182e-01
7.850000000000000000e+02 2.385688400268554688e+01 -9.390569686889648438e+00 -1.647662520408630371e+00 -3.608649671077728271e-01 -6.025582551956176758e-01 -3.583114743232727051e-01
7.860000000000000000e+02 2.457257270812988281e+01 -3.274938201904296875e+01 2.199153602123260498e-01 -1.532915681600570679e-01 1.998713612556457520e-02 -1.721987575292587280e-01
7.870000000000000000e+02 2.281282424926757812e+01 -2.937414932250976562e+01 1.448801457881927490e-01 -1.642014086246490479e-01 -5.796374753117561340e-03 -1.971422433853149414e-01
7.880000000000000000e+02 2.332321357727050781e+01 -2.755225944519042969e+01 1.131099015474319458e-01 -1.542236804962158203e-01 -1.233413349837064743e-02 -2.137084305286407471e-01
7.890000000000000000e+02 2.377764320373535156e+01 -2.594821739196777344e+01 7.167994230985641479e-02 -1.510011553764343262e-01 -2.379636280238628387e-02 -2.130723893642425537e-01
7.900000000000000000e+02 2.427503013610839844e+01 -2.460330963134765625e+01 4.615900292992591858e-02 -1.448543220758438110e-01 -2.960859425365924835e-02 -2.126047313213348389e-01
7.910000000000000000e+02 2.308482933044433594e+01 -2.374250411987304688e+01 2.814814262092113495e-02 -1.679693609476089478e-01 -4.194636270403862000e-02 -2.137256413698196411e-01
7.920000000000000000e+02 2.382904815673828125e+01 -2.012697029113769531e+01 -4.021558538079261780e-02 -2.059047967195510864e-01 -7.383611053228378296e-02 -1.923132538795471191e-01
7.930000000000000000e+02 2.390479278564453125e+01 -1.903123283386230469e+01 -5.090837180614471436e-02 -2.370322942733764648e-01 -8.638219535350799561e-02 -1.882325857877731323e-01
7.940000000000000000e+02 2.578968429565429688e+01 -1.655218505859375000e+01 -8.955770730972290039e-02 -2.917821109294891357e-01 -1.144019514322280884e-01 -8.905717730522155762e-02
7.950000000000000000e+02 2.554956817626953125e+01 -1.511205577850341797e+01 -9.894684702157974243e-02 -4.085999727249145508e-01 -1.522640436887741089e-01 -9.118565917015075684e-02
7.960000000000000000e+02 2.576054382324218750e+01 -1.304070568084716797e+01 -1.455821990966796875e-01 -6.607620120048522949e-01 -2.419032752513885498e-01 -5.697451904416084290e-02
7.970000000000000000e+02 2.442728233337402344e+01 -1.196144008636474609e+01 -2.997614741325378418e-01 -7.462792992591857910e-01 -3.138122260570526123e-01 -3.417980968952178955e-01
7.980000000000000000e+02 2.539878273010253906e+01 -1.038919067382812500e+01 -5.206527709960937500e-01 -1.367579936981201172e+00 -5.664697885513305664e-01 -2.101113945245742798e-01
7.990000000000000000e+02 2.459417343139648438e+01 -9.811876296997070312e+00 -1.365702390670776367e+00 -1.299368739128112793e+00 -7.995213270187377930e-01 -7.051209211349487305e-01
8.000000000000000000e+02 2.733595657348632812e+01 -4.053047180175781250e+01 3.664798140525817871e-01 -1.285460293292999268e-01 7.138013839721679688e-02 -3.415943682193756104e-02
8.010000000000000000e+02 2.739763450622558594e+01 -3.729230880737304688e+01 3.454475998878479004e-01 -1.199684813618659973e-01 6.764373928308486938e-02 -1.041409894824028015e-01
8.020000000000000000e+02 2.535625648498535156e+01 -3.567552947998046875e+01 2.938971519470214844e-01 -1.509690284729003906e-01 4.287844151258468628e-02 -1.271739900112152100e-01
8.030000000000000000e+02 2.721335983276367188e+01 -3.484747695922851562e+01 3.066618144512176514e-01 -1.152668744325637817e-01 5.741848424077033997e-02 -1.493950486183166504e-01
8.040000000000000000e+02 2.444766426086425781e+01 -3.018694114685058594e+01 1.751603037118911743e-01 -1.468001455068588257e-01 8.508048951625823975e-03 -1.966284513473510742e-01
8.050000000000000000e+02 2.472389411926269531e+01 -2.819262504577636719e+01 1.255182474851608276e-01 -1.390084922313690186e-01 -4.047073889523744583e-03 -2.091466784477233887e-01
8.060000000000000000e+02 2.511498451232910156e+01 -2.660279273986816406e+01 9.388241916894912720e-02 -1.294149309396743774e-01 -1.065975520759820938e-02 -2.169244140386581421e-01
8.070000000000000000e+02 2.563020706176757812e+01 -2.522829437255859375e+01 4.885934293270111084e-02 -1.229220703244209290e-01 -2.221881784498691559e-02 -2.098935395479202271e-01
8.080000000000000000e+02 2.598994445800781250e+01 -2.300213623046875000e+01 -8.861506357789039612e-03 -1.254213452339172363e-01 -4.028485342860221863e-02 -1.877333521842956543e-01
8.090000000000000000e+02 2.624719810485839844e+01 -1.934929656982421875e+01 -7.926052063703536987e-02 -1.670027822256088257e-01 -7.387898862361907959e-02 -1.217071041464805603e-01
8.100000000000000000e+02 2.764474487304687500e+01 -1.655658531188964844e+01 -1.462112665176391602e-01 -1.687977761030197144e-01 -9.450270980596542358e-02 8.199849165976047516e-03
8.110000000000000000e+02 2.744744110107421875e+01 -1.535434150695800781e+01 -1.439244747161865234e-01 -2.414705604314804077e-01 -1.156185120344161987e-01 4.475853964686393738e-02
8.120000000000000000e+02 2.643402862548828125e+01 -1.357758045196533203e+01 -1.458532661199569702e-01 -4.926872551441192627e-01 -1.915621459484100342e-01 2.361010573804378510e-02
8.130000000000000000e+02 2.674070739746093750e+01 -1.174807548522949219e+01 -2.803778350353240967e-01 -6.482799053192138672e-01 -2.785973250865936279e-01 6.097504869103431702e-02
8.140000000000000000e+02 2.570804786682128906e+01 -9.615249633789062500e+00 -9.043031334877014160e-01 -1.118317008018493652e+00 -6.067860126495361328e-01 3.829852491617202759e-02
8.150000000000000000e+02 2.830759811401367188e+01 -3.203057479858398438e+01 2.590570449829101562e-01 -9.611498564481735229e-02 4.888262227177619934e-02 -1.885159909725189209e-01
8.160000000000000000e+02 2.613693428039550781e+01 -3.027288246154785156e+01 1.855950206518173218e-01 -1.252530962228775024e-01 1.810257695615291595e-02 -2.010730057954788208e-01
8.170000000000000000e+02 2.716401290893554688e+01 -2.828898048400878906e+01 1.408514529466629028e-01 -1.044528186321258545e-01 1.091959141194820404e-02 -2.126652747392654419e-01
8.180000000000000000e+02 2.633544349670410156e+01 -2.722628021240234375e+01 1.071997210383415222e-01 -1.139039546251296997e-01 -2.011269563809037209e-03 -2.167361974716186523e-01
8.190000000000000000e+02 2.785585594177246094e+01 -2.465103721618652344e+01 2.284112945199012756e-02 -7.559820264577865601e-02 -1.582712121307849884e-02 -2.084617018699645996e-01
8.200000000000000000e+02 2.740696907043457031e+01 -2.263793563842773438e+01 -3.194886073470115662e-02 -8.019521832466125488e-02 -3.364322334527969360e-02 -1.843661069869995117e-01
8.210000000000000000e+02 2.688548278808593750e+01 -2.091522789001464844e+01 -7.103504985570907593e-02 -1.057228296995162964e-01 -5.302736535668373108e-02 -1.494043171405792236e-01
8.220000000000000000e+02 2.859097290039062500e+01 -1.797177314758300781e+01 -1.729078590869903564e-01 -4.985585808753967285e-02 -6.682911515235900879e-02 -2.865605987608432770e-02
8.230000000000000000e+02 2.985210227966308594e+01 -1.526325607299804688e+01 -2.471672296524047852e-01 7.574465870857238770e-02 -5.142677202820777893e-02 9.685417264699935913e-02
8.240000000000000000e+02 2.908641815185546875e+01 -1.224434375762939453e+01 -2.302737385034561157e-01 -3.737836703658103943e-02 -8.029562979936599731e-02 1.576532870531082153e-01
8.250000000000000000e+02 3.022766876220703125e+01 -3.704172897338867188e+01 3.849047124385833740e-01 -6.422434002161026001e-02 9.620410948991775513e-02 -1.118594184517860413e-01
8.260000000000000000e+02 3.095956039428710938e+01 -3.344742965698242188e+01 3.351545929908752441e-01 -5.282135680317878723e-02 8.469996601343154907e-02 -1.746329218149185181e-01
8.270000000000000000e+02 2.768114852905273438e+01 -2.997163200378417969e+01 1.866915076971054077e-01 -9.755180776119232178e-02 2.674191072583198547e-02 -2.067698091268539429e-01
8.280000000000000000e+02 2.830149269104003906e+01 -2.751458358764648438e+01 1.171027123928070068e-01 -7.792641222476959229e-02 1.175288949161767960e-02 -2.228351682424545288e-01
8.290000000000000000e+02 2.969919204711914062e+01 -2.688472747802734375e+01 9.311271458864212036e-02 -4.487500339746475220e-02 1.447131391614675522e-02 -2.334940880537033081e-01
8.300000000000000000e+02 2.933375930786132812e+01 -2.506823921203613281e+01 2.809948287904262543e-02 -3.917455673217773438e-02 -3.322522155940532684e-03 -2.228914648294448853e-01
8.310000000000000000e+02 2.896866226196289062e+01 -2.238387870788574219e+01 -7.761050760746002197e-02 -2.657353505492210388e-02 -3.125521168112754822e-02 -1.757696866989135742e-01
8.320000000000000000e+02 2.863309669494628906e+01 -2.014900207519531250e+01 -1.379711627960205078e-01 -3.551795333623886108e-02 -5.204673483967781067e-02 -1.107437536120414734e-01
8.330000000000000000e+02 3.017337036132812500e+01 -1.828685951232910156e+01 -2.397961765527725220e-01 7.280911505222320557e-02 -5.009611696004867554e-02 -3.345088288187980652e-02
8.340000000000000000e+02 3.156282997131347656e+01 -1.734514617919921875e+01 -3.050966858863830566e-01 1.848878115415573120e-01 -3.606265783309936523e-02 -2.078659646213054657e-02
8.350000000000000000e+02 3.105499267578125000e+01 -1.532957267761230469e+01 -2.883225381374359131e-01 1.995109915733337402e-01 -2.664346247911453247e-02 7.189118862152099609e-02
8.360000000000000000e+02 2.993413352966308594e+01 -1.398083400726318359e+01 -2.389851063489913940e-01 9.564256668090820312e-02 -4.300276190042495728e-02 1.382168680429458618e-01
8.370000000000000000e+02 2.986574363708496094e+01 -3.138246917724609375e+01 2.511659860610961914e-01 -7.186918705701828003e-02 5.378903821110725403e-02 -2.042429000139236450e-01
8.380000000000000000e+02 3.119455909729003906e+01 -2.651716041564941406e+01 8.442172408103942871e-02 -1.337065361440181732e-02 2.131532132625579834e-02 -2.469477206468582153e-01
8.390000000000000000e+02 3.074323844909667969e+01 -2.487939834594726562e+01 2.517828252166509628e-03 -4.417520249262452126e-04 6.228228448890149593e-04 -2.398647218942642212e-01
8.400000000000000000e+02 3.042286872863769531e+01 -2.337641334533691406e+01 -5.725006014108657837e-02 8.081762120127677917e-03 -1.475048903375864029e-02 -2.170059084892272949e-01
8.410000000000000000e+02 3.096397018432617188e+01 -2.052285957336425781e+01 -2.156926244497299194e-01 8.186278492212295532e-02 -4.014895111322402954e-02 -1.589989066123962402e-01
8.420000000000000000e+02 3.163085174560546875e+01 -4.050389480590820312e+01 4.661716520786285400e-01 -2.406728453934192657e-02 1.326313167810440063e-01 -3.738824278116226196e-02
8.430000000000000000e+02 3.418693923950195312e+01 -3.369920349121093750e+01 3.949830830097198486e-01 3.267809748649597168e-02 1.282983571290969849e-01 -1.724304407835006714e-01
8.440000000000000000e+02 3.120146179199218750e+01 -3.062283325195312500e+01 2.437662035226821899e-01 -4.246069118380546570e-02 6.039165332913398743e-02 -2.137037217617034912e-01
8.450000000000000000e+02 3.045000267028808594e+01 -2.879156494140625000e+01 1.845994442701339722e-01 -4.923398792743682861e-02 4.060963541269302368e-02 -2.309468835592269897e-01
8.460000000000000000e+02 3.185283470153808594e+01 -2.829428100585937500e+01 1.616119444370269775e-01 -1.297150831669569016e-02 4.459213092923164368e-02 -2.465687990188598633e-01
8.470000000000000000e+02 3.254885482788085938e+01 -2.609019088745117188e+01 5.973114445805549622e-02 1.797224953770637512e-02 2.331101894378662109e-02 -2.655362784862518311e-01
8.480000000000000000e+02 3.266912078857421875e+01 -2.273768043518066406e+01 -1.264832019805908203e-01 7.263983041048049927e-02 -1.615301147103309631e-02 -2.479142695665359497e-01
8.490000000000000000e+02 3.274594879150390625e+01 -2.021203231811523438e+01 -2.980159223079681396e-01 1.540902107954025269e-01 -4.317771643400192261e-02 -1.908248513936996460e-01
8.500000000000000000e+02 3.348300170898437500e+01 -1.877923583984375000e+01 -4.007374048233032227e-01 2.308631092309951782e-01 -5.096228420734405518e-02 -1.548742204904556274e-01
8.510000000000000000e+02 3.407690429687500000e+01 -1.809999847412109375e+01 -4.213027358055114746e-01 2.553412318229675293e-01 -4.978845641016960144e-02 -1.615355461835861206e-01
8.520000000000000000e+02 3.258978652954101562e+01 -3.024917411804199219e+01 2.638892829418182373e-01 -1.181286573410034180e-02 7.562292367219924927e-02 -2.283052355051040649e-01
8.530000000000000000e+02 3.320456314086914062e+01 -2.779073333740234375e+01 1.554295420646667480e-01 1.120606344193220139e-02 4.999068006873130798e-02 -2.562849819660186768e-01
8.540000000000000000e+02 3.383027267456054688e+01 -2.557886886596679688e+01 4.403341934084892273e-02 3.954951465129852295e-02 2.507488057017326355e-02 -2.790627777576446533e-01
8.550000000000000000e+02 3.323100280761718750e+01 -2.410101509094238281e+01 -5.861875414848327637e-02 5.443745851516723633e-02 -1.254388247616589069e-03 -2.728443145751953125e-01
8.560000000000000000e+02 3.370051574707031250e+01 -2.222562980651855469e+01 -1.869177222251892090e-01 9.828501194715499878e-02 -2.658981084823608398e-02 -2.729687392711639404e-01
8.570000000000000000e+02 3.376243972778320312e+01 -2.065520477294921875e+01 -2.942919731140136719e-01 1.521656364202499390e-01 -4.263790696859359741e-02 -2.455579191446304321e-01
8.580000000000000000e+02 3.824659729003906250e+01 -4.050366592407226562e+01 5.807584524154663086e-01 2.133353650569915771e-01 2.382281422615051270e-01 -3.118935413658618927e-02
8.590000000000000000e+02 3.557293701171875000e+01 -3.156620597839355469e+01 3.643897175788879395e-01 7.777300477027893066e-02 1.326488107442855835e-01 -2.025447487831115723e-01
8.600000000000000000e+02 3.523695373535156250e+01 -2.870947074890136719e+01 2.312475740909576416e-01 6.230374053120613098e-02 8.806539326906204224e-02 -2.542485594749450684e-01
8.610000000000000000e+02 3.449534606933593750e+01 -2.714720916748046875e+01 1.330941468477249146e-01 4.202802106738090515e-02 5.253664776682853699e-02 -2.726668715476989746e-01
8.620000000000000000e+02 3.583321380615234375e+01 -2.650791549682617188e+01 1.195199340581893921e-01 6.350997090339660645e-02 5.490897223353385925e-02 -2.742833197116851807e-01
8.630000000000000000e+02 3.625639724731445312e+01 -2.435445976257324219e+01 -6.806357298046350479e-03 6.093572452664375305e-02 1.623881049454212189e-02 -2.962561249732971191e-01
8.640000000000000000e+02 3.592140197753906250e+01 -2.073280143737792969e+01 -3.157725930213928223e-01 1.180669739842414856e-01 -5.931168794631958008e-02 -3.221243917942047119e-01
8.650000000000000000e+02 4.281002044677734375e+01 -4.068788909912109375e+01 6.511803865432739258e-01 5.528140664100646973e-01 3.611983358860015869e-01 -1.732162199914455414e-02
8.660000000000000000e+02 4.232593154907226562e+01 -3.376231384277343750e+01 5.243861675262451172e-01 4.308210313320159912e-01 2.865621745586395264e-01 -8.956992626190185547e-02
8.670000000000000000e+02 4.046043395996093750e+01 -3.002631950378417969e+01 3.589490652084350586e-01 2.550471723079681396e-01 1.841988712549209595e-01 -1.665403246879577637e-01
8.680000000000000000e+02 4.110635375976562500e+01 -2.801352500915527344e+01 2.772996425628662109e-01 2.565661966800689697e-01 1.601597517728805542e-01 -1.733946204185485840e-01
8.690000000000000000e+02 4.145774078369140625e+01 -2.628087997436523438e+01 1.550863981246948242e-01 2.183475196361541748e-01 1.120301783084869385e-01 -1.789580583572387695e-01
8.700000000000000000e+02 4.067048645019531250e+01 -2.271622467041015625e+01 -9.080664068460464478e-02 5.449655279517173767e-02 -1.089302450418472290e-02 -2.031795084476470947e-01
8.710000000000000000e+02 4.136835861206054688e+01 -2.078068351745605469e+01 -2.931742966175079346e-01 -4.217693954706192017e-02 -1.006053686141967773e-01 -1.208673194050788879e-01
8.720000000000000000e+02 4.223907852172851562e+01 -1.967247962951660156e+01 -4.923833012580871582e-01 6.136528402566909790e-02 -1.293054074048995972e-01 -3.671954572200775146e-02
8.730000000000000000e+02 4.297193145751953125e+01 -1.800482177734375000e+01 -7.431020140647888184e-01 1.545856297016143799e-01 -1.765549182891845703e-01 -3.594065457582473755e-02
8.740000000000000000e+02 4.387351608276367188e+01 -1.559623146057128906e+01 -5.847614407539367676e-01 2.542561292648315430e-01 -9.915160387754440308e-02 -2.173378616571426392e-01
8.750000000000000000e+02 4.344301986694335938e+01 -1.427804088592529297e+01 -3.389301300048828125e-01 1.426892280578613281e-01 -5.887226760387420654e-02 -2.272424399852752686e-01
8.760000000000000000e+02 4.256608963012695312e+01 -1.409328365325927734e+01 -2.556648850440979004e-01 -5.356709286570549011e-02 -9.276960045099258423e-02 -2.316519469022750854e-01
8.770000000000000000e+02 4.207911300659179688e+01 -1.218952083587646484e+01 4.545902833342552185e-02 -4.297091066837310791e-02 7.464351947419345379e-04 -1.367211639881134033e-01
8.780000000000000000e+02 4.280523681640625000e+01 -3.711972808837890625e+01 5.983347296714782715e-01 5.290653109550476074e-01 3.382200300693511963e-01 -4.033712297677993774e-02
8.790000000000000000e+02 4.238024902343750000e+01 -3.086169052124023438e+01 4.239796996116638184e-01 3.872911036014556885e-01 2.433812320232391357e-01 -1.158664152026176453e-01
8.800000000000000000e+02 4.275378799438476562e+01 -2.851823043823242188e+01 2.989495098590850830e-01 3.557761907577514648e-01 1.964177191257476807e-01 -1.361454129219055176e-01
8.810000000000000000e+02 4.301306533813476562e+01 -2.658926582336425781e+01 1.974513381719589233e-01 3.352800011634826660e-01 1.598194092512130737e-01 -1.292237043380737305e-01
8.820000000000000000e+02 4.311702728271484375e+01 -2.487166023254394531e+01 5.126814544200897217e-02 2.846156954765319824e-01 1.007651537656784058e-01 -1.389480233192443848e-01
8.830000000000000000e+02 4.273505401611328125e+01 -2.330326271057128906e+01 -7.835388928651809692e-02 2.162888944149017334e-01 4.138050228357315063e-02 -1.259465068578720093e-01
8.840000000000000000e+02 4.208452606201171875e+01 -2.087839889526367188e+01 -3.214879631996154785e-01 8.708731830120086670e-02 -7.032019644975662231e-02 -9.101416170597076416e-02
8.850000000000000000e+02 4.349101638793945312e+01 -1.885442733764648438e+01 -5.963897109031677246e-01 2.392672747373580933e-01 -1.071367338299751282e-01 1.191433239728212357e-02
8.860000000000000000e+02 4.425884628295898438e+01 -1.744526290893554688e+01 -7.380508780479431152e-01 3.909183144569396973e-01 -1.041397750377655029e-01 -5.025858804583549500e-02
8.870000000000000000e+02 4.476841735839843750e+01 -3.349015045166015625e+01 5.394964814186096191e-01 6.363803744316101074e-01 3.527630567550659180e-01 -5.886645615100860596e-02
8.880000000000000000e+02 4.439804840087890625e+01 -3.095298004150390625e+01 4.408600628376007080e-01 5.518437027931213379e-01 2.978111207485198975e-01 -7.735750079154968262e-02
8.890000000000000000e+02 4.443416595458984375e+01 -2.872703552246093750e+01 3.315595388412475586e-01 4.942265152931213379e-01 2.477358132600784302e-01 -8.539937436580657959e-02
8.900000000000000000e+02 4.463813781738281250e+01 -2.678097343444824219e+01 2.015389353036880493e-01 4.448483884334564209e-01 1.939162015914916992e-01 -9.854668378829956055e-02
8.910000000000000000e+02 4.481243896484375000e+01 -2.218038177490234375e+01 -2.222049981355667114e-01 4.008556008338928223e-01 5.359517782926559448e-02 -7.604756951332092285e-02
8.920000000000000000e+02 4.408881378173828125e+01 -2.113600730895996094e+01 -3.353374302387237549e-01 3.176595568656921387e-01 -5.303363315761089325e-03 -7.128499448299407959e-02
8.930000000000000000e+02 4.583440780639648438e+01 -1.823584938049316406e+01 -6.419101953506469727e-01 5.168635249137878418e-01 -3.751400485634803772e-02 -4.532077535986900330e-02
8.940000000000000000e+02 4.634064483642578125e+01 -1.770466613769531250e+01 -6.683714389801025391e-01 5.720712542533874512e-01 -2.889004163444042206e-02 -5.942386761307716370e-02
8.950000000000000000e+02 5.907739639282226562e+01 -3.747218322753906250e+01 5.364388823509216309e-01 2.830375432968139648e+00 1.010044336318969727e+00 8.285509049892425537e-02
8.960000000000000000e+02 4.761319351196289062e+01 -4.085294723510742188e+01 6.732224822044372559e-01 1.022711634635925293e+00 5.087802410125732422e-01 3.155254060402512550e-03
8.970000000000000000e+02 4.822302246093750000e+01 -3.779384231567382812e+01 6.319686174392700195e-01 1.079633712768554688e+00 5.134807229042053223e-01 1.687189564108848572e-02
8.980000000000000000e+02 4.571967315673828125e+01 -3.625225448608398438e+01 6.118209958076477051e-01 7.795578241348266602e-01 4.174136221408843994e-01 -3.833391889929771423e-02
8.990000000000000000e+02 4.616868209838867188e+01 -3.074793624877929688e+01 4.435883760452270508e-01 7.140117287635803223e-01 3.472800254821777344e-01 -3.020942397415637970e-02
9.000000000000000000e+02 4.604058456420898438e+01 -2.882331657409667969e+01 3.406651020050048828e-01 6.400746107101440430e-01 2.942219078540802002e-01 -4.648754745721817017e-02
9.010000000000000000e+02 4.636991882324218750e+01 -2.701133728027343750e+01 2.346867918968200684e-01 6.097457408905029297e-01 2.533297538757324219e-01 -3.580899536609649658e-02
9.020000000000000000e+02 4.660157394409179688e+01 -2.522447395324707031e+01 1.062791869044303894e-01 5.806562304496765137e-01 2.060806304216384888e-01 -5.816422030329704285e-02
9.030000000000000000e+02 4.619572830200195312e+01 -2.065029716491699219e+01 -4.297396540641784668e-01 5.071924328804016113e-01 2.323583327233791351e-02 -6.537500768899917603e-02
9.040000000000000000e+02 4.590124511718750000e+01 -1.937139701843261719e+01 -5.593433976173400879e-01 5.039171576499938965e-01 -1.662786677479743958e-02 -4.513983428478240967e-02
9.050000000000000000e+02 4.683253097534179688e+01 -3.286616897583007812e+01 5.188192129135131836e-01 8.677912354469299316e-01 4.159831404685974121e-01 -1.349188666790723801e-02
9.060000000000000000e+02 4.760771942138671875e+01 -3.035794448852539062e+01 4.294930696487426758e-01 8.721239566802978516e-01 3.904851078987121582e-01 9.458630345761775970e-03
9.070000000000000000e+02 4.895431900024414062e+01 -2.674674987792968750e+01 2.382626682519912720e-01 8.881494998931884766e-01 3.379236459732055664e-01 4.823970422148704529e-02
9.080000000000000000e+02 4.818527603149414062e+01 -2.122283744812011719e+01 -3.729474544525146484e-01 5.880794525146484375e-01 6.453960388898849487e-02 -8.935707062482833862e-02
9.090000000000000000e+02 5.209707260131835938e+01 -3.810133361816406250e+01 6.183711290359497070e-01 1.619993448257446289e+00 6.715093851089477539e-01 4.040030762553215027e-02
9.100000000000000000e+02 4.997512435913085938e+01 -3.389835357666015625e+01 5.504219532012939453e-01 1.251955986022949219e+00 5.407133698463439941e-01 5.604597926139831543e-02
9.110000000000000000e+02 4.853009414672851562e+01 -3.195034980773925781e+01 4.854797124862670898e-01 1.035199522972106934e+00 4.562037587165832520e-01 4.481210187077522278e-02
9.120000000000000000e+02 4.855337524414062500e+01 -2.951745033264160156e+01 3.779192864894866943e-01 9.669954776763916016e-01 4.034744203090667725e-01 6.304209679365158081e-02
9.130000000000000000e+02 5.061901092529296875e+01 -2.681532478332519531e+01 2.366183549165725708e-01 1.163226962089538574e+00 4.199536144733428955e-01 1.679472476243972778e-01
9.140000000000000000e+02 4.983818054199218750e+01 -2.454587745666503906e+01 1.057568192481994629e-01 8.634705543518066406e-01 2.907682061195373535e-01 9.398130327463150024e-02
9.150000000000000000e+02 4.809570693969726562e+01 -2.230015373229980469e+01 -1.836216449737548828e-01 6.191467046737670898e-01 1.306575089693069458e-01 -5.998173356056213379e-02
9.160000000000000000e+02 5.693652343750000000e+01 -4.102049636840820312e+01 5.801131129264831543e-01 2.448841094970703125e+00 9.086862802505493164e-01 1.944486983120441437e-02
9.170000000000000000e+02 5.279362869262695312e+01 -3.302190780639648438e+01 4.749821722507476807e-01 1.707563638687133789e+00 6.547637581825256348e-01 1.262466311454772949e-01
9.180000000000000000e+02 4.983509063720703125e+01 -3.057798004150390625e+01 4.275198876857757568e-01 1.192674994468688965e+00 4.860584735870361328e-01 7.925046235322952271e-02
9.190000000000000000e+02 5.057545089721679688e+01 -2.875756263732910156e+01 3.362808823585510254e-01 1.252297282218933105e+00 4.765734374523162842e-01 1.224825456738471985e-01
9.200000000000000000e+02 5.196408081054687500e+01 -2.675602149963378906e+01 2.109148949384689331e-01 1.361651897430419922e+00 4.717700481414794922e-01 2.424933314323425293e-01
9.210000000000000000e+02 5.083739471435546875e+01 -2.523053741455078125e+01 1.307769566774368286e-01 1.065013170242309570e+00 3.587370514869689941e-01 1.936444491147994995e-01
9.220000000000000000e+02 5.590819168090820312e+01 -3.811991500854492188e+01 5.844498276710510254e-01 2.300039291381835938e+00 8.653467893600463867e-01 5.701823532581329346e-02
9.230000000000000000e+02 5.233198165893554688e+01 -3.527122879028320312e+01 5.541383028030395508e-01 1.640661716461181641e+00 6.584399938583374023e-01 7.148872315883636475e-02
9.240000000000000000e+02 5.475715637207031250e+01 -3.305730819702148438e+01 4.327643215656280518e-01 2.009329319000244141e+00 7.326281070709228516e-01 1.291640400886535645e-01
9.250000000000000000e+02 5.120644760131835938e+01 -3.203393173217773438e+01 4.620968699455261230e-01 1.462899684906005859e+00 5.774989724159240723e-01 9.949724376201629639e-02
9.260000000000000000e+02 5.259445953369140625e+01 -3.115204238891601562e+01 4.010116159915924072e-01 1.623752355575561523e+00 6.074292063713073730e-01 1.594289690256118774e-01
9.270000000000000000e+02 5.270443344116210938e+01 -2.774889945983886719e+01 2.379233092069625854e-01 1.553551316261291504e+00 5.374423861503601074e-01 2.543582916259765625e-01
9.280000000000000000e+02 5.346871566772460938e+01 -2.699256896972656250e+01 1.456470936536788940e-01 1.709756851196289062e+00 5.566211938858032227e-01 3.246096372604370117e-01
9.290000000000000000e+02 5.590548324584960938e+01 -3.064875602722167969e+01 2.872941195964813232e-01 2.231860399246215820e+00 7.557463645935058594e-01 1.628170907497406006e-01
9.300000000000000000e+02 5.395992279052734375e+01 -2.929426956176757812e+01 2.760662436485290527e-01 1.886464595794677734e+00 6.487592458724975586e-01 2.222561985254287720e-01
9.310000000000000000e+02 5.381992340087890625e+01 -2.795479011535644531e+01 2.007542997598648071e-01 1.835652470588684082e+00 6.109220385551452637e-01 2.838810980319976807e-01
9.320000000000000000e+02 5.761738967895507812e+01 -3.488850021362304688e+01 4.583881497383117676e-01 2.550318717956542969e+00 9.026120305061340332e-01 9.873525053262710571e-02
9.330000000000000000e+02 5.661722183227539062e+01 -3.262462615966796875e+01 3.860614001750946045e-01 2.362661838531494141e+00 8.246169686317443848e-01 1.321016252040863037e-01
9.340000000000000000e+02 5.430913925170898438e+01 -3.101804733276367188e+01 3.491080105304718018e-01 1.945005416870117188e+00 6.882340312004089355e-01 1.916051656007766724e-01
9.350000000000000000e+02 6.128489685058593750e+01 -3.617124938964843750e+01 4.742380678653717041e-01 3.184321641921997070e+00 1.097567915916442871e+00 7.731338590383529663e-02
9.360000000000000000e+02 6.122381973266601562e+01 -4.067900466918945312e+01 5.113522410392761230e-01 3.327151060104370117e+00 1.151551008224487305e+00 2.264919318258762360e-02
9.370000000000000000e+02 7.195950317382812500e+01 -4.113634109497070312e+01 1.990242749452590942e-01 5.769522666931152344e+00 1.790564060211181641e+00 5.445009842514991760e-02
9.380000000000000000e+02 7.379163360595703125e+01 -3.874210739135742188e+01 1.423074603080749512e-01 6.129117965698242188e+00 1.881427645683288574e+00 8.678241074085235596e-02
9.390000000000000000e+02 7.384756469726562500e+01 -3.681715393066406250e+01 1.378642916679382324e-01 6.155729293823242188e+00 1.888078093528747559e+00 1.846847832202911377e-01
9.400000000000000000e+02 7.278578948974609375e+01 -3.340146255493164062e+01 2.475127875804901123e-01 5.850861549377441406e+00 1.829512238502502441e+00 3.627196848392486572e-01
9.410000000000000000e+02 7.230915069580078125e+01 -3.190723037719726562e+01 2.742497920989990234e-01 5.792011260986328125e+00 1.819878339767456055e+00 4.472484588623046875e-01
9.420000000000000000e+02 7.355076599121093750e+01 -3.032923889160156250e+01 2.154636085033416748e-01 6.153629302978515625e+00 1.910727858543395996e+00 5.212684273719787598e-01
9.430000000000000000e+02 7.321856689453125000e+01 -2.911006164550781250e+01 2.202059328556060791e-01 6.024713516235351562e+00 1.873475790023803711e+00 5.717645287513732910e-01
9.440000000000000000e+02 7.355258941650390625e+01 -2.577825164794921875e+01 1.185198202729225159e-01 6.210614204406738281e+00 1.898740172386169434e+00 7.254820466041564941e-01
9.450000000000000000e+02 7.370426940917968750e+01 -2.398896408081054688e+01 -6.184176355600357056e-02 6.374324798583984375e+00 1.893744826316833496e+00 8.480172157287597656e-01
9.460000000000000000e+02 7.406290435791015625e+01 -2.237923812866210938e+01 -3.169733285903930664e-01 6.782003879547119141e+00 1.939509153366088867e+00 8.640117049217224121e-01
9.470000000000000000e+02 7.662873840332031250e+01 -4.174246978759765625e+01 4.013761132955551147e-02 6.772436141967773438e+00 2.043771982192993164e+00 3.099765628576278687e-02
9.480000000000000000e+02 7.538806915283203125e+01 -3.937886047363281250e+01 7.707613706588745117e-02 6.596554756164550781e+00 2.002089262008666992e+00 1.321260780096054077e-01
9.490000000000000000e+02 7.628614044189453125e+01 -3.830021286010742188e+01 6.584928929805755615e-02 6.754237174987792969e+00 2.046025991439819336e+00 1.231029778718948364e-01
9.500000000000000000e+02 7.560274505615234375e+01 -3.664633941650390625e+01 6.928621977567672729e-02 6.626834392547607422e+00 2.008836269378662109e+00 1.767729073762893677e-01
9.510000000000000000e+02 7.535925292968750000e+01 -3.489616394042968750e+01 9.953767061233520508e-02 6.568644046783447266e+00 2.000454425811767578e+00 2.455085813999176025e-01
9.520000000000000000e+02 7.491155242919921875e+01 -3.287599563598632812e+01 1.460923999547958374e-01 6.514171600341796875e+00 1.998079180717468262e+00 3.384697437286376953e-01
9.530000000000000000e+02 7.520957946777343750e+01 -3.037037277221679688e+01 1.360542625188827515e-01 6.688552379608154297e+00 2.047382116317749023e+00 4.562463164329528809e-01
9.540000000000000000e+02 7.557856750488281250e+01 -2.961852836608886719e+01 1.274835765361785889e-01 6.879911422729492188e+00 2.102218627929687500e+00 4.767998456954956055e-01
9.550000000000000000e+02 7.548661041259765625e+01 -2.692141914367675781e+01 7.828753441572189331e-02 7.032234668731689453e+00 2.133156538009643555e+00 5.838813185691833496e-01
9.560000000000000000e+02 7.525797271728515625e+01 -2.530164337158203125e+01 -1.153109408915042877e-02 7.038573741912841797e+00 2.108112812042236328e+00 6.567211747169494629e-01
9.570000000000000000e+02 7.540518951416015625e+01 -2.351953887939453125e+01 -1.635326147079467773e-01 7.315484523773193359e+00 2.145585536956787109e+00 6.469061374664306641e-01
9.580000000000000000e+02 7.551104736328125000e+01 -2.193197250366210938e+01 -3.795149624347686768e-01 7.606040000915527344e+00 2.167957544326782227e+00 5.593840479850769043e-01
9.590000000000000000e+02 7.540403747558593750e+01 -2.114048004150390625e+01 -4.898266792297363281e-01 7.733227252960205078e+00 2.173020124435424805e+00 5.425692796707153320e-01
9.600000000000000000e+02 7.733693695068359375e+01 -3.943920516967773438e+01 4.769602790474891663e-02 6.938666343688964844e+00 2.095908880233764648e+00 7.736560702323913574e-02
9.610000000000000000e+02 7.687995147705078125e+01 -3.631000137329101562e+01 4.331835731863975525e-02 6.971571445465087891e+00 2.104466915130615234e+00 1.561731100082397461e-01
9.620000000000000000e+02 7.788513946533203125e+01 -3.294172286987304688e+01 2.331171743571758270e-02 7.408174991607666016e+00 2.229445934295654297e+00 1.833645701408386230e-01
9.630000000000000000e+02 7.745370483398437500e+01 -3.154836273193359375e+01 5.140384286642074585e-02 7.359474182128906250e+00 2.223263502120971680e+00 2.595874965190887451e-01
9.640000000000000000e+02 7.762982177734375000e+01 -2.928735542297363281e+01 3.111862391233444214e-02 7.640768527984619141e+00 2.301566123962402344e+00 3.129728138446807861e-01
9.650000000000000000e+02 7.704138183593750000e+01 -2.763752365112304688e+01 5.942219495773315430e-02 7.591609954833984375e+00 2.295309543609619141e+00 4.329727888107299805e-01
9.660000000000000000e+02 7.705502319335937500e+01 -2.527406311035156250e+01 -1.977433077991008759e-02 7.870654582977294922e+00 2.355264186859130859e+00 4.636853039264678955e-01
9.670000000000000000e+02 7.706414031982421875e+01 -2.364018440246582031e+01 -9.997673332691192627e-02 8.076438903808593750e+00 2.392938613891601562e+00 4.275532960891723633e-01
9.680000000000000000e+02 7.790877532958984375e+01 -2.283675575256347656e+01 -1.006118282675743103e-01 8.581420898437500000e+00 2.544242858886718750e+00 2.718493342399597168e-01
9.690000000000000000e+02 7.955934143066406250e+01 -4.203954315185546875e+01 9.933306835591793060e-03 7.332240104675292969e+00 2.202651977539062500e+00 1.143921632319688797e-02
9.700000000000000000e+02 7.849242401123046875e+01 -4.192898559570312500e+01 4.649938549846410751e-03 7.183130264282226562e+00 2.156333923339843750e+00 -2.170163579285144806e-02
9.710000000000000000e+02 7.829333496093750000e+01 -4.089109802246093750e+01 1.378607098013162613e-02 7.087531089782714844e+00 2.130395174026489258e+00 -6.640851963311433792e-03
9.720000000000000000e+02 7.865795898437500000e+01 -3.937997817993164062e+01 2.040062658488750458e-02 7.187264919281005859e+00 2.162299633026123047e+00 3.369659930467605591e-02
9.730000000000000000e+02 7.859955596923828125e+01 -3.796087646484375000e+01 1.201288867741823196e-02 7.260890483856201172e+00 2.181870937347412109e+00 6.003434211015701294e-02
9.740000000000000000e+02 7.867760467529296875e+01 -3.641918945312500000e+01 9.950591484084725380e-04 7.329361915588378906e+00 2.199107170104980469e+00 7.872270047664642334e-02
9.750000000000000000e+02 7.876763916015625000e+01 -3.429548645019531250e+01 1.092877518385648727e-02 7.488857269287109375e+00 2.249935865402221680e+00 9.501409530639648438e-02
9.760000000000000000e+02 7.865581512451171875e+01 -3.276160049438476562e+01 1.840938441455364227e-02 7.589045047760009766e+00 2.282236337661743164e+00 1.321536004543304443e-01
9.770000000000000000e+02 7.841869354248046875e+01 -3.113037681579589844e+01 2.382606081664562225e-02 7.681433200836181641e+00 2.311577796936035156e+00 1.850042641162872314e-01
9.780000000000000000e+02 7.854962158203125000e+01 -2.934919738769531250e+01 2.407514490187168121e-02 7.930953502655029297e+00 2.386508703231811523e+00 2.112510502338409424e-01
9.790000000000000000e+02 7.871237182617187500e+01 -2.768880462646484375e+01 1.486803125590085983e-02 8.227305412292480469e+00 2.472651958465576172e+00 2.166670411825180054e-01
9.800000000000000000e+02 7.875036621093750000e+01 -2.607645988464355469e+01 9.162294678390026093e-03 8.499461174011230469e+00 2.552587032318115234e+00 2.230664938688278198e-01
9.810000000000000000e+02 7.875222015380859375e+01 -2.527489089965820312e+01 -1.256368495523929596e-02 8.632340431213378906e+00 2.585932970046997070e+00 2.244943529367446899e-01
9.820000000000000000e+02 7.961488342285156250e+01 -1.964556121826171875e+01 -1.969671435654163361e-02 9.569696426391601562e+00 2.865000009536743164e+00 -6.327455490827560425e-02
9.830000000000000000e+02 7.883802795410156250e+01 -1.962483596801757812e+01 -7.520163059234619141e-02 9.191511154174804688e+00 2.734892845153808594e+00 -1.367741674184799194e-01
9.840000000000000000e+02 7.704924774169921875e+01 -1.814158058166503906e+01 -4.330648481845855713e-01 8.754635810852050781e+00 2.496471166610717773e+00 -4.702874124050140381e-01
9.850000000000000000e+02 7.520653533935546875e+01 -1.584648227691650391e+01 -2.136224806308746338e-01 9.160113334655761719e+00 2.683947324752807617e+00 -8.182290792465209961e-01
9.860000000000000000e+02 7.525514984130859375e+01 -1.427932834625244141e+01 5.996514558792114258e-01 9.343195915222167969e+00 2.982854127883911133e+00 -7.328885793685913086e-01
9.870000000000000000e+02 7.364194488525390625e+01 -1.332429027557373047e+01 1.162135362625122070e+00 1.089479732513427734e+01 3.617079973220825195e+00 -1.459070891141891479e-01
9.880000000000000000e+02 7.283103179931640625e+01 -1.272839546203613281e+01 5.276799201965332031e-01 1.310225009918212891e+01 4.088978767395019531e+00 3.044934272766113281e-01
9.890000000000000000e+02 7.964846038818359375e+01 -1.805086708068847656e+01 -1.305690314620733261e-02 9.230611801147460938e+00 2.765266418457031250e+00 -1.326478570699691772e-01
9.900000000000000000e+02 7.895259094238281250e+01 -1.805464935302734375e+01 -7.155363261699676514e-02 9.018667221069335938e+00 2.684134006500244141e+00 -3.320457041263580322e-01
9.910000000000000000e+02 7.738750457763671875e+01 -1.521165752410888672e+01 7.592764496803283691e-02 8.612175941467285156e+00 2.606431007385253906e+00 -8.390901684761047363e-01
9.920000000000000000e+02 7.672354125976562500e+01 -1.457685756683349609e+01 2.924865782260894775e-01 8.785046577453613281e+00 2.723259925842285156e+00 -8.277566432952880859e-01
9.930000000000000000e+02 7.511938476562500000e+01 -1.299484157562255859e+01 9.946808218955993652e-01 9.562886238098144531e+00 3.167270183563232422e+00 -4.978766739368438721e-01
9.940000000000000000e+02 7.361114501953125000e+01 -1.054417133331298828e+01 1.434463024139404297e+00 1.092689323425292969e+01 3.708406925201416016e+00 -5.088701248168945312e-01
9.950000000000000000e+02 7.259967041015625000e+01 -9.247712135314941406e+00 1.879076242446899414e+00 1.143120861053466797e+01 3.993085622787475586e+00 -1.364774703979492188e+00
9.960000000000000000e+02 7.965489959716796875e+01 -1.645691680908203125e+01 8.046413771808147430e-03 8.566066741943359375e+00 2.572233915328979492e+00 -1.838895827531814575e-01
9.970000000000000000e+02 7.897084808349609375e+01 -1.649993705749511719e+01 -3.394954279065132141e-02 8.599799156188964844e+00 2.569754838943481445e+00 -4.730930626392364502e-01
9.980000000000000000e+02 7.893669891357421875e+01 -1.572413921356201172e+01 1.276601105928421021e-02 8.341612815856933594e+00 2.506313800811767578e+00 -4.840384423732757568e-01
9.990000000000000000e+02 7.886731719970703125e+01 -1.414849948883056641e+01 8.161903172731399536e-02 7.878926277160644531e+00 2.388163566589355469e+00 -4.255669414997100830e-01
1.000000000000000000e+03 7.883377075195312500e+01 -1.254023361206054688e+01 1.376808136701583862e-01 7.578218460083007812e+00 2.314769744873046875e+00 -2.115969210863113403e-01
1.001000000000000000e+03 7.880197906494140625e+01 -1.010051918029785156e+01 1.097663119435310364e-01 7.644472599029541016e+00 2.326271533966064453e+00 2.607728540897369385e-01
1.002000000000000000e+03 7.963201904296875000e+01 -7.645281314849853516e+00 -1.267160661518573761e-02 8.206697463989257812e+00 2.458207845687866211e+00 2.232983708381652832e-01
1.003000000000000000e+03 7.893348693847656250e+01 -6.891582489013671875e+00 8.182658813893795013e-03 8.723813056945800781e+00 2.619598627090454102e+00 6.740797162055969238e-01
1.004000000000000000e+03 7.896894836425781250e+01 -5.312148571014404297e+00 -2.295339293777942657e-02 9.574799537658691406e+00 2.865553855895996094e+00 7.288534641265869141e-01
1.005000000000000000e+03 7.895757293701171875e+01 -3.740613937377929688e+00 -5.364415049552917480e-02 1.044156551361083984e+01 3.116376399993896484e+00 7.458868622779846191e-01
1.006000000000000000e+03 7.886914062500000000e+01 -2.116842746734619141e+00 -1.407142579555511475e-01 1.114630413055419922e+01 3.301676988601684570e+00 6.489289999008178711e-01
1.007000000000000000e+03 7.880347442626953125e+01 3.843538463115692139e-01 -3.731650412082672119e-01 1.155137443542480469e+01 3.353462696075439453e+00 -2.608368396759033203e-01
1.008000000000000000e+03 7.878785705566406250e+01 2.021270990371704102e+00 -4.838021993637084961e-01 1.080952167510986328e+01 3.097715854644775391e+00 -1.532531261444091797e+00
1.009000000000000000e+03 7.963180541992187500e+01 3.621651172637939453e+00 7.659507542848587036e-02 9.090097427368164062e+00 2.750007867813110352e+00 -8.163185715675354004e-01
1.010000000000000000e+03 7.895967102050781250e+01 5.201657772064208984e+00 1.810200214385986328e-01 7.333173751831054688e+00 2.254258155822753906e+00 -1.757690310478210449e+00
1.011000000000000000e+03 7.680170440673828125e+01 5.056837558746337891e+00 3.677535951137542725e-01 1.248357009887695312e+01 3.855396986007690430e+00 -1.794678807258605957e+00
1.012000000000000000e+03 7.623682403564453125e+01 7.376530647277832031e+00 3.591854810714721680e+00 1.643202018737792969e+01 6.007162570953369141e+00 -3.002617835998535156e+00
1.013000000000000000e+03 7.957472229003906250e+01 9.222460746765136719e+00 4.761613532900810242e-02 3.896122217178344727e+00 1.183121442794799805e+00 2.978806793689727783e-01
1.014000000000000000e+03 7.795302581787109375e+01 1.177492809295654297e+01 -2.958285212516784668e-01 6.452996253967285156e+00 1.847150325775146484e+00 5.194700136780738831e-02
1.015000000000000000e+03 7.791180419921875000e+01 1.098897933959960938e+01 -3.401897251605987549e-01 6.674893379211425781e+00 1.900411009788513184e+00 1.956256777048110962e-01
1.016000000000000000e+03 7.957003021240234375e+01 1.084725761413574219e+01 -2.715383656322956085e-02 4.880247116088867188e+00 1.455927968025207520e+00 2.016930282115936279e-01
1.017000000000000000e+03 7.872522735595703125e+01 1.090095138549804688e+01 -2.012630105018615723e-01 5.902242183685302734e+00 1.710293769836425781e+00 3.528393208980560303e-01
1.018000000000000000e+03 7.718073272705078125e+01 1.361701011657714844e+01 3.485386073589324951e-02 6.164159774780273438e+00 1.859704136848449707e+00 -1.810722947120666504e-01
1.019000000000000000e+03 7.792836761474609375e+01 1.259262561798095703e+01 -1.294493973255157471e-01 6.170190811157226562e+00 1.812222361564636230e+00 -6.917934119701385498e-02
1.020000000000000000e+03 7.958238983154296875e+01 1.246455097198486328e+01 -2.644313499331474304e-03 5.341670513153076172e+00 1.601707816123962402e+00 4.742797836661338806e-02
1.021000000000000000e+03 7.875247192382812500e+01 1.253559303283691406e+01 -9.277059882879257202e-02 5.755162715911865234e+00 1.698717713356018066e+00 9.415211528539657593e-02
1.022000000000000000e+03 7.720619964599609375e+01 1.515909290313720703e+01 1.643870919942855835e-01 5.978457450866699219e+00 1.842853307723999023e+00 1.587166078388690948e-02
1.023000000000000000e+03 7.960241699218750000e+01 1.487247180938720703e+01 2.223424380645155907e-03 5.454314708709716797e+00 1.636961460113525391e+00 1.516737975180149078e-02
1.024000000000000000e+03 7.878609466552734375e+01 1.415789031982421875e+01 -4.149806627538055182e-04 5.683721065521240234e+00 1.704991817474365234e+00 1.606278680264949799e-02
1.025000000000000000e+03 7.731616210937500000e+01 1.745702934265136719e+01 1.462475359439849854e-01 6.054893016815185547e+00 1.860342144966125488e+00 3.165096938610076904e-01
1.026000000000000000e+03 7.724985504150390625e+01 1.593994617462158203e+01 1.892853975296020508e-01 5.955502033233642578e+00 1.843436121940612793e+00 1.381933987140655518e-01
1.027000000000000000e+03 7.960958099365234375e+01 1.647141838073730469e+01 9.009604342281818390e-03 5.542439460754394531e+00 1.665434837341308594e+00 4.150164499878883362e-02
1.028000000000000000e+03 7.960775756835937500e+01 1.727218818664550781e+01 6.375207100063562393e-03 5.631742954254150391e+00 1.691435456275939941e+00 5.771402642130851746e-02
1.029000000000000000e+03 7.796157073974609375e+01 1.896401214599609375e+01 3.927131369709968567e-02 6.147270679473876953e+00 1.855962634086608887e+00 3.368349671363830566e-01
1.030000000000000000e+03 7.663585662841796875e+01 1.752117538452148438e+01 2.031679153442382812e-01 6.125124454498291016e+00 1.898487687110900879e+00 3.807611167430877686e-01
1.031000000000000000e+03 7.883031463623046875e+01 1.653864479064941406e+01 3.855774551630020142e-02 5.738751888275146484e+00 1.733192920684814453e+00 1.083615124225616455e-01
1.032000000000000000e+03 7.959140014648437500e+01 1.887438583374023438e+01 3.374099498614668846e-03 5.894651889801025391e+00 1.769407749176025391e+00 8.461377024650573730e-02
1.033000000000000000e+03 7.782939147949218750e+01 2.058323287963867188e+01 -2.078932709991931915e-03 6.364918231964111328e+00 1.908851742744445801e+00 3.764671981334686279e-01
1.034000000000000000e+03 7.789361572265625000e+01 1.976604080200195312e+01 1.912722177803516388e-02 6.259170532226562500e+00 1.883489251136779785e+00 3.606640398502349854e-01
1.035000000000000000e+03 7.880731201171875000e+01 1.812993240356445312e+01 2.685240656137466431e-02 5.915719985961914062e+00 1.782771706581115723e+00 1.927475333213806152e-01
1.036000000000000000e+03 7.955377960205078125e+01 2.128819465637207031e+01 -3.044265031348913908e-04 6.377826690673828125e+00 1.913256645202636719e+00 9.653763473033905029e-02
1.037000000000000000e+03 7.773685455322265625e+01 2.225746917724609375e+01 -3.667058050632476807e-02 6.568861484527587891e+00 1.959657311439514160e+00 3.587055802345275879e-01
1.038000000000000000e+03 7.777531433105468750e+01 2.141518592834472656e+01 -1.989367604255676270e-02 6.475694179534912109e+00 1.936740159988403320e+00 3.725177049636840820e-01
1.039000000000000000e+03 7.869741058349609375e+01 2.053964614868164062e+01 9.657405898906290531e-04 6.296052932739257812e+00 1.889105558395385742e+00 2.509270310401916504e-01
1.040000000000000000e+03 7.863864898681640625e+01 2.218043518066406250e+01 -1.399738248437643051e-02 6.549238204956054688e+00 1.960572242736816406e+00 2.449764609336853027e-01
1.041000000000000000e+03 7.769060516357421875e+01 2.395251464843750000e+01 -5.694004893302917480e-02 6.743003845214843750e+00 2.005819082260131836e+00 3.011488616466522217e-01
1.042000000000000000e+03 7.771265411376953125e+01 2.310322761535644531e+01 -4.879008233547210693e-02 6.662424087524414062e+00 1.984090209007263184e+00 3.339160680770874023e-01
1.043000000000000000e+03 7.954045104980468750e+01 2.290531921386718750e+01 -3.331842133775353432e-03 6.681180953979492188e+00 2.003354787826538086e+00 8.838755637407302856e-02
1.044000000000000000e+03 7.862405395507812500e+01 2.300698280334472656e+01 -2.079648710787296295e-02 6.663871765136718750e+00 1.992922544479370117e+00 2.287744730710983276e-01
1.045000000000000000e+03 7.673287200927734375e+01 2.582181167602539062e+01 -8.662574738264083862e-02 6.808766365051269531e+00 2.016642093658447266e+00 2.758000493049621582e-01
1.046000000000000000e+03 7.768490600585937500e+01 2.479037094116210938e+01 -5.292755737900733948e-02 6.813040256500244141e+00 2.028033733367919922e+00 2.631777822971343994e-01
1.047000000000000000e+03 7.955911254882812500e+01 2.531028938293457031e+01 -4.974002018570899963e-03 7.043425559997558594e+00 2.111535549163818359e+00 6.266690045595169067e-02
1.048000000000000000e+03 7.958389282226562500e+01 2.689597129821777344e+01 -4.488063510507345200e-03 7.220693111419677734e+00 2.164861440658569336e+00 4.614981636404991150e-02
1.049000000000000000e+03 7.716457366943359375e+01 2.723903846740722656e+01 -6.782508641481399536e-02 6.899930953979492188e+00 2.049631834030151367e+00 1.827121376991271973e-01
1.050000000000000000e+03 7.694111633300781250e+01 2.657458686828613281e+01 -9.403642266988754272e-02 6.849469184875488281e+00 2.026629924774169922e+00 2.335940152406692505e-01
1.051000000000000000e+03 7.957317352294921875e+01 2.610212326049804688e+01 -3.903829259797930717e-03 7.138980865478515625e+00 2.140522956848144531e+00 5.397882312536239624e-02
1.052000000000000000e+03 7.958612060546875000e+01 2.769444656372070312e+01 -2.627567853778600693e-03 7.290712356567382812e+00 2.186425447463989258e+00 3.874598816037178040e-02
1.053000000000000000e+03 7.794933319091796875e+01 2.852396202087402344e+01 -3.711642697453498840e-02 7.050485134124755859e+00 2.104010581970214844e+00 1.211574152112007141e-01
1.054000000000000000e+03 7.732293701171875000e+01 2.785422515869140625e+01 -4.504690319299697876e-02 6.936659812927246094e+00 2.067483901977539062e+00 1.642918586730957031e-01
1.055000000000000000e+03 7.871269226074218750e+01 2.619755935668945312e+01 -1.916133239865303040e-02 7.022816658020019531e+00 2.101096630096435547e+00 1.351291686296463013e-01
1.056000000000000000e+03 7.955135345458984375e+01 2.930105400085449219e+01 -3.650227095931768417e-03 7.389054298400878906e+00 2.215621232986450195e+00 2.523983269929885864e-02
1.057000000000000000e+03 7.757224273681640625e+01 3.011179351806640625e+01 -3.294939547777175903e-02 7.034092903137207031e+00 2.100342988967895508e+00 8.327777683734893799e-02
1.058000000000000000e+03 7.778279113769531250e+01 2.928137207031250000e+01 -4.096132889389991760e-02 7.053591728210449219e+00 2.103789091110229492e+00 9.374334663152694702e-02
1.059000000000000000e+03 7.877152252197265625e+01 2.774767684936523438e+01 -1.702562533318996429e-02 7.146862030029296875e+00 2.138950824737548828e+00 9.687998890876770020e-02
1.060000000000000000e+03 7.950439453125000000e+01 3.092055892944335938e+01 -3.818589029833674431e-03 7.439433574676513672e+00 2.230684518814086914e+00 1.585935615003108978e-02
1.061000000000000000e+03 7.738977050781250000e+01 3.203298950195312500e+01 -2.064694091677665710e-02 7.044340133666992188e+00 2.107107877731323242e+00 5.071398243308067322e-02
1.062000000000000000e+03 7.741027069091796875e+01 3.104178237915039062e+01 -3.529882058501243591e-02 7.028493881225585938e+00 2.097958564758300781e+00 6.416375190019607544e-02
1.063000000000000000e+03 7.848885345458984375e+01 3.100378990173339844e+01 -9.432381950318813324e-03 7.235507965087890625e+00 2.167822599411010742e+00 4.182484373450279236e-02
1.064000000000000000e+03 7.950689697265625000e+01 3.172813224792480469e+01 2.255134982988238335e-03 7.454576492309570312e+00 2.237049579620361328e+00 1.414170395582914352e-02
1.065000000000000000e+03 7.797424316406250000e+01 3.370173645019531250e+01 -1.313363481312990189e-02 7.160977840423583984e+00 2.144353151321411133e+00 1.599390991032123566e-02
1.066000000000000000e+03 7.756755828857421875e+01 3.297014236450195312e+01 -2.178255282342433929e-02 7.094147682189941406e+00 2.121709585189819336e+00 2.869364991784095764e-02
1.067000000000000000e+03 7.857615661621093750e+01 3.266239547729492188e+01 7.713204249739646912e-04 7.281726837158203125e+00 2.184749364852905273e+00 2.275882475078105927e-02
1.068000000000000000e+03 7.946331024169921875e+01 3.490205764770507812e+01 1.511527877300977707e-02 7.471252441406250000e+00 2.245910406112670898e+00 -5.548553075641393661e-03
1.069000000000000000e+03 7.676210021972656250e+01 3.701782989501953125e+01 -9.494462981820106506e-03 6.927430629730224609e+00 2.075380802154541016e+00 -3.232392668724060059e-02
1.070000000000000000e+03 7.721800231933593750e+01 3.446791458129882812e+01 -2.660736441612243652e-02 6.996514797210693359e+00 2.090972185134887695e+00 1.472340431064367294e-02
1.071000000000000000e+03 7.865872192382812500e+01 3.405075836181640625e+01 -1.564884185791015625e-02 7.294319152832031250e+00 2.183601140975952148e+00 1.307410653680562973e-02
1.072000000000000000e+03 7.939823913574218750e+01 3.663061141967773438e+01 9.093404747545719147e-03 7.464346885681152344e+00 2.242032051086425781e+00 3.527388675138354301e-03
1.073000000000000000e+03 7.702571105957031250e+01 3.817784118652343750e+01 6.349651608616113663e-03 6.954994678497314453e+00 2.088403224945068359e+00 -3.120995312929153442e-02
1.074000000000000000e+03 7.814062500000000000e+01 3.791513824462890625e+01 -7.387673016637563705e-03 7.172723770141601562e+00 2.149600744247436523e+00 -4.226370248943567276e-03
1.075000000000000000e+03 7.967123413085937500e+01 3.810954284667968750e+01 3.178487299010157585e-03 7.488951206207275391e+00 2.247638940811157227e+00 8.339935913681983948e-03
1.076000000000000000e+03 7.717652893066406250e+01 3.933311462402343750e+01 5.097395740449428558e-03 6.965855598449707031e+00 2.091285943984985352e+00 -2.277963981032371521e-02
1.077000000000000000e+03 7.901634216308593750e+01 3.797651672363281250e+01 -7.453425321727991104e-03 7.403769493103027344e+00 2.218894720077514648e+00 -4.399636760354042053e-03
1.078000000000000000e+03 7.959737396240234375e+01 3.964198303222656250e+01 6.677852012217044830e-03 7.488581657409667969e+00 2.248577833175659180e+00 -1.649292884394526482e-03
1.079000000000000000e+03 7.763018035888671875e+01 4.046094131469726562e+01 -2.338934456929564476e-03 7.005960464477539062e+00 2.101086378097534180e+00 -7.736173924058675766e-03
1.080000000000000000e+03 7.863704681396484375e+01 4.025264739990234375e+01 -5.240188911557197571e-03 7.262800216674804688e+00 2.177268028259277344e+00 -8.615422062575817108e-03
1.081000000000000000e+03 7.956365203857421875e+01 4.042668914794921875e+01 1.018138974905014038e-02 7.500885486602783203e+00 2.253320217132568359e+00 1.450574956834316254e-02
1.082000000000000000e+03 7.683803558349609375e+01 4.163734054565429688e+01 5.105921998620033264e-03 6.917954921722412109e+00 2.076918125152587891e+00 -6.056596990674734116e-03
1.083000000000000000e+03 7.955424499511718750e+01 4.122753524780273438e+01 -3.193370252847671509e-02 7.497951507568359375e+00 2.239805459976196289e+00 -1.218357123434543610e-02
1.084000000000000000e+03 7.041158294677734375e+01 3.197036552429199219e+01 -1.462940275669097900e-01 5.757098674774169922e+00 1.683241486549377441e+00 -1.417940855026245117e-01
1.085000000000000000e+03 6.990115356445312500e+01 2.979817581176757812e+01 -2.562500238418579102e-01 5.799780368804931641e+00 1.663059115409851074e+00 -1.729586720466613770e-01
1.086000000000000000e+03 6.981037139892578125e+01 2.774444961547851562e+01 -3.674515187740325928e-01 5.969151973724365234e+00 1.680510163307189941e+00 -1.639185547828674316e-01
1.087000000000000000e+03 6.975600433349609375e+01 2.578874588012695312e+01 -4.851101934909820557e-01 6.234245777130126953e+00 1.724740743637084961e+00 -1.078325882554054260e-01
1.088000000000000000e+03 7.007761383056640625e+01 2.442997741699218750e+01 -5.402792096138000488e-01 6.448899745941162109e+00 1.772586226463317871e+00 -1.257776515558362007e-03
1.089000000000000000e+03 7.092533111572265625e+01 2.299231338500976562e+01 -5.445386767387390137e-01 6.738830089569091797e+00 1.858287453651428223e+00 2.090873122215270996e-01
1.090000000000000000e+03 7.004776763916015625e+01 2.094208717346191406e+01 -6.362771391868591309e-01 7.165036201477050781e+00 1.958627700805664062e+00 2.888778448104858398e-01
1.091000000000000000e+03 7.075435638427734375e+01 1.931844902038574219e+01 -3.159903287887573242e-01 7.343780517578125000e+00 2.108336925506591797e+00 7.145590186119079590e-01
1.092000000000000000e+03 7.130300140380859375e+01 1.680775260925292969e+01 5.736584663391113281e-01 7.216312408447265625e+00 2.336991310119628906e+00 1.311282396316528320e+00
1.093000000000000000e+03 7.015633392333984375e+01 1.491186141967773438e+01 1.571109175682067871e+00 7.757143020629882812e+00 2.798475742340087891e+00 1.910815238952636719e+00
1.094000000000000000e+03 7.175378417968750000e+01 1.314303493499755859e+01 2.707489728927612305e+00 4.954446315765380859e+00 2.298580884933471680e+00 8.761993646621704102e-01
1.095000000000000000e+03 7.029888153076171875e+01 1.104439067840576172e+01 2.831827878952026367e+00 5.446857929229736328e+00 2.483605623245239258e+00 1.791807889938354492e+00
1.096000000000000000e+03 6.548100280761718750e+01 3.783340835571289062e+01 1.518258005380630493e-01 4.417352676391601562e+00 1.370753526687622070e+00 -1.733000874519348145e-01
1.097000000000000000e+03 6.899568939208984375e+01 3.608121871948242188e+01 1.030851807445287704e-02 5.284295558929443359e+00 1.588381171226501465e+00 -1.623985767364501953e-01
1.098000000000000000e+03 6.807225799560546875e+01 3.324142837524414062e+01 -7.313026487827301025e-02 5.198072433471679688e+00 1.537482738494873047e+00 -2.489973753690719604e-01
1.099000000000000000e+03 6.905202484130859375e+01 3.140019416809082031e+01 -1.647042930126190186e-01 5.509811878204345703e+00 1.603532195091247559e+00 -2.110830098390579224e-01
1.100000000000000000e+03 6.887483215332031250e+01 2.911993217468261719e+01 -2.935256958007812500e-01 5.643984794616699219e+00 1.605137705802917480e+00 -2.415895015001296997e-01
1.101000000000000000e+03 6.893777465820312500e+01 2.707641601562500000e+01 -4.219851195812225342e-01 5.870951175689697266e+00 1.634689927101135254e+00 -2.401222288608551025e-01
1.102000000000000000e+03 6.813994598388671875e+01 2.639811134338378906e+01 -4.535497426986694336e-01 5.802094459533691406e+00 1.604563355445861816e+00 -3.526397645473480225e-01
1.103000000000000000e+03 6.898632049560546875e+01 2.436727523803710938e+01 -5.979501605033874512e-01 6.301497459411621094e+00 1.711064219474792480e+00 -1.884802579879760742e-01
1.104000000000000000e+03 6.905047607421875000e+01 2.322839164733886719e+01 -6.448492407798767090e-01 6.529668331146240234e+00 1.765445709228515625e+00 -1.253141015768051147e-01
1.105000000000000000e+03 6.832128143310546875e+01 1.913146018981933594e+01 -7.748534679412841797e-01 7.725171566009521484e+00 2.085095405578613281e+00 -3.666999051347374916e-03
1.106000000000000000e+03 6.912373352050781250e+01 1.657361602783203125e+01 -3.672197833657264709e-02 8.733627319335937500e+00 2.609071731567382812e+00 1.167180657386779785e+00
1.107000000000000000e+03 6.795920562744140625e+01 1.521189785003662109e+01 1.631291955709457397e-01 1.039558601379394531e+01 3.167614698410034180e+00 1.433197259902954102e+00
1.108000000000000000e+03 6.840261077880859375e+01 1.349112033843994141e+01 2.608915328979492188e+00 1.084502506256103516e+01 4.036182403564453125e+00 2.346320390701293945e+00
1.109000000000000000e+03 6.959403991699218750e+01 1.227061653137207031e+01 3.433267354965209961e+00 7.378473281860351562e+00 3.243522167205810547e+00 2.295039892196655273e+00
1.110000000000000000e+03 6.784472656250000000e+01 3.062930488586425781e+01 -1.886045783758163452e-01 5.291650772094726562e+00 1.530913829803466797e+00 -3.125340640544891357e-01
1.111000000000000000e+03 6.793186187744140625e+01 2.832970046997070312e+01 -3.207359910011291504e-01 5.511785984039306641e+00 1.557314991950988770e+00 -3.442692160606384277e-01
1.112000000000000000e+03 6.708908843994140625e+01 2.739859008789062500e+01 -3.745802938938140869e-01 5.402717113494873047e+00 1.508441090583801270e+00 -4.478673338890075684e-01
1.113000000000000000e+03 6.631877899169921875e+01 2.653470230102539062e+01 -3.929290473461151123e-01 5.300865173339843750e+00 1.472380876541137695e+00 -5.769191980361938477e-01
1.114000000000000000e+03 6.685607910156250000e+01 2.553278923034667969e+01 -4.938240349292755127e-01 5.596975326538085938e+00 1.530945420265197754e+00 -5.411508679389953613e-01
1.115000000000000000e+03 6.808712768554687500e+01 2.223228263854980469e+01 -7.362905144691467285e-01 6.604434013366699219e+00 1.760443091392517090e+00 -3.232172727584838867e-01
1.116000000000000000e+03 6.715251922607421875e+01 2.135349655151367188e+01 -8.057590126991271973e-01 6.611574649810791016e+00 1.741744637489318848e+00 -6.128495931625366211e-01
1.117000000000000000e+03 6.760780334472656250e+01 1.954420280456542969e+01 -9.611882567405700684e-01 7.490799903869628906e+00 1.958883404731750488e+00 -3.373165130615234375e-01
1.118000000000000000e+03 6.733018493652343750e+01 1.761707687377929688e+01 -8.525165319442749023e-01 8.657039642333984375e+00 2.341356992721557617e+00 -2.846002578735351562e-01
1.119000000000000000e+03 6.714644622802734375e+01 1.545336151123046875e+01 -5.992946028709411621e-01 1.113021755218505859e+01 3.159276962280273438e+00 1.566218584775924683e-01
1.120000000000000000e+03 6.604528808593750000e+01 1.421121692657470703e+01 1.801441013813018799e-01 1.344242477416992188e+01 4.086770534515380859e+00 -1.376432418823242188e+00
1.121000000000000000e+03 6.691065216064453125e+01 3.536405944824218750e+01 4.332523792982101440e-02 4.854666233062744141e+00 1.469397425651550293e+00 -2.164277732372283936e-01
1.122000000000000000e+03 6.523513793945312500e+01 3.424586486816406250e+01 5.898984149098396301e-02 4.467685699462890625e+00 1.358002662658691406e+00 -3.061477243900299072e-01
1.123000000000000000e+03 6.543830871582031250e+01 3.118424034118652344e+01 -7.032260298728942871e-02 4.636555194854736328e+00 1.369869828224182129e+00 -4.217005074024200439e-01
1.124000000000000000e+03 6.583586883544921875e+01 2.860177421569824219e+01 -2.344844043254852295e-01 4.910398006439208984e+00 1.402774095535278320e+00 -5.280039310455322266e-01
1.125000000000000000e+03 6.509343719482421875e+01 2.739683723449707031e+01 -2.724379003047943115e-01 4.794409751892089844e+00 1.356591582298278809e+00 -6.470307707786560059e-01
1.126000000000000000e+03 6.468300628662109375e+01 2.606913566589355469e+01 -3.189840614795684814e-01 4.781767845153808594e+00 1.338835120201110840e+00 -7.834386229515075684e-01
1.127000000000000000e+03 6.580131530761718750e+01 2.453341674804687500e+01 -4.962539374828338623e-01 5.355601787567138672e+00 1.457804322242736816e+00 -7.736312747001647949e-01
1.128000000000000000e+03 6.600822448730468750e+01 2.228683280944824219e+01 -6.812484860420227051e-01 5.888107299804687500e+00 1.562057614326477051e+00 -9.313527345657348633e-01
1.129000000000000000e+03 6.650483703613281250e+01 2.047448158264160156e+01 -8.728426694869995117e-01 6.649054527282714844e+00 1.732863545417785645e+00 -8.937354087829589844e-01
1.130000000000000000e+03 6.521281433105468750e+01 1.958227729797363281e+01 -7.763914465904235840e-01 6.193547725677490234e+00 1.625146985054016113e+00 -1.549653172492980957e+00
1.131000000000000000e+03 6.519314575195312500e+01 1.681448364257812500e+01 -9.115037918090820312e-01 7.654866218566894531e+00 2.023008584976196289e+00 -2.331746816635131836e+00
1.132000000000000000e+03 6.496884918212890625e+01 1.497163581848144531e+01 -5.424650907516479492e-01 1.006027412414550781e+01 2.855342626571655273e+00 -4.150966644287109375e+00
1.133000000000000000e+03 6.466679382324218750e+01 1.550639533996582031e+01 -3.978688120841979980e-01 7.475928783416748047e+00 2.123417854309082031e+00 -3.905411481857299805e+00
1.134000000000000000e+03 6.774563598632812500e+01 4.119786834716796875e+01 1.284536868333816528e-01 4.925532817840576172e+00 1.516195893287658691e+00 -1.610665954649448395e-02
1.135000000000000000e+03 6.389155578613281250e+01 3.283174133300781250e+01 5.707265436649322510e-02 4.171501636505126953e+00 1.268572330474853516e+00 -3.972646594047546387e-01
1.136000000000000000e+03 6.438805389404296875e+01 2.983047866821289062e+01 -9.394636005163192749e-02 4.386430740356445312e+00 1.287745237350463867e+00 -5.374744534492492676e-01
1.137000000000000000e+03 6.352027130126953125e+01 2.824971008300781250e+01 -1.035626158118247986e-01 4.185884952545166016e+00 1.224696636199951172e+00 -6.915819644927978516e-01
1.138000000000000000e+03 6.320481491088867188e+01 2.647441482543945312e+01 -1.666945666074752808e-01 4.115111351013183594e+00 1.184525012969970703e+00 -8.314687013626098633e-01
1.139000000000000000e+03 6.362887191772460938e+01 2.341052246093750000e+01 -3.583219945430755615e-01 4.547561645507812500e+00 1.256771802902221680e+00 -1.152597427368164062e+00
1.140000000000000000e+03 6.388325500488281250e+01 2.217517471313476562e+01 -3.994078338146209717e-01 4.761083602905273438e+00 1.308502674102783203e+00 -1.344835162162780762e+00
1.141000000000000000e+03 6.308688735961914062e+01 2.056225204467773438e+01 -2.605203092098236084e-01 4.370770931243896484e+00 1.233075141906738281e+00 -1.648312687873840332e+00
1.142000000000000000e+03 6.322613525390625000e+01 1.911862564086914062e+01 -2.098451554775238037e-01 4.410370349884033203e+00 1.260157585144042969e+00 -1.972375512123107910e+00
1.143000000000000000e+03 6.318574142456054688e+01 1.774332046508789062e+01 -2.840145491063594818e-02 4.156604766845703125e+00 1.238461017608642578e+00 -2.354243278503417969e+00
1.144000000000000000e+03 6.395221328735351562e+01 1.499275016784667969e+01 7.230431437492370605e-01 4.855313777923583984e+00 1.673507094383239746e+00 -3.939016342163085938e+00
1.145000000000000000e+03 6.327762985229492188e+01 1.432606506347656250e+01 -2.052441984415054321e-01 1.027341127395629883e+00 2.466290593147277832e-01 -2.746643781661987305e+00
1.146000000000000000e+03 6.359228134155273438e+01 4.083276367187500000e+01 2.760673165321350098e-01 3.857854127883911133e+00 1.240176439285278320e+00 -5.693281069397926331e-02
1.147000000000000000e+03 6.340972518920898438e+01 3.645360946655273438e+01 1.959361433982849121e-01 4.001581668853759766e+00 1.259255290031433105e+00 -2.390487939119338989e-01
1.148000000000000000e+03 6.200083160400390625e+01 3.461317825317382812e+01 2.194324880838394165e-01 3.614631175994873047e+00 1.150219082832336426e+00 -3.143433332443237305e-01
1.149000000000000000e+03 6.277616119384765625e+01 3.118615341186523438e+01 6.437075138092041016e-02 3.896615266799926758e+00 1.188295841217041016e+00 -4.974751770496368408e-01
1.150000000000000000e+03 6.180313491821289062e+01 2.940336227416992188e+01 6.444632261991500854e-02 3.573753356933593750e+00 1.091459989547729492e+00 -6.421535611152648926e-01
1.151000000000000000e+03 6.063915634155273438e+01 2.787633323669433594e+01 9.769285470247268677e-02 3.193932294845581055e+00 9.874875545501708984e-01 -7.645056843757629395e-01
1.152000000000000000e+03 6.047478866577148438e+01 2.557750892639160156e+01 3.957446664571762085e-02 3.060525655746459961e+00 9.300300478935241699e-01 -9.126917123794555664e-01
1.153000000000000000e+03 6.218681716918945312e+01 2.469091987609863281e+01 -1.432398110628128052e-01 3.798950433731079102e+00 1.096713185310363770e+00 -1.030526757240295410e+00
1.154000000000000000e+03 6.222446060180664062e+01 2.141085624694824219e+01 -1.505293697118759155e-01 3.670320034027099609e+00 1.055937170982360840e+00 -1.457352995872497559e+00
1.155000000000000000e+03 6.038203811645507812e+01 2.039445114135742188e+01 8.374614268541336060e-02 2.484145879745483398e+00 7.703676223754882812e-01 -1.232857823371887207e+00
1.156000000000000000e+03 6.250278472900390625e+01 1.987755584716796875e+01 -1.268703639507293701e-01 3.717060804367065430e+00 1.077057123184204102e+00 -1.734336376190185547e+00
1.157000000000000000e+03 6.243904113769531250e+01 1.716698455810546875e+01 2.312649637460708618e-01 2.816164493560791016e+00 9.142288565635681152e-01 -2.209946155548095703e+00
1.158000000000000000e+03 6.133596801757812500e+01 1.304434967041015625e+01 -2.590879201889038086e+00 -9.017492532730102539e-01 -1.047788500785827637e+00 -1.263898372650146484e+00
1.159000000000000000e+03 6.002414703369140625e+01 1.309580421447753906e+01 -1.770190834999084473e+00 1.474554836750030518e-01 -4.868206083774566650e-01 -5.964502692222595215e-01
1.160000000000000000e+03 5.879495620727539062e+01 3.386194229125976562e+01 3.761282563209533691e-01 2.727045536041259766e+00 9.309521913528442383e-01 -3.908423781394958496e-01
1.161000000000000000e+03 6.011397171020507812e+01 3.074033546447753906e+01 2.236196100711822510e-01 3.054282188415527344e+00 9.833705425262451172e-01 -5.724852085113525391e-01
1.162000000000000000e+03 5.959208679199218750e+01 2.663744354248046875e+01 1.293365359306335449e-01 2.742846727371215820e+00 8.616549968719482422e-01 -8.129874467849731445e-01
1.163000000000000000e+03 5.924810409545898438e+01 2.536490058898925781e+01 1.411901265382766724e-01 2.563475370407104492e+00 8.113996386528015137e-01 -9.166104793548583984e-01
1.164000000000000000e+03 6.003969955444335938e+01 2.258364868164062500e+01 4.920519143342971802e-02 2.601224660873413086e+00 7.951289415359497070e-01 -1.072413802146911621e+00
1.165000000000000000e+03 5.916866302490234375e+01 1.992144012451171875e+01 8.348451554775238037e-02 1.882191061973571777e+00 5.897026658058166504e-01 -9.795647859573364258e-01
1.166000000000000000e+03 6.017163467407226562e+01 1.892893218994140625e+01 1.187188997864723206e-01 1.985452890396118164e+00 6.312515735626220703e-01 -1.176165699958801270e+00
1.167000000000000000e+03 5.989772796630859375e+01 1.780368614196777344e+01 8.044777810573577881e-02 1.525187849998474121e+00 4.816906750202178955e-01 -9.931555986404418945e-01
1.168000000000000000e+03 6.032306289672851562e+01 1.538263893127441406e+01 -4.119229614734649658e-01 6.636007428169250488e-01 7.550332695245742798e-02 -6.034396290779113770e-01
1.169000000000000000e+03 6.049457168579101562e+01 1.326510143280029297e+01 -1.986548781394958496e+00 -1.919868290424346924e-01 -6.535606980323791504e-01 -6.125448346138000488e-01
1.170000000000000000e+03 5.950209808349609375e+01 1.231566619873046875e+01 -1.591455936431884766e+00 -5.346962064504623413e-02 -4.934776723384857178e-01 -5.867826938629150391e-01
1.171000000000000000e+03 5.658589172363281250e+01 3.742201232910156250e+01 5.196060538291931152e-01 2.299155235290527344e+00 8.456284403800964355e-01 -2.105266749858856201e-01
1.172000000000000000e+03 5.713251495361328125e+01 4.071990585327148438e+01 5.243446230888366699e-01 2.469232559204101562e+00 8.980731964111328125e-01 -6.300528347492218018e-02
1.173000000000000000e+03 5.957127380371093750e+01 3.632628631591796875e+01 3.813107311725616455e-01 2.900062322616577148e+00 9.844119548797607422e-01 -2.727111279964447021e-01
1.174000000000000000e+03 5.633311462402343750e+01 3.461452102661132812e+01 4.822314977645874023e-01 2.138378143310546875e+00 7.861829400062561035e-01 -3.041467666625976562e-01
1.175000000000000000e+03 5.803503417968750000e+01 2.857023811340332031e+01 2.624685466289520264e-01 2.414290189743041992e+00 8.030275702476501465e-01 -6.367415189743041992e-01
1.176000000000000000e+03 5.813856887817382812e+01 2.709308242797851562e+01 2.478851824998855591e-01 2.360242366790771484e+00 7.824382781982421875e-01 -7.340576648712158203e-01
1.177000000000000000e+03 5.780055999755859375e+01 2.565546798706054688e+01 1.835889071226119995e-01 2.091131925582885742e+00 6.824162602424621582e-01 -7.726809978485107422e-01
1.178000000000000000e+03 5.767146682739257812e+01 2.306631851196289062e+01 9.096978604793548584e-02 1.763910531997680664e+00 5.564640760421752930e-01 -8.239555358886718750e-01
1.179000000000000000e+03 5.700760650634765625e+01 2.040062141418457031e+01 -5.113095045089721680e-02 1.342777967453002930e+00 3.874941170215606689e-01 -6.419894099235534668e-01
1.180000000000000000e+03 5.801755905151367188e+01 1.840649032592773438e+01 -2.215721905231475830e-01 1.197920918464660645e+00 2.929046154022216797e-01 -5.835286378860473633e-01
1.181000000000000000e+03 5.884786987304687500e+01 1.550335025787353516e+01 -6.492524147033691406e-01 7.682263255119323730e-01 3.569218143820762634e-02 -2.164811789989471436e-01
1.182000000000000000e+03 5.731402969360351562e+01 1.353059864044189453e+01 -1.266789674758911133e+00 4.761382043361663818e-01 -2.371954321861267090e-01 -7.973074680194258690e-04
1.183000000000000000e+03 5.801937484741210938e+01 1.260517501831054688e+01 -1.392494797706604004e+00 3.942505717277526855e-01 -2.994732558727264404e-01 -1.904641836881637573e-01
1.184000000000000000e+03 6.014418411254882812e+01 1.233761882781982422e+01 -1.753229260444641113e+00 -5.375089645385742188e-01 -6.872214674949645996e-01 -8.236263990402221680e-01
1.185000000000000000e+03 5.624961471557617188e+01 3.223754119873046875e+01 4.562039673328399658e-01 2.067094087600708008e+00 7.569894194602966309e-01 -4.046278297901153564e-01
1.186000000000000000e+03 5.630302810668945312e+01 3.023779869079589844e+01 3.953611552715301514e-01 2.005003690719604492e+00 7.201094031333923340e-01 -4.901264011859893799e-01
1.187000000000000000e+03 5.651807785034179688e+01 2.858499526977539062e+01 3.633594512939453125e-01 1.955961704254150391e+00 6.957963109016418457e-01 -5.916735529899597168e-01
1.188000000000000000e+03 5.671313476562500000e+01 2.723896598815917969e+01 2.955642938613891602e-01 1.918206691741943359e+00 6.641312837600708008e-01 -6.188082695007324219e-01
1.189000000000000000e+03 5.552615356445312500e+01 2.530151748657226562e+01 2.530294656753540039e-01 1.462018013000488281e+00 5.145142078399658203e-01 -5.878457427024841309e-01
1.190000000000000000e+03 5.591952133178710938e+01 2.139459800720214844e+01 -3.924598172307014465e-02 1.137056112289428711e+00 3.293430507183074951e-01 -5.980165004730224609e-01
1.191000000000000000e+03 5.596426773071289062e+01 2.037701225280761719e+01 -1.962609738111495972e-01 1.018833637237548828e+00 2.467718124389648438e-01 -4.939238429069519043e-01
1.192000000000000000e+03 5.630263137817382812e+01 1.798903656005859375e+01 -5.093203783035278320e-01 8.669544458389282227e-01 1.072902157902717590e-01 -2.662969231605529785e-01
1.193000000000000000e+03 5.662671661376953125e+01 1.670486068725585938e+01 -7.203783392906188965e-01 7.229723930358886719e-01 7.782152970321476460e-04 -8.054935932159423828e-02
1.194000000000000000e+03 5.660240936279296875e+01 1.519871807098388672e+01 -1.017524480819702148e+00 5.557976365089416504e-01 -1.385180652141571045e-01 1.032565236091613770e-01
1.195000000000000000e+03 5.647889709472656250e+01 1.281531047821044922e+01 -1.273395419120788574e+00 2.809712588787078857e-01 -2.977272272109985352e-01 6.269550323486328125e-02
1.196000000000000000e+03 5.276285934448242188e+01 4.084635162353515625e+01 6.767538189888000488e-01 1.534551858901977539e+00 6.633917093276977539e-01 -3.501162305474281311e-02
1.197000000000000000e+03 5.328445053100585938e+01 3.763344955444335938e+01 6.295273900032043457e-01 1.609483838081359863e+00 6.717033982276916504e-01 -1.147680506110191345e-01
1.198000000000000000e+03 5.462360763549804688e+01 3.017506408691406250e+01 4.650903046131134033e-01 1.592765212059020996e+00 6.173566579818725586e-01 -4.086839556694030762e-01
1.199000000000000000e+03 5.507687377929687500e+01 2.844026756286621094e+01 3.885878324508666992e-01 1.581467390060424805e+00 5.910165905952453613e-01 -4.731487929821014404e-01
1.200000000000000000e+03 5.449252319335937500e+01 2.652041053771972656e+01 3.191606700420379639e-01 1.321382999420166016e+00 4.921630918979644775e-01 -4.672032296657562256e-01
1.201000000000000000e+03 5.440075302124023438e+01 2.452472496032714844e+01 1.891850829124450684e-01 1.090155243873596191e+00 3.838021159172058105e-01 -4.734875559806823730e-01
1.202000000000000000e+03 5.364630126953125000e+01 2.241986846923828125e+01 4.571635276079177856e-03 7.206708192825317383e-01 2.175727486610412598e-01 -3.914484083652496338e-01
1.203000000000000000e+03 5.421759033203125000e+01 2.059454345703125000e+01 -2.703925371170043945e-01 6.420288085937500000e-01 1.114908754825592041e-01 -3.335680961608886719e-01
1.204000000000000000e+03 5.454216384887695312e+01 1.848890686035156250e+01 -6.130916476249694824e-01 6.336946487426757812e-01 6.180899217724800110e-03 -1.976078301668167114e-01
1.205000000000000000e+03 5.475295257568359375e+01 1.706436920166015625e+01 -9.203505516052246094e-01 5.854570269584655762e-01 -1.004680544137954712e-01 1.566926762461662292e-02
1.206000000000000000e+03 5.584828948974609375e+01 1.523038101196289062e+01 -1.049397706985473633e+00 5.549403429031372070e-01 -1.483372002840042114e-01 1.572814434766769409e-01
1.207000000000000000e+03 5.493152999877929688e+01 1.298251533508300781e+01 -1.176398634910583496e+00 1.376121044158935547e-01 -3.116359710693359375e-01 3.371587693691253662e-01
1.208000000000000000e+03 5.230782699584960938e+01 3.192070198059082031e+01 5.498661994934082031e-01 1.240863442420959473e+00 5.372188687324523926e-01 -2.293848544359207153e-01
1.209000000000000000e+03 5.301836395263671875e+01 2.983359527587890625e+01 4.899562001228332520e-01 1.233045697212219238e+00 5.169005990028381348e-01 -2.967959642410278320e-01
1.210000000000000000e+03 5.323760604858398438e+01 2.581751251220703125e+01 2.969582974910736084e-01 9.647223353385925293e-01 3.785041868686676025e-01 -3.754297494888305664e-01
1.211000000000000000e+03 5.176330184936523438e+01 2.520314025878906250e+01 2.320640683174133301e-01 6.306089758872985840e-01 2.588019073009490967e-01 -2.196277678012847900e-01
1.212000000000000000e+03 5.257881164550781250e+01 2.237788009643554688e+01 -5.001245066523551941e-02 4.611203372478485107e-01 1.233323663473129272e-01 -2.721977233886718750e-01
1.213000000000000000e+03 5.305293273925781250e+01 2.020434570312500000e+01 -4.123248755931854248e-01 3.796829879283905029e-01 -9.792569093406200409e-03 -2.616426944732666016e-01
1.214000000000000000e+03 5.365951538085937500e+01 1.878576850891113281e+01 -6.808361411094665527e-01 4.220882058143615723e-01 -7.762438058853149414e-02 -1.794710606336593628e-01
1.215000000000000000e+03 5.366315078735351562e+01 1.641142082214355469e+01 -1.218713045120239258e+00 4.153029620647430420e-01 -2.410230189561843872e-01 1.476449221372604370e-01
1.216000000000000000e+03 5.359239196777343750e+01 1.542442989349365234e+01 -1.382674455642700195e+00 3.371689319610595703e-01 -3.136516511440277100e-01 3.539444506168365479e-01
1.217000000000000000e+03 5.265305328369140625e+01 1.309408283233642578e+01 -9.654658436775207520e-01 -1.783495210111141205e-02 -2.949902415275573730e-01 6.090750098228454590e-01
1.218000000000000000e+03 5.341307449340820312e+01 1.306484317779541016e+01 -1.090012907981872559e+00 7.999756932258605957e-02 -3.030045926570892334e-01 5.714181065559387207e-01
1.219000000000000000e+03 5.417002487182617188e+01 1.302766513824462891e+01 -1.124499201774597168e+00 8.660812675952911377e-02 -3.113673031330108643e-01 4.639833867549896240e-01
1.220000000000000000e+03 5.020234298706054688e+01 3.709939193725585938e+01 6.879888176918029785e-01 1.057228446006774902e+00 5.235651731491088867e-01 -5.925131589174270630e-02
1.221000000000000000e+03 5.233116912841796875e+01 2.748922920227050781e+01 3.889935016632080078e-01 9.340934157371520996e-01 3.969260752201080322e-01 -2.710447609424591064e-01
1.222000000000000000e+03 5.089895629882812500e+01 2.691325187683105469e+01 3.684560060501098633e-01 6.633704900741577148e-01 3.095479309558868408e-01 -1.560614705085754395e-01
1.223000000000000000e+03 5.025327301025390625e+01 2.474972343444824219e+01 1.900312155485153198e-01 3.545660078525543213e-01 1.633791625499725342e-01 -7.273875176906585693e-02
1.224000000000000000e+03 5.088954162597656250e+01 2.321148300170898438e+01 2.919815108180046082e-02 2.713762819766998291e-01 9.017232805490493774e-02 -8.492778986692428589e-02
1.225000000000000000e+03 5.231643295288085938e+01 2.097027587890625000e+01 -2.988705635070800781e-01 2.657403051853179932e-01 -9.939080104231834412e-03 -2.269040197134017944e-01
1.226000000000000000e+03 5.107448959350585938e+01 1.894439125061035156e+01 -7.872826457023620605e-01 -1.678382307291030884e-01 -2.865362763404846191e-01 -5.450607836246490479e-02
1.227000000000000000e+03 5.091129302978515625e+01 1.716411018371582031e+01 -1.490800619125366211e+00 -3.175710737705230713e-01 -5.425115227699279785e-01 -1.265995297580957413e-02
1.228000000000000000e+03 5.129171371459960938e+01 1.552128410339355469e+01 -1.931769371032714844e+00 -8.548098057508468628e-02 -6.051750779151916504e-01 2.767064869403839111e-01
1.229000000000000000e+03 5.090986633300781250e+01 1.320694065093994141e+01 -5.521320700645446777e-01 -4.911855459213256836e-01 -3.129952847957611084e-01 6.399495005607604980e-01
1.230000000000000000e+03 5.106041336059570312e+01 1.463681316375732422e+01 -1.901653647422790527e+00 -3.337068855762481689e-01 -6.706081628799438477e-01 1.028334736824035645e+00
1.231000000000000000e+03 5.141826248168945312e+01 3.430551528930664062e+01 6.274154186248779297e-01 1.194129347801208496e+00 5.464634299278259277e-01 -1.325303316116333008e-01
1.232000000000000000e+03 5.064352798461914062e+01 3.127925300598144531e+01 5.545407533645629883e-01 9.287871718406677246e-01 4.449983835220336914e-01 -1.220951452851295471e-01
1.233000000000000000e+03 5.004313659667968750e+01 2.868767929077148438e+01 4.477863609790802002e-01 6.860527396202087402e-01 3.401517271995544434e-01 -8.968710899353027344e-02
1.234000000000000000e+03 4.944583129882812500e+01 2.637522888183593750e+01 3.046717643737792969e-01 4.140765368938446045e-01 2.156244963407516479e-01 -1.169683132320642471e-02
1.235000000000000000e+03 4.894575881958007812e+01 2.426506423950195312e+01 1.050603538751602173e-01 1.691163629293441772e-01 8.225301653146743774e-02 8.211148530244827271e-02
1.236000000000000000e+03 4.886576461791992188e+01 2.140093231201171875e+01 -2.520084381103515625e-01 -1.050577461719512939e-01 -1.071198582649230957e-01 1.547453999519348145e-01
1.237000000000000000e+03 4.862769699096679688e+01 1.949660682678222656e+01 -6.636779904365539551e-01 -3.861463963985443115e-01 -3.149473071098327637e-01 2.753673791885375977e-01
1.238000000000000000e+03 5.053062438964843750e+01 1.641662597656250000e+01 -1.937069177627563477e+00 -3.512479364871978760e-01 -6.864951252937316895e-01 8.942496031522750854e-02
1.239000000000000000e+03 4.883646011352539062e+01 1.539605140686035156e+01 -4.350961208343505859e+00 -8.973160386085510254e-01 -1.574483156204223633e+00 6.940750479698181152e-01
1.240000000000000000e+03 5.040900039672851562e+01 1.541398334503173828e+01 -2.504279375076293945e+00 -3.939296007156372070e-01 -8.694626688957214355e-01 2.585341036319732666e-01
1.241000000000000000e+03 4.984664154052734375e+01 1.482458782196044922e+01 -3.169991493225097656e+00 -1.604085803031921387e+00 -1.432223200798034668e+00 1.518251299858093262e+00
1.242000000000000000e+03 5.023122406005859375e+01 1.433206081390380859e+01 -1.398179531097412109e+00 -1.320979237556457520e+00 -8.157476186752319336e-01 1.272330999374389648e+00
1.243000000000000000e+03 4.849736404418945312e+01 4.056375503540039062e+01 7.259656786918640137e-01 8.441990017890930176e-01 4.710493981838226318e-01 -4.974963143467903137e-03
1.244000000000000000e+03 4.538189315795898438e+01 3.869042587280273438e+01 7.128455042839050293e-01 4.849281609058380127e-01 3.593321144580841064e-01 2.115020342171192169e-02
1.245000000000000000e+03 4.605732345581054688e+01 3.364503860473632812e+01 6.182425618171691895e-01 4.499247372150421143e-01 3.204501867294311523e-01 7.535802572965621948e-02
1.246000000000000000e+03 4.921348953247070312e+01 3.049249267578125000e+01 5.467312335968017578e-01 6.905828118324279785e-01 3.711942136287689209e-01 -5.286086723208427429e-02
1.247000000000000000e+03 4.855633544921875000e+01 2.812046432495117188e+01 4.082495570182800293e-01 4.375628530979156494e-01 2.537437379360198975e-01 1.980436407029628754e-02
1.248000000000000000e+03 4.808982467651367188e+01 2.580110931396484375e+01 2.372517287731170654e-01 2.248414158821105957e-01 1.386279463768005371e-01 9.868846833705902100e-02
1.249000000000000000e+03 4.780287551879882812e+01 2.371835899353027344e+01 3.000133484601974487e-02 3.976544365286827087e-02 2.093003317713737488e-02 1.878891438245773315e-01
1.250000000000000000e+03 4.757697677612304688e+01 2.199290084838867188e+01 -2.134114801883697510e-01 -1.023170426487922668e-01 -9.471855312585830688e-02 2.757727503776550293e-01
1.251000000000000000e+03 4.814228820800781250e+01 2.103251838684082031e+01 -3.655401468276977539e-01 -2.355701029300689697e-01 -1.803330630064010620e-01 2.844159901142120361e-01
1.252000000000000000e+03 4.771260833740234375e+01 1.955775451660156250e+01 -6.626495718955993652e-01 -3.591453135013580322e-01 -3.065384626388549805e-01 3.753104507923126221e-01
1.253000000000000000e+03 4.699481582641601562e+01 1.752939796447753906e+01 -1.343370079994201660e+00 -4.404928982257843018e-01 -5.351589322090148926e-01 5.574681162834167480e-01
1.254000000000000000e+03 4.595383834838867188e+01 1.586546134948730469e+01 -1.619445204734802246e+00 8.430479466915130615e-02 -4.605421125888824463e-01 1.580054610967636108e-01
1.255000000000000000e+03 4.685897445678710938e+01 1.470870304107666016e+01 -1.908101916313171387e+00 -4.252321720123291016e-01 -7.000002264976501465e-01 -6.689349412918090820e-01
1.256000000000000000e+03 4.709201049804687500e+01 1.549788570404052734e+01 -2.472815752029418945e+00 -3.632490038871765137e-01 -8.508194088935852051e-01 -1.767362207174301147e-01
1.257000000000000000e+03 4.772166442871093750e+01 3.008795738220214844e+01 4.938073456287384033e-01 4.766222536563873291e-01 2.911288738250732422e-01 5.638663843274116516e-02
1.258000000000000000e+03 4.711478805541992188e+01 2.751204681396484375e+01 3.391097486019134521e-01 2.757514715194702148e-01 1.844583749771118164e-01 1.289553344249725342e-01
1.259000000000000000e+03 4.687470626831054688e+01 2.509945678710937500e+01 1.209029555320739746e-01 9.767980128526687622e-02 6.557482481002807617e-02 2.158265709877014160e-01
1.260000000000000000e+03 4.586256408691406250e+01 2.423306846618652344e+01 1.313061174005270004e-02 2.629908919334411621e-02 1.182891055941581726e-02 3.017412126064300537e-01
1.261000000000000000e+03 4.505303192138671875e+01 2.328651046752929688e+01 -1.486746221780776978e-01 -1.524705439805984497e-02 -4.917650297284126282e-02 3.816239535808563232e-01
1.262000000000000000e+03 4.568654251098632812e+01 2.044493293762207031e+01 -5.781024098396301270e-01 -1.210880130529403687e-01 -2.097571194171905518e-01 4.670504033565521240e-01
1.263000000000000000e+03 4.682543182373046875e+01 1.952461624145507812e+01 -7.556406855583190918e-01 -2.656604349613189697e-01 -3.063903450965881348e-01 4.836392998695373535e-01
1.264000000000000000e+03 4.605795288085937500e+01 1.766253280639648438e+01 -1.322546243667602539e+00 -1.395301073789596558e-01 -4.386228919029235840e-01 5.263469815254211426e-01
1.265000000000000000e+03 4.512115097045898438e+01 1.389453029632568359e+01 -8.008345365524291992e-01 -7.284145802259445190e-02 -2.621028125286102295e-01 -3.441205620765686035e-01
1.266000000000000000e+03 4.461116790771484375e+01 1.238667678833007812e+01 -2.679360806941986084e-01 -9.288311749696731567e-02 -1.082457527518272400e-01 -1.523215919733047485e-01
1.267000000000000000e+03 4.344619369506835938e+01 1.278792858123779297e+01 -4.467865228652954102e-01 1.988472789525985718e-02 -1.280705481767654419e-01 -1.423137933015823364e-01
1.268000000000000000e+03 4.179220199584960938e+01 4.054689407348632812e+01 6.831722259521484375e-01 2.357338517904281616e-01 2.756718099117279053e-01 3.160942718386650085e-02
1.269000000000000000e+03 4.362046051025390625e+01 3.564589309692382812e+01 6.202569603919982910e-01 2.667273879051208496e-01 2.660953104496002197e-01 9.071865677833557129e-02
1.270000000000000000e+03 4.462658691406250000e+01 3.154299545288085938e+01 5.072602629661560059e-01 2.529834806919097900e-01 2.280731350183486938e-01 1.423276811838150024e-01
1.271000000000000000e+03 4.466719818115234375e+01 2.843263435363769531e+01 3.301085233688354492e-01 1.465595960617065430e-01 1.430004388093948364e-01 2.226081192493438721e-01
1.272000000000000000e+03 4.569517517089843750e+01 2.667134666442871094e+01 2.466382086277008057e-01 1.394088119268417358e-01 1.158141046762466431e-01 2.286396324634552002e-01
1.273000000000000000e+03 4.458384323120117188e+01 2.549229240417480469e+01 9.005004167556762695e-02 5.059197172522544861e-02 4.219260439276695251e-02 3.175296485424041748e-01
1.274000000000000000e+03 4.391462326049804688e+01 2.420680618286132812e+01 -6.319180130958557129e-02 2.664939267560839653e-03 -1.815805956721305847e-02 3.704381883144378662e-01
1.275000000000000000e+03 4.433735275268554688e+01 2.237902832031250000e+01 -2.740676105022430420e-01 -2.476647868752479553e-02 -8.965022861957550049e-02 4.147745966911315918e-01
1.276000000000000000e+03 4.406012725830078125e+01 2.132763481140136719e+01 -4.912128448486328125e-01 -2.030836604535579681e-02 -1.534563601016998291e-01 4.635035991668701172e-01
1.277000000000000000e+03 4.512418365478515625e+01 1.978049468994140625e+01 -7.373961806297302246e-01 -7.984493672847747803e-02 -2.451723366975784302e-01 5.050231814384460449e-01
1.278000000000000000e+03 4.415186309814453125e+01 1.713103866577148438e+01 -1.214084744453430176e+00 1.339831352233886719e-01 -3.240304887294769287e-01 2.988415360450744629e-01
1.279000000000000000e+03 4.374201202392578125e+01 1.563494968414306641e+01 -1.192337632179260254e+00 2.357750833034515381e-01 -2.869687676429748535e-01 5.983037129044532776e-02
1.280000000000000000e+03 4.526771545410156250e+01 1.294107818603515625e+01 -3.416494131088256836e-01 -1.649505496025085449e-01 -1.519799828529357910e-01 -2.707659602165222168e-01
1.281000000000000000e+03 4.244707870483398438e+01 3.304776382446289062e+01 5.379302501678466797e-01 1.590819060802459717e-01 2.091036438941955566e-01 1.613809168338775635e-01
1.282000000000000000e+03 4.348290634155273438e+01 2.986264801025390625e+01 4.042853116989135742e-01 1.336950510740280151e-01 1.613941043615341187e-01 2.118554860353469849e-01
1.283000000000000000e+03 4.308975982666015625e+01 2.815511703491210938e+01 2.646223008632659912e-01 7.273598760366439819e-02 1.012074872851371765e-01 2.699166834354400635e-01
1.284000000000000000e+03 4.291414642333984375e+01 2.638285255432128906e+01 1.307985931634902954e-01 3.166098520159721375e-02 4.873787611722946167e-02 3.225648701190948486e-01
1.285000000000000000e+03 4.253809356689453125e+01 2.483774948120117188e+01 -4.929810389876365662e-02 8.384923450648784637e-03 -1.227395422756671906e-02 3.753620684146881104e-01
1.286000000000000000e+03 4.260433197021484375e+01 2.258267593383789062e+01 -3.251810073852539062e-01 8.435250259935855865e-03 -9.502372145652770996e-02 4.160588383674621582e-01
1.287000000000000000e+03 4.237367248535156250e+01 1.837994766235351562e+01 -8.954032063484191895e-01 1.704100668430328369e-01 -2.174979448318481445e-01 3.256751596927642822e-01
1.288000000000000000e+03 4.251978683471679688e+01 1.682978630065917969e+01 -1.007582426071166992e+00 2.199471592903137207e-01 -2.362905740737915039e-01 2.148686051368713379e-01
1.289000000000000000e+03 4.272861099243164062e+01 1.479441452026367188e+01 -9.661457538604736328e-01 2.072459906339645386e-01 -2.276699393987655640e-01 -1.997136510908603668e-02
1.290000000000000000e+03 4.279923248291015625e+01 1.349761199951171875e+01 -6.699103116989135742e-01 1.272639334201812744e-01 -1.627939194440841675e-01 -9.417581558227539062e-02
1.291000000000000000e+03 4.113326263427734375e+01 1.243308067321777344e+01 -4.205875694751739502e-01 8.143950998783111572e-02 -1.017444208264350891e-01 -8.640782325528562069e-04
1.292000000000000000e+03 4.248694229125976562e+01 1.217642688751220703e+01 -3.512138426303863525e-01 3.994689881801605225e-02 -9.338008612394332886e-02 -7.741352915763854980e-02
1.293000000000000000e+03 4.395486450195312500e+01 1.178661823272705078e+01 -1.645789295434951782e-01 -4.866026341915130615e-02 -6.397175788879394531e-02 -1.021677404642105103e-01
1.294000000000000000e+03 4.063264465332031250e+01 3.698837280273437500e+01 6.094226241111755371e-01 1.248742043972015381e-01 2.202890515327453613e-01 1.080417558550834656e-01
1.295000000000000000e+03 3.993378067016601562e+01 3.399369049072265625e+01 5.029904246330261230e-01 5.129921436309814453e-02 1.662869006395339966e-01 1.701997071504592896e-01
1.296000000000000000e+03 4.128569793701171875e+01 2.868276405334472656e+01 2.592435181140899658e-01 1.940814405679702759e-02 8.359549939632415771e-02 2.904939651489257812e-01
1.297000000000000000e+03 4.110895538330078125e+01 2.680554962158203125e+01 1.106828600168228149e-01 5.131403915584087372e-03 3.474427759647369385e-02 3.298236429691314697e-01
1.298000000000000000e+03 4.096895980834960938e+01 2.507500648498535156e+01 -4.179466143250465393e-02 -2.661087783053517342e-04 -1.261823158711194992e-02 3.692896664142608643e-01
1.299000000000000000e+03 4.088870620727539062e+01 2.199073028564453125e+01 -3.975643813610076904e-01 4.562417417764663696e-02 -1.055820658802986145e-01 3.797334730625152588e-01
1.300000000000000000e+03 3.955818939208984375e+01 2.111247444152832031e+01 -4.644608199596405029e-01 5.167787149548530579e-02 -1.238348856568336487e-01 3.329084813594818115e-01
1.301000000000000000e+03 3.982244873046875000e+01 1.858303642272949219e+01 -7.251276373863220215e-01 1.289679855108261108e-01 -1.788478940725326538e-01 2.442149519920349121e-01
1.302000000000000000e+03 4.120705795288085938e+01 1.710857582092285156e+01 -8.852223157882690430e-01 2.127771675586700439e-01 -2.017335444688796997e-01 1.992815285921096802e-01
1.303000000000000000e+03 4.109024810791015625e+01 1.516208362579345703e+01 -8.501352071762084961e-01 2.178027331829071045e-01 -1.896997541189193726e-01 7.839644700288772583e-02
1.304000000000000000e+03 4.006891632080078125e+01 1.331458568572998047e+01 -5.621201992034912109e-01 1.010832712054252625e-01 -1.383110731840133667e-01 6.169133633375167847e-02
1.305000000000000000e+03 3.915922546386718750e+01 1.288088321685791016e+01 -4.742680191993713379e-01 5.594382062554359436e-02 -1.254972517490386963e-01 1.101990416646003723e-01
1.306000000000000000e+03 3.732606506347656250e+01 4.082791900634765625e+01 5.835189819335937500e-01 -2.443480677902698517e-02 1.677252501249313354e-01 3.817687928676605225e-02
1.307000000000000000e+03 3.710441207885742188e+01 3.434739685058593750e+01 4.534187614917755127e-01 -4.042090475559234619e-02 1.238993555307388306e-01 1.913855671882629395e-01
1.308000000000000000e+03 3.957895660400390625e+01 3.137693214416503906e+01 3.885683715343475342e-01 7.547065149992704391e-03 1.188346296548843384e-01 2.461250424385070801e-01
1.309000000000000000e+03 3.945030975341796875e+01 2.908973884582519531e+01 2.395194023847579956e-01 -1.106534246355295181e-02 6.853622198104858398e-02 2.944371104240417480e-01
1.310000000000000000e+03 3.941739654541015625e+01 2.709131240844726562e+01 1.101457774639129639e-01 -2.483102679252624512e-02 2.559442445635795593e-02 3.335759043693542480e-01
1.311000000000000000e+03 3.937097167968750000e+01 2.525870704650878906e+01 -5.482168123126029968e-02 -1.826460845768451691e-02 -2.192588709294795990e-02 3.547945022583007812e-01
1.312000000000000000e+03 3.816702651977539062e+01 2.188104438781738281e+01 -3.650174140930175781e-01 5.078818649053573608e-03 -1.079815775156021118e-01 3.249046206474304199e-01
1.313000000000000000e+03 3.780772018432617188e+01 2.026054573059082031e+01 -4.936613738536834717e-01 1.952156983315944672e-02 -1.422419399023056030e-01 2.725006639957427979e-01
1.314000000000000000e+03 3.963483810424804688e+01 1.757601165771484375e+01 -7.940248250961303711e-01 1.484241634607315063e-01 -1.936801970005035400e-01 1.823443025350570679e-01
1.315000000000000000e+03 3.985042572021484375e+01 1.544507598876953125e+01 -8.164832592010498047e-01 1.916238367557525635e-01 -1.874578297138214111e-01 1.071909144520759583e-01
1.316000000000000000e+03 3.719793319702148438e+01 1.330577087402343750e+01 -5.272958278656005859e-01 -3.102146275341510773e-02 -1.674951910972595215e-01 2.376811504364013672e-01
1.317000000000000000e+03 3.849886322021484375e+01 1.302540397644042969e+01 -4.806247353553771973e-01 5.273403972387313843e-02 -1.283672004938125610e-01 1.490009725093841553e-01
1.318000000000000000e+03 3.707222747802734375e+01 3.749909591674804688e+01 5.526321530342102051e-01 -2.801994793117046356e-02 1.573836505413055420e-01 1.174252554774284363e-01
1.319000000000000000e+03 3.763524627685546875e+01 2.922012519836425781e+01 2.247015982866287231e-01 -5.108525231480598450e-02 5.208490416407585144e-02 3.033184707164764404e-01
1.320000000000000000e+03 3.782177352905273438e+01 2.722633361816406250e+01 8.722884207963943481e-02 -4.369007796049118042e-02 1.306162960827350616e-02 3.267755210399627686e-01
1.321000000000000000e+03 3.785173797607421875e+01 2.546452140808105469e+01 -3.883048892021179199e-02 -3.741341084241867065e-02 -2.287317067384719849e-02 3.469252288341522217e-01
1.322000000000000000e+03 3.784109497070312500e+01 2.391739654541015625e+01 -1.752757132053375244e-01 -2.371631376445293427e-02 -5.969760939478874207e-02 3.445192873477935791e-01
1.323000000000000000e+03 3.653741073608398438e+01 2.054598617553710938e+01 -4.283144176006317139e-01 -2.594441361725330353e-02 -1.362776458263397217e-01 2.747941613197326660e-01
1.324000000000000000e+03 3.707354736328125000e+01 1.973111534118652344e+01 -5.085650086402893066e-01 -1.038626208901405334e-02 -1.556853801012039185e-01 2.418745607137680054e-01
1.325000000000000000e+03 3.800113296508789062e+01 1.762244796752929688e+01 -7.076185345649719238e-01 6.365323811769485474e-02 -1.931895911693572998e-01 1.548639833927154541e-01
1.326000000000000000e+03 3.728293991088867188e+01 1.601995849609375000e+01 -7.978495955467224121e-01 4.055050667375326157e-03 -2.381383627653121948e-01 7.948782294988632202e-02
1.327000000000000000e+03 3.666568756103515625e+01 1.344718360900878906e+01 -5.841101408004760742e-01 -2.068106532096862793e-01 -2.372762262821197510e-01 2.923228740692138672e-01
1.328000000000000000e+03 3.412852859497070312e+01 3.398720932006835938e+01 3.780680000782012939e-01 -1.136528402566909790e-01 7.932455092668533325e-02 2.062814533710479736e-01
1.329000000000000000e+03 3.526578903198242188e+01 3.125591278076171875e+01 2.867357432842254639e-01 -8.924773335456848145e-02 5.924640223383903503e-02 2.660247087478637695e-01
1.330000000000000000e+03 3.594215011596679688e+01 2.901571083068847656e+01 1.849212050437927246e-01 -7.642590999603271484e-02 3.254858776926994324e-02 2.983073294162750244e-01
1.331000000000000000e+03 3.635385513305664062e+01 2.716267395019531250e+01 7.099528610706329346e-02 -6.327787041664123535e-02 2.315225778147578239e-03 3.279139101505279541e-01
1.332000000000000000e+03 3.519819641113281250e+01 1.862605667114257812e+01 -5.155948400497436523e-01 -8.654397726058959961e-02 -1.806416511535644531e-01 2.259262651205062866e-01
1.333000000000000000e+03 3.627512741088867188e+01 1.723812675476074219e+01 -6.573497653007507324e-01 -8.007262647151947021e-02 -2.212267220020294189e-01 1.431071609258651733e-01
1.334000000000000000e+03 3.585527801513671875e+01 1.482645511627197266e+01 -9.501254558563232422e-01 -2.192861288785934448e-01 -3.508234620094299316e-01 1.029706895351409912e-01
1.335000000000000000e+03 3.497584152221679688e+01 1.426118373870849609e+01 -1.522188663482666016e+00 -1.828049421310424805e-01 -5.114980936050415039e-01 2.422281205654144287e-01
1.336000000000000000e+03 3.563891983032226562e+01 1.405241107940673828e+01 -1.323381423950195312e+00 -3.399227857589721680e-01 -4.989912509918212891e-01 4.478688538074493408e-01
1.337000000000000000e+03 1.850966072082519531e+01 4.065301513671875000e+01 1.613586246967315674e-01 -1.873561888933181763e-01 -7.799270097166299820e-03 2.858514711260795593e-02
1.338000000000000000e+03 3.264327239990234375e+01 4.082848739624023438e+01 4.697914123535156250e-01 -1.480888575315475464e-01 9.651076793670654297e-02 3.538051992654800415e-02
1.339000000000000000e+03 3.309789657592773438e+01 3.732440185546875000e+01 4.408999383449554443e-01 -1.414073854684829712e-01 8.984776586294174194e-02 1.258065551519393921e-01
1.340000000000000000e+03 3.353607559204101562e+01 3.040380096435546875e+01 2.294976860284805298e-01 -1.069912388920783997e-01 3.675193712115287781e-02 2.736858129501342773e-01
1.341000000000000000e+03 3.442658615112304688e+01 2.848221015930175781e+01 1.322071254253387451e-01 -9.255560487508773804e-02 1.189545728266239166e-02 3.014433383941650391e-01
1.342000000000000000e+03 3.501308441162109375e+01 2.682301712036132812e+01 3.702734038233757019e-02 -7.754860073328018188e-02 -1.215637754648923874e-02 3.207429647445678711e-01
1.343000000000000000e+03 3.259820938110351562e+01 2.546649932861328125e+01 -4.798111692070960999e-02 -9.038355946540832520e-02 -4.150940477848052979e-02 3.139033615589141846e-01
1.344000000000000000e+03 3.353106689453125000e+01 2.290981483459472656e+01 -2.143238186836242676e-01 -6.706666201353073120e-02 -8.441714197397232056e-02 3.145349621772766113e-01
1.345000000000000000e+03 3.352059936523437500e+01 2.060265731811523438e+01 -3.588833510875701904e-01 -6.663927435874938965e-02 -1.276567876338958740e-01 2.895768284797668457e-01
1.346000000000000000e+03 3.384398651123046875e+01 1.863401794433593750e+01 -4.838433265686035156e-01 -9.456231445074081421e-02 -1.735216975212097168e-01 2.636400759220123291e-01
1.347000000000000000e+03 3.459000778198242188e+01 1.695236206054687500e+01 -6.134777069091796875e-01 -1.638852804899215698e-01 -2.332088947296142578e-01 2.030124217271804810e-01
1.348000000000000000e+03 3.365868377685546875e+01 1.538904094696044922e+01 -8.425292968750000000e-01 -1.331171691417694092e-01 -2.926939427852630615e-01 1.929003000259399414e-01
1.349000000000000000e+03 3.301327133178710938e+01 1.400549507141113281e+01 -8.475183248519897461e-01 -8.405927568674087524e-02 -2.794732749462127686e-01 -1.527498364448547363e-01
1.350000000000000000e+03 3.424834442138671875e+01 1.432522487640380859e+01 -1.293960571289062500e+00 -1.109184101223945618e-01 -4.214636981487274170e-01 7.603168953210115433e-03
1.351000000000000000e+03 3.214165878295898438e+01 2.924038124084472656e+01 1.494193822145462036e-01 -1.238319873809814453e-01 7.676217239350080490e-03 2.801942229270935059e-01
1.352000000000000000e+03 3.306035614013671875e+01 2.768637275695800781e+01 7.576350122690200806e-02 -9.877298027276992798e-02 -6.902844179421663284e-03 3.027397692203521729e-01
1.353000000000000000e+03 3.181535720825195312e+01 2.676405715942382812e+01 1.553897839039564133e-02 -1.086805984377861023e-01 -2.794248610734939575e-02 3.006791174411773682e-01
1.354000000000000000e+03 3.148455619812011719e+01 2.466480255126953125e+01 -1.011375114321708679e-01 -9.202503412961959839e-02 -5.794876441359519958e-02 3.047975599765777588e-01
1.355000000000000000e+03 3.154352951049804688e+01 2.276535797119140625e+01 -2.131691575050354004e-01 -7.203882932662963867e-02 -8.556239306926727295e-02 3.004028201103210449e-01
1.356000000000000000e+03 3.258695220947265625e+01 2.060633468627929688e+01 -3.476385772228240967e-01 -6.233940646052360535e-02 -1.229933947324752808e-01 2.970460653305053711e-01
1.357000000000000000e+03 3.232152557373046875e+01 1.893899726867675781e+01 -4.430578649044036865e-01 -5.827289819717407227e-02 -1.503992229700088501e-01 2.834268510341644287e-01
1.358000000000000000e+03 3.198302268981933594e+01 1.705447578430175781e+01 -5.553339719772338867e-01 -3.180182725191116333e-02 -1.761407405138015747e-01 2.529688775539398193e-01
1.359000000000000000e+03 3.276542282104492188e+01 1.503732013702392578e+01 -7.074887752532958984e-01 -5.399398505687713623e-02 -2.284448295831680298e-01 1.113145127892494202e-01
1.360000000000000000e+03 3.119030380249023438e+01 1.376321029663085938e+01 -4.193575680255889893e-01 -9.179574553854763508e-04 -1.260826587677001953e-01 -6.309678405523300171e-02
1.361000000000000000e+03 3.169110107421875000e+01 1.319921970367431641e+01 -3.272456526756286621e-01 -7.075029611587524414e-02 -1.193987876176834106e-01 -1.314956098794937134e-01
1.362000000000000000e+03 2.962157440185546875e+01 1.178935909271240234e+01 -9.268754720687866211e-02 -5.102469027042388916e-02 -4.311367124319076538e-02 -6.253808736801147461e-02
1.363000000000000000e+03 2.895195579528808594e+01 1.123393058776855469e+01 -7.976770401000976562e-02 -5.970294773578643799e-02 -4.184119403362274170e-02 -6.080789119005203247e-02
1.364000000000000000e+03 2.712203788757324219e+01 1.050605392456054688e+01 -5.459975078701972961e-02 -5.771644786000251770e-02 -3.369485959410667419e-02 -6.025283411145210266e-02
1.365000000000000000e+03 2.411613273620605469e+01 1.041211032867431641e+01 -2.818657830357551575e-02 3.815677389502525330e-02 2.991058398038148880e-03 -4.141511395573616028e-03
1.366000000000000000e+03 2.356022644042968750e+01 1.081213378906250000e+01 -4.781976342201232910e-03 4.857430607080459595e-02 1.313769817352294922e-02 1.797723770141601562e-02
1.367000000000000000e+03 2.129018974304199219e+01 1.073687458038330078e+01 3.453356400132179260e-02 3.076163493096828461e-02 1.958855986595153809e-02 3.104271367192268372e-02
1.368000000000000000e+03 2.001014328002929688e+01 9.765122413635253906e+00 2.531860396265983582e-02 2.187968045473098755e-02 1.415948569774627686e-02 2.116920799016952515e-02
1.369000000000000000e+03 2.041290664672851562e+01 9.256939888000488281e+00 8.536214940249919891e-03 2.052406780421733856e-02 8.718084543943405151e-03 1.518511679023504257e-02
1.370000000000000000e+03 1.965826606750488281e+01 6.089679718017578125e+00 -4.346378520131111145e-02 8.045148104429244995e-03 -1.062559150159358978e-02 -1.182609423995018005e-02
1.371000000000000000e+03 2.042450904846191406e+01 6.041444301605224609e+00 -4.643803834915161133e-02 4.006433766335248947e-03 -1.272948086261749268e-02 -1.883755810558795929e-02
1.372000000000000000e+03 2.118429756164550781e+01 5.994519233703613281e+00 -4.540164023637771606e-02 1.160848885774612427e-02 -1.013794541358947754e-02 -1.887821033596992493e-02
1.373000000000000000e+03 2.284951019287109375e+01 7.247956275939941406e+00 -4.789764061570167542e-02 1.124760136008262634e-02 -1.099501177668571472e-02 -2.254319936037063599e-02
1.374000000000000000e+03 2.076400375366210938e+01 8.727377891540527344e+00 -8.406539447605609894e-03 2.093154378235340118e-02 3.757501021027565002e-03 5.643991753458976746e-03
1.375000000000000000e+03 2.176938056945800781e+01 1.017546081542968750e+01 1.047032419592142105e-02 3.283711895346641541e-02 1.299223303794860840e-02 2.420168370008468628e-02
1.376000000000000000e+03 2.898344421386718750e+01 3.697554779052734375e+01 3.375037312507629395e-01 -1.843663305044174194e-01 4.594121873378753662e-02 1.254168450832366943e-01
1.377000000000000000e+03 3.096176147460937500e+01 3.065422821044921875e+01 1.860468983650207520e-01 -1.437632739543914795e-01 1.268508564680814743e-02 2.509018182754516602e-01
1.378000000000000000e+03 2.988592910766601562e+01 2.948440170288085938e+01 1.180795431137084961e-01 -1.435209363698959351e-01 -7.632419001311063766e-03 2.640313804149627686e-01
1.379000000000000000e+03 3.081609725952148438e+01 2.806864547729492188e+01 7.294339686632156372e-02 -1.274095177650451660e-01 -1.633983477950096130e-02 2.815391421318054199e-01
1.380000000000000000e+03 2.972356033325195312e+01 2.683012580871582031e+01 9.080008603632450104e-03 -1.226426437497138977e-01 -3.406878933310508728e-02 2.802942097187042236e-01
1.381000000000000000e+03 3.072183799743652344e+01 2.580042457580566406e+01 -3.531057015061378479e-02 -1.073910444974899292e-01 -4.281048476696014404e-02 2.950003147125244141e-01
1.382000000000000000e+03 3.060056114196777344e+01 2.296696090698242188e+01 -1.985239684581756592e-01 -7.700447738170623779e-02 -8.265853673219680786e-02 2.902525365352630615e-01
1.383000000000000000e+03 3.037177085876464844e+01 2.020810890197753906e+01 -3.568581640720367432e-01 -3.269404917955398560e-02 -1.168656647205352783e-01 2.754850387573242188e-01
1.384000000000000000e+03 3.040975379943847656e+01 1.888008689880371094e+01 -4.333762526512145996e-01 -7.948408834636211395e-03 -1.323973983526229858e-01 2.621634900569915771e-01
1.385000000000000000e+03 3.015719032287597656e+01 1.669960975646972656e+01 -4.844335019588470459e-01 2.810352295637130737e-02 -1.368989944458007812e-01 2.048163861036300659e-01
1.386000000000000000e+03 3.104437637329101562e+01 1.680043601989746094e+01 -5.237522125244140625e-01 5.222041159868240356e-03 -1.555590480566024780e-01 2.165013849735260010e-01
1.387000000000000000e+03 3.054710578918457031e+01 1.331279850006103516e+01 -2.974737882614135742e-01 -1.702031865715980530e-02 -9.434823691844940186e-02 -6.093798950314521790e-02
1.388000000000000000e+03 2.302006340026855469e+01 4.067781448364257812e+01 2.542217671871185303e-01 -2.052756994962692261e-01 1.468381844460964203e-02 3.624609857797622681e-02
1.389000000000000000e+03 2.704127693176269531e+01 3.368531036376953125e+01 2.427099943161010742e-01 -1.787911802530288696e-01 1.917564496397972107e-02 1.824706047773361206e-01
1.390000000000000000e+03 2.851520347595214844e+01 2.898553657531738281e+01 9.415718168020248413e-02 -1.424576044082641602e-01 -1.449012663215398788e-02 2.577010393142700195e-01
1.391000000000000000e+03 2.837452507019042969e+01 2.739195251464843750e+01 2.820042148232460022e-02 -1.322556734085083008e-01 -3.121657669544219971e-02 2.669381201267242432e-01
1.392000000000000000e+03 2.817117691040039062e+01 2.488075828552246094e+01 -9.267640858888626099e-02 -1.081398054957389832e-01 -6.024486571550369263e-02 2.665570974349975586e-01
1.393000000000000000e+03 2.812485885620117188e+01 2.289578628540039062e+01 -1.904897093772888184e-01 -8.453769236803054810e-02 -8.250822126865386963e-02 2.542516291141510010e-01
1.394000000000000000e+03 2.846184539794921875e+01 2.053984069824218750e+01 -3.255936205387115479e-01 -4.039878025650978088e-02 -1.097977161407470703e-01 2.334950417280197144e-01
1.395000000000000000e+03 2.917813873291015625e+01 1.878988838195800781e+01 -4.230440855026245117e-01 7.592841051518917084e-03 -1.246353760361671448e-01 2.361060827970504761e-01
1.396000000000000000e+03 2.928628730773925781e+01 1.679248428344726562e+01 -4.602314531803131104e-01 3.754390403628349304e-02 -1.268062740564346313e-01 2.028917670249938965e-01
1.397000000000000000e+03 2.910053062438964844e+01 1.597918510437011719e+01 -4.201408326625823975e-01 3.278619796037673950e-02 -1.162063926458358765e-01 1.753953397274017334e-01
1.398000000000000000e+03 2.968431472778320312e+01 1.446676063537597656e+01 -3.727767169475555420e-01 1.988121494650840759e-02 -1.058686450123786926e-01 5.788588151335716248e-02
1.399000000000000000e+03 2.821997451782226562e+01 1.240597724914550781e+01 -1.074965074658393860e-01 -5.384481325745582581e-02 -4.840239509940147400e-02 -3.696066513657569885e-02
1.400000000000000000e+03 2.610270881652832031e+01 3.604624938964843750e+01 2.610479295253753662e-01 -1.925843060016632080e-01 2.053909003734588623e-02 1.317372918128967285e-01
1.401000000000000000e+03 2.510110473632812500e+01 3.416931533813476562e+01 1.984692960977554321e-01 -1.855397373437881470e-01 3.878866322338581085e-03 1.586711257696151733e-01
1.402000000000000000e+03 2.655490112304687500e+01 3.155868339538574219e+01 1.762056499719619751e-01 -1.682161837816238403e-01 2.396837575361132622e-03 2.178314477205276489e-01
1.403000000000000000e+03 2.718820190429687500e+01 2.916255569458007812e+01 8.935579657554626465e-02 -1.487088352441787720e-01 -1.780590973794460297e-02 2.440262585878372192e-01
1.404000000000000000e+03 2.680368423461914062e+01 2.756342315673828125e+01 2.861527167260646820e-02 -1.375880837440490723e-01 -3.269184380769729614e-02 2.519905269145965576e-01
1.405000000000000000e+03 2.670701217651367188e+01 2.596291732788085938e+01 -3.315470740199089050e-02 -1.258291751146316528e-01 -4.769516363739967346e-02 2.555896639823913574e-01
1.406000000000000000e+03 2.701823806762695312e+01 2.453867530822753906e+01 -1.101655513048171997e-01 -1.087327972054481506e-01 -6.566950678825378418e-02 2.533388137817382812e-01
1.407000000000000000e+03 2.667951011657714844e+01 2.245455551147460938e+01 -1.990898102521896362e-01 -9.185713529586791992e-02 -8.728408813476562500e-02 2.331852614879608154e-01
1.408000000000000000e+03 2.660976409912109375e+01 2.106673812866210938e+01 -2.675966620445251465e-01 -7.775289565324783325e-02 -1.036048680543899536e-01 2.090308815240859985e-01
1.409000000000000000e+03 2.598825454711914062e+01 1.880449676513671875e+01 -3.794040679931640625e-01 -5.869997292757034302e-02 -1.314312070608139038e-01 1.384837925434112549e-01
1.410000000000000000e+03 2.799667549133300781e+01 1.695760536193847656e+01 -4.463911950588226318e-01 4.641555994749069214e-02 -1.199926882982254028e-01 1.910539418458938599e-01
1.411000000000000000e+03 2.797101974487304688e+01 1.540990257263183594e+01 -3.206897079944610596e-01 1.650551520287990570e-02 -9.125525504350662231e-02 1.668272316455841064e-01
1.412000000000000000e+03 2.667691612243652344e+01 1.340178775787353516e+01 -5.665636435151100159e-02 -2.187119983136653900e-02 -2.355827018618583679e-02 3.896705061197280884e-02
1.413000000000000000e+03 2.732823371887207031e+01 1.190062904357910156e+01 -6.841976940631866455e-02 -5.265295878052711487e-02 -3.632181882858276367e-02 -3.882295638322830200e-02
1.414000000000000000e+03 2.584260177612304688e+01 2.976127243041992188e+01 9.568426012992858887e-02 -1.550136804580688477e-01 -1.779882609844207764e-02 2.329968810081481934e-01
1.415000000000000000e+03 2.531324768066406250e+01 2.804361343383789062e+01 3.678772971034049988e-02 -1.435223072767257690e-01 -3.202037140727043152e-02 2.378980368375778198e-01
1.416000000000000000e+03 2.471254920959472656e+01 2.353189086914062500e+01 -1.247900649905204773e-01 -1.153579130768775940e-01 -7.204439491033554077e-02 2.290805727243423462e-01
1.417000000000000000e+03 2.529083633422851562e+01 2.255309104919433594e+01 -1.703638881444931030e-01 -1.085264757275581360e-01 -8.366711437702178955e-02 2.222636342048645020e-01
1.418000000000000000e+03 2.516195106506347656e+01 2.099488449096679688e+01 -2.393522560596466064e-01 -1.078735515475273132e-01 -1.041677370667457581e-01 1.928967833518981934e-01
1.419000000000000000e+03 2.506433105468750000e+01 1.606614303588867188e+01 -4.031736254692077637e-01 -1.577765792608261108e-01 -1.682850569486618042e-01 2.866518497467041016e-01
1.420000000000000000e+03 2.452422714233398438e+01 1.657245445251464844e+01 -8.083250522613525391e-01 -2.495309412479400635e-01 -3.173567950725555420e-01 2.620220780372619629e-01
1.421000000000000000e+03 2.653574371337890625e+01 1.503257656097412109e+01 -1.797353476285934448e-01 -1.494820811785757542e-03 -5.436905100941658020e-02 1.874767988920211792e-01
1.422000000000000000e+03 2.599757766723632812e+01 1.430283451080322266e+01 -3.806470707058906555e-02 -2.957498654723167419e-02 -2.029190771281719208e-02 1.168030723929405212e-01
1.423000000000000000e+03 2.437693977355957031e+01 1.336755561828613281e+01 7.842336595058441162e-02 1.557057648897171021e-01 7.023873925209045410e-02 1.013977527618408203e-01
1.424000000000000000e+03 2.550703811645507812e+01 1.356826496124267578e+01 2.010922320187091827e-02 5.305522680282592773e-02 2.194933593273162842e-02 2.276533842086791992e-02
1.425000000000000000e+03 2.547461891174316406e+01 1.235964775085449219e+01 -6.625704001635313034e-03 4.324268177151679993e-02 1.098509412258863449e-02 -1.548415329307317734e-02
1.426000000000000000e+03 2.379958724975585938e+01 1.278985595703125000e+01 7.831161469221115112e-02 9.928599745035171509e-02 5.327928438782691956e-02 7.912088930606842041e-02
1.427000000000000000e+03 2.491532707214355469e+01 1.291751003265380859e+01 1.761738024652004242e-02 1.110002100467681885e-01 3.858527541160583496e-02 2.489755302667617798e-02
1.428000000000000000e+03 2.297110939025878906e+01 3.480997467041015625e+01 1.798507124185562134e-01 -1.826064884662628174e-01 -8.267332450486719608e-04 1.475137025117874146e-01
1.429000000000000000e+03 2.288980865478515625e+01 3.258805847167968750e+01 1.406783014535903931e-01 -1.732973754405975342e-01 -9.785721078515052795e-03 1.728274226188659668e-01
1.430000000000000000e+03 2.472180175781250000e+01 3.216880798339843750e+01 1.652027815580368042e-01 -1.763784736394882202e-01 -3.352707484737038612e-03 1.914475113153457642e-01
1.431000000000000000e+03 2.433874511718750000e+01 3.032689094543457031e+01 1.043872088193893433e-01 -1.599908769130706787e-01 -1.668110303580760956e-02 2.171169817447662354e-01
1.432000000000000000e+03 2.393344497680664062e+01 2.870217514038085938e+01 4.743488878011703491e-02 -1.454249471426010132e-01 -2.939701825380325317e-02 2.249512672424316406e-01
1.433000000000000000e+03 2.341284751892089844e+01 2.564021492004394531e+01 -5.239037796854972839e-02 -1.225585415959358215e-01 -5.248467624187469482e-02 2.311632335186004639e-01
1.434000000000000000e+03 2.411596679687500000e+01 2.460478591918945312e+01 -8.259532600641250610e-02 -1.200278550386428833e-01 -6.078695505857467651e-02 2.320403009653091431e-01
1.435000000000000000e+03 2.371990013122558594e+01 2.278049850463867188e+01 -1.449303776025772095e-01 -1.127064377069473267e-01 -7.729104906320571899e-02 2.225667089223861694e-01
1.436000000000000000e+03 2.300482559204101562e+01 1.998227310180664062e+01 -2.544075846672058105e-01 -1.093089133501052856e-01 -1.091149449348449707e-01 1.921039968729019165e-01
1.437000000000000000e+03 2.243023109436035156e+01 1.846898651123046875e+01 -3.223221004009246826e-01 -8.881038427352905273e-02 -1.233397424221038818e-01 1.647607535123825073e-01
1.438000000000000000e+03 2.154324340820312500e+01 1.681574821472167969e+01 -3.138841688632965088e-01 1.384587399661540985e-02 -9.001148492097854614e-02 -4.367097862996160984e-04
1.439000000000000000e+03 2.253701019287109375e+01 1.643165016174316406e+01 -4.109170138835906982e-01 -1.219515502452850342e-02 -1.269336491823196411e-01 -7.505825161933898926e-02
1.440000000000000000e+03 2.113476181030273438e+01 3.260592269897460938e+01 1.189597323536872864e-01 -1.637916117906570435e-01 -1.344956550747156143e-02 1.658088117837905884e-01
1.441000000000000000e+03 2.279119300842285156e+01 3.070426177978515625e+01 1.004505753517150879e-01 -1.598932147026062012e-01 -1.783279329538345337e-02 1.996357589960098267e-01
1.442000000000000000e+03 2.258304595947265625e+01 2.910213279724121094e+01 5.441898852586746216e-02 -1.447577476501464844e-01 -2.710162848234176636e-02 2.120085954666137695e-01
1.443000000000000000e+03 2.106246948242187500e+01 2.788542747497558594e+01 1.397779025137424469e-02 -1.274026781320571899e-01 -3.402746468782424927e-02 2.066614627838134766e-01
1.444000000000000000e+03 2.241625404357910156e+01 2.489059638977050781e+01 -6.958807259798049927e-02 -1.129996851086616516e-01 -5.477632582187652588e-02 2.245351523160934448e-01
1.445000000000000000e+03 2.209232902526855469e+01 2.316996002197265625e+01 -1.220679357647895813e-01 -9.895060211420059204e-02 -6.630556285381317139e-02 2.171553075313568115e-01
1.446000000000000000e+03 2.098621559143066406e+01 2.010690116882324219e+01 -2.216300368309020996e-01 -4.780744388699531555e-02 -8.083124458789825439e-02 1.804870665073394775e-01
1.447000000000000000e+03 2.175923728942871094e+01 1.904741859436035156e+01 -2.970090806484222412e-01 -5.306815728545188904e-02 -1.050231754779815674e-01 1.769948750734329224e-01
1.448000000000000000e+03 1.971608734130859375e+01 1.503118324279785156e+01 -7.082002609968185425e-02 -1.580100972205400467e-03 -2.172003872692584991e-02 -2.005346678197383881e-02
1.449000000000000000e+03 2.181895828247070312e+01 1.609995841979980469e+01 -2.686302363872528076e-01 -2.950664237141609192e-02 -8.944106101989746094e-02 -5.584612861275672913e-02
1.450000000000000000e+03 2.328313827514648438e+01 3.743668365478515625e+01 2.313597053289413452e-01 -1.974410563707351685e-01 1.017559505999088287e-02 1.015008613467216492e-01
1.451000000000000000e+03 1.997826957702636719e+01 3.738090515136718750e+01 1.759337782859802246e-01 -1.869255304336547852e-01 -3.297523129731416702e-03 8.954681456089019775e-02
1.452000000000000000e+03 2.070526885986328125e+01 3.476674270629882812e+01 1.556073129177093506e-01 -1.773418933153152466e-01 -6.520370952785015106e-03 1.355976164340972900e-01
1.453000000000000000e+03 1.876897621154785156e+01 3.411874389648437500e+01 1.188504472374916077e-01 -1.645909100770950317e-01 -1.372213661670684814e-02 1.303547322750091553e-01
1.454000000000000000e+03 2.134517669677734375e+01 3.082748031616210938e+01 8.828483521938323975e-02 -1.548001617193222046e-01 -1.995459944009780884e-02 1.843969970941543579e-01
1.455000000000000000e+03 1.972392082214355469e+01 2.831993675231933594e+01 1.902343519032001495e-02 -1.235018074512481689e-01 -3.134351223707199097e-02 1.935128420591354370e-01
1.456000000000000000e+03 1.929708671569824219e+01 2.697235107421875000e+01 -1.525036711245775223e-02 -1.065669730305671692e-01 -3.654520213603973389e-02 1.933919042348861694e-01
1.457000000000000000e+03 2.082531738281250000e+01 2.541439056396484375e+01 -5.439581722021102905e-02 -1.038449928164482117e-01 -4.747224226593971252e-02 2.112166136503219604e-01
1.458000000000000000e+03 2.010581207275390625e+01 2.216801452636718750e+01 -1.466993987560272217e-01 -6.026304140686988831e-02 -6.208873540163040161e-02 1.922441720962524414e-01
1.459000000000000000e+03 2.016041183471679688e+01 1.986535072326660156e+01 -2.092909663915634155e-01 -2.278981357812881470e-02 -6.962423026561737061e-02 1.621636152267456055e-01
1.460000000000000000e+03 2.077450370788574219e+01 1.854443359375000000e+01 -2.802943885326385498e-01 -6.766981445252895355e-03 -8.611840754747390747e-02 1.424353271722793579e-01
1.461000000000000000e+03 2.057680511474609375e+01 1.726277351379394531e+01 -2.644975781440734863e-01 2.129106409847736359e-02 -7.296195626258850098e-02 5.293473601341247559e-02
1.462000000000000000e+03 1.799317359924316406e+01 1.508608818054199219e+01 -6.401673704385757446e-02 1.403781585395336151e-02 -1.499367598444223404e-02 5.329697858542203903e-03
1.463000000000000000e+03 1.760651206970214844e+01 1.391560935974121094e+01 -5.246283486485481262e-03 7.663473486900329590e-03 7.251569768413901329e-04 8.253177627921104431e-03
1.464000000000000000e+03 1.622598457336425781e+01 1.307876968383789062e+01 1.961386948823928833e-02 1.775144971907138824e-02 1.120959594845771790e-02 2.059069834649562836e-02
1.465000000000000000e+03 1.412644004821777344e+01 1.442034721374511719e+01 -2.445570752024650574e-02 2.039257250726222992e-02 -1.218940713442862034e-03 1.601297408342361450e-02
1.466000000000000000e+03 1.168549728393554688e+01 1.889320564270019531e+01 -5.786016955971717834e-02 -1.152172335423529148e-03 -1.770370267331600189e-02 4.671748355031013489e-02
1.467000000000000000e+03 7.469338417053222656e+00 2.266565322875976562e+01 -2.480489574372768402e-02 -4.181571304798126221e-02 -1.998618245124816895e-02 5.061790347099304199e-02
1.468000000000000000e+03 5.797058582305908203e+00 2.394421005249023438e+01 -1.309807971119880676e-02 -5.619510635733604431e-02 -2.078795619308948517e-02 4.520440846681594849e-02
1.469000000000000000e+03 5.002861499786376953e+00 2.546876335144042969e+01 -8.712601847946643829e-03 -6.841407716274261475e-02 -2.313800342381000519e-02 4.499116167426109314e-02
1.470000000000000000e+03 2.126506090164184570e+00 2.753450584411621094e+01 -1.225729589350521564e-03 -8.802308142185211182e-02 -2.677464298903942108e-02 2.335686609148979187e-02
1.471000000000000000e+03 4.273838698863983154e-01 2.760443115234375000e+01 -3.967896554968319833e-05 -8.920751512050628662e-02 -2.677415683865547180e-02 5.184330046176910400e-03
1.472000000000000000e+03 1.272868633270263672e+00 2.836165428161621094e+01 -4.224116855766624212e-04 -9.757068753242492676e-02 -2.939792908728122711e-02 1.500788051635026932e-02
1.473000000000000000e+03 4.354188442230224609e-01 2.679721641540527344e+01 -8.713721763342618942e-05 -7.958196103572845459e-02 -2.390072867274284363e-02 5.097289569675922394e-03
1.474000000000000000e+03 1.291663765907287598e+00 2.676578140258789062e+01 -5.250693648122251034e-04 -8.121827989816665649e-02 -2.452300675213336945e-02 1.432345993816852570e-02
1.475000000000000000e+03 2.893257379531860352e+00 2.441325378417968750e+01 -4.231006372720003128e-03 -6.097614392638206482e-02 -1.956214569509029388e-02 2.550194784998893738e-02
1.476000000000000000e+03 4.563239097595214844e+00 2.374026298522949219e+01 -9.624912403523921967e-03 -5.517067015171051025e-02 -1.943867467343807220e-02 3.555488958954811096e-02
1.477000000000000000e+03 6.534885406494140625e+00 2.120072937011718750e+01 -1.987220533192157745e-02 -3.532234951853752136e-02 -1.655836589634418488e-02 3.663391247391700745e-02
1.478000000000000000e+03 7.710051536560058594e+00 1.981893920898437500e+01 -2.742281742393970490e-02 -2.466346323490142822e-02 -1.562588475644588470e-02 3.504149615764617920e-02
1.479000000000000000e+03 9.935945510864257812e+00 1.673745155334472656e+01 -3.186078742146492004e-02 -1.462152111344039440e-03 -9.996881708502769470e-03 2.184431441128253937e-02
1.480000000000000000e+03 1.192732143402099609e+01 1.665930175781250000e+01 -4.612530395388603210e-02 9.276723489165306091e-03 -1.105457358062267303e-02 2.656113542616367340e-02
1.481000000000000000e+03 1.293029785156250000e+01 1.338124656677246094e+01 -4.975961055606603622e-03 1.838633790612220764e-02 4.023113287985324860e-03 1.457417756319046021e-02
1.482000000000000000e+03 1.224238491058349609e+01 1.170690727233886719e+01 1.557608228176832199e-02 2.120236679911613464e-02 1.103353500366210938e-02 1.786111481487751007e-02
1.483000000000000000e+03 1.496677780151367188e+01 1.208167362213134766e+01 3.063887357711791992e-02 2.584840543568134308e-02 1.694618351757526398e-02 2.867077663540840149e-02
1.484000000000000000e+03 1.690268325805664062e+01 1.352462100982666016e+01 8.579227142035961151e-03 1.348555926233530045e-02 6.619435735046863556e-03 1.338495407253503799e-02
1.485000000000000000e+03 1.957354927062988281e+01 3.221270751953125000e+01 9.830661118030548096e-02 -1.557750701904296875e-01 -1.724053919315338135e-02 1.595068573951721191e-01
1.486000000000000000e+03 2.009375381469726562e+01 3.072117614746093750e+01 7.344783842563629150e-02 -1.462190449237823486e-01 -2.183136343955993652e-02 1.774324178695678711e-01
1.487000000000000000e+03 1.915184020996093750e+01 3.016564941406250000e+01 5.465084314346313477e-02 -1.367437541484832764e-01 -2.462787367403507233e-02 1.747100651264190674e-01
1.488000000000000000e+03 1.778790855407714844e+01 2.777067756652832031e+01 -2.223608084022998810e-03 -1.052793934941291809e-01 -3.225089982151985168e-02 1.753552258014678955e-01
1.489000000000000000e+03 1.716926002502441406e+01 2.652242279052734375e+01 -2.706667594611644745e-02 -8.885725587606430054e-02 -3.477717936038970947e-02 1.714417934417724609e-01
1.490000000000000000e+03 1.790735054016113281e+01 2.555198478698730469e+01 -4.613063111901283264e-02 -8.309856057167053223e-02 -3.876875713467597961e-02 1.802591830492019653e-01
1.491000000000000000e+03 1.842175292968750000e+01 2.306168174743652344e+01 -1.103692725300788879e-01 -5.143595114350318909e-02 -4.854156821966171265e-02 1.745475977659225464e-01
1.492000000000000000e+03 1.829503059387207031e+01 1.986928939819335938e+01 -1.725291311740875244e-01 1.425242517143487930e-03 -5.133116617798805237e-02 1.257188767194747925e-01
1.493000000000000000e+03 1.820046234130859375e+01 1.867018699645996094e+01 -1.837598979473114014e-01 2.086879312992095947e-02 -4.886733368039131165e-02 9.459356963634490967e-02
1.494000000000000000e+03 1.824384880065917969e+01 1.691812133789062500e+01 -1.484191566705703735e-01 2.922816760838031769e-02 -3.575729578733444214e-02 3.648805245757102966e-02
1.495000000000000000e+03 1.873177909851074219e+01 1.541469478607177734e+01 -8.866968750953674316e-02 1.637245714664459229e-02 -2.168916910886764526e-02 -1.517262309789657593e-03
1.496000000000000000e+03 1.581808567047119141e+01 3.493772888183593750e+01 9.120861440896987915e-02 -1.566806584596633911e-01 -1.964161172509193420e-02 9.840751439332962036e-02
1.497000000000000000e+03 1.825985717773437500e+01 3.141228485107421875e+01 7.035292685031890869e-02 -1.427911221981048584e-01 -2.173146046698093414e-02 1.556307226419448853e-01
1.498000000000000000e+03 1.717965316772460938e+01 3.022485923767089844e+01 4.126222804188728333e-02 -1.270166188478469849e-01 -2.572631649672985077e-02 1.553965061902999878e-01
1.499000000000000000e+03 1.626112747192382812e+01 2.877032661437988281e+01 1.184296235442161560e-02 -1.079950109124183655e-01 -2.884561568498611450e-02 1.533990502357482910e-01
1.500000000000000000e+03 1.575857925415039062e+01 2.709207725524902344e+01 -1.690869778394699097e-02 -8.848040550947189331e-02 -3.161673247814178467e-02 1.530401557683944702e-01
1.501000000000000000e+03 1.597611331939697266e+01 2.398764801025390625e+01 -7.252176851034164429e-02 -4.854265227913856506e-02 -3.631932660937309265e-02 1.464279145002365112e-01
1.502000000000000000e+03 1.635118103027343750e+01 2.283184242248535156e+01 -9.746170789003372192e-02 -3.377127274870872498e-02 -3.936989232897758484e-02 1.448521018028259277e-01
1.503000000000000000e+03 1.776019477844238281e+01 2.073721694946289062e+01 -1.462165415287017822e-01 -1.045059226453304291e-02 -4.700013995170593262e-02 1.374229639768600464e-01
1.504000000000000000e+03 1.660103607177734375e+01 1.876590538024902344e+01 -1.388625204563140869e-01 1.836585253477096558e-02 -3.614899888634681702e-02 8.276522159576416016e-02
1.505000000000000000e+03 1.673204994201660156e+01 1.730018997192382812e+01 -1.196001544594764709e-01 2.543653734028339386e-02 -2.824908681213855743e-02 4.818554595112800598e-02
1.506000000000000000e+03 1.618335533142089844e+01 1.573419570922851562e+01 -7.166193425655364990e-02 2.483562380075454712e-02 -1.404789369553327560e-02 2.003673464059829712e-02
1.507000000000000000e+03 1.685809707641601562e+01 1.654062843322753906e+01 -1.073858588933944702e-01 2.788753062486648560e-02 -2.384949848055839539e-02 2.991572581231594086e-02
1.508000000000000000e+03 1.211196994781494141e+01 4.099420547485351562e+01 8.104772120714187622e-02 -1.639609485864639282e-01 -2.487396821379661560e-02 1.591840945184230804e-02
1.509000000000000000e+03 1.719693565368652344e+01 3.303638076782226562e+01 8.559753000736236572e-02 -1.507978141307830811e-01 -1.956008560955524445e-02 1.321608871221542358e-01
1.510000000000000000e+03 1.589674663543701172e+01 3.163575744628906250e+01 5.333247035741806030e-02 -1.335193663835525513e-01 -2.405606769025325775e-02 1.331683248281478882e-01
1.511000000000000000e+03 1.477698707580566406e+01 3.007751846313476562e+01 2.285541966557502747e-02 -1.140558421611785889e-01 -2.736012637615203857e-02 1.339343786239624023e-01
1.512000000000000000e+03 1.357391643524169922e+01 2.882321929931640625e+01 3.124264068901538849e-03 -9.827718883752822876e-02 -2.854587696492671967e-02 1.269748061895370483e-01
1.513000000000000000e+03 1.420775032043457031e+01 2.404937362670898438e+01 -6.161845847964286804e-02 -4.463541135191917419e-02 -3.187616169452667236e-02 1.264589577913284302e-01
1.514000000000000000e+03 1.466684341430664062e+01 2.142968177795410156e+01 -9.170807152986526489e-02 -1.334521919488906860e-02 -3.151598572731018066e-02 1.058129742741584778e-01
1.515000000000000000e+03 1.618947410583496094e+01 2.070931625366210938e+01 -1.214295253157615662e-01 -4.867448471486568451e-03 -3.788909316062927246e-02 1.163918823003768921e-01
1.516000000000000000e+03 1.516197490692138672e+01 1.903934860229492188e+01 -1.076435893774032593e-01 1.250930316746234894e-02 -2.854028716683387756e-02 7.321958243846893311e-02
1.517000000000000000e+03 1.532744216918945312e+01 1.757322311401367188e+01 -9.696091711521148682e-02 2.238454855978488922e-02 -2.237290889024734497e-02 4.717886447906494141e-02
1.518000000000000000e+03 1.466878890991210938e+01 1.496606159210205078e+01 -3.943282365798950195e-02 2.205117978155612946e-02 -5.214492324739694595e-03 1.708355173468589783e-02
1.519000000000000000e+03 1.548931598663330078e+01 3.923616027832031250e+01 1.141368448734283447e-01 -1.716131418943405151e-01 -1.724288985133171082e-02 4.193424433469772339e-02
1.520000000000000000e+03 1.445935440063476562e+01 3.323707962036132812e+01 5.719989538192749023e-02 -1.386180967092514038e-01 -2.442546002566814423e-02 1.093096658587455750e-01
1.521000000000000000e+03 1.334704685211181641e+01 3.160626029968261719e+01 3.384664654731750488e-02 -1.228242814540863037e-01 -2.669328823685646057e-02 1.115140244364738464e-01
1.522000000000000000e+03 1.234194374084472656e+01 3.024241065979003906e+01 1.501569803804159164e-02 -1.087942942976951599e-01 -2.813357859849929810e-02 1.110567972064018250e-01
1.523000000000000000e+03 1.233510112762451172e+01 2.797586822509765625e+01 -1.040863059461116791e-02 -8.562164008617401123e-02 -2.880907990038394928e-02 1.152837276458740234e-01
1.524000000000000000e+03 1.214919662475585938e+01 2.514077377319335938e+01 -3.678143769502639771e-02 -5.686470866203308105e-02 -2.809384465217590332e-02 1.070550605654716492e-01
1.525000000000000000e+03 1.319926071166992188e+01 2.422651863098144531e+01 -5.188217014074325562e-02 -4.699009284377098083e-02 -2.966167964041233063e-02 1.149540320038795471e-01
1.526000000000000000e+03 1.405089950561523438e+01 2.184731674194335938e+01 -8.257587999105453491e-02 -1.828060857951641083e-02 -3.025694750249385834e-02 1.028733476996421814e-01
1.527000000000000000e+03 1.421813583374023438e+01 2.069105720520019531e+01 -9.102000296115875244e-02 -6.103751249611377716e-03 -2.913712710142135620e-02 9.051149338483810425e-02
1.528000000000000000e+03 1.388741397857666016e+01 1.900285911560058594e+01 -8.603691309690475464e-02 7.851215079426765442e-03 -2.345570921897888184e-02 6.203289702534675598e-02
1.529000000000000000e+03 1.397827529907226562e+01 1.739278221130371094e+01 -7.446508854627609253e-02 1.682188175618648529e-02 -1.729296147823333740e-02 4.090179875493049622e-02
1.530000000000000000e+03 8.021220207214355469e+00 4.120806503295898438e+01 3.462615981698036194e-02 -1.594951152801513672e-01 -3.746068477630615234e-02 8.072433993220329285e-03
1.531000000000000000e+03 1.073769855499267578e+01 3.586127471923828125e+01 4.563621431589126587e-02 -1.434230506420135498e-01 -2.933605201542377472e-02 6.540194153785705566e-02
1.532000000000000000e+03 1.273866081237792969e+01 3.474243164062500000e+01 5.642063170671463013e-02 -1.431423276662826538e-01 -2.601650729775428772e-02 8.503057062625885010e-02
1.533000000000000000e+03 1.390932464599609375e+01 3.685512542724609375e+01 7.794106751680374146e-02 -1.555685698986053467e-01 -2.328825369477272034e-02 6.997745484113693237e-02
1.534000000000000000e+03 1.179492664337158203e+01 3.289652633666992188e+01 3.417073190212249756e-02 -1.275761276483535767e-01 -2.802161686122417450e-02 9.313019365072250366e-02
1.535000000000000000e+03 1.024716472625732422e+01 3.005328369140625000e+01 6.586214527487754822e-03 -1.032789945602416992e-01 -2.900783345103263855e-02 9.372735023498535156e-02
1.536000000000000000e+03 1.037007236480712891e+01 2.651527976989746094e+01 -2.067866362631320953e-02 -7.006065547466278076e-02 -2.722179517149925232e-02 9.334058314561843872e-02
1.537000000000000000e+03 1.084862422943115234e+01 2.564651298522949219e+01 -2.756388485431671143e-02 -6.205816939473152161e-02 -2.688661590218544006e-02 9.508357197046279907e-02
1.538000000000000000e+03 1.119442939758300781e+01 2.475529098510742188e+01 -3.569673001766204834e-02 -5.326585844159126282e-02 -2.668877504765987396e-02 9.506966918706893921e-02
1.539000000000000000e+03 1.211220169067382812e+01 2.342068481445312500e+01 -5.206541344523429871e-02 -3.842340037226676941e-02 -2.714664489030838013e-02 9.661656618118286133e-02
1.540000000000000000e+03 1.185468482971191406e+01 2.099713706970214844e+01 -6.273146718740463257e-02 -1.464491896331310272e-02 -2.321291528642177582e-02 7.194065302610397339e-02
1.541000000000000000e+03 1.113900470733642578e+01 2.014182662963867188e+01 -5.638919025659561157e-02 -1.111233793199062347e-02 -2.025045827031135559e-02 5.913192033767700195e-02
1.542000000000000000e+03 1.139211273193359375e+01 3.821784591674804688e+01 6.380642205476760864e-02 -1.563869714736938477e-01 -2.777416445314884186e-02 4.948689416050910950e-02
1.543000000000000000e+03 8.646091461181640625e+00 3.872243118286132812e+01 4.369233548641204834e-02 -1.558678001165390015e-01 -3.365264087915420532e-02 3.172616660594940186e-02
1.544000000000000000e+03 1.010923290252685547e+01 3.385325241088867188e+01 3.219151869416236877e-02 -1.319741308689117432e-01 -2.993478439748287201e-02 7.664273679256439209e-02
1.545000000000000000e+03 9.027646064758300781e+00 3.071748542785644531e+01 9.044651873409748077e-03 -1.081437766551971436e-01 -2.972973696887493134e-02 8.243697136640548706e-02
1.546000000000000000e+03 8.588223457336425781e+00 2.952433776855468750e+01 4.081175138708204031e-04 -9.814361482858657837e-02 -2.932064980268478394e-02 8.085711300373077393e-02
1.547000000000000000e+03 9.674918174743652344e+00 2.727752876281738281e+01 -1.337499544024467468e-02 -7.753080874681472778e-02 -2.727174013853073120e-02 8.816139400005340576e-02
1.548000000000000000e+03 9.623656272888183594e+00 2.594983100891113281e+01 -2.158913388848304749e-02 -6.559761613607406616e-02 -2.615602500736713409e-02 8.444736897945404053e-02
1.549000000000000000e+03 9.377646446228027344e+00 2.388751220703125000e+01 -3.153374418616294861e-02 -4.778208211064338684e-02 -2.379474788904190063e-02 7.352545857429504395e-02
1.550000000000000000e+03 1.012709331512451172e+01 2.221963119506835938e+01 -4.345692694187164307e-02 -3.173877671360969543e-02 -2.255871146917343140e-02 6.963649392127990723e-02
1.551000000000000000e+03 9.530656814575195312e+00 1.943895721435546875e+01 -4.033622145652770996e-02 -1.528164092451334000e-02 -1.668535731732845306e-02 4.166712239384651184e-02
1.552000000000000000e+03 8.395799636840820312e+00 3.443640899658203125e+01 2.503206580877304077e-02 -1.341532766819000244e-01 -3.273636475205421448e-02 6.223045289516448975e-02
1.553000000000000000e+03 8.067241668701171875e+00 3.266332244873046875e+01 1.656899414956569672e-02 -1.234016567468643188e-01 -3.204979747533798218e-02 6.906864792108535767e-02
1.554000000000000000e+03 7.752908706665039062e+00 3.107841491699218750e+01 7.156816311180591583e-03 -1.108868941664695740e-01 -3.111902251839637756e-02 7.051982730627059937e-02
1.555000000000000000e+03 7.958572864532470703e+00 2.868173980712890625e+01 -3.885221667587757111e-03 -9.090544283390045166e-02 -2.843719907104969025e-02 7.506169378757476807e-02
1.556000000000000000e+03 8.766044616699218750e+00 2.792377471923828125e+01 -9.010542184114456177e-03 -8.388692140579223633e-02 -2.786923944950103760e-02 8.114433288574218750e-02
1.557000000000000000e+03 8.049730300903320312e+00 2.578145408630371094e+01 -1.823971234261989594e-02 -6.551540642976760864e-02 -2.512653544545173645e-02 6.996563076972961426e-02
1.558000000000000000e+03 6.465487957000732422e+00 3.859174346923828125e+01 2.453009970486164093e-02 -1.559293717145919800e-01 -3.941978141665458679e-02 2.535277791321277618e-02
1.559000000000000000e+03 6.831945419311523438e+00 3.662364196777343750e+01 2.491986192762851715e-02 -1.489588320255279541e-01 -3.721169009804725647e-02 4.035416617989540100e-02
1.560000000000000000e+03 6.763636112213134766e+00 3.471831130981445312e+01 1.867841556668281555e-02 -1.378374993801116943e-01 -3.574772551655769348e-02 5.173404887318611145e-02
1.561000000000000000e+03 6.629448413848876953e+00 3.293367004394531250e+01 1.214605383574962616e-02 -1.265899538993835449e-01 -3.433316946029663086e-02 5.723836645483970642e-02
1.562000000000000000e+03 6.654278755187988281e+00 2.941641807556152344e+01 4.909394192509353161e-04 -1.003257855772972107e-01 -2.995045296847820282e-02 6.439053267240524292e-02
1.563000000000000000e+03 6.274576187133789062e+00 2.455023002624511719e+01 -1.488407142460346222e-02 -5.922255292534828186e-02 -2.223198860883712769e-02 5.197653919458389282e-02
1.564000000000000000e+03 3.287959575653076172e+00 4.181218338012695312e+01 8.210992440581321716e-03 -1.796450018882751465e-01 -5.143020302057266235e-02 2.131913090124726295e-03
1.565000000000000000e+03 5.331779956817626953e+00 4.062942123413085938e+01 1.519348006695508957e-02 -1.647982895374298096e-01 -4.488144069910049438e-02 1.123629510402679443e-02
1.566000000000000000e+03 4.113647460937500000e+00 3.965183258056640625e+01 8.846308104693889618e-03 -1.701416671276092529e-01 -4.838860780000686646e-02 1.325374934822320938e-02
1.567000000000000000e+03 3.637211084365844727e+00 3.778996276855468750e+01 6.673845928162336349e-03 -1.667564958333969116e-01 -4.802479594945907593e-02 1.890248805284500122e-02
1.568000000000000000e+03 5.337715625762939453e+00 3.661469268798828125e+01 1.525320950895547867e-02 -1.520800441503524780e-01 -4.104804992675781250e-02 3.329088166356086731e-02
1.569000000000000000e+03 5.323574066162109375e+00 3.502796936035156250e+01 1.288897916674613953e-02 -1.431335806846618652e-01 -3.907338157296180725e-02 4.073295369744300842e-02
1.570000000000000000e+03 5.330969810485839844e+00 3.283081054687500000e+01 8.036148734390735626e-03 -1.285605281591415405e-01 -3.615731373429298401e-02 4.870707541704177856e-02
1.571000000000000000e+03 4.283634185791015625e+00 3.154958915710449219e+01 3.621715353801846504e-03 -1.219113171100616455e-01 -3.548688068985939026e-02 4.292974621057510376e-02
1.572000000000000000e+03 3.858021020889282227e+00 2.871100616455078125e+01 -1.801094389520585537e-03 -9.674758464097976685e-02 -2.956460416316986084e-02 4.113109782338142395e-02
1.573000000000000000e+03 4.385844707489013672e+00 2.593970298767089844e+01 -5.841406527906656265e-03 -7.350796461105346680e-02 -2.380481176078319550e-02 4.077436774969100952e-02
1.574000000000000000e+03 2.301478147506713867e+00 3.987933731079101562e+01 2.781618386507034302e-03 -1.835260689258575439e-01 -5.422333627939224243e-02 8.191505447030067444e-03
1.575000000000000000e+03 3.136399745941162109e+00 3.647741699218750000e+01 4.994517657905817032e-03 -1.624315381050109863e-01 -4.723110795021057129e-02 2.149693295359611511e-02
1.576000000000000000e+03 2.001103639602661133e+00 3.528608703613281250e+01 2.579198684543371201e-03 -1.641228646039962769e-01 -4.846309870481491089e-02 1.643797941505908966e-02
1.577000000000000000e+03 2.250993728637695312e+00 3.236703109741210938e+01 1.673856633715331554e-03 -1.361505836248397827e-01 -4.034301638603210449e-02 2.384988963603973389e-02
1.578000000000000000e+03 2.273060798645019531e+00 3.069722557067871094e+01 4.250521888025105000e-04 -1.199153214693069458e-01 -3.584707900881767273e-02 2.497689425945281982e-02
1.579000000000000000e+03 2.149882793426513672e+00 2.909495544433593750e+01 -3.429315693210810423e-04 -1.043438091874122620e-01 -3.140602260828018188e-02 2.423102594912052155e-02
1.580000000000000000e+03 2.840126276016235352e+00 2.828296852111816406e+01 -1.333637628704309464e-03 -9.480667114257812500e-02 -2.884209342300891876e-02 3.065303713083267212e-02
1.581000000000000000e+03 4.205681085586547852e-01 4.206363296508789062e+01 9.045348633662797511e-06 -2.115320712327957153e-01 -6.345690786838531494e-02 -8.130892638291697949e-06
1.582000000000000000e+03 1.452566146850585938e+00 4.199305343627929688e+01 1.109290402382612228e-03 -2.001947909593582153e-01 -5.972564965486526489e-02 1.190046314150094986e-03
1.583000000000000000e+03 1.577560305595397949e+00 4.106673812866210938e+01 3.607912920415401459e-03 -1.956097781658172607e-01 -5.760055780410766602e-02 3.183844732120633125e-03
1.584000000000000000e+03 1.505680561065673828e+00 3.957761383056640625e+01 1.280796132050454617e-03 -1.906851232051849365e-01 -5.682130157947540283e-02 6.625263486057519913e-03
1.585000000000000000e+03 1.743938803672790527e+00 3.779272842407226562e+01 1.394596067257225513e-03 -1.809008270502090454e-01 -5.385186895728111267e-02 1.053323689848184586e-02
1.586000000000000000e+03 4.050038158893585205e-01 3.481331253051757812e+01 -5.310783308232203126e-05 -1.720988750457763672e-01 -5.164559558033943176e-02 3.724774112924933434e-03
1.587000000000000000e+03 1.203290224075317383e+00 3.472118759155273438e+01 1.315105590038001537e-03 -1.644723862409591675e-01 -4.894718527793884277e-02 1.095493882894515991e-02
1.588000000000000000e+03 1.326790452003479004e+00 3.237357330322265625e+01 5.918516544625163078e-04 -1.411552131175994873e-01 -4.216900467872619629e-02 1.470286399126052856e-02
1.589000000000000000e+03 1.343528270721435547e+00 3.075557708740234375e+01 2.116005780408158898e-04 -1.239357739686965942e-01 -3.711725398898124695e-02 1.581344939768314362e-02
1.590000000000000000e+03 1.321534514427185059e+00 2.995388793945312500e+01 -5.460053216665983200e-05 -1.153230816125869751e-01 -3.461330384016036987e-02 1.543404255062341690e-02
1.591000000000000000e+03 4.440514445304870605e-01 2.517159461975097656e+01 -4.816308137378655374e-05 -6.256873160600662231e-02 -1.878506876528263092e-02 4.414560273289680481e-03
1.592000000000000000e+03 1.353664994239807129e+00 2.506868362426757812e+01 -1.266285427846014500e-03 -6.403869390487670898e-02 -1.959149353206157684e-02 1.330970413982868195e-02
1.593000000000000000e+03 1.905678272247314453e+00 2.335413360595703125e+01 -1.911603612825274467e-03 -5.105419456958770752e-02 -1.588973961770534515e-02 1.474352087825536728e-02
1.594000000000000000e+03 4.309088230133056641e+00 2.095161056518554688e+01 -9.726138785481452942e-03 -3.767688944935798645e-02 -1.422090828418731689e-02 2.301846817135810852e-02
1.595000000000000000e+03 6.363332748413085938e+00 1.920414543151855469e+01 -1.822571642696857452e-02 -2.580696530640125275e-02 -1.320980489253997803e-02 2.470588125288486481e-02
1.596000000000000000e+03 7.720299720764160156e+00 1.736721229553222656e+01 -2.130254171788692474e-02 -1.428364962339401245e-02 -1.067585684359073639e-02 1.910836063325405121e-02
1.597000000000000000e+03 9.635356903076171875e+00 1.474982070922851562e+01 -1.479433663189411163e-02 1.787684741429984570e-03 -3.901995485648512840e-03 1.133017614483833313e-02
1.598000000000000000e+03 1.189053726196289062e+01 1.456804180145263672e+01 -2.152285724878311157e-02 1.293028797954320908e-02 -2.577770967036485672e-03 1.406917534768581390e-02
1.599000000000000000e+03 1.272039794921875000e+01 1.109958839416503906e+01 2.399360574781894684e-02 2.608581818640232086e-02 1.502382755279541016e-02 2.427712455391883850e-02
1.600000000000000000e+03 1.320428276062011719e+01 1.049411678314208984e+01 3.347174078226089478e-02 3.200866654515266418e-02 1.964412070810794830e-02 3.163382411003112793e-02
1.601000000000000000e+03 1.436944103240966797e+01 1.155938720703125000e+01 3.259099647402763367e-02 2.848187088966369629e-02 1.832186058163642883e-02 2.968529798090457916e-02
1.602000000000000000e+03 3.868258297443389893e-01 2.356407737731933594e+01 -2.318489714525640011e-04 -4.726677760481834412e-02 -1.424958836287260056e-02 3.259994089603424072e-03
1.603000000000000000e+03 1.153301596641540527e+00 2.346508216857910156e+01 -1.018821494653820992e-03 -4.959229379892349243e-02 -1.518333517014980316e-02 9.265716187655925751e-03
1.604000000000000000e+03 1.880345821380615234e+00 2.189608192443847656e+01 -1.801400678232312202e-03 -4.125035554170608521e-02 -1.291552651673555374e-02 1.179166883230209351e-02
1.605000000000000000e+03 4.589786052703857422e+00 1.977600669860839844e+01 -1.070769410580396652e-02 -3.100725449621677399e-02 -1.251448504626750946e-02 1.943149603903293610e-02
1.606000000000000000e+03 5.636717796325683594e+00 1.769087028503417969e+01 -1.184039190411567688e-02 -2.164706960320472717e-02 -1.004623807966709137e-02 1.506658736616373062e-02
1.607000000000000000e+03 8.265761375427246094e+00 1.582239341735839844e+01 -1.675922051072120667e-02 -7.890252396464347839e-03 -7.394841872155666351e-03 1.240508258342742920e-02
1.608000000000000000e+03 1.378218936920166016e+01 1.103052616119384766e+01 3.299068287014961243e-02 2.951411344110965729e-02 1.875143870711326599e-02 3.145457804203033447e-02
1.609000000000000000e+03 3.743246495723724365e-01 2.197181320190429688e+01 -1.479725760873407125e-04 -3.522957861423492432e-02 -1.061326544731855392e-02 2.379667246714234352e-03
1.610000000000000000e+03 1.152314066886901855e+00 2.114546203613281250e+01 -7.266083266586065292e-04 -3.426485881209373474e-02 -1.049744058400392532e-02 6.289020646363496780e-03
1.611000000000000000e+03 2.145782709121704102e+00 1.963063240051269531e+01 -2.856261329725384712e-03 -3.004215657711029053e-02 -9.869525209069252014e-03 7.979826070368289948e-03
1.612000000000000000e+03 4.038547039031982422e+00 1.787513351440429688e+01 -6.376444362103939056e-03 -2.419633045792579651e-02 -9.171832352876663208e-03 1.048989035189151764e-02
1.613000000000000000e+03 8.500278472900390625e+00 1.359141445159912109e+01 -2.744836267083883286e-03 -4.779017064720392227e-03 -2.257155952975153923e-03 5.762700457125902176e-03
1.614000000000000000e+03 1.022854423522949219e+01 1.293589973449707031e+01 2.385338448220863938e-04 6.218868773430585861e-03 1.937220804393291473e-03 8.271498605608940125e-03
1.615000000000000000e+03 1.099840831756591797e+01 9.604789733886718750e+00 2.089968696236610413e-02 2.820565924048423767e-02 1.473160367459058762e-02 1.891112327575683594e-02
1.616000000000000000e+03 1.153752422332763672e+01 8.887066841125488281e+00 2.936312370002269745e-02 4.231948405504226685e-02 2.150478214025497437e-02 3.279386088252067566e-02
1.617000000000000000e+03 1.156729316711425781e+01 1.006701850891113281e+01 2.314651943743228912e-02 3.025350160896778107e-02 1.602000743150711060e-02 2.286568842828273773e-02
1.618000000000000000e+03 4.272331297397613525e-01 1.955731773376464844e+01 -2.992399968206882477e-04 -2.348342537879943848e-02 -7.134799845516681671e-03 1.367954188026487827e-03
1.619000000000000000e+03 1.309182047843933105e+00 1.951341247558593750e+01 -8.161615114659070969e-04 -2.736619487404823303e-02 -8.454706519842147827e-03 4.720692522823810577e-03
1.620000000000000000e+03 2.742212533950805664e+00 1.747118949890136719e+01 -2.775078173726797104e-03 -2.353337034583091736e-02 -7.892534136772155762e-03 5.496576428413391113e-03
1.621000000000000000e+03 3.844248771667480469e+00 1.494561958312988281e+01 -1.625322736799716949e-03 -1.744446344673633575e-02 -5.720935761928558350e-03 3.955808468163013458e-03
1.622000000000000000e+03 6.227326393127441406e+00 1.333751010894775391e+01 1.882160897366702557e-03 -1.229234039783477783e-02 -3.123053815215826035e-03 5.191602278500795364e-03
1.623000000000000000e+03 8.016131401062011719e+00 1.242185115814208984e+01 5.213603843003511429e-03 -4.085654858499765396e-03 3.383846778888255358e-04 5.456622689962387085e-03
1.624000000000000000e+03 1.065341377258300781e+01 1.128843116760253906e+01 1.274038013070821762e-02 1.649558171629905701e-02 8.770789019763469696e-03 1.175708137452602386e-02
1.625000000000000000e+03 1.207582855224609375e+01 9.411613464355468750e+00 3.177676722407341003e-02 3.688096255064010620e-02 2.059732005000114441e-02 3.252479806542396545e-02
1.626000000000000000e+03 3.973003923892974854e-01 1.794278144836425781e+01 -3.315761568956077099e-04 -1.936828903853893280e-02 -5.909959319978952408e-03 7.564006955362856388e-04
1.627000000000000000e+03 1.192655682563781738e+00 1.784137916564941406e+01 -6.650336435995995998e-04 -2.186682634055614471e-02 -6.759557873010635376e-03 2.172823064029216766e-03
1.628000000000000000e+03 2.523066043853759766e+00 1.606180191040039062e+01 -1.375285326503217220e-03 -2.032157965004444122e-02 -6.509059574455022812e-03 2.694668015465140343e-03
1.629000000000000000e+03 3.935911893844604492e+00 1.367776489257812500e+01 8.971288916654884815e-04 -1.575155928730964661e-02 -4.456329159438610077e-03 3.054103814065456390e-03
1.630000000000000000e+03 5.723619461059570312e+00 1.243216609954833984e+01 5.280937068164348602e-03 -1.314345281571149826e-02 -2.358754631131887436e-03 4.760440904647111893e-03
1.631000000000000000e+03 8.869934082031250000e+00 1.042794036865234375e+01 1.595154218375682831e-02 3.374752821400761604e-03 5.797888617962598801e-03 6.283535156399011612e-03
1.632000000000000000e+03 9.926515579223632812e+00 8.748540878295898438e+00 1.928194984793663025e-02 2.315745316445827484e-02 1.273182034492492676e-02 1.052273996174335480e-02
1.633000000000000000e+03 9.945369720458984375e+00 7.741780281066894531e+00 1.602414809167385101e-02 3.247982636094093323e-02 1.455119252204895020e-02 1.061993278563022614e-02
1.634000000000000000e+03 1.043121719360351562e+01 9.189277648925781250e+00 2.307585254311561584e-02 2.992003597319126129e-02 1.589876599609851837e-02 1.690309308469295502e-02
1.635000000000000000e+03 3.543957173824310303e-01 1.634563636779785156e+01 -1.278527488466352224e-04 -1.744497381150722504e-02 -5.271847825497388840e-03 2.085876767523586750e-04
1.636000000000000000e+03 1.069475173950195312e+00 1.627897453308105469e+01 -2.890690520871430635e-04 -1.898709125816822052e-02 -5.782847758382558823e-03 7.073356537148356438e-04
1.637000000000000000e+03 2.445873498916625977e+00 1.397894001007080078e+01 7.842523336876183748e-05 -1.716797612607479095e-02 -5.126865115016698837e-03 1.441940898075699806e-03
1.638000000000000000e+03 4.864637851715087891e+00 1.260574245452880859e+01 3.594394074752926826e-03 -1.401913352310657501e-02 -3.127421950921416283e-03 4.312961362302303314e-03
1.639000000000000000e+03 5.631251335144042969e+00 1.115147590637207031e+01 7.585686165839433670e-03 -1.317376270890235901e-02 -1.676423125900328159e-03 6.295187864452600479e-03
1.640000000000000000e+03 8.530945777893066406e+00 7.971812725067138672e+00 2.383922040462493896e-02 -2.426983788609504700e-03 6.423670798540115356e-03 6.957833189517259598e-03
1.641000000000000000e+03 9.306621551513671875e+00 6.600451946258544922e+00 1.817782968282699585e-02 1.043724012561142445e-03 5.766465794295072556e-03 -3.755137789994478226e-03
1.642000000000000000e+03 3.414604663848876953e-01 1.475641441345214844e+01 3.558941898518241942e-05 -1.709954626858234406e-02 -5.119187291711568832e-03 -6.950666033844754566e-07
1.643000000000000000e+03 1.030487179756164551e+00 1.473795890808105469e+01 -1.318612794420914724e-05 -1.768541894853115082e-02 -5.309581290930509567e-03 1.626594166737049818e-04
1.644000000000000000e+03 2.477900505065917969e+00 1.254096794128417969e+01 1.345265656709671021e-03 -1.591467112302780151e-02 -4.370821639895439148e-03 2.305205212906002998e-03
1.645000000000000000e+03 4.410638332366943359e+00 1.103509044647216797e+01 5.406084470450878143e-03 -1.587079837918281555e-02 -3.139414126053452492e-03 6.651926785707473755e-03
1.646000000000000000e+03 6.302086353302001953e+00 8.060367584228515625e+00 5.172658246010541916e-03 -1.597069948911666870e-02 -3.239412559196352959e-03 1.817927137017250061e-02
1.647000000000000000e+03 7.645016670227050781e+00 6.657267093658447266e+00 -9.012912400066852570e-03 -1.039488986134529114e-02 -5.822340492159128189e-03 3.082173690199851990e-02
1.648000000000000000e+03 8.449478149414062500e+00 6.592607021331787109e+00 8.441001176834106445e-03 -3.881051018834114075e-02 -9.110853075981140137e-03 3.393117338418960571e-02
1.649000000000000000e+03 3.509505391120910645e-01 1.316696739196777344e+01 1.800080499378964305e-04 -1.698318682610988617e-02 -5.040953867137432098e-03 1.047699115588329732e-04
1.650000000000000000e+03 1.052564263343811035e+00 1.319318103790283203e+01 2.226794313173741102e-04 -1.670813746750354767e-02 -4.945637658238410950e-03 4.209066973999142647e-04
1.651000000000000000e+03 1.904382467269897461e+00 1.085551643371582031e+01 1.233125338330864906e-03 -1.382658444344997406e-02 -3.778037847951054573e-03 3.442946122959256172e-03
1.652000000000000000e+03 4.457952022552490234e+00 7.508786201477050781e+00 -2.587149618193507195e-03 -4.720712080597877502e-03 -2.192358486354351044e-03 1.288268901407718658e-02
1.653000000000000000e+03 6.062068939208984375e+00 7.201490402221679688e+00 -2.681984798982739449e-03 -5.544352810829877853e-03 -2.467901445925235748e-03 2.140735648572444916e-02
1.654000000000000000e+03 5.803265571594238281e+00 6.437116146087646484e+00 -1.392576657235622406e-02 -6.969776470214128494e-03 -6.268662866204977036e-03 1.628409512341022491e-02
1.655000000000000000e+03 3.713046312332153320e-01 1.156618881225585938e+01 2.322435029782354832e-04 -1.571194455027580261e-02 -4.643910564482212067e-03 4.681158752646297216e-04
1.656000000000000000e+03 1.116491317749023438e+00 1.160718441009521484e+01 4.328002396505326033e-04 -1.501598488539457321e-02 -4.374955315142869949e-03 1.556544913910329342e-03
1.657000000000000000e+03 1.924152374267578125e+00 9.221408843994140625e+00 5.484882276505231857e-04 -1.046205312013626099e-02 -2.974069444462656975e-03 5.338079296052455902e-03
1.658000000000000000e+03 4.051478862762451172e+00 5.143003940582275391e+00 -9.114729240536689758e-03 -1.945225289091467857e-03 -3.317986149340867996e-03 3.443494671955704689e-03
1.659000000000000000e+03 3.820348083972930908e-01 9.959637641906738281e+00 1.002463468466885388e-04 -1.251309551298618317e-02 -3.723854897543787956e-03 9.319998789578676224e-04
1.660000000000000000e+03 1.146925330162048340e+00 9.997431755065917969e+00 3.945328644476830959e-04 -1.218431070446968079e-02 -3.536933567374944687e-03 2.905135974287986755e-03
1.661000000000000000e+03 2.839012861251831055e+00 7.617418289184570312e+00 -4.035201272927224636e-04 -5.913464818149805069e-03 -1.895095570944249630e-03 8.035282604396343231e-03
1.662000000000000000e+03 4.663207054138183594e+00 5.304450511932373047e+00 -8.937731385231018066e-03 1.818191376514732838e-03 -2.135861897841095924e-03 9.006651118397712708e-03
1.663000000000000000e+03 5.213595867156982422e+00 4.166444301605224609e+00 -4.705288447439670563e-03 2.203634903708007187e-05 -1.404975540935993195e-03 3.529995956341736019e-05
1.664000000000000000e+03 5.688764572143554688e+00 4.764952659606933594e+00 -1.798848621547222137e-02 3.448532428592443466e-03 -4.361986182630062103e-03 -2.463028940837830305e-04
1.665000000000000000e+03 3.691231906414031982e-01 7.560581207275390625e+00 4.482356598600745201e-05 -5.258756689727306366e-03 -1.564180012792348862e-03 1.163078355602920055e-03
1.666000000000000000e+03 1.125276207923889160e+00 7.615111827850341797e+00 1.446503688384837005e-06 -5.785585846751928329e-03 -1.735241850838065147e-03 3.496403805911540985e-03
1.667000000000000000e+03 2.591021537780761719e+00 5.116542816162109375e+00 -1.514805248007178307e-03 -1.401801942847669125e-03 -8.749821572564542294e-04 2.957791090011596680e-03
1.668000000000000000e+03 4.706612586975097656e+00 3.633924245834350586e+00 -6.014781538397073746e-03 -1.562033896334469318e-03 -2.273044548928737640e-03 -7.170187309384346008e-04
1.669000000000000000e+03 3.584240078926086426e-01 5.975353717803955078e+00 -2.032899355981498957e-04 -7.825622451491653919e-04 -2.957556571345776320e-04 7.559160585515201092e-04
1.670000000000000000e+03 1.071456670761108398e+00 6.084099769592285156e+00 -1.745944900903850794e-04 -2.316792728379368782e-03 -7.474161684513092041e-04 2.454006345942616463e-03
1.671000000000000000e+03 1.595277786254882812e+00 3.920904874801635742e+00 -1.983136869966983795e-03 -5.412651808001101017e-04 -7.573206094093620777e-04 6.744547863490879536e-04
1.672000000000000000e+03 4.235886096954345703e+00 2.545093297958374023e+00 -2.711229259148240089e-03 -2.152689732611179352e-03 -1.459175720810890198e-03 6.526274373754858971e-04
1.673000000000000000e+03 4.083591938018798828e+00 3.331018209457397461e+00 -5.397202403401024640e-05 1.438273757230490446e-04 2.695660805329680443e-05 -4.059441853314638138e-04
1.674000000000000000e+03 4.348564147949218750e-01 4.349750041961669922e+00 2.734319787123240530e-05 1.062839175574481487e-03 3.270547022111713886e-04 3.001306031364947557e-04
1.675000000000000000e+03 1.253388404846191406e+00 4.554873943328857422e+00 -6.921613385202363133e-05 -1.350442325929179788e-04 -6.127810775069519877e-05 7.583975093439221382e-04
1.676000000000000000e+03 2.840846538543701172e+00 2.472483634948730469e+00 -9.725117124617099762e-04 -1.738357474096119404e-03 -8.132607326842844486e-04 -7.197459344752132893e-04
1.677000000000000000e+03 2.868638992309570312e+00 1.828842520713806152e+00 6.992886483203619719e-05 7.035975431790575385e-05 4.208658356219530106e-05 6.331795011647045612e-04
1.678000000000000000e+03 3.418428301811218262e-01 2.679252386093139648e+00 4.399271274451166391e-04 9.721868555061519146e-04 4.236341919749975204e-04 -1.340324233751744032e-04
1.679000000000000000e+03 1.614910125732421875e+00 2.481337070465087891e+00 -1.637104433029890060e-04 -2.268957905471324921e-04 -1.171818730654194951e-04 -9.694657637737691402e-04
1.680000000000000000e+03 1.901835250854492188e+01 1.465684032440185547e+01 -4.175700619816780090e-02 1.415227452525869012e-04 -1.248464547097682953e-02 -7.554405834525823593e-03
1.681000000000000000e+03 2.318513298034667969e+01 1.226087856292724609e+01 6.324881315231323242e-02 6.180156767368316650e-02 3.751511499285697937e-02 6.320239603519439697e-02
1.682000000000000000e+03 2.192854309082031250e+01 1.123600292205810547e+01 4.103532060980796814e-02 3.602109476923942566e-02 2.311692386865615845e-02 4.004776850342750549e-02
1.683000000000000000e+03 1.873865318298339844e+01 8.817324638366699219e+00 2.083323150873184204e-02 1.364890672266483307e-02 1.034464128315448761e-02 1.474339701235294342e-02
1.684000000000000000e+03 1.650101470947265625e+01 6.426770687103271484e+00 -5.075652617961168289e-03 -4.368141293525695801e-03 -2.833138220012187958e-03 -3.707053372636437416e-03
1.685000000000000000e+03 1.678093719482421875e+01 7.405857563018798828e+00 2.705313451588153839e-02 1.207477506250143051e-02 1.173837296664714813e-02 2.126633375883102417e-02
1.686000000000000000e+03 1.568242073059082031e+01 6.098969459533691406e+00 -3.534111659973859787e-03 3.612923901528120041e-04 -9.518457809463143349e-04 -6.697644712403416634e-04
1.687000000000000000e+03 2.191226768493652344e+01 5.942262172698974609e+00 -4.593938961625099182e-02 6.489410530775785446e-03 -1.183499395847320557e-02 -2.415644004940986633e-02
1.688000000000000000e+03 2.485894012451171875e+01 7.138126373291015625e+00 -6.072340905666351318e-02 -5.016831308603286743e-02 -3.326751664280891418e-02 -5.303896591067314148e-02
1.689000000000000000e+03 2.355982971191406250e+01 7.243678569793701172e+00 -5.586183443665504456e-02 -1.132614817470312119e-02 -2.015639469027519226e-02 -3.121930174529552460e-02
1.690000000000000000e+03 2.391279220581054688e+01 8.967411041259765625e+00 -4.496115073561668396e-02 1.227406598627567291e-02 -9.806124493479728699e-03 -1.847411505877971649e-02
1.691000000000000000e+03 2.242906761169433594e+01 1.070506095886230469e+01 1.576734520494937897e-02 4.065640270709991455e-02 1.692712493240833282e-02 2.808400243520736694e-02
1.692000000000000000e+03 2.392852020263671875e+01 5.742551803588867188e+00 -2.923296391963958740e-02 -3.569522500038146973e-02 -1.947845704853534698e-02 -2.990743145346641541e-02
1.693000000000000000e+03 2.428086471557617188e+01 7.611097812652587891e+00 -5.620399489998817444e-02 -1.636228896677494049e-02 -2.176988497376441956e-02 -3.806649148464202881e-02
1.694000000000000000e+03 2.607210350036621094e+01 8.319945335388183594e+00 -7.361081987619400024e-02 -6.239770725369453430e-02 -4.080255702137947083e-02 -6.789562106132507324e-02
1.695000000000000000e+03 3.034876060485839844e+01 1.226075172424316406e+01 -1.302110552787780762e-01 -4.872557520866394043e-02 -5.368098989129066467e-02 -6.915511935949325562e-02
1.696000000000000000e+03 3.236157608032226562e+01 1.363265419006347656e+01 -5.220119357109069824e-01 -7.351179420948028564e-02 -1.786571294069290161e-01 -1.778381615877151489e-01
1.697000000000000000e+03 4.582415008544921875e+01 1.353380107879638672e+01 -6.045255064964294434e-01 -2.777088284492492676e-01 -2.646702826023101807e-01 -3.703837692737579346e-01
1.698000000000000000e+03 4.704955673217773438e+01 1.651751899719238281e+01 -2.015098333358764648e+00 -3.003268837928771973e-01 -6.946275830268859863e-01 4.897067844867706299e-01
1.699000000000000000e+03 4.809783172607421875e+01 1.535853004455566406e+01 -3.701082706451416016e+00 -5.005194544792175293e-01 -1.260480642318725586e+00 -2.154152691364288330e-01
1.700000000000000000e+03 6.500833129882812500e+01 1.401695251464843750e+01 3.604614138603210449e-01 1.239531898498535156e+01 3.826734066009521484e+00 -5.221902847290039062e+00
1.701000000000000000e+03 6.518278503417968750e+01 1.299556446075439453e+01 6.950907230377197266e+00 1.762364387512207031e+01 7.372365474700927734e+00 -7.855158329010009766e+00
1.702000000000000000e+03 6.572727966308593750e+01 1.193646621704101562e+01 3.833026647567749023e+00 2.824160385131835938e+01 9.622388839721679688e+00 -3.341263294219970703e+00
1.703000000000000000e+03 6.573788452148437500e+01 1.113872432708740234e+01 2.748355269432067871e-01 2.797410583496093750e+01 8.474681854248046875e+00 4.461542367935180664e-01
1.704000000000000000e+03 6.542202758789062500e+01 9.427104949951171875e+00 4.026661396026611328e+00 2.287006378173828125e+01 8.069017410278320312e+00 6.512293815612792969e+00
1.705000000000000000e+03 6.660720825195312500e+01 8.176490783691406250e+00 6.649723052978515625e-01 1.568538188934326172e+01 4.905106067657470703e+00 2.384142130613327026e-01
1.706000000000000000e+03 6.879373931884765625e+01 5.173468112945556641e+00 1.406515598297119141e+00 1.522658538818359375e+01 4.989930629730224609e+00 -1.695557832717895508e+00
1.707000000000000000e+03 6.951951599121093750e+01 5.163118839263916016e+00 7.808585166931152344e-01 1.770239257812500000e+01 5.544975280761718750e+00 8.087911009788513184e-01
1.708000000000000000e+03 6.206430435180664062e+01 4.689892768859863281e+00 2.585239648818969727e+00 4.617611885070800781e+00 2.160855531692504883e+00 3.279402494430541992e+00
1.709000000000000000e+03 6.135914230346679688e+01 2.996897459030151367e+00 6.719679832458496094e-01 3.910635948181152344e+00 1.374781250953674316e+00 2.371495008468627930e+00
1.710000000000000000e+03 6.301777267456054688e+01 3.502198219299316406e+00 1.290637850761413574e+00 5.532647132873535156e+00 2.046985387802124023e+00 2.949102163314819336e+00
1.711000000000000000e+03 6.196670913696289062e+01 3.552772521972656250e+00 1.431523799896240234e+00 4.494156837463378906e+00 1.777704238891601562e+00 2.727261781692504883e+00
1.712000000000000000e+03 6.091193008422851562e+01 3.541788578033447266e+00 1.912718892097473145e+00 2.752342462539672852e+00 1.399518370628356934e+00 2.304004430770874023e+00
1.713000000000000000e+03 3.972819900512695312e+01 -1.014627552032470703e+01 7.214576750993728638e-02 6.394919008016586304e-02 4.082848876714706421e-02 -8.288331329822540283e-02
1.714000000000000000e+03 3.120810699462890625e+01 1.503931164741516113e+00 -5.123197436332702637e-01 -6.880792379379272461e-01 -3.601197004318237305e-01 -5.590311884880065918e-01
1.715000000000000000e+03 3.451360702514648438e+01 2.329458951950073242e+00 -5.450032949447631836e-01 1.589281111955642700e-01 -1.158225610852241516e-01 -1.565223187208175659e-01
1.716000000000000000e+03 3.405471420288085938e+01 1.772027254104614258e+00 -7.460736632347106934e-01 2.533039152622222900e-01 -1.478309333324432373e-01 -3.334826827049255371e-01
1.717000000000000000e+03 3.379037094116210938e+01 3.234063386917114258e+00 -2.056892216205596924e-01 -2.813490852713584900e-02 -7.014723867177963257e-02 -2.622928619384765625e-01
1.718000000000000000e+03 3.368625259399414062e+01 3.938301324844360352e+00 -7.920817285776138306e-02 -1.015145331621170044e-01 -5.421680957078933716e-02 -2.133106738328933716e-01
1.719000000000000000e+03 3.434495162963867188e+01 5.190917968750000000e+00 8.010958880186080933e-02 -9.445966780185699463e-02 -4.305023234337568283e-03 -9.947977215051651001e-02
1.720000000000000000e+03 3.190281486511230469e+01 5.458684921264648438e+00 3.130037188529968262e-01 -1.175831258296966553e-02 9.037362784147262573e-02 8.931745588779449463e-02
1.721000000000000000e+03 3.214918136596679688e+01 3.286736726760864258e+00 7.932277023792266846e-02 -2.985243201255798340e-01 -6.576046347618103027e-02 -2.742805182933807373e-01
1.722000000000000000e+03 3.299846649169921875e+01 3.942920923233032227e+00 2.553765289485454559e-02 -1.610573828220367432e-01 -4.065591841936111450e-02 -2.329273968935012817e-01
1.723000000000000000e+03 3.198594093322753906e+01 1.738863348960876465e+00 -6.462879776954650879e-01 -4.346949756145477295e-01 -3.242948949337005615e-01 -6.087561845779418945e-01
1.724000000000000000e+03 2.851841735839843750e+01 2.687625646591186523e+00 3.712988495826721191e-01 2.051227241754531860e-01 1.729264706373214722e-01 3.168502748012542725e-01
1.725000000000000000e+03 2.681074905395507812e+01 2.182942390441894531e+00 3.184066712856292725e-01 3.258731961250305176e-01 1.932839602231979370e-01 3.673470318317413330e-01
1.726000000000000000e+03 2.664790344238281250e+01 1.610667705535888672e+00 3.555119782686233521e-02 2.796913683414459229e-01 9.457276761531829834e-02 2.616042792797088623e-01
1.727000000000000000e+03 2.633048248291015625e+01 2.645598053932189941e-01 -3.491134345531463623e-01 2.336370795965194702e-01 -3.464290499687194824e-02 4.787536710500717163e-02
1.728000000000000000e+03 2.710676765441894531e+01 -1.066610574722290039e+00 -5.094599127769470215e-01 6.056480854749679565e-02 -1.346685290336608887e-01 -3.269515335559844971e-01
1.729000000000000000e+03 2.588164329528808594e+01 1.105954647064208984e+00 -6.748556345701217651e-02 2.268415987491607666e-01 4.780681058764457703e-02 1.865947693586349487e-01
1.730000000000000000e+03 2.536558532714843750e+01 1.870356202125549316e+00 2.701809406280517578e-01 1.166766807436943054e-01 1.160572841763496399e-01 2.003110647201538086e-01
1.731000000000000000e+03 2.311504364013671875e+01 -1.868338108062744141e+00 -2.548342756927013397e-02 1.384199261665344238e-01 3.388094902038574219e-02 -2.609408646821975708e-02
1.732000000000000000e+03 3.569153213500976562e+01 -3.726113736629486084e-01 -1.065518736839294434e+00 7.655075192451477051e-01 -9.000335633754730225e-02 3.993401303887367249e-02
1.733000000000000000e+03 3.533411026000976562e+01 -2.140252828598022461e+00 -2.281998395919799805e-01 8.889770507812500000e-01 1.982331573963165283e-01 -4.484224617481231689e-01
1.734000000000000000e+03 3.758525466918945312e+01 -3.794944047927856445e+00 3.075855672359466553e-01 2.457194924354553223e-01 1.659915149211883545e-01 -5.128558874130249023e-01
1.735000000000000000e+03 3.892250823974609375e+01 -4.740212917327880859e+00 5.080815553665161133e-01 -1.676754504442214966e-01 1.021218225359916687e-01 -3.817387223243713379e-01
1.736000000000000000e+03 4.066952896118164062e+01 -6.269102573394775391e+00 5.470410585403442383e-01 -1.933348476886749268e-01 1.061118543148040771e-01 -1.502758413553237915e-01
1.737000000000000000e+03 4.322984695434570312e+01 -8.314786911010742188e+00 2.793013453483581543e-01 2.235270142555236816e-01 1.508485078811645508e-01 -1.694390326738357544e-01
1.738000000000000000e+03 4.439599609375000000e+01 -9.400496482849121094e+00 2.390116900205612183e-01 3.994239270687103271e-01 1.915306895971298218e-01 -2.804102301597595215e-01
1.739000000000000000e+03 4.548236846923828125e+01 -1.048294162750244141e+01 2.612718939781188965e-01 5.507292151451110840e-01 2.436003237962722778e-01 -3.455674052238464355e-01
1.740000000000000000e+03 3.756534957885742188e+01 -2.585748136043548584e-01 -1.785185098648071289e+00 2.305505126714706421e-01 -4.663903713226318359e-01 3.323967456817626953e-01
1.741000000000000000e+03 3.866436767578125000e+01 -1.388366341590881348e+00 -1.335033059120178223e+00 -5.094761252403259277e-01 -5.533527135848999023e-01 -2.624488174915313721e-01
1.742000000000000000e+03 3.892060470581054688e+01 -3.166047334671020508e+00 -1.078684404492378235e-01 -3.927114605903625488e-01 -1.501739770174026489e-01 -2.804236710071563721e-01
1.743000000000000000e+03 4.023682022094726562e+01 -4.839977264404296875e+00 4.186223745346069336e-01 -3.872904181480407715e-01 9.399585425853729248e-03 -1.722265034914016724e-01
1.744000000000000000e+03 4.298227310180664062e+01 -6.803797721862792969e+00 3.261908292770385742e-01 1.838087439537048340e-01 1.529998779296875000e-01 -1.853066496551036835e-02
1.745000000000000000e+03 4.526419067382812500e+01 -7.722746372222900391e+00 8.397648483514785767e-02 5.974478125572204590e-01 2.044273018836975098e-01 -1.998343765735626221e-01
1.746000000000000000e+03 4.055704879760742188e+01 -5.280605554580688477e-01 -3.027038812637329102e+00 -9.166210293769836426e-01 -1.183097958564758301e+00 -4.390474259853363037e-01
1.747000000000000000e+03 4.128768920898437500e+01 -6.181871294975280762e-01 -1.993726491928100586e+00 -4.097746014595031738e-01 -7.210503220558166504e-01 -1.699803918600082397e-01
1.748000000000000000e+03 4.242255401611328125e+01 -2.281711578369140625e+00 -7.527174949645996094e-01 -1.962733268737792969e-01 -2.846972644329071045e-01 8.823759853839874268e-02
1.749000000000000000e+03 4.416510391235351562e+01 -3.622712850570678711e+00 1.058839857578277588e-01 3.878596723079681396e-01 1.481231003999710083e-01 1.006905883550643921e-01
1.750000000000000000e+03 3.902634811401367188e+01 -2.244389533996582031e+00 -6.925933957099914551e-01 -5.945595502853393555e-01 -3.861458599567413330e-01 -2.978736758232116699e-01
1.751000000000000000e+03 4.153439712524414062e+01 -2.413910865783691406e+00 -6.421004533767700195e-01 -5.149132013320922852e-01 -3.471041023731231689e-01 1.370309740304946899e-01
1.752000000000000000e+03 4.248155212402343750e+01 -4.463232994079589844e+00 2.411466836929321289e-01 -1.110854670405387878e-01 3.901836648583412170e-02 1.055659130215644836e-01
1.753000000000000000e+03 4.436521148681640625e+01 -5.841700553894042969e+00 1.265240013599395752e-01 6.695830225944519043e-01 2.388321012258529663e-01 7.109703123569488525e-02
1.754000000000000000e+03 4.403107833862304688e+01 -1.570452809333801270e+00 -8.319842219352722168e-01 3.293997645378112793e-01 -1.507753282785415649e-01 7.080255076289176941e-03
1.755000000000000000e+03 4.250741195678710938e+01 -8.170918822288513184e-01 -1.433736920356750488e+00 -1.400752216577529907e-01 -4.721436202526092529e-01 -1.663514226675033569e-01
1.756000000000000000e+03 4.351377868652343750e+01 1.976112961769104004e+00 -9.879109859466552734e-01 -5.421034097671508789e-01 -4.590043127536773682e-01 -6.544975042343139648e-01
1.757000000000000000e+03 4.413751983642578125e+01 7.603397369384765625e-01 -1.197624683380126953e+00 7.496044854633510113e-04 -3.590625226497650146e-01 -3.712834119796752930e-01
1.758000000000000000e+03 4.599129104614257812e+01 -2.304425477981567383e+00 -4.170179665088653564e-01 4.419933557510375977e-01 7.492621429264545441e-03 3.391158878803253174e-01
1.759000000000000000e+03 4.603971099853515625e+01 -3.178050756454467773e+00 1.319154649972915649e-01 2.983189225196838379e-01 1.290703117847442627e-01 3.189273476600646973e-01
1.760000000000000000e+03 4.757166290283203125e+01 -2.532350778579711914e+00 -2.991313636302947998e-01 4.876523837447166443e-02 -7.510983198881149292e-02 4.673887789249420166e-02
1.761000000000000000e+03 4.589272308349609375e+01 -4.343757033348083496e-01 -8.939620256423950195e-01 3.592844903469085693e-01 -1.604032516479492188e-01 3.930072113871574402e-02
1.762000000000000000e+03 4.682382583618164062e+01 -2.453769683837890625e+00 -1.977114230394363403e-01 1.508553773164749146e-01 -1.405681297183036804e-02 2.364377528429031372e-01
1.763000000000000000e+03 4.892175674438476562e+01 -2.349820137023925781e+00 -3.722443282604217529e-01 7.900618761777877808e-02 -8.797144889831542969e-02 -3.878609091043472290e-02
1.764000000000000000e+03 4.705355834960937500e+01 -9.962857961654663086e-01 -6.702213883399963379e-01 3.144170343875885010e-01 -1.067413166165351868e-01 1.011078134179115295e-01
1.765000000000000000e+03 4.733789062500000000e+01 2.004074335098266602e+00 -7.570920586585998535e-01 2.386462986469268799e-01 -1.555337309837341309e-01 -9.188553690910339355e-02
1.766000000000000000e+03 4.733150100708007812e+01 -3.493725955486297607e-01 -7.398360371589660645e-01 3.128078877925872803e-01 -1.281084418296813965e-01 5.555716902017593384e-02
1.767000000000000000e+03 4.805284500122070312e+01 -1.131435394287109375e+00 -5.568522214889526367e-01 2.281813472509384155e-01 -9.860126674175262451e-02 7.555136829614639282e-02
1.768000000000000000e+03 5.176410293579101562e+01 -3.886250734329223633e+00 9.554295986890792847e-02 -3.255900442600250244e-01 -6.901412457227706909e-02 -1.183881312608718872e-01
1.769000000000000000e+03 5.120032501220703125e+01 -3.423537731170654297e+00 -6.775082647800445557e-02 -1.972038894891738892e-01 -7.948641479015350342e-02 -1.386969685554504395e-01
1.770000000000000000e+03 5.117073059082031250e+01 -2.123832941055297852e+00 -3.657086789608001709e-01 -5.237316340208053589e-02 -1.254245489835739136e-01 -2.376636415719985962e-01
1.771000000000000000e+03 5.236754989624023438e+01 -4.245519042015075684e-01 -9.142479300498962402e-01 7.206800580024719238e-02 -2.526539862155914307e-01 -3.395850956439971924e-01
1.772000000000000000e+03 5.335830307006835938e+01 1.077770352363586426e+00 -1.629297971725463867e+00 1.569950729608535767e-01 -4.416908621788024902e-01 1.037888824939727783e-01
1.773000000000000000e+03 5.343859100341796875e+01 2.061171770095825195e+00 -1.131442427635192871e+00 -7.423679530620574951e-02 -3.617037832736968994e-01 5.376963019371032715e-01
1.774000000000000000e+03 5.415879058837890625e+01 3.163973569869995117e+00 -1.084432229399681091e-01 -1.473901420831680298e-01 -7.675001025199890137e-02 1.481326669454574585e-01
1.775000000000000000e+03 4.959701538085937500e+01 -2.054551601409912109e+00 -4.216274619102478027e-01 1.000366806983947754e-01 -9.647723287343978882e-02 -8.076310157775878906e-02
1.776000000000000000e+03 4.908613586425781250e+01 -6.551504731178283691e-01 -6.415097713470458984e-01 2.246403396129608154e-01 -1.250608414411544800e-01 -2.246336080133914948e-02
1.777000000000000000e+03 4.989598083496093750e+01 1.751968502998352051e+00 -7.561613917350769043e-01 2.228491157293319702e-01 -1.599936783313751221e-01 3.461739793419837952e-02
1.778000000000000000e+03 5.037006378173828125e+01 3.532597780227661133e+00 -5.237641334533691406e-01 9.823035448789596558e-02 -1.276601403951644897e-01 1.109313815832138062e-01
1.779000000000000000e+03 4.937115097045898438e+01 1.280282378196716309e+00 -7.501401305198669434e-01 2.606732845306396484e-01 -1.468400508165359497e-01 9.048301726579666138e-03
1.780000000000000000e+03 5.282089233398437500e+01 -6.213786125183105469e+00 1.342244446277618408e-01 -7.195646762847900391e-01 -1.756020635366439819e-01 1.641712188720703125e-01
1.781000000000000000e+03 5.121148681640625000e+01 -5.461709022521972656e+00 -2.423902787268161774e-02 -2.573311030864715576e-01 -8.447103947401046753e-02 1.136419624090194702e-01
1.782000000000000000e+03 5.527529525756835938e+01 7.053888440132141113e-01 -3.057371854782104492e+00 -6.468684077262878418e-01 -1.111272096633911133e+00 1.889410614967346191e-01
1.783000000000000000e+03 5.435018157958984375e+01 -2.532723188400268555e+00 2.847191132605075836e-02 -2.657030224800109863e-01 -7.116933166980743408e-02 -5.341044664382934570e-01
1.784000000000000000e+03 5.566985321044921875e+01 -3.996092557907104492e+00 6.998356580734252930e-01 3.180655837059020996e-01 3.053703606128692627e-01 -1.510156244039535522e-01
1.785000000000000000e+03 5.453969573974609375e+01 -4.415745735168457031e+00 6.096857786178588867e-01 -1.425538957118988037e-01 1.401395797729492188e-01 -2.488944381475448608e-01
1.786000000000000000e+03 5.383335876464843750e+01 -6.477582931518554688e+00 2.779269814491271973e-01 -4.296590387821197510e-01 -4.551961272954940796e-02 8.078156411647796631e-02
1.787000000000000000e+03 5.614842605590820312e+01 -7.993784427642822266e+00 1.724875569343566895e-01 1.506535887718200684e+00 5.037070512771606445e-01 5.168446898460388184e-01
1.788000000000000000e+03 5.614554977416992188e+01 -7.169444084167480469e+00 4.387304186820983887e-01 1.359239459037780762e+00 5.393909811973571777e-01 3.869282007217407227e-01
1.789000000000000000e+03 5.634492874145507812e+01 -4.853381156921386719e+00 8.644804954528808594e-01 9.616628885269165039e-01 5.478430390357971191e-01 1.294510513544082642e-01
1.790000000000000000e+03 5.659526443481445312e+01 -3.590934991836547852e+00 7.269293069839477539e-01 8.309056758880615234e-01 4.673504829406738281e-01 1.976608484983444214e-02
1.791000000000000000e+03 5.651713180541992188e+01 -2.133526086807250977e+00 1.140645369887351990e-01 3.532632589340209961e-01 1.401983350515365601e-01 -1.381846815347671509e-01
1.792000000000000000e+03 5.571748352050781250e+01 -1.657338500022888184e+00 -2.318371981382369995e-01 -2.247641235589981079e-01 -1.369803994894027710e-01 -4.260146021842956543e-01
1.793000000000000000e+03 5.409274291992187500e+01 7.513436675071716309e-01 -1.876574873924255371e+00 4.785735905170440674e-02 -5.486152768135070801e-01 -1.657470166683197021e-01
1.794000000000000000e+03 5.964669799804687500e+01 3.697061538696289062e-02 -1.649606347084045410e+00 3.363402128219604492e+00 5.141387581825256348e-01 1.306947469711303711e+00
1.795000000000000000e+03 6.007226943969726562e+01 1.999106407165527344e+00 -8.085883259773254395e-01 2.592000961303710938e+00 5.350238084793090820e-01 1.318773031234741211e+00
1.796000000000000000e+03 5.720726394653320312e+01 -2.017310142517089844e+00 -2.315941452980041504e-02 9.228321313858032227e-01 2.699018120765686035e-01 1.630181670188903809e-01
1.797000000000000000e+03 6.149909210205078125e+01 6.010450720787048340e-01 -1.836538553237915039e+00 5.608393192291259766e+00 1.131556391716003418e+00 2.532723426818847656e+00
1.798000000000000000e+03 6.233012390136718750e+01 1.903415322303771973e+00 -6.036231517791748047e-01 5.403923511505126953e+00 1.440090179443359375e+00 3.061150074005126953e+00
1.799000000000000000e+03 5.864402008056640625e+01 -1.567878365516662598e+00 -5.062726736068725586e-01 2.302574396133422852e+00 5.388905405998229980e-01 7.475457787513732910e-01
1.800000000000000000e+03 6.156677627563476562e+01 -1.122932553291320801e+00 -2.023523330688476562e+00 7.125847816467285156e+00 1.530697345733642578e+00 1.973418593406677246e+00
1.801000000000000000e+03 6.358768844604492188e+01 -3.126112222671508789e+00 2.151122331619262695e+00 1.242360115051269531e+01 4.372416973114013672e+00 3.746555566787719727e+00
1.802000000000000000e+03 6.114387512207031250e+01 -1.753564834594726562e+00 -1.325873255729675293e+00 6.704529285430908203e+00 1.613596796989440918e+00 1.131280541419982910e+00
1.803000000000000000e+03 6.472658538818359375e+01 -9.314919710159301758e-01 -2.328417539596557617e+00 3.773782491683959961e+00 4.336095154285430908e-01 4.490769386291503906e+00
1.804000000000000000e+03 6.712846374511718750e+01 -2.590043246746063232e-01 -1.914862394332885742e+00 4.603541374206542969e+00 8.066036701202392578e-01 2.945477962493896484e-01
1.805000000000000000e+03 6.769816589355468750e+01 2.159881114959716797e+00 1.976901412010192871e+00 9.095841407775878906e+00 3.321822881698608398e+00 1.579780131578445435e-01
1.806000000000000000e+03 6.950354003906250000e+01 3.715556621551513672e+00 3.915900707244873047e+00 2.197966575622558594e+01 7.768670082092285156e+00 -5.264032363891601562e+00
1.807000000000000000e+03 6.734905242919921875e+01 3.744074106216430664e+00 2.967200756072998047e+00 1.029647159576416016e+01 3.979101896286010742e+00 -4.478130340576171875e-01
1.808000000000000000e+03 6.692724609375000000e+01 4.290667057037353516e+00 2.471770048141479492e+00 1.028196811676025391e+01 3.826121568679809570e+00 -2.396280467510223389e-01
1.809000000000000000e+03 6.755260467529296875e+01 4.779606819152832031e+00 2.487321853637695312e+00 1.188170242309570312e+01 4.310707092285156250e+00 -1.376438498497009277e+00
1.810000000000000000e+03 6.831898498535156250e+01 2.436351478099822998e-01 -1.744959235191345215e+00 7.251935958862304688e+00 1.652092933654785156e+00 -1.191681146621704102e+00
1.811000000000000000e+03 6.891360473632812500e+01 2.365784883499145508e+00 2.475284099578857422e+00 1.137644290924072266e+01 4.155518054962158203e+00 -1.777650356292724609e+00
1.812000000000000000e+03 6.953652954101562500e+01 -5.288656949996948242e-01 -2.994885444641113281e+00 7.634521007537841797e+00 1.391890645027160645e+00 -3.073607206344604492e+00
1.813000000000000000e+03 7.155139923095703125e+01 2.529226839542388916e-01 -2.662340164184570312e+00 5.195813655853271484e+00 7.600420117378234863e-01 -5.191523551940917969e+00
1.814000000000000000e+03 7.214392089843750000e+01 -1.244388461112976074e+00 -1.601644754409790039e+00 4.247967720031738281e+00 7.938969135284423828e-01 -3.726712465286254883e+00
1.815000000000000000e+03 7.420265960693359375e+01 -2.395221233367919922e+00 -5.147017240524291992e-01 4.878888130187988281e+00 1.309255838394165039e+00 -4.698784947395324707e-01
1.816000000000000000e+03 7.587550354003906250e+01 -4.091760635375976562e+00 -1.396615803241729736e-01 7.533856868743896484e+00 2.218258619308471680e+00 9.418141245841979980e-01
1.817000000000000000e+03 7.758921051025390625e+01 -6.184726238250732422e+00 1.606533080339431763e-01 8.703773498535156250e+00 2.659327983856201172e+00 1.177251696586608887e+00
1.818000000000000000e+03 7.895626831054687500e+01 -6.099021434783935547e+00 6.134004890918731689e-02 9.145069122314453125e+00 2.761922597885131836e+00 7.193475961685180664e-01
1.819000000000000000e+03 7.373131561279296875e+01 1.127862930297851562e+00 -7.055675029754638672e+00 -1.464697003364562988e+00 -2.556111574172973633e+00 -2.588937282562255859e+00
1.820000000000000000e+03 7.095075988769531250e+01 -5.644433498382568359e-01 -2.822823047637939453e+00 6.028291702270507812e+00 9.616405367851257324e-01 -4.692482471466064453e+00
1.821000000000000000e+03 7.205816650390625000e+01 -3.073182106018066406e+00 -1.580468654632568359e+00 5.501259803771972656e+00 1.176237344741821289e+00 -2.231102943420410156e+00
1.822000000000000000e+03 7.345725250244140625e+01 -4.879401206970214844e+00 -4.578075110912322998e-01 6.859295845031738281e+00 1.920446515083312988e+00 -4.391589760780334473e-01
1.823000000000000000e+03 7.618833160400390625e+01 -5.601239204406738281e+00 5.928910896182060242e-02 8.188151359558105469e+00 2.474232196807861328e+00 1.139796018600463867e+00
1.824000000000000000e+03 7.810472106933593750e+01 -8.505154609680175781e+00 2.877981066703796387e-01 8.262738227844238281e+00 2.565160989761352539e+00 7.527806162834167480e-01
1.825000000000000000e+03 7.961944580078125000e+01 -8.446591377258300781e+00 4.161164909601211548e-02 7.741222381591796875e+00 2.334850311279296875e+00 1.953845918178558350e-01
1.826000000000000000e+03 7.361836242675781250e+01 -2.852750778198242188e+00 -6.490946412086486816e-01 5.069555759429931641e+00 1.326138377189636230e+00 -1.091260433197021484e+00
1.827000000000000000e+03 7.430847930908203125e+01 -1.242101788520812988e+00 -8.100040555000305176e-01 3.581773281097412109e+00 8.315307497978210449e-01 -3.338395655155181885e-01
1.828000000000000000e+03 7.576353454589843750e+01 -3.445894122123718262e-01 -1.820858120918273926e+00 5.962136745452880859e+00 1.242383599281311035e+00 7.996712923049926758e-01
1.829000000000000000e+03 7.730830383300781250e+01 3.425928115844726562e+00 -5.102066993713378906e-01 9.805393218994140625e+00 2.788555860519409180e+00 -2.752381086349487305e+00
1.830000000000000000e+03 7.880017852783203125e+01 2.867251873016357422e+00 -2.710610926151275635e-01 1.014617252349853516e+01 2.962533473968505859e+00 -1.864072799682617188e+00
1.831000000000000000e+03 7.797370147705078125e+01 4.103933572769165039e-01 -1.066935300827026367e+00 1.016928195953369141e+01 2.730703830718994141e+00 -2.169750034809112549e-01
1.832000000000000000e+03 7.805996704101562500e+01 -1.356528282165527344e+00 -4.413372874259948730e-01 1.002540874481201172e+01 2.875221252441406250e+00 7.204105257987976074e-01
1.833000000000000000e+03 7.892119598388671875e+01 -2.937114715576171875e+00 -1.938146911561489105e-02 1.083431911468505859e+01 3.244481325149536133e+00 7.430171370506286621e-01
1.834000000000000000e+03 7.883033752441406250e+01 -1.282834410667419434e+00 -1.574003696441650391e-01 1.136208057403564453e+01 3.361403942108154297e+00 4.869204461574554443e-01
1.835000000000000000e+03 7.800744628906250000e+01 -4.740119874477386475e-01 -6.816133260726928711e-01 1.007899570465087891e+01 2.819214582443237305e+00 3.137561976909637451e-01
1.836000000000000000e+03 7.609764862060546875e+01 -8.558336496353149414e-01 -1.366560101509094238e+00 6.823163509368896484e+00 1.636981010437011719e+00 7.768812775611877441e-01
1.837000000000000000e+03 7.738672637939453125e+01 -2.459646463394165039e+00 -3.573158979415893555e-01 8.847872734069824219e+00 2.547167062759399414e+00 1.088611841201782227e+00
1.838000000000000000e+03 7.897106170654296875e+01 -4.528174400329589844e+00 4.666026309132575989e-02 1.003067874908447266e+01 3.023201704025268555e+00 7.587900161743164062e-01
1.839000000000000000e+03 2.491206359863281250e+01 1.405167728662490845e-01 -1.424950212240219116e-01 1.510151177644729614e-01 2.556027611717581749e-03 9.575255960226058960e-02
1.840000000000000000e+03 2.750211715698242188e+01 2.065692096948623657e-01 -6.289052367210388184e-01 2.067853957414627075e-01 -1.266359388828277588e-01 -6.417086720466613770e-02
1.841000000000000000e+03 4.217947769165039062e+01 9.118598699569702148e-01 -1.616097927093505859e+00 -6.156294345855712891e-01 -6.695182323455810547e-01 -9.281479716300964355e-01
1.842000000000000000e+03 4.261973190307617188e+01 2.265762686729431152e-01 -1.503164768218994141e+00 -2.888003885746002197e-01 -5.375895500183105469e-01 -6.523398160934448242e-01
1.843000000000000000e+03 5.023433685302734375e+01 2.095214836299419403e-02 -7.735881805419921875e-01 2.295203357934951782e-01 -1.632203459739685059e-01 -6.738305836915969849e-02
1.844000000000000000e+03 5.164534759521484375e+01 2.610785007476806641e+00 -6.957410573959350586e-01 1.161096096038818359e-01 -1.738894283771514893e-01 1.794976145029067993e-01
1.845000000000000000e+03 5.094501113891601562e+01 2.350894212722778320e+00 -7.327066659927368164e-01 1.545212566852569580e-01 -1.734556257724761963e-01 1.392694562673568726e-01
1.846000000000000000e+03 5.136418151855468750e+01 3.296464443206787109e+00 -5.703144669532775879e-01 5.777781084179878235e-02 -1.537609994411468506e-01 2.130952924489974976e-01
1.847000000000000000e+03 5.245553970336914062e+01 2.917282581329345703e+00 -6.219063997268676758e-01 -2.518278546631336212e-02 -1.941267549991607666e-01 3.373832404613494873e-01
1.848000000000000000e+03 5.166455078125000000e+01 5.327629566192626953e+00 -1.469831764698028564e-01 -5.088171735405921936e-02 -5.935946851968765259e-02 4.952380061149597168e-02
1.849000000000000000e+03 4.899394226074218750e+01 6.215517044067382812e+00 -1.036842167377471924e-01 1.332297734916210175e-02 -2.710837312042713165e-02 -5.819711368530988693e-03
1.850000000000000000e+03 4.904832839965820312e+01 4.394865989685058594e+00 -3.485196530818939209e-01 7.351842522621154785e-02 -8.250036835670471191e-02 -6.490023341029882431e-03
1.851000000000000000e+03 4.988914489746093750e+01 5.676414489746093750e+00 -1.635809987783432007e-01 -2.290575357619673014e-04 -4.914301633834838867e-02 8.874167688190937042e-03
1.852000000000000000e+03 5.019892501831054688e+01 5.059523582458496094e+00 -2.249175906181335449e-01 6.528893020004034042e-03 -6.551660597324371338e-02 4.080503061413764954e-02
1.853000000000000000e+03 5.378017807006835938e+01 -1.028158068656921387e+00 -7.947578430175781250e-01 -1.631997078657150269e-01 -2.873872518539428711e-01 -6.009801626205444336e-01
1.854000000000000000e+03 5.333286666870117188e+01 -1.525597929954528809e+00 -5.602208375930786133e-01 -1.567960828542709351e-01 -2.151050716638565063e-01 -5.398442149162292480e-01
1.855000000000000000e+03 5.292229461669921875e+01 -2.959150791168212891e+00 3.624533861875534058e-02 -3.150428235530853271e-01 -8.363924920558929443e-02 -3.910744190216064453e-01
1.856000000000000000e+03 5.234851074218750000e+01 -3.386566877365112305e+00 6.458933651447296143e-02 -3.348241746425628662e-01 -8.107044547796249390e-02 -2.522937655448913574e-01
1.857000000000000000e+03 5.233212661743164062e+01 -4.489778995513916016e+00 2.584933936595916748e-01 -4.818743169307708740e-01 -6.701427698135375977e-02 -1.063447818160057068e-01
1.858000000000000000e+03 7.078079223632812500e+01 1.649879962205886841e-01 -2.428965806961059570e+00 7.249076843261718750e+00 1.446033358573913574e+00 -4.362049579620361328e+00
1.859000000000000000e+03 7.406619262695312500e+01 -5.578381195664405823e-02 -1.909107923507690430e+00 1.352546930313110352e+00 -1.669683009386062622e-01 -6.117039322853088379e-01
1.860000000000000000e+03 7.545685577392578125e+01 -9.277705550193786621e-01 -1.191127777099609375e+00 5.327923297882080078e+00 1.241038560867309570e+00 6.519870758056640625e-01
1.861000000000000000e+03 3.422785949707031250e+01 -2.165731430053710938e+00 2.408067286014556885e-01 7.223640680313110352e-01 2.889512479305267334e-01 -5.626156330108642578e-01
1.862000000000000000e+03 3.780654907226562500e+01 -1.917542934417724609e+00 -7.879188656806945801e-01 2.595678903162479401e-02 -2.285886257886886597e-01 -3.409342467784881592e-01
1.863000000000000000e+03 4.911804199218750000e+01 -3.210639238357543945e+00 -2.337248921394348145e-01 4.952286556363105774e-02 -5.526060983538627625e-02 -4.531881213188171387e-02
1.864000000000000000e+03 5.698977279663085938e+01 -4.287489414215087891e+00 9.253823161125183105e-01 1.365431666374206543e+00 6.872441768646240234e-01 2.167157530784606934e-01
1.865000000000000000e+03 5.436228942871093750e+01 -3.480666160583496094e+00 3.479815721511840820e-01 -2.561895549297332764e-01 2.753761038184165955e-02 -3.895347118377685547e-01
1.866000000000000000e+03 5.898597717285156250e+01 -2.923283576965332031e+00 3.601793348789215088e-01 3.345499992370605469e+00 1.111703753471374512e+00 5.845168232917785645e-01
1.867000000000000000e+03 5.849062347412109375e+01 -3.320579051971435547e+00 7.476695179939270020e-01 2.608420372009277344e+00 1.006826996803283691e+00 4.092973172664642334e-01
1.868000000000000000e+03 5.831382369995117188e+01 -5.561172008514404297e+00 1.163961410522460938e+00 3.051080226898193359e+00 1.264512419700622559e+00 7.406775355339050293e-01
1.869000000000000000e+03 5.868336105346679688e+01 -7.414064407348632812e+00 7.830116748809814453e-01 3.924895286560058594e+00 1.412372112274169922e+00 1.115216016769409180e+00
1.870000000000000000e+03 5.816568374633789062e+01 -8.367629051208496094e+00 3.528620302677154541e-01 3.545938014984130859e+00 1.169640064239501953e+00 1.115522027015686035e+00
1.871000000000000000e+03 6.006896209716796875e+01 -8.868772506713867188e+00 3.015137016773223877e-01 5.490319728851318359e+00 1.737550020217895508e+00 1.383757829666137695e+00
1.872000000000000000e+03 5.926999282836914062e+01 -1.007210731506347656e+01 -1.667788773775100708e-01 4.840248584747314453e+00 1.402040958404541016e+00 1.479074239730834961e+00
1.873000000000000000e+03 6.240752792358398438e+01 -4.105310440063476562e+00 2.494712829589843750e+00 9.964575767517089844e+00 3.737786531448364258e+00 1.940699338912963867e+00
1.874000000000000000e+03 7.044256591796875000e+01 -2.986953973770141602e+00 -2.656468152999877930e+00 5.528716564178466797e+00 8.616745471954345703e-01 -2.615766525268554688e+00
1.875000000000000000e+03 6.984449768066406250e+01 -3.424147605895996094e+00 -2.945758342742919922e+00 5.023770809173583984e+00 6.234036684036254883e-01 -1.828646183013916016e+00
1.876000000000000000e+03 7.172908782958984375e+01 -5.516080379486083984e+00 -6.072314977645874023e-01 6.574779510498046875e+00 1.790264368057250977e+00 -1.490224123001098633e+00
1.877000000000000000e+03 7.364459991455078125e+01 -6.265542984008789062e+00 3.325373306870460510e-02 7.996708869934082031e+00 2.408988714218139648e+00 -2.063173614442348480e-02
1.878000000000000000e+03 7.556988525390625000e+01 -8.646188735961914062e+00 9.143257737159729004e-01 8.841092109680175781e+00 2.926625490188598633e+00 7.515315413475036621e-01
1.879000000000000000e+03 7.798896026611328125e+01 -1.014909172058105469e+01 3.427121043205261230e-01 8.056324005126953125e+00 2.519710779190063477e+00 3.620554208755493164e-01
1.880000000000000000e+03 7.882050323486328125e+01 -1.173047924041748047e+01 1.207795664668083191e-01 7.519598007202148438e+00 2.292113304138183594e+00 -6.351724267005920410e-02
1.881000000000000000e+03 7.266808319091796875e+01 -1.887129306793212891e+00 -1.258711457252502441e+00 4.279855728149414062e+00 9.063432216644287109e-01 -2.731278419494628906e+00
1.882000000000000000e+03 7.519496917724609375e+01 -2.700184583663940430e+00 -3.765136599540710449e-01 6.145474433898925781e+00 1.730688333511352539e+00 4.647901654243469238e-01
1.883000000000000000e+03 7.610919189453125000e+01 -3.081402301788330078e+00 -2.835210561752319336e-01 7.309199810028076172e+00 2.107703685760498047e+00 9.292966723442077637e-01
1.884000000000000000e+03 7.759181976318359375e+01 -4.677080154418945312e+00 5.868052691221237183e-02 8.938289642333984375e+00 2.699090957641601562e+00 1.227122068405151367e+00
1.885000000000000000e+03 7.811676788330078125e+01 -2.225268125534057617e+00 -1.982788145542144775e-01 9.909046173095703125e+00 2.913230180740356445e+00 9.267091155052185059e-01
1.886000000000000000e+03 3.697252655029296875e+01 -4.195621967315673828e+00 5.801628828048706055e-01 6.446424126625061035e-01 3.674415946006774902e-01 -6.427215933799743652e-01
1.887000000000000000e+03 4.149615097045898438e+01 -4.654934883117675781e+00 3.139611780643463135e-01 -3.135590255260467529e-01 1.206405795528553426e-04 9.714465588331222534e-03
1.888000000000000000e+03 4.224674224853515625e+01 -3.691869735717773438e+00 -1.837067306041717529e-03 -2.382578700780868530e-01 -7.202848047018051147e-02 1.141079217195510864e-01
1.889000000000000000e+03 5.634435272216796875e+01 -5.572687625885009766e+00 8.350393176078796387e-01 1.118843436241149902e+00 5.861648321151733398e-01 2.020161002874374390e-01
1.890000000000000000e+03 5.475213623046875000e+01 -5.762594223022460938e+00 5.821680426597595215e-01 5.717701092362403870e-02 1.918035298585891724e-01 -3.323828428983688354e-02
1.891000000000000000e+03 5.866111755371093750e+01 -4.751273632049560547e+00 1.189780712127685547e+00 3.229913473129272461e+00 1.325908303260803223e+00 6.860668659210205078e-01
1.892000000000000000e+03 6.068952560424804688e+01 -6.082390785217285156e+00 1.394006848335266113e+00 6.613799571990966797e+00 2.402341842651367188e+00 1.246456027030944824e+00
1.893000000000000000e+03 6.059813308715820312e+01 -5.297425270080566406e+00 1.597681164741516113e+00 6.194705963134765625e+00 2.337716102600097656e+00 1.210453391075134277e+00
1.894000000000000000e+03 6.192164611816406250e+01 -5.129540920257568359e+00 1.977241635322570801e+00 8.974645614624023438e+00 3.285566329956054688e+00 1.608352303504943848e+00
1.895000000000000000e+03 6.814049530029296875e+01 -3.660932064056396484e+00 -3.011313915252685547e+00 2.173238039016723633e+00 -2.514227628707885742e-01 2.027844339609146118e-01
1.896000000000000000e+03 6.924377441406250000e+01 -3.824875831604003906e+00 -2.509928464889526367e+00 3.988762378692626953e+00 4.436501562595367432e-01 -1.194619536399841309e+00
1.897000000000000000e+03 7.016284942626953125e+01 -5.927591323852539062e+00 4.175840914249420166e-01 4.186046600341796875e+00 1.381089210510253906e+00 -1.943197965621948242e+00
1.898000000000000000e+03 7.222849273681640625e+01 -6.993140697479248047e+00 4.145109057426452637e-01 8.122476577758789062e+00 2.561096191406250000e+00 -1.247389674186706543e+00
1.899000000000000000e+03 7.376622009277343750e+01 -7.257314205169677734e+00 5.360801815986633301e-01 8.717483520507812500e+00 2.776069164276123047e+00 1.304247528314590454e-01
1.900000000000000000e+03 7.487014007568359375e+01 -1.048060321807861328e+01 1.262289881706237793e+00 9.695240974426269531e+00 3.287259340286254883e+00 -1.154395192861557007e-02
1.901000000000000000e+03 7.804862976074218750e+01 -1.181336975097656250e+01 3.346849679946899414e-01 7.985646724700927734e+00 2.496099472045898438e+00 -1.060983538627624512e-01
1.902000000000000000e+03 7.884638214111328125e+01 -1.334477233886718750e+01 7.683842629194259644e-02 7.700352191925048828e+00 2.333157300949096680e+00 -3.383074700832366943e-01
1.903000000000000000e+03 7.125023651123046875e+01 -4.165195941925048828e+00 -1.554534077644348145e+00 5.699509143829345703e+00 1.243492484092712402e+00 -1.995667815208435059e+00
1.904000000000000000e+03 7.345237731933593750e+01 -3.881279468536376953e+00 -6.314326524734497070e-01 6.035450458526611328e+00 1.621205329895019531e+00 -8.327648043632507324e-01
1.905000000000000000e+03 7.553263092041015625e+01 -3.392420768737792969e+00 -2.665985822677612305e-01 6.895076751708984375e+00 1.988543510437011719e+00 7.071198821067810059e-01
1.906000000000000000e+03 7.693300628662109375e+01 -3.383087396621704102e+00 -1.955359429121017456e-01 8.292101860046386719e+00 2.428969860076904297e+00 1.172297120094299316e+00
1.907000000000000000e+03 3.726117706298828125e+01 -5.997458457946777344e+00 4.936743974685668945e-01 8.359034657478332520e-01 3.988733589649200439e-01 -6.976344585418701172e-01
1.908000000000000000e+03 3.839408874511718750e+01 -5.122517585754394531e+00 5.530304312705993652e-01 9.162595868110656738e-02 1.933969110250473022e-01 -5.116680860519409180e-01
1.909000000000000000e+03 3.887657546997070312e+01 -6.816788196563720703e+00 5.386307835578918457e-01 1.853916347026824951e-01 2.172067314386367798e-01 -3.998283743858337402e-01
1.910000000000000000e+03 4.112814712524414062e+01 -8.551859855651855469e+00 3.579815626144409180e-01 2.106242626905441284e-02 1.137131974101066589e-01 -2.177897840738296509e-01
1.911000000000000000e+03 4.257560729980468750e+01 -1.018393898010253906e+01 2.228614836931228638e-01 9.850997477769851685e-02 9.641143679618835449e-02 -2.134162783622741699e-01
1.912000000000000000e+03 4.483935546875000000e+01 -1.185675430297851562e+01 1.224551722407341003e-01 3.483631014823913574e-01 1.412454843521118164e-01 -2.418132722377777100e-01
1.913000000000000000e+03 4.606222152709960938e+01 -1.281664562225341797e+01 2.378481626510620117e-02 5.051708817481994629e-01 1.586867123842239380e-01 -2.433838993310928345e-01
1.914000000000000000e+03 4.725569915771484375e+01 -1.463783454895019531e+01 -2.757745981216430664e-01 5.136905908584594727e-01 7.137479633092880249e-02 -1.288942396640777588e-01
1.915000000000000000e+03 4.838799667358398438e+01 -1.718999481201171875e+01 -6.500698328018188477e-01 5.509393215179443359e-01 -2.973915450274944305e-02 -2.103880792856216431e-02
1.916000000000000000e+03 4.908992385864257812e+01 -1.601103973388671875e+01 -4.504026174545288086e-01 3.919375240802764893e-01 -1.753952540457248688e-02 2.266641706228256226e-02
1.917000000000000000e+03 4.959410858154296875e+01 -1.646711540222167969e+01 -5.607135295867919922e-01 3.378233015537261963e-01 -6.686707586050033569e-02 7.530239224433898926e-02
1.918000000000000000e+03 5.161289596557617188e+01 -1.671463012695312500e+01 -5.670530796051025391e-01 -2.639828920364379883e-01 -2.493107914924621582e-01 3.703037500381469727e-01
1.919000000000000000e+03 5.055376434326171875e+01 -1.658913803100585938e+01 -5.701726675033569336e-01 1.104669943451881409e-01 -1.379117071628570557e-01 1.910057961940765381e-01
1.920000000000000000e+03 4.262208175659179688e+01 -5.890413284301757812e+00 3.938217163085937500e-01 4.216528683900833130e-02 1.307961046695709229e-01 8.838740736246109009e-02
1.921000000000000000e+03 3.861930847167968750e+01 -8.003808021545410156e+00 3.027276694774627686e-01 3.921507000923156738e-01 2.084635198116302490e-01 -3.346387743949890137e-01
1.922000000000000000e+03 4.020077896118164062e+01 -7.203142642974853516e+00 5.136325955390930176e-01 -4.082044214010238647e-02 1.418436467647552490e-01 -2.673671543598175049e-01
1.923000000000000000e+03 4.487171936035156250e+01 -6.329169750213623047e+00 6.220875680446624756e-02 7.084971070289611816e-01 2.312117666006088257e-01 -7.680031657218933105e-02
1.924000000000000000e+03 4.347903823852539062e+01 -9.701853752136230469e+00 2.567707300186157227e-01 2.245919853448867798e-01 1.444088220596313477e-01 -2.420021891593933105e-01
1.925000000000000000e+03 4.463051986694335938e+01 -8.613529205322265625e+00 1.897314786911010742e-01 4.757322371006011963e-01 1.996391117572784424e-01 -2.528948187828063965e-01
1.926000000000000000e+03 4.632628250122070312e+01 -1.178774166107177734e+01 2.036121636629104614e-01 6.117277145385742188e-01 2.446019798517227173e-01 -3.408855795860290527e-01
1.927000000000000000e+03 4.591929244995117188e+01 -1.112771701812744141e+01 2.615159153938293457e-01 6.002117395401000977e-01 2.585183084011077881e-01 -3.410664200782775879e-01
1.928000000000000000e+03 4.495684432983398438e+01 -1.097594547271728516e+01 2.266387045383453369e-01 4.062967598438262939e-01 1.898806393146514893e-01 -2.751661837100982666e-01
1.929000000000000000e+03 4.267427444458007812e+01 -1.076625728607177734e+01 1.870695799589157104e-01 8.266144245862960815e-02 8.091930299997329712e-02 -1.984750032424926758e-01
1.930000000000000000e+03 4.122700119018554688e+01 -1.152560234069824219e+01 6.657797098159790039e-02 -5.916210636496543884e-02 2.224759664386510849e-03 -9.032614529132843018e-02
1.931000000000000000e+03 4.161276245117187500e+01 -1.378605365753173828e+01 -5.890795961022377014e-02 -3.395205140113830566e-01 -1.195285394787788391e-01 -1.570912301540374756e-01
1.932000000000000000e+03 4.321448516845703125e+01 -1.383410453796386719e+01 -2.395547181367874146e-01 9.220035374164581299e-02 -4.420631006360054016e-02 -2.437508404254913330e-01
1.933000000000000000e+03 4.218752670288085938e+01 -1.507651996612548828e+01 -5.217497944831848145e-01 -1.107984483242034912e-01 -1.897644698619842529e-01 -3.161434233188629150e-01
1.934000000000000000e+03 4.206549835205078125e+01 -1.627652549743652344e+01 -1.160962462425231934e+00 -6.069154944270849228e-03 -3.501094877719879150e-01 -2.656514942646026611e-01
1.935000000000000000e+03 4.571385574340820312e+01 -1.372808742523193359e+01 -1.930807232856750488e-01 4.522366225719451904e-01 7.774676382541656494e-02 -1.928938776254653931e-01
1.936000000000000000e+03 4.773794174194335938e+01 -1.391597270965576172e+01 -7.169498503208160400e-02 5.018005371093750000e-01 1.290316581726074219e-01 -1.877076476812362671e-01
1.937000000000000000e+03 4.835055541992187500e+01 -1.331958961486816406e+01 1.821323186159133911e-01 4.533737599849700928e-01 1.906518191099166870e-01 -3.063547611236572266e-01
1.938000000000000000e+03 4.954274368286132812e+01 -1.549673271179199219e+01 -3.109159767627716064e-01 2.568026185035705566e-01 -1.623400487005710602e-02 1.470943819731473923e-02
1.939000000000000000e+03 4.793086242675781250e+01 -1.511116027832031250e+01 -3.263472318649291992e-01 5.000591278076171875e-01 5.211356282234191895e-02 -8.202405273914337158e-02
1.940000000000000000e+03 4.403522014617919922e+00 -1.696348571777343750e+01 -1.587928831577301025e-02 -6.641612201929092407e-02 -2.468862198293209076e-02 -5.996617674827575684e-02
1.941000000000000000e+03 6.600574493408203125e+00 -1.520490074157714844e+01 -3.599755465984344482e-02 -5.353489890694618225e-02 -2.685973607003688812e-02 -7.001156359910964966e-02
1.942000000000000000e+03 7.447312355041503906e+00 -1.533923816680908203e+01 -4.600993171334266663e-02 -5.555664747953414917e-02 -3.046997450292110443e-02 -8.134906738996505737e-02
1.943000000000000000e+03 7.693548202514648438e+00 -1.807208442687988281e+01 -3.800088167190551758e-02 -8.738584071397781372e-02 -3.761601820588111877e-02 -1.091036871075630188e-01
1.944000000000000000e+03 7.039789199829101562e+00 -1.698686981201171875e+01 -3.745110332965850830e-02 -7.336950302124023438e-02 -3.324618190526962280e-02 -9.263554960489273071e-02
1.945000000000000000e+03 1.285238456726074219e+01 -1.529288101196289062e+01 -1.134283915162086487e-01 -5.729290470480918884e-02 -5.121638998389244080e-02 -1.441499888896942139e-01
1.946000000000000000e+03 1.814705276489257812e+01 -1.504376888275146484e+01 -2.033101916313171387e-01 -1.088530868291854858e-01 -9.364898502826690674e-02 -2.464951723814010620e-01
1.947000000000000000e+03 1.931071662902832031e+01 -1.516711425781250000e+01 -2.147961109876632690e-01 -1.470432281494140625e-01 -1.085518002510070801e-01 -2.608042359352111816e-01
1.948000000000000000e+03 2.673598670959472656e+01 -1.484751987457275391e+01 -1.213980987668037415e-01 -3.402120471000671387e-01 -1.384830474853515625e-01 2.071791328489780426e-02
1.949000000000000000e+03 2.924481391906738281e+01 -1.587212944030761719e+01 -2.127689421176910400e-01 1.384625094942748547e-03 -6.341529637575149536e-02 7.415090501308441162e-02
1.950000000000000000e+03 3.041016387939453125e+01 -1.597855472564697266e+01 -2.533821463584899902e-01 1.138284131884574890e-01 -4.186612367630004883e-02 6.427635997533798218e-02
1.951000000000000000e+03 3.404168701171875000e+01 -1.561141014099121094e+01 -3.342591226100921631e-01 3.330478966236114502e-01 -3.633673477452248335e-04 -2.822594717144966125e-02
1.952000000000000000e+03 3.465505599975585938e+01 -1.611368370056152344e+01 -4.416566193103790283e-01 3.304892182350158691e-01 -3.335022181272506714e-02 -6.459014117717742920e-02
1.953000000000000000e+03 3.522669982910156250e+01 -1.536791419982910156e+01 -3.126317560672760010e-01 3.067961037158966064e-01 -1.750693772919476032e-03 -3.377112746238708496e-02
1.954000000000000000e+03 4.627655029296875000e+01 -1.509993839263916016e+01 -4.221772849559783936e-01 5.105214118957519531e-01 2.650324068963527679e-02 -1.137879565358161926e-01
1.955000000000000000e+03 3.449769592285156250e+01 -1.374511528015136719e+01 -1.114312112331390381e-01 3.552334308624267578e-01 7.314066588878631592e-02 -1.142609715461730957e-01
1.956000000000000000e+03 3.419179153442382812e+01 -1.135987567901611328e+01 2.932137548923492432e-01 5.144641995429992676e-01 2.423033863306045532e-01 -3.754330277442932129e-01
1.957000000000000000e+03 3.233664321899414062e+01 -1.398598194122314453e+01 -2.503004670143127441e-01 3.773265779018402100e-01 3.810782730579376221e-02 2.612094394862651825e-02
1.958000000000000000e+03 2.718526077270507812e+01 -1.406086730957031250e+01 -1.464049816131591797e-01 -3.514341413974761963e-01 -1.493517458438873291e-01 7.462518662214279175e-02
1.959000000000000000e+03 2.463210487365722656e+01 -1.325093078613281250e+01 -1.734157055616378784e-01 -6.084730029106140137e-01 -2.345666140317916870e-01 -2.263684570789337158e-01
1.960000000000000000e+03 2.284068107604980469e+01 -1.308512210845947266e+01 -2.977500259876251221e-01 -4.012372493743896484e-01 -2.096961885690689087e-01 -3.592645525932312012e-01
1.961000000000000000e+03 2.106918334960937500e+01 -1.308543109893798828e+01 -3.418361842632293701e-01 -1.960886120796203613e-01 -1.613774448633193970e-01 -3.045453131198883057e-01
1.962000000000000000e+03 1.935499382019042969e+01 -1.332918357849121094e+01 -2.765658497810363770e-01 -1.032240465283393860e-01 -1.139369681477546692e-01 -2.510581016540527344e-01
1.963000000000000000e+03 1.811950683593750000e+01 -1.333923816680908203e+01 -2.712905108928680420e-01 -5.212600156664848328e-02 -9.702495485544204712e-02 -2.047105282545089722e-01
1.964000000000000000e+03 1.580482387542724609e+01 -1.394857788085937500e+01 -1.937161982059478760e-01 -4.285259917378425598e-02 -7.097063958644866943e-02 -1.632110178470611572e-01
1.965000000000000000e+03 1.514347934722900391e+01 -1.445732879638671875e+01 -1.646400094032287598e-01 -4.961318522691726685e-02 -6.427595764398574829e-02 -1.652846187353134155e-01
1.966000000000000000e+03 1.221093177795410156e+01 -1.322749519348144531e+01 -1.127395033836364746e-01 -3.115508332848548889e-02 -4.316837713122367859e-02 -9.921424835920333862e-02
1.967000000000000000e+03 9.497593879699707031e+00 -1.479531288146972656e+01 -6.770970672369003296e-02 -5.091443657875061035e-02 -3.558724373579025269e-02 -9.473872929811477661e-02
1.968000000000000000e+03 5.951011180877685547e+00 -1.376945590972900391e+01 -3.020129911601543427e-02 -3.811899200081825256e-02 -2.049608714878559113e-02 -5.085943639278411865e-02
1.969000000000000000e+03 4.492658615112304688e+00 -1.623602867126464844e+01 -1.679594255983829498e-02 -5.748788639903068542e-02 -2.228514850139617920e-02 -5.523857846856117249e-02
1.970000000000000000e+03 3.249409484863281250e+01 -1.171895408630371094e+01 -4.699352756142616272e-02 5.885765552520751953e-01 1.624749004840850830e-01 -1.131717115640640259e-01
1.971000000000000000e+03 3.251097106933593750e+01 -1.285204601287841797e+01 -1.632396578788757324e-01 4.720547795295715332e-01 9.264453500509262085e-02 -3.379477187991142273e-02
1.972000000000000000e+03 2.972751235961914062e+01 -1.140495872497558594e+01 -2.296623736619949341e-01 1.344366669654846191e-01 -2.856771089136600494e-02 1.085688397288322449e-01
1.973000000000000000e+03 2.682360267639160156e+01 -1.290669918060302734e+01 -1.740973144769668579e-01 -5.158655643463134766e-01 -2.069888710975646973e-01 6.487507373094558716e-02
1.974000000000000000e+03 2.328874969482421875e+01 -1.228666877746582031e+01 -3.504002988338470459e-01 -4.955752789974212646e-01 -2.537926733493804932e-01 -3.819586634635925293e-01
1.975000000000000000e+03 2.122684288024902344e+01 -1.104303646087646484e+01 -4.837142229080200195e-01 -8.417358249425888062e-02 -1.703663468360900879e-01 -2.709683477878570557e-01
1.976000000000000000e+03 2.036638832092285156e+01 -1.272320938110351562e+01 -3.389526605606079102e-01 -1.273857355117797852e-01 -1.399015188217163086e-01 -2.862329185009002686e-01
1.977000000000000000e+03 1.793090438842773438e+01 -1.261190891265869141e+01 -2.712584137916564941e-01 -3.325715661048889160e-02 -9.135466814041137695e-02 -1.780175268650054932e-01
1.978000000000000000e+03 1.612212181091308594e+01 -1.274380111694335938e+01 -2.168785929679870605e-01 -2.080752514302730560e-02 -7.130583375692367554e-02 -1.367288231849670410e-01
1.979000000000000000e+03 1.458782958984375000e+01 -1.222745132446289062e+01 -1.620167940855026245e-01 -1.705581322312355042e-02 -5.372178182005882263e-02 -1.050384268164634705e-01
1.980000000000000000e+03 1.358755302429199219e+01 -1.223459625244140625e+01 -1.397059410810470581e-01 -1.816154085099697113e-02 -4.736024513840675354e-02 -9.306278824806213379e-02
1.981000000000000000e+03 9.213234901428222656e+00 -1.172312641143798828e+01 -6.279503554105758667e-02 -2.591345086693763733e-02 -2.661254443228244781e-02 -5.273348093032836914e-02
1.982000000000000000e+03 5.879274845123291016e+00 -1.192363643646240234e+01 -2.989528141915798187e-02 -2.446060441434383392e-02 -1.630676537752151489e-02 -3.368733078241348267e-02
1.983000000000000000e+03 4.532213211059570312e+00 -1.310939025878906250e+01 -2.004978992044925690e-02 -2.735984325408935547e-02 -1.422289013862609863e-02 -3.289983049035072327e-02
1.984000000000000000e+03 3.515300750732421875e+01 -1.407953929901123047e+01 -1.158674135804176331e-01 3.124528229236602783e-01 5.897562205791473389e-02 -7.448963820934295654e-02
1.985000000000000000e+03 3.097303390502929688e+01 -9.456436157226562500e+00 3.837769851088523865e-02 6.093841195106506348e-01 1.943285465240478516e-01 -2.058185786008834839e-01
1.986000000000000000e+03 3.047616386413574219e+01 -1.049276351928710938e+01 -1.437981426715850830e-01 3.745014667510986328e-01 6.921099126338958740e-02 -1.597071066498756409e-02
1.987000000000000000e+03 2.304546928405761719e+01 -1.105254268646240234e+01 -6.029486060142517090e-01 -4.027358591556549072e-01 -3.017053306102752686e-01 -4.219997525215148926e-01
1.988000000000000000e+03 1.947590065002441406e+01 -9.715709686279296875e+00 -3.430573940277099609e-01 3.222158178687095642e-02 -9.325074404478073120e-02 -4.932806268334388733e-02
1.989000000000000000e+03 1.622066879272460938e+01 -1.060251045227050781e+01 -1.986593753099441528e-01 5.665120203047990799e-03 -5.789827555418014526e-02 -7.194291055202484131e-02
1.990000000000000000e+03 1.309809589385986328e+01 -1.060162544250488281e+01 -1.169217079877853394e-01 -9.011245332658290863e-03 -3.777988627552986145e-02 -5.220728740096092224e-02
1.991000000000000000e+03 1.112537670135498047e+01 -1.022790336608886719e+01 -7.880900800228118896e-02 -1.355454139411449432e-02 -2.770906500518321991e-02 -3.877602517604827881e-02
1.992000000000000000e+03 9.141460418701171875e+00 -1.112038326263427734e+01 -6.240506097674369812e-02 -2.085922844707965851e-02 -2.497928589582443237e-02 -4.161326959729194641e-02
1.993000000000000000e+03 4.580035209655761719e+00 -1.167876148223876953e+01 -1.738474704325199127e-02 -1.881374418735504150e-02 -1.085954718291759491e-02 -2.272234484553337097e-02
1.994000000000000000e+03 2.774155235290527344e+01 -7.910870075225830078e+00 -3.544784784317016602e-01 -4.422854185104370117e-01 -2.390291690826416016e-01 -4.924426972866058350e-01
1.995000000000000000e+03 1.543618202209472656e+01 -8.525857925415039062e+00 -1.245713680982589722e-01 4.250908736139535904e-03 -3.609613701701164246e-02 -1.631302945315837860e-02
1.996000000000000000e+03 1.274274444580078125e+01 -8.938390731811523438e+00 -8.590462058782577515e-02 -7.926961407065391541e-03 -2.814947627484798431e-02 -2.484433539211750031e-02
1.997000000000000000e+03 1.140983104705810547e+01 -8.156052589416503906e+00 -5.679670721292495728e-02 -9.532596915960311890e-03 -1.989879086613655090e-02 -1.551609486341476440e-02
1.998000000000000000e+03 9.578730583190917969e+00 -8.680086135864257812e+00 -4.795526340603828430e-02 -1.361469458788633347e-02 -1.847098767757415771e-02 -1.873485743999481201e-02
1.999000000000000000e+03 6.225624561309814453e+00 -8.029017448425292969e+00 -1.966517046093940735e-02 -9.355541318655014038e-03 -8.706213906407356262e-03 -5.072676576673984528e-03
2.000000000000000000e+03 2.929557418823242188e+01 -6.230182647705078125e+00 1.606045961380004883e-01 1.921151764690876007e-02 5.394483730196952820e-02 -5.633190274238586426e-01
2.001000000000000000e+03 3.092316436767578125e+01 -5.747851848602294922e+00 2.259053587913513184e-01 1.052923440933227539e+00 3.836486339569091797e-01 -5.341411232948303223e-01
2.002000000000000000e+03 2.693981170654296875e+01 -5.043928146362304688e+00 1.707027852535247803e-01 -6.954484581947326660e-01 -1.574237048625946045e-01 -6.136855483055114746e-01
2.003000000000000000e+03 2.994415283203125000e+01 -5.191370010375976562e+00 2.522366344928741455e-01 2.690736055374145508e-01 1.563930660486221313e-01 -5.416690111160278320e-01
2.004000000000000000e+03 2.974784660339355469e+01 -3.721390485763549805e+00 9.909755736589431763e-02 -1.347890645265579224e-01 -1.070745289325714111e-02 -5.674409866333007812e-01
2.005000000000000000e+03 2.724370765686035156e+01 -3.296521663665771484e+00 -1.079582143574953079e-02 -3.941887319087982178e-01 -1.214953586459159851e-01 -6.890913844108581543e-01
2.006000000000000000e+03 2.455819892883300781e+01 -4.870817661285400391e+00 7.813554257154464722e-02 -2.385076433420181274e-01 -4.811162874102592468e-02 -3.915558010339736938e-02
2.007000000000000000e+03 2.514382171630859375e+01 -3.037706613540649414e+00 1.990113034844398499e-02 -1.798166185617446899e-01 -4.797464981675148010e-02 -1.984393596649169922e-01
2.008000000000000000e+03 3.033521842956542969e+01 -3.504636764526367188e+00 1.091734468936920166e-01 2.473367378115653992e-02 4.017213732004165649e-02 -2.181703001260757446e-01
2.009000000000000000e+03 2.991088294982910156e+01 -3.112584352493286133e+00 1.243185847997665405e-01 -3.543189764022827148e-01 -6.900011748075485229e-02 -4.286272525787353516e-01
2.010000000000000000e+03 5.228096389770507812e+01 -6.633622169494628906e+00 -2.583145201206207275e-01 -7.796038985252380371e-01 -3.113755285739898682e-01 4.363184869289398193e-01
2.011000000000000000e+03 5.842855834960937500e+01 -6.131563186645507812e+00 1.080672025680541992e+00 3.309239864349365234e+00 1.316973567008972168e+00 8.199644684791564941e-01
2.012000000000000000e+03 6.010686492919921875e+01 -6.974562644958496094e+00 1.094692111015319824e+00 5.686063766479492188e+00 2.034226894378662109e+00 1.257008790969848633e+00
2.013000000000000000e+03 6.226165008544921875e+01 -8.216466903686523438e+00 5.704044699668884277e-01 8.474547386169433594e+00 2.713485717773437500e+00 3.388973772525787354e-01
2.014000000000000000e+03 6.210250091552734375e+01 -6.596357822418212891e+00 8.242372870445251465e-01 9.573007583618164062e+00 3.119173526763916016e+00 8.565065860748291016e-01
2.015000000000000000e+03 5.968743896484375000e+01 -9.448372840881347656e+00 1.263123750686645508e-01 5.150556564331054688e+00 1.583060741424560547e+00 1.455756425857543945e+00
2.016000000000000000e+03 5.475328445434570312e+01 -1.069308853149414062e+01 -3.098782896995544434e-01 1.613047719001770020e-01 -4.457205533981323242e-02 4.030888676643371582e-01
2.017000000000000000e+03 5.436650848388671875e+01 -9.986080169677734375e+00 -3.539375960826873779e-01 -5.261300206184387207e-01 -2.640202939510345459e-01 5.586622953414916992e-01
2.018000000000000000e+03 6.237489700317382812e+01 -9.061029434204101562e+00 4.847982227802276611e-01 7.801178455352783203e+00 2.485792875289916992e+00 3.222915232181549072e-01
2.019000000000000000e+03 6.331363677978515625e+01 -9.684386253356933594e+00 5.322181582450866699e-01 7.776169776916503906e+00 2.492516279220581055e+00 -6.532484292984008789e-01
2.020000000000000000e+03 5.329513931274414062e+01 -6.878054141998291016e+00 2.524648793041706085e-02 -7.376223802566528320e-01 -2.137127667665481567e-01 2.206949293613433838e-01
2.021000000000000000e+03 5.358232116699218750e+01 -8.623866081237792969e+00 -3.440308868885040283e-01 -1.063175678253173828e+00 -4.221619665622711182e-01 6.618372797966003418e-01
2.022000000000000000e+03 5.717112350463867188e+01 -1.242777824401855469e+01 -5.030851364135742188e-01 3.975027084350585938e+00 1.041582584381103516e+00 1.090056538581848145e+00
2.023000000000000000e+03 5.634004592895507812e+01 -1.222326946258544922e+01 -4.070034623146057129e-01 3.178245782852172852e+00 8.313726782798767090e-01 7.301977276802062988e-01
2.024000000000000000e+03 5.813267135620117188e+01 -1.198951911926269531e+01 -5.608239173889160156e-01 4.368214130401611328e+00 1.142217040061950684e+00 1.397430419921875000e+00
2.025000000000000000e+03 5.977405929565429688e+01 -1.281155967712402344e+01 -6.878511905670166016e-01 4.984247684478759766e+00 1.288918972015380859e+00 1.365417480468750000e+00
2.026000000000000000e+03 6.011701202392578125e+01 -1.217338752746582031e+01 -7.162380814552307129e-01 5.186278343200683594e+00 1.341012120246887207e+00 1.391592979431152344e+00
2.027000000000000000e+03 5.875416946411132812e+01 -1.219277191162109375e+01 -5.511510372161865234e-01 4.636044979095458984e+00 1.225468158721923828e+00 1.470791101455688477e+00
2.028000000000000000e+03 6.554954528808593750e+01 -1.316077995300292969e+01 -8.887928128242492676e-01 1.930201172828674316e+00 3.124224841594696045e-01 -3.132769167423248291e-01
2.029000000000000000e+03 6.564939880371093750e+01 -1.216487598419189453e+01 4.097614437341690063e-02 1.337647795677185059e+00 4.135871827602386475e-01 -6.332389116287231445e-01
2.030000000000000000e+03 5.918596649169921875e+01 -1.414648818969726562e+01 -5.025387406349182129e-01 4.735527515411376953e+00 1.269896626472473145e+00 1.152966260910034180e+00
2.031000000000000000e+03 5.810097885131835938e+01 -1.392643833160400391e+01 -3.372974395751953125e-01 4.576872825622558594e+00 1.271872639656066895e+00 1.216369986534118652e+00
2.032000000000000000e+03 6.546882629394531250e+01 -1.416601943969726562e+01 -1.496021032333374023e+00 2.279953956604003906e+00 2.351798564195632935e-01 -1.545116305351257324e-01
2.033000000000000000e+03 6.533316802978515625e+01 -1.514955520629882812e+01 -1.831999063491821289e+00 2.645420551300048828e+00 2.440264374017715454e-01 -2.032738029956817627e-01
2.034000000000000000e+03 6.581469726562500000e+01 -1.714058303833007812e+01 -1.417930722236633301e+00 2.356978654861450195e+00 2.817143499851226807e-01 -6.330512762069702148e-01
2.035000000000000000e+03 6.650935363769531250e+01 -1.681196403503417969e+01 -1.810707211494445801e+00 2.060274362564086914e+00 7.487013936042785645e-02 -4.890314638614654541e-01
2.036000000000000000e+03 6.686071777343750000e+01 -1.586295795440673828e+01 -2.128225088119506836e+00 1.583427906036376953e+00 -1.634391844272613525e-01 -2.131235748529434204e-01
2.037000000000000000e+03 5.737607192993164062e+01 -1.566943550109863281e+01 8.252336829900741577e-02 5.150230407714843750e+00 1.569826126098632812e+00 7.929268479347229004e-01
2.038000000000000000e+03 5.785849380493164062e+01 -1.619975662231445312e+01 3.613383471965789795e-01 4.655146121978759766e+00 1.504945397377014160e+00 7.883086204528808594e-01
2.039000000000000000e+03 5.982504653930664062e+01 -1.632461547851562500e+01 -3.326090276241302490e-01 4.456608295440673828e+00 1.237199664115905762e+00 4.424395561218261719e-01
2.040000000000000000e+03 6.484989166259765625e+01 -1.461689281463623047e+01 -1.459287643432617188e+00 3.039053440093994141e+00 4.739297330379486084e-01 -2.162408828735351562e-01
2.041000000000000000e+03 6.552153778076171875e+01 -1.659958839416503906e+01 -1.591194272041320801e+00 2.671346664428710938e+00 3.240457177162170410e-01 -5.620546340942382812e-01
2.042000000000000000e+03 6.712760162353515625e+01 -1.895710945129394531e+01 -5.475401878356933594e-01 2.145937442779541016e+00 4.795191586017608643e-01 -3.825666308403015137e-01
2.043000000000000000e+03 6.780168914794921875e+01 -1.786208915710449219e+01 -1.133672833442687988e+00 1.463760495185852051e+00 9.902630001306533813e-02 -3.449785113334655762e-01
2.044000000000000000e+03 6.967718505859375000e+01 -1.808039474487304688e+01 -6.895021796226501465e-01 1.433025121688842773e+00 2.230568826198577881e-01 1.599339485168457031e+00
2.045000000000000000e+03 6.860832214355468750e+01 -1.753989601135253906e+01 -1.488630175590515137e+00 2.885425388813018799e-01 -3.600262999534606934e-01 1.557644903659820557e-01
2.046000000000000000e+03 7.767593383789062500e+01 -1.666575431823730469e+01 -1.258123368024826050e-01 8.733011245727539062e+00 2.582159757614135742e+00 -7.576059699058532715e-01
2.047000000000000000e+03 5.709812164306640625e+01 -1.801250839233398438e+01 6.639330983161926270e-01 4.920635700225830078e+00 1.675370693206787109e+00 2.016432732343673706e-01
2.048000000000000000e+03 5.837102508544921875e+01 -1.806998062133789062e+01 1.131870150566101074e-01 4.358219623565673828e+00 1.341421961784362793e+00 5.637487396597862244e-02
2.049000000000000000e+03 5.974180984497070312e+01 -1.805029678344726562e+01 -3.062856793403625488e-01 4.155096530914306641e+00 1.154643297195434570e+00 -9.724341332912445068e-02
2.050000000000000000e+03 6.105720138549804688e+01 -1.736038780212402344e+01 -5.862932801246643066e-01 4.096305370330810547e+00 1.053003668785095215e+00 -1.180196404457092285e-01
2.051000000000000000e+03 6.511091613769531250e+01 -1.745531082153320312e+01 -1.324367523193359375e+00 2.901336908340454102e+00 4.730907976627349854e-01 -6.331972479820251465e-01
2.052000000000000000e+03 6.993420410156250000e+01 -1.896086311340332031e+01 -4.201805889606475830e-01 2.790927171707153320e+00 7.112239599227905273e-01 1.552672982215881348e+00
2.053000000000000000e+03 7.174816894531250000e+01 -1.638882637023925781e+01 -2.977646112442016602e+00 8.270505905151367188e+00 1.587857961654663086e+00 1.789459109306335449e+00
2.054000000000000000e+03 7.817848968505859375e+01 -1.877663612365722656e+01 -1.969259530305862427e-01 8.925915718078613281e+00 2.618696928024291992e+00 -3.135063946247100830e-01
2.055000000000000000e+03 2.106345653533935547e+00 -2.040159225463867188e+01 -2.765434095636010170e-03 -1.035561189055442810e-01 -3.189646452665328979e-02 -4.114990308880805969e-02
2.056000000000000000e+03 5.228417873382568359e+00 -1.906124114990234375e+01 -1.743274368345737457e-02 -9.583994746208190918e-02 -3.398180752992630005e-02 -8.327137678861618042e-02
2.057000000000000000e+03 6.092186450958251953e+00 -1.957394218444824219e+01 -1.892516016960144043e-02 -1.049128547310829163e-01 -3.715140372514724731e-02 -9.812956303358078003e-02
2.058000000000000000e+03 5.662686824798583984e+00 -2.208955574035644531e+01 -9.712584316730499268e-03 -1.389701813459396362e-01 -4.460483044385910034e-02 -1.021007224917411804e-01
2.059000000000000000e+03 3.857650756835937500e+00 -2.037023735046386719e+01 -7.907763123512268066e-03 -1.104337126016616821e-01 -3.550244122743606567e-02 -6.993564218282699585e-02
2.060000000000000000e+03 7.600823879241943359e+00 -1.991570281982421875e+01 -2.595961466431617737e-02 -1.117342710494995117e-01 -4.130816459655761719e-02 -1.195043399930000305e-01
2.061000000000000000e+03 1.022903060913085938e+01 -1.870000648498535156e+01 -5.076655000448226929e-02 -9.902013838291168213e-02 -4.493600875139236450e-02 -1.476023346185684204e-01
2.062000000000000000e+03 1.073522663116455078e+01 -1.994649124145507812e+01 -4.215180873870849609e-02 -1.148018315434455872e-01 -4.708609357476234436e-02 -1.608917564153671265e-01
2.063000000000000000e+03 1.456587982177734375e+01 -2.017954254150390625e+01 -5.465644970536231995e-02 -1.313408464193344116e-01 -5.579918995499610901e-02 -2.085803300142288208e-01
2.064000000000000000e+03 1.641314506530761719e+01 -2.035300827026367188e+01 -5.036561936140060425e-02 -1.497721523046493530e-01 -6.004133075475692749e-02 -2.297814041376113892e-01
2.065000000000000000e+03 2.155611610412597656e+01 -1.985057067871093750e+01 -4.426496848464012146e-02 -2.097352445125579834e-01 -7.620006799697875977e-02 -2.311037927865982056e-01
2.066000000000000000e+03 2.416448211669921875e+01 -1.822918319702148438e+01 -6.397364288568496704e-02 -2.607690989971160889e-01 -9.742282330989837646e-02 -1.787693351507186890e-01
2.067000000000000000e+03 2.470128250122070312e+01 -1.904140853881835938e+01 -5.473322048783302307e-02 -2.261428534984588623e-01 -8.426281809806823730e-02 -1.646417975425720215e-01
2.068000000000000000e+03 2.738865852355957031e+01 -1.964596366882324219e+01 -1.009690463542938232e-01 -1.046927496790885925e-01 -6.169853731989860535e-02 -1.073098629713058472e-01
2.069000000000000000e+03 3.007565498352050781e+01 -1.932326507568359375e+01 -2.224634885787963867e-01 5.828024074435234070e-02 -4.925497621297836304e-02 -9.866725653409957886e-02
2.070000000000000000e+03 3.292111968994140625e+01 -1.943636703491210938e+01 -3.199802637100219727e-01 1.802588999271392822e-01 -4.191641137003898621e-02 -1.761416643857955933e-01
2.071000000000000000e+03 3.844711303710937500e+01 -1.878777694702148438e+01 -5.715488791465759277e-01 -8.122616261243820190e-02 -1.958325058221817017e-01 -4.034921824932098389e-01
2.072000000000000000e+03 3.916441345214843750e+01 -1.927205657958984375e+01 -4.362122118473052979e-01 -1.646205335855484009e-01 -1.802498251199722290e-01 -3.276976644992828369e-01
2.073000000000000000e+03 3.824969482421875000e+01 -2.099972152709960938e+01 -2.694644331932067871e-01 -1.351730246096849442e-02 -8.489451557397842407e-02 -3.246506750583648682e-01
2.074000000000000000e+03 4.105631637573242188e+01 -1.953114700317382812e+01 -4.477015435695648193e-01 -1.955191493034362793e-01 -1.929662078619003296e-01 -1.097272485494613647e-01
2.075000000000000000e+03 4.345783615112304688e+01 -2.016907310485839844e+01 -4.444588422775268555e-01 2.460615336894989014e-01 -5.951918661594390869e-02 -2.816728688776493073e-02
2.076000000000000000e+03 4.470465469360351562e+01 -1.923265075683593750e+01 -5.628320574760437012e-01 3.942200243473052979e-01 -5.058360844850540161e-02 -1.863764412701129913e-02
2.077000000000000000e+03 4.911785507202148438e+01 -1.941835021972656250e+01 -6.075228452682495117e-01 5.809105038642883301e-01 -7.983718998730182648e-03 -8.009987324476242065e-02
2.078000000000000000e+03 5.103203964233398438e+01 -1.982382392883300781e+01 -5.829397439956665039e-01 4.147543609142303467e-01 -5.045560747385025024e-02 -1.020119711756706238e-02
2.079000000000000000e+03 5.333513259887695312e+01 -1.858364105224609375e+01 -1.755502939224243164e+00 -4.770622551441192627e-01 -6.697695851325988770e-01 7.902140617370605469e-01
2.080000000000000000e+03 5.842443084716796875e+01 -1.934608650207519531e+01 -4.277761280536651611e-01 4.235458374023437500e+00 1.142304658889770508e+00 -3.053357601165771484e-01
2.081000000000000000e+03 5.978972625732421875e+01 -1.938214874267578125e+01 -4.635531902313232422e-01 4.030503749847412109e+00 1.070085048675537109e+00 -3.945796489715576172e-01
2.082000000000000000e+03 6.114488983154296875e+01 -1.955905723571777344e+01 -5.554659962654113770e-01 3.800570249557495117e+00 9.735312461853027344e-01 -5.105090737342834473e-01
2.083000000000000000e+03 6.396951293945312500e+01 -1.880161666870117188e+01 -7.946102619171142578e-01 3.226191997528076172e+00 7.294745445251464844e-01 -6.852622032165527344e-01
2.084000000000000000e+03 6.517861175537109375e+01 -1.902160263061523438e+01 -7.417159676551818848e-01 2.809190750122070312e+00 6.202424168586730957e-01 -7.231553792953491211e-01
2.085000000000000000e+03 6.630197143554687500e+01 -1.895817565917968750e+01 -6.642364859580993652e-01 2.310306787490844727e+00 4.938211143016815186e-01 -6.026410460472106934e-01
2.086000000000000000e+03 7.029419708251953125e+01 -2.078668212890625000e+01 -1.001754999160766602e-01 3.883716344833374023e+00 1.135062217712402344e+00 1.208538174629211426e+00
2.087000000000000000e+03 6.933085632324218750e+01 -2.007728767395019531e+01 -2.543203718960285187e-02 2.879332780838012695e+00 8.561702370643615723e-01 9.582444429397583008e-01
2.088000000000000000e+03 7.262200927734375000e+01 -1.894091415405273438e+01 -1.342952609062194824e+00 6.690629959106445312e+00 1.604303121566772461e+00 1.479627370834350586e+00
2.089000000000000000e+03 7.792230987548828125e+01 -2.117922019958496094e+01 -1.898923218250274658e-01 8.783177375793457031e+00 2.577985286712646484e+00 1.013016551733016968e-01
2.090000000000000000e+03 7.795316314697265625e+01 -2.035560607910156250e+01 -1.836241483688354492e-01 8.864327430725097656e+00 2.604211091995239258e+00 -3.751278668642044067e-02
2.091000000000000000e+03 4.365001678466796875e+01 -1.771870803833007812e+01 -6.850267052650451660e-01 2.702737748622894287e-01 -1.244258880615234375e-01 -1.883614249527454376e-02
2.092000000000000000e+03 3.527751922607421875e+01 -1.792617225646972656e+01 -5.004631280899047852e-01 2.549927234649658203e-01 -7.364111393690109253e-02 -2.144829332828521729e-01
2.093000000000000000e+03 3.111270332336425781e+01 -1.832830238342285156e+01 -3.009808659553527832e-01 1.409565061330795288e-01 -4.800730943679809570e-02 -5.788690596818923950e-02
2.094000000000000000e+03 2.926662445068359375e+01 -1.716046714782714844e+01 -2.122313827276229858e-01 1.559374202042818069e-02 -5.899129435420036316e-02 7.266582921147346497e-03
2.095000000000000000e+03 2.743986129760742188e+01 -1.730326843261718750e+01 -1.309513151645660400e-01 -1.536519229412078857e-01 -8.538097143173217773e-02 -2.349091507494449615e-02
2.096000000000000000e+03 2.517755317687988281e+01 -1.723944282531738281e+01 -8.000689744949340820e-02 -2.786061465740203857e-01 -1.075839102268218994e-01 -1.268135756254196167e-01
2.097000000000000000e+03 2.342161178588867188e+01 -1.675323295593261719e+01 -9.044277667999267578e-02 -3.081414997577667236e-01 -1.195752844214439392e-01 -2.143290042877197266e-01
2.098000000000000000e+03 2.104816055297851562e+01 -1.636627960205078125e+01 -1.409467756748199463e-01 -2.329091727733612061e-01 -1.121567860245704651e-01 -2.759142220020294189e-01
2.099000000000000000e+03 1.938611030578613281e+01 -1.807621192932128906e+01 -1.046339347958564758e-01 -1.809341013431549072e-01 -8.567041158676147461e-02 -2.558922171592712402e-01
2.100000000000000000e+03 1.879900169372558594e+01 -1.684834861755371094e+01 -1.443811953067779541e-01 -1.567546278238296509e-01 -9.034074842929840088e-02 -2.641706168651580811e-01
2.101000000000000000e+03 1.641830825805664062e+01 -1.617455101013183594e+01 -1.577764004468917847e-01 -9.500548243522644043e-02 -7.583456486463546753e-02 -2.178403288125991821e-01
2.102000000000000000e+03 1.366959667205810547e+01 -1.726843261718750000e+01 -9.903209656476974487e-02 -8.820086717605590820e-02 -5.616988986730575562e-02 -1.785773634910583496e-01
2.103000000000000000e+03 1.123374557495117188e+01 -1.807495689392089844e+01 -6.464526057243347168e-02 -9.256002306938171387e-02 -4.716158285737037659e-02 -1.556431502103805542e-01
2.104000000000000000e+03 8.755719184875488281e+00 -1.741416549682617188e+01 -5.073695629835128784e-02 -8.054231852293014526e-02 -3.938378021121025085e-02 -1.165102347731590271e-01
2.105000000000000000e+03 4.462274074554443359e+00 -1.882365608215332031e+01 -1.332675665616989136e-02 -8.889825642108917236e-02 -3.066750243306159973e-02 -7.077715545892715454e-02
2.106000000000000000e+03 6.856612396240234375e+01 -5.203053474426269531e+00 -1.920927166938781738e-01 1.305650115013122559e+00 3.340671956539154053e-01 -6.394205093383789062e-01
2.107000000000000000e+03 7.120406341552734375e+01 -6.013465404510498047e+00 -2.740533277392387390e-02 6.176287651062011719e+00 1.844664692878723145e+00 -1.939105153083801270e+00
2.108000000000000000e+03 7.325601959228515625e+01 -5.448793888092041016e+00 -3.735117614269256592e-01 7.319232463836669922e+00 2.083716154098510742e+00 -5.153137445449829102e-01
2.109000000000000000e+03 7.524015045166015625e+01 -4.344508647918701172e+00 -1.586889177560806274e-01 7.235112667083740234e+00 2.122927188873291016e+00 6.523608565330505371e-01
2.110000000000000000e+03 7.689068603515625000e+01 -5.491333484649658203e+00 1.147123202681541443e-01 8.479727745056152344e+00 2.578332185745239258e+00 1.238723278045654297e+00
2.111000000000000000e+03 7.014249420166015625e+01 -6.925634384155273438e+00 1.870597243309020996e+00 3.885029077529907227e+00 1.726687908172607422e+00 -2.606280803680419922e+00
2.112000000000000000e+03 7.118501281738281250e+01 -8.130255699157714844e+00 2.666615247726440430e+00 8.392793655395507812e+00 3.317822694778442383e+00 -3.947010993957519531e+00
2.113000000000000000e+03 7.503964996337890625e+01 -1.165373039245605469e+01 1.163849711418151855e+00 9.694550514221191406e+00 3.257520198822021484e+00 -2.052081376314163208e-01
2.114000000000000000e+03 7.807871246337890625e+01 -1.343790245056152344e+01 2.326981425285339355e-01 8.107511520385742188e+00 2.502063035964965820e+00 -4.818315505981445312e-01
2.115000000000000000e+03 7.889856719970703125e+01 -1.494437408447265625e+01 2.193400077521800995e-02 8.100753784179687500e+00 2.436806440353393555e+00 -4.856569170951843262e-01
2.116000000000000000e+03 7.571521759033203125e+01 -7.872415542602539062e+00 5.828629732131958008e-01 8.613748550415039062e+00 2.758983373641967773e+00 8.948110342025756836e-01
2.117000000000000000e+03 7.751300048828125000e+01 -7.700351238250732422e+00 3.135242462158203125e-01 8.483196258544921875e+00 2.639016151428222656e+00 1.009742021560668945e+00
2.118000000000000000e+03 6.913953399658203125e+01 -4.793869495391845703e+00 -1.032677650451660156e+00 2.904497146606445312e+00 5.615458488464355469e-01 -9.579351544380187988e-01
2.119000000000000000e+03 7.360086822509765625e+01 -9.151577949523925781e+00 1.603445887565612793e+00 9.956635475158691406e+00 3.468024492263793945e+00 -2.411935776472091675e-01
2.120000000000000000e+03 7.801846313476562500e+01 -9.315205574035644531e+00 2.621328234672546387e-01 8.124261856079101562e+00 2.515918493270874023e+00 5.527023077011108398e-01
2.121000000000000000e+03 7.355970001220703125e+01 -1.120905303955078125e+01 1.364068150520324707e+00 1.137044620513916016e+01 3.820354461669921875e+00 -5.748599171638488770e-01
2.122000000000000000e+03 7.801638793945312500e+01 -1.098713397979736328e+01 3.175515830516815186e-01 7.991024494171142578e+00 2.492572784423828125e+00 1.176491752266883850e-01
2.123000000000000000e+03 7.388413238525390625e+01 -1.477637958526611328e+01 6.756827831268310547e-01 9.929690361022949219e+00 3.181612014770507812e+00 -4.241965711116790771e-01
2.124000000000000000e+03 7.294177246093750000e+01 -1.423579978942871094e+01 1.498346090316772461e+00 1.076738643646240234e+01 3.679719686508178711e+00 1.569946259260177612e-01
2.125000000000000000e+03 7.806732177734375000e+01 -1.262701034545898438e+01 2.548396289348602295e-01 8.019080162048339844e+00 2.482176065444946289e+00 -3.167368769645690918e-01
2.126000000000000000e+03 7.516256713867187500e+01 -1.365497684478759766e+01 7.784956097602844238e-01 9.533427238464355469e+00 3.093576908111572266e+00 -6.053653955459594727e-01
2.127000000000000000e+03 7.581006622314453125e+01 -1.538850688934326172e+01 1.200766041874885559e-01 9.104970932006835938e+00 2.767514228820800781e+00 -8.937233686447143555e-01
2.128000000000000000e+03 7.373181915283203125e+01 -1.404375839233398438e+01 9.229322671890258789e-01 1.062286090850830078e+01 3.463738203048706055e+00 -1.814676523208618164e-01
2.129000000000000000e+03 7.599173736572265625e+01 9.412930488586425781e+00 -2.296684384346008301e-01 9.859258651733398438e+00 2.888876914978027344e+00 -1.373001337051391602e+00
2.130000000000000000e+03 7.183619689941406250e+01 1.083058071136474609e+01 2.293514966964721680e+00 2.092571020126342773e+00 1.315825819969177246e+00 1.693662954494357109e-03
2.131000000000000000e+03 6.914264678955078125e+01 1.047171497344970703e+01 2.475641727447509766e+00 8.894453048706054688e+00 3.411028623580932617e+00 1.656195878982543945e+00
2.132000000000000000e+03 6.959980010986328125e+01 7.708491325378417969e+00 -1.295136094093322754e+00 9.370465278625488281e+00 2.422598838806152344e+00 -2.750234007835388184e-01
2.133000000000000000e+03 6.921092224121093750e+01 7.194159030914306641e+00 -7.596606612205505371e-01 1.127699947357177734e+01 3.155201673507690430e+00 -4.792675375938415527e-01
2.134000000000000000e+03 6.825785064697265625e+01 6.864727497100830078e+00 -4.042812883853912354e-01 1.347622108459472656e+01 3.921581983566284180e+00 -1.320031404495239258e+00
2.135000000000000000e+03 6.945037841796875000e+01 6.323322772979736328e+00 1.741601228713989258e-01 1.229185581207275391e+01 3.739804744720458984e+00 8.862925767898559570e-01
2.136000000000000000e+03 6.713682556152343750e+01 7.653876304626464844e+00 1.196624040603637695e-01 1.477807426452636719e+01 4.469321250915527344e+00 -6.956110000610351562e-01
2.137000000000000000e+03 6.720594787597656250e+01 8.643434524536132812e+00 7.608802914619445801e-01 1.569421768188476562e+01 4.936529159545898438e+00 -3.356979191303253174e-01
2.138000000000000000e+03 6.660268402099609375e+01 1.024308204650878906e+01 3.656403541564941406e+00 1.933942604064941406e+01 6.898748874664306641e+00 1.613078236579895020e+00
2.139000000000000000e+03 6.658866882324218750e+01 1.192477321624755859e+01 4.320628643035888672e+00 1.787269401550292969e+01 6.657996654510498047e+00 -9.010889381170272827e-02
2.140000000000000000e+03 6.570538330078125000e+01 1.026498317718505859e+01 3.551391124725341797e+00 2.826169204711914062e+01 9.543925285339355469e+00 3.383571863174438477e+00
2.141000000000000000e+03 6.445914459228515625e+01 8.044418334960937500e+00 3.093557834625244141e+00 1.045980453491210938e+01 4.066008567810058594e+00 5.462505340576171875e+00
2.142000000000000000e+03 6.551931762695312500e+01 8.251276016235351562e+00 1.047753810882568359e+00 1.701304435729980469e+01 5.418239116668701172e+00 3.853994369506835938e+00
2.143000000000000000e+03 6.589472198486328125e+01 4.450214862823486328e+00 1.939921498298645020e+00 9.332823753356933594e+00 3.381823301315307617e+00 9.489492774009704590e-01
2.144000000000000000e+03 6.577142333984375000e+01 3.428062915802001953e+00 1.889074087142944336e+00 8.027907371520996094e+00 2.975094318389892578e+00 1.541572451591491699e+00
2.145000000000000000e+03 6.536689758300781250e+01 3.951884269714355469e+00 1.881970882415771484e+00 8.042604446411132812e+00 2.977372646331787109e+00 1.849962115287780762e+00
2.146000000000000000e+03 6.777146911621093750e+01 3.191775560379028320e+00 3.214462518692016602e+00 1.036771583557128906e+01 4.074653625488281250e+00 -4.460026621818542480e-01
2.147000000000000000e+03 6.599754333496093750e+01 1.140481710433959961e+00 1.082358732819557190e-01 5.926771640777587891e+00 1.810502290725708008e+00 2.306206703186035156e+00
2.148000000000000000e+03 6.919726562500000000e+01 8.645994186401367188e+00 -3.018746078014373779e-01 1.021918773651123047e+01 2.975193977355957031e+00 1.124672591686248779e-01
2.149000000000000000e+03 7.634355163574218750e+01 3.075959444046020508e+00 -1.033594965934753418e+00 9.542440414428710938e+00 2.552653551101684570e+00 -1.880954861640930176e+00
2.150000000000000000e+03 4.965879440307617188e+01 -3.521403670310974121e-01 -7.063295245170593262e-01 2.114328145980834961e-01 -1.484690159559249878e-01 -5.519382283091545105e-02
2.151000000000000000e+03 5.775726318359375000e+01 2.778990566730499268e-01 -2.365808725357055664e+00 3.129661977291107178e-01 -6.158527731895446777e-01 3.044496178627014160e-01
2.152000000000000000e+03 6.737866210937500000e+01 1.226541757583618164e+00 3.508395552635192871e-01 7.327181816101074219e+00 2.303406476974487305e+00 4.358708858489990234e-01
2.153000000000000000e+03 7.492035675048828125e+01 1.092654109001159668e+00 -4.416993141174316406e+00 3.001034021377563477e+00 -4.247876703739166260e-01 -2.881226688623428345e-02
2.154000000000000000e+03 7.486021423339843750e+01 2.118118047714233398e+00 -3.065288543701171875e+00 4.662946760654449463e-01 -7.796981930732727051e-01 -1.338898539543151855e+00
2.155000000000000000e+03 6.424374389648437500e+01 6.317683696746826172e+00 1.860836744308471680e+00 8.500360488891601562e+00 3.108359098434448242e+00 3.547386884689331055e+00
2.156000000000000000e+03 6.527888488769531250e+01 6.638300418853759766e+00 1.030297279357910156e+00 1.173623275756835938e+01 3.829959154129028320e+00 2.468386650085449219e+00
2.157000000000000000e+03 5.091196823120117188e+01 7.285572528839111328e+00 -2.829415909945964813e-02 -3.499880433082580566e-02 -1.898788847029209137e-02 1.724545261822640896e-03
2.158000000000000000e+03 5.373270416259765625e+01 6.640994071960449219e+00 -1.699036546051502228e-02 5.845058709383010864e-03 -3.343592165037989616e-03 -1.510393433272838593e-02
2.159000000000000000e+03 5.397541046142578125e+01 7.304669857025146484e+00 -6.416826508939266205e-03 1.936559937894344330e-02 3.884631674736738205e-03 -2.447365969419479370e-02
2.160000000000000000e+03 5.354294967651367188e+01 8.082570075988769531e+00 -2.099449513480067253e-03 4.592299461364746094e-03 7.478549960069358349e-04 -2.148135565221309662e-02
2.161000000000000000e+03 5.160577774047851562e+01 7.344120025634765625e+00 -1.227774284780025482e-02 -3.597499430179595947e-02 -1.447582151740789413e-02 -2.418836345896124840e-03
2.162000000000000000e+03 5.532994079589843750e+01 7.048220157623291016e+00 1.703622564673423767e-02 3.387827426195144653e-02 1.527434960007667542e-02 5.390423815697431564e-03
2.163000000000000000e+03 5.150309371948242188e+01 5.893503665924072266e+00 -9.177515655755996704e-02 -4.841534048318862915e-02 -4.205714911222457886e-02 3.161050006747245789e-02
2.164000000000000000e+03 5.376164245605468750e+01 4.984672546386718750e+00 1.130832359194755554e-03 2.137229079380631447e-03 9.804184082895517349e-04 -1.585594029165804386e-03
2.165000000000000000e+03 5.345669555664062500e+01 5.948467254638671875e+00 -1.647176779806613922e-02 -5.666718352586030960e-03 -6.641545798629522324e-03 -1.980002783238887787e-02
2.166000000000000000e+03 4.806481933593750000e+01 4.711588859558105469e+00 -2.961128950119018555e-01 6.475284695625305176e-02 -6.940801441669464111e-02 -5.816834419965744019e-02
2.167000000000000000e+03 4.549121856689453125e+01 4.504768371582031250e+00 -1.829887181520462036e-01 -1.137000098824501038e-01 -8.900661766529083252e-02 -1.403278261423110962e-01
2.168000000000000000e+03 4.739477539062500000e+01 2.996261835098266602e+00 -6.175261139869689941e-01 1.601124703884124756e-01 -1.372240930795669556e-01 -1.266473531723022461e-01
2.169000000000000000e+03 3.781549453735351562e+01 2.238095998764038086e+00 -8.222863078117370605e-03 2.076925337314605713e-01 5.984090268611907959e-02 7.443723827600479126e-02
2.170000000000000000e+03 2.957400894165039062e+01 3.509341239929199219e+00 6.013582348823547363e-01 3.835662081837654114e-02 1.919144541025161743e-01 2.346757054328918457e-01
2.171000000000000000e+03 3.048290252685546875e+01 2.237251758575439453e+00 -9.331624209880828857e-02 -5.097148418426513672e-01 -1.809093207120895386e-01 -2.012813836336135864e-01
2.172000000000000000e+03 3.348920440673828125e+01 5.817028999328613281e+00 1.496895402669906616e-01 -7.473993301391601562e-02 2.248488366603851318e-02 -2.261817641556262970e-02
2.173000000000000000e+03 1.797367477416992188e+01 -6.065344333648681641e+00 -6.288313306868076324e-03 1.253621373325586319e-02 1.874369918368756771e-03 -3.125787479802966118e-03
2.174000000000000000e+03 1.536076927185058594e+01 -6.375785350799560547e+00 -3.581503778696060181e-02 -5.016118288040161133e-03 -1.224934682250022888e-02 -5.279695615172386169e-04
2.175000000000000000e+03 1.279258060455322266e+01 -6.254551410675048828e+00 -3.214694187045097351e-02 -9.118206799030303955e-03 -1.237954478710889816e-02 -3.708960721269249916e-03
2.176000000000000000e+03 1.052282905578613281e+01 -6.555998802185058594e+00 -2.924616262316703796e-02 -1.020686235278844833e-02 -1.183590758591890335e-02 -6.248154211789369583e-03
2.177000000000000000e+03 9.144222259521484375e+00 -6.441784858703613281e+00 -2.606626227498054504e-02 -9.212940931320190430e-03 -1.058376114815473557e-02 -1.493719173595309258e-03
2.178000000000000000e+03 6.633131980895996094e+00 -6.228984355926513672e+00 -1.064922567456960678e-02 -5.441859364509582520e-03 -4.827325232326984406e-03 2.215024083852767944e-03
2.179000000000000000e+03 7.380280494689941406e+00 -7.738417625427246094e+00 -2.309333160519599915e-02 -1.005665399134159088e-02 -9.944995865225791931e-03 -6.372783798724412918e-03
2.180000000000000000e+03 4.340796947479248047e+00 -8.444905281066894531e+00 -1.130497083067893982e-02 -4.418331198394298553e-03 -4.716990515589714050e-03 -2.646391047164797783e-03
2.181000000000000000e+03 1.513623523712158203e+01 -5.494204521179199219e+00 -2.122851647436618805e-02 -3.803088329732418060e-03 -7.509481161832809448e-03 2.439013682305812836e-03
2.182000000000000000e+03 8.777212142944335938e+00 -5.817093372344970703e+00 -1.557148341089487076e-02 -7.550065405666828156e-03 -6.936464924365282059e-03 -1.415873877704143524e-03
2.183000000000000000e+03 5.532239437103271484e+00 -4.239554405212402344e+00 -1.893863081932067871e-03 -7.177483057603240013e-04 -7.834833813831210136e-04 8.629043586552143097e-03
2.184000000000000000e+03 7.753510475158691406e+00 -5.419661998748779297e+00 -7.922286167740821838e-03 -6.940319202840328217e-03 -4.458781331777572632e-03 2.103313105180859566e-03
2.185000000000000000e+03 1.920082283020019531e+01 -6.160171985626220703e+00 8.696090430021286011e-03 2.598644047975540161e-02 1.040475908666849136e-02 -1.233700104057788849e-02
2.186000000000000000e+03 1.477307701110839844e+01 -3.649494886398315430e+00 1.029301248490810394e-02 -8.943639695644378662e-04 2.819594461470842361e-03 -5.939333699643611908e-03
2.187000000000000000e+03 1.367593955993652344e+01 -4.082417011260986328e+00 8.235000073909759521e-03 -8.879926986992359161e-03 -1.934781466843560338e-04 -4.261273425072431564e-03
2.188000000000000000e+03 6.559100151062011719e+00 -2.904418706893920898e+00 7.172797806560993195e-03 6.267259595915675163e-04 2.339857164770364761e-03 6.526340730488300323e-03
2.189000000000000000e+03 8.237154960632324219e+00 -3.391580820083618164e+00 3.358335932716727257e-03 -4.448886960744857788e-03 -3.271652676630765200e-04 3.685912350192666054e-03
2.190000000000000000e+03 4.503920078277587891e+00 -4.927149295806884766e+00 -2.559934509918093681e-03 4.459236224647611380e-04 -6.342032575048506260e-04 7.648721802979707718e-03
2.191000000000000000e+03 4.357644081115722656e+00 -3.024186372756958008e+00 3.896643407642841339e-03 1.215800642967224121e-03 1.533733215183019638e-03 9.001770056784152985e-03
2.192000000000000000e+03 1.552481842041015625e+01 -2.838411569595336914e+00 1.921026781201362610e-02 1.020698715001344681e-02 8.825176395475864410e-03 -1.394342072308063507e-02
2.193000000000000000e+03 2.177510023117065430e+00 -2.198860740661621094e+01 -1.896047731861472130e-03 -1.328001022338867188e-01 -4.040884226560592651e-02 -4.531597346067428589e-02
2.194000000000000000e+03 6.782697200775146484e+00 -2.366620826721191406e+01 -5.336460191756486893e-03 -1.611935347318649292e-01 -4.995900020003318787e-02 -1.203803792595863342e-01
2.195000000000000000e+03 4.003468513488769531e+00 -2.287558364868164062e+01 -3.252660855650901794e-03 -1.515866070985794067e-01 -4.645177721977233887e-02 -7.870278507471084595e-02
2.196000000000000000e+03 7.032921314239501953e+00 -2.171112442016601562e+01 -1.439297478646039963e-02 -1.342813521623611450e-01 -4.460229724645614624e-02 -1.197659224271774292e-01
2.197000000000000000e+03 9.242730140686035156e+00 -2.200853919982910156e+01 -1.912493258714675903e-02 -1.408002674579620361e-01 -4.797755926847457886e-02 -1.496813446283340454e-01
2.198000000000000000e+03 1.153552913665771484e+01 -2.127090835571289062e+01 -3.096819482743740082e-02 -1.331590712070465088e-01 -4.923817887902259827e-02 -1.758147925138473511e-01
2.199000000000000000e+03 1.258555507659912109e+01 -2.130289459228515625e+01 -3.525581583380699158e-02 -1.371431797742843628e-01 -5.171969905495643616e-02 -1.896126717329025269e-01
2.200000000000000000e+03 1.557380199432373047e+01 -2.204656600952148438e+01 -2.367557585239410400e-02 -1.573534458875656128e-01 -5.430870503187179565e-02 -2.197462171316146851e-01
2.201000000000000000e+03 1.700571632385253906e+01 -2.201192092895507812e+01 -1.846419647336006165e-02 -1.652000546455383301e-01 -5.509927868843078613e-02 -2.305749207735061646e-01
2.202000000000000000e+03 2.044746017456054688e+01 -2.212837600708007812e+01 -5.138533655554056168e-03 -1.879525929689407349e-01 -5.792733654379844666e-02 -2.316934168338775635e-01
2.203000000000000000e+03 2.238564109802246094e+01 -2.143055152893066406e+01 -1.395218446850776672e-02 -1.936143189668655396e-01 -6.226994842290878296e-02 -2.179487496614456177e-01
2.204000000000000000e+03 2.379911422729492188e+01 -2.151663398742675781e+01 -1.150986272841691971e-02 -1.788031011819839478e-01 -5.709388852119445801e-02 -2.003673762083053589e-01
2.205000000000000000e+03 3.001860809326171875e+01 -2.194433212280273438e+01 -1.261443346738815308e-01 1.589886285364627838e-02 -3.307364135980606079e-02 -1.791416406631469727e-01
2.206000000000000000e+03 3.219700622558593750e+01 -2.150587081909179688e+01 -2.077846974134445190e-01 9.892259538173675537e-02 -3.265863284468650818e-02 -2.182621508836746216e-01
2.207000000000000000e+03 3.687667465209960938e+01 -2.326958847045898438e+01 -8.894725888967514038e-02 6.432530283927917480e-02 -7.386587094515562057e-03 -3.172736465930938721e-01
2.208000000000000000e+03 4.062896347045898438e+01 -2.032076072692871094e+01 -3.010718822479248047e-01 -8.914814144372940063e-02 -1.170660033822059631e-01 -2.010939121246337891e-01
2.209000000000000000e+03 4.226659011840820312e+01 -2.194832038879394531e+01 -1.862591356039047241e-01 1.152756437659263611e-01 -2.129504829645156860e-02 -1.167317777872085571e-01
2.210000000000000000e+03 5.191614913940429688e+01 -2.138216209411621094e+01 -1.144445762038230896e-01 6.917637586593627930e-01 1.731957495212554932e-01 3.164771199226379395e-01
2.211000000000000000e+03 5.250801086425781250e+01 -2.143404769897460938e+01 -1.544132977724075317e-01 8.230574727058410645e-01 2.005932480096817017e-01 4.172887504100799561e-01
2.212000000000000000e+03 5.287819290161132812e+01 -2.438179397583007812e+01 5.915280058979988098e-02 1.419551372528076172e+00 4.436112344264984131e-01 4.102864563465118408e-01
2.213000000000000000e+03 5.533156585693359375e+01 -2.580540466308593750e+01 -4.691588506102561951e-02 2.214844226837158203e+00 6.503785252571105957e-01 3.676952421665191650e-01
2.214000000000000000e+03 5.604936981201171875e+01 -2.702005577087402344e+01 4.770919680595397949e-02 2.388984441757202148e+00 7.310081124305725098e-01 2.931986153125762939e-01
2.215000000000000000e+03 5.861707687377929688e+01 -2.937268829345703125e+01 1.750380694866180420e-01 2.773734569549560547e+00 8.846317529678344727e-01 8.755163848400115967e-02
2.216000000000000000e+03 5.941886901855468750e+01 -3.105223274230957031e+01 2.983360290527343750e-01 2.888559103012084961e+00 9.560685753822326660e-01 1.057779267430305481e-01
2.217000000000000000e+03 6.069814682006835938e+01 -3.270282363891601562e+01 3.775722682476043701e-01 3.048950433731079102e+00 1.027956843376159668e+00 8.703742176294326782e-02
2.218000000000000000e+03 6.269748306274414062e+01 -3.424935531616210938e+01 4.308523535728454590e-01 3.492970466613769531e+00 1.177146792411804199e+00 9.791566431522369385e-02
2.219000000000000000e+03 6.314967727661132812e+01 -3.197179222106933594e+01 3.756722211837768555e-01 3.576984643936157227e+00 1.185797095298767090e+00 9.963323920965194702e-02
2.220000000000000000e+03 6.148906707763671875e+01 -3.133916664123535156e+01 3.449235558509826660e-01 3.239638805389404297e+00 1.075368762016296387e+00 6.468655914068222046e-02
2.221000000000000000e+03 5.988974761962890625e+01 -2.879787254333496094e+01 1.703409105539321899e-01 3.018348932266235352e+00 9.566069841384887695e-01 4.989158734679222107e-02
2.222000000000000000e+03 5.798976898193359375e+01 -2.768730926513671875e+01 4.749449715018272400e-02 2.768771648406982422e+00 8.448798656463623047e-01 1.546270698308944702e-01
2.223000000000000000e+03 5.350592422485351562e+01 -2.245578002929687500e+01 -2.454347163438796997e-02 1.387063264846801758e+00 4.087559282779693604e-01 6.644784212112426758e-01
2.224000000000000000e+03 5.273008346557617188e+01 -2.253877067565917969e+01 -2.752446383237838745e-02 1.151900529861450195e+00 3.373128175735473633e-01 4.704213738441467285e-01
2.225000000000000000e+03 5.458619689941406250e+01 -2.053618240356445312e+01 -3.508165180683135986e-01 1.535337686538696289e+00 3.553563654422760010e-01 1.303934216499328613e+00
2.226000000000000000e+03 5.489122009277343750e+01 -2.304880142211914062e+01 -1.672486066818237305e-01 2.099461793899536133e+00 5.796639323234558105e-01 7.450789809226989746e-01
2.227000000000000000e+03 5.698151397705078125e+01 -2.427357482910156250e+01 -3.420113027095794678e-01 2.838319540023803711e+00 7.488924860954284668e-01 3.169065117835998535e-01
2.228000000000000000e+03 5.940671157836914062e+01 -2.716226959228515625e+01 -1.569301448762416840e-02 3.038998126983642578e+00 9.069915413856506348e-01 3.206326067447662354e-02
2.229000000000000000e+03 6.120087051391601562e+01 -2.844721031188964844e+01 1.629976332187652588e-01 3.233611106872558594e+00 1.018982648849487305e+00 1.779538230039179325e-03
2.230000000000000000e+03 6.157015609741210938e+01 -2.992124938964843750e+01 2.805268168449401855e-01 3.300660133361816406e+00 1.074356079101562500e+00 3.143699839711189270e-02
2.231000000000000000e+03 7.148165130615234375e+01 -3.858591461181640625e+01 2.295290529727935791e-01 5.530761718750000000e+00 1.728087306022644043e+00 1.600112169981002808e-01
2.232000000000000000e+03 6.642305755615234375e+01 -3.334130096435546875e+01 4.050696194171905518e-01 4.274137020111083984e+00 1.403761982917785645e+00 2.343555241823196411e-01
2.233000000000000000e+03 6.703308868408203125e+01 -3.145588874816894531e+01 4.037497937679290771e-01 4.338956356048583984e+00 1.422811865806579590e+00 2.869447171688079834e-01
2.234000000000000000e+03 6.480599975585937500e+01 -3.162845802307128906e+01 3.786162734031677246e-01 3.853392839431762695e+00 1.269602775573730469e+00 1.326306462287902832e-01
2.235000000000000000e+03 6.251069259643554688e+01 -2.826308822631835938e+01 2.062125355005264282e-01 3.409413099288940430e+00 1.084687709808349609e+00 -1.446773204952478409e-02
2.236000000000000000e+03 6.224914169311523438e+01 -2.676832580566406250e+01 1.020110100507736206e-01 3.366324424743652344e+00 1.040500640869140625e+00 -1.010309904813766479e-01
2.237000000000000000e+03 6.067548370361328125e+01 -2.545319175720214844e+01 -1.217252239584922791e-01 3.315263986587524414e+00 9.580616354942321777e-01 -1.287617683410644531e-01
2.238000000000000000e+03 5.865708541870117188e+01 -2.298691177368164062e+01 -4.722551107406616211e-01 3.530284881591796875e+00 9.174089431762695312e-01 6.221912056207656860e-02
2.239000000000000000e+03 5.612572860717773438e+01 -2.186351585388183594e+01 -6.706011295318603516e-01 3.361325025558471680e+00 8.072171807289123535e-01 8.116440176963806152e-01
2.240000000000000000e+03 5.739117050170898438e+01 -2.193015098571777344e+01 -5.857266783714294434e-01 3.618621110916137695e+00 9.098682999610900879e-01 4.019027352333068848e-01
2.241000000000000000e+03 5.861176300048828125e+01 -2.069461059570312500e+01 -4.995538592338562012e-01 3.894190549850463867e+00 1.018391013145446777e+00 -1.622422486543655396e-01
2.242000000000000000e+03 5.941526794433593750e+01 -2.210893630981445312e+01 -5.023314356803894043e-01 3.747188091278076172e+00 9.734570384025573730e-01 -1.225678473711013794e-01
2.243000000000000000e+03 6.043468475341796875e+01 -2.421087455749511719e+01 -2.577500641345977783e-01 3.368802785873413086e+00 9.333158135414123535e-01 -1.969000548124313354e-01
2.244000000000000000e+03 6.716050720214843750e+01 -2.998184585571289062e+01 3.983781337738037109e-01 4.238570213317871094e+00 1.391084551811218262e+00 2.797504663467407227e-01
2.245000000000000000e+03 6.716517639160156250e+01 -2.849438476562500000e+01 3.904744088649749756e-01 4.169673919677734375e+00 1.368044495582580566e+00 2.625390589237213135e-01
2.246000000000000000e+03 6.598577117919921875e+01 -2.817864990234375000e+01 3.560011982917785645e-01 3.926635980606079102e+00 1.284791111946105957e+00 1.300617903470993042e-01
2.247000000000000000e+03 6.353197097778320312e+01 -2.534200477600097656e+01 1.139154657721519470e-01 3.413898468017578125e+00 1.058344244956970215e+00 -2.009489834308624268e-01
2.248000000000000000e+03 6.232120132446289062e+01 -2.307389259338378906e+01 -2.260953336954116821e-01 3.454317092895507812e+00 9.684665203094482422e-01 -4.409856796264648438e-01
2.249000000000000000e+03 6.032125854492187500e+01 -2.132678604125976562e+01 -4.509582519531250000e-01 3.763014554977416992e+00 9.936168789863586426e-01 -3.217150270938873291e-01
2.250000000000000000e+03 6.030796813964843750e+01 -2.322800445556640625e+01 -3.701848089694976807e-01 3.517147779464721680e+00 9.440889358520507812e-01 -2.148830592632293701e-01
2.251000000000000000e+03 6.182373809814453125e+01 -2.172386169433593750e+01 -3.894406259059906006e-01 3.590998172760009766e+00 9.604672789573669434e-01 -4.888899624347686768e-01
2.252000000000000000e+03 6.375483703613281250e+01 -2.309682655334472656e+01 -7.211639732122421265e-02 3.316482543945312500e+00 9.733098149299621582e-01 -4.399181306362152100e-01
2.253000000000000000e+03 6.490478515625000000e+01 -2.670641326904296875e+01 2.748199701309204102e-01 3.609219312667846680e+00 1.165211796760559082e+00 -2.322595380246639252e-02
2.254000000000000000e+03 6.740332794189453125e+01 -2.705339622497558594e+01 3.843720555305480957e-01 4.054883003234863281e+00 1.331776499748229980e+00 2.554058432579040527e-01
2.255000000000000000e+03 6.627542114257812500e+01 -2.563344192504882812e+01 3.285056352615356445e-01 3.667757272720336914e+00 1.198878884315490723e+00 5.918731912970542908e-02
2.256000000000000000e+03 6.496755218505859375e+01 -2.540768814086914062e+01 2.263013273477554321e-01 3.518412113189697266e+00 1.123414039611816406e+00 -1.012844741344451904e-01
2.257000000000000000e+03 6.468080139160156250e+01 -2.297417831420898438e+01 5.536682158708572388e-02 3.251806259155273438e+00 9.921519160270690918e-01 -3.638950884342193604e-01
2.258000000000000000e+03 6.327957916259765625e+01 -2.265776062011718750e+01 -1.804623007774353027e-01 3.387412786483764648e+00 9.620851874351501465e-01 -4.604067504405975342e-01
2.259000000000000000e+03 6.262045669555664062e+01 -2.227190017700195312e+01 -2.395788729190826416e-01 3.383352518081665039e+00 9.431321024894714355e-01 -5.120787620544433594e-01
2.260000000000000000e+03 6.526696014404296875e+01 -2.208261108398437500e+01 -1.835507224313914776e-03 3.087112188339233398e+00 9.255830049514770508e-01 -3.770399093627929688e-01
2.261000000000000000e+03 6.705935668945312500e+01 -2.345686340332031250e+01 2.783708274364471436e-01 3.416521787643432617e+00 1.108467817306518555e+00 8.476384729146957397e-02
2.262000000000000000e+03 6.604477691650390625e+01 -2.170375442504882812e+01 1.542436797171831131e-02 2.990178823471069336e+00 9.016810059547424316e-01 -3.178039789199829102e-01
2.263000000000000000e+03 6.645109558105468750e+01 -2.265290451049804688e+01 1.933031380176544189e-01 3.143246650695800781e+00 1.000964999198913574e+00 -1.097448095679283142e-01
2.264000000000000000e+03 6.640644836425781250e+01 -2.033507728576660156e+01 -2.073718309402465820e-01 2.658600091934204102e+00 7.353684902191162109e-01 -4.143367409706115723e-01
2.265000000000000000e+03 6.968237304687500000e+01 -2.274574089050292969e+01 1.833013296127319336e-01 4.061525344848632812e+00 1.273448109626770020e+00 7.279723286628723145e-01
2.266000000000000000e+03 6.898582458496093750e+01 -2.190188598632812500e+01 1.786324679851531982e-01 3.490061521530151367e+00 1.100608229637145996e+00 6.213299632072448730e-01
2.267000000000000000e+03 7.243573760986328125e+01 -2.021485328674316406e+01 -7.418513894081115723e-01 5.978176116943359375e+00 1.570897459983825684e+00 1.369694113731384277e+00
2.268000000000000000e+03 7.376393127441406250e+01 -2.134836006164550781e+01 -5.112124681472778320e-01 6.782921791076660156e+00 1.881512761116027832e+00 9.369131326675415039e-01
2.269000000000000000e+03 4.234358370304107666e-01 -2.119554328918457031e+01 -1.566739520058035851e-04 -1.082805320620536804e-01 -3.253116086125373840e-02 -9.120264090597629547e-03
2.270000000000000000e+03 3.030118465423583984e+00 -2.438734817504882812e+01 -7.917677285149693489e-04 -1.771340668201446533e-01 -5.337775126099586487e-02 -6.364917010068893433e-02
2.271000000000000000e+03 3.889848232269287109e+00 -2.447697257995605469e+01 -7.009338005445897579e-04 -1.767691522836685181e-01 -5.324102938175201416e-02 -7.793422788381576538e-02
2.272000000000000000e+03 7.366331100463867188e+00 -2.313706016540527344e+01 -7.948472164571285248e-03 -1.530212312936782837e-01 -4.829091206192970276e-02 -1.273573786020278931e-01
2.273000000000000000e+03 9.828950881958007812e+00 -2.374103164672851562e+01 -6.462402176111936569e-03 -1.608617007732391357e-01 -5.019723251461982727e-02 -1.589886695146560669e-01
2.274000000000000000e+03 1.369494152069091797e+01 -2.243809127807617188e+01 -2.064355276525020599e-02 -1.523032039403915405e-01 -5.188402533531188965e-02 -2.033681571483612061e-01
2.275000000000000000e+03 1.744193840026855469e+01 -2.409914779663085938e+01 2.085998840630054474e-02 -1.776482015848159790e-01 -4.703646153211593628e-02 -2.242176681756973267e-01
2.276000000000000000e+03 2.106303596496582031e+01 -2.433324623107910156e+01 3.921669349074363708e-02 -1.784779578447341919e-01 -4.177837818861007690e-02 -2.225607484579086304e-01
2.277000000000000000e+03 2.585300827026367188e+01 -2.400875473022460938e+01 2.717668749392032623e-02 -1.225486621260643005e-01 -2.861159294843673706e-02 -2.043355256319046021e-01
2.278000000000000000e+03 2.933024597167968750e+01 -2.357291984558105469e+01 -4.687289148569107056e-02 -2.188868261873722076e-02 -2.062847279012203217e-02 -2.063816338777542114e-01
2.279000000000000000e+03 3.201911926269531250e+01 -2.454154777526855469e+01 -1.481140870600938797e-02 2.678318321704864502e-02 3.591532586142420769e-03 -2.537703216075897217e-01
2.280000000000000000e+03 3.560887527465820312e+01 -2.310668754577636719e+01 -1.344080716371536255e-01 7.087562233209609985e-02 -1.905973441898822784e-02 -3.139667510986328125e-01
2.281000000000000000e+03 4.501425552368164062e+01 -2.341522598266601562e+01 -1.012964844703674316e-01 4.040215313434600830e-01 9.081751108169555664e-02 -9.955514967441558838e-02
2.282000000000000000e+03 4.659338760375976562e+01 -2.355505180358886719e+01 -6.188292428851127625e-02 5.530832409858703613e-01 1.473600864410400391e-01 -6.430597603321075439e-02
2.283000000000000000e+03 4.812367248535156250e+01 -2.358700180053710938e+01 -4.553689807653427124e-02 6.274502873420715332e-01 1.745740175247192383e-01 -3.347610682249069214e-02
2.284000000000000000e+03 5.148170852661132812e+01 -2.250554656982421875e+01 -1.779910922050476074e-02 8.284016251564025879e-01 2.431807518005371094e-01 2.683011889457702637e-01
2.285000000000000000e+03 5.546482849121093750e+01 -2.406682777404785156e+01 -2.393000125885009766e-01 2.296237230300903320e+00 6.170811653137207031e-01 5.576634407043457031e-01
2.286000000000000000e+03 5.927275085449218750e+01 -2.555741882324218750e+01 -1.700028181076049805e-01 3.122000932693481445e+00 8.855994343757629395e-01 -1.001013442873954773e-03
2.287000000000000000e+03 5.841421127319335938e+01 -2.394266891479492188e+01 -4.097368121147155762e-01 3.258797883987426758e+00 8.547183275222778320e-01 2.637754753232002258e-02
2.288000000000000000e+03 6.208646774291992188e+01 -2.536332130432128906e+01 -3.677567839622497559e-02 3.375925302505493164e+00 1.001744866371154785e+00 -2.124356478452682495e-01
2.289000000000000000e+03 6.428231811523437500e+01 -2.372067260742187500e+01 4.981444776058197021e-02 3.353111743927001953e+00 1.020877838134765625e+00 -3.008567392826080322e-01
2.290000000000000000e+03 7.120597076416015625e+01 -2.419958877563476562e+01 1.561662703752517700e-01 5.061337947845458984e+00 1.565251350402832031e+00 8.161234259605407715e-01
2.291000000000000000e+03 6.826121520996093750e+01 -2.461996459960937500e+01 3.560725152492523193e-01 3.914461374282836914e+00 1.281160116195678711e+00 3.710702955722808838e-01
2.292000000000000000e+03 7.380813598632812500e+01 -2.314494705200195312e+01 -1.851520836353302002e-01 6.478050708770751953e+00 1.887869477272033691e+00 8.592718243598937988e-01
2.293000000000000000e+03 7.548970031738281250e+01 -2.271651077270507812e+01 -2.252573668956756592e-01 7.487225532531738281e+00 2.178590536117553711e+00 6.142308115959167480e-01
2.294000000000000000e+03 4.331592619419097900e-01 -2.279593849182128906e+01 -2.054155775113031268e-04 -1.439411789178848267e-01 -4.324397817254066467e-02 -9.858399629592895508e-03
2.295000000000000000e+03 2.976856231689453125e+00 -2.591431617736816406e+01 4.659706319216638803e-04 -2.044379860162734985e-01 -6.119160354137420654e-02 -6.276581436395645142e-02
2.296000000000000000e+03 4.462683677673339844e+00 -2.640915107727050781e+01 2.737013623118400574e-03 -2.073850482702255249e-01 -6.139440834522247314e-02 -8.432824164628982544e-02
2.297000000000000000e+03 1.013017940521240234e+01 -2.584656715393066406e+01 1.022358890622854233e-02 -1.837611049413681030e-01 -5.206125602126121521e-02 -1.568570882081985474e-01
2.298000000000000000e+03 1.372757530212402344e+01 -2.489492797851562500e+01 1.295591052621603012e-02 -1.754098683595657349e-01 -4.873618483543395996e-02 -1.951531469821929932e-01
2.299000000000000000e+03 1.515801811218261719e+01 -2.516283607482910156e+01 2.694017812609672546e-02 -1.797200292348861694e-01 -4.583395272493362427e-02 -2.063833028078079224e-01
2.300000000000000000e+03 2.711403656005859375e+01 -2.604252815246582031e+01 7.139295339584350586e-02 -9.401392191648483276e-02 -6.786290090531110764e-03 -2.176781296730041504e-01
2.301000000000000000e+03 3.506606292724609375e+01 -2.500356101989746094e+01 7.284421939402818680e-03 5.507531762123107910e-02 1.870792172849178314e-02 -2.976040542125701904e-01
2.302000000000000000e+03 3.813721084594726562e+01 -2.669787597656250000e+01 1.660543084144592285e-01 1.079631224274635315e-01 8.220522850751876831e-02 -2.446449846029281616e-01
2.303000000000000000e+03 4.168010330200195312e+01 -2.486775779724121094e+01 6.532455980777740479e-02 2.018918395042419434e-01 8.016491681337356567e-02 -1.655114740133285522e-01
2.304000000000000000e+03 5.285372161865234375e+01 -2.613251495361328125e+01 1.565676778554916382e-01 1.582357883453369141e+00 5.216776728630065918e-01 3.376463353633880615e-01
2.305000000000000000e+03 5.716963577270507812e+01 -2.623700141906738281e+01 -1.118984818458557129e-01 2.689557313919067383e+00 7.732976078987121582e-01 2.071406692266464233e-01
2.306000000000000000e+03 6.086524581909179688e+01 -2.693170928955078125e+01 3.127513080835342407e-02 3.242829084396362305e+00 9.822312593460083008e-01 -6.553409993648529053e-02
2.307000000000000000e+03 6.375579833984375000e+01 -2.813054466247558594e+01 2.631756365299224854e-01 3.547851562500000000e+00 1.143308162689208984e+00 1.373273506760597229e-02
2.308000000000000000e+03 6.359218597412109375e+01 -2.669094276428222656e+01 1.838598400354385376e-01 3.475882291793823242e+00 1.097922563552856445e+00 -8.303708583116531372e-02
2.309000000000000000e+03 7.399653625488281250e+01 -2.472506523132324219e+01 -2.300757914781570435e-03 6.476504802703857422e+00 1.942261219024658203e+00 7.723955512046813965e-01
2.310000000000000000e+03 7.527683258056640625e+01 -2.438522529602050781e+01 -5.639222636818885803e-02 7.144581317901611328e+00 2.126456737518310547e+00 6.643996238708496094e-01
2.311000000000000000e+03 7.705195617675781250e+01 -2.446113204956054688e+01 -3.510124236345291138e-02 7.972927570343017578e+00 2.381347894668579102e+00 4.514545500278472900e-01
2.312000000000000000e+03 4.358318448066711426e-01 -2.520073318481445312e+01 1.088744975277222693e-04 -2.002913951873779297e-01 -6.005475670099258423e-02 -1.033638883382081985e-02
2.313000000000000000e+03 2.250592231750488281e+00 -2.752837562561035156e+01 1.162860193289816380e-03 -2.388470768928527832e-01 -7.130526751279830933e-02 -4.764836654067039490e-02
2.314000000000000000e+03 6.095017910003662109e+00 -2.882048034667968750e+01 1.231318339705467224e-02 -2.305974662303924561e-01 -6.548528373241424561e-02 -1.025033816695213318e-01
2.315000000000000000e+03 5.183921813964843750e+00 -2.796914482116699219e+01 6.985637359321117401e-03 -2.267123162746429443e-01 -6.591800600290298462e-02 -9.143213927745819092e-02
2.316000000000000000e+03 8.361140251159667969e+00 -2.719542503356933594e+01 1.313744764775037766e-02 -2.000700235366821289e-01 -5.607977136969566345e-02 -1.361322999000549316e-01
2.317000000000000000e+03 9.632848739624023438e+00 -2.713744544982910156e+01 1.906066201627254486e-02 -1.979655474424362183e-01 -5.367146432399749756e-02 -1.487757712602615356e-01
2.318000000000000000e+03 1.071774864196777344e+01 -2.777561950683593750e+01 2.806785330176353455e-02 -2.002247869968414307e-01 -5.164707824587821960e-02 -1.567377001047134399e-01
2.319000000000000000e+03 3.708884811401367188e+01 -2.568914604187011719e+01 7.306292653083801270e-02 6.606966257095336914e-02 4.173977673053741455e-02 -2.848509848117828369e-01
2.320000000000000000e+03 4.740682983398437500e+01 -2.897140693664550781e+01 3.549346625804901123e-01 7.672297358512878418e-01 3.366492986679077148e-01 8.755972608923912048e-03
2.321000000000000000e+03 5.732059478759765625e+01 -3.005429458618164062e+01 2.431781738996505737e-01 2.532567501068115234e+00 8.327237367630004883e-01 1.627224832773208618e-01
2.322000000000000000e+03 6.490612030029296875e+01 -2.798548316955566406e+01 3.119111359119415283e-01 3.661795377731323242e+00 1.192111968994140625e+00 4.507679119706153870e-02
2.323000000000000000e+03 7.072791290283203125e+01 -2.835764312744140625e+01 3.414182066917419434e-01 5.150193214416503906e+00 1.647483468055725098e+00 5.241976976394653320e-01
2.324000000000000000e+03 6.949529266357421875e+01 -2.737162590026855469e+01 3.726460039615631104e-01 4.661433219909667969e+00 1.510223746299743652e+00 4.719660282135009766e-01
2.325000000000000000e+03 7.369895172119140625e+01 -2.665584754943847656e+01 1.432211697101593018e-01 6.270544052124023438e+00 1.924129486083984375e+00 6.943603754043579102e-01
2.326000000000000000e+03 7.537301635742187500e+01 -2.617224502563476562e+01 6.183949112892150879e-02 7.022556781768798828e+00 2.125318765640258789e+00 6.187933683395385742e-01
2.327000000000000000e+03 7.706995391845703125e+01 -2.607769966125488281e+01 1.915306970477104187e-02 7.781240940093994141e+00 2.340118169784545898e+00 4.518075585365295410e-01
2.328000000000000000e+03 4.384829103946685791e-01 -2.600531959533691406e+01 -1.767149515217170119e-04 -2.193852514028549194e-01 -6.586859375238418579e-02 -1.034262403845787048e-02
2.329000000000000000e+03 7.874105834960937500e+01 -2.687985038757324219e+01 -4.361585248261690140e-03 8.366071701049804688e+00 2.508512973785400391e+00 2.204825431108474731e-01
2.330000000000000000e+03 2.388833522796630859e+00 -2.912874603271484375e+01 2.382507314905524254e-03 -2.665115892887115479e-01 -7.923872023820877075e-02 -4.734126850962638855e-02
2.331000000000000000e+03 5.511600494384765625e+00 -2.950955772399902344e+01 1.182856224477291107e-02 -2.416816651821136475e-01 -6.895592808723449707e-02 -9.342050552368164062e-02
2.332000000000000000e+03 2.601869964599609375e+01 -2.851441192626953125e+01 1.422165483236312866e-01 -1.207037419080734253e-01 6.453842390328645706e-03 -2.095071524381637573e-01
2.333000000000000000e+03 2.908031272888183594e+01 -2.940101814270019531e+01 1.870410591363906860e-01 -7.286567240953445435e-02 3.425261750817298889e-02 -2.139711081981658936e-01
2.334000000000000000e+03 3.404933547973632812e+01 -2.973317718505859375e+01 2.521584331989288330e-01 2.149498462677001953e-02 8.209602534770965576e-02 -2.409714013338088989e-01
2.335000000000000000e+03 3.794194030761718750e+01 -2.982077980041503906e+01 3.121826946735382080e-01 1.440064609050750732e-01 1.368567496538162231e-01 -2.106855362653732300e-01
2.336000000000000000e+03 6.047716903686523438e+01 -3.026483917236328125e+01 2.734228670597076416e-01 3.038440942764282227e+00 9.935591816902160645e-01 5.763163417577743530e-02
2.337000000000000000e+03 6.285248947143554688e+01 -2.991560745239257812e+01 3.031578660011291504e-01 3.475471496582031250e+00 1.133588790893554688e+00 7.159671932458877563e-02
2.338000000000000000e+03 6.963121032714843750e+01 -2.988255310058593750e+01 3.768402338027954102e-01 4.847342967987060547e+00 1.567254900932312012e+00 4.147315621376037598e-01
2.339000000000000000e+03 7.539717102050781250e+01 -2.760330009460449219e+01 1.012695357203483582e-01 6.912160396575927734e+00 2.104028940200805664e+00 5.572617053985595703e-01
2.340000000000000000e+03 7.694561004638671875e+01 -2.839311027526855469e+01 4.843216016888618469e-02 7.474481105804443359e+00 2.256873846054077148e+00 4.113232493400573730e-01
2.341000000000000000e+03 4.518479108810424805e-01 -2.761429023742675781e+01 -1.661732239881530404e-04 -2.570051252841949463e-01 -7.715138792991638184e-02 -1.031044125556945801e-02
2.342000000000000000e+03 7.865239715576171875e+01 -2.850742530822753906e+01 4.673853982239961624e-03 8.086986541748046875e+00 2.427498102188110352e+00 2.091829925775527954e-01
2.343000000000000000e+03 2.504658937454223633e+00 -3.081727790832519531e+01 4.046292044222354889e-03 -2.937419414520263672e-01 -8.690869808197021484e-02 -4.515178501605987549e-02
2.344000000000000000e+03 8.020129203796386719e+00 -3.107253074645996094e+01 3.042383678257465363e-02 -2.412456721067428589e-01 -6.324654817581176758e-02 -1.122046560049057007e-01
2.345000000000000000e+03 2.187984275817871094e+01 -3.075308227539062500e+01 1.594644039869308472e-01 -1.729308515787124634e-01 -4.039933905005455017e-03 -1.881515830755233765e-01
2.346000000000000000e+03 5.231297683715820312e+01 -2.923875236511230469e+01 3.241203427314758301e-01 1.545062899589538574e+00 5.607549548149108887e-01 2.023982554674148560e-01
2.347000000000000000e+03 6.601250457763671875e+01 -3.049438667297363281e+01 3.830456733703613281e-01 4.117417335510253906e+00 1.350138902664184570e+00 1.930849403142929077e-01
2.348000000000000000e+03 7.102554321289062500e+01 -3.095827293395996094e+01 3.140161335468292236e-01 5.351686477661132812e+00 1.699710845947265625e+00 4.447998106479644775e-01
2.349000000000000000e+03 7.614804077148437500e+01 -2.829473304748535156e+01 1.005114912986755371e-01 7.209099769592285156e+00 2.192883491516113281e+00 4.895817339420318604e-01
2.350000000000000000e+03 7.738008880615234375e+01 -3.015542984008789062e+01 6.127149239182472229e-02 7.458905220031738281e+00 2.256052970886230469e+00 3.063940405845642090e-01
2.351000000000000000e+03 4.751773178577423096e-01 -2.922360801696777344e+01 7.710587669862434268e-05 -2.928567528724670410e-01 -8.783389627933502197e-02 -1.011228282004594803e-02
2.352000000000000000e+03 7.840354919433593750e+01 -3.024322319030761719e+01 1.665274612605571747e-02 7.769972801208496094e+00 2.335987567901611328e+00 2.061141133308410645e-01
2.353000000000000000e+03 3.306204557418823242e+00 -3.378875732421875000e+01 9.242503903806209564e-03 -3.235382437705993652e-01 -9.428872168064117432e-02 -4.576829075813293457e-02
2.354000000000000000e+03 7.230506420135498047e+00 -3.288019180297851562e+01 3.015231899917125702e-02 -2.639164328575134277e-01 -7.012923806905746460e-02 -9.139755368232727051e-02
2.355000000000000000e+03 1.354206752777099609e+01 -3.242261886596679688e+01 8.575095981359481812e-02 -2.272290438413619995e-01 -4.244342446327209473e-02 -1.374461203813552856e-01
2.356000000000000000e+03 1.854413795471191406e+01 -3.237514877319335938e+01 1.517221331596374512e-01 -2.007573097944259644e-01 -1.471055485308170319e-02 -1.594572514295578003e-01
2.357000000000000000e+03 2.652006530761718750e+01 -3.247702789306640625e+01 2.464468330144882202e-01 -1.224703639745712280e-01 3.719293698668479919e-02 -1.780802607536315918e-01
2.358000000000000000e+03 3.236469650268554688e+01 -3.208882522583007812e+01 3.212485611438751221e-01 -2.550237253308296204e-02 8.872385323047637939e-02 -1.975179761648178101e-01
2.359000000000000000e+03 3.760585021972656250e+01 -3.310943603515625000e+01 4.373853206634521484e-01 1.645734608173370361e-01 1.805876344442367554e-01 -1.663834750652313232e-01
2.360000000000000000e+03 7.579483032226562500e+01 -3.268704605102539062e+01 1.051990389823913574e-01 6.793347835540771484e+00 2.069564104080200195e+00 3.472562432289123535e-01
2.361000000000000000e+03 4.895054996013641357e-01 -3.164918899536132812e+01 9.692348248790949583e-05 -3.406256735324859619e-01 -1.021586284041404724e-01 -8.872337639331817627e-03
2.362000000000000000e+03 7.857516479492187500e+01 -3.195234298706054688e+01 1.876141689717769623e-02 7.637632846832275391e+00 2.296918153762817383e+00 1.497953385114669800e-01
2.363000000000000000e+03 4.159496784210205078e+00 -3.559650421142578125e+01 1.454790122807025909e-02 -3.289469480514526367e-01 -9.431970864534378052e-02 -4.445829614996910095e-02
2.364000000000000000e+03 8.942566871643066406e+00 -3.436777114868164062e+01 4.967007040977478027e-02 -2.602616548538208008e-01 -6.317747384309768677e-02 -9.228374809026718140e-02
2.365000000000000000e+03 1.058887290954589844e+01 -3.395681762695312500e+01 6.358802318572998047e-02 -2.475704401731491089e-01 -5.519472807645797729e-02 -1.043360680341720581e-01
2.366000000000000000e+03 2.918680763244628906e+01 -3.435444259643554688e+01 3.191184699535369873e-01 -9.114001691341400146e-02 6.839353591203689575e-02 -1.584382206201553345e-01
2.367000000000000000e+03 4.800822448730468750e+01 -3.517456817626953125e+01 5.902885198593139648e-01 1.073212623596191406e+00 4.990503787994384766e-01 2.521544508635997772e-02
2.368000000000000000e+03 6.404940795898437500e+01 -3.894665908813476562e+01 4.716660976409912109e-01 3.856641054153442383e+00 1.298492074012756348e+00 7.640558481216430664e-02
2.369000000000000000e+03 6.971176910400390625e+01 -3.543299865722656250e+01 3.245421051979064941e-01 5.054457187652587891e+00 1.613699674606323242e+00 2.831343114376068115e-01
2.370000000000000000e+03 4.502573311328887939e-01 -3.325366210937500000e+01 9.328660671599209309e-04 -3.683300018310546875e-01 -1.102191433310508728e-01 -7.123288232833147049e-03
2.371000000000000000e+03 7.865360260009765625e+01 -3.358050918579101562e+01 6.533440668135881424e-03 7.519438743591308594e+00 2.257791519165039062e+00 1.155612394213676453e-01
2.372000000000000000e+03 6.776970863342285156e+00 -3.827542114257812500e+01 3.864545375108718872e-02 -3.027405142784118652e-01 -7.922852039337158203e-02 -4.191475361585617065e-02
2.373000000000000000e+03 6.854151916503906250e+01 -3.767117691040039062e+01 3.535342216491699219e-01 4.834571838378906250e+00 1.556431889533996582e+00 1.807850003242492676e-01
2.374000000000000000e+03 7.236801147460937500e+01 -3.476140213012695312e+01 2.266426831483840942e-01 5.734054565429687500e+00 1.788209199905395508e+00 3.070791661739349365e-01
2.375000000000000000e+03 7.389797210693359375e+01 -3.494229507446289062e+01 1.610531359910964966e-01 6.191813945770263672e+00 1.905860185623168945e+00 2.846837341785430908e-01
2.376000000000000000e+03 7.819657135009765625e+01 -3.477425765991210938e+01 8.055475540459156036e-03 7.339761257171630859e+00 2.204344987869262695e+00 1.343207657337188721e-01
2.377000000000000000e+03 4.235691726207733154e-01 -3.484062957763671875e+01 6.577072781510651112e-04 -3.925880789756774902e-01 -1.175791099667549133e-01 -5.909523926675319672e-03
2.378000000000000000e+03 7.875943756103515625e+01 -3.565857315063476562e+01 1.385017391294240952e-02 7.408326625823974609e+00 2.226653099060058594e+00 8.551784604787826538e-02
2.379000000000000000e+03 2.958437681198120117e+00 -3.874828338623046875e+01 6.193872075527906418e-03 -3.699125647544860840e-01 -1.091156080365180969e-01 -2.068593911826610565e-02
2.380000000000000000e+03 3.553493261337280273e+00 -4.027358627319335938e+01 1.962941512465476990e-02 -3.661602139472961426e-01 -1.039592400193214417e-01 -1.477119978517293930e-02
2.381000000000000000e+03 1.915808677673339844e+01 -3.891165542602539062e+01 2.092318236827850342e-01 -2.148645967245101929e-01 -1.689832191914319992e-03 -5.632269382476806641e-02
2.382000000000000000e+03 3.251332473754882812e+01 -3.577484893798828125e+01 4.000501632690429688e-01 -2.075594663619995117e-02 1.137882620096206665e-01 -1.319340169429779053e-01
2.383000000000000000e+03 5.519993972778320312e+01 -3.543089294433593750e+01 5.135563611984252930e-01 2.132742166519165039e+00 7.938895821571350098e-01 8.702696859836578369e-02
2.384000000000000000e+03 7.754925537109375000e+01 -3.702469635009765625e+01 1.414291467517614365e-02 7.060166358947753906e+00 2.122292757034301758e+00 1.321604996919631958e-01
2.385000000000000000e+03 4.815429747104644775e-01 -3.642079925537109375e+01 -3.544962673913687468e-04 -4.122839570045471191e-01 -1.237915381789207458e-01 -5.452403798699378967e-03
2.386000000000000000e+03 7.860160064697265625e+01 -3.718171691894531250e+01 1.022533699870109558e-02 7.283467769622802734e+00 2.188107967376708984e+00 6.580969691276550293e-02
2.387000000000000000e+03 7.795912170410156250e+01 -3.887344741821289062e+01 3.020091727375984192e-02 7.038371086120605469e+00 2.120571613311767578e+00 7.518102973699569702e-02
2.388000000000000000e+03 5.489733815193176270e-01 -3.801972961425781250e+01 -4.026809765491634607e-04 -4.266633689403533936e-01 -1.281198114156723022e-01 -4.174565430730581284e-03
2.389000000000000000e+03 7.870798492431640625e+01 -3.872039413452148438e+01 4.608006682246923447e-03 7.236999511718750000e+00 2.172482252120971680e+00 5.312704294919967651e-02
2.390000000000000000e+03 1.231686401367187500e+01 -4.122426223754882812e+01 1.025615781545639038e-01 -2.575509846210479736e-01 -4.649682715535163879e-02 -1.296050567179918289e-02
2.391000000000000000e+03 5.233663940429687500e+01 -4.107094955444335938e+01 6.425037980079650879e-01 1.685106039047241211e+00 6.982828974723815918e-01 1.479591894894838333e-02
2.392000000000000000e+03 7.456001281738281250e+01 -4.064428329467773438e+01 1.350860893726348877e-01 6.334107875823974609e+00 1.940758109092712402e+00 3.685896098613739014e-02
2.393000000000000000e+03 7.687011718750000000e+01 -4.039710998535156250e+01 6.345603615045547485e-02 6.809216976165771484e+00 2.061801910400390625e+00 7.530614733695983887e-02
2.394000000000000000e+03 5.129211544990539551e-01 -3.965278244018554688e+01 2.415312454104423523e-03 -4.389756619930267334e-01 -1.309681087732315063e-01 -3.131732111796736717e-03
2.395000000000000000e+03 7.842597961425781250e+01 -4.005400085449218750e+01 3.093300387263298035e-02 7.102664470672607422e+00 2.140079259872436523e+00 2.791988477110862732e-02
2.396000000000000000e+03 7.529869842529296875e+01 1.137518119812011719e+01 1.068344265222549438e-01 6.742746353149414062e+00 2.054874181747436523e+00 -1.982123255729675293e+00
2.397000000000000000e+03 7.261615753173828125e+01 1.465915393829345703e+01 1.669300913810729980e+00 5.763203620910644531e+00 2.229751348495483398e+00 7.669137120246887207e-01
2.398000000000000000e+03 7.075800323486328125e+01 1.140824604034423828e+01 2.895463705062866211e+00 4.741707324981689453e+00 2.291151285171508789e+00 1.338794946670532227e+00
2.399000000000000000e+03 7.557209777832031250e+01 1.551518154144287109e+01 5.348625779151916504e-01 6.000154018402099609e+00 1.960504889488220215e+00 1.122842654585838318e-01
2.400000000000000000e+03 7.414399719238281250e+01 1.601664352416992188e+01 8.449055552482604980e-01 6.077466487884521484e+00 2.076711654663085938e+00 5.434632301330566406e-01
2.401000000000000000e+03 7.017771911621093750e+01 1.408039569854736328e+01 2.235569000244140625e+00 7.396528244018554688e+00 2.889629125595092773e+00 2.177384614944458008e+00
2.402000000000000000e+03 6.874372100830078125e+01 1.503088474273681641e+01 8.822588920593261719e-01 9.750061035156250000e+00 3.189696073532104492e+00 1.864184498786926270e+00
2.403000000000000000e+03 6.051050186157226562e+01 1.421061897277832031e+01 -1.338670969009399414e+00 2.332175374031066895e-01 -3.316360414028167725e-01 -2.914629280567169189e-01
2.404000000000000000e+03 5.807582092285156250e+01 1.344108963012695312e+01 -1.403976082801818848e+00 4.514443576335906982e-01 -2.857595384120941162e-01 -5.556702986359596252e-02
2.405000000000000000e+03 5.736017608642578125e+01 1.437219905853271484e+01 -1.143496394157409668e+00 5.159205794334411621e-01 -1.882727444171905518e-01 5.506328120827674866e-02
2.406000000000000000e+03 5.498802947998046875e+01 1.372542762756347656e+01 -1.183446884155273438e+00 2.406215816736221313e-01 -2.828475832939147949e-01 3.569616079330444336e-01
2.407000000000000000e+03 5.348154830932617188e+01 1.378496360778808594e+01 -1.208964467048645020e+00 1.455647647380828857e-01 -3.190199136734008789e-01 5.649248361587524414e-01
2.408000000000000000e+03 5.181110763549804688e+01 1.313409328460693359e+01 -8.342338204383850098e-01 -1.453693211078643799e-01 -2.938809394836425781e-01 6.824344992637634277e-01
2.409000000000000000e+03 5.030416107177734375e+01 1.327246379852294922e+01 -2.942124605178833008e-01 -7.978201508522033691e-01 -3.276097774505615234e-01 2.728163897991180420e-01
2.410000000000000000e+03 7.603109741210937500e+01 1.778116226196289062e+01 2.343635708093643188e-01 6.225791931152343750e+00 1.938046693801879883e+00 4.839769303798675537e-01
2.411000000000000000e+03 7.221590423583984375e+01 1.838252258300781250e+01 1.291771382093429565e-01 6.967618942260742188e+00 2.129038810729980469e+00 9.385481476783752441e-01
2.412000000000000000e+03 6.973823547363281250e+01 1.551889038085937500e+01 8.920353651046752930e-01 8.407315254211425781e+00 2.789805173873901367e+00 1.801563501358032227e+00
2.413000000000000000e+03 6.816416931152343750e+01 1.591424942016601562e+01 -1.577531546354293823e-01 9.978853225708007812e+00 2.946329832077026367e+00 1.034229278564453125e+00
2.414000000000000000e+03 6.745154571533203125e+01 1.623434257507324219e+01 -6.254093647003173828e-01 9.882050514221191406e+00 2.776992321014404297e+00 1.639673113822937012e-01
2.415000000000000000e+03 6.433116912841796875e+01 1.621677398681640625e+01 -3.442034125328063965e-01 6.586953639984130859e+00 1.872825026512145996e+00 -3.321217298507690430e+00
2.416000000000000000e+03 6.212168884277343750e+01 1.459539985656738281e+01 -1.011567749083042145e-02 9.870341420173645020e-02 2.657631970942020416e-02 -1.419804215431213379e+00
2.417000000000000000e+03 6.031735610961914062e+01 1.691324043273925781e+01 6.491799838840961456e-03 1.268072247505187988e+00 3.823692202568054199e-01 -9.855703711509704590e-01
2.418000000000000000e+03 5.800304031372070312e+01 1.602791976928710938e+01 -6.207402348518371582e-01 7.504015564918518066e-01 3.889840841293334961e-02 -1.925501376390457153e-01
2.419000000000000000e+03 5.661439895629882812e+01 1.597097110748291016e+01 -8.409133553504943848e-01 6.898591518402099609e-01 -4.531625285744667053e-02 1.226118579506874084e-02
2.420000000000000000e+03 5.517984390258789062e+01 1.607298088073730469e+01 -1.006683230400085449e+00 5.790229439735412598e-01 -1.282981038093566895e-01 1.264419406652450562e-01
2.421000000000000000e+03 4.228879165649414062e+01 1.534302520751953125e+01 -9.436545968055725098e-01 2.322963178157806396e-01 -2.134074866771697998e-01 6.919731199741363525e-02
2.422000000000000000e+03 4.159841918945312500e+01 1.576630115509033203e+01 -9.321488738059997559e-01 2.180667817592620850e-01 -2.142246216535568237e-01 9.572209417819976807e-02
2.423000000000000000e+03 3.937814712524414062e+01 1.573427867889404297e+01 -8.259022235870361328e-01 1.622406393289566040e-01 -1.990984678268432617e-01 1.026046648621559143e-01
2.424000000000000000e+03 3.780854797363281250e+01 1.663548851013183594e+01 -7.583038210868835449e-01 5.625111982226371765e-02 -2.106157988309860229e-01 1.134353578090667725e-01
2.425000000000000000e+03 3.616532516479492188e+01 1.571413326263427734e+01 -7.977504730224609375e-01 -1.352587193250656128e-01 -2.799027562141418457e-01 8.810681849718093872e-02
2.426000000000000000e+03 3.440489959716796875e+01 1.521765995025634766e+01 -8.751560449600219727e-01 -2.236819118261337280e-01 -3.296513855457305908e-01 2.065417319536209106e-01
2.427000000000000000e+03 3.295985412597656250e+01 1.557433223724365234e+01 -7.298153638839721680e-01 -7.941844314336776733e-02 -2.427701354026794434e-01 1.714768111705780029e-01
2.428000000000000000e+03 3.066658401489257812e+01 1.542208957672119141e+01 -5.034461617469787598e-01 2.521393634378910065e-02 -1.434696763753890991e-01 1.261280924081802368e-01
2.429000000000000000e+03 2.830804061889648438e+01 1.612787818908691406e+01 -4.026823341846466064e-01 3.513144329190254211e-02 -1.102652698755264282e-01 1.945072114467620850e-01
2.430000000000000000e+03 2.711653137207031250e+01 1.575146675109863281e+01 -3.224897682666778564e-01 1.403230335563421249e-02 -9.253723919391632080e-02 2.102200388908386230e-01
2.431000000000000000e+03 1.987207794189453125e+01 1.686778259277343750e+01 -2.169151157140731812e-01 2.348625287413597107e-02 -5.802866071462631226e-02 3.221609815955162048e-02
2.432000000000000000e+03 1.302703475952148438e+01 1.455928802490234375e+01 -2.555699460208415985e-02 1.782820373773574829e-02 -2.318637212738394737e-03 1.573168858885765076e-02
2.433000000000000000e+03 1.193304824829101562e+01 1.762247467041015625e+01 -5.677957460284233093e-02 6.118180695921182632e-03 -1.519841887056827545e-02 3.678605332970619202e-02
2.434000000000000000e+03 9.386527061462402344e+00 1.693293571472167969e+01 -2.867098897695541382e-02 -4.747536964714527130e-03 -1.002555806189775467e-02 2.256636135280132294e-02
2.435000000000000000e+03 7.003819942474365234e+00 1.699057388305664062e+01 -1.652821153402328491e-02 -1.510534062981605530e-02 -9.490065276622772217e-03 1.654044725000858307e-02
2.436000000000000000e+03 5.917152881622314453e+00 1.725870704650878906e+01 -1.255785860121250153e-02 -2.072201482951641083e-02 -9.983962401747703552e-03 1.432480476796627045e-02
2.437000000000000000e+03 4.241034030914306641e+00 1.648834609985351562e+01 -4.960229154676198959e-03 -2.099346369504928589e-02 -7.786108180880546570e-03 6.647389382123947144e-03
2.438000000000000000e+03 2.648303270339965820e+00 1.676970100402832031e+01 -2.341046463698148727e-03 -2.163257822394371033e-02 -7.192087359726428986e-03 3.947048448026180267e-03
2.439000000000000000e+03 2.456113338470458984e+00 1.467657566070556641e+01 -1.215959782712161541e-04 -1.825023256242275238e-02 -5.511548370122909546e-03 1.551263500005006790e-03
2.440000000000000000e+03 5.913248062133789062e+00 1.499437618255615234e+01 -4.226367920637130737e-03 -1.504254713654518127e-02 -5.780674517154693604e-03 7.071030326187610626e-03
2.441000000000000000e+03 8.560746192932128906e+00 1.511039733886718750e+01 -1.355319004505872726e-02 -3.853979986160993576e-03 -5.222151055932044983e-03 1.141851022839546204e-02
2.442000000000000000e+03 1.450641536712646484e+01 1.269167518615722656e+01 1.518710330128669739e-02 2.317976206541061401e-02 1.151005923748016357e-02 1.996851526200771332e-02
2.443000000000000000e+03 1.463686466217041016e+01 1.383294105529785156e+01 -1.031829044222831726e-02 2.161679230630397797e-02 3.389550838619470596e-03 1.474946830421686172e-02
2.444000000000000000e+03 2.713631439208984375e+01 1.370319652557373047e+01 -1.230230107903480530e-01 -3.191096708178520203e-02 -4.648019373416900635e-02 5.289950221776962280e-02
2.445000000000000000e+03 2.913363075256347656e+01 1.414646053314208984e+01 -2.977660298347473145e-01 -6.346279405988752842e-04 -8.952020108699798584e-02 4.464228823781013489e-02
2.446000000000000000e+03 3.233361053466796875e+01 1.462617301940917969e+01 -6.942916512489318848e-01 4.297334235161542892e-03 -2.069982886314392090e-01 6.964912265539169312e-02
2.447000000000000000e+03 3.703582382202148438e+01 1.426844120025634766e+01 -8.870394229888916016e-01 2.612028270959854126e-02 -2.582757472991943359e-01 2.028168141841888428e-01
2.448000000000000000e+03 3.943691635131835938e+01 1.347873497009277344e+01 -5.786923766136169434e-01 1.106948032975196838e-01 -1.403992623090744019e-01 1.070830225944519043e-01
2.449000000000000000e+03 4.069811630249023438e+01 1.316007995605468750e+01 -5.439847111701965332e-01 1.188680753111839294e-01 -1.275349855422973633e-01 3.363163769245147705e-02
2.450000000000000000e+03 4.349676895141601562e+01 1.349763298034667969e+01 -6.939027905464172363e-01 6.626706570386886597e-02 -1.882907152175903320e-01 -1.976377516984939575e-01
2.451000000000000000e+03 4.634863662719726562e+01 1.413453292846679688e+01 -8.928526043891906738e-01 -3.526297509670257568e-01 -3.736447095870971680e-01 -5.649167895317077637e-01
2.452000000000000000e+03 7.360517883300781250e+01 1.882808303833007812e+01 1.292522251605987549e-01 6.685866355895996094e+00 2.044535636901855469e+00 8.127601742744445801e-01
2.453000000000000000e+03 6.970535278320312500e+01 1.790872192382812500e+01 -2.539191544055938721e-01 7.968995571136474609e+00 2.314522981643676758e+00 8.810157775878906250e-01
2.454000000000000000e+03 6.816356658935546875e+01 1.729721260070800781e+01 -6.925783157348632812e-01 8.903795242309570312e+00 2.463365077972412109e+00 3.653696179389953613e-01
2.455000000000000000e+03 6.658003234863281250e+01 1.816954040527343750e+01 -1.126200318336486816e+00 8.071761131286621094e+00 2.083668231964111328e+00 -8.562689423561096191e-01
2.456000000000000000e+03 6.377896881103515625e+01 1.697704315185546875e+01 -1.513271182775497437e-01 4.785550594329833984e+00 1.390267014503479004e+00 -2.863826990127563477e+00
2.457000000000000000e+03 6.187620544433593750e+01 1.792162704467773438e+01 1.804737299680709839e-01 2.729111909866333008e+00 8.728756904602050781e-01 -1.812424778938293457e+00
2.458000000000000000e+03 5.906192016601562500e+01 1.754600906372070312e+01 -1.661899983882904053e-01 1.184909701347351074e+00 3.056159019470214844e-01 -6.683679223060607910e-01
2.459000000000000000e+03 5.732483673095703125e+01 1.674378395080566406e+01 -5.262393355369567871e-01 8.329828977584838867e-01 9.202305972576141357e-02 -2.026941031217575073e-01
2.460000000000000000e+03 5.532497787475585938e+01 1.678851699829101562e+01 -8.945297002792358398e-01 5.792250633239746094e-01 -9.459139406681060791e-02 3.072753362357616425e-02
2.461000000000000000e+03 5.325927734375000000e+01 1.791277503967285156e+01 -9.493612051010131836e-01 3.641470968723297119e-01 -1.755642294883728027e-01 -8.548859506845474243e-02
2.462000000000000000e+03 5.110222625732421875e+01 1.807163047790527344e+01 -1.043117761611938477e+00 -1.720819622278213501e-01 -3.645599484443664551e-01 -9.121137112379074097e-02
2.463000000000000000e+03 5.011494827270507812e+01 1.735768127441406250e+01 -1.363661527633666992e+00 -5.934218764305114746e-01 -5.871250033378601074e-01 -8.952392265200614929e-03
2.464000000000000000e+03 4.784130477905273438e+01 1.747522926330566406e+01 -1.351617455482482910e+00 -6.243922114372253418e-01 -5.928029417991638184e-01 4.186855852603912354e-01
2.465000000000000000e+03 4.112144470214843750e+01 1.760311508178710938e+01 -8.770827054977416992e-01 1.903845071792602539e-01 -2.060094624757766724e-01 2.212221473455429077e-01
2.466000000000000000e+03 3.770314788818359375e+01 1.821468734741210938e+01 -6.539987325668334961e-01 3.343886882066726685e-02 -1.861679553985595703e-01 1.819860637187957764e-01
2.467000000000000000e+03 3.604071807861328125e+01 1.809068870544433594e+01 -5.775249600410461426e-01 -7.242269068956375122e-02 -1.949843019247055054e-01 1.891658753156661987e-01
2.468000000000000000e+03 3.378532409667968750e+01 1.781333923339843750e+01 -5.346942543983459473e-01 -1.156925112009048462e-01 -1.951160281896591187e-01 2.479246407747268677e-01
2.469000000000000000e+03 3.291633224487304688e+01 1.704972457885742188e+01 -5.790737867355346680e-01 -9.070017188787460327e-02 -2.009321749210357666e-01 2.505760788917541504e-01
2.470000000000000000e+03 3.055916595458984375e+01 1.752024841308593750e+01 -4.941316246986389160e-01 1.169970817863941193e-02 -1.447295844554901123e-01 2.442697435617446899e-01
2.471000000000000000e+03 2.754822349548339844e+01 1.805416297912597656e+01 -4.305928647518157959e-01 1.362851727753877640e-02 -1.250893026590347290e-01 1.954117864370346069e-01
2.472000000000000000e+03 2.756978034973144531e+01 1.743020439147949219e+01 -4.355372190475463867e-01 2.470493502914905548e-02 -1.232496798038482666e-01 1.830716431140899658e-01
2.473000000000000000e+03 2.518022155761718750e+01 1.722044563293457031e+01 -4.771362841129302979e-01 -7.677336037158966064e-02 -1.661728918552398682e-01 5.776251479983329773e-02
2.474000000000000000e+03 2.326345825195312500e+01 1.672955322265625000e+01 -7.016962170600891113e-01 -9.524741768836975098e-02 -2.390830963850021362e-01 3.677446022629737854e-02
2.475000000000000000e+03 2.084803962707519531e+01 1.648041534423828125e+01 -2.522622942924499512e-01 1.110244169831275940e-02 -7.234795391559600830e-02 -2.586164628155529499e-04
2.476000000000000000e+03 1.919047927856445312e+01 1.833734321594238281e+01 -2.204342484474182129e-01 2.141156420111656189e-02 -5.970680341124534607e-02 9.647969156503677368e-02
2.477000000000000000e+03 1.859050941467285156e+01 1.795856285095214844e+01 -1.844588220119476318e-01 2.612092532217502594e-02 -4.750137031078338623e-02 7.476406544446945190e-02
2.478000000000000000e+03 1.662539482116699219e+01 1.802075004577636719e+01 -1.322042942047119141e-01 2.440112270414829254e-02 -3.234095126390457153e-02 6.202432885766029358e-02
2.479000000000000000e+03 1.032479667663574219e+01 1.942733764648437500e+01 -4.706867039203643799e-02 -1.133782323449850082e-02 -1.752194762229919434e-02 4.722251743078231812e-02
2.480000000000000000e+03 1.112962055206298828e+01 1.876226806640625000e+01 -5.327347293496131897e-02 -2.895076991990208626e-03 -1.685056462883949280e-02 4.426047578454017639e-02
2.481000000000000000e+03 7.635382175445556641e+00 1.813793373107910156e+01 -2.282705716788768768e-02 -1.675254665315151215e-02 -1.187388133257627487e-02 2.410627901554107666e-02
2.482000000000000000e+03 5.775832176208496094e+00 1.875898933410644531e+01 -1.493823807686567307e-02 -2.492960169911384583e-02 -1.196035183966159821e-02 2.080940455198287964e-02
2.483000000000000000e+03 4.014858245849609375e+00 1.850347518920898438e+01 -7.429826539009809494e-03 -2.630485966801643372e-02 -1.012040581554174423e-02 1.191632635891437531e-02
2.484000000000000000e+03 7.607669830322265625e+01 2.061802673339843750e+01 -2.692118287086486816e-02 6.507064342498779297e+00 1.944043040275573730e+00 5.542924404144287109e-01
2.485000000000000000e+03 7.094625091552734375e+01 2.201225280761718750e+01 -5.403611660003662109e-01 6.925363540649414062e+00 1.915500640869140625e+00 3.270538449287414551e-01
2.486000000000000000e+03 7.418811035156250000e+01 2.074771308898925781e+01 -1.114536747336387634e-01 6.692050933837890625e+00 1.974179148674011230e+00 6.571153998374938965e-01
2.487000000000000000e+03 6.957637786865234375e+01 1.938391876220703125e+01 -5.858959555625915527e-01 7.571596622467041016e+00 2.095710277557373047e+00 4.186760485172271729e-01
2.488000000000000000e+03 6.902968597412109375e+01 1.860591506958007812e+01 -7.027627229690551758e-01 7.946270942687988281e+00 2.173052549362182617e+00 4.025186598300933838e-01
2.489000000000000000e+03 6.695384979248046875e+01 1.992960929870605469e+01 -9.141238927841186523e-01 7.159371852874755859e+00 1.873574495315551758e+00 -7.326304912567138672e-01
2.490000000000000000e+03 6.588515472412109375e+01 1.881490135192871094e+01 -9.576756358146667480e-01 7.266488552093505859e+00 1.892643928527832031e+00 -1.419767260551452637e+00
2.491000000000000000e+03 6.120742797851562500e+01 1.988616943359375000e+01 2.318461798131465912e-02 2.784992456436157227e+00 8.424531221389770508e-01 -1.486556529998779297e+00
2.492000000000000000e+03 5.952892684936523438e+01 1.862178039550781250e+01 3.180685639381408691e-02 1.654232501983642578e+00 5.058118104934692383e-01 -9.909392595291137695e-01
2.493000000000000000e+03 5.798885726928710938e+01 1.930222702026367188e+01 -3.820111230015754700e-02 1.382044792175292969e+00 4.031530916690826416e-01 -7.043251991271972656e-01
2.494000000000000000e+03 5.706499862670898438e+01 1.834628105163574219e+01 -2.863880395889282227e-01 9.900810718536376953e-01 2.111079096794128418e-01 -4.010320007801055908e-01
2.495000000000000000e+03 5.552408599853515625e+01 1.830303382873535156e+01 -5.842078924179077148e-01 7.407168745994567871e-01 4.695269465446472168e-02 -2.201022952795028687e-01
2.496000000000000000e+03 5.051690292358398438e+01 2.005127525329589844e+01 -4.801432192325592041e-01 -1.545208841562271118e-01 -1.903992295265197754e-01 -6.317468360066413879e-04
2.497000000000000000e+03 5.031808090209960938e+01 1.911900520324707031e+01 -7.336814403533935547e-01 -2.884847819805145264e-01 -3.066498637199401855e-01 -7.300076540559530258e-03
2.498000000000000000e+03 4.400994110107421875e+01 1.898867988586425781e+01 -9.119584560394287109e-01 5.794881284236907959e-02 -2.562029063701629639e-01 4.579053521156311035e-01
2.499000000000000000e+03 4.232675933837890625e+01 1.952097129821777344e+01 -7.460473775863647461e-01 1.119136959314346313e-01 -1.902401149272918701e-01 3.828887641429901123e-01
2.500000000000000000e+03 4.021334457397460938e+01 1.942574882507324219e+01 -6.711083054542541504e-01 1.127546578645706177e-01 -1.675060987472534180e-01 2.978311181068420410e-01
2.501000000000000000e+03 3.863327026367187500e+01 2.074686622619628906e+01 -4.771728813648223877e-01 3.355365619063377380e-02 -1.330857574939727783e-01 3.008159697055816650e-01
2.502000000000000000e+03 3.600700759887695312e+01 1.992317390441894531e+01 -4.515589773654937744e-01 -4.561986774206161499e-02 -1.491536498069763184e-01 2.550422549247741699e-01
2.503000000000000000e+03 3.508224487304687500e+01 1.927530097961425781e+01 -4.730551838874816895e-01 -7.252527028322219849e-02 -1.636741459369659424e-01 2.490744292736053467e-01
2.504000000000000000e+03 3.454359817504882812e+01 1.856521224975585938e+01 -4.990955889225006104e-01 -9.555012732744216919e-02 -1.783937215805053711e-01 2.419564872980117798e-01
2.505000000000000000e+03 3.309764480590820312e+01 1.876167488098144531e+01 -4.654024839401245117e-01 -7.986342161893844604e-02 -1.635797768831253052e-01 2.724033594131469727e-01
2.506000000000000000e+03 3.116456222534179688e+01 1.833230400085449219e+01 -4.645838141441345215e-01 -2.140009962022304535e-02 -1.457951813936233521e-01 2.672689855098724365e-01
2.507000000000000000e+03 2.911617279052734375e+01 2.005032730102539062e+01 -3.624934554100036621e-01 -2.260650135576725006e-02 -1.155299842357635498e-01 2.454376518726348877e-01
2.508000000000000000e+03 2.659777069091796875e+01 1.966617965698242188e+01 -3.479322195053100586e-01 -5.206954851746559143e-02 -1.200005263090133667e-01 1.866237074136734009e-01
2.509000000000000000e+03 2.588706016540527344e+01 2.026910209655761719e+01 -2.997602224349975586e-01 -8.026378601789474487e-02 -1.140071973204612732e-01 1.760868132114410400e-01
2.510000000000000000e+03 2.312554931640625000e+01 1.895826530456542969e+01 -3.182868063449859619e-01 -1.111745908856391907e-01 -1.288384199142456055e-01 1.891265213489532471e-01
2.511000000000000000e+03 2.103236389160156250e+01 1.923325538635253906e+01 -2.515894770622253418e-01 -3.442033007740974426e-02 -8.580294251441955566e-02 1.680774390697479248e-01
2.512000000000000000e+03 1.380775070190429688e+01 1.988475418090820312e+01 -8.659489452838897705e-02 1.085156342014670372e-03 -2.565292268991470337e-02 7.574113458395004272e-02
2.513000000000000000e+03 8.590723991394042969e+00 2.051177597045898438e+01 -3.418301418423652649e-02 -2.499396540224552155e-02 -1.775309443473815918e-02 4.491231963038444519e-02
2.514000000000000000e+03 8.505254745483398438e+00 2.140558815002441406e+01 -3.314850479364395142e-02 -3.046955168247222900e-02 -1.908541657030582428e-02 5.121465399861335754e-02
2.515000000000000000e+03 5.844461441040039062e+00 1.992078399658203125e+01 -1.651428081095218658e-02 -2.981689199805259705e-02 -1.389935147017240524e-02 2.650994993746280670e-02
2.516000000000000000e+03 3.727965831756591797e+00 2.050951194763183594e+01 -7.786054164171218872e-03 -3.598123788833618164e-02 -1.313018798828125000e-02 1.844607107341289520e-02
2.517000000000000000e+03 1.910328030586242676e+00 2.116147422790527344e+01 -2.395041752606630325e-03 -3.709763288497924805e-02 -1.184780243784189224e-02 1.029370073229074478e-02
2.518000000000000000e+03 7.592551422119140625e+01 2.242592811584472656e+01 -1.161833927035331726e-01 6.640738010406494141e+00 1.957366347312927246e+00 4.945293068885803223e-01
2.519000000000000000e+03 7.224854278564453125e+01 2.337970542907714844e+01 -3.991078138351440430e-01 6.720310211181640625e+00 1.896360635757446289e+00 3.564049005508422852e-01
2.520000000000000000e+03 7.001970672607421875e+01 2.204191017150878906e+01 -6.299527287483215332e-01 6.878328800201416016e+00 1.874512791633605957e+00 1.640077084302902222e-01
2.521000000000000000e+03 6.905495452880859375e+01 2.101521301269531250e+01 -7.234405875205993652e-01 7.084127902984619141e+00 1.908206224441528320e+00 3.796913847327232361e-02
2.522000000000000000e+03 6.531015777587890625e+01 2.102350997924804688e+01 -6.815537214279174805e-01 5.768950939178466797e+00 1.526219248771667480e+00 -1.267712712287902832e+00
2.523000000000000000e+03 5.779936981201171875e+01 2.190423965454101562e+01 7.755750417709350586e-02 1.714837193489074707e+00 5.377184152603149414e-01 -8.335384726524353027e-01
2.524000000000000000e+03 5.436252212524414062e+01 2.138664245605468750e+01 -1.446486413478851318e-01 7.627133727073669434e-01 1.854194104671478271e-01 -4.244131445884704590e-01
2.525000000000000000e+03 5.347938537597656250e+01 2.089200782775878906e+01 -2.833704948425292969e-01 5.274529457092285156e-01 7.322473078966140747e-02 -3.319752514362335205e-01
2.526000000000000000e+03 5.173820495605468750e+01 2.032574272155761719e+01 -4.017563164234161377e-01 1.504322886466979980e-01 -7.539720833301544189e-02 -1.573723256587982178e-01
2.527000000000000000e+03 4.983495330810546875e+01 2.145773696899414062e+01 -2.174066007137298584e-01 -4.950746521353721619e-02 -8.007422089576721191e-02 5.733495578169822693e-02
2.528000000000000000e+03 4.178501510620117188e+01 2.159803771972656250e+01 -4.778333008289337158e-01 4.527233541011810303e-02 -1.297682821750640869e-01 4.023733139038085938e-01
2.529000000000000000e+03 3.589081192016601562e+01 2.140402412414550781e+01 -3.454116582870483398e-01 -3.974717855453491211e-02 -1.155476495623588562e-01 2.967864274978637695e-01
2.530000000000000000e+03 3.540280914306640625e+01 2.011380958557128906e+01 -4.262337386608123779e-01 -5.492520704865455627e-02 -1.443476825952529907e-01 2.689241468906402588e-01
2.531000000000000000e+03 3.357572937011718750e+01 2.167700195312500000e+01 -3.003977835178375244e-01 -6.503207236528396606e-02 -1.096289604902267456e-01 3.081957101821899414e-01
2.532000000000000000e+03 3.247840499877929688e+01 2.158515548706054688e+01 -2.924626171588897705e-01 -6.319810450077056885e-02 -1.066982224583625793e-01 3.024356067180633545e-01
2.533000000000000000e+03 2.357209205627441406e+01 2.099902534484863281e+01 -2.087504565715789795e-01 -1.122928261756896973e-01 -9.631298482418060303e-02 2.062565535306930542e-01
2.534000000000000000e+03 1.930078315734863281e+01 2.158629989624023438e+01 -1.524423360824584961e-01 -3.902736678719520569e-02 -5.744091048836708069e-02 1.752889454364776611e-01
2.535000000000000000e+03 1.878089904785156250e+01 1.909042930603027344e+01 -1.879749298095703125e-01 9.294220246374607086e-03 -5.360421538352966309e-02 1.179340854287147522e-01
2.536000000000000000e+03 1.745397567749023438e+01 2.179334259033203125e+01 -1.271560490131378174e-01 -2.360083162784576416e-02 -4.522706568241119385e-02 1.475947648286819458e-01
2.537000000000000000e+03 1.536750030517578125e+01 2.105553817749023438e+01 -1.049341708421707153e-01 -9.980017319321632385e-03 -3.447425737977027893e-02 1.098910272121429443e-01
2.538000000000000000e+03 1.365115070343017578e+01 2.115487289428710938e+01 -8.074085414409637451e-02 -1.160951424390077591e-02 -2.770511060953140259e-02 9.049212187528610229e-02
2.539000000000000000e+03 1.182146358489990234e+01 2.174810028076171875e+01 -5.926106497645378113e-02 -2.207970246672630310e-02 -2.440223097801208496e-02 7.834503799676895142e-02
2.540000000000000000e+03 5.721760749816894531e+00 2.313234710693359375e+01 -1.511865481734275818e-02 -4.968446865677833557e-02 -1.944093778729438782e-02 4.123903810977935791e-02
2.541000000000000000e+03 5.720603942871093750e+00 2.222969627380371094e+01 -1.583126559853553772e-02 -4.348541423678398132e-02 -1.779500395059585571e-02 3.778560087084770203e-02
2.542000000000000000e+03 3.686088085174560547e+00 2.140402793884277344e+01 -6.884804461151361465e-03 -4.117827489972114563e-02 -1.441892422735691071e-02 2.098752930760383606e-02
2.543000000000000000e+03 1.877598285675048828e+00 2.262771415710449219e+01 -2.148889238014817238e-03 -4.585806280374526978e-02 -1.440208591520786285e-02 1.302917115390300751e-02
2.544000000000000000e+03 7.558142089843750000e+01 2.503999710083007812e+01 -1.714869439601898193e-01 6.712450504302978516e+00 1.962289094924926758e+00 3.396044373512268066e-01
2.545000000000000000e+03 7.180527496337890625e+01 2.530858421325683594e+01 -4.085196554660797119e-01 6.512733459472656250e+00 1.831264138221740723e+00 1.552510410547256470e-01
2.546000000000000000e+03 7.001972961425781250e+01 2.316698646545410156e+01 -6.057552099227905273e-01 6.680024147033691406e+00 1.822280645370483398e+00 7.116831839084625244e-02
2.547000000000000000e+03 6.803296661376953125e+01 2.328020095825195312e+01 -6.990465521812438965e-01 6.349004268646240234e+00 1.694987416267395020e+00 -3.549121618270874023e-01
2.548000000000000000e+03 6.697147369384765625e+01 2.333946609497070312e+01 -6.647968292236328125e-01 6.026912212371826172e+00 1.608634591102600098e+00 -6.184621453285217285e-01
2.549000000000000000e+03 6.586466217041015625e+01 2.339143943786621094e+01 -6.123284697532653809e-01 5.587568283081054688e+00 1.492571949958801270e+00 -8.421036601066589355e-01
2.550000000000000000e+03 6.251241683959960938e+01 2.326715660095214844e+01 -1.882109791040420532e-01 3.912203788757324219e+00 1.117197871208190918e+00 -1.251615881919860840e+00
2.551000000000000000e+03 6.032923507690429688e+01 2.361547660827636719e+01 3.234193101525306702e-02 2.890624761581420898e+00 8.768900036811828613e-01 -1.051354527473449707e+00
2.552000000000000000e+03 5.911315917968750000e+01 2.410002517700195312e+01 9.486531466245651245e-02 2.405171394348144531e+00 7.500110268592834473e-01 -9.402524232864379883e-01
2.553000000000000000e+03 5.766185760498046875e+01 2.432425498962402344e+01 1.772328615188598633e-01 1.941120862960815430e+00 6.355060935020446777e-01 -8.067983388900756836e-01
2.554000000000000000e+03 5.551277542114257812e+01 2.366926002502441406e+01 1.350429356098175049e-01 1.255881667137145996e+00 4.172773659229278564e-01 -5.925458669662475586e-01
2.555000000000000000e+03 5.377785491943359375e+01 2.348132324218750000e+01 1.104817986488342285e-01 8.247751593589782715e-01 2.805770933628082275e-01 -4.085824787616729736e-01
2.556000000000000000e+03 5.230112075805664062e+01 2.363574218750000000e+01 1.185787171125411987e-01 5.964004993438720703e-01 2.144937664270401001e-01 -2.727101743221282959e-01
2.557000000000000000e+03 4.961148834228515625e+01 2.281261825561523438e+01 -2.929935604333877563e-02 9.815564006567001343e-02 2.065688557922840118e-02 2.522284910082817078e-02
2.558000000000000000e+03 4.237025451660156250e+01 2.360348320007324219e+01 -1.616856008768081665e-01 3.226747503504157066e-03 -4.753765463829040527e-02 3.959508836269378662e-01
2.559000000000000000e+03 4.115399169921875000e+01 2.356545257568359375e+01 -2.104369103908538818e-01 9.299330413341522217e-03 -6.034127250313758850e-02 3.918558657169342041e-01
2.560000000000000000e+03 3.911964416503906250e+01 2.367634963989257812e+01 -1.896339654922485352e-01 -6.027441006153821945e-03 -5.869842320680618286e-02 3.665011823177337646e-01
2.561000000000000000e+03 3.745616149902343750e+01 2.282343673706054688e+01 -2.690372765064239502e-01 -1.647766679525375366e-02 -8.565448224544525146e-02 3.402678370475769043e-01
2.562000000000000000e+03 3.609384918212890625e+01 2.456829643249511719e+01 -1.088270097970962524e-01 -5.320857465267181396e-02 -4.861067607998847961e-02 3.344447612762451172e-01
2.563000000000000000e+03 3.324370956420898438e+01 2.419336891174316406e+01 -1.310872584581375122e-01 -7.708692550659179688e-02 -6.245225667953491211e-02 3.171641826629638672e-01
2.564000000000000000e+03 2.977560997009277344e+01 2.486429786682128906e+01 -8.652845770120620728e-02 -1.027240604162216187e-01 -5.677575618028640747e-02 2.878663241863250732e-01
2.565000000000000000e+03 2.886364555358886719e+01 2.396478080749511719e+01 -1.421698927879333496e-01 -9.368685632944107056e-02 -7.075702399015426636e-02 2.688156068325042725e-01
2.566000000000000000e+03 2.580296897888183594e+01 2.418160820007324219e+01 -1.101975515484809875e-01 -1.139424145221710205e-01 -6.724198907613754272e-02 2.401412129402160645e-01
2.567000000000000000e+03 2.307073402404785156e+01 2.383479881286621094e+01 -1.073657423257827759e-01 -1.121439337730407715e-01 -6.585290282964706421e-02 2.243367433547973633e-01
2.568000000000000000e+03 2.146833801269531250e+01 2.427952194213867188e+01 -8.904557675123214722e-02 -9.853333979845046997e-02 -5.627367645502090454e-02 2.156244963407516479e-01
2.569000000000000000e+03 1.556403541564941406e+01 2.261010742187500000e+01 -9.179772436618804932e-02 -2.797679603099822998e-02 -3.593235835433006287e-02 1.312572211027145386e-01
2.570000000000000000e+03 1.504176330566406250e+01 2.212574386596679688e+01 -8.959700167179107666e-02 -2.291463874280452728e-02 -3.375349193811416626e-02 1.181565076112747192e-01
2.571000000000000000e+03 1.295777225494384766e+01 2.326292991638183594e+01 -6.089961156249046326e-02 -3.459489345550537109e-02 -2.864835038781166077e-02 1.052478626370429993e-01
2.572000000000000000e+03 1.151763153076171875e+01 2.390483665466308594e+01 -4.348488524556159973e-02 -4.450275003910064697e-02 -2.639629133045673370e-02 9.389279037714004517e-02
2.573000000000000000e+03 9.804652214050292969e+00 2.302164459228515625e+01 -3.773480653762817383e-02 -3.892807289958000183e-02 -2.299886383116245270e-02 7.118186354637145996e-02
2.574000000000000000e+03 5.714678764343261719e+00 2.506044387817382812e+01 -1.147822756320238113e-02 -6.437089294195175171e-02 -2.275473624467849731e-02 4.980979859828948975e-02
2.575000000000000000e+03 1.992555379867553711e+00 2.407595634460449219e+01 -2.187875332310795784e-03 -5.670158565044403076e-02 -1.766683906316757202e-02 1.656035520136356354e-02
2.576000000000000000e+03 7.155553436279296875e+01 2.728579330444335938e+01 -3.368355035781860352e-01 6.308774471282958984e+00 1.791581749916076660e+00 3.796343505382537842e-02
2.577000000000000000e+03 6.338801574707031250e+01 2.480413627624511719e+01 -2.504516541957855225e-01 4.289906501770019531e+00 1.211836457252502441e+00 -1.037547469139099121e+00
2.578000000000000000e+03 6.171009063720703125e+01 2.630142211914062500e+01 -3.987305238842964172e-02 3.600881814956665039e+00 1.068302631378173828e+00 -8.997532725334167480e-01
2.579000000000000000e+03 5.644445037841796875e+01 2.613151168823242188e+01 2.706818282604217529e-01 1.775962829589843750e+00 6.139934062957763672e-01 -6.429009437561035156e-01
2.580000000000000000e+03 3.653618621826171875e+01 2.562886238098144531e+01 -4.120715335011482239e-02 -5.407573282718658447e-02 -2.858486585319042206e-02 3.338229656219482422e-01
2.581000000000000000e+03 3.438999938964843750e+01 2.483464050292968750e+01 -8.771732449531555176e-02 -7.254990935325622559e-02 -4.808017238974571228e-02 3.265193104743957520e-01
2.582000000000000000e+03 2.802168273925781250e+01 2.601362609863281250e+01 -3.581634536385536194e-02 -1.208081915974617004e-01 -4.698736220598220825e-02 2.662634253501892090e-01
2.583000000000000000e+03 2.531931686401367188e+01 2.545797538757324219e+01 -5.509050935506820679e-02 -1.247381418943405151e-01 -5.394859611988067627e-02 2.437624782323837280e-01
2.584000000000000000e+03 2.261667633056640625e+01 2.661330986022949219e+01 -1.733824424445629120e-02 -1.262312233448028564e-01 -4.307084158062934875e-02 2.276694774627685547e-01
2.585000000000000000e+03 1.570871639251708984e+01 2.539593696594238281e+01 -5.107180401682853699e-02 -6.442673504352569580e-02 -3.464956209063529968e-02 1.507399976253509521e-01
2.586000000000000000e+03 1.322922039031982422e+01 2.537960433959960938e+01 -3.831841796636581421e-02 -6.051763147115707397e-02 -2.965081483125686646e-02 1.209924966096878052e-01
2.587000000000000000e+03 8.062894821166992188e+00 2.475930595397949219e+01 -2.143862843513488770e-02 -5.749705433845520020e-02 -2.368070557713508606e-02 6.679373979568481445e-02
2.588000000000000000e+03 3.285155773162841797e+00 2.594963455200195312e+01 -3.525164211168885231e-03 -7.449299097061157227e-02 -2.340544573962688446e-02 3.161396458745002747e-02
2.589000000000000000e+03 2.753431081771850586e+00 2.650883483886718750e+01 -2.530911937355995178e-03 -7.858452200889587402e-02 -2.433462999761104584e-02 2.816957607865333557e-02
2.590000000000000000e+03 7.484207153320312500e+01 2.831964492797851562e+01 -1.467901021242141724e-01 6.621261596679687500e+00 1.942341446876525879e+00 1.562036722898483276e-01
2.591000000000000000e+03 7.223020935058593750e+01 2.815188598632812500e+01 -2.797519862651824951e-01 6.323979377746582031e+00 1.813268184661865234e+00 6.005379930138587952e-02
2.592000000000000000e+03 7.073165130615234375e+01 2.641436004638671875e+01 -4.274826049804687500e-01 6.282664299011230469e+00 1.756554484367370605e+00 -1.966156996786594391e-03
2.593000000000000000e+03 5.558883285522460938e+01 2.707297706604003906e+01 3.316679298877716064e-01 1.585912704467773438e+00 5.752742290496826172e-01 -5.617533326148986816e-01
2.594000000000000000e+03 5.369846725463867188e+01 2.804216003417968750e+01 4.060327708721160889e-01 1.246063351631164551e+00 4.956288337707519531e-01 -3.957433402538299561e-01
2.595000000000000000e+03 2.232819557189941406e+01 2.773162460327148438e+01 1.271353289484977722e-02 -1.322744786739349365e-01 -3.586828336119651794e-02 2.184669673442840576e-01
2.596000000000000000e+03 1.296331214904785156e+01 2.667465019226074219e+01 -2.330761961638927460e-02 -7.382021844387054443e-02 -2.913835085928440094e-02 1.198805570602416992e-01
2.597000000000000000e+03 1.127309894561767578e+01 2.721189498901367188e+01 -1.613012515008449554e-02 -7.714065909385681152e-02 -2.798123471438884735e-02 1.031658276915550232e-01
2.598000000000000000e+03 9.082663536071777344e+00 2.650265312194824219e+01 -1.739298924803733826e-02 -7.130748778581619263e-02 -2.661014348268508911e-02 8.175612241029739380e-02
2.599000000000000000e+03 8.214866638183593750e+00 2.687886238098144531e+01 -1.248162239789962769e-02 -7.584937661886215210e-02 -2.649929933249950409e-02 7.501304149627685547e-02
2.600000000000000000e+03 6.186654567718505859e+00 2.690770339965820312e+01 -8.292508311569690704e-03 -7.870653271675109863e-02 -2.609971351921558380e-02 5.877990275621414185e-02
2.601000000000000000e+03 7.553639984130859375e+01 2.939908599853515625e+01 -1.161791831254959106e-01 6.695281028747558594e+00 1.973730564117431641e+00 1.243649572134017944e-01
2.602000000000000000e+03 7.248692321777343750e+01 2.920072555541992188e+01 -2.233611643314361572e-01 6.277604103088378906e+00 1.816272974014282227e+00 3.267768770456314087e-02
2.603000000000000000e+03 5.926894378662109375e+01 2.921063041687011719e+01 2.353239953517913818e-01 2.750133991241455078e+00 8.956373929977416992e-01 -6.310933828353881836e-01
2.604000000000000000e+03 5.792192077636718750e+01 3.002243614196777344e+01 3.331509828567504883e-01 2.413321018218994141e+00 8.239415884017944336e-01 -5.549607872962951660e-01
2.605000000000000000e+03 5.151584243774414062e+01 2.930236434936523438e+01 4.893059730529785156e-01 9.442150592803955078e-01 4.300563037395477295e-01 -2.083291858434677124e-01
2.606000000000000000e+03 4.611965179443359375e+01 2.953962707519531250e+01 4.518245458602905273e-01 2.965924143791198730e-01 2.245250940322875977e-01 1.281254440546035767e-01
2.607000000000000000e+03 2.129121208190917969e+01 2.930666542053222656e+01 5.198634788393974304e-02 -1.411226242780685425e-01 -2.674088254570960999e-02 2.010004222393035889e-01
2.608000000000000000e+03 1.843138504028320312e+01 2.909811210632324219e+01 2.870776504278182983e-02 -1.231042444705963135e-01 -2.831894345581531525e-02 1.746471673250198364e-01
2.609000000000000000e+03 1.047443008422851562e+01 2.814896583557128906e+01 -8.736455813050270081e-03 -8.555283397436141968e-02 -2.828678861260414124e-02 9.693698585033416748e-02
2.610000000000000000e+03 9.530735015869140625e+00 2.891710090637207031e+01 -1.728233881294727325e-03 -9.351956844329833984e-02 -2.857434004545211792e-02 8.879168331623077393e-02
2.611000000000000000e+03 5.034652233123779297e+00 2.950828742980957031e+01 -6.038165884092450142e-04 -1.014209166169166565e-01 -3.060741908848285675e-02 5.068742856383323669e-02
2.612000000000000000e+03 7.102680206298828125e+01 3.033290290832519531e+01 -2.159919887781143188e-01 5.969307899475097656e+00 1.725994825363159180e+00 -8.582244813442230225e-02
2.613000000000000000e+03 6.676961517333984375e+01 2.969087600708007812e+01 -2.235346585512161255e-01 5.094310760498046875e+00 1.461232900619506836e+00 -4.068070352077484131e-01
2.614000000000000000e+03 5.827753448486328125e+01 3.172875022888183594e+01 3.443562984466552734e-01 2.522406578063964844e+00 8.600288629531860352e-01 -4.722967743873596191e-01
2.615000000000000000e+03 4.167113876342773438e+01 3.076747131347656250e+01 3.990269899368286133e-01 7.662396878004074097e-02 1.426952928304672241e-01 2.276358902454376221e-01
2.616000000000000000e+03 3.736558532714843750e+01 3.157310485839843750e+01 3.399127721786499023e-01 -5.006832256913185120e-02 8.695333451032638550e-02 2.497195899486541748e-01
2.617000000000000000e+03 2.940956306457519531e+01 3.120477867126464844e+01 1.874337047338485718e-01 -1.549841016530990601e-01 9.734883904457092285e-03 2.375101894140243530e-01
2.618000000000000000e+03 2.793798828125000000e+01 3.052205848693847656e+01 1.582570225000381470e-01 -1.567811965942382812e-01 4.427487147040665150e-04 2.393538802862167358e-01
2.619000000000000000e+03 2.011670112609863281e+01 2.951635169982910156e+01 4.807324334979057312e-02 -1.369516104459762573e-01 -2.666350826621055603e-02 1.875936537981033325e-01
2.620000000000000000e+03 1.098554611206054688e+01 3.135489463806152344e+01 1.984650455415248871e-02 -1.153212934732437134e-01 -2.864243835210800171e-02 9.506618976593017578e-02
2.621000000000000000e+03 7.621540546417236328e+00 2.972867012023925781e+01 1.462959451600909233e-03 -1.003759875893592834e-01 -2.967390790581703186e-02 7.220563292503356934e-02
2.622000000000000000e+03 6.127173423767089844e+00 3.021262550354003906e+01 1.910717808641493320e-03 -1.059459447860717773e-01 -3.121056780219078064e-02 6.061156466603279114e-02
2.623000000000000000e+03 4.116999149322509766e+00 2.957854270935058594e+01 4.255636667949147522e-05 -1.045620143413543701e-01 -3.135583922266960144e-02 4.377551376819610596e-02
2.624000000000000000e+03 2.223851203918457031e+00 2.988121223449707031e+01 2.428105362923815846e-04 -1.122405380010604858e-01 -3.359931707382202148e-02 2.520520053803920746e-02
2.625000000000000000e+03 7.190409851074218750e+01 3.228454971313476562e+01 -1.176711097359657288e-01 6.018942356109619141e+00 1.770381331443786621e+00 -6.092278286814689636e-02
2.626000000000000000e+03 6.665807342529296875e+01 3.232466506958007812e+01 -7.639333605766296387e-02 4.915902137756347656e+00 1.451852679252624512e+00 -3.168455958366394043e-01
2.627000000000000000e+03 6.095336914062500000e+01 3.261928558349609375e+01 2.270157486200332642e-01 3.281674146652221680e+00 1.052606940269470215e+00 -4.552515149116516113e-01
2.628000000000000000e+03 5.420578002929687500e+01 3.228138351440429688e+01 5.213920474052429199e-01 1.609190702438354492e+00 6.391748189926147461e-01 -3.187580704689025879e-01
2.629000000000000000e+03 4.797520065307617188e+01 3.197421836853027344e+01 5.695893764495849609e-01 6.022232770919799805e-01 3.515438139438629150e-01 3.020029282197356224e-03
2.630000000000000000e+03 3.200578308105468750e+01 3.251872634887695312e+01 2.869794368743896484e-01 -1.436915397644042969e-01 4.298637062311172485e-02 2.281502485275268555e-01
2.631000000000000000e+03 2.952940177917480469e+01 3.364424514770507812e+01 2.819820344448089600e-01 -1.698703467845916748e-01 3.363350406289100647e-02 2.016331702470779419e-01
2.632000000000000000e+03 9.535922050476074219e+00 3.216088867187500000e+01 1.808043569326400757e-02 -1.189143508672714233e-01 -3.025017306208610535e-02 8.097543567419052124e-02
2.633000000000000000e+03 2.282928228378295898e+00 3.153193664550781250e+01 8.616985287517309189e-04 -1.278341710567474365e-01 -3.809174150228500366e-02 2.515127696096897125e-02
2.634000000000000000e+03 1.346273899078369141e+00 3.156430053710937500e+01 4.829786194022744894e-04 -1.325710862874984741e-01 -3.962643072009086609e-02 1.522132474929094315e-02
2.635000000000000000e+03 6.971842956542968750e+01 3.387913131713867188e+01 -6.122069805860519409e-02 5.512061595916748047e+00 1.635252356529235840e+00 -1.622877568006515503e-01
2.636000000000000000e+03 5.377162551879882812e+01 3.475078964233398438e+01 5.778107643127441406e-01 1.632743954658508301e+00 6.631664037704467773e-01 -2.296214103698730469e-01
2.637000000000000000e+03 4.947761535644531250e+01 3.337152099609375000e+01 6.194450855255126953e-01 8.432976603507995605e-01 4.388228058815002441e-01 -6.894528120756149292e-02
2.638000000000000000e+03 4.829926967620849609e+00 3.387484741210937500e+01 9.694531559944152832e-03 -1.375761777162551880e-01 -3.836449608206748962e-02 4.260567575693130493e-02
2.639000000000000000e+03 2.183465957641601562e+00 3.319419479370117188e+01 2.063343767076730728e-03 -1.444835662841796875e-01 -4.272606596350669861e-02 2.220421656966209412e-02
2.640000000000000000e+03 1.288240909576416016e+00 3.317797470092773438e+01 8.351460564881563187e-04 -1.493906825780868530e-01 -4.456666111946105957e-02 1.334251556545495987e-02
2.641000000000000000e+03 8.659305572509765625e+00 3.645573043823242188e+01 3.512135148048400879e-02 -1.453788280487060547e-01 -3.307723999023437500e-02 5.199826136231422424e-02
2.642000000000000000e+03 4.105784296989440918e-01 3.402019882202148438e+01 5.366694531403481960e-04 -1.643294543027877808e-01 -4.913783445954322815e-02 4.113658796995878220e-03
2.643000000000000000e+03 6.082529449462890625e+01 3.909472274780273438e+01 3.609271049499511719e-01 3.271074771881103516e+00 1.089600563049316406e+00 -1.379302293062210083e-01
2.644000000000000000e+03 4.780315017700195312e+01 3.574885177612304688e+01 6.852555871009826660e-01 7.394656538963317871e-01 4.274163842201232910e-01 7.122547831386327744e-04
2.645000000000000000e+03 1.754818725585937500e+01 3.643781280517578125e+01 1.320649087429046631e-01 -1.744971275329589844e-01 -1.272966433316469193e-02 9.184710681438446045e-02
2.646000000000000000e+03 4.941264152526855469e+00 3.819797134399414062e+01 1.359621807932853699e-02 -1.616915911436080933e-01 -4.442861303687095642e-02 2.297701872885227203e-02
2.647000000000000000e+03 2.733200311660766602e+00 3.729740905761718750e+01 3.522467566654086113e-03 -1.699179410934448242e-01 -4.991864413022994995e-02 1.669072546064853668e-02
2.648000000000000000e+03 1.506223320960998535e+00 3.696931838989257812e+01 7.303118472918868065e-04 -1.780325323343276978e-01 -5.319066718220710754e-02 1.037042867392301559e-02
2.649000000000000000e+03 2.978908538818359375e+00 3.896139526367187500e+01 4.322304390370845795e-03 -1.745154112577438354e-01 -5.105793476104736328e-02 1.273691188544034958e-02
2.650000000000000000e+03 1.764874219894409180e+00 3.870743942260742188e+01 1.305715297348797321e-03 -1.848812848329544067e-01 -5.507266893982887268e-02 9.311798959970474243e-03
2.651000000000000000e+03 7.129579162597656250e+01 3.863578414916992188e+01 1.525824982672929764e-02 5.761466979980468750e+00 1.733017563819885254e+00 -6.415183097124099731e-02
2.652000000000000000e+03 2.785390090942382812e+01 4.066216659545898438e+01 3.546476066112518311e-01 -1.997008174657821655e-01 4.648403450846672058e-02 4.324446618556976318e-02
2.653000000000000000e+03 2.877569675445556641e+00 4.064913940429687500e+01 6.164159625768661499e-03 -1.794441044330596924e-01 -5.198398232460021973e-02 6.687863729894161224e-03
2.654000000000000000e+03 1.456842064857482910e+00 4.030381393432617188e+01 2.223386662080883980e-03 -1.939055025577545166e-01 -5.750463530421257019e-02 5.149406846612691879e-03
2.655000000000000000e+03 2.424080371856689453e+00 1.327227592468261719e+01 1.051556086167693138e-03 -1.682402566075325012e-02 -4.731740802526473999e-03 1.569086685776710510e-03
2.656000000000000000e+03 3.539263010025024414e+00 1.305796146392822266e+01 1.648868434131145477e-03 -1.692061312496662140e-02 -4.581523127853870392e-03 2.936857286840677261e-03
2.657000000000000000e+03 5.479617118835449219e+00 1.305611705780029297e+01 1.674491330049932003e-03 -1.465593464672565460e-02 -3.894433146342635155e-03 3.929516766220331192e-03
2.658000000000000000e+03 7.725125789642333984e+00 1.296319007873535156e+01 1.410201773978769779e-03 -8.186385035514831543e-03 -2.032855059951543808e-03 4.723564255982637405e-03
2.659000000000000000e+03 1.015801239013671875e+01 1.408018302917480469e+01 -9.782382287085056305e-03 3.666691249236464500e-03 -1.834707451052963734e-03 9.522507898509502411e-03
2.660000000000000000e+03 1.183252811431884766e+01 1.343717861175537109e+01 -6.328307557851076126e-03 1.452485285699367523e-02 2.458963543176651001e-03 1.221707742661237717e-02
2.661000000000000000e+03 1.353198719024658203e+01 1.391089725494384766e+01 -1.258081570267677307e-02 1.952426135540008545e-02 2.083034021779894829e-03 1.396781671792268753e-02
2.662000000000000000e+03 1.866982102394104004e+00 1.166393566131591797e+01 1.247974229045212269e-03 -1.479996461421251297e-02 -4.065596964210271835e-03 2.354630036279559135e-03
2.663000000000000000e+03 3.821888208389282227e+00 1.146889591217041016e+01 4.144394304603338242e-03 -1.365715265274047852e-02 -2.853827551007270813e-03 4.861133638769388199e-03
2.664000000000000000e+03 6.110654830932617188e+00 1.125266265869140625e+01 9.574746713042259216e-03 -1.262242626398801804e-02 -9.143038187175989151e-04 5.738053936511278152e-03
2.665000000000000000e+03 8.328657150268554688e+00 1.090050792694091797e+01 1.241153478622436523e-02 -3.719714935868978500e-03 2.607546048238873482e-03 5.174445919692516327e-03
2.666000000000000000e+03 9.698679924011230469e+00 1.137190723419189453e+01 1.153959985822439194e-02 8.164274506270885468e-03 5.911162588745355606e-03 8.085072040557861328e-03
2.667000000000000000e+03 1.176294708251953125e+01 1.230733489990234375e+01 6.829103454947471619e-03 1.744461990892887115e-02 7.282116916030645370e-03 1.359670981764793396e-02
2.668000000000000000e+03 1.905824422836303711e+00 1.003641510009765625e+01 1.420718152076005936e-03 -1.212228182703256607e-02 -3.210469149053096771e-03 4.315969999879598618e-03
2.669000000000000000e+03 5.521419525146484375e+00 9.780671119689941406e+00 8.945000357925891876e-03 -1.316964533179998398e-02 -1.267393352463841438e-03 9.545297361910343170e-03
2.670000000000000000e+03 9.865797042846679688e+00 9.794476509094238281e+00 1.623832620680332184e-02 1.421451848000288010e-02 9.135853499174118042e-03 8.788949809968471527e-03
2.671000000000000000e+03 1.954812169075012207e+00 8.425641059875488281e+00 4.156391660217195749e-04 -8.065907284617424011e-03 -2.295080572366714478e-03 5.466777365654706955e-03
2.672000000000000000e+03 4.157960414886474609e+00 8.139355659484863281e+00 1.181312487460672855e-03 -8.606433868408203125e-03 -2.227536402642726898e-03 1.188804022967815399e-02
2.673000000000000000e+03 5.470901966094970703e+00 8.226168632507324219e+00 3.516650293022394180e-03 -8.900986053049564362e-03 -1.615300541743636131e-03 1.588481105864048004e-02
2.674000000000000000e+03 8.025426864624023438e+00 8.099208831787109375e+00 2.308641746640205383e-02 -1.137783285230398178e-02 3.512575291097164154e-03 9.184168651700019836e-03
2.675000000000000000e+03 9.011215209960937500e+00 8.622457504272460938e+00 2.123021148145198822e-02 5.819538142532110214e-03 8.114924654364585876e-03 6.450837478041648865e-03
2.676000000000000000e+03 2.609255313873291016e+00 6.798597335815429688e+00 -3.105080919340252876e-03 -4.895921330899000168e-03 -2.400300698354840279e-03 6.135308649390935898e-03
2.677000000000000000e+03 4.195309162139892578e+00 6.267412662506103516e+00 -4.642690066248178482e-03 -3.411835059523582458e-03 -2.416357630863785744e-03 1.032237429171800613e-02
2.678000000000000000e+03 2.862944364547729492e+00 4.550714969635009766e+00 -5.020518321543931961e-03 -1.350708655081689358e-03 -1.911368104629218578e-03 2.264681970700621605e-03
2.679000000000000000e+03 2.460934257507324219e+01 1.094500827789306641e+01 -2.166992798447608948e-02 4.140708222985267639e-02 5.921145901083946228e-03 -3.656164975836873055e-03
2.680000000000000000e+03 2.602556228637695312e+01 9.326693534851074219e+00 -6.068474054336547852e-02 -4.214750975370407104e-02 -3.084967471659183502e-02 -5.527095496654510498e-02
2.681000000000000000e+03 2.779288673400878906e+01 1.005721282958984375e+01 -7.521156221628189087e-02 -7.193161547183990479e-02 -4.414295032620429993e-02 -7.169655710458755493e-02
2.682000000000000000e+03 1.913552474975585938e+01 7.439399242401123047e+00 -1.093949843198060989e-02 4.340589046478271484e-03 -1.979672815650701523e-03 -4.368217661976814270e-03
2.683000000000000000e+03 1.917735099792480469e+01 8.354724884033203125e+00 7.495047524571418762e-03 1.106631848961114883e-02 5.568409804254770279e-03 8.908319287002086639e-03
2.684000000000000000e+03 2.019342231750488281e+01 8.343537330627441406e+00 -5.636080168187618256e-03 1.516168843954801559e-02 2.857682527974247932e-03 2.114528790116310120e-03
2.685000000000000000e+03 1.974812507629394531e+01 6.735840320587158203e+00 -3.257162496447563171e-02 3.387631615623831749e-03 -8.755197748541831970e-03 -1.500622369349002838e-02
2.686000000000000000e+03 2.321804618835449219e+01 7.749434471130371094e+00 -4.856523126363754272e-02 5.572993773967027664e-03 -1.289767120033502579e-02 -2.163539081811904907e-02
2.687000000000000000e+03 2.275000572204589844e+01 6.590775966644287109e+00 -4.764726758003234863e-02 3.476513084024190903e-03 -1.325122639536857605e-02 -2.797562815248966217e-02
2.688000000000000000e+03 3.190013885498046875e+01 3.889113664627075195e-01 -1.444901108741760254e+00 -4.880815744400024414e-01 -5.798947811126708984e-01 -8.924754261970520020e-01
2.689000000000000000e+03 5.008173751831054688e+01 -4.377407073974609375e+00 2.710706181824207306e-02 -1.371048856526613235e-02 4.018971696496009827e-03 -4.267118871212005615e-02
2.690000000000000000e+03 5.002782440185546875e+01 -1.499517250061035156e+01 -9.074344485998153687e-02 9.910917282104492188e-02 2.509718528017401695e-03 1.075376477092504501e-02
2.691000000000000000e+03 7.231986999511718750e+01 -7.967641353607177734e+00 1.076490402221679688e+00 9.660137176513671875e+00 3.220988273620605469e+00 -1.502101063728332520e+00
2.692000000000000000e+03 5.291959762573242188e+01 -4.334382116794586182e-01 -1.049550652503967285e+00 4.434124380350112915e-02 -3.015628159046173096e-01 -3.810439407825469971e-01
2.693000000000000000e+03 3.537205505371093750e+01 -3.346642732620239258e+00 6.354166865348815918e-01 1.104873418807983398e+00 5.220870375633239746e-01 -9.082121849060058594e-01
2.694000000000000000e+03 3.638430404663085938e+01 -4.643228054046630859e+00 7.120190858840942383e-01 1.247048974037170410e+00 5.877203941345214844e-01 -9.679754972457885742e-01
2.695000000000000000e+03 3.772026062011718750e+01 -6.657667160034179688e+00 4.812813401222229004e-01 6.665978431701660156e-01 3.443637490272521973e-01 -5.578957200050354004e-01
2.696000000000000000e+03 3.899871063232421875e+01 -8.714663505554199219e+00 1.944266408681869507e-01 2.606815695762634277e-01 1.365324705839157104e-01 -2.350817918777465820e-01
2.697000000000000000e+03 4.042668533325195312e+01 -1.167209625244140625e+01 2.438000775873661041e-02 -1.070223748683929443e-01 -2.479271031916141510e-02 -1.011795923113822937e-02
2.698000000000000000e+03 4.072959899902343750e+01 -1.328481292724609375e+01 -1.018417533487081528e-02 -2.716124951839447021e-01 -8.453900367021560669e-02 -8.753723464906215668e-03
2.699000000000000000e+03 3.699327850341796875e+01 -1.435953426361083984e+01 -7.848953455686569214e-02 9.107795357704162598e-02 3.776526078581809998e-03 -5.311462283134460449e-02
2.700000000000000000e+03 3.639360427856445312e+01 -1.380998706817626953e+01 3.231824934482574463e-02 1.876625120639801025e-01 6.599423289299011230e-02 -8.579534292221069336e-02
2.701000000000000000e+03 3.522761535644531250e+01 -1.261040019989013672e+01 1.342667639255523682e-01 3.185574412345886230e-01 1.358472704887390137e-01 -2.142674624919891357e-01
2.702000000000000000e+03 3.365378189086914062e+01 -1.075320529937744141e+01 3.458039164543151855e-01 7.388131618499755859e-01 3.253851234912872314e-01 -4.708582460880279541e-01
2.703000000000000000e+03 3.162842941284179688e+01 -9.086349487304687500e+00 1.315575689077377319e-01 8.587701916694641113e-01 2.970983386039733887e-01 -3.207578659057617188e-01
2.704000000000000000e+03 3.193571281433105469e+01 -7.972456932067871094e+00 2.934412956237792969e-01 1.206137299537658691e+00 4.498735666275024414e-01 -5.701721310615539551e-01
2.705000000000000000e+03 4.835567474365234375e+01 -3.428153038024902344e+00 -2.177827060222625732e-01 5.075650289654731750e-03 -6.381211429834365845e-02 -8.154454990290105343e-04
2.706000000000000000e+03 4.986125564575195312e+01 -2.762443304061889648e+00 -2.886454463005065918e-01 4.172693938016891479e-02 -7.407554984092712402e-02 -8.463508635759353638e-02
2.707000000000000000e+03 5.231393814086914062e+01 -5.578897476196289062e+00 1.764854639768600464e-01 -6.141895651817321777e-01 -1.313112229108810425e-01 9.824670106172561646e-02
2.708000000000000000e+03 5.318275451660156250e+01 -7.947903633117675781e+00 -3.523629605770111084e-01 -1.165962100028991699e+00 -4.554975032806396484e-01 6.375284194946289062e-01
2.709000000000000000e+03 5.501827239990234375e+01 -9.524261474609375000e+00 -3.331241905689239502e-01 5.371044278144836426e-01 6.119406595826148987e-02 4.631846547126770020e-01
2.710000000000000000e+03 5.554667663574218750e+01 -1.309151172637939453e+01 -1.272118464112281799e-02 3.226325273513793945e+00 9.640811681747436523e-01 -1.717338860034942627e-01
2.711000000000000000e+03 5.664649581909179688e+01 -1.546032524108886719e+01 2.368995249271392822e-01 5.369105815887451172e+00 1.681801676750183105e+00 5.264060497283935547e-01
2.712000000000000000e+03 5.212718963623046875e+01 -1.732413864135742188e+01 -7.519513964653015137e-01 -3.593946695327758789e-01 -3.334038257598876953e-01 5.502060651779174805e-01
2.713000000000000000e+03 4.947342681884765625e+01 -1.444839000701904297e+01 8.478788658976554871e-04 2.071181088685989380e-01 6.238979473710060120e-02 -1.082899719476699829e-01
2.714000000000000000e+03 4.646789169311523438e+01 -1.072956562042236328e+01 3.091850876808166504e-01 8.254318237304687500e-01 3.403850793838500977e-01 -4.808368980884552002e-01
2.715000000000000000e+03 4.571171188354492188e+01 -1.215144443511962891e+01 1.135249137878417969e-01 4.913793802261352539e-01 1.814712882041931152e-01 -2.589627504348754883e-01
2.716000000000000000e+03 4.508653640747070312e+01 -6.995384693145751953e+00 5.715443566441535950e-02 5.875983834266662598e-01 1.934258490800857544e-01 -1.640418320894241333e-01
2.717000000000000000e+03 6.648616790771484375e+01 -2.957389116287231445e+00 -6.877843856811523438e+00 -2.228850841522216797e+00 -2.732008457183837891e+00 3.423585653305053711e+00
2.718000000000000000e+03 6.802709960937500000e+01 -4.642666339874267578e+00 -1.068104743957519531e+00 5.485185980796813965e-01 -1.558758467435836792e-01 2.721656560897827148e-01
2.719000000000000000e+03 6.962212371826171875e+01 -6.348015785217285156e+00 1.272315502166748047e+00 2.853261709213256836e+00 1.237673163414001465e+00 -2.016377449035644531e+00
2.720000000000000000e+03 7.066258239746093750e+01 -7.512090682983398438e+00 2.280357122421264648e+00 5.327455043792724609e+00 2.282343626022338867e+00 -3.423193693161010742e+00
2.721000000000000000e+03 7.207246398925781250e+01 -1.126892948150634766e+01 3.184261023998260498e-01 1.457798671722412109e+01 4.468923568725585938e+00 -5.179927349090576172e-01
2.722000000000000000e+03 7.206924438476562500e+01 -1.205339813232421875e+01 7.952912896871566772e-02 1.403626155853271484e+01 4.234736919403076172e+00 -1.197274401783943176e-01
2.723000000000000000e+03 7.208837890625000000e+01 -1.361046791076660156e+01 4.929522573947906494e-01 1.524102020263671875e+01 4.720191478729248047e+00 8.802389502525329590e-01
2.724000000000000000e+03 6.619737243652343750e+01 -1.273013782501220703e+01 -2.511196732521057129e-01 6.125658750534057617e-01 1.084338650107383728e-01 -4.932485893368721008e-02
2.725000000000000000e+03 6.466146087646484375e+01 -1.091871833801269531e+01 8.588751554489135742e-01 4.405566692352294922e+00 1.579332470893859863e+00 -1.853525042533874512e+00
2.726000000000000000e+03 6.396919631958007812e+01 -9.468280792236328125e+00 8.191115260124206543e-01 8.538577079772949219e+00 2.807306766510009766e+00 -2.198769330978393555e+00
2.727000000000000000e+03 6.294794082641601562e+01 -8.069053649902343750e+00 6.404698491096496582e-01 9.765572547912597656e+00 3.121812820434570312e+00 -4.373771548271179199e-01
2.728000000000000000e+03 6.343073272705078125e+01 -6.340256214141845703e+00 1.703385263681411743e-01 1.323422718048095703e+01 4.021369934082031250e+00 -4.958237707614898682e-01
2.729000000000000000e+03 6.334786224365234375e+01 -4.750713825225830078e+00 3.542483448982238770e-01 1.577342510223388672e+01 4.838302135467529297e+00 1.059762835502624512e+00
2.730000000000000000e+03 7.564221191406250000e+01 7.756460666656494141e+00 4.278815746307373047e+00 1.746474647521972656e+01 6.523068904876708984e+00 -5.865844726562500000e+00
2.731000000000000000e+03 7.594497680664062500e+01 5.853927135467529297e+00 -2.132371664047241211e-01 1.582167816162109375e+01 4.682532310485839844e+00 -8.821744322776794434e-01
2.732000000000000000e+03 7.590673065185546875e+01 4.233329772949218750e+00 5.902202129364013672e-01 1.343884086608886719e+01 4.208718299865722656e+00 -1.955775171518325806e-01
2.733000000000000000e+03 7.024132537841796875e+01 7.465326786041259766e+00 1.758812665939331055e-01 4.989982604980468750e+00 1.549759149551391602e+00 9.551017284393310547e-01
2.734000000000000000e+03 7.207299041748046875e+01 9.198236465454101562e+00 -3.195802927017211914e+00 -5.591248273849487305e-01 -1.126478314399719238e+00 -1.165504693984985352e+00
2.735000000000000000e+03 5.026150512695312500e+01 9.512034416198730469e+00 2.289284579455852509e-02 2.306749578565359116e-03 7.559878285974264145e-03 1.717822812497615814e-02
2.736000000000000000e+03 4.928443527221679688e+01 8.832666397094726562e+00 2.737722732126712799e-02 3.282434120774269104e-02 1.806046999990940094e-02 2.965437807142734528e-02
2.737000000000000000e+03 4.828952407836914062e+01 7.406800746917724609e+00 7.859905250370502472e-03 4.138994589447975159e-02 1.477495580911636353e-02 2.897125855088233948e-02
2.738000000000000000e+03 4.506750869750976562e+01 2.888235807418823242e+00 -5.831670761108398438e-01 -1.157783716917037964e-01 -2.096836417913436890e-01 -3.504073917865753174e-01
2.739000000000000000e+03 3.839694213867187500e+01 3.846331596374511719e+00 -2.929929411038756371e-03 1.464349478483200073e-01 4.305150359869003296e-02 3.322520107030868530e-02
2.740000000000000000e+03 4.124446105957031250e+01 8.646737098693847656e+00 2.979756100103259087e-03 2.171442611142992973e-04 9.590700501576066017e-04 -1.830461318604648113e-03
2.741000000000000000e+03 4.019690322875976562e+01 8.232789993286132812e+00 2.666633808985352516e-03 3.306021913886070251e-03 1.791796763427555561e-03 -2.506778575479984283e-03
2.742000000000000000e+03 3.985362625122070312e+01 9.012050628662109375e+00 5.007471423596143723e-03 3.000134136527776718e-03 2.402281621471047401e-03 4.836647713091224432e-04
2.743000000000000000e+03 3.673334884643554688e+01 9.603622436523437500e+00 4.950652830302715302e-03 4.796739201992750168e-03 2.924217609688639641e-03 -6.988988607190549374e-04
2.744000000000000000e+03 3.530587387084960938e+01 8.895501136779785156e+00 2.074103057384490967e-02 -3.906785976141691208e-03 5.050273612141609192e-03 8.833913132548332214e-03
2.745000000000000000e+03 3.218646621704101562e+01 6.477470397949218750e+00 2.147705703973770142e-01 7.414163649082183838e-02 8.667366206645965576e-02 1.262333393096923828e-01
2.746000000000000000e+03 3.036629104614257812e+01 5.025183200836181641e+00 5.180996656417846680e-01 2.198806703090667725e-01 2.213941067457199097e-01 3.427071273326873779e-01
2.747000000000000000e+03 2.616164016723632812e+01 2.253474235534667969e+00 4.842667281627655029e-01 1.773394346237182617e-01 1.984818428754806519e-01 3.191588222980499268e-01
2.748000000000000000e+03 2.490983963012695312e+01 2.326987504959106445e+00 3.506725132465362549e-01 3.163314238190650940e-02 1.146916970610618591e-01 8.776255697011947632e-02
2.749000000000000000e+03 2.469850540161132812e+01 1.959898233413696289e+00 2.329149544239044189e-01 5.604379251599311829e-02 8.668762445449829102e-02 1.150313019752502441e-01
2.750000000000000000e+03 2.603930854797363281e+01 1.759249925613403320e+00 1.863879859447479248e-01 2.251335531473159790e-01 1.234564632177352905e-01 2.773503959178924561e-01
2.751000000000000000e+03 2.621010971069335938e+01 2.602281570434570312e+00 7.092567086219787598e-01 1.159144714474678040e-01 2.475513666868209839e-01 2.650646865367889404e-01
2.752000000000000000e+03 2.335210037231445312e+01 2.106822967529296875e+00 4.293128475546836853e-02 -2.250866265967488289e-03 1.220412552356719971e-02 1.678903773427009583e-02
2.753000000000000000e+03 2.092056274414062500e+01 2.285252094268798828e+00 7.245219778269529343e-03 2.139589516445994377e-03 2.815442858263850212e-03 -8.233158150687813759e-04
2.754000000000000000e+03 1.876301002502441406e+01 2.601635217666625977e+00 -4.080919083207845688e-03 -5.910313688218593597e-03 -2.997369738295674324e-03 -2.118752337992191315e-03
2.755000000000000000e+03 1.838690376281738281e+01 2.262404441833496094e+00 -1.024111546576023102e-02 -6.793608888983726501e-03 -5.110417492687702179e-03 -6.020675413310527802e-03
2.756000000000000000e+03 1.941261863708496094e+01 1.358341932296752930e+00 -5.990447942167520523e-03 -1.176281459629535675e-02 -5.325978621840476990e-03 -3.299663309007883072e-03
2.757000000000000000e+03 2.062417793273925781e+01 2.391155958175659180e-01 -6.403362844139337540e-03 -5.445385351777076721e-03 -3.554624505341053009e-03 -6.249445723369717598e-04
2.758000000000000000e+03 2.359183120727539062e+01 -2.487935304641723633e+00 -2.390816807746887207e-02 1.136807650327682495e-01 2.693177759647369385e-02 -6.869764626026153564e-02
2.759000000000000000e+03 2.311053276062011719e+01 -2.923338890075683594e+00 6.976293772459030151e-02 1.673703044652938843e-01 7.113996893167495728e-02 -1.034003198146820068e-01
2.760000000000000000e+03 2.038104057312011719e+01 -7.397504329681396484e+00 -3.644651174545288086e-02 2.244181372225284576e-02 -4.201409872621297836e-03 1.655876077711582184e-02
2.761000000000000000e+03 1.487817001342773438e+01 -2.760694742202758789e+00 1.975189894437789917e-02 5.264459759928286076e-04 6.083503365516662598e-03 -1.354439370334148407e-02
2.762000000000000000e+03 1.422115612030029297e+01 -1.929662942886352539e+00 1.617283746600151062e-02 -3.034941619262099266e-03 3.941368777304887772e-03 -1.201934739947319031e-02
2.763000000000000000e+03 1.189492225646972656e+01 -1.967550992965698242e+00 1.445939950644969940e-02 -3.101272741332650185e-03 3.407438052818179131e-03 -3.021419048309326172e-03
2.764000000000000000e+03 7.395455360412597656e+00 -1.884678244590759277e+00 1.564350724220275879e-02 -3.239994868636131287e-03 3.721053712069988251e-03 5.270010326057672501e-03
2.765000000000000000e+03 3.381151556968688965e-01 -2.693174600601196289e+00 1.658534893067553639e-04 3.888372564688324928e-03 1.216267817653715611e-03 1.057246234267950058e-03
2.766000000000000000e+03 3.199656605720520020e-01 -1.898099899291992188e+00 1.463524240534752607e-04 1.619926071725785732e-03 5.298835458233952522e-04 7.440240005962550640e-04
2.767000000000000000e+03 4.451774358749389648e-01 -4.127668380737304688e+01 5.428245291113853455e-03 -4.497123360633850098e-01 -1.332852244377136230e-01 -1.546260085888206959e-03
2.768000000000000000e+03 5.216956734657287598e-01 -3.721519470214843750e+01 1.207984285429120064e-03 -4.201934933662414551e-01 -1.256956458091735840e-01 -4.535105079412460327e-03
2.769000000000000000e+03 1.451416015625000000e+00 -3.628150558471679688e+01 1.182958832941949368e-03 -3.860585689544677734e-01 -1.154626831412315369e-01 -1.607169210910797119e-02
2.770000000000000000e+03 1.278034806251525879e+00 -3.404791259765625000e+01 2.114614006131887436e-03 -3.630192279815673828e-01 -1.082713901996612549e-01 -1.818365603685379028e-02
2.771000000000000000e+03 1.443335056304931641e+00 -3.248599624633789062e+01 1.523952116258442402e-03 -3.366692066192626953e-01 -1.005435734987258911e-01 -2.345609664916992188e-02
2.772000000000000000e+03 1.485789775848388672e+00 -3.083304977416992188e+01 1.747098867781460285e-03 -3.088948726654052734e-01 -9.214433282613754272e-02 -2.819938026368618011e-02
2.773000000000000000e+03 1.427460432052612305e+00 -2.918913269042968750e+01 1.112830010242760181e-03 -2.792037427425384521e-01 -8.342727273702621460e-02 -3.002167306840419769e-02
2.774000000000000000e+03 1.353244066238403320e+00 -2.758044052124023438e+01 6.458406569436192513e-04 -2.477266192436218262e-01 -7.412423193454742432e-02 -3.017430007457733154e-02
2.775000000000000000e+03 1.309674382209777832e+00 -2.597553634643554688e+01 2.096971293212845922e-04 -2.139845639467239380e-01 -6.413245946168899536e-02 -3.004253841936588287e-02
2.776000000000000000e+03 1.306560516357421875e+00 -2.358063125610351562e+01 -4.268413176760077477e-04 -1.627517789602279663e-01 -4.895358532667160034e-02 -2.940690517425537109e-02
2.777000000000000000e+03 1.296290874481201172e+00 -2.198751640319824219e+01 -7.051038555800914764e-04 -1.297463625669479370e-01 -3.913543745875358582e-02 -2.803793922066688538e-02
2.778000000000000000e+03 1.254425883293151855e+00 -2.040069007873535156e+01 -9.763298439793288708e-04 -9.821970760822296143e-02 -2.975881099700927734e-02 -2.527738921344280243e-02
2.779000000000000000e+03 1.215960264205932617e+00 -1.882991790771484375e+01 -1.290405052714049816e-03 -6.911583244800567627e-02 -2.112187258899211884e-02 -2.184793725609779358e-02
2.780000000000000000e+03 1.247473001480102539e+00 -1.726995658874511719e+01 -1.399326371029019356e-03 -4.403019323945045471e-02 -1.362885627895593643e-02 -1.907455734908580780e-02
2.781000000000000000e+03 1.503293514251708984e+00 -1.567543792724609375e+01 -2.040241379290819168e-03 -2.589900605380535126e-02 -8.381774649024009705e-03 -1.840276457369327545e-02
2.782000000000000000e+03 1.119060635566711426e+00 -1.368879413604736328e+01 -2.220061840489506721e-03 -1.912745501613244414e-04 -7.234009099192917347e-04 -9.167488664388656616e-03
2.783000000000000000e+03 1.014473676681518555e+00 -1.225811100006103516e+01 -1.545140636153519154e-03 1.138054113835096359e-02 2.950620139017701149e-03 -5.025420803576707840e-03
2.784000000000000000e+03 1.117891192436218262e+00 -9.950884819030761719e+00 -9.501438471488654613e-04 1.752046309411525726e-02 4.971095360815525055e-03 -7.656028028577566147e-04
2.785000000000000000e+03 1.085845947265625000e+00 -8.386815071105957031e+00 -7.293031667359173298e-04 1.847327314317226410e-02 5.323190707713365555e-03 1.703161746263504028e-03
2.786000000000000000e+03 1.010371923446655273e+00 -6.891651153564453125e+00 -6.440340657718479633e-04 1.683870330452919006e-02 4.858401138335466385e-03 3.241879167035222054e-03
2.787000000000000000e+03 1.246385931968688965e+00 -5.446784973144531250e+00 -4.302322631701827049e-04 1.116180792450904846e-02 3.219472710043191910e-03 4.817486740648746490e-03
2.788000000000000000e+03 1.097993373870849609e+00 -3.408683538436889648e+00 9.190844721160829067e-04 6.084839813411235809e-03 2.101177349686622620e-03 4.128017928451299667e-03
2.789000000000000000e+03 7.959718322753906250e+01 4.206405258178710938e+01 1.625940762460231781e-02 7.468785762786865234e+00 2.245513677597045898e+00 -1.871524937450885773e-02
2.790000000000000000e+03 7.963908386230468750e+01 3.886647796630859375e+01 -9.801484644412994385e-03 7.494062900543212891e+00 2.245278596878051758e+00 1.745236659189686179e-04
2.791000000000000000e+03 7.955397033691406250e+01 3.741515350341796875e+01 -4.480878356844186783e-03 7.468527317047119141e+00 2.239213943481445312e+00 1.134729757905006409e-02
2.792000000000000000e+03 7.940130615234375000e+01 3.574479293823242188e+01 -4.741552751511335373e-03 7.464636802673339844e+00 2.237968444824218750e+00 2.728495746850967407e-03
2.793000000000000000e+03 7.953981018066406250e+01 3.409254455566406250e+01 -2.144041284918785095e-02 7.482379436492919922e+00 2.238281726837158203e+00 1.492907758802175522e-04
2.794000000000000000e+03 7.956164550781250000e+01 3.330477142333984375e+01 8.815243840217590332e-03 7.478535652160644531e+00 2.246205329895019531e+00 1.098476164042949677e-02
2.795000000000000000e+03 7.856047821044921875e+01 3.015530967712402344e+01 -1.785352453589439392e-02 7.224087715148925781e+00 2.161870241165161133e+00 5.231633409857749939e-02
2.796000000000000000e+03 7.873883056640625000e+01 2.853643798828125000e+01 -1.661608926951885223e-02 7.187604427337646484e+00 2.151296377182006836e+00 7.805918902158737183e-02
2.797000000000000000e+03 7.875583648681640625e+01 2.696742820739746094e+01 -1.473333872854709625e-02 7.091411590576171875e+00 2.123003482818603516e+00 1.141570806503295898e-01
2.798000000000000000e+03 7.866539764404296875e+01 2.542729568481445312e+01 -1.946894079446792603e-02 6.950421333312988281e+00 2.079285860061645508e+00 1.583192944526672363e-01
2.799000000000000000e+03 7.861977386474609375e+01 2.383149147033691406e+01 -2.132439240813255310e-02 6.770963191986083984e+00 2.024891614913940430e+00 2.066509723663330078e-01
2.800000000000000000e+03 7.954512786865234375e+01 2.209627914428710938e+01 -2.760058734565973282e-03 6.533564567565917969e+00 1.959241390228271484e+00 9.407043457031250000e-02
2.801000000000000000e+03 7.866355895996093750e+01 2.135739135742187500e+01 -7.511860691010951996e-03 6.422539710998535156e+00 1.924508333206176758e+00 2.533762454986572266e-01
2.802000000000000000e+03 7.873635101318359375e+01 1.972954177856445312e+01 7.878039032220840454e-03 6.162654399871826172e+00 1.851159691810607910e+00 2.429962158203125000e-01
2.803000000000000000e+03 7.880685424804687500e+01 1.495451545715332031e+01 2.876884303987026215e-02 5.675057411193847656e+00 1.711147904396057129e+00 2.772807143628597260e-02
2.804000000000000000e+03 7.876174163818359375e+01 1.335107231140136719e+01 -2.787876874208450317e-02 5.722163200378417969e+00 1.708285331726074219e+00 1.620890945196151733e-02
2.805000000000000000e+03 7.874966430664062500e+01 1.171851348876953125e+01 -1.320119053125381470e-01 5.791271209716796875e+00 1.697777748107910156e+00 1.908901929855346680e-01
2.806000000000000000e+03 7.956150054931640625e+01 1.003519916534423828e+01 -6.246381253004074097e-02 4.429763793945312500e+00 1.310189962387084961e+00 2.853174209594726562e-01
2.807000000000000000e+03 7.959546661376953125e+01 8.408425331115722656e+00 1.111448779702186584e-01 3.456760644912719727e+00 1.070371627807617188e+00 1.416993886232376099e-01
2.808000000000000000e+03 7.878896331787109375e+01 7.558485984802246094e+00 6.449617743492126465e-01 5.999208450317382812e+00 1.993251085281372070e+00 -4.374264180660247803e-01
2.809000000000000000e+03 7.964962768554687500e+01 4.418380260467529297e+00 -5.907401442527770996e-02 7.367794990539550781e+00 2.192616224288940430e+00 -8.044039607048034668e-01
2.810000000000000000e+03 7.882794952392578125e+01 1.190735578536987305e+00 -6.073380708694458008e-01 1.140998935699462891e+01 3.240795373916625977e+00 -7.706618905067443848e-01
2.811000000000000000e+03 7.880512237548828125e+01 -4.420307278633117676e-01 -3.768676519393920898e-01 1.152502536773681641e+01 3.344447135925292969e+00 1.909178346395492554e-01
2.812000000000000000e+03 7.964283752441406250e+01 -6.843955516815185547e+00 3.710563853383064270e-02 8.755137443542480469e+00 2.637672901153564453e+00 2.541438937187194824e-01
2.813000000000000000e+03 7.890081024169921875e+01 -7.690342903137207031e+00 1.062290742993354797e-01 8.353425979614257812e+00 2.537896394729614258e+00 6.282600164413452148e-01
2.814000000000000000e+03 7.882022857666015625e+01 -9.291982650756835938e+00 1.444188952445983887e-01 7.816411495208740234e+00 2.388249158859252930e+00 4.088066220283508301e-01
2.815000000000000000e+03 7.880652618408203125e+01 -1.091528892517089844e+01 1.609403491020202637e-01 7.547464847564697266e+00 2.312521696090698242e+00 1.061564385890960693e-01
2.816000000000000000e+03 7.959932708740234375e+01 -2.044379615783691406e+01 -1.285515446215867996e-02 9.622057914733886719e+00 2.882760763168334961e+00 -3.034820966422557831e-02
2.817000000000000000e+03 7.876180267333984375e+01 -2.122310829162597656e+01 -6.347416341304779053e-02 9.162292480468750000e+00 2.729645490646362305e+00 3.500610962510108948e-02
2.818000000000000000e+03 7.958354949951171875e+01 -2.446274948120117188e+01 -9.493607096374034882e-03 9.170661926269531250e+00 2.748350381851196289e+00 6.852117925882339478e-02
2.819000000000000000e+03 7.959177398681640625e+01 -3.413747406005859375e+01 -6.708343513309955597e-03 7.679792404174804688e+00 2.301925182342529297e+00 3.122606687247753143e-02
2.820000000000000000e+03 7.946515655517578125e+01 -4.117088317871093750e+01 -2.203093469142913818e-02 7.349180221557617188e+00 2.198144912719726562e+00 9.413641877472400665e-03
2.821000000000000000e+03 7.861027526855468750e+01 4.105414199829101562e+01 -2.313470654189586639e-02 7.244297504425048828e+00 2.166348934173583984e+00 3.453765995800495148e-03
2.822000000000000000e+03 3.213617801666259766e-01 1.891152262687683105e+00 -5.095152882859110832e-04 6.439199205487966537e-04 4.032137803733348846e-05 -1.865929516497999430e-04
2.823000000000000000e+03 1.150685548782348633e+00 3.331219673156738281e+00 4.224290023557841778e-04 3.891980450134724379e-04 2.434881171211600304e-04 -4.346056666690856218e-04
2.824000000000000000e+03 3.773747980594635010e-01 8.355093002319335938e+00 -1.070792641257867217e-04 -7.721095345914363861e-03 -2.348452340811491013e-03 1.191391376778483391e-03
2.825000000000000000e+03 1.150394916534423828e+00 9.187819480895996094e+00 4.173361812718212605e-04 -1.008635852485895157e-02 -2.900706836953759193e-03 3.186960937455296516e-03
2.826000000000000000e+03 1.041555523872375488e+00 1.550689792633056641e+01 -2.474881475791335106e-04 -1.813155971467494965e-02 -5.513714160770177841e-03 3.803821455221623182e-04
2.827000000000000000e+03 1.118061304092407227e+00 1.705494117736816406e+01 -5.735712475143373013e-04 -2.007535286247730255e-02 -6.194677203893661499e-03 1.356223132461309433e-03
2.828000000000000000e+03 1.300423979759216309e+00 1.865894508361816406e+01 -1.166530884802341461e-03 -2.438071928918361664e-02 -7.664174772799015045e-03 3.551922738552093506e-03
2.829000000000000000e+03 4.054018557071685791e-01 2.036828613281250000e+01 -1.231502537848427892e-04 -2.657387219369411469e-02 -8.009106852114200592e-03 1.791226910427212715e-03
2.830000000000000000e+03 1.123863101005554199e+00 2.269417190551757812e+01 -7.049569976516067982e-04 -4.384952411055564880e-02 -1.336634438484907150e-02 8.078858256340026855e-03
2.831000000000000000e+03 1.224718689918518066e+00 2.424944877624511719e+01 -1.012240536510944366e-03 -5.610244721174240112e-02 -1.713440567255020142e-02 1.091991178691387177e-02
2.832000000000000000e+03 1.366853833198547363e+00 2.592603302001953125e+01 -7.783228647895157337e-04 -7.196967303752899170e-02 -2.182439900934696198e-02 1.457303296774625778e-02
2.833000000000000000e+03 1.275840282440185547e+00 2.756520652770996094e+01 -1.321231829933822155e-04 -8.910309523344039917e-02 -2.677056565880775452e-02 1.444096397608518600e-02
2.834000000000000000e+03 4.308245480060577393e-01 2.921102523803710938e+01 -2.502505667507648468e-04 -1.087290048599243164e-01 -3.269377723336219788e-02 5.239359103143215179e-03
2.835000000000000000e+03 1.237594842910766602e+00 3.396300506591796875e+01 7.318685529753565788e-04 -1.571850180625915527e-01 -4.693594574928283691e-02 1.234498433768749237e-02
2.836000000000000000e+03 4.208334386348724365e-01 3.560337448120117188e+01 3.830297209788113832e-04 -1.790133863687515259e-01 -5.358910933136940002e-02 3.308274550363421440e-03
2.837000000000000000e+03 1.352822661399841309e+00 3.619959259033203125e+01 5.113158840686082840e-04 -1.752010434865951538e-01 -5.240691825747489929e-02 1.028473582118749619e-02
2.838000000000000000e+03 4.936114549636840820e-01 4.122905349731445312e+01 8.082163403742015362e-04 -2.111537158489227295e-01 -6.310364603996276855e-02 5.718233296647667885e-04
2.839000000000000000e+03 4.184134483337402344e+00 1.850684642791748047e+00 9.698087233118712902e-04 3.021039301529526711e-04 3.815738018602132797e-04 -6.418648408725857735e-04
2.840000000000000000e+03 3.515486240386962891e+00 1.845241785049438477e+00 -2.014674246311187744e-04 -1.357517088763415813e-03 -4.676953540183603764e-04 -4.595923819579184055e-04
2.841000000000000000e+03 1.595120429992675781e+00 1.833230733871459961e+00 2.600766893010586500e-04 2.091233036480844021e-04 1.407600066158920527e-04 7.355924026342108846e-05
2.842000000000000000e+03 6.124476909637451172e+00 5.415239334106445312e+00 -3.021662682294845581e-02 2.438100986182689667e-03 -8.333558216691017151e-03 1.182995457202196121e-02
2.843000000000000000e+03 1.018393230438232422e+01 6.554588794708251953e+00 2.023059129714965820e-02 8.893996477127075195e-02 3.275116905570030212e-02 1.508918497711420059e-02
2.844000000000000000e+03 8.507747650146484375e+00 7.339858531951904297e+00 2.159687504172325134e-02 -1.558798085898160934e-02 1.802668091841042042e-03 9.262342937290668488e-03
2.845000000000000000e+03 1.055154800415039062e+01 7.317127227783203125e+00 1.562465820461511612e-02 6.458380818367004395e-02 2.406253851950168610e-02 2.820567600429058075e-02
2.846000000000000000e+03 1.099030685424804688e+01 7.933645725250244141e+00 3.019939363002777100e-02 5.247673019766807556e-02 2.480283752083778381e-02 3.189178183674812317e-02
2.847000000000000000e+03 1.263620281219482422e+01 9.951645851135253906e+00 3.224958851933479309e-02 3.318624198436737061e-02 1.963075064122676849e-02 3.250793367624282837e-02
2.848000000000000000e+03 1.558204460144042969e+01 1.259216976165771484e+01 2.764389477670192719e-02 2.363493107259273529e-02 1.538364775478839874e-02 2.494572848081588745e-02
2.849000000000000000e+03 1.944709968566894531e+01 1.576263046264648438e+01 -1.259587556123733521e-01 1.083821430802345276e-02 -3.453616425395011902e-02 -2.885242458432912827e-03
2.850000000000000000e+03 2.111434936523437500e+01 1.575267410278320312e+01 -1.652187705039978027e-01 -9.605158120393753052e-03 -5.244717746973037720e-02 -5.030531808733940125e-02
2.851000000000000000e+03 2.223131370544433594e+01 1.718472480773925781e+01 -4.733086228370666504e-01 -6.644326727837324142e-03 -1.439858824014663696e-01 8.461423963308334351e-02
2.852000000000000000e+03 2.367320060729980469e+01 1.180910778045654297e+01 2.286895364522933960e-02 7.117144763469696045e-02 2.821212075650691986e-02 4.055413603782653809e-02
2.853000000000000000e+03 2.256002807617187500e+01 1.174462890625000000e+01 5.280003696680068970e-02 4.816350713372230530e-02 3.028906323015689850e-02 4.818069562315940857e-02
2.854000000000000000e+03 1.937184333801269531e+01 9.294327735900878906e+00 2.086650393903255463e-02 1.492336951196193695e-02 1.073696184903383255e-02 1.883785426616668701e-02
2.855000000000000000e+03 1.810681915283203125e+01 8.325128555297851562e+00 1.958068273961544037e-02 1.096214912831783295e-02 9.162849746644496918e-03 1.618517562747001648e-02
2.856000000000000000e+03 1.612933731079101562e+01 6.987807750701904297e+00 3.606818988919258118e-02 1.749218255281448364e-02 1.606811210513114929e-02 2.171483449637889862e-02
2.857000000000000000e+03 1.639372634887695312e+01 6.738341331481933594e+00 1.854847557842731476e-02 5.678686313331127167e-03 7.268148940056562424e-03 1.166473794728517532e-02
2.858000000000000000e+03 1.498861217498779297e+01 6.159819126129150391e+00 4.958904534578323364e-02 1.750173792243003845e-02 2.012723498046398163e-02 2.591716311872005463e-02
2.859000000000000000e+03 1.806453132629394531e+01 6.149510860443115234e+00 -3.880265355110168457e-02 2.890165895223617554e-03 -1.077374629676342010e-02 -7.885100319981575012e-03
2.860000000000000000e+03 1.644279289245605469e+01 6.082636833190917969e+00 -1.987017877399921417e-02 -2.732475986704230309e-03 -6.780796218663454056e-03 -5.980853922665119171e-03
2.861000000000000000e+03 2.051667022705078125e+01 6.708747863769531250e+00 -3.506239131093025208e-02 1.332137268036603928e-02 -6.522305775433778763e-03 -1.300621684640645981e-02
2.862000000000000000e+03 2.261376571655273438e+01 5.884783267974853516e+00 -4.235068336129188538e-02 5.056476220488548279e-03 -1.118826121091842651e-02 -2.539965696632862091e-02
2.863000000000000000e+03 2.332469177246093750e+01 5.827331066131591797e+00 -3.812226280570030212e-02 -1.218199077993631363e-02 -1.509127672761678696e-02 -2.951746247708797455e-02
2.864000000000000000e+03 2.548352813720703125e+01 7.741067409515380859e+00 -6.841009110212326050e-02 -5.543051660060882568e-02 -3.715218231081962585e-02 -6.279995292425155640e-02
2.865000000000000000e+03 2.664668273925781250e+01 8.900213241577148438e+00 -7.529100775718688965e-02 -6.731029599905014038e-02 -4.278039187192916870e-02 -7.262365520000457764e-02
2.866000000000000000e+03 2.837519264221191406e+01 1.062837696075439453e+01 -6.983474642038345337e-02 -6.607887893915176392e-02 -4.077408835291862488e-02 -6.885109096765518188e-02
2.867000000000000000e+03 3.783987045288085938e+01 1.316049480438232422e+01 -4.866270124912261963e-01 6.263364106416702271e-03 -1.441091001033782959e-01 1.975948661565780640e-01
2.868000000000000000e+03 3.981498336791992188e+01 1.272622299194335938e+01 -4.477999508380889893e-01 7.673586905002593994e-02 -1.113192215561866760e-01 7.759154587984085083e-02
2.869000000000000000e+03 4.047133636474609375e+01 1.257659339904785156e+01 -4.395433366298675537e-01 6.364388763904571533e-02 -1.127698346972465515e-01 2.150717563927173615e-02
2.870000000000000000e+03 4.180278778076171875e+01 1.229979801177978516e+01 -3.864799737930297852e-01 4.916421324014663696e-02 -1.011947244405746460e-01 -5.260828882455825806e-02
2.871000000000000000e+03 4.322724914550781250e+01 1.205231857299804688e+01 -2.981480658054351807e-01 1.177872414700686932e-03 -8.909106254577636719e-02 -1.108985692262649536e-01
2.872000000000000000e+03 5.570262145996093750e+01 1.291109561920166016e+01 -1.218503952026367188e+00 1.768016964197158813e-01 -3.125106692314147949e-01 2.147532254457473755e-01
2.873000000000000000e+03 5.725257110595703125e+01 1.271410942077636719e+01 -1.360532999038696289e+00 3.297638595104217529e-01 -3.092307448387145996e-01 -3.314852714538574219e-02
2.874000000000000000e+03 5.877769470214843750e+01 1.248632621765136719e+01 -1.456710696220397949e+00 2.361915856599807739e-01 -3.661557435989379883e-01 -2.859430015087127686e-01
2.875000000000000000e+03 6.073786926269531250e+01 1.265164375305175781e+01 -2.068215370178222656e+00 -4.019021987915039062e-01 -7.410352826118469238e-01 -1.194962501525878906e+00
2.876000000000000000e+03 6.260305786132812500e+01 1.380794525146484375e+01 -2.392855644226074219e+00 -6.902623772621154785e-01 -9.249354600906372070e-01 -1.366624236106872559e+00
2.877000000000000000e+03 6.558876037597656250e+01 7.256344318389892578e+00 4.596874117851257324e-01 1.413548183441162109e+01 4.378551006317138672e+00 2.524756908416748047e+00
2.878000000000000000e+03 6.150799179077148438e+01 4.097487926483154297e+00 2.481490135192871094e+00 3.761010646820068359e+00 1.872750282287597656e+00 2.984782934188842773e+00
2.879000000000000000e+03 6.028007125854492188e+01 3.032828092575073242e+00 9.348739385604858398e-01 1.734116315841674805e+00 8.006970882415771484e-01 1.448964238166809082e+00
2.880000000000000000e+03 5.441189193725585938e+01 4.857200622558593750e+00 -1.747426576912403107e-02 1.076662167906761169e-01 2.705758623778820038e-02 3.150682523846626282e-02
2.881000000000000000e+03 5.501045989990234375e+01 6.366319179534912109e+00 -1.342309173196554184e-02 5.361552909016609192e-02 1.205773092806339264e-02 1.987138949334621429e-02
2.882000000000000000e+03 5.691986465454101562e+01 9.017093658447265625e+00 -2.675371710211038589e-03 -1.101204426959156990e-03 -1.132972887717187405e-03 1.054341206327080727e-03
2.883000000000000000e+03 2.420769691467285156e+01 2.013645887374877930e+00 1.845388412475585938e-01 2.791090495884418488e-02 6.373492628335952759e-02 5.729028955101966858e-02
2.884000000000000000e+03 3.620200347900390625e+01 1.371062755584716797e+01 -8.273699879646301270e-01 -3.287587463855743408e-01 -3.468386232852935791e-01 4.358467161655426025e-01
2.885000000000000000e+03 2.432550048828125000e+01 6.467098236083984375e+00 -4.629579558968544006e-02 -4.427232593297958374e-02 -2.717043645679950714e-02 -4.410315304994583130e-02
2.886000000000000000e+03 2.329054832458496094e+01 1.553461194038391113e+00 5.761244893074035645e-02 1.738734357059001923e-02 2.249993756413459778e-02 5.055710673332214355e-02
2.887000000000000000e+03 2.331777572631835938e+01 1.040906548500061035e+00 2.498027123510837555e-02 4.531277343630790710e-02 2.108791284263134003e-02 7.279291749000549316e-02
2.888000000000000000e+03 2.346625900268554688e+01 -1.024329471588134766e+01 -8.662670850753784180e-01 -4.750282466411590576e-01 -4.023886024951934814e-01 -6.119254827499389648e-01
2.889000000000000000e+03 6.885186767578125000e+01 6.627330780029296875e+00 -2.080475091934204102e-01 1.276904296875000000e+01 3.768298625946044922e+00 -1.018200039863586426e+00
2.890000000000000000e+03 6.814537525177001953e+00 -2.050628662109375000e+00 1.369119528681039810e-02 1.054823398590087891e-03 4.423805512487888336e-03 3.688835306093096733e-03
2.891000000000000000e+03 7.556325435638427734e+00 -2.621101379394531250e+00 8.832137100398540497e-03 -1.833813847042620182e-03 2.099497010931372643e-03 4.058722872287034988e-03
2.892000000000000000e+03 3.629168033599853516e+00 -2.417087793350219727e+00 5.826839245855808258e-03 -9.967373916879296303e-04 1.449030591174960136e-03 6.753817200660705566e-03
2.893000000000000000e+03 1.568990612030029297e+01 -1.763022899627685547e+00 7.281068712472915649e-03 2.195465005934238434e-02 8.770715445280075073e-03 -1.582089439034461975e-02
2.894000000000000000e+03 7.340822601318359375e+01 9.873293876647949219e+00 2.456676363945007324e-01 1.470808625221252441e+00 5.149428844451904297e-01 -2.258615493774414062e+00
2.895000000000000000e+03 7.451416015625000000e+01 9.850694656372070312e+00 3.438839018344879150e-01 6.159900188446044922e+00 1.951135158538818359e+00 -3.827442646026611328e+00
2.896000000000000000e+03 5.601733398437500000e+01 7.925298213958740234e+00 -1.358194975182414055e-03 9.803488850593566895e-03 2.533588325604796410e-03 7.485388312488794327e-03
2.897000000000000000e+03 5.567734527587890625e+01 8.752847671508789062e+00 1.166490255855023861e-03 1.032118406146764755e-02 3.446302143856883049e-03 -1.775197568349540234e-03
2.898000000000000000e+03 2.313834428787231445e+00 -2.511535167694091797e+00 2.652346156537532806e-03 1.701981644146144390e-03 1.306298305280506611e-03 5.451073404401540756e-03
2.899000000000000000e+03 2.964190006256103516e+00 -2.459899187088012695e+00 4.139976575970649719e-03 1.764067681506276131e-03 1.771213253960013390e-03 6.363518536090850830e-03
2.900000000000000000e+03 1.005906939506530762e+00 -2.649219989776611328e+00 5.329742562025785446e-04 3.812303999438881874e-03 1.303583499975502491e-03 2.907733665779232979e-03
2.901000000000000000e+03 2.874278783798217773e+00 -1.824094891548156738e+00 4.410540685057640076e-03 9.740191308083012700e-05 1.352382707409560680e-03 4.906546790152788162e-03
2.902000000000000000e+03 1.661936283111572266e+00 -2.580760955810546875e+00 1.624667551368474960e-03 3.487697336822748184e-03 1.533709466457366943e-03 4.609906114637851715e-03
2.903000000000000000e+03 3.496491670608520508e+00 2.523553133010864258e+00 9.327892621513456106e-05 7.685094024054706097e-04 2.585364854894578457e-04 -9.577084711054340005e-05
2.904000000000000000e+03 2.221183776855468750e+00 2.440417289733886719e+00 -1.940649235621094704e-04 2.025407302426174283e-04 2.542738002375699580e-06 3.992254787590354681e-04
2.905000000000000000e+03 2.230538368225097656e+00 1.820778489112854004e+00 -3.815201926045119762e-04 -6.036149570718407631e-04 -2.955405507236719131e-04 -1.309817773289978504e-03
2.906000000000000000e+03 9.989175200462341309e-01 2.589781284332275391e+00 -6.055153207853436470e-04 6.347622838802635670e-04 8.774077286943793297e-06 -1.720005238894373178e-04
2.907000000000000000e+03 9.604198932647705078e-01 1.863085031509399414e+00 7.806860958226025105e-05 3.392471990082412958e-04 1.251947396667674184e-04 -6.409487687051296234e-04
2.908000000000000000e+03 5.660490036010742188e+01 -1.462575912475585938e+01 -2.231187373399734497e-02 4.932516098022460938e+00 1.473061323165893555e+00 5.132565498352050781e-01
2.909000000000000000e+03 5.653863525390625000e+01 1.360290908813476562e+01 -1.226156592369079590e+00 3.683772385120391846e-01 -2.573338150978088379e-01 1.238938495516777039e-01
2.910000000000000000e+03 5.096157073974609375e+01 9.485645294189453125e+00 2.341025881469249725e-02 -1.228803023695945740e-02 3.336668713018298149e-03 9.719987399876117706e-03
2.911000000000000000e+03 5.007278442382812500e+01 8.695559501647949219e+00 2.579800784587860107e-02 -3.926525823771953583e-03 6.561444606631994247e-03 1.590366102755069733e-02
2.912000000000000000e+03 5.467210006713867188e+01 1.482450515031814575e-01 -1.791789889335632324e+00 -3.310168683528900146e-01 -6.368420124053955078e-01 -4.689996838569641113e-01
2.913000000000000000e+03 5.568166732788085938e+01 -1.209703981876373291e-01 -2.025956153869628906e+00 -5.557531118392944336e-01 -7.745127677917480469e-01 -6.025043129920959473e-01
2.914000000000000000e+03 5.717484664916992188e+01 -4.231482446193695068e-01 -1.315386772155761719e+00 6.015584617853164673e-02 -3.765693008899688721e-01 9.276023507118225098e-02
2.915000000000000000e+03 2.201542282104492188e+01 6.634210109710693359e+00 -4.334446415305137634e-02 1.374312769621610641e-02 -8.880401030182838440e-03 -2.176909893751144409e-02
2.916000000000000000e+03 4.268894577026367188e+01 1.284650421142578125e+01 -4.992265999317169189e-01 6.113577634096145630e-02 -1.314272433519363403e-01 -1.167189925909042358e-01
2.917000000000000000e+03 4.133915328979492188e+01 1.302347087860107422e+01 -5.310638546943664551e-01 9.515072405338287354e-02 -1.307739466428756714e-01 -2.270193025469779968e-02
2.918000000000000000e+03 4.199978256225585938e+01 1.291961956024169922e+01 -5.222535729408264160e-01 1.024014875292778015e-01 -1.259556263685226440e-01 -5.085092782974243164e-02
2.919000000000000000e+03 3.758032989501953125e+01 1.403992080688476562e+01 -7.485116124153137207e-01 3.136863932013511658e-02 -2.151428908109664917e-01 2.007518410682678223e-01
2.920000000000000000e+03 3.817347717285156250e+01 1.383348083496093750e+01 -6.643264293670654297e-01 8.672682195901870728e-02 -1.732798814773559570e-01 1.801156997680664062e-01
2.921000000000000000e+03 3.879851150512695312e+01 1.364962005615234375e+01 -6.088041663169860840e-01 8.437842875719070435e-02 -1.573277264833450317e-01 1.431887745857238770e-01
2.922000000000000000e+03 2.070016670227050781e+01 -8.660301208496093750e+00 -2.421547025442123413e-01 3.320709243416786194e-02 -6.268428266048431396e-02 3.159446269273757935e-02
2.923000000000000000e+03 4.935442733764648438e+01 1.651874351501464844e+01 -1.973465085029602051e+00 -9.405363202095031738e-01 -8.742004632949829102e-01 9.667018055915832520e-02
2.924000000000000000e+03 4.793529129028320312e+01 1.644380760192871094e+01 -1.960212230682373047e+00 -8.064855337142944336e-01 -8.300092816352844238e-01 6.747786998748779297e-01
2.925000000000000000e+03 4.949745178222656250e+01 1.555672931671142578e+01 -3.335257768630981445e+00 -1.297412872314453125e+00 -1.389801263809204102e+00 7.758219242095947266e-01
2.926000000000000000e+03 7.229689025878906250e+01 1.024134254455566406e+01 1.700597882270812988e+00 7.176286578178405762e-01 7.254679799079895020e-01 -7.327862977981567383e-01
2.927000000000000000e+03 4.032650375366210938e+01 -1.679603576660156250e+01 -1.537646412849426270e+00 -9.473019242286682129e-01 -7.454844713211059570e-01 -3.301541805267333984e-01
2.928000000000000000e+03 5.063660430908203125e+01 1.398932361602783203e+01 -1.117795825004577637e+00 -8.931684494018554688e-01 -6.032893061637878418e-01 8.566952347755432129e-01
2.929000000000000000e+03 5.123062515258789062e+01 1.385318374633789062e+01 -1.184379577636718750e+00 -3.459768295288085938e-01 -4.591069221496582031e-01 8.461114168167114258e-01
2.930000000000000000e+03 2.646996498107910156e+01 9.540081024169921875e-01 -1.684981733560562134e-01 2.669792771339416504e-01 2.954433485865592957e-02 1.835041344165802002e-01
2.931000000000000000e+03 2.513575363159179688e+01 6.739695072174072266e-01 -8.844514191150665283e-02 1.783297210931777954e-01 2.696537040174007416e-02 1.318768560886383057e-01
2.932000000000000000e+03 2.376755714416503906e+01 1.514796257019042969e+00 8.545996248722076416e-02 2.768841385841369629e-02 3.394451364874839783e-02 8.521220088005065918e-02
2.933000000000000000e+03 2.462047767639160156e+01 8.323417305946350098e-01 -1.538418140262365341e-02 1.297696679830551147e-01 3.431564569473266602e-02 1.514751315116882324e-01
2.934000000000000000e+03 3.744905853271484375e+01 8.759822845458984375e+00 1.320432499051094055e-02 2.221542643383145332e-03 4.627760034054517746e-03 -4.538685083389282227e-03
2.935000000000000000e+03 3.823278808593750000e+01 8.558010101318359375e+00 1.754289376549422741e-03 -1.009127707220613956e-03 2.235485007986426353e-04 -5.887976381927728653e-03
2.936000000000000000e+03 2.170599937438964844e+01 1.448582530021667480e+00 1.272489316761493683e-02 1.290124654769897461e-02 7.687842007726430893e-03 1.014177966862916946e-02
2.937000000000000000e+03 1.946741294860839844e+01 2.479927062988281250e+00 -3.939231391996145248e-04 2.601403277367353439e-03 6.622440414503216743e-04 5.524844164028763771e-04
2.938000000000000000e+03 5.297420501708984375e+01 8.773974418640136719e+00 6.400768645107746124e-03 -6.780754774808883667e-03 -1.139958694693632424e-04 -1.578173600137233734e-02
2.939000000000000000e+03 5.368449401855468750e+01 8.727048873901367188e+00 -2.573432400822639465e-03 -3.150403266772627831e-03 -1.717150676995515823e-03 -1.394634507596492767e-02
2.940000000000000000e+03 5.439918518066406250e+01 8.657076835632324219e+00 1.737561658956110477e-03 1.157439593225717545e-02 3.993587568402290344e-03 -1.518716011196374893e-02
2.941000000000000000e+03 5.227138519287109375e+01 8.786340713500976562e+00 7.784223183989524841e-03 -2.130253985524177551e-02 -4.055494908243417740e-03 -9.788552299141883850e-03
2.942000000000000000e+03 5.421759796142578125e+01 7.973439216613769531e+00 -1.150330062955617905e-02 8.133904077112674713e-03 -1.010818756185472012e-03 -1.172400917857885361e-02
2.943000000000000000e+03 4.500217056274414062e+01 -3.771292209625244141e+00 5.154849290847778320e-01 1.149487376213073730e+00 4.994916915893554688e-01 5.329909324645996094e-01
2.944000000000000000e+03 6.152753448486328125e+01 1.413032531738281250e+01 -1.459826350212097168e+00 -2.208023369312286377e-01 -5.041885972023010254e-01 -5.743051171302795410e-01
2.945000000000000000e+03 6.098041534423828125e+01 1.366447448730468750e+01 -1.951347351074218750e+00 -3.493683785200119019e-02 -5.958852171897888184e-01 -6.979281902313232422e-01
2.946000000000000000e+03 6.195170974731445312e+01 1.345536231994628906e+01 -2.969063520431518555e+00 -6.395079493522644043e-01 -1.082571387290954590e+00 -1.538900732994079590e+00
2.947000000000000000e+03 6.542522430419921875e+01 -2.345352172851562500e+00 -1.139545726776123047e+01 -2.738679170608520508e+00 -4.240241050720214844e+00 3.757217168807983398e+00
2.948000000000000000e+03 3.897129058837890625e+01 8.510839462280273438e+00 8.473329246044158936e-03 8.760476484894752502e-03 5.170141812413930893e-03 -4.437843745108693838e-05
2.949000000000000000e+03 5.667872619628906250e+01 -1.745407676696777344e+01 9.348852038383483887e-01 5.255135059356689453e+00 1.857006072998046875e+00 8.433470726013183594e-01
2.950000000000000000e+03 5.593697357177734375e+01 -1.770487594604492188e+01 1.194234609603881836e+00 8.197499275207519531e+00 2.817520141601562500e+00 1.336209177970886230e+00
2.951000000000000000e+03 5.422821044921875000e+01 1.376483154296875000e+01 -1.192376255989074707e+00 2.224552631378173828e-01 -2.909762859344482422e-01 4.732218384742736816e-01
2.952000000000000000e+03 5.354150009155273438e+01 1.456211185455322266e+01 -1.314415216445922852e+00 2.762199640274047852e-01 -3.114585578441619873e-01 5.206046700477600098e-01
2.953000000000000000e+03 5.273618698120117188e+01 1.378417873382568359e+01 -1.223644018173217773e+00 9.604455530643463135e-02 -3.382798135280609131e-01 7.022986412048339844e-01
2.954000000000000000e+03 1.043624210357666016e+01 -2.726715803146362305e+00 9.775461629033088684e-03 -5.394339095801115036e-03 1.314336783252656460e-03 -6.127567030489444733e-04
2.955000000000000000e+03 1.119829177856445312e+01 -2.752500057220458984e+00 8.756932802498340607e-03 -5.578304175287485123e-03 9.535886347293853760e-04 -2.783449308481067419e-04
2.956000000000000000e+03 7.569535827636718750e+01 3.453098773956298828e+00 2.382115721702575684e-01 1.002689266204833984e+01 3.079531431198120117e+00 7.001061439514160156e-01
2.957000000000000000e+03 1.745329475402832031e+01 7.846400737762451172e+00 2.521250769495964050e-02 1.285209320485591888e-02 1.141938008368015289e-02 1.507558207958936691e-02
2.958000000000000000e+03 1.887773895263671875e+01 6.139405727386474609e+00 -4.468419402837753296e-02 -2.517204964533448219e-03 -1.416041981428861618e-02 -1.565612666308879852e-02
2.959000000000000000e+03 2.127354240417480469e+01 6.671608924865722656e+00 -4.211204499006271362e-02 9.896405041217803955e-03 -9.664692915976047516e-03 -2.081478200852870941e-02
2.960000000000000000e+03 7.446443176269531250e+01 5.314498543739318848e-01 -3.039544820785522461e+00 1.953031897544860840e+00 -3.259539008140563965e-01 2.869532108306884766e-01
2.961000000000000000e+03 7.329715728759765625e+01 5.329822301864624023e-01 -4.900090217590332031e+00 -7.564868330955505371e-01 -1.696973085403442383e+00 -2.063702583312988281e+00
2.962000000000000000e+03 6.986138916015625000e+01 8.182470321655273438e+00 -1.275572538375854492e+00 7.840523242950439453e+00 1.969485163688659668e+00 5.347164869308471680e-01
2.963000000000000000e+03 7.681248474121093750e+01 6.510740756988525391e+00 2.313527107238769531e+00 1.181040096282958984e+01 4.237178325653076172e+00 -2.949496507644653320e+00
2.964000000000000000e+03 3.110002899169921875e+01 6.796708703041076660e-01 -9.891904592514038086e-01 -1.024222850799560547e+00 -6.040239930152893066e-01 -5.666844248771667480e-01
2.965000000000000000e+03 3.153418731689453125e+01 -3.709523975849151611e-01 -3.178935050964355469e+00 -5.715377330780029297e-01 -1.125141859054565430e+00 -3.769895434379577637e-01
2.966000000000000000e+03 7.542112731933593750e+01 1.687720417976379395e+00 -3.749737739562988281e+00 4.770896434783935547e+00 3.063476085662841797e-01 -3.843935430049896240e-01
2.967000000000000000e+03 7.594075012207031250e+01 2.330758094787597656e+00 -2.787232875823974609e+00 7.680223941802978516e+00 1.467897295951843262e+00 -1.108383178710937500e+00
2.968000000000000000e+03 8.207484245300292969e+00 -2.624838829040527344e+00 9.727617725729942322e-03 -3.662038594484329224e-03 1.819673692807555199e-03 4.919253755360841751e-03
2.969000000000000000e+03 9.675498962402343750e+00 -2.692425012588500977e+00 8.535644970834255219e-03 -4.549843724817037582e-03 1.195740303955972195e-03 3.086523385718464851e-03
2.970000000000000000e+03 8.859227180480957031e+00 -1.880556941032409668e+00 1.465113367885351181e-02 -2.941454527899622917e-03 3.512903582304716110e-03 3.981464076787233353e-03
2.971000000000000000e+03 7.517900085449218750e+01 8.302250862121582031e+00 4.943661212921142578e+00 1.080465412139892578e+01 4.724494457244873047e+00 -6.765601634979248047e+00
2.972000000000000000e+03 6.945033264160156250e+01 4.427771568298339844e+00 1.093142032623291016e+00 2.171018028259277344e+01 6.840996742248535156e+00 -1.252175927162170410e+00
2.973000000000000000e+03 6.904055786132812500e+01 5.831463336944580078e+00 4.570839703083038330e-01 1.471457099914550781e+01 4.551496505737304688e+00 -8.841171264648437500e-01
2.974000000000000000e+03 7.705245971679687500e+01 4.376383304595947266e+00 4.805350303649902344e-01 1.083624935150146484e+01 3.395035266876220703e+00 -2.181640148162841797e+00
2.975000000000000000e+03 7.676351165771484375e+01 5.810575485229492188e+00 9.600489139556884766e-01 1.384241104125976562e+01 4.440737724304199219e+00 -2.822254896163940430e+00
2.976000000000000000e+03 6.944523620605468750e+01 2.061311244964599609e+00 1.622686147689819336e+00 1.209426116943359375e+01 4.115084171295166016e+00 -2.724633455276489258e+00
2.977000000000000000e+03 7.040834808349609375e+01 9.130545258522033691e-01 -4.588851332664489746e-01 8.332485198974609375e+00 2.362079858779907227e+00 -3.976475715637207031e+00
2.978000000000000000e+03 3.078926277160644531e+01 -1.316181421279907227e-01 -2.780667304992675781e+00 -1.909105777740478516e+00 -1.406931877136230469e+00 -8.029625415802001953e-01
2.979000000000000000e+03 3.006453895568847656e+01 9.892044216394424438e-02 -1.489707827568054199e+00 -9.212002754211425781e-01 -7.232724428176879883e-01 -1.565246134996414185e-01
2.980000000000000000e+03 5.642359161376953125e+01 -1.976762962341308594e+01 -1.130932927131652832e+00 4.671333789825439453e+00 1.062120199203491211e+00 4.605867266654968262e-01
2.981000000000000000e+03 5.377613830566406250e+01 -2.002963638305664062e+01 -1.862725801765918732e-02 4.985576272010803223e-01 1.439791172742843628e-01 9.878379106521606445e-01
2.982000000000000000e+03 4.688666152954101562e+01 -1.695402979850769043e+00 -5.139612555503845215e-01 3.006249964237213135e-01 -6.400087475776672363e-02 2.162323445081710815e-01
2.983000000000000000e+03 6.259695434570312500e+01 -4.895500659942626953e+00 1.613583207130432129e+00 1.240192031860351562e+01 4.204650878906250000e+00 2.196522712707519531e+00
2.984000000000000000e+03 7.205220794677734375e+01 -1.437398433685302734e+01 1.658342003822326660e+00 1.428917503356933594e+01 4.784255027770996094e+00 2.352921485900878906e+00
2.985000000000000000e+03 2.574323844909667969e+01 1.676086044311523438e+01 -5.683263540267944336e-01 4.076607897877693176e-02 -1.582680791616439819e-01 1.674114167690277100e-01
2.986000000000000000e+03 6.260569763183593750e+01 -2.717887401580810547e+00 -8.425709009170532227e-01 1.029910373687744141e+01 2.836959838867187500e+00 6.767054200172424316e-01
2.987000000000000000e+03 7.140005493164062500e+01 -1.552102279663085938e+01 6.896078586578369141e-01 7.614146232604980469e+00 2.491126298904418945e+00 2.893254280090332031e+00
2.988000000000000000e+03 2.290419387817382812e+01 1.761135864257812500e+01 -4.441417753696441650e-01 -9.864890575408935547e-02 -1.628372073173522949e-01 1.879790574312210083e-01
2.989000000000000000e+03 6.832330322265625000e+01 -1.675655937194824219e+01 -2.166693687438964844e+00 4.637885987758636475e-01 -5.108715295791625977e-01 -1.549099087715148926e-01
2.990000000000000000e+03 7.160454559326171875e+01 -8.844297409057617188e+00 2.209894657135009766e+00 1.164790058135986328e+01 4.157338619232177734e+00 -4.080694675445556641e+00
2.991000000000000000e+03 7.206908416748046875e+01 -1.044711303710937500e+01 9.694178700447082520e-01 1.500596904754638672e+01 4.792615890502929688e+00 -1.606841444969177246e+00
2.992000000000000000e+03 6.447679901123046875e+01 -1.193527507781982422e+01 -4.430932104587554932e-01 3.995597362518310547e+00 1.065751194953918457e+00 -7.322162985801696777e-01
2.993000000000000000e+03 6.290538787841796875e+01 -1.074813270568847656e+01 -1.761256307363510132e-01 6.440169811248779297e+00 1.879213213920593262e+00 1.912120729684829712e-01
2.994000000000000000e+03 7.287103271484375000e+01 -1.044115447998046875e+01 1.650691151618957520e+00 1.226809501647949219e+01 4.175635814666748047e+00 -1.200177907943725586e+00
2.995000000000000000e+03 6.362476730346679688e+01 -1.047277641296386719e+01 1.781820952892303467e-01 6.587563037872314453e+00 2.029723644256591797e+00 -7.855426669120788574e-01
2.996000000000000000e+03 6.309396743774414062e+01 -8.879740715026855469e+00 5.759501457214355469e-01 8.786362648010253906e+00 2.808693885803222656e+00 -6.207169890403747559e-01
2.997000000000000000e+03 6.766623687744140625e+01 -1.534040927886962891e+00 -4.291185379028320312e+00 4.324225902557373047e+00 9.912123903632164001e-03 -6.805063486099243164e-01
2.998000000000000000e+03 6.748663330078125000e+01 -4.089794635772705078e+00 -2.442170381546020508e+00 -2.864073514938354492e-01 -8.185732960700988770e-01 1.094130635261535645e+00
2.999000000000000000e+03 6.728757476806640625e+01 -2.508117675781250000e+00 -5.739392280578613281e+00 2.922672033309936523e+00 -8.450161218643188477e-01 6.634332239627838135e-02
3.000000000000000000e+03 6.350454711914062500e+01 -7.128412723541259766e+00 3.134300410747528076e-01 1.207911014556884766e+01 3.717761993408203125e+00 -8.922608494758605957e-01
3.001000000000000000e+03 6.269694900512695312e+01 -5.679484844207763672e+00 6.740373373031616211e-01 1.206720352172851562e+01 3.822372198104858398e+00 8.384892344474792480e-01
3.002000000000000000e+03 6.609519958496093750e+01 -1.373042297363281250e+01 -1.003637194633483887e+00 1.282870173454284668e+00 8.376988023519515991e-02 7.591557502746582031e-02
3.003000000000000000e+03 7.207378387451171875e+01 -1.283010578155517578e+01 1.710196286439895630e-01 1.407424926757812500e+01 4.273580551147460938e+00 1.545288711786270142e-01
3.004000000000000000e+03 7.067597961425781250e+01 -6.483239173889160156e+00 7.785817980766296387e-01 5.187088489532470703e+00 1.789701104164123535e+00 -2.394666671752929688e+00
3.005000000000000000e+03 6.863321685791015625e+01 -4.226698398590087891e+00 -2.258155584335327148e+00 2.505755901336669922e+00 7.428014278411865234e-02 -4.484198689460754395e-01
3.006000000000000000e+03 6.768376159667968750e+01 -3.088646650314331055e+00 -5.161000251770019531e+00 2.166767358779907227e+00 -8.982699513435363770e-01 8.697241544723510742e-01
3.007000000000000000e+03 7.070387268066406250e+01 -5.493797302246093750e+00 -4.290203452110290527e-01 5.193264484405517578e+00 1.429273247718811035e+00 -1.866218209266662598e+00
3.008000000000000000e+03 6.662232208251953125e+01 -1.430127048492431641e+01 -1.575996875762939453e+00 8.220623731613159180e-01 -2.261803597211837769e-01 3.069054484367370605e-01
3.009000000000000000e+03 6.284721755981445312e+01 -7.262152671813964844e+00 4.307482242584228516e-01 1.064598846435546875e+01 3.323021173477172852e+00 -1.271096318960189819e-01
3.010000000000000000e+03 7.281943511962890625e+01 -1.122519683837890625e+01 8.649295568466186523e-01 1.307826423645019531e+01 4.182958126068115234e+00 -9.389808177947998047e-01
3.011000000000000000e+03 2.401907157897949219e+01 1.721650505065917969e+01 -6.471687555313110352e-01 -2.205458432435989380e-01 -2.603143751621246338e-01 1.583650559186935425e-01
3.012000000000000000e+03 2.126972198486328125e+01 1.753384208679199219e+01 -3.598922789096832275e-01 1.811851002275943756e-02 -1.025321334600448608e-01 9.522150456905364990e-02
3.013000000000000000e+03 5.199134826660156250e+01 -1.959448242187500000e+01 -7.376876473426818848e-01 2.985884845256805420e-01 -1.317297667264938354e-01 6.174212321639060974e-02
3.014000000000000000e+03 1.094519996643066406e+01 8.549639701843261719e+00 2.023394778370857239e-02 4.238091781735420227e-02 1.878445968031883240e-02 2.735663950443267822e-02
3.015000000000000000e+03 1.643966102600097656e+01 1.433000564575195312e+01 -2.774126455187797546e-02 1.921266876161098480e-02 -2.558578737080097198e-03 1.371818408370018005e-02
3.016000000000000000e+03 1.831671905517578125e+01 1.428240299224853516e+01 -2.001512609422206879e-02 7.116520311683416367e-03 -3.869581967592239380e-03 -2.035436918959021568e-04
3.017000000000000000e+03 1.720218276977539062e+01 1.477375221252441406e+01 -4.381803050637245178e-02 1.881088875234127045e-02 -7.502142339944839478e-03 8.420689031481742859e-03
3.018000000000000000e+03 1.166946411132812500e+01 1.118951797485351562e+01 1.673783920705318451e-02 2.246273495256900787e-02 1.176017243415117264e-02 1.731687784194946289e-02
3.019000000000000000e+03 2.041451644897460938e+01 1.539736652374267578e+01 -1.126600727438926697e-01 -1.104035694152116776e-02 -3.711012750864028931e-02 -3.001758642494678497e-02
3.020000000000000000e+03 1.214274692535400391e+01 1.057314777374267578e+01 2.467239648103713989e-02 2.769222669303417206e-02 1.570938713848590851e-02 2.418818324804306030e-02
3.021000000000000000e+03 2.015038490295410156e+01 1.612457275390625000e+01 -1.716294139623641968e-01 1.514274813234806061e-02 -4.694600030779838562e-02 -9.753902442753314972e-03
3.022000000000000000e+03 1.330568695068359375e+01 1.163245201110839844e+01 2.281649410724639893e-02 2.522221580147743225e-02 1.441161241382360458e-02 2.336224727332592010e-02
3.023000000000000000e+03 1.390032482147216797e+01 1.216355228424072266e+01 1.952050440013408661e-02 2.370048873126506805e-02 1.296629849821329117e-02 2.270224876701831818e-02
3.024000000000000000e+03 4.478684616088867188e+01 -4.447199344635009766e+00 2.026533037424087524e-01 1.283503055572509766e+00 4.458469152450561523e-01 3.824189305305480957e-01
3.025000000000000000e+03 4.408612060546875000e+01 -7.220906734466552734e+00 1.922740936279296875e-01 4.283896982669830322e-01 1.861991435289382935e-01 -9.434143453836441040e-02
3.026000000000000000e+03 4.607650756835937500e+01 -1.003616333007812500e+01 2.415467798709869385e-01 7.998530864715576172e-01 3.124199807643890381e-01 -4.057578444480895996e-01
3.027000000000000000e+03 4.404636383056640625e+01 -4.284609794616699219e+00 4.111409485340118408e-01 3.907608389854431152e-01 2.405705302953720093e-01 3.040368258953094482e-01
3.028000000000000000e+03 5.376218032836914062e+01 -7.536871433258056641e+00 -5.154201015830039978e-02 -5.751558542251586914e-01 -1.880093663930892944e-01 3.368609547615051270e-01
3.029000000000000000e+03 4.499675369262695312e+01 -9.858799934387207031e+00 2.452621161937713623e-01 4.869841933250427246e-01 2.196739017963409424e-01 -3.111758828163146973e-01
3.030000000000000000e+03 2.898777961730957031e+01 3.080072641372680664e+00 5.670787096023559570e-01 5.803147330880165100e-02 1.875330507755279541e-01 3.216180801391601562e-01
3.031000000000000000e+03 5.632088851928710938e+01 -1.304635810852050781e+01 -3.055886328220367432e-01 3.690545797348022461e+00 1.015487194061279297e+00 5.540733337402343750e-01
3.032000000000000000e+03 4.689580917358398438e+01 -1.139624786376953125e+01 3.467913269996643066e-01 7.444966435432434082e-01 3.273864090442657471e-01 -4.807013273239135742e-01
3.033000000000000000e+03 3.340759658813476562e+01 7.430668830871582031e+00 1.083395257592201233e-01 3.067825920879840851e-02 4.170533642172813416e-02 5.487267673015594482e-02
3.034000000000000000e+03 3.368667221069335938e+01 6.869531631469726562e+00 1.270229518413543701e-01 -2.463736757636070251e-02 3.071567788720130920e-02 2.796438895165920258e-02
3.035000000000000000e+03 5.593886566162109375e+01 -1.089201831817626953e+01 -4.870929121971130371e-01 2.130812883377075195e+00 4.931159615516662598e-01 6.510052084922790527e-01
3.036000000000000000e+03 5.544043350219726562e+01 -1.021316051483154297e+01 -4.096314609050750732e-01 1.259475231170654297e+00 2.549531161785125732e-01 5.484536886215209961e-01
3.037000000000000000e+03 3.584426498413085938e+01 8.475072860717773438e+00 2.491838485002517700e-02 -5.981605499982833862e-03 5.681033711880445480e-03 4.469828854780644178e-04
3.038000000000000000e+03 3.088536262512207031e+01 3.246827363967895508e+00 2.309400886297225952e-01 -2.780151069164276123e-01 -1.412250567227602005e-02 -1.034862920641899109e-01
3.039000000000000000e+03 4.838694000244140625e+01 -1.447541809082031250e+01 -1.504743397235870361e-01 4.279162287712097168e-01 8.323256671428680420e-02 -1.290719956159591675e-01
3.040000000000000000e+03 5.566515350341796875e+01 -9.063083648681640625e+00 -1.664959192276000977e-01 1.300632953643798828e+00 3.402411043643951416e-01 5.470452308654785156e-01
3.041000000000000000e+03 3.398790359497070312e+01 6.376282691955566406e+00 1.254880428314208984e-01 -3.997347131371498108e-02 2.565437369048595428e-02 -1.481978595256805420e-02
3.042000000000000000e+03 3.130431556701660156e+01 5.008087635040283203e+00 3.892660439014434814e-01 -1.155629567801952362e-02 1.133129298686981201e-01 1.414480060338973999e-01
3.043000000000000000e+03 3.071595382690429688e+01 4.546944618225097656e+00 5.146530866622924805e-01 1.663471944630146027e-02 1.593863368034362793e-01 1.706912368535995483e-01
3.044000000000000000e+03 3.251550674438476562e+01 5.910453319549560547e+00 2.293463051319122314e-01 -2.772217243909835815e-02 6.048724055290222168e-02 6.256136298179626465e-02
3.045000000000000000e+03 3.157543373107910156e+01 5.997795581817626953e+00 2.885936200618743896e-01 1.066697239875793457e-01 1.185790002346038818e-01 1.824711263179779053e-01
3.046000000000000000e+03 4.898391723632812500e+01 -1.499145126342773438e+01 -2.084737867116928101e-01 3.559532761573791504e-01 4.424385353922843933e-02 -5.746788904070854187e-02
3.047000000000000000e+03 5.653940582275390625e+01 -1.690469169616699219e+01 6.532465815544128418e-01 6.402441501617431641e+00 2.116706371307373047e+00 1.214832186698913574e+00
3.048000000000000000e+03 5.656813049316406250e+01 -1.623652458190917969e+01 1.516042500734329224e-01 6.023410797119140625e+00 1.852504491806030273e+00 4.486911594867706299e-01
3.049000000000000000e+03 4.783306121826171875e+01 -1.269555282592773438e+01 2.485019266605377197e-01 5.467805266380310059e-01 2.385847419500350952e-01 -3.675209879875183105e-01
3.050000000000000000e+03 4.434332656860351562e+01 -6.756383419036865234e+00 1.204254031181335449e-01 5.381428599357604980e-01 1.975704729557037354e-01 -1.960680633783340454e-02
3.051000000000000000e+03 4.456260681152343750e+01 -7.214022159576416016e+00 9.417907148599624634e-02 5.793315768241882324e-01 2.020531892776489258e-01 -1.224498897790908813e-01
3.052000000000000000e+03 4.673472976684570312e+01 -1.247133159637451172e+01 1.393052935600280762e-01 5.837503075599670410e-01 2.169166803359985352e-01 -3.083961308002471924e-01
3.053000000000000000e+03 5.397430801391601562e+01 -9.299803733825683594e+00 -3.850377202033996582e-01 -8.864764571189880371e-01 -3.814542591571807861e-01 6.175908446311950684e-01
3.054000000000000000e+03 5.140963745117187500e+01 -1.786691284179687500e+01 -1.014682173728942871e+00 8.709029853343963623e-02 -2.782775461673736572e-01 3.404034674167633057e-01
3.055000000000000000e+03 4.761119842529296875e+01 -3.369536876678466797e+00 -2.433670461177825928e-01 4.786998033523559570e-02 -5.864911898970603943e-02 4.667354002594947815e-02
3.056000000000000000e+03 5.006767272949218750e+01 -1.602274322509765625e+01 -3.990382254123687744e-01 1.806010007858276367e-01 -6.553116440773010254e-02 1.157505363225936890e-01
3.057000000000000000e+03 5.421385955810546875e+01 -8.179116249084472656e+00 -1.476922631263732910e-01 -3.487221896648406982e-01 -1.489243358373641968e-01 3.841002285480499268e-01
3.058000000000000000e+03 5.108938598632812500e+01 -1.613323402404785156e+01 -3.658215701580047607e-01 -1.364624053239822388e-01 -1.506851911544799805e-01 2.616795003414154053e-01
3.059000000000000000e+03 5.001547622680664062e+01 -1.698736000061035156e+01 -6.390513181686401367e-01 3.058623969554901123e-01 -9.995667636394500732e-02 1.338521838188171387e-01
3.060000000000000000e+03 5.176654434204101562e+01 -4.983711242675781250e+00 1.655976176261901855e-01 -4.286787807941436768e-01 -7.892435044050216675e-02 4.560814425349235535e-02
3.061000000000000000e+03 4.717072296142578125e+01 -1.322181129455566406e+01 2.092128805816173553e-02 5.353810787200927734e-01 1.668907105922698975e-01 -2.618111371994018555e-01
3.062000000000000000e+03 2.532163810729980469e+01 -7.293341636657714844e+00 3.055933304131031036e-02 -1.788900256156921387e+00 -5.275022387504577637e-01 -6.978172808885574341e-02
3.063000000000000000e+03 2.611969184875488281e+01 -6.445013046264648438e+00 4.018095321953296661e-03 -1.137720346450805664e+00 -3.401106894016265869e-01 -3.860397040843963623e-01
3.064000000000000000e+03 3.956615829467773438e+01 -1.634781837463378906e+01 -1.976797819137573242e+00 -3.642274439334869385e-01 -7.023075819015502930e-01 -1.213486865162849426e-01
3.065000000000000000e+03 2.574931144714355469e+01 -5.111768722534179688e+00 1.685472428798675537e-01 -8.366193175315856934e-01 -2.004216313362121582e-01 -3.708928525447845459e-01
3.066000000000000000e+03 2.522900390625000000e+01 -4.366130828857421875e+00 1.739149242639541626e-01 -4.964329004287719727e-01 -9.675538539886474609e-02 -2.031341493129730225e-01
3.067000000000000000e+03 2.404359245300292969e+01 -2.054240703582763672e+00 -5.997096747159957886e-02 8.667469769716262817e-02 8.011118508875370026e-03 -4.026405140757560730e-02
3.068000000000000000e+03 2.172308540344238281e+01 7.468007206916809082e-01 -4.084241110831499100e-03 2.451811358332633972e-02 6.130161695182323456e-03 1.311009470373392105e-02
3.069000000000000000e+03 2.113825416564941406e+01 -4.431434869766235352e-01 1.805015373975038528e-03 2.119263447821140289e-02 6.899294909089803696e-03 4.540573339909315109e-03
3.070000000000000000e+03 1.607059478759765625e+01 -3.819981336593627930e+00 1.962115801870822906e-02 1.553695648908615112e-02 1.054743491113185883e-02 -1.343169528990983963e-02
3.071000000000000000e+03 1.706705474853515625e+01 -4.848860263824462891e+00 1.547539886087179184e-02 1.494660694152116776e-02 9.126601740717887878e-03 -1.146001648157835007e-02
3.072000000000000000e+03 2.264669609069824219e+01 -1.223367571830749512e+00 -4.083059728145599365e-02 1.054951846599578857e-01 1.939937658607959747e-02 -1.512155309319496155e-02
3.073000000000000000e+03 1.914045715332031250e+01 -8.313509941101074219e+00 -1.742392629384994507e-01 2.297740057110786438e-02 -4.537855833768844604e-02 1.196907274425029755e-02
3.074000000000000000e+03 2.410899162292480469e+01 -3.086570739746093750e+00 3.259450197219848633e-02 2.901294268667697906e-02 1.848223432898521423e-02 -8.473398536443710327e-02
3.075000000000000000e+03 2.467970657348632812e+01 -3.681128978729248047e+00 6.424381583929061890e-02 -1.722857803106307983e-01 -3.241258859634399414e-02 -1.474924832582473755e-01
3.076000000000000000e+03 1.888358116149902344e+01 -7.459097385406494141e+00 -7.180634140968322754e-02 8.285703137516975403e-03 -1.905619166791439056e-02 1.587742008268833160e-02
3.077000000000000000e+03 1.867037582397460938e+01 -5.557005882263183594e+00 1.094072684645652771e-02 2.166512049734592438e-02 9.781753644347190857e-03 -2.659627236425876617e-02
3.078000000000000000e+03 1.723061561584472656e+01 -6.499457359313964844e+00 -4.577264934778213501e-02 4.141251090914011002e-03 -1.248941943049430847e-02 1.148535404354333878e-03
3.079000000000000000e+03 1.814254951477050781e+01 -4.973073959350585938e+00 2.775271423161029816e-02 2.892042137682437897e-02 1.700193993747234344e-02 -2.152930945158004761e-02
3.080000000000000000e+03 3.361343002319335938e+01 -1.626450300216674805e+00 2.030681073665618896e-02 5.245293378829956055e-01 1.634508520364761353e-01 -1.974390894174575806e-01
3.081000000000000000e+03 2.521752548217773438e+01 1.476168251037597656e+01 9.485366754233837128e-03 9.522762149572372437e-02 3.141389414668083191e-02 1.175924241542816162e-01
3.082000000000000000e+03 2.486556434631347656e+01 1.402974605560302734e+01 6.620191782712936401e-02 2.107941955327987671e-01 8.309882879257202148e-02 9.300772845745086670e-02
3.083000000000000000e+03 3.782189559936523438e+01 1.414386510848999023e+00 -3.999457359313964844e-01 -2.500016987323760986e-01 -1.949842274188995361e-01 4.341767430305480957e-01
3.084000000000000000e+03 3.704670333862304688e+01 2.157117605209350586e+00 -2.206970006227493286e-01 -2.117643505334854126e-02 -7.256203144788742065e-02 2.595703601837158203e-01
3.085000000000000000e+03 3.905905532836914062e+01 -8.366105705499649048e-02 -3.604183435440063477e+00 -8.368028998374938965e-01 -1.332295894622802734e+00 1.138320446014404297e+00
3.086000000000000000e+03 3.818915557861328125e+01 -4.526164531707763672e-01 -2.195239067077636719e+00 -2.383154630661010742e-02 -6.657211780548095703e-01 1.398309022188186646e-01
3.087000000000000000e+03 2.429611206054687500e+01 1.234714317321777344e+01 2.323692105710506439e-02 9.266698360443115234e-02 3.477117046713829041e-02 4.026519507169723511e-02
3.088000000000000000e+03 1.978367614746093750e+01 8.820787429809570312e+00 8.939038962125778198e-03 1.728334091603755951e-02 7.866714149713516235e-03 1.099481899291276932e-02
3.089000000000000000e+03 2.064993858337402344e+01 1.024500942230224609e+01 2.764048241078853607e-02 2.443353086709976196e-02 1.562220416963100433e-02 2.771604061126708984e-02
3.090000000000000000e+03 2.147501754760742188e+01 9.101595878601074219e+00 -8.599909953773021698e-03 2.582775987684726715e-02 5.168355070054531097e-03 8.532933890819549561e-03
3.091000000000000000e+03 1.705611228942871094e+01 7.018456459045410156e+00 1.171717233955860138e-02 2.735316054895520210e-03 4.335746634751558304e-03 4.645496141165494919e-03
3.092000000000000000e+03 4.132867813110351562e+01 -1.232526683807373047e+01 2.467550896108150482e-02 -1.289010345935821533e-01 -3.126765787601470947e-02 -7.052842527627944946e-02
3.093000000000000000e+03 1.856291007995605469e+01 7.824836730957031250e+00 7.638024631887674332e-03 6.362857762724161148e-03 4.200264811515808105e-03 4.598601255565881729e-03
3.094000000000000000e+03 2.305430030822753906e+01 1.126099967956542969e+01 1.926921121776103973e-02 5.050324648618698120e-02 2.093173749744892120e-02 3.431092947721481323e-02
3.095000000000000000e+03 1.721281242370605469e+01 6.573821067810058594e+00 -8.387705311179161072e-03 3.278182994108647108e-04 -2.417966257780790329e-03 -3.069972619414329529e-03
3.096000000000000000e+03 4.080695724487304688e+01 -1.405732059478759766e+01 -1.134983543306589127e-02 -3.301399648189544678e-01 -1.024469435214996338e-01 -3.068546392023563385e-02
3.097000000000000000e+03 2.918425178527832031e+01 -3.031780958175659180e+00 -7.505690306425094604e-02 -5.371431112289428711e-01 -1.836600005626678467e-01 -7.595166563987731934e-01
3.098000000000000000e+03 3.842348480224609375e+01 -1.671428871154785156e+01 -1.180036425590515137e+00 1.029834374785423279e-01 -3.231159150600433350e-01 -1.915170252323150635e-01
3.099000000000000000e+03 3.758833312988281250e+01 -1.491237831115722656e+01 -1.463254839181900024e-01 7.218508422374725342e-02 -2.224211953580379486e-02 6.678548455238342285e-02
3.100000000000000000e+03 4.182345199584960938e+01 -1.443643856048583984e+01 -2.769034802913665771e-01 -2.908203005790710449e-01 -1.703171283006668091e-01 -3.351328969001770020e-01
3.101000000000000000e+03 3.067985153198242188e+01 -4.973147392272949219e+00 2.373291105031967163e-01 8.392887711524963379e-01 3.229853808879852295e-01 -4.124418199062347412e-01
3.102000000000000000e+03 3.204551315307617188e+01 -9.830409049987792969e+00 1.531168371438980103e-01 8.248475193977355957e-01 2.933893203735351562e-01 -3.137479424476623535e-01
3.103000000000000000e+03 3.410429382324218750e+01 -1.243139743804931641e+01 5.520823597908020020e-02 4.602353870868682861e-01 1.546330899000167847e-01 -2.153882086277008057e-01
3.104000000000000000e+03 2.981929969787597656e+01 -4.407140254974365234e+00 2.834626734256744385e-01 2.742762118577957153e-02 9.326708316802978516e-02 -5.348386168479919434e-01
3.105000000000000000e+03 4.159838485717773438e+01 -1.017917156219482422e+01 1.981433629989624023e-01 3.438029065728187561e-02 6.975709646940231323e-02 -1.755489408969879150e-01
3.106000000000000000e+03 4.132770156860351562e+01 -1.077067661285400391e+01 1.400278806686401367e-01 -1.863027224317193031e-03 4.144945740699768066e-02 -1.333699822425842285e-01
3.107000000000000000e+03 4.011832809448242188e+01 -1.087843418121337891e+01 3.854439407587051392e-02 -3.139390423893928528e-02 2.145147183910012245e-03 -4.053311049938201904e-02
3.108000000000000000e+03 3.584679794311523438e+01 -1.516756653785705566e+00 -7.377242445945739746e-01 8.249443769454956055e-01 2.616603858768939972e-02 -1.741824597120285034e-01
3.109000000000000000e+03 3.469351959228515625e+01 -1.556627273559570312e+00 -3.848174810409545898e-01 8.676129579544067383e-01 1.448386311531066895e-01 -2.240107357501983643e-01
3.110000000000000000e+03 3.122400665283203125e+01 -6.508971214294433594e+00 3.055436015129089355e-01 1.155483722686767578e+00 4.383081793785095215e-01 -5.530568957328796387e-01
3.111000000000000000e+03 3.818873214721679688e+01 -7.318158626556396484e+00 3.777842521667480469e-01 5.189121365547180176e-01 2.690089046955108643e-01 -4.587829113006591797e-01
3.112000000000000000e+03 3.595126724243164062e+01 -2.775052785873413086e+00 1.042011305689811707e-01 8.945330977439880371e-01 2.996202707290649414e-01 -5.024203658103942871e-01
3.113000000000000000e+03 3.740964889526367188e+01 -4.891634464263916016e+00 6.100244522094726562e-01 5.255347490310668945e-01 3.406677544116973877e-01 -6.811994910240173340e-01
3.114000000000000000e+03 3.967700958251953125e+01 -8.310256004333496094e+00 3.535193800926208496e-01 1.101898923516273499e-01 1.391127854585647583e-01 -2.654436528682708740e-01
3.115000000000000000e+03 7.953256988525390625e+01 3.252154541015625000e+01 -7.342353463172912598e-03 7.467989921569824219e+00 2.238194227218627930e+00 1.080849301069974899e-02
3.116000000000000000e+03 7.820872497558593750e+01 3.892017745971679688e+01 6.481377873569726944e-03 7.183913230895996094e+00 2.157118320465087891e+00 2.031121030449867249e-02
3.117000000000000000e+03 7.874748992919921875e+01 3.948711395263671875e+01 2.527914941310882568e-02 7.305871009826660156e+00 2.199345111846923828e+00 8.365589193999767303e-03
3.118000000000000000e+03 7.812882232666015625e+01 3.683411407470703125e+01 3.892911830917000771e-03 7.199685573577880859e+00 2.161073684692382812e+00 -4.921883344650268555e-03
3.119000000000000000e+03 7.836508941650390625e+01 3.483783340454101562e+01 -1.268426142632961273e-02 7.258234500885009766e+00 2.173665046691894531e+00 2.102290745824575424e-03
3.120000000000000000e+03 7.957852935791015625e+01 1.165695095062255859e+01 -6.453841179609298706e-02 5.184609413146972656e+00 1.536021351814270020e+00 1.166082248091697693e-01
3.121000000000000000e+03 7.867355346679687500e+01 1.005334281921386719e+01 -1.708659529685974121e-01 5.990058898925781250e+00 1.745757818222045898e+00 5.501276850700378418e-01
3.122000000000000000e+03 7.958721160888671875e+01 1.326947307586669922e+01 -2.051923424005508423e-02 5.409939289093017578e+00 1.616825938224792480e+00 2.638375945389270782e-02
3.123000000000000000e+03 7.959499359130859375e+01 1.407222080230712891e+01 4.500783979892730713e-03 5.438230514526367188e+00 1.632819414138793945e+00 8.437175303697586060e-03
3.124000000000000000e+03 7.960758209228515625e+01 1.567160034179687500e+01 7.561129983514547348e-03 5.484683513641357422e+00 1.647673368453979492e+00 2.484913729131221771e-02
3.125000000000000000e+03 7.882225799560546875e+01 1.574637985229492188e+01 3.349263221025466919e-02 5.692175388336181641e+00 1.717700362205505371e+00 6.890299171209335327e-02
3.126000000000000000e+03 7.960154724121093750e+01 1.807322692871093750e+01 8.465674705803394318e-03 5.752063751220703125e+00 1.728158831596374512e+00 7.232446223497390747e-02
3.127000000000000000e+03 7.882637023925781250e+01 1.733396148681640625e+01 3.594069555401802063e-02 5.815256595611572266e+00 1.755359172821044922e+00 1.539137363433837891e-01
3.128000000000000000e+03 7.957859039306640625e+01 1.967698097229003906e+01 4.230152349919080734e-03 6.052565574645996094e+00 1.817038774490356445e+00 9.151791781187057495e-02
3.129000000000000000e+03 7.877527618408203125e+01 1.892676925659179688e+01 1.922790519893169403e-02 6.035999774932861328e+00 1.816568374633789062e+00 2.213363498449325562e-01
3.130000000000000000e+03 7.956542968750000000e+01 2.048152160644531250e+01 7.317134295590221882e-04 6.214731693267822266e+00 1.864639043807983398e+00 9.647977352142333984e-02
3.131000000000000000e+03 7.954084777832031250e+01 2.371299171447753906e+01 -5.834356416016817093e-03 6.815376281738281250e+00 2.042862653732299805e+00 8.075421303510665894e-02
3.132000000000000000e+03 7.954724121093750000e+01 2.451503562927246094e+01 -4.568784963339567184e-03 6.936891078948974609e+00 2.079696655273437500e+00 7.107502222061157227e-02
3.133000000000000000e+03 7.863189697265625000e+01 2.464125633239746094e+01 -2.243510074913501740e-02 6.863747596740722656e+00 2.052393674850463867e+00 1.843152195215225220e-01
3.134000000000000000e+03 7.957515716552734375e+01 2.849669456481933594e+01 -3.994056489318609238e-03 7.346346378326416016e+00 2.202705621719360352e+00 3.263326734304428101e-02
3.135000000000000000e+03 7.952324676513671875e+01 3.010898208618164062e+01 -1.828520675189793110e-03 7.417985439300537109e+00 2.224847078323364258e+00 2.055055834352970123e-02
3.136000000000000000e+03 7.865908813476562500e+01 2.933450317382812500e+01 -1.509884372353553772e-02 7.208379745483398438e+00 2.157984256744384766e+00 6.796143949031829834e-02
3.137000000000000000e+03 7.874887084960937500e+01 -2.447104454040527344e+01 -4.676448181271553040e-03 8.760689735412597656e+00 2.626804113388061523e+00 2.138897180557250977e-01
3.138000000000000000e+03 7.958232116699218750e+01 -2.365911483764648438e+01 4.303149180486798286e-04 9.320191383361816406e+00 2.796186447143554688e+00 5.977937951683998108e-02
3.139000000000000000e+03 7.958900451660156250e+01 -2.124443626403808594e+01 -1.739988662302494049e-02 9.612578392028808594e+00 2.878553390502929688e+00 2.634823431435506791e-05
3.140000000000000000e+03 7.874547576904296875e+01 -2.285132789611816406e+01 -3.172490000724792480e-02 8.993563652038574219e+00 2.688551664352416992e+00 1.620716005563735962e-01
3.141000000000000000e+03 7.895656585693359375e+01 4.444454193115234375e+00 2.372398525476455688e-01 8.228247642517089844e+00 2.539646148681640625e+00 -1.900402069091796875e+00
3.142000000000000000e+03 7.965184783935546875e+01 5.210007190704345703e+00 2.070731520652770996e-01 5.763696670532226562e+00 1.791230916976928711e+00 -6.412878036499023438e-01
3.143000000000000000e+03 7.959954833984375000e+01 7.599114894866943359e+00 5.584232881665229797e-02 3.323307991027832031e+00 1.013745069503784180e+00 -2.825689688324928284e-02
3.144000000000000000e+03 7.882706451416015625e+01 6.744150638580322266e+00 4.526512026786804199e-01 6.341976165771484375e+00 2.038388252258300781e+00 -8.580474853515625000e-01
3.145000000000000000e+03 7.948696899414062500e+01 -4.037631225585937500e+01 1.145918387919664383e-02 7.355460166931152344e+00 2.210075855255126953e+00 -6.815343629568815231e-03
3.146000000000000000e+03 7.954201507568359375e+01 -3.960522079467773438e+01 8.043734356760978699e-03 7.356121540069580078e+00 2.209249734878540039e+00 1.014656852930784225e-02
3.147000000000000000e+03 7.956317901611328125e+01 -3.882727050781250000e+01 -4.490351770073175430e-03 7.381467819213867188e+00 2.213093280792236328e+00 1.551837380975484848e-02
3.148000000000000000e+03 7.954882049560546875e+01 -3.804026794433593750e+01 9.767726063728332520e-03 7.414642810821533203e+00 2.227323293685913086e+00 1.852510496973991394e-02
3.149000000000000000e+03 7.954842376708984375e+01 -3.725662612915039062e+01 -2.600607695057988167e-03 7.456098556518554688e+00 2.236049413681030273e+00 2.595374546945095062e-02
3.150000000000000000e+03 7.956605529785156250e+01 -3.647248458862304688e+01 -1.414354424923658371e-03 7.503787994384765625e+00 2.250712156295776367e+00 2.228138595819473267e-02
3.151000000000000000e+03 7.959142303466796875e+01 -3.568688583374023438e+01 2.784676325973123312e-04 7.549596786499023438e+00 2.264962673187255859e+00 2.118902094662189484e-02
3.152000000000000000e+03 7.961105346679687500e+01 -3.490597152709960938e+01 8.626438677310943604e-03 7.608461380004882812e+00 2.285126209259033203e+00 3.057709150016307831e-02
3.153000000000000000e+03 7.955887603759765625e+01 -3.336621093750000000e+01 6.468077655881643295e-03 7.746971130371093750e+00 2.326031923294067383e+00 3.343132138252258301e-02
3.154000000000000000e+03 7.954089355468750000e+01 -3.256781005859375000e+01 2.721742959693074226e-03 7.822128772735595703e+00 2.347455024719238281e+00 4.094341769814491272e-02
3.155000000000000000e+03 7.951411437988281250e+01 -3.175691795349121094e+01 1.309188734740018845e-02 7.916319847106933594e+00 2.378823518753051758e+00 5.643971264362335205e-02
3.156000000000000000e+03 7.948177337646484375e+01 -3.094962120056152344e+01 -3.343156771734356880e-03 8.019726753234863281e+00 2.404915094375610352e+00 6.180402263998985291e-02
3.157000000000000000e+03 7.947989654541015625e+01 -3.013447952270507812e+01 7.442685309797525406e-03 8.125631332397460938e+00 2.439922094345092773e+00 6.640019267797470093e-02
3.158000000000000000e+03 7.951287841796875000e+01 -2.930955505371093750e+01 -9.505081106908619404e-04 8.244781494140625000e+00 2.473149299621582031e+00 7.090494781732559204e-02
3.159000000000000000e+03 7.954606628417968750e+01 -2.848990440368652344e+01 6.287424359470605850e-03 8.383660316467285156e+00 2.516984224319458008e+00 7.590291649103164673e-02
3.160000000000000000e+03 7.956774902343750000e+01 -2.767819786071777344e+01 -8.032071404159069061e-03 8.534427642822265625e+00 2.557918548583984375e+00 7.408703118562698364e-02
3.161000000000000000e+03 7.957938385009765625e+01 -2.687157058715820312e+01 7.719020359218120575e-03 8.691548347473144531e+00 2.609780311584472656e+00 7.408924400806427002e-02
3.162000000000000000e+03 7.958406066894531250e+01 -2.606822395324707031e+01 -8.731951005756855011e-03 8.851765632629394531e+00 2.652909994125366211e+00 7.324919104576110840e-02
3.163000000000000000e+03 7.958477020263671875e+01 -2.526535797119140625e+01 6.433040834963321686e-03 9.012819290161132812e+00 2.705775737762451172e+00 7.118158787488937378e-02
3.164000000000000000e+03 7.963299560546875000e+01 -1.884848213195800781e+01 -1.494928076863288879e-02 9.441675186157226562e+00 2.828017950057983398e+00 -1.011178866028785706e-01
3.165000000000000000e+03 7.878898620605468750e+01 -2.041910743713378906e+01 -8.365515619516372681e-02 9.194885253906250000e+00 2.733369112014770508e+00 -4.655661433935165405e-02
3.166000000000000000e+03 7.965638732910156250e+01 -1.725357437133789062e+01 -1.910270191729068756e-02 8.929875373840332031e+00 2.673231601715087891e+00 -1.716686785221099854e-01
3.167000000000000000e+03 7.890106964111328125e+01 -1.883743286132812500e+01 -8.913578093051910400e-02 9.145979881286621094e+00 2.717053174972534180e+00 -2.247056812047958374e-01
3.168000000000000000e+03 7.964572143554687500e+01 -1.566136360168457031e+01 -1.834205724298954010e-02 8.174543380737304688e+00 2.446860551834106445e+00 -1.989201158285140991e-01
3.169000000000000000e+03 7.897789001464843750e+01 -1.727652168273925781e+01 -5.278428271412849426e-02 8.838269233703613281e+00 2.635645389556884766e+00 -3.914931714534759521e-01
3.170000000000000000e+03 7.963374328613281250e+01 -1.486610603332519531e+01 2.717083320021629333e-02 7.792808055877685547e+00 2.345993757247924805e+00 -1.860726326704025269e-01
3.171000000000000000e+03 7.962306213378906250e+01 -1.406729888916015625e+01 -7.008003070950508118e-03 7.452204704284667969e+00 2.233558893203735352e+00 -1.685825586318969727e-01
3.172000000000000000e+03 7.961550903320312500e+01 -1.326649761199951172e+01 3.926895186305046082e-02 7.176884174346923828e+00 2.164845943450927734e+00 -1.308242082595825195e-01
3.173000000000000000e+03 7.961026763916015625e+01 -1.246441841125488281e+01 8.416174910962581635e-03 6.988384246826171875e+00 2.099040031433105469e+00 -8.469737321138381958e-02
3.174000000000000000e+03 7.960540008544921875e+01 -1.166001510620117188e+01 4.806883633136749268e-02 6.910774707794189453e+00 2.087653160095214844e+00 -2.343532629311084747e-02
3.175000000000000000e+03 7.960171508789062500e+01 -1.085453701019287109e+01 1.266064774245023727e-02 6.949993133544921875e+00 2.088796138763427734e+00 3.543988987803459167e-02
3.176000000000000000e+03 7.960185241699218750e+01 -1.004993534088134766e+01 4.459784552454948425e-02 7.106502532958984375e+00 2.145330190658569336e+00 9.531650692224502563e-02
3.177000000000000000e+03 7.960809326171875000e+01 -9.247597694396972656e+00 5.407899618148803711e-03 7.368518352508544922e+00 2.212177753448486328e+00 1.439993679523468018e-01
3.178000000000000000e+03 7.885943603515625000e+01 -8.490283966064453125e+00 7.468799501657485962e-02 8.037385940551757812e+00 2.433622121810913086e+00 5.184313058853149414e-01
3.179000000000000000e+03 7.965129852294921875e+01 -6.044443130493164062e+00 -3.071091137826442719e-02 9.352805137634277344e+00 2.796628475189208984e+00 2.569651305675506592e-01
3.180000000000000000e+03 7.965627288818359375e+01 -5.246718406677246094e+00 3.832322359085083008e-02 9.990363121032714844e+00 3.008605718612670898e+00 2.720357179641723633e-01
3.181000000000000000e+03 7.965663909912109375e+01 -4.449568271636962891e+00 -3.758837655186653137e-02 1.064327526092529297e+01 3.181706190109252930e+00 2.661394178867340088e-01
3.182000000000000000e+03 7.965093231201171875e+01 -3.650519847869873047e+00 4.183276370167732239e-02 1.131480121612548828e+01 3.406990051269531250e+00 2.804909646511077881e-01
3.183000000000000000e+03 7.963806152343750000e+01 -2.846419095993041992e+00 -6.030356884002685547e-02 1.195084095001220703e+01 3.567161083221435547e+00 2.490492910146713257e-01
3.184000000000000000e+03 7.962174224853515625e+01 -2.038014173507690430e+00 3.429657965898513794e-02 1.252122116088867188e+01 3.766655445098876953e+00 2.300739288330078125e-01
3.185000000000000000e+03 7.960845947265625000e+01 -1.226742625236511230e+00 -9.825133532285690308e-02 1.297868061065673828e+01 3.864128828048706055e+00 1.552783101797103882e-01
3.186000000000000000e+03 7.960126495361328125e+01 -4.144626855850219727e-01 -3.024920076131820679e-02 1.323805618286132812e+01 3.962342023849487305e+00 2.691646292805671692e-02
3.187000000000000000e+03 7.960134887695312500e+01 3.935865759849548340e-01 -1.226512491703033447e-01 1.322667217254638672e+01 3.931206226348876953e+00 -1.278459876775741577e-01
3.188000000000000000e+03 7.960388946533203125e+01 1.199904441833496094e+00 -1.209911480545997620e-01 1.282321262359619141e+01 3.810666561126708984e+00 -3.795707523822784424e-01
3.189000000000000000e+03 7.959815979003906250e+01 2.011053323745727539e+00 -1.018473803997039795e-01 1.193762779235839844e+01 3.550734281539916992e+00 -6.094856262207031250e-01
3.190000000000000000e+03 7.960537719726562500e+01 2.819948911666870117e+00 -8.071333914995193481e-02 1.067826080322265625e+01 3.179264068603515625e+00 -7.994014620780944824e-01
3.191000000000000000e+03 7.890523529052734375e+01 3.672655344009399414e+00 -9.694116562604904175e-02 9.277643203735351562e+00 2.754210472106933594e+00 -2.117940425872802734e+00
3.192000000000000000e+03 7.881800079345703125e+01 8.374638557434082031e+00 3.791899085044860840e-01 5.692941665649414062e+00 1.821639537811279297e+00 3.006069362163543701e-01
3.193000000000000000e+03 7.848802185058593750e+01 3.185649299621582031e+01 -1.245034392923116684e-02 7.256124973297119141e+00 2.173102378845214844e+00 2.735615707933902740e-02
3.194000000000000000e+03 7.814842224121093750e+01 3.578770065307617188e+01 1.073577348142862320e-02 7.215091228485107422e+00 2.167747974395751953e+00 -8.987776003777980804e-03
3.195000000000000000e+03 7.893045806884765625e+01 3.878194046020507812e+01 -1.718193292617797852e-02 7.348763942718505859e+00 2.199474573135375977e+00 -1.799301058053970337e-02
3.196000000000000000e+03 7.871672058105468750e+01 3.337640380859375000e+01 -1.210561953485012054e-02 7.308847427368164062e+00 2.189022541046142578e+00 1.202339213341474533e-02
3.197000000000000000e+03 7.885540008544921875e+01 -3.494288253784179688e+01 1.127350376918911934e-03 7.469889163970947266e+00 2.241304874420166016e+00 7.741157710552215576e-02
3.198000000000000000e+03 6.658006286621093750e+01 1.112755393981933594e+01 4.269879817962646484e+00 2.147294044494628906e+01 7.722846508026123047e+00 6.734313368797302246e-01
3.199000000000000000e+03 6.584558105468750000e+01 1.265934944152832031e+01 6.031486511230468750e+00 2.283612823486328125e+01 8.660284042358398438e+00 -3.606430053710937500e+00
3.200000000000000000e+03 6.681723022460937500e+01 9.373612403869628906e+00 2.802486896514892578e+00 1.717019081115722656e+01 5.991803169250488281e+00 2.466687858104705811e-01
3.201000000000000000e+03 3.773877716064453125e+01 4.132598400115966797e+00 -2.237130887806415558e-02 1.132655739784240723e-01 2.726827934384346008e-02 -3.722400963306427002e-02
3.202000000000000000e+03 4.151667022705078125e+01 4.605816304683685303e-01 -1.918049693107604980e+00 -6.207770705223083496e-01 -7.616480588912963867e-01 -1.108392357826232910e+00
3.203000000000000000e+03 4.334362030029296875e+01 6.162203550338745117e-01 -1.338586807250976562e+00 -1.968826055526733398e-01 -4.606408178806304932e-01 -4.787969589233398438e-01
3.204000000000000000e+03 4.829038619995117188e+01 5.929522991180419922e+00 -1.205294206738471985e-01 2.856247499585151672e-02 -2.759008482098579407e-02 -2.286884933710098267e-02
3.205000000000000000e+03 4.648272705078125000e+01 4.534759998321533203e+00 -2.706311345100402832e-01 -2.533223945647478104e-03 -8.194930851459503174e-02 -1.184287667274475098e-01
3.206000000000000000e+03 4.764862442016601562e+01 5.453139305114746094e+00 -1.758355945348739624e-01 3.586558625102043152e-02 -4.199100285768508911e-02 -4.509973526000976562e-02
3.207000000000000000e+03 4.427825927734375000e+01 1.540797591209411621e+00 -1.044219970703125000e+00 -9.831625223159790039e-02 -3.427608609199523926e-01 -4.357513785362243652e-01
3.208000000000000000e+03 4.499312973022460938e+01 3.900960683822631836e+00 -2.492114901542663574e-01 -1.962102353572845459e-01 -1.336265206336975098e-01 -2.418368905782699585e-01
3.209000000000000000e+03 3.931044769287109375e+01 7.010602474212646484e+00 3.484830027446150780e-03 1.213162112981081009e-02 4.684935323894023895e-03 -6.674136966466903687e-03
3.210000000000000000e+03 3.992386627197265625e+01 6.704827785491943359e+00 -8.531454950571060181e-03 3.378988942131400108e-03 -1.545739709399640560e-03 2.724465215578675270e-03
3.211000000000000000e+03 4.465848922729492188e+01 2.243805408477783203e+00 -8.435523509979248047e-01 -1.413659602403640747e-01 -2.954754829406738281e-01 -4.256916046142578125e-01
3.212000000000000000e+03 4.402360916137695312e+01 2.640474796295166016e+00 -6.075724363327026367e-01 -4.393052756786346436e-01 -3.140633106231689453e-01 -5.138846039772033691e-01
3.213000000000000000e+03 1.292304754257202148e+00 2.915907096862792969e+01 9.587621207174379379e-06 -1.067573428153991699e-01 -3.202432766556739807e-02 1.544548664242029190e-02
3.214000000000000000e+03 4.262019097805023193e-01 2.840795707702636719e+01 1.218159377458505332e-04 -9.896522015333175659e-02 -2.965302020311355591e-02 5.128009710460901260e-03
3.215000000000000000e+03 4.501323997974395752e-01 2.598302841186523438e+01 -3.070474776905030012e-04 -7.059703767299652100e-02 -2.127122506499290466e-02 4.723954480141401291e-03
3.216000000000000000e+03 4.907267689704895020e-01 4.043313217163085938e+01 9.569503017701208591e-04 -2.092702984809875488e-01 -6.249400600790977478e-02 1.959287794306874275e-03
3.217000000000000000e+03 5.125625133514404297e-01 3.962836837768554688e+01 2.293643628945574164e-04 -2.052290439605712891e-01 -6.149990484118461609e-02 3.047803649678826332e-03
3.218000000000000000e+03 5.640547871589660645e-01 3.880917739868164062e+01 -9.107546065934002399e-05 -2.006205022335052490e-01 -6.021347269415855408e-02 3.166947280988097191e-03
3.219000000000000000e+03 5.645037293434143066e-01 3.799446105957031250e+01 2.784716198220849037e-04 -1.962287425994873047e-01 -5.878508463501930237e-02 3.261242760345339775e-03
3.220000000000000000e+03 5.125284194946289062e-01 3.719000244140625000e+01 1.424608490196987987e-04 -1.912025213241577148e-01 -5.731801688671112061e-02 3.574438858777284622e-03
3.221000000000000000e+03 4.591194391250610352e-01 3.639339447021484375e+01 -4.000604385510087013e-04 -1.853090524673461914e-01 -5.571273341774940491e-02 3.476817859336733818e-03
3.222000000000000000e+03 1.241824269294738770e+00 3.546016311645507812e+01 7.758369902148842812e-04 -1.706579923629760742e-01 -5.096464604139328003e-02 1.027171034365892410e-02
3.223000000000000000e+03 4.249504804611206055e-01 3.322180557250976562e+01 -3.844264210783876479e-05 -1.559015512466430664e-01 -4.678199812769889832e-02 4.672029986977577209e-03
3.224000000000000000e+03 4.373553395271301270e-01 3.242046356201171875e+01 3.245077095925807953e-04 -1.470301896333694458e-01 -4.401170834898948669e-02 4.881257191300392151e-03
3.225000000000000000e+03 4.440859556198120117e-01 3.161731910705566406e+01 3.563708742149174213e-05 -1.378286331892013550e-01 -4.133789986371994019e-02 5.257994402199983597e-03
3.226000000000000000e+03 4.439030289649963379e-01 3.081415367126464844e+01 2.393292015767656267e-05 -1.283202767372131348e-01 -3.848890587687492371e-02 5.282008554786443710e-03
3.227000000000000000e+03 4.381532371044158936e-01 3.001237106323242188e+01 8.313881698995828629e-05 -1.185993328690528870e-01 -3.555485606193542480e-02 5.405324511229991913e-03
3.228000000000000000e+03 4.125921130180358887e-01 2.436580848693847656e+01 -4.566753632389008999e-04 -5.466495454311370850e-02 -1.653648912906646729e-02 3.956116735935211182e-03
3.229000000000000000e+03 2.188788175582885742e+00 2.605852508544921875e+01 -2.027868526056408882e-03 -7.369740307331085205e-02 -2.271758019924163818e-02 2.167857252061367035e-02
3.230000000000000000e+03 3.745910823345184326e-01 2.276756286621093750e+01 -2.168400387745350599e-04 -4.079847782850265503e-02 -1.230459474027156830e-02 2.749542240053415298e-03
3.231000000000000000e+03 3.853383660316467285e-01 2.117310714721679688e+01 -1.445838861400261521e-04 -3.048150055110454559e-02 -9.187825955450534821e-03 2.036946360021829605e-03
3.232000000000000000e+03 1.274083733558654785e+00 -4.189607620239257812e+00 -2.547090662119444460e-05 7.566391490399837494e-03 2.262276131659746170e-03 4.838989116251468658e-03
3.233000000000000000e+03 3.637699484825134277e-01 -5.990858078002929688e+00 -1.890076091513037682e-04 1.819404773414134979e-02 5.401512142270803452e-03 1.642412622459232807e-03
3.234000000000000000e+03 3.446115553379058838e-01 -7.565690994262695312e+00 -1.469967828597873449e-04 2.458104677498340607e-02 7.330214604735374451e-03 9.720777161419391632e-04
3.235000000000000000e+03 1.045597553253173828e+00 -7.626616477966308594e+00 -6.868991185910999775e-04 1.786280982196331024e-02 5.152773112058639526e-03 2.621450694277882576e-03
3.236000000000000000e+03 3.565627932548522949e-01 -8.354247093200683594e+00 -1.721153676044195890e-04 2.648124098777770996e-02 7.892738096415996552e-03 6.773581844754517078e-04
3.237000000000000000e+03 3.497072458267211914e-01 -1.153077030181884766e+01 -7.543946849182248116e-04 2.510786801576614380e-02 7.306041661649942398e-03 -1.135612954385578632e-03
3.238000000000000000e+03 3.376547694206237793e-01 -1.231787490844726562e+01 2.847925352398306131e-04 2.175648696720600128e-02 6.612383760511875153e-03 -1.686997595243155956e-03
3.239000000000000000e+03 3.894852697849273682e-01 -1.389087581634521484e+01 -5.150373326614499092e-04 8.909270167350769043e-03 2.518269699066877365e-03 -4.063521046191453934e-03
3.240000000000000000e+03 4.561312198638916016e-01 -1.639329147338867188e+01 -2.746987593127414584e-05 -2.059093862771987915e-02 -6.185522768646478653e-03 -6.266077049076557159e-03
3.241000000000000000e+03 4.070311486721038818e-01 -1.800115966796875000e+01 -1.933721796376630664e-04 -4.549529030919075012e-02 -1.370659843087196350e-02 -6.798806600272655487e-03
3.242000000000000000e+03 1.217091560363769531e+00 -1.804906845092773438e+01 -1.589160528965294361e-03 -5.584653094410896301e-02 -1.723070628941059113e-02 -2.059959433972835541e-02
3.243000000000000000e+03 4.048629105091094971e-01 -1.879934883117675781e+01 -4.295776307117193937e-04 -5.967926979064941406e-02 -1.803265511989593506e-02 -7.482287939637899399e-03
3.244000000000000000e+03 4.650495946407318115e-01 -4.046979141235351562e+01 -3.061728784814476967e-03 -4.447740912437438965e-01 -1.343507468700408936e-01 -3.893057350069284439e-03
3.245000000000000000e+03 1.123940348625183105e+00 2.192399406433105469e+01 -9.145631920546293259e-04 -3.870810940861701965e-02 -1.188680157065391541e-02 7.056589238345623016e-03
3.246000000000000000e+03 4.243515431880950928e-01 1.874754905700683594e+01 -9.032322850544005632e-06 -2.122290804982185364e-02 -6.369581911712884903e-03 1.085572061128914356e-03
3.247000000000000000e+03 1.214020371437072754e+00 2.035017013549804688e+01 -1.060378388501703739e-03 -3.053287230432033539e-02 -9.477974846959114075e-03 5.287749227136373520e-03
3.248000000000000000e+03 3.718942999839782715e-01 1.714247894287109375e+01 -1.623374919290654361e-05 -1.815727911889553070e-02 -5.452054087072610855e-03 3.879468713421374559e-04
3.249000000000000000e+03 3.449651896953582764e-01 1.555033779144287109e+01 -4.049454946652986109e-05 -1.718250289559364319e-02 -5.166898947209119797e-03 3.721886605489999056e-05
3.250000000000000000e+03 3.439539372920989990e-01 1.396294021606445312e+01 -6.479645526269450784e-05 -1.714483648538589478e-02 -5.162889603525400162e-03 -4.983487997378688306e-06
3.251000000000000000e+03 3.610531389713287354e-01 1.236738491058349609e+01 -4.460977652342990041e-05 -1.658653840422630310e-02 -4.989344626665115356e-03 2.788134152069687843e-04
3.252000000000000000e+03 1.035303473472595215e+00 1.396971797943115234e+01 8.824837277643382549e-05 -1.710673980414867401e-02 -5.105547141283750534e-03 2.337809419259428978e-04
3.253000000000000000e+03 3.785624802112579346e-01 1.076405715942382812e+01 5.458212035591714084e-05 -1.439421996474266052e-02 -4.301891196519136429e-03 7.946924888528883457e-04
3.254000000000000000e+03 1.082225441932678223e+00 1.240327358245849609e+01 4.736178379971534014e-04 -1.594966091215610504e-02 -4.642813000828027725e-03 8.572615915909409523e-04
3.255000000000000000e+03 3.816519677639007568e-01 9.154925346374511719e+00 1.314412656938657165e-04 -1.031315047293901443e-02 -3.054512664675712585e-03 1.205178559757769108e-03
3.256000000000000000e+03 1.138490796089172363e+00 1.080633449554443359e+01 6.364870932884514332e-04 -1.367473136633634567e-02 -3.911473322659730911e-03 2.054031938314437866e-03
3.257000000000000000e+03 3.598620593547821045e-01 6.768591403961181641e+00 -8.883792906999588013e-05 -2.731286454945802689e-03 -8.460373501293361187e-04 1.071870792657136917e-03
3.258000000000000000e+03 1.146614670753479004e+00 8.393386840820312500e+00 -1.669593984843231738e-05 -8.282759226858615875e-03 -2.489836420863866806e-03 3.561566118150949478e-03
3.259000000000000000e+03 3.776051700115203857e-01 5.174667358398437500e+00 -1.356254942947998643e-04 4.680907004512846470e-04 9.973956184694543481e-05 3.591363783925771713e-04
3.260000000000000000e+03 1.090339183807373047e+00 6.846455097198486328e+00 -7.032050634734332561e-04 -4.187101032584905624e-03 -1.467091846279799938e-03 2.801522379741072655e-03
3.261000000000000000e+03 4.180791676044464111e-01 3.502095460891723633e+00 -4.403533821459859610e-04 1.280536642298102379e-03 2.520549751352518797e-04 -8.544189768144860864e-05
3.262000000000000000e+03 1.113862752914428711e+00 5.319903373718261719e+00 -1.295706839300692081e-03 -8.621128508821129799e-04 -6.473459070548415184e-04 1.547801424749195576e-03
3.263000000000000000e+03 4.159128069877624512e-01 -2.039605331420898438e+01 -4.196839290671050549e-04 -9.125640243291854858e-02 -2.750282734632492065e-02 -8.634558878839015961e-03
3.264000000000000000e+03 4.295663237571716309e-01 -2.199565887451171875e+01 -2.106373867718502879e-04 -1.258618980646133423e-01 -3.782176226377487183e-02 -9.535685181617736816e-03
3.265000000000000000e+03 1.303278923034667969e+00 -2.517231941223144531e+01 -8.865803101798519492e-05 -1.967745572328567505e-01 -5.905896797776222229e-02 -2.984342537820339203e-02
3.266000000000000000e+03 1.304030537605285645e+00 -2.437412071228027344e+01 -1.653368526604026556e-04 -1.795980632305145264e-01 -5.392901971936225891e-02 -2.986597083508968353e-02
3.267000000000000000e+03 4.438159465789794922e-01 -2.681012344360351562e+01 1.910479331854730844e-04 -2.383422404527664185e-01 -7.144535332918167114e-02 -1.038823276758193970e-02
3.268000000000000000e+03 4.630107283592224121e-01 -2.841815185546875000e+01 1.591847540112212300e-04 -2.752578556537628174e-01 -8.252960443496704102e-02 -1.037640124559402466e-02
3.269000000000000000e+03 4.861201941967010498e-01 -3.003135871887207031e+01 8.380968210985884070e-05 -3.097376525402069092e-01 -9.289615601301193237e-02 -1.004444062709808350e-02
3.270000000000000000e+03 4.922449588775634766e-01 -3.084041213989257812e+01 6.248517893254756927e-04 -3.257024586200714111e-01 -9.752327948808670044e-02 -9.397096931934356689e-03
3.271000000000000000e+03 4.748642742633819580e-01 -3.245437240600585938e+01 5.140372086316347122e-04 -3.549134135246276855e-01 -1.063198074698448181e-01 -8.310196921229362488e-03
3.272000000000000000e+03 4.275423586368560791e-01 -3.404838180541992188e+01 -1.535326009616255760e-04 -3.807924687862396240e-01 -1.142838001251220703e-01 -6.349768023937940598e-03
3.273000000000000000e+03 2.443207740783691406e+00 -3.602492523193359375e+01 5.578008480370044708e-03 -3.600324988365173340e-01 -1.063363477587699890e-01 -2.607438527047634125e-02
3.274000000000000000e+03 4.438343346118927002e-01 -3.563124465942382812e+01 1.259126875083893538e-04 -4.029611647129058838e-01 -1.208505704998970032e-01 -5.137199535965919495e-03
3.275000000000000000e+03 5.485332012176513672e-01 -3.883408737182617188e+01 -4.642830754164606333e-04 -4.331597387790679932e-01 -1.300872117280960083e-01 -4.754428751766681671e-03
3.276000000000000000e+03 1.684840559959411621e+00 -3.876321411132812500e+01 1.777622033841907978e-03 -4.005069434642791748e-01 -1.196187958121299744e-01 -1.049871090799570084e-02
3.277000000000000000e+03 1.550832867622375488e+00 -3.964471817016601562e+01 1.128423027694225311e-03 -4.081506431102752686e-01 -1.221066638827323914e-01 -1.016937382519245148e-02
3.278000000000000000e+03 1.392907261848449707e+00 -4.121611404418945312e+01 3.357046050950884819e-03 -4.158951640129089355e-01 -1.237614378333091736e-01 -3.118924796581268311e-03
3.279000000000000000e+03 1.581922173500061035e+00 -3.706110382080078125e+01 2.996987197548151016e-03 -3.903157711029052734e-01 -1.161956414580345154e-01 -1.571199111640453339e-02
3.280000000000000000e+03 4.343554973602294922e-01 -2.359733581542968750e+01 1.216868258779868484e-05 -1.624504625797271729e-01 -4.873148724436759949e-02 -1.010158844292163849e-02
3.281000000000000000e+03 3.675779104232788086e-01 -9.943710327148437500e+00 -4.677746037486940622e-04 2.780424058437347412e-02 8.200939744710922241e-03 -1.807407970773056149e-04
3.282000000000000000e+03 4.549923706054687500e+01 3.493177890777587891e+00 -4.491258263587951660e-01 -8.460285514593124390e-02 -1.601185947656631470e-01 -2.638528645038604736e-01
3.283000000000000000e+03 5.008364486694335938e+01 7.910031318664550781e+00 1.906737103126943111e-03 -1.523155160248279572e-02 -3.997444175183773041e-03 9.299073368310928345e-03
3.284000000000000000e+03 3.887529754638671875e+01 6.323001384735107422e+00 -9.916073642671108246e-03 2.486887015402317047e-02 4.485839046537876129e-03 -7.459109183400869370e-03
3.285000000000000000e+03 4.745526885986328125e+01 4.265225887298583984e+00 -3.797571361064910889e-01 7.438910752534866333e-02 -9.161040931940078735e-02 -9.658705443143844604e-02
3.286000000000000000e+03 3.847673797607421875e+01 5.601783752441406250e+00 -3.819141769781708717e-03 4.955394566059112549e-02 1.372044067829847336e-02 -1.787920668721199036e-02
3.287000000000000000e+03 5.870180511474609375e+01 1.150712728500366211e+00 -2.342804193496704102e+00 1.104713678359985352e+00 -3.714271187782287598e-01 2.828251123428344727e-01
3.288000000000000000e+03 6.443392944335937500e+01 1.445361804962158203e+01 7.037377953529357910e-01 6.462593078613281250e+00 2.149899244308471680e+00 -5.143021583557128906e+00
3.289000000000000000e+03 5.469611740112304688e+01 5.632374286651611328e+00 2.647618390619754791e-02 8.551415801048278809e-02 3.359710425138473511e-02 1.511403080075979233e-02
3.290000000000000000e+03 6.183592987060546875e+01 2.430744886398315430e+00 -1.286373585462570190e-01 4.873005390167236328e+00 1.423310399055480957e+00 2.705051183700561523e+00
3.291000000000000000e+03 5.436068725585937500e+01 6.494996547698974609e+00 -3.756840014830231667e-04 4.138632863759994507e-02 1.230319309979677200e-02 -1.591068506240844727e-02
3.292000000000000000e+03 5.979080581665039062e+01 1.012448549270629883e+00 -1.761093378067016602e+00 3.079382419586181641e+00 3.954866826534271240e-01 1.269892096519470215e+00
3.293000000000000000e+03 5.938562774658203125e+01 1.562339425086975098e+00 -1.580144286155700684e+00 1.877919793128967285e+00 8.933262526988983154e-02 7.196637392044067383e-01
3.294000000000000000e+03 5.543392944335937500e+01 7.650401592254638672e+00 -1.489652227610349655e-02 2.075499296188354492e-02 1.757541205734014511e-03 -1.156765501946210861e-03
3.295000000000000000e+03 5.482315444946289062e+01 7.765709400177001953e+00 -1.935324748046696186e-03 2.879680879414081573e-02 8.058445528149604797e-03 -1.394003909081220627e-02
3.296000000000000000e+03 5.522247314453125000e+01 8.145994186401367188e+00 9.532407275401055813e-04 1.125468686223030090e-02 3.662378294393420219e-03 8.628304931335151196e-04
3.297000000000000000e+03 5.963149261474609375e+01 2.553848266601562500e+00 -9.783392399549484253e-02 1.013455748558044434e+00 2.746865451335906982e-01 6.158928275108337402e-01
3.298000000000000000e+03 6.376305007934570312e+01 4.899078845977783203e+00 2.116351366043090820e+00 6.579735279083251953e+00 2.608825922012329102e+00 3.059150934219360352e+00
3.299000000000000000e+03 6.388582611083984375e+01 5.609112262725830078e+00 2.019347190856933594e+00 7.161777496337890625e+00 2.754337310791015625e+00 3.328513145446777344e+00
3.300000000000000000e+03 6.462569427490234375e+01 6.986323356628417969e+00 1.631436228752136230e+00 1.028700828552246094e+01 3.575533390045166016e+00 3.826036453247070312e+00
3.301000000000000000e+03 6.312672805786132812e+01 5.997912883758544922e+00 2.335222959518432617e+00 5.747800350189208984e+00 2.424906969070434570e+00 3.492735624313354492e+00
3.302000000000000000e+03 6.608929443359375000e+01 8.882326126098632812e+00 1.630782246589660645e+00 1.929021263122558594e+01 6.276298522949218750e+00 1.286197900772094727e+00
3.303000000000000000e+03 3.975368118286132812e+01 1.408862781524658203e+01 -6.819317936897277832e-01 1.360943466424942017e-01 -1.637512296438217163e-01 8.970801532268524170e-02
3.304000000000000000e+03 2.756879997253417969e+01 2.633024692535400391e+00 6.716362833976745605e-01 3.663073778152465820e-01 3.113830983638763428e-01 4.408255517482757568e-01
3.305000000000000000e+03 6.712142181396484375e+01 -1.487438488006591797e+01 -1.679392218589782715e+00 5.025470256805419922e-01 -3.530535697937011719e-01 6.848142743110656738e-01
3.306000000000000000e+03 3.514641952514648438e+01 1.506501579284667969e+01 -9.213652014732360840e-01 -2.962332367897033691e-01 -3.652795553207397461e-01 1.478786468505859375e-01
3.307000000000000000e+03 3.346133804321289062e+01 1.458172225952148438e+01 -9.672335386276245117e-01 -9.430827945470809937e-02 -3.184625506401062012e-01 5.479960702359676361e-03
3.308000000000000000e+03 3.179593658447265625e+01 1.421442222595214844e+01 -6.034089326858520508e-01 9.474181570112705231e-03 -1.781804263591766357e-01 -2.493260800838470459e-02
3.309000000000000000e+03 3.019986915588378906e+01 1.483525276184082031e+01 -4.381819665431976318e-01 3.053804486989974976e-02 -1.222931817173957825e-01 8.270275592803955078e-02
3.310000000000000000e+03 2.702116584777832031e+01 1.144699668884277344e+01 -4.833447188138961792e-02 -4.465984180569648743e-02 -2.789829485118389130e-02 -4.869018122553825378e-02
3.311000000000000000e+03 3.102386856079101562e+01 1.273257732391357422e+01 -1.916873902082443237e-01 -5.144216120243072510e-02 -7.293886691331863403e-02 -9.884181618690490723e-02
3.312000000000000000e+03 2.911163330078125000e+01 1.252575969696044922e+01 -1.409994363784790039e-01 -4.490987583994865417e-02 -5.577279254794120789e-02 -4.603327065706253052e-02
3.313000000000000000e+03 2.810452461242675781e+01 1.168406677246093750e+01 -7.076174765825271606e-02 -5.996689200401306152e-02 -3.921858966350555420e-02 -5.110675841569900513e-02
3.314000000000000000e+03 2.548383331298828125e+01 8.737083435058593750e+00 -6.376525759696960449e-02 -3.445286676287651062e-02 -2.946543693542480469e-02 -5.244830995798110962e-02
3.315000000000000000e+03 2.491503715515136719e+01 8.165703773498535156e+00 -6.153715029358863831e-02 -3.260949626564979553e-02 -2.824399434030056000e-02 -4.467033222317695618e-02
3.316000000000000000e+03 2.884169769287109375e+01 1.324105739593505859e+01 -1.872546821832656860e-01 -3.291154652833938599e-02 -6.604987382888793945e-02 -1.307827141135931015e-02
3.317000000000000000e+03 2.987026786804199219e+01 1.289513778686523438e+01 -2.001565992832183838e-01 -3.151012584567070007e-02 -6.950001418590545654e-02 -5.893136560916900635e-02
3.318000000000000000e+03 2.721694946289062500e+01 9.482183456420898438e+00 -7.336151599884033203e-02 -7.197613269090652466e-02 -4.360129311680793762e-02 -7.427056133747100830e-02
3.319000000000000000e+03 1.892822265625000000e+01 6.803074359893798828e+00 -1.922654733061790466e-02 6.264541763812303543e-03 -3.888601902872323990e-03 -6.035665050148963928e-03
3.320000000000000000e+03 7.802536964416503906e+00 7.460257053375244141e+00 1.333606895059347153e-02 -2.490323223173618317e-02 -3.470149124041199684e-03 2.378962188959121704e-02
3.321000000000000000e+03 6.541056156158447266e+00 6.095064640045166016e+00 -1.682710833847522736e-02 -8.819855283945798874e-04 -5.312728229910135269e-03 2.535028941929340363e-02
3.322000000000000000e+03 9.270946502685546875e+00 7.395328044891357422e+00 2.507458627223968506e-02 1.960948854684829712e-02 1.340522151440382004e-02 4.041104577481746674e-03
3.323000000000000000e+03 4.830669403076171875e+00 4.705430030822753906e+00 -1.260768063366413116e-02 1.000146381556987762e-03 -3.482260275632143021e-03 -2.010990283451974392e-04
3.324000000000000000e+03 5.212354183197021484e+00 5.136941432952880859e+00 -1.754810474812984467e-02 1.714235753752291203e-03 -4.750160500407218933e-03 5.785873625427484512e-03
3.325000000000000000e+03 4.318250656127929688e+00 4.408227443695068359e+00 -5.034804344177246094e-03 1.177913858555257320e-03 -1.157067134045064449e-03 2.851120894774794579e-03
3.326000000000000000e+03 5.504050254821777344e+00 5.747925281524658203e+00 -1.365086995065212250e-02 1.210142392665147781e-03 -3.732218174263834953e-03 1.426469255238771439e-02
3.327000000000000000e+03 6.852449893951416016e+00 6.886590957641601562e+00 -8.447770960628986359e-03 -1.733483187854290009e-02 -7.734781131148338318e-03 2.545722573995590210e-02
3.328000000000000000e+03 3.755617618560791016e+00 4.143492698669433594e+00 -6.971463095396757126e-03 -1.336704939603805542e-03 -2.492450410500168800e-03 1.083905808627605438e-03
3.329000000000000000e+03 6.882137298583984375e+01 3.772773504257202148e+00 4.406478881835937500e+00 1.408743762969970703e+01 5.548174858093261719e+00 -2.137157440185546875e+00
3.330000000000000000e+03 6.934239959716796875e+01 3.026104211807250977e+00 4.581010818481445312e+00 1.656342697143554688e+01 6.343331336975097656e+00 -4.546834468841552734e+00
3.331000000000000000e+03 4.575189971923828125e+01 1.515650367736816406e+01 -1.689933419227600098e+00 1.603526622056961060e-01 -4.588741958141326904e-01 -8.542603999376296997e-02
3.332000000000000000e+03 4.454349517822265625e+01 1.477169036865234375e+01 -1.199955344200134277e+00 1.934129297733306885e-01 -3.019627034664154053e-01 -8.503355830907821655e-02
3.333000000000000000e+03 4.475238418579101562e+01 1.331517410278320312e+01 -5.872892141342163086e-01 -7.850202918052673340e-02 -1.997373700141906738e-01 -2.719641923904418945e-01
3.334000000000000000e+03 4.420458602905273438e+01 1.290361022949218750e+01 -4.345911145210266113e-01 -4.448623210191726685e-02 -1.437232047319412231e-01 -2.152532339096069336e-01
3.335000000000000000e+03 4.545957565307617188e+01 1.452231121063232422e+01 -1.355526089668273926e+00 -1.216007210314273834e-02 -4.103058576583862305e-01 -4.014265537261962891e-01
3.336000000000000000e+03 4.994262218475341797e+00 -3.043605566024780273e+00 5.190903320908546448e-03 1.031385851092636585e-03 1.866686623543500900e-03 8.209005929529666901e-03
3.337000000000000000e+03 5.931467533111572266e+00 -3.947052955627441406e+00 1.708042691461741924e-03 6.240072980290278792e-05 5.311330314725637436e-04 7.819090038537979126e-03
3.338000000000000000e+03 2.417680549621582031e+01 -1.066567516326904297e+01 -5.785936117172241211e-01 -8.393561244010925293e-01 -4.253849089145660400e-01 -5.085447430610656738e-01
3.339000000000000000e+03 2.175150680541992188e+01 2.203867197036743164e+00 4.372089169919490814e-03 5.367958452552556992e-03 2.922014333307743073e-03 2.858045918401330709e-04
3.340000000000000000e+03 2.272618865966796875e+01 1.516792774200439453e+00 2.195131033658981323e-02 1.431837305426597595e-02 1.088090520352125168e-02 2.641487494111061096e-02
3.341000000000000000e+03 7.098384094238281250e+01 -1.669232559204101562e+01 -2.775191307067871094e+00 4.619575500488281250e+00 5.533152222633361816e-01 3.695457696914672852e+00
3.342000000000000000e+03 7.231027221679687500e+01 9.622390568256378174e-02 -1.491023540496826172e+00 1.836103558540344238e+00 1.035240218043327332e-01 -4.777703762054443359e+00
3.343000000000000000e+03 4.969147109985351562e+01 6.353710651397705078e+00 -9.120786190032958984e-02 -3.245039610192179680e-03 -2.833587117493152618e-02 7.582983002066612244e-03
3.344000000000000000e+03 4.542293548583984375e+01 -8.519231796264648438e+00 1.464104652404785156e-01 6.362735033035278320e-01 2.348051965236663818e-01 -2.614326775074005127e-01
3.345000000000000000e+03 6.757769012451171875e+01 -1.546220016479492188e+01 -3.068362236022949219e+00 5.004996061325073242e-01 -7.703588008880615234e-01 8.974446058273315430e-01
3.346000000000000000e+03 6.798164367675781250e+01 -1.607331275939941406e+01 -3.048125267028808594e+00 8.646281957626342773e-01 -6.550491452217102051e-01 8.369390666484832764e-02
3.347000000000000000e+03 5.333216094970703125e+01 3.096086502075195312e+00 -2.787790000438690186e-01 -2.272013723850250244e-01 -1.517941057682037354e-01 3.397890627384185791e-01
3.348000000000000000e+03 3.549755573272705078e+00 -3.077069854736328125e+01 7.980306632816791534e-03 -2.793931066989898682e-01 -8.142384141683578491e-02 -6.199374794960021973e-02
3.349000000000000000e+03 3.593747138977050781e+00 -3.172804832458496094e+01 8.559046313166618347e-03 -2.924343049526214600e-01 -8.516258001327514648e-02 -5.820264667272567749e-02
3.350000000000000000e+03 7.625140380859375000e+01 3.097064590454101562e+01 -4.981780797243118286e-02 6.813049793243408203e+00 2.028969526290893555e+00 8.306042104959487915e-02
3.351000000000000000e+03 7.673760223388671875e+01 3.566431427001953125e+01 -1.996381022036075592e-02 6.936801910400390625e+00 2.075051546096801758e+00 2.375804120674729347e-03
3.352000000000000000e+03 7.655688476562500000e+01 -3.464134597778320312e+01 5.635068193078041077e-02 6.934844970703125000e+00 2.097358703613281250e+00 2.060072869062423706e-01
3.353000000000000000e+03 7.551504516601562500e+01 -3.360719299316406250e+01 1.120614558458328247e-01 6.620067596435546875e+00 2.019638776779174805e+00 2.938737869262695312e-01
3.354000000000000000e+03 2.634549140930175781e+00 3.491083908081054688e+01 4.126525949686765671e-03 -1.557622700929641724e-01 -4.549072310328483582e-02 2.292011864483356476e-02
3.355000000000000000e+03 2.374270057678222656e+01 1.013333678245544434e+00 2.658298425376415253e-02 6.492820382118225098e-02 2.745335735380649567e-02 1.000331938266754150e-01
3.356000000000000000e+03 2.010470867156982422e+00 3.462051391601562500e+00 3.326350706629455090e-04 -2.746192876657005399e-05 9.155194857157766819e-05 -1.762004540069028735e-04
3.357000000000000000e+03 3.381366968154907227e+00 3.220539808273315430e+00 -2.981969853863120079e-03 -2.064394531771540642e-03 -1.513909315690398216e-03 5.834357580170035362e-04
3.358000000000000000e+03 5.008747482299804688e+01 1.592308330535888672e+01 -2.180266857147216797e+00 -7.926713228225708008e-01 -8.918814063072204590e-01 2.042014002799987793e-01
3.359000000000000000e+03 5.074425506591796875e+01 1.498602104187011719e+01 -2.635324716567993164e+00 -2.959467768669128418e-01 -8.793814778327941895e-01 7.927277088165283203e-01
3.360000000000000000e+03 7.573929786682128906e+00 -3.328419446945190430e+00 4.268927965313196182e-03 -2.942922525107860565e-03 3.978015447501093149e-04 6.048543844372034073e-03
3.361000000000000000e+03 5.432188796997070312e+01 -7.088284969329833984e+00 1.968064457178115845e-01 -1.852996349334716797e-01 3.452042583376169205e-03 1.584580987691879272e-01
3.362000000000000000e+03 5.340408325195312500e+01 -5.788291931152343750e+00 3.552965223789215088e-01 -5.573081374168395996e-01 -6.060348823666572571e-02 -2.861956506967544556e-02
3.363000000000000000e+03 2.789007949829101562e+01 1.826413989067077637e+00 -1.710979617200791836e-03 3.189323842525482178e-01 9.516642242670059204e-02 2.547238767147064209e-01
3.364000000000000000e+03 3.797118377685546875e+01 1.471848487854003906e+01 -8.171622157096862793e-01 1.116616055369377136e-01 -2.116501778364181519e-01 1.338455528020858765e-01
3.365000000000000000e+03 3.648699188232421875e+01 1.453300952911376953e+01 -9.713206887245178223e-01 -7.412905991077423096e-02 -3.136349320411682129e-01 1.175624206662178040e-01
3.366000000000000000e+03 4.094651794433593750e+01 1.374237537384033203e+01 -6.500142216682434082e-01 1.369266957044601440e-01 -1.539262533187866211e-01 2.093942090868949890e-02
3.367000000000000000e+03 4.036088180541992188e+01 1.391582489013671875e+01 -6.616340279579162598e-01 1.543048620223999023e-01 -1.521987468004226685e-01 6.539658457040786743e-02
3.368000000000000000e+03 4.153071975708007812e+01 1.359092617034912109e+01 -6.454969644546508789e-01 1.519606262445449829e-01 -1.480609029531478882e-01 -6.733810529112815857e-03
3.369000000000000000e+03 4.173139953613281250e+01 1.410494041442871094e+01 -7.382735610008239746e-01 1.567036509513854980e-01 -1.744709610939025879e-01 -7.359167560935020447e-03
3.370000000000000000e+03 1.565525722503662109e+01 -2.263944625854492188e+00 1.379612926393747330e-02 1.397173106670379639e-02 8.330358192324638367e-03 -2.184307016432285309e-02
3.371000000000000000e+03 3.284867858886718750e+01 5.315373420715332031e+00 2.113945782184600830e-01 -8.590369671583175659e-02 3.764726594090461731e-02 -3.390738740563392639e-02
3.372000000000000000e+03 2.361931037902832031e+01 -1.469276547431945801e+00 -8.844532817602157593e-02 1.190853789448738098e-01 9.192015975713729858e-03 -1.506714150309562683e-02
3.373000000000000000e+03 2.415406942367553711e+00 -3.141844987869262695e+00 2.228783210739493370e-03 3.471422707661986351e-03 1.710061798803508282e-03 6.992912851274013519e-03
3.374000000000000000e+03 6.626608276367187500e+01 1.324214076995849609e+01 2.733941078186035156e+00 1.606518363952636719e+01 5.639737129211425781e+00 1.129543632268905640e-01
3.375000000000000000e+03 6.585578918457031250e+01 1.510215854644775391e+01 -6.847382187843322754e-01 1.131975078582763672e+01 3.190503597259521484e+00 -2.248547554016113281e+00
3.376000000000000000e+03 2.100987243652343750e+01 -9.832395553588867188e+00 -4.470956921577453613e-01 2.447852678596973419e-02 -1.267851442098617554e-01 -5.872329697012901306e-02
3.377000000000000000e+03 2.213623619079589844e+01 8.012518882751464844e+00 -3.674597665667533875e-02 2.267416194081306458e-02 -4.221544601023197174e-03 -1.068140007555484772e-02
3.378000000000000000e+03 3.428280639648437500e+01 7.289564132690429688e+00 9.238459914922714233e-02 -8.882719092071056366e-03 2.505056373775005341e-02 1.009526941925287247e-02
3.379000000000000000e+03 2.354837989807128906e+01 6.582377433776855469e+00 -4.888805374503135681e-02 -1.026007998734712601e-02 -1.774444058537483215e-02 -3.116682544350624084e-02
3.380000000000000000e+03 4.753795242309570312e+01 -1.579485321044921875e+01 -4.856334030628204346e-01 5.341202616691589355e-01 1.454605441540479660e-02 -5.843761190772056580e-02
3.381000000000000000e+03 4.961907386779785156e+00 -3.678544282913208008e+00 1.598725561052560806e-03 7.178185624070465565e-04 6.949632661417126656e-04 9.183371439576148987e-03
3.382000000000000000e+03 2.371890449523925781e+01 8.060608059167861938e-02 -5.383048579096794128e-02 1.149487644433975220e-01 1.833548210561275482e-02 8.191499859094619751e-02
3.383000000000000000e+03 2.195064353942871094e+01 1.696527749300003052e-01 -8.149185217916965485e-03 5.373828113079071045e-02 1.367672812193632126e-02 1.037066895514726639e-02
3.384000000000000000e+03 6.217942810058593750e+01 -7.392479419708251953e+00 7.990583777427673340e-01 9.147481918334960938e+00 2.983962059020996094e+00 6.048018932342529297e-01
3.385000000000000000e+03 5.196932220458984375e+01 1.378862571716308594e+01 -1.152205586433410645e+00 -1.126325502991676331e-01 -3.794514238834381104e-01 7.556045651435852051e-01
3.386000000000000000e+03 4.031005859375000000e+01 -9.739967346191406250e+00 1.817461252212524414e-01 4.027244821190834045e-02 6.660557538270950317e-02 -1.518278568983078003e-01
3.387000000000000000e+03 1.041653060913085938e+01 8.243499755859375000e+00 1.967801526188850403e-02 4.654147475957870483e-02 1.986584812402725220e-02 1.726097241044044495e-02
3.388000000000000000e+03 5.155666351318359375e+01 8.072074890136718750e+00 7.143170805647969246e-04 -3.254439309239387512e-02 -9.549023583531379700e-03 -6.056405603885650635e-03
3.389000000000000000e+03 4.418251419067382812e+01 1.349043083190917969e+01 -6.700645685195922852e-01 2.008407935500144958e-02 -1.949941515922546387e-01 -2.153762876987457275e-01
3.390000000000000000e+03 4.642301177978515625e+01 -1.355955028533935547e+01 -1.091293618083000183e-01 5.057859420776367188e-01 1.189969852566719055e-01 -1.955618262290954590e-01
3.391000000000000000e+03 3.853947448730468750e+01 1.448179054260253906e+01 -7.595949769020080566e-01 1.145610883831977844e-01 -1.935101598501205444e-01 1.332610547542572021e-01
3.392000000000000000e+03 2.212888717651367188e+01 7.334377288818359375e+00 -4.402679577469825745e-02 1.137972902506589890e-02 -9.794119745492935181e-03 -2.068878896534442902e-02
3.393000000000000000e+03 7.700310516357421875e+01 7.190481662750244141e+00 2.515235185623168945e+00 1.086162090301513672e+01 4.013056755065917969e+00 -1.497232913970947266e+00
3.394000000000000000e+03 7.822819519042968750e+01 5.878674507141113281e+00 6.400675773620605469e-01 8.476452827453613281e+00 2.734956264495849609e+00 -2.053815841674804688e+00
3.395000000000000000e+03 5.099692153930664062e+01 -1.719907188415527344e+01 -6.930293440818786621e-01 6.973149627447128296e-02 -1.869893521070480347e-01 2.945918440818786621e-01
3.396000000000000000e+03 2.892216110229492188e+01 1.088557600975036621e+00 -6.557589769363403320e-01 -1.648927181959152222e-01 -2.461955100297927856e-01 2.837581001222133636e-02
3.397000000000000000e+03 2.974861145019531250e+01 -5.958556532859802246e-01 -1.724659681320190430e+00 -5.797085165977478027e-01 -6.913104653358459473e-01 -5.432894825935363770e-01
3.398000000000000000e+03 2.359967613220214844e+01 9.794672966003417969e+00 -2.594065666198730469e-02 2.894673869013786316e-02 9.018243872560560703e-04 -1.756878453306853771e-03
3.399000000000000000e+03 2.874787330627441406e+01 4.655247032642364502e-01 -8.180556893348693848e-01 -7.146437466144561768e-02 -2.668560147285461426e-01 -3.779233992099761963e-02
3.400000000000000000e+03 7.174464416503906250e+01 -7.590114116668701172e+00 1.087115168571472168e+00 8.586717605590820312e+00 2.902149915695190430e+00 -2.181634664535522461e+00
3.401000000000000000e+03 2.490359497070312500e+01 -1.117318058013916016e+01 -4.313675165176391602e-01 -1.032582879066467285e+00 -4.391851127147674561e-01 -3.421776592731475830e-01
3.402000000000000000e+03 6.845892333984375000e+01 6.055233955383300781e+00 4.342295825481414795e-01 1.390395927429199219e+01 4.301456928253173828e+00 -1.378787517547607422e+00
3.403000000000000000e+03 2.538283729553222656e+01 -1.670609116554260254e-01 -2.342429608106613159e-01 1.840002834796905518e-01 -1.507280301302671432e-02 3.455030173063278198e-02
3.404000000000000000e+03 2.528012847900390625e+01 1.269147515296936035e+00 3.948306664824485779e-02 1.714318245649337769e-01 6.327446550130844116e-02 1.973285079002380371e-01
3.405000000000000000e+03 5.313164520263671875e+01 5.200009822845458984e+00 -3.126434981822967529e-02 -5.825502052903175354e-02 -2.685581147670745850e-02 2.771510183811187744e-02
3.406000000000000000e+03 5.336443710327148438e+01 7.438632488250732422e+00 -8.648611605167388916e-03 -1.010322757065296173e-02 -5.625551566481590271e-03 -1.939379237592220306e-02
3.407000000000000000e+03 5.287845230102539062e+01 8.143936157226562500e+00 -1.233647693879902363e-03 -1.948723196983337402e-02 -6.216263864189386368e-03 -1.804622448980808258e-02
3.408000000000000000e+03 6.492807769775390625e+01 -1.360451507568359375e+01 -1.145950078964233398e+00 2.922533750534057617e+00 5.329751372337341309e-01 -2.371830940246582031e-01
3.409000000000000000e+03 6.597402954101562500e+01 -1.472262382507324219e+01 -1.508065223693847656e+00 1.834295153617858887e+00 9.786898642778396606e-02 2.227688767015933990e-02
3.410000000000000000e+03 3.395927810668945312e+01 -1.341861629486083984e+01 -1.149881184101104736e-01 4.289539456367492676e-01 9.418974816799163818e-02 -1.090881451964378357e-01
3.411000000000000000e+03 4.077587127685546875e+01 -1.815625190734863281e+01 -7.379262447357177734e-01 -4.412410855293273926e-01 -3.537501990795135498e-01 -1.070116981863975525e-01
3.412000000000000000e+03 5.576103591918945312e+01 1.366918849945068359e+01 -1.192041516304016113e+00 3.355914652347564697e-01 -2.569350004196166992e-01 2.178004533052444458e-01
3.413000000000000000e+03 5.503677749633789062e+01 1.449939060211181641e+01 -1.178501725196838379e+00 3.987065255641937256e-01 -2.339385449886322021e-01 3.129633665084838867e-01
3.414000000000000000e+03 4.009444808959960938e+01 -2.160957336425781250e+00 -8.099792003631591797e-01 -8.554006218910217285e-01 -4.996139407157897949e-01 -7.829978317022323608e-02
3.415000000000000000e+03 3.962372207641601562e+01 -1.039410352706909180e+00 -1.829406857490539551e+00 -1.174386739730834961e+00 -9.011380672454833984e-01 -9.645392000675201416e-02
3.416000000000000000e+03 6.974766540527343750e+01 4.718904495239257812e-01 -1.939681291580200195e+00 9.041902542114257812e+00 2.130666255950927734e+00 -3.346328258514404297e+00
3.417000000000000000e+03 2.290368652343750000e+01 9.839062690734863281e-01 2.282699383795261383e-02 4.209436848759651184e-02 1.947640813887119293e-02 5.678267776966094971e-02
3.418000000000000000e+03 5.815839004516601562e+01 1.434819698333740234e+01 -1.120407938957214355e+00 5.848005414009094238e-01 -1.606822162866592407e-01 -4.262788221240043640e-02
3.419000000000000000e+03 6.748487091064453125e+01 1.040616607666015625e+01 3.619395971298217773e+00 1.498198986053466797e+01 5.580415725708007812e+00 2.605840861797332764e-01
3.420000000000000000e+03 3.307485580444335938e+01 5.770597457885742188e-01 -1.199700355529785156e+00 2.401317507028579712e-01 -2.878705859184265137e-01 -6.055621504783630371e-01
3.421000000000000000e+03 3.403208923339843750e+01 -1.022503256797790527e+00 -7.304733395576477051e-01 6.925246715545654297e-01 -1.138459146022796631e-02 -1.977331936359405518e-01
3.422000000000000000e+03 4.287757110595703125e+01 -1.464733028411865234e+01 -3.978095650672912598e-01 2.624686062335968018e-02 -1.114688143134117126e-01 -2.762120664119720459e-01
3.423000000000000000e+03 3.885348129272460938e+01 -5.685488224029541016e+00 6.151127815246582031e-01 2.988629229366779327e-02 1.934997141361236572e-01 -4.223814308643341064e-01
3.424000000000000000e+03 3.799311065673828125e+01 -4.492650985717773438e+00 5.403260588645935059e-01 1.706492006778717041e-01 2.132925838232040405e-01 -4.991323947906494141e-01
3.425000000000000000e+03 2.136561203002929688e+01 7.348203182220458984e+00 -3.289335221052169800e-02 1.983394287526607513e-02 -3.917822614312171936e-03 -1.221043523401021957e-02
3.426000000000000000e+03 1.126939392089843750e+01 -3.592641353607177734e+00 2.747575519606471062e-03 -8.117444813251495361e-03 -1.610960811376571655e-03 -2.376531949266791344e-03
3.427000000000000000e+03 3.454212570190429688e+01 1.608933067321777344e+01 -7.144237756729125977e-01 -2.049023509025573730e-01 -2.757978439331054688e-01 1.931920796632766724e-01
3.428000000000000000e+03 3.374486160278320312e+01 1.618999862670898438e+01 -6.799318194389343262e-01 -1.586473584175109863e-01 -2.515737712383270264e-01 2.244120836257934570e-01
3.429000000000000000e+03 5.281562423706054688e+01 1.453843593597412109e+01 -1.428575277328491211e+00 1.764473468065261841e-01 -3.756383955478668213e-01 5.767089724540710449e-01
3.430000000000000000e+03 1.983916473388671875e+01 7.372488021850585938e+00 -1.852572150528430939e-02 1.350286416709423065e-02 -1.506856991909444332e-03 -4.577094689011573792e-03
3.431000000000000000e+03 1.964158058166503906e+01 7.909152984619140625e+00 -3.320969874039292336e-03 1.097540091723203659e-02 2.296329243108630180e-03 1.411905541317537427e-04
3.432000000000000000e+03 2.060000419616699219e+01 7.403967857360839844e+00 -2.776102721691131592e-02 1.038279291242361069e-02 -5.213470198214054108e-03 -1.248962711542844772e-02
3.433000000000000000e+03 7.105294799804687500e+01 9.655901908874511719e+00 2.717961668968200684e-01 2.454158544540405273e+00 8.177863955497741699e-01 1.212800383567810059e+00
3.434000000000000000e+03 8.928390502929687500e+00 -2.655869483947753906e+00 9.559342637658119202e-03 -3.931985236704349518e-03 1.688207383267581463e-03 2.691154135391116142e-03
3.435000000000000000e+03 5.703166961669921875e+01 -1.923167991638183594e+01 -4.971409142017364502e-01 4.403464794158935547e+00 1.171897172927856445e+00 -9.792936593294143677e-02
3.436000000000000000e+03 3.446007919311523438e+01 6.730864048004150391e+00 9.551508724689483643e-02 -4.232023283839225769e-02 1.595845632255077362e-02 -6.625272799283266068e-03
3.437000000000000000e+03 5.513932800292968750e+01 -4.971790015697479248e-01 -1.449606180191040039e+00 -5.025141239166259766e-01 -5.856360793113708496e-01 -5.458811521530151367e-01
3.438000000000000000e+03 5.628200531005859375e+01 1.169850677251815796e-01 -2.116169929504394531e+00 -9.070791602134704590e-01 -9.069747328758239746e-01 -3.987342119216918945e-01
3.439000000000000000e+03 3.650195312500000000e+01 -1.643994712829589844e+01 -5.315713882446289062e-01 2.560796439647674561e-01 -8.264751732349395752e-02 -6.840783357620239258e-02
3.440000000000000000e+03 6.194646835327148438e+01 -3.415159940719604492e+00 1.303069472312927246e+00 8.320281982421875000e+00 2.887005329132080078e+00 7.272670865058898926e-01
3.441000000000000000e+03 6.063785552978515625e+01 -3.452006101608276367e+00 1.019090294837951660e+00 5.862218856811523438e+00 2.064392805099487305e+00 6.629064083099365234e-01
3.442000000000000000e+03 4.639166259765625000e+01 3.622014284133911133e+00 -4.650515019893646240e-01 3.246146440505981445e-02 -1.297770142555236816e-01 -1.961639076471328735e-01
3.443000000000000000e+03 6.537490081787109375e+01 -1.554786801338195801e+00 -1.857257723808288574e+00 -9.600815176963806152e-02 -5.859797596931457520e-01 4.157532691955566406e+00
3.444000000000000000e+03 6.529305267333984375e+01 -8.407306075096130371e-01 -2.859112739562988281e+00 3.285111665725708008e+00 1.277996748685836792e-01 4.115374088287353516e+00
3.445000000000000000e+03 5.427985763549804688e+01 1.454351615905761719e+01 -1.247930169105529785e+00 3.050004541873931885e-01 -2.828789353370666504e-01 4.190907180309295654e-01
3.446000000000000000e+03 3.163343620300292969e+01 4.478742122650146484e+00 3.618355095386505127e-01 -1.290677636861801147e-01 6.983032077550888062e-02 -5.079254973679780960e-03
3.447000000000000000e+03 3.221698379516601562e+01 4.897976398468017578e+00 2.654874622821807861e-01 -1.288469135761260986e-01 4.099217057228088379e-02 -1.254147570580244064e-02
3.448000000000000000e+03 5.066567993164062500e+01 -3.903091907501220703e+00 -1.751707494258880615e-02 -1.332656294107437134e-01 -4.523481056094169617e-02 -3.077198937535285950e-02
3.449000000000000000e+03 6.740480041503906250e+01 1.196766853332519531e+01 4.279907703399658203e+00 1.539489173889160156e+01 5.902439594268798828e+00 1.878414988517761230e+00
3.450000000000000000e+03 2.560154342651367188e+01 -8.851083755493164062e+00 -1.422617673873901367e+00 -2.081926584243774414e+00 -1.051363348960876465e+00 -7.828512191772460938e-01
3.451000000000000000e+03 5.641879653930664062e+01 -1.382259273529052734e+01 -7.141920179128646851e-02 4.353742122650146484e+00 1.284696817398071289e+00 4.960477948188781738e-01
3.452000000000000000e+03 6.971994781494140625e+01 -4.388676643371582031e+00 -1.851753115653991699e+00 4.174047470092773438e+00 6.966882348060607910e-01 -1.441639065742492676e+00
3.453000000000000000e+03 4.298971176147460938e+01 -3.900990188121795654e-01 -1.551315426826477051e+00 -1.058983244001865387e-02 -4.685715734958648682e-01 -2.965345382690429688e-01
3.454000000000000000e+03 3.913689804077148438e+01 1.427349948883056641e+01 -7.137526869773864746e-01 1.452694386243820190e-01 -1.705449819564819336e-01 1.233012527227401733e-01
3.455000000000000000e+03 7.020606231689453125e+01 -4.951810836791992188e+00 -9.039562940597534180e-01 4.547193050384521484e+00 1.092971086502075195e+00 -1.680571794509887695e+00
3.456000000000000000e+03 6.965020751953125000e+01 -5.363588809967041016e+00 -3.195530176162719727e-01 3.411817789077758789e+00 9.276794195175170898e-01 -1.509755492210388184e+00
3.457000000000000000e+03 1.282662296295166016e+01 1.223766899108886719e+01 1.182277034968137741e-02 2.102776616811752319e-02 9.855161421000957489e-03 1.799044013023376465e-02
3.458000000000000000e+03 1.783890724182128906e+01 7.349401473999023438e+00 6.050516385585069656e-03 4.137939307838678360e-03 3.056536661460995674e-03 4.296968691051006317e-03
3.459000000000000000e+03 1.805018806457519531e+01 6.761806964874267578e+00 -1.556474808603525162e-02 -3.380096517503261566e-03 -5.683453287929296494e-03 -8.967886678874492645e-03
3.460000000000000000e+03 1.685154342651367188e+01 -5.844071865081787109e+00 -1.185456011444330215e-02 5.188235081732273102e-03 -1.999897416681051254e-03 -1.003053621388971806e-03
3.461000000000000000e+03 6.878257751464843750e+01 -3.267069339752197266e+00 -3.858877182006835938e+00 4.064218521118164062e+00 6.160234659910202026e-02 -8.449949026107788086e-01
3.462000000000000000e+03 6.431733703613281250e+01 -1.301822853088378906e+01 -1.139439940452575684e+00 3.813708543777465820e+00 8.022806048393249512e-01 -2.743169665336608887e-01
3.463000000000000000e+03 6.401919555664062500e+01 -1.123073005676269531e+01 -3.427998349070549011e-02 5.269692420959472656e+00 1.570623755455017090e+00 -7.443363070487976074e-01
3.464000000000000000e+03 3.052913284301757812e+01 3.621806859970092773e+00 4.785815477371215820e-01 -1.596228033304214478e-01 9.568762034177780151e-02 2.179737947881221771e-02
3.465000000000000000e+03 2.108421707153320312e+01 9.693049430847167969e+00 9.265792556107044220e-03 2.687950059771537781e-02 1.084358803927898407e-02 1.721903122961521149e-02
3.466000000000000000e+03 5.630632019042968750e+01 -8.700341224670410156e+00 -3.461887314915657043e-02 1.884424448013305664e+00 5.549416542053222656e-01 6.304126977920532227e-01
3.467000000000000000e+03 3.832664871215820312e+01 -6.184687614440917969e+00 5.358811020851135254e-01 3.081620633602142334e-01 2.532129585742950439e-01 -5.270720720291137695e-01
3.468000000000000000e+03 7.783582305908203125e+01 2.633672142028808594e+01 -4.316500946879386902e-02 6.933503150939941406e+00 2.067101478576660156e+00 1.971483230590820312e-01
3.469000000000000000e+03 7.618496704101562500e+01 3.222525024414062500e+01 -5.869528651237487793e-02 6.805680751800537109e+00 2.024095535278320312e+00 5.006083101034164429e-02
3.470000000000000000e+03 7.803661346435546875e+01 1.583307552337646484e+01 9.276431798934936523e-02 5.853296756744384766e+00 1.783818364143371582e+00 9.730747342109680176e-02
3.471000000000000000e+03 7.798622894287109375e+01 1.426089382171630859e+01 4.429713264107704163e-02 5.890296459197998047e+00 1.780378103256225586e+00 -2.553380094468593597e-02
3.472000000000000000e+03 7.827008056640625000e+01 5.186220645904541016e+00 6.078789234161376953e-01 8.639436721801757812e+00 2.774194717407226562e+00 -2.258775234222412109e+00
3.473000000000000000e+03 7.763549041748046875e+01 4.529845714569091797e+00 2.937031984329223633e-01 1.037331199645996094e+01 3.200104713439941406e+00 -2.565305471420288086e+00
3.474000000000000000e+03 7.813980102539062500e+01 8.344202995300292969e+00 9.081030488014221191e-01 7.368878364562988281e+00 2.483094453811645508e+00 1.939354240894317627e-01
3.475000000000000000e+03 7.832018280029296875e+01 -1.729219436645507812e+01 -1.239008307456970215e-01 8.796139717102050781e+00 2.601671457290649414e+00 -5.576957464218139648e-01
3.476000000000000000e+03 7.827595520019531250e+01 -1.802831268310546875e+01 -1.731967926025390625e-01 8.899309158325195312e+00 2.617833852767944336e+00 -4.265233576297760010e-01
3.477000000000000000e+03 7.822086334228515625e+01 -1.582450103759765625e+01 -7.690289989113807678e-03 8.514286994934082031e+00 2.551979064941406250e+00 -7.054046988487243652e-01
3.478000000000000000e+03 7.830269622802734375e+01 -1.656203651428222656e+01 -8.606006950139999390e-02 8.660384178161621094e+00 2.572297334671020508e+00 -6.216456890106201172e-01
3.479000000000000000e+03 7.828112030029296875e+01 -5.371054649353027344e+00 7.752142846584320068e-02 9.197794914245605469e+00 2.782594919204711914e+00 1.051079034805297852e+00
3.480000000000000000e+03 7.826794433593750000e+01 -6.143294334411621094e+00 2.351219207048416138e-02 8.914269447326660156e+00 2.681334495544433594e+00 1.007106900215148926e+00
3.481000000000000000e+03 7.802142333984375000e+01 3.082239151000976562e+00 -6.540975570678710938e-01 9.993528366088867188e+00 2.801829099655151367e+00 -2.535473823547363281e+00
3.482000000000000000e+03 7.766438293457031250e+01 2.482084274291992188e+00 -9.727870821952819824e-01 9.960254669189453125e+00 2.696240425109863281e+00 -2.206789493560791016e+00
3.483000000000000000e+03 7.688311767578125000e+01 -1.487206518650054932e-01 -1.467570781707763672e+00 8.371069908142089844e+00 2.071049928665161133e+00 4.398444592952728271e-01
3.484000000000000000e+03 7.732185363769531250e+01 -6.180042028427124023e-01 -1.015444755554199219e+00 9.105395317077636719e+00 2.426985263824462891e+00 5.095878243446350098e-01
3.485000000000000000e+03 7.822410583496093750e+01 -3.053784847259521484e+00 -1.420437693595886230e-01 9.841573715209960938e+00 2.909858942031860352e+00 1.016360163688659668e+00
3.486000000000000000e+03 7.827536010742187500e+01 -3.841662168502807617e+00 1.647829636931419373e-02 9.686654090881347656e+00 2.910939693450927734e+00 1.062027812004089355e+00
3.487000000000000000e+03 7.828639984130859375e+01 -4.606011390686035156e+00 -2.764289826154708862e-02 9.435580253601074219e+00 2.822381258010864258e+00 1.047057747840881348e+00
3.488000000000000000e+03 7.823991394042968750e+01 -6.922795295715332031e+00 1.464697718620300293e-01 8.665689468383789062e+00 2.643647670745849609e+00 9.607599973678588867e-01
3.489000000000000000e+03 7.818663024902343750e+01 -7.711576938629150391e+00 1.255852431058883667e-01 8.437637329101562500e+00 2.568966627120971680e+00 8.631424903869628906e-01
3.490000000000000000e+03 7.737522125244140625e+01 -8.460031509399414062e+00 3.546741902828216553e-01 8.414573669433593750e+00 2.630774497985839844e+00 8.582699894905090332e-01
3.491000000000000000e+03 7.810777282714843750e+01 -1.425308036804199219e+01 1.386174261569976807e-01 8.226699829101562500e+00 2.509595394134521484e+00 -6.189609766006469727e-01
3.492000000000000000e+03 7.815265655517578125e+01 -1.505878162384033203e+01 7.935098558664321899e-02 8.361552238464355469e+00 2.532270908355712891e+00 -6.755309700965881348e-01
3.493000000000000000e+03 7.791064453125000000e+01 -2.527681541442871094e+01 -1.904916134662926197e-04 8.253951072692871094e+00 2.476128339767456055e+00 3.468956649303436279e-01
3.494000000000000000e+03 7.791258239746093750e+01 -2.607695770263671875e+01 -5.764781497418880463e-03 8.145288467407226562e+00 2.441857099533081055e+00 3.518371880054473877e-01
3.495000000000000000e+03 7.776858520507812500e+01 -3.366350936889648438e+01 2.420858480036258698e-02 7.312850475311279297e+00 2.201117753982543945e+00 1.799594461917877197e-01
3.496000000000000000e+03 7.792466735839843750e+01 -3.553182601928710938e+01 1.074019633233547211e-02 7.231664657592773438e+00 2.172721624374389648e+00 1.455752253532409668e-01
3.497000000000000000e+03 7.771557617187500000e+01 7.001875400543212891e+00 1.514418244361877441e+00 9.318736076354980469e+00 3.249946355819702148e+00 -1.560996294021606445e+00
3.498000000000000000e+03 7.828032684326171875e+01 4.490486621856689453e+00 3.317767977714538574e-01 9.127014160156250000e+00 2.837637424468994141e+00 -2.680818319320678711e+00
3.499000000000000000e+03 7.790618896484375000e+01 -2.365821838378906250e+01 -4.568190127611160278e-02 8.472910881042480469e+00 2.528168916702270508e+00 3.151918351650238037e-01
3.500000000000000000e+03 3.810524368286132812e+01 4.868893146514892578e+00 -2.520643174648284912e-02 7.984147965908050537e-02 1.639051362872123718e-02 -2.309130318462848663e-02
3.501000000000000000e+03 2.640345573425292969e+00 2.258275985717773438e+01 -3.490649396553635597e-03 -4.759068414568901062e-02 -1.532439980655908585e-02 1.850457862019538879e-02
3.502000000000000000e+03 2.200955867767333984e+00 3.592892074584960938e+01 2.009454416111111641e-03 -1.669102311134338379e-01 -4.947023093700408936e-02 1.603402756154537201e-02
3.503000000000000000e+03 2.283921718597412109e+00 -4.497778415679931641e+00 -3.783203719649463892e-04 5.122301634401082993e-03 1.423194422386586666e-03 7.327426224946975708e-03
3.504000000000000000e+03 1.882949590682983398e+00 -5.856980323791503906e+00 -7.273461087606847286e-04 9.772182442247867584e-03 2.713450929149985313e-03 6.282745394855737686e-03
3.505000000000000000e+03 2.137215375900268555e+00 -1.664162826538085938e+01 -3.636864712461829185e-03 -4.528696089982986450e-02 -1.467714831233024597e-02 -2.971196174621582031e-02
3.506000000000000000e+03 2.326729297637939453e+00 -1.594430541992187500e+01 -5.839737597852945328e-03 -3.913079202175140381e-02 -1.349115837365388870e-02 -2.998885326087474823e-02
3.507000000000000000e+03 1.796051621437072754e+00 1.618479728698730469e+01 -9.512591059319674969e-04 -1.981448195874691010e-02 -6.229722406715154648e-03 1.638284418731927872e-03
3.508000000000000000e+03 1.793275475502014160e+00 5.488129138946533203e+00 -6.111820111982524395e-04 -1.924071228131651878e-03 -7.605759892612695694e-04 2.903676358982920647e-03
3.509000000000000000e+03 1.759111762046813965e+00 6.168362140655517578e+00 -2.425740472972393036e-03 -2.860745415091514587e-03 -1.585945719853043556e-03 3.554022172465920448e-03
3.510000000000000000e+03 1.705455899238586426e+00 3.061382293701171875e+00 -1.016332185827195644e-03 -2.536836254876106977e-04 -3.810047346632927656e-04 3.283636178821325302e-04
3.511000000000000000e+03 1.965623021125793457e+00 4.854416370391845703e+00 -3.004279918968677521e-03 -1.343723735772073269e-03 -1.304401084780693054e-03 1.987045397982001305e-03
3.512000000000000000e+03 2.194291830062866211e+00 -2.674029922485351562e+01 8.798644994385540485e-04 -2.244347184896469116e-01 -6.706645339727401733e-02 -4.758290573954582214e-02
3.513000000000000000e+03 1.719734072685241699e+00 -1.340532398223876953e+01 -2.633696654811501503e-03 -7.258714642375707626e-03 -2.967723412439227104e-03 -1.320972479879856110e-02
3.514000000000000000e+03 1.796733021736145020e+00 1.245751380920410156e+01 9.308535372838377953e-04 -1.576632261276245117e-02 -4.450641106814146042e-03 1.587106962688267231e-03
3.515000000000000000e+03 1.749162435531616211e+00 1.323159122467041016e+01 4.850391997024416924e-04 -1.651933416724205017e-02 -4.810288548469543457e-03 1.034783665090799332e-03
3.516000000000000000e+03 1.733413934707641602e+00 1.397884178161621094e+01 2.950197376776486635e-04 -1.742597669363021851e-02 -5.139287561178207397e-03 7.047071121633052826e-04
3.517000000000000000e+03 2.155852079391479492e+00 -2.515178298950195312e+01 -1.148589144577272236e-04 -1.934037804603576660e-01 -5.805559456348419189e-02 -4.754383862018585205e-02
3.518000000000000000e+03 1.918229484558105469e+01 1.649950027465820312e+01 -1.605847477912902832e-01 2.609766274690628052e-02 -4.034612700343132019e-02 1.760232262313365936e-02
3.519000000000000000e+03 1.847969627380371094e+01 1.617140388488769531e+01 -1.267227232456207275e-01 2.193740755319595337e-02 -3.143559396266937256e-02 1.755418814718723297e-02
3.520000000000000000e+03 6.121807479858398438e+01 1.850617408752441406e+00 -8.862400650978088379e-01 4.485688686370849609e+00 1.079834699630737305e+00 2.309456825256347656e+00
3.521000000000000000e+03 4.399707031250000000e+01 -7.813798427581787109e+00 2.039572298526763916e-01 3.984018266201019287e-01 1.807077229022979736e-01 -1.531467139720916748e-01
3.522000000000000000e+03 6.072953033447265625e+01 2.469718933105468750e+00 -1.279140412807464600e-01 3.294340610504150391e+00 9.499279856681823730e-01 1.925365686416625977e+00
3.523000000000000000e+03 1.651411247253417969e+01 -5.243040084838867188e+00 -7.424586918205022812e-03 3.856254275888204575e-03 -1.070499769411981106e-03 -8.099611848592758179e-03
3.524000000000000000e+03 1.774857521057128906e+01 1.589159202575683594e+01 -9.715590626001358032e-02 2.476994134485721588e-02 -2.171579003334045410e-02 1.506179198622703552e-02
3.525000000000000000e+03 3.007349777221679688e+01 3.071388721466064453e+00 3.066217303276062012e-01 -2.205889374017715454e-01 2.580984123051166534e-02 4.857278615236282349e-02
3.526000000000000000e+03 3.656507110595703125e+01 -2.184859275817871094e+00 -5.255962610244750977e-01 6.233006119728088379e-01 2.931131608784198761e-02 -3.647394478321075439e-01
3.527000000000000000e+03 2.576921463012695312e+01 -3.287325143814086914e+00 3.525984287261962891e-02 -3.639888167381286621e-01 -9.861868619918823242e-02 -3.594721257686614990e-01
3.528000000000000000e+03 4.391525268554687500e+01 -1.008828258514404297e+01 2.425132840871810913e-01 2.692743837833404541e-01 1.535363048315048218e-01 -2.592579722404479980e-01
3.529000000000000000e+03 6.312792205810546875e+01 4.632703304290771484e+00 2.173752546310424805e+00 5.687307357788085938e+00 2.358318090438842773e+00 3.127414941787719727e+00
3.530000000000000000e+03 6.463648223876953125e+01 5.332136154174804688e+00 1.711453795433044434e+00 8.620270729064941406e+00 3.099517345428466797e+00 2.540698528289794922e+00
3.531000000000000000e+03 6.603402709960937500e+01 7.718492507934570312e+00 3.113858699798583984e-01 1.570393562316894531e+01 4.804596424102783203e+00 9.843416213989257812e-01
3.532000000000000000e+03 6.503765869140625000e+01 7.634993553161621094e+00 1.588065981864929199e+00 1.255415725708007812e+01 4.242666721343994141e+00 4.081192493438720703e+00
3.533000000000000000e+03 2.440305519104003906e+01 8.588769912719726562e+00 -5.445492640137672424e-02 -4.686073400080204010e-03 -1.774230040609836578e-02 -3.210360929369926453e-02
3.534000000000000000e+03 4.704800033569335938e+01 4.981641769409179688e+00 -2.038852721452713013e-01 2.104887552559375763e-02 -5.485092103481292725e-02 -8.551418036222457886e-02
3.535000000000000000e+03 4.201884078979492188e+01 -1.084840106964111328e+01 1.530354022979736328e-01 2.263547480106353760e-02 5.270126461982727051e-02 -1.669713258743286133e-01
3.536000000000000000e+03 2.825505638122558594e+01 -1.593267440795898438e+00 -7.295863032341003418e-01 -2.340482771396636963e-01 -2.890903651714324951e-01 -7.593765854835510254e-01
3.537000000000000000e+03 2.864274597167968750e+01 -2.277816057205200195e+00 -4.990466535091400146e-01 -4.458903968334197998e-01 -2.834811210632324219e-01 -9.166821837425231934e-01
3.538000000000000000e+03 5.739585494995117188e+01 -1.439394474029541016e+01 -1.003432124853134155e-01 4.741499900817871094e+00 1.392346978187561035e+00 9.704971909523010254e-01
3.539000000000000000e+03 3.941518783569335938e+01 -6.194384098052978516e+00 5.531397461891174316e-01 -3.498974069952964783e-02 1.554449945688247681e-01 -3.528752028942108154e-01
3.540000000000000000e+03 1.109718322753906250e+01 1.069534873962402344e+01 1.792817935347557068e-02 2.040227316319942474e-02 1.149913575500249863e-02 1.549803558737039566e-02
3.541000000000000000e+03 2.739392089843750000e+01 1.243391418457031250e+01 -7.330988347530364990e-02 -4.176156222820281982e-02 -3.452143445611000061e-02 -1.822106540203094482e-02
3.542000000000000000e+03 3.010300064086914062e+01 1.389303302764892578e+01 -3.386099040508270264e-01 5.464084446430206299e-03 -9.994374960660934448e-02 -8.800713345408439636e-03
3.543000000000000000e+03 2.766402053833007812e+01 1.106668281555175781e+01 -5.973077937960624695e-02 -6.218910217285156250e-02 -3.657596558332443237e-02 -5.666582658886909485e-02
3.544000000000000000e+03 2.644873046875000000e+01 1.098785781860351562e+01 -4.716878756880760193e-02 -2.672435902059078217e-02 -2.216794341802597046e-02 -4.527043923735618591e-02
3.545000000000000000e+03 7.219022369384765625e+01 -6.110921502113342285e-01 -1.878535866737365723e+00 3.675878047943115234e+00 5.392026305198669434e-01 -4.056193351745605469e+00
3.546000000000000000e+03 3.780906677246093750e+01 5.901265144348144531e+00 -1.106239482760429382e-02 3.422868624329566956e-02 6.949887610971927643e-03 -3.628022968769073486e-02
3.547000000000000000e+03 4.390322113037109375e+01 -8.474487304687500000e+00 2.422230094671249390e-01 3.342046737670898438e-01 1.729283034801483154e-01 -2.097530364990234375e-01
3.548000000000000000e+03 6.941684722900390625e+01 -1.721982574462890625e+01 -1.429828882217407227e+00 1.705156713724136353e-01 -3.777939677238464355e-01 9.724757671356201172e-01
3.549000000000000000e+03 7.046833801269531250e+01 -1.781213760375976562e+01 -1.281268119812011719e+00 2.995649576187133789e+00 5.143144130706787109e-01 2.489653587341308594e+00
3.550000000000000000e+03 4.506298065185546875e+01 1.297392010688781738e+00 -1.013512969017028809e+00 1.317487061023712158e-01 -2.645292878150939941e-01 -2.656515240669250488e-01
3.551000000000000000e+03 4.332973480224609375e+01 -4.135668277740478516e+00 1.806652694940567017e-01 1.075066775083541870e-01 8.645158261060714722e-02 1.411772072315216064e-01
3.552000000000000000e+03 4.291399765014648438e+01 -5.279335498809814453e+00 3.391653299331665039e-01 8.919127285480499268e-02 1.285069733858108521e-01 1.594681739807128906e-01
3.553000000000000000e+03 4.357636260986328125e+01 -7.031845569610595703e+00 2.357052266597747803e-01 3.355053067207336426e-01 1.713631600141525269e-01 -5.249339714646339417e-02
3.554000000000000000e+03 6.884987640380859375e+01 1.711201906204223633e+00 1.186419248580932617e+00 1.042858982086181641e+01 3.484502553939819336e+00 -1.884266972541809082e+00
3.555000000000000000e+03 6.926445007324218750e+01 1.075283885002136230e+00 -6.782595515251159668e-01 9.554987907409667969e+00 2.663018465042114258e+00 -1.930151343345642090e+00
3.556000000000000000e+03 2.952044868469238281e+01 -7.184292793273925781e+00 8.148032426834106445e-02 1.798712462186813354e-01 7.840546965599060059e-02 -4.035122394561767578e-01
3.557000000000000000e+03 5.575246429443359375e+01 8.343747138977050781e+00 -4.354996606707572937e-03 1.209325529634952545e-02 2.321477513760328293e-03 -5.246142856776714325e-03
3.558000000000000000e+03 4.537347412109375000e+01 -1.152931404113769531e+01 1.760184019804000854e-01 4.557600021362304688e-01 1.895335167646408081e-01 -2.885159254074096680e-01
3.559000000000000000e+03 3.068723678588867188e+01 1.432733917236328125e+01 -4.604221880435943604e-01 2.494040317833423615e-02 -1.306445449590682983e-01 2.368661947548389435e-02
3.560000000000000000e+03 4.337094879150390625e+01 -2.920439958572387695e+00 -3.139030635356903076e-01 9.681945294141769409e-02 -6.512508541345596313e-02 1.091724634170532227e-01
3.561000000000000000e+03 2.638601875305175781e+01 -8.798420906066894531e+00 -9.458740949630737305e-01 -9.550318717956542969e-01 -5.702717900276184082e-01 -2.266743332147598267e-01
3.562000000000000000e+03 7.315126800537109375e+01 -8.750082015991210938e+00 1.419105410575866699e+00 9.852405548095703125e+00 3.381453275680541992e+00 -4.625506997108459473e-01
3.563000000000000000e+03 5.702515792846679688e+01 -1.308866119384765625e+01 -3.502621352672576904e-01 4.086592197418212891e+00 1.120898962020874023e+00 1.006122589111328125e+00
3.564000000000000000e+03 6.644197082519531250e+01 -1.528490543365478516e+01 -2.222060918807983398e+00 1.632535576820373535e+00 -1.768576353788375854e-01 1.386337429285049438e-01
3.565000000000000000e+03 5.461038589477539062e+01 7.158119678497314453e+00 -1.734017767012119293e-02 2.424919232726097107e-02 2.072704257443547249e-03 -3.940709866583347321e-03
3.566000000000000000e+03 6.144223022460937500e+01 -6.714885234832763672e+00 1.144958972930908203e+00 8.074406623840332031e+00 2.765809774398803711e+00 1.271515607833862305e+00
3.567000000000000000e+03 7.751773071289062500e+01 5.817827224731445312e+00 1.416705369949340820e+00 9.893862724304199219e+00 3.393170595169067383e+00 -2.391752481460571289e+00
3.568000000000000000e+03 2.186687850952148438e+01 1.785902404785156250e+01 -3.530338406562805176e-01 -2.911865152418613434e-02 -1.146457493305206299e-01 1.494400650262832642e-01
3.569000000000000000e+03 5.291043853759765625e+01 -5.104833126068115234e+00 3.623043894767761230e-01 -5.421538949012756348e-01 -5.395485460758209229e-02 -6.725579500198364258e-02
3.570000000000000000e+03 5.255802154541015625e+01 1.112304210662841797e+00 -1.172766208648681641e+00 1.834068298339843750e-01 -2.968078255653381348e-01 1.029961109161376953e-01
3.571000000000000000e+03 5.246518707275390625e+01 3.119899630546569824e-01 -1.228775143623352051e+00 1.976618319749832153e-01 -3.093339800834655762e-01 -1.655701100826263428e-01
3.572000000000000000e+03 5.344455337524414062e+01 4.092887401580810547e+00 -1.005729064345359802e-01 -9.302055835723876953e-02 -5.807803943753242493e-02 1.197420731186866760e-01
3.573000000000000000e+03 4.959712982177734375e+01 7.020963668823242188e+00 -5.125797539949417114e-02 -1.070060674101114273e-02 -1.858757436275482178e-02 3.803437357419170439e-05
3.574000000000000000e+03 2.637402725219726562e+01 -5.668502330780029297e+00 1.429584473371505737e-01 -8.740868568420410156e-01 -2.193385213613510132e-01 -5.084902048110961914e-01
3.575000000000000000e+03 2.631879425048828125e+01 -3.501312732696533203e+00 6.273755431175231934e-02 -4.256184995174407959e-01 -1.088642850518226624e-01 -5.121377110481262207e-01
3.576000000000000000e+03 4.220580291748046875e+01 -1.286956501007080078e+01 -1.347361505031585693e-02 -1.124366968870162964e-01 -3.777309507131576538e-02 -1.634137779474258423e-01
3.577000000000000000e+03 2.832590866088867188e+01 -3.756414175033569336e+00 8.006792515516281128e-02 -4.635434150695800781e-01 -1.150426492094993591e-01 -7.823460102081298828e-01
3.578000000000000000e+03 2.911403656005859375e+01 -4.499676704406738281e+00 1.967804282903671265e-01 -2.115928977727890015e-01 -4.443740472197532654e-03 -6.746242046356201172e-01
3.579000000000000000e+03 5.257381439208984375e+01 1.987077713012695312e+00 -9.634797573089599609e-01 1.127502545714378357e-01 -2.552188336849212646e-01 2.502310574054718018e-01
3.580000000000000000e+03 7.702081298828125000e+01 1.153412222862243652e+00 -2.220391511917114258e+00 9.178826332092285156e+00 2.087530612945556641e+00 -6.855195760726928711e-01
3.581000000000000000e+03 5.663048934936523438e+01 -1.140076828002929688e+01 -5.105060935020446777e-01 3.096776723861694336e+00 7.758812308311462402e-01 9.083673954010009766e-01
3.582000000000000000e+03 5.713537979125976562e+01 -1.066490554809570312e+01 -4.533204734325408936e-01 3.221879005432128906e+00 8.305675387382507324e-01 1.096513271331787109e+00
3.583000000000000000e+03 6.331330490112304688e+01 -1.155504131317138672e+01 -6.429451704025268555e-01 5.621673107147216797e+00 1.493618369102478027e+00 -1.407016441226005554e-02
3.584000000000000000e+03 6.254326248168945312e+01 4.107782840728759766e+00 1.990899324417114258e+00 4.913537502288818359e+00 2.071331024169921875e+00 2.998569250106811523e+00
3.585000000000000000e+03 2.478654670715332031e+01 1.185916042327880859e+01 -1.189005933701992035e-02 6.426831334829330444e-02 1.571347564458847046e-02 3.611597232520580292e-03
3.586000000000000000e+03 6.277343368530273438e+01 1.509967422485351562e+01 3.205186724662780762e-01 1.385105371475219727e+00 5.116872191429138184e-01 -2.436074256896972656e+00
3.587000000000000000e+03 6.156509017944335938e+01 1.533300495147705078e+01 -5.218981578946113586e-02 6.959064006805419922e-01 1.931149661540985107e-01 -1.296672701835632324e+00
3.588000000000000000e+03 6.349797439575195312e+01 1.566691684722900391e+01 3.487373292446136475e-01 3.328640222549438477e+00 1.103213310241699219e+00 -3.458662033081054688e+00
3.589000000000000000e+03 3.461130523681640625e+01 -1.488611793518066406e+01 -2.942051887512207031e-01 3.374002575874328613e-01 1.295852474868297577e-02 -5.800692737102508545e-02
3.590000000000000000e+03 6.806793212890625000e+01 5.408123493194580078e+00 1.689218640327453613e+00 1.355383110046386719e+01 4.572915077209472656e+00 -2.148144960403442383e+00
3.591000000000000000e+03 6.798454284667968750e+01 4.195910453796386719e+00 3.162814855575561523e+00 1.208579730987548828e+01 4.574583530426025391e+00 -1.413610696792602539e+00
3.592000000000000000e+03 4.614721679687500000e+01 -1.482499599456787109e+00 -6.666415333747863770e-01 3.940876722335815430e-01 -8.176615834236145020e-02 1.668268442153930664e-01
3.593000000000000000e+03 4.493452072143554688e+01 1.614251327514648438e+01 -1.450501561164855957e+00 1.281260699033737183e-01 -3.967126607894897461e-01 1.391762793064117432e-01
3.594000000000000000e+03 3.674136352539062500e+01 3.776270627975463867e+00 -6.821911782026290894e-02 1.869666203856468201e-02 -1.485673710703849792e-02 -5.737971514463424683e-02
3.595000000000000000e+03 3.680862045288085938e+01 2.814385414123535156e+00 -1.231416985392570496e-01 1.653408817946910858e-02 -3.198228403925895691e-02 1.852081716060638428e-02
3.596000000000000000e+03 9.075616836547851562e+00 8.034480094909667969e+00 1.521112117916345596e-02 7.195153273642063141e-03 6.721882149577140808e-03 8.991688489913940430e-03
3.597000000000000000e+03 7.446604156494140625e+01 -1.384030818939208984e+01 9.547127485275268555e-01 9.856084823608398438e+00 3.243239402770996094e+00 -4.978371858596801758e-01
3.598000000000000000e+03 6.257770919799804688e+01 -9.911365509033203125e+00 1.274917423725128174e-01 7.141949653625488281e+00 2.180832386016845703e+00 2.589904367923736572e-01
3.599000000000000000e+03 7.663272094726562500e+01 3.848777770996093750e+00 2.917699217796325684e-01 1.070602035522460938e+01 3.299337148666381836e+00 -2.074963331222534180e+00
3.600000000000000000e+03 7.703676605224609375e+01 2.787570238113403320e+00 -1.434150815010070801e+00 9.675961494445800781e+00 2.472543239593505859e+00 -2.462283134460449219e+00
3.601000000000000000e+03 2.610935020446777344e+01 1.297016429901123047e+01 -1.968450844287872314e-02 -9.784105233848094940e-03 -8.840584196150302887e-03 1.028461102396249771e-02
3.602000000000000000e+03 5.773128509521484375e+01 -1.744204521179199219e+01 5.043452382087707520e-01 4.850095272064208984e+00 1.606332063674926758e+00 4.921732246875762939e-01
3.603000000000000000e+03 5.713872146606445312e+01 -1.700047874450683594e+01 5.956107378005981445e-01 5.024326324462890625e+00 1.685981035232543945e+00 3.978472650051116943e-01
3.604000000000000000e+03 7.667618560791015625e+01 8.122297286987304688e+00 2.300988435745239258e+00 1.078268909454345703e+01 3.925103187561035156e+00 -9.937599301338195801e-01
3.605000000000000000e+03 6.741295623779296875e+01 1.277778244018554688e+01 3.755733966827392578e+00 1.382273864746093750e+01 5.273541927337646484e+00 1.641508936882019043e+00
3.606000000000000000e+03 6.659483337402343750e+01 1.267868232727050781e+01 4.529249668121337891e+00 1.723811340332031250e+01 6.530209064483642578e+00 1.037500977516174316e+00
3.607000000000000000e+03 5.310388565063476562e+01 2.390783578157424927e-01 -1.286313891410827637e+00 1.045870110392570496e-01 -3.545180559158325195e-01 -3.067661821842193604e-01
3.608000000000000000e+03 5.419491195678710938e+01 -4.561211466789245605e-01 -1.273811340332031250e+00 -1.234147548675537109e-01 -4.191678166389465332e-01 -5.622330904006958008e-01
3.609000000000000000e+03 3.243250274658203125e+01 1.098163008689880371e+00 -8.865297436714172363e-01 -1.880408823490142822e-01 -3.223711848258972168e-01 -6.146718263626098633e-01
3.610000000000000000e+03 4.474114990234375000e+01 1.543542289733886719e+01 -1.274744629859924316e+00 1.216288805007934570e-01 -3.459347486495971680e-01 1.391668338328599930e-03
3.611000000000000000e+03 2.115931129455566406e+01 6.140698194503784180e-01 8.199130184948444366e-03 1.728713326156139374e-02 7.645878940820693970e-03 6.270841229707002640e-03
3.612000000000000000e+03 2.227618598937988281e+01 1.240250229835510254e+00 1.324386429041624069e-02 2.719564922153949738e-02 1.213185396045446396e-02 2.336877584457397461e-02
3.613000000000000000e+03 2.664427185058593750e+01 1.398078918457031250e+01 -9.670792520046234131e-02 -1.446834485977888107e-02 -3.335288166999816895e-02 7.698778063058853149e-02
3.614000000000000000e+03 7.168707275390625000e+01 9.908101081848144531e+00 8.515827655792236328e-01 8.831571936607360840e-01 5.204219818115234375e-01 3.181257247924804688e-01
3.615000000000000000e+03 3.235855484008789062e+01 1.553499984741210938e+01 -6.627636551856994629e-01 -1.372403837740421295e-02 -2.029463052749633789e-01 1.645549237728118896e-01
3.616000000000000000e+03 7.368523406982421875e+01 -6.575496792793273926e-01 -1.478378176689147949e+00 1.632715702056884766e+00 4.630123078823089600e-02 -1.311096787452697754e+00
3.617000000000000000e+03 6.739688873291015625e+01 1.119172763824462891e+01 4.583240509033203125e+00 1.429832744598388672e+01 5.664470672607421875e+00 1.370319604873657227e+00
3.618000000000000000e+03 5.658076477050781250e+01 1.440427875518798828e+01 -1.126173853874206543e+00 5.147237181663513184e-01 -1.834350526332855225e-01 1.055344194173812866e-01
3.619000000000000000e+03 7.464082336425781250e+01 1.095318984985351562e+01 3.558396399021148682e-01 6.001786231994628906e+00 1.907287716865539551e+00 -2.609879016876220703e+00
3.620000000000000000e+03 5.881043624877929688e+01 1.330921173095703125e+01 -1.528338909149169922e+00 4.307792782783508301e-01 -3.292678892612457275e-01 -2.135945856571197510e-01
3.621000000000000000e+03 5.893309783935546875e+01 1.419285964965820312e+01 -1.214085936546325684e+00 4.629746079444885254e-01 -2.253333926200866699e-01 -7.598913460969924927e-02
3.622000000000000000e+03 2.570514678955078125e+01 4.317384362220764160e-01 -2.008178234100341797e-01 2.066295593976974487e-01 1.743522239848971367e-03 1.096633449196815491e-01
3.623000000000000000e+03 6.332640075683593750e+01 -1.222212553024291992e+00 -3.557363510131835938e+00 8.256559371948242188e+00 1.409758687019348145e+00 4.191274166107177734e+00
3.624000000000000000e+03 2.415461158752441406e+01 1.136688995361328125e+01 -5.251616239547729492e-03 5.930298566818237305e-02 1.621541008353233337e-02 1.279844250530004501e-02
3.625000000000000000e+03 5.064121246337890625e+01 -1.825144195556640625e+01 -8.882077932357788086e-01 3.968759477138519287e-01 -1.473995447158813477e-01 7.608912140130996704e-02
3.626000000000000000e+03 5.193983459472656250e+01 -2.057098960876464844e+01 -2.068244516849517822e-01 3.681421875953674316e-01 4.839532077312469482e-02 1.249356567859649658e-01
3.627000000000000000e+03 7.514041900634765625e+01 5.353195965290069580e-02 -2.328922271728515625e+00 4.134038448333740234e+00 5.415347814559936523e-01 3.790251612663269043e-01
3.628000000000000000e+03 7.600662994384765625e+01 1.218850255012512207e+00 -3.442737102508544922e+00 7.090616703033447266e+00 1.094363927841186523e+00 -1.439736336469650269e-01
3.629000000000000000e+03 6.672644042968750000e+01 -1.195520401000976562e+00 -3.702231645584106445e+00 2.140663146972656250e+00 -4.684705734252929688e-01 4.166399836540222168e-01
3.630000000000000000e+03 2.700907707214355469e+01 -5.977911472320556641e+00 9.914186596870422363e-02 -8.531210422515869141e-01 -2.261937409639358521e-01 -6.030724644660949707e-01
3.631000000000000000e+03 2.640139770507812500e+01 -4.499929904937744141e+00 1.769954264163970947e-01 -6.121096014976501465e-01 -1.305342465639114380e-01 -5.317669510841369629e-01
3.632000000000000000e+03 3.075774002075195312e+01 -7.649124622344970703e+00 1.867893487215042114e-01 7.537563443183898926e-01 2.821637094020843506e-01 -4.010227620601654053e-01
3.633000000000000000e+03 7.308893585205078125e+01 -1.500862979888916016e+01 4.477726221084594727e-01 1.062403583526611328e+01 3.321542501449584961e+00 -2.865397930145263672e-01
3.634000000000000000e+03 3.623601531982421875e+01 2.494456768035888672e+00 -3.284705281257629395e-01 4.768271744251251221e-02 -8.423634618520736694e-02 1.662129163742065430e-01
3.635000000000000000e+03 4.274563217163085938e+01 -1.572917270660400391e+01 -6.877152919769287109e-01 6.281327456235885620e-02 -1.874706149101257324e-01 -2.781361639499664307e-01
3.636000000000000000e+03 7.800197601318359375e+01 2.779239654541015625e+01 -3.199804946780204773e-02 7.026896953582763672e+00 2.098469734191894531e+00 1.329202353954315186e-01
3.637000000000000000e+03 7.787180328369140625e+01 -2.767109870910644531e+01 1.343438867479562759e-02 7.914974212646484375e+00 2.378522634506225586e+00 3.302719593048095703e-01
3.638000000000000000e+03 7.802223205566406250e+01 1.817786788940429688e+01 6.481206417083740234e-02 6.044008731842041016e+00 1.832646250724792480e+00 2.938439846038818359e-01
3.639000000000000000e+03 1.800439262390136719e+01 -7.896506309509277344e+00 -1.326777637004852295e-01 1.303093973547220230e-02 -3.589404374361038208e-02 5.424865055829286575e-03
3.640000000000000000e+03 1.981831550598144531e+00 1.767064476013183594e+01 -1.646870630793273449e-03 -2.297243662178516388e-02 -7.385792210698127747e-03 3.702747635543346405e-03
3.641000000000000000e+03 2.020124197006225586e+00 -1.810582160949707031e+01 -3.525327658280730247e-03 -6.466919928789138794e-02 -2.045835740864276886e-02 -3.308304026722908020e-02
3.642000000000000000e+03 7.427701568603515625e+01 -1.115637969970703125e+01 1.284247875213623047e+00 1.040793800354003906e+01 3.507655858993530273e+00 -2.357122749090194702e-01
3.643000000000000000e+03 7.314096069335937500e+01 -9.716033935546875000e+00 1.713166952133178711e+00 1.109112930297851562e+01 3.841288805007934570e+00 -8.460972905158996582e-01
3.644000000000000000e+03 2.367551565170288086e+00 6.166769504547119141e+00 -9.465590119361877441e-04 -3.529267851263284683e-03 -1.342748058959841728e-03 5.243673920631408691e-03
3.645000000000000000e+03 1.647749066352844238e+00 -6.953069686889648438e+00 -1.644436619244515896e-03 1.181305386126041412e-02 3.050585044547915459e-03 4.622037522494792938e-03
3.646000000000000000e+03 1.548402023315429688e+01 -3.603643417358398438e+00 1.813096180558204651e-02 1.863002195023000240e-03 5.998189095407724380e-03 -1.245959009975194931e-02
3.647000000000000000e+03 1.547429561614990234e+01 -1.819294452667236328e+00 1.430462300777435303e-02 1.711034215986728668e-02 9.424489922821521759e-03 -1.214546337723731995e-02
3.648000000000000000e+03 4.937722778320312500e+01 7.615065097808837891e+00 7.350718136876821518e-03 5.395970772951841354e-03 3.824006766080856323e-03 1.612994074821472168e-02
3.649000000000000000e+03 7.749196624755859375e+01 -1.862236595153808594e+01 -3.502531647682189941e-01 8.823277473449707031e+00 2.541907310485839844e+00 -3.238029479980468750e-01
3.650000000000000000e+03 3.692737197875976562e+01 -1.745879799127578735e-01 -1.458859920501708984e+00 4.735999107360839844e-01 -2.955780327320098877e-01 2.676561176776885986e-01
3.651000000000000000e+03 2.184625148773193359e+00 -2.358275604248046875e+01 -9.483197354711592197e-04 -1.630370318889617920e-01 -4.919560626149177551e-02 -4.730572924017906189e-02
3.652000000000000000e+03 7.276619720458984375e+01 -7.404899120330810547e+00 6.202818751335144043e-01 8.834990501403808594e+00 2.836581945419311523e+00 -6.963648200035095215e-01
3.653000000000000000e+03 2.097286939620971680e+00 -3.412490844726562500e+01 5.286244209855794907e-03 -3.472254574298858643e-01 -1.025817617774009705e-01 -2.961602061986923218e-02
3.654000000000000000e+03 2.541142463684082031e+00 1.904028701782226562e+01 -2.996717346832156181e-03 -2.794618532061576843e-02 -9.282870218157768250e-03 8.177455514669418335e-03
3.655000000000000000e+03 2.022407913208007812e+01 1.589345812797546387e+00 2.247501863166689873e-03 -2.138057025149464607e-03 3.283346086391247809e-05 -1.925580203533172607e-03
3.656000000000000000e+03 7.676464080810546875e+01 -3.214622879028320312e+01 7.409166544675827026e-02 7.082497119903564453e+00 2.146976709365844727e+00 3.041642904281616211e-01
3.657000000000000000e+03 1.512701129913330078e+01 1.322242259979248047e+01 6.094673648476600647e-03 2.150034159421920776e-02 8.278504014015197754e-03 1.837087981402873993e-02
3.658000000000000000e+03 5.845844268798828125e+01 2.803159058094024658e-01 -1.875422716140747070e+00 1.528772354125976562e+00 -1.039951369166374207e-01 7.245197892189025879e-01
3.659000000000000000e+03 4.815932083129882812e+01 -1.758929014205932617e+00 -4.529874324798583984e-01 1.298653632402420044e-01 -9.693662077188491821e-02 2.078110165894031525e-02
3.660000000000000000e+03 7.686299896240234375e+01 -3.101632118225097656e+01 5.498902499675750732e-02 7.235963821411132812e+00 2.187285900115966797e+00 3.268192112445831299e-01
3.661000000000000000e+03 7.433953857421875000e+01 -1.246891593933105469e+01 1.152181863784790039e+00 1.040196609497070312e+01 3.466244459152221680e+00 -3.583206832408905029e-01
3.662000000000000000e+03 7.355854034423828125e+01 -1.190094947814941406e+01 9.898285269737243652e-01 1.174211502075195312e+01 3.819582939147949219e+00 -3.614704608917236328e-01
3.663000000000000000e+03 5.415336608886718750e+01 -2.158290672302246094e+01 -1.321770250797271729e-01 1.463511347770690918e+00 3.994002938270568848e-01 8.832975625991821289e-01
3.664000000000000000e+03 5.589209747314453125e+01 -2.038444519042968750e+01 -7.025878429412841797e-01 4.095118999481201172e+00 1.017759323120117188e+00 1.320318698883056641e+00
3.665000000000000000e+03 2.025558233261108398e+00 2.040859603881835938e+01 -2.133173169568181038e-03 -3.307225555181503296e-02 -1.056162826716899872e-02 9.457090869545936584e-03
3.666000000000000000e+03 2.463830471038818359e+00 -3.258391571044921875e+01 5.071097984910011292e-03 -3.221662938594818115e-01 -9.512856602668762207e-02 -3.880626335740089417e-02
3.667000000000000000e+03 1.723861694335937500e+01 6.112509250640869141e+00 -3.956440463662147522e-02 -7.175188511610031128e-03 -1.402187719941139221e-02 -1.675824448466300964e-02
3.668000000000000000e+03 2.480848503112792969e+01 1.783879280090332031e+01 -4.121680557727813721e-01 -1.668475121259689331e-01 -1.737046688795089722e-01 1.058930158615112305e-01
3.669000000000000000e+03 2.361379432678222656e+01 1.808724975585937500e+01 -3.683086931705474854e-01 -1.706482321023941040e-01 -1.616870760917663574e-01 1.556260883808135986e-01
3.670000000000000000e+03 5.250360012054443359e+00 7.453105926513671875e+00 -1.826438819989562035e-03 -1.140689663589000702e-02 -3.970000892877578735e-03 1.560366712510585785e-02
3.671000000000000000e+03 5.085669517517089844e+00 6.682629108428955078e+00 -6.067594047635793686e-03 -2.305227331817150116e-03 -2.511846367269754410e-03 1.626378484070301056e-02
3.672000000000000000e+03 4.420836257934570312e+01 -2.965841531753540039e+00 -2.115602344274520874e-01 5.098605155944824219e-01 8.949008584022521973e-02 7.267646491527557373e-02
3.673000000000000000e+03 2.754570198059082031e+01 1.412690448760986328e+01 -1.771009713411331177e-01 -1.731687225401401520e-02 -5.832535400986671448e-02 6.826603412628173828e-02
3.674000000000000000e+03 6.014162063598632812e+01 1.367441463470458984e+01 -1.648839116096496582e+00 1.650933623313903809e-01 -4.451237320899963379e-01 -3.168422877788543701e-01
3.675000000000000000e+03 5.947505950927734375e+01 1.316372203826904297e+01 -1.643251657485961914e+00 1.651343852281570435e-01 -4.434351921081542969e-01 -3.235122561454772949e-01
3.676000000000000000e+03 3.185041618347167969e+01 -1.105478382110595703e+01 -3.281899914145469666e-02 5.946096181869506836e-01 1.685371845960617065e-01 -9.348379820585250854e-02
3.677000000000000000e+03 4.361660003662109375e+01 -1.585621833801269531e-01 -1.281020641326904297e+00 7.625104486942291260e-02 -3.614308834075927734e-01 -2.947295606136322021e-01
3.678000000000000000e+03 1.762832641601562500e+01 -7.181725502014160156e+00 -6.292916834354400635e-02 4.509740043431520462e-03 -1.752582937479019165e-02 9.638473391532897949e-03
3.679000000000000000e+03 1.696478080749511719e+01 1.567964458465576172e+01 -7.698499411344528198e-02 2.365095354616641998e-02 -1.600021310150623322e-02 1.906172744929790497e-02
3.680000000000000000e+03 1.581756496429443359e+01 1.501879978179931641e+01 -4.636239632964134216e-02 2.342195250093936920e-02 -6.882133893668651581e-03 1.631690002977848053e-02
3.681000000000000000e+03 3.795453262329101562e+01 7.766900539398193359e+00 1.161395572125911713e-02 6.362651474773883820e-03 5.392982158809900284e-03 -1.324229873716831207e-02
3.682000000000000000e+03 4.057492446899414062e+01 -8.737853050231933594e+00 3.264253139495849609e-01 3.734913468360900879e-02 1.091323345899581909e-01 -2.204365283250808716e-01
3.683000000000000000e+03 4.044104766845703125e+01 -1.379322052001953125e+00 -1.548266768455505371e+00 -8.998900055885314941e-01 -7.344470620155334473e-01 1.401512473821640015e-01
3.684000000000000000e+03 4.861403274536132812e+01 1.745611763000488281e+01 -1.417818665504455566e+00 -7.154141068458557129e-01 -6.399698257446289062e-01 3.979373276233673096e-01
3.685000000000000000e+03 7.655667114257812500e+01 2.989824676513671875e+01 -6.588784605264663696e-02 6.858181476593017578e+00 2.037688255310058594e+00 9.498132020235061646e-02
3.686000000000000000e+03 3.460914134979248047e+00 -2.988414001464843750e+01 5.740824621170759201e-03 -2.671510875225067139e-01 -7.842307537794113159e-02 -6.308168917894363403e-02
3.687000000000000000e+03 7.747597503662109375e+01 -3.448984527587890625e+01 2.442082203924655914e-02 7.196131706237792969e+00 2.166165828704833984e+00 1.865603774785995483e-01
3.688000000000000000e+03 7.646759796142578125e+01 -3.279785537719726562e+01 8.463151752948760986e-02 6.953323364257812500e+00 2.111386537551879883e+00 2.958768010139465332e-01
3.689000000000000000e+03 3.538660526275634766e+00 -3.274707794189453125e+01 9.765764698386192322e-03 -3.058531880378723145e-01 -8.882622420787811279e-02 -5.404214933514595032e-02
3.690000000000000000e+03 2.368262052536010742e+00 3.664619064331054688e+01 2.091406146064400673e-03 -1.700678616762161255e-01 -5.039293691515922546e-02 1.592139899730682373e-02
3.691000000000000000e+03 5.240444183349609375e+00 -2.876307868957519531e+01 7.759457919746637344e-03 -2.339760214090347290e-01 -6.786496937274932861e-02 -9.069222211837768555e-02
3.692000000000000000e+03 4.329913616180419922e+00 -2.890466117858886719e+01 6.784697994589805603e-03 -2.438743859529495239e-01 -7.112690806388854980e-02 -7.966102659702301025e-02
3.693000000000000000e+03 3.999069690704345703e+00 3.342870712280273438e+01 5.302783567458391190e-03 -1.360257267951965332e-01 -3.921687975525856018e-02 3.773029148578643799e-02
3.694000000000000000e+03 4.219690799713134766e+00 3.254215240478515625e+01 4.241704009473323822e-03 -1.296478658914566040e-01 -3.762184828519821167e-02 3.970797732472419739e-02
3.695000000000000000e+03 7.642666625976562500e+01 3.352888107299804688e+01 -3.041894361376762390e-02 6.855676174163818359e+00 2.047577142715454102e+00 2.351116016507148743e-02
3.696000000000000000e+03 7.778766632080078125e+01 -3.629399871826171875e+01 3.786914423108100891e-02 7.175114631652832031e+00 2.163895130157470703e+00 1.340701878070831299e-01
3.697000000000000000e+03 3.682818984985351562e+01 1.531136703491210938e+01 -8.435654044151306152e-01 -3.607251495122909546e-02 -2.638913691043853760e-01 8.545655757188796997e-02
3.698000000000000000e+03 6.786771297454833984e+00 -3.836436748504638672e+00 1.413078629411756992e-03 -1.453260192647576332e-03 -1.205445460072951391e-05 6.363593507558107376e-03
3.699000000000000000e+03 7.461106777191162109e+00 -4.065606117248535156e+00 -7.442125934176146984e-04 -4.692923743277788162e-03 -1.631140941753983498e-03 4.613160621374845505e-03
3.700000000000000000e+03 4.070450210571289062e+01 1.452618122100830078e+01 -7.586362957954406738e-01 1.742217689752578735e-01 -1.753243654966354370e-01 5.156078562140464783e-02
3.701000000000000000e+03 3.048913717269897461e+00 -3.078480958938598633e+00 3.208575770258903503e-03 1.062735216692090034e-03 1.281393226236104965e-03 7.364436984062194824e-03
3.702000000000000000e+03 4.370295047760009766e+00 -3.683862209320068359e+00 2.672792878001928329e-03 9.803192224353551865e-04 1.095933606848120689e-03 8.771113120019435883e-03
3.703000000000000000e+03 5.488249778747558594e+00 -3.713303804397583008e+00 2.519706962630152702e-03 -7.900564814917743206e-04 5.188951035961508751e-04 7.240403909236192703e-03
3.704000000000000000e+03 2.540894031524658203e+00 3.705561637878417969e+00 -2.946321619674563408e-03 -1.248334068804979324e-03 -1.258396776393055916e-03 9.607034153304994106e-04
3.705000000000000000e+03 2.240758657455444336e+00 4.274586200714111328e+00 -4.470971180126070976e-04 -5.906560691073536873e-04 -3.113259444944560528e-04 6.868082564324140549e-04
3.706000000000000000e+03 5.195394897460937500e+01 1.597037506103515625e+01 -1.697467207908630371e+00 1.128088012337684631e-01 -4.753975272178649902e-01 2.757034301757812500e-01
3.707000000000000000e+03 2.709858894348144531e+01 1.454471588134765625e+01 -1.766663938760757446e-01 -1.998773030936717987e-02 -5.899623408913612366e-02 1.249807998538017273e-01
3.708000000000000000e+03 7.685654449462890625e+01 -4.718903541564941406e+00 -3.239532560110092163e-02 8.363571166992187500e+00 2.499352693557739258e+00 1.219639062881469727e+00
3.709000000000000000e+03 3.784390640258789062e+01 1.565548133850097656e+01 -8.183301091194152832e-01 8.061512559652328491e-02 -2.213145047426223755e-01 9.831227362155914307e-02
3.710000000000000000e+03 3.741423034667968750e+01 1.498933219909667969e+01 -8.496655821800231934e-01 3.778177872300148010e-02 -2.435651421546936035e-01 9.127201139926910400e-02
3.711000000000000000e+03 3.637052536010742188e+01 3.245432376861572266e+00 -1.401302516460418701e-01 3.760655224323272705e-02 -3.075711242854595184e-02 4.696862772107124329e-03
3.712000000000000000e+03 3.616474533081054688e+01 4.033098697662353516e+00 -9.867189824581146240e-02 1.838230714201927185e-02 -2.408687770366668701e-02 -6.899742782115936279e-02
3.713000000000000000e+03 1.955231857299804688e+01 1.760461425781250000e+01 -2.173147946596145630e-01 2.653568051755428314e-02 -5.723373591899871826e-02 6.516221910715103149e-02
3.714000000000000000e+03 7.801069641113281250e+01 1.505090904235839844e+01 7.006534934043884277e-02 5.849426746368408203e+00 1.775847673416137695e+00 4.240382462739944458e-02
3.715000000000000000e+03 7.805783843994140625e+01 1.661283874511718750e+01 9.531399607658386230e-02 5.884890079498291016e+00 1.794061303138732910e+00 1.730285733938217163e-01
3.716000000000000000e+03 3.716427803039550781e+00 -3.726810693740844727e+00 1.498351804912090302e-03 1.636284752748906612e-03 9.403909789398312569e-04 8.920612744987010956e-03
3.717000000000000000e+03 4.345352172851562500e+01 -1.222564792633056641e+01 2.445597760379314423e-02 1.277641355991363525e-01 4.566603526473045349e-02 -2.100184857845306396e-01
3.718000000000000000e+03 4.277891540527343750e+01 -1.140041923522949219e+01 1.237557679414749146e-01 6.715637445449829102e-02 5.727364122867584229e-02 -1.893506348133087158e-01
3.719000000000000000e+03 4.361837005615234375e+01 -5.538642406463623047e+00 2.779132425785064697e-01 3.734529018402099609e-01 1.954098492860794067e-01 1.880171746015548706e-01
3.720000000000000000e+03 5.926652145385742188e+01 1.496244144439697266e+01 -8.526583313941955566e-01 5.690551996231079102e-01 -8.508093655109405518e-02 -2.465844899415969849e-01
3.721000000000000000e+03 1.732992887496948242e+00 1.471265506744384766e+01 -2.382575185038149357e-04 -1.790281012654304504e-02 -5.442320369184017181e-03 7.509204442612826824e-04
3.722000000000000000e+03 1.873587012290954590e+00 1.692598342895507812e+01 -1.124444534070789814e-03 -2.139448188245296478e-02 -6.755677983164787292e-03 2.537812106311321259e-03
3.723000000000000000e+03 7.070540618896484375e+01 1.038077259063720703e+01 1.814661622047424316e+00 4.174206256866455078e+00 1.796660304069519043e+00 1.302482962608337402e+00
3.724000000000000000e+03 6.939353179931640625e+01 -2.887310981750488281e+00 -3.348386526107788086e+00 5.127081871032714844e+00 5.336086153984069824e-01 -2.041984558105468750e+00
3.725000000000000000e+03 5.479217147827148438e+01 -6.596624851226806641e+00 4.019263088703155518e-01 1.552536189556121826e-01 1.671539694070816040e-01 1.023721247911453247e-01
3.726000000000000000e+03 2.370320320129394531e+01 5.432596206665039062e-01 -1.235621608793735504e-02 8.988109976053237915e-02 2.325746603310108185e-02 9.757525473833084106e-02
3.727000000000000000e+03 2.254370880126953125e+01 8.392747044563293457e-01 5.299206823110580444e-03 3.445123136043548584e-02 1.192513108253479004e-02 3.438410162925720215e-02
3.728000000000000000e+03 5.313261795043945312e+01 6.810646533966064453e+00 -1.618547365069389343e-02 -1.471886318176984787e-02 -9.271301329135894775e-03 -2.293286100029945374e-02
3.729000000000000000e+03 7.751397705078125000e+01 6.441393852233886719e+00 1.419649004936218262e+00 1.051494216918945312e+01 3.580377578735351562e+00 -1.835373640060424805e+00
3.730000000000000000e+03 7.800460815429687500e+01 7.639560222625732422e+00 1.346769332885742188e+00 7.681237697601318359e+00 2.708402156829833984e+00 -5.383405685424804688e-01
3.731000000000000000e+03 3.537675476074218750e+01 1.599078464508056641e+01 -7.324331402778625488e-01 -1.930027008056640625e-01 -2.776307463645935059e-01 1.374560594558715820e-01
3.732000000000000000e+03 5.052799987792968750e+01 -2.390239715576171875e+00 -3.407340049743652344e-01 -5.526006221771240234e-03 -1.038780063390731812e-01 -1.445261538028717041e-01
3.733000000000000000e+03 5.020489501953125000e+01 -3.379556894302368164e+00 -1.891492605209350586e-01 -2.078386209905147552e-02 -6.297993659973144531e-02 -7.371298223733901978e-02
3.734000000000000000e+03 4.332540512084960938e+01 -1.054792118072509766e+01 2.084078937768936157e-01 1.666729003190994263e-01 1.125242412090301514e-01 -2.330984622240066528e-01
3.735000000000000000e+03 4.119380569458007812e+01 -9.844487190246582031e+00 2.279466092586517334e-01 3.254542127251625061e-02 7.814761251211166382e-02 -1.812652945518493652e-01
3.736000000000000000e+03 3.710638046264648438e+01 4.427553176879882812e+00 -3.998686373233795166e-02 5.403193458914756775e-02 4.213521257042884827e-03 -6.997883319854736328e-02
3.737000000000000000e+03 5.120711135864257812e+01 -4.423367500305175781e+00 8.420295268297195435e-02 -2.719319462776184082e-01 -5.631869286298751831e-02 -8.574665524065494537e-03
3.738000000000000000e+03 5.487633132934570312e+01 -7.665594100952148438e+00 1.173020973801612854e-01 3.424550592899322510e-01 1.379271447658538818e-01 2.900556623935699463e-01
3.739000000000000000e+03 2.108733415603637695e+00 -1.297365856170654297e+01 -4.623203072696924210e-03 -8.856662549078464508e-03 -4.043959546834230423e-03 -1.497600879520177841e-02
3.740000000000000000e+03 2.067763090133666992e+00 -1.385239410400390625e+01 -5.041876342147588730e-03 -1.524568442255258560e-02 -6.086268462240695953e-03 -1.826320774853229523e-02
3.741000000000000000e+03 1.010072422027587891e+01 1.082071495056152344e+01 1.399128045886754990e-02 1.184302754700183868e-02 7.750292308628559113e-03 8.607534691691398621e-03
3.742000000000000000e+03 1.051232433319091797e+01 1.023204135894775391e+01 1.864149980247020721e-02 2.193017117679119110e-02 1.217150129377841949e-02 1.405302435159683228e-02
3.743000000000000000e+03 7.751483154296875000e+01 9.438156127929687500e+00 4.815098270773887634e-02 8.001756668090820312e+00 2.414972305297851562e+00 2.777531743049621582e-01
3.744000000000000000e+03 7.653152465820312500e+01 9.084344863891601562e+00 6.689503788948059082e-01 9.986428260803222656e+00 3.196613788604736328e+00 -9.112619161605834961e-01
3.745000000000000000e+03 4.283445739746093750e+01 1.414813995361328125e+01 -8.003149628639221191e-01 1.357725858688354492e-01 -1.993627101182937622e-01 -8.620068430900573730e-02
3.746000000000000000e+03 4.214266967773437500e+01 1.351070785522460938e+01 -6.413568854331970215e-01 1.140573099255561829e-01 -1.581898778676986694e-01 -6.700816005468368530e-02
3.747000000000000000e+03 4.874911117553710938e+01 -1.596999883651733398e+00 -4.888796806335449219e-01 1.641633957624435425e-01 -9.741488844156265259e-02 -6.723870523273944855e-03
3.748000000000000000e+03 5.178348922729492188e+01 1.844610214233398438e+00 -8.754425048828125000e-01 1.544159799814224243e-01 -2.163079530000686646e-01 1.694491058588027954e-01
3.749000000000000000e+03 2.420965003967285156e+01 1.459485173225402832e+00 8.798402547836303711e-02 6.360757350921630859e-02 4.547747969627380371e-02 1.281921565532684326e-01
3.750000000000000000e+03 2.373807191848754883e+00 5.638785839080810547e+00 -4.225529264658689499e-03 -1.936295069754123688e-03 -1.848547370173037052e-03 3.588390769436955452e-03
3.751000000000000000e+03 2.235038042068481445e+00 -5.392228126525878906e+00 -1.311039784923195839e-03 6.913453806191682816e-03 1.680724206380546093e-03 6.894119549542665482e-03
3.752000000000000000e+03 2.387484312057495117e+00 -6.243009567260742188e+00 -1.925165182910859585e-03 6.654648575931787491e-03 1.418844913132488728e-03 6.160129327327013016e-03
3.753000000000000000e+03 6.859030914306640625e+01 1.014582824707031250e+01 2.595625877380371094e+00 1.104229354858398438e+01 4.091375827789306641e+00 8.981186747550964355e-01
3.754000000000000000e+03 6.816807556152343750e+01 1.124838924407958984e+01 3.699535131454467773e+00 1.234522056579589844e+01 4.813426494598388672e+00 1.677311301231384277e+00
3.755000000000000000e+03 6.827409362792968750e+01 1.273134040832519531e+01 3.366809844970703125e+00 1.108002948760986328e+01 4.334051609039306641e+00 2.674353599548339844e+00
3.756000000000000000e+03 6.578160858154296875e+01 -1.568605327606201172e+01 -1.713842988014221191e+00 2.357918977737426758e+00 1.932227909564971924e-01 -3.591574430465698242e-01
3.757000000000000000e+03 6.722669219970703125e+01 -1.646214485168457031e+01 -2.064114093780517578e+00 1.152389049530029297e+00 -2.735174894332885742e-01 -1.880116611719131470e-01
3.758000000000000000e+03 7.768099212646484375e+01 -1.728798866271972656e+01 -2.535389065742492676e-01 8.805855751037597656e+00 2.565695047378540039e+00 -5.924857854843139648e-01
3.759000000000000000e+03 4.928437042236328125e+01 5.424088478088378906e+00 -1.963302493095397949e-01 2.419438771903514862e-02 -5.164075642824172974e-02 -3.443083725869655609e-03
3.760000000000000000e+03 4.867220687866210938e+01 5.110750675201416016e+00 -2.569000720977783203e-01 4.671841114759445190e-02 -6.305450201034545898e-02 -2.148886397480964661e-02
3.761000000000000000e+03 5.023445510864257812e+01 7.184029579162597656e+00 -2.959647774696350098e-02 -2.150484174489974976e-02 -1.533039566129446030e-02 6.537700071930885315e-03
3.762000000000000000e+03 5.085406875610351562e+01 8.005480766296386719e+00 7.245390210300683975e-03 -2.551819384098052979e-02 -5.481841042637825012e-03 2.574813552200794220e-03
3.763000000000000000e+03 7.757233428955078125e+01 -6.941757678985595703e+00 1.345874369144439697e-01 8.582638740539550781e+00 2.615167856216430664e+00 1.096599936485290527e+00
3.764000000000000000e+03 2.558666801452636719e+01 1.793029785156250000e+01 -4.662506878376007080e-01 -4.851312190294265747e-02 -1.544291526079177856e-01 1.439643502235412598e-01
3.765000000000000000e+03 4.399885177612304688e+01 -1.324918460845947266e+01 -1.408696621656417847e-01 2.253010869026184082e-01 2.532942779362201691e-02 -2.151271849870681763e-01
3.766000000000000000e+03 4.500301361083984375e+01 -1.247055053710937500e+01 1.442023180425167084e-02 3.697449564933776855e-01 1.152495518326759338e-01 -2.330322116613388062e-01
3.767000000000000000e+03 7.170670318603515625e+01 -6.520940303802490234e+00 1.528188735246658325e-01 7.249179840087890625e+00 2.220599651336669922e+00 -1.679293513298034668e+00
3.768000000000000000e+03 2.704484367370605469e+01 8.406684398651123047e-01 -3.348972499370574951e-01 2.678297162055969238e-01 -2.012026309967041016e-02 1.170213520526885986e-01
3.769000000000000000e+03 3.718732452392578125e+01 -1.703320693969726562e+01 -7.916107177734375000e-01 2.306597232818603516e-01 -1.682853102684020996e-01 -1.889920383691787720e-01
3.770000000000000000e+03 6.215788841247558594e+00 -3.409490823745727539e+00 3.439272055402398109e-03 -2.290521515533328056e-03 3.446251503191888332e-04 6.777716800570487976e-03
3.771000000000000000e+03 3.635675048828125000e+01 6.996356487274169922e+00 4.612886160612106323e-02 -9.174970909953117371e-03 1.108616683632135391e-02 -3.524956852197647095e-02
3.772000000000000000e+03 5.660821151733398438e+01 -9.205619812011718750e+00 -1.450594812631607056e-01 2.406339645385742188e+00 6.783840656280517578e-01 8.297045826911926270e-01
3.773000000000000000e+03 6.155944442749023438e+01 -8.321549415588378906e+00 6.549645662307739258e-01 7.450067996978759766e+00 2.431509733200073242e+00 9.408468008041381836e-01
3.774000000000000000e+03 2.857688331604003906e+01 1.388618850708007812e+01 -2.240102589130401611e-01 -1.781076565384864807e-02 -7.254630327224731445e-02 4.469604417681694031e-02
3.775000000000000000e+03 2.948851966857910156e+01 1.352592086791992188e+01 -2.616779804229736328e-01 -1.272821985185146332e-02 -8.232185989618301392e-02 -9.441467002034187317e-03
3.776000000000000000e+03 6.604526519775390625e+01 -1.428729295730590820e+00 -3.588428020477294922e+00 5.708866715431213379e-01 -9.052624106407165527e-01 1.309665441513061523e+00
3.777000000000000000e+03 6.590409851074218750e+01 -7.156913876533508301e-01 -1.532442331314086914e+00 2.425900459289550781e+00 2.680374383926391602e-01 3.035879373550415039e+00
3.778000000000000000e+03 3.621487808227539062e+01 -8.516002893447875977e-01 -1.146968960762023926e+00 7.397334575653076172e-01 -1.221706643700599670e-01 -3.249767422676086426e-02
3.779000000000000000e+03 6.471635437011718750e+01 -1.596441626548767090e+00 -4.347839832305908203e+00 3.663473844528198242e+00 -2.053097933530807495e-01 6.656122207641601562e+00
3.780000000000000000e+03 5.426388549804687500e+01 -1.515820741653442383e+00 -5.632699728012084961e-01 -2.610384523868560791e-01 -2.472925186157226562e-01 -6.116296052932739258e-01
3.781000000000000000e+03 5.602815246582031250e+01 -8.206277489662170410e-01 -9.404736161231994629e-01 -4.894686639308929443e-01 -4.289826750755310059e-01 -3.567194044589996338e-01
3.782000000000000000e+03 5.725487136840820312e+01 -1.634476852416992188e+01 4.560118019580841064e-01 5.301617145538330078e+00 1.727288722991943359e+00 7.807116508483886719e-01
3.783000000000000000e+03 3.231813430786132812e+01 2.742630004882812500e+00 -2.500980496406555176e-01 -3.030232489109039307e-01 -1.659363955259323120e-01 -4.515118598937988281e-01
3.784000000000000000e+03 3.621946334838867188e+01 5.678756833076477051e-01 -1.124885439872741699e+00 5.138158202171325684e-01 -1.833208799362182617e-01 2.700492441654205322e-01
3.785000000000000000e+03 3.479683303833007812e+01 3.381869494915008545e-01 -1.149601221084594727e+00 6.922874450683593750e-01 -1.371941566467285156e-01 -8.337290585041046143e-02
3.786000000000000000e+03 2.147257041931152344e+01 8.021951675415039062e+00 -2.852222882211208344e-02 1.617702282965183258e-02 -3.703561611473560333e-03 -8.216620422899723053e-03
3.787000000000000000e+03 7.549459838867187500e+01 9.834526062011718750e+00 -3.586063086986541748e-01 9.263709068298339844e+00 2.671530723571777344e+00 -2.664528608322143555e+00
3.788000000000000000e+03 7.504241943359375000e+01 9.337233543395996094e+00 5.570361614227294922e-01 8.255353927612304688e+00 2.643716812133789062e+00 -3.697102308273315430e+00
3.789000000000000000e+03 4.532249450683593750e+01 -1.313273334503173828e+01 -8.086698502302169800e-02 4.051683247089385986e-01 9.729039669036865234e-02 -1.958611607551574707e-01
3.790000000000000000e+03 4.649656295776367188e+01 -1.436502838134765625e+01 -2.749727070331573486e-01 5.175333619117736816e-01 7.276818901300430298e-02 -1.590502411127090454e-01
3.791000000000000000e+03 2.758063316345214844e+01 -6.019197940826416016e+00 1.271999776363372803e-01 -6.580002903938293457e-01 -1.592400968074798584e-01 -6.637055277824401855e-01
3.792000000000000000e+03 2.850142478942871094e+01 -1.339188665151596069e-01 -1.062974214553833008e+00 1.520390040241181850e-03 -3.184361457824707031e-01 -2.381066232919692993e-01
3.793000000000000000e+03 7.328494262695312500e+01 -7.820353031158447266e+00 9.271854758262634277e-01 9.163965225219726562e+00 3.027345180511474609e+00 -2.336941808462142944e-01
3.794000000000000000e+03 7.773418426513671875e+01 2.558664321899414062e+01 -5.017223954200744629e-02 6.868516445159912109e+00 2.045503377914428711e+00 2.313565909862518311e-01
3.795000000000000000e+03 3.567859649658203125e+01 6.960431098937988281e+00 5.047358199954032898e-02 -3.257566690444946289e-02 5.369374994188547134e-03 -2.824997156858444214e-02
3.796000000000000000e+03 3.566654586791992188e+01 7.715199470520019531e+00 5.379457399249076843e-02 -1.232390478253364563e-02 1.244120113551616669e-02 -8.617743849754333496e-03
3.797000000000000000e+03 2.719672775268554688e+01 1.443417191505432129e+00 -1.001069545745849609e-01 3.021581172943115234e-01 6.061534583568572998e-02 2.478266954421997070e-01
3.798000000000000000e+03 2.283598136901855469e+01 8.289593696594238281e+00 -4.321403428912162781e-02 1.256842259317636490e-02 -9.193683043122291565e-03 -1.683244667947292328e-02
3.799000000000000000e+03 1.051927280426025391e+01 -4.352875232696533203e+00 -4.938360769301652908e-03 -8.887151256203651428e-03 -4.147653467953205109e-03 -3.315838112030178308e-04
3.800000000000000000e+03 2.235457420349121094e+01 -1.064489841461181641e+01 -6.301113367080688477e-01 -1.861363202333450317e-01 -2.448742985725402832e-01 -3.890543580055236816e-01
3.801000000000000000e+03 2.276642799377441406e+01 -9.859351158142089844e+00 -1.019475698471069336e+00 -3.065927140414714813e-02 -3.150404989719390869e-01 -2.522317469120025635e-01
3.802000000000000000e+03 2.138226318359375000e+01 -9.061256408691406250e+00 -3.964917063713073730e-01 3.220390295609831810e-03 -1.179813966155052185e-01 -5.280623212456703186e-03
3.803000000000000000e+03 4.196408081054687500e+01 -7.886166572570800781e+00 3.667735457420349121e-01 6.147248670458793640e-02 1.284738183021545410e-01 -1.629208922386169434e-01
3.804000000000000000e+03 4.373508071899414062e+01 -9.133459091186523438e+00 2.477066963911056519e-01 2.801819741725921631e-01 1.583666056394577026e-01 -2.316378504037857056e-01
3.805000000000000000e+03 3.366848754882812500e+01 4.705215454101562500e+00 1.039494127035140991e-01 -1.099731624126434326e-01 -1.807125168852508068e-03 -1.219523400068283081e-01
3.806000000000000000e+03 4.315202331542968750e+01 -1.325849151611328125e+01 -1.044143512845039368e-01 5.440140515565872192e-02 -1.500388327986001968e-02 -2.098394334316253662e-01
3.807000000000000000e+03 4.237177658081054688e+01 -1.350303077697753906e+01 -1.420823484659194946e-01 -8.671082556247711182e-02 -6.863795220851898193e-02 -2.353308051824569702e-01
3.808000000000000000e+03 5.538509750366210938e+01 -7.000431060791015625e+00 3.843323886394500732e-01 6.512578725814819336e-01 3.106770813465118408e-01 2.253559529781341553e-01
3.809000000000000000e+03 4.813087463378906250e+01 -1.619977760314941406e+01 -5.285627245903015137e-01 5.240083336830139160e-01 -1.366327283903956413e-03 -2.936410903930664062e-02
3.810000000000000000e+03 6.162889480590820312e+01 -4.575013637542724609e+00 1.703793406486511230e+00 8.019789695739746094e+00 2.917075157165527344e+00 1.158228397369384766e+00
3.811000000000000000e+03 6.753417968750000000e+01 1.361572360992431641e+01 2.145360469818115234e+00 1.254282283782958984e+01 4.406455039978027344e+00 2.201465129852294922e+00
3.812000000000000000e+03 7.778623962402343750e+01 -2.847067260742187500e+01 4.107401892542839050e-02 7.781616210937500000e+00 2.346807003021240234e+00 3.221769928932189941e-01
3.813000000000000000e+03 4.009465026855468750e+01 1.469724082946777344e+01 -7.695982456207275391e-01 1.861087679862976074e-01 -1.750468313694000244e-01 8.874200284481048584e-02
3.814000000000000000e+03 7.805711364746093750e+01 1.739515113830566406e+01 8.276348561048507690e-02 5.951607704162597656e+00 1.810311317443847656e+00 2.375812679529190063e-01
3.815000000000000000e+03 1.720772552490234375e+01 -8.305396080017089844e+00 -1.243762746453285217e-01 8.005035109817981720e-03 -3.491137176752090454e-02 -4.876463208347558975e-03
3.816000000000000000e+03 3.345828056335449219e+00 2.488611221313476562e+01 -4.504472482949495316e-03 -6.484267115592956543e-02 -2.080414257943630219e-02 2.949915081262588501e-02
3.817000000000000000e+03 2.206861019134521484e+00 2.480355644226074219e+01 -2.398946555331349373e-03 -6.346794962882995605e-02 -1.976007036864757538e-02 2.003368735313415527e-02
3.818000000000000000e+03 3.800619125366210938e+01 -1.179871082305908203e+00 -1.581178784370422363e+00 -2.980987727642059326e-02 -4.832965731620788574e-01 -2.249043583869934082e-01
3.819000000000000000e+03 3.953880310058593750e+01 -2.753579854965209961e+00 -2.795129418373107910e-01 -6.544833779335021973e-01 -2.801989018917083740e-01 -1.865306198596954346e-01
3.820000000000000000e+03 4.918204498291015625e+01 -1.688789749145507812e+01 -6.158267855644226074e-01 4.431902170181274414e-01 -5.179097503423690796e-02 4.649686813354492188e-02
3.821000000000000000e+03 5.035224533081054688e+01 -1.758449935913085938e+01 -8.210619688034057617e-01 3.304349482059478760e-01 -1.471880972385406494e-01 1.639325469732284546e-01
3.822000000000000000e+03 2.897394657135009766e+00 2.764447212219238281e+01 -1.935021020472049713e-03 -8.801046013832092285e-02 -2.698364295065402985e-02 3.070094808936119080e-02
3.823000000000000000e+03 2.094045400619506836e+00 2.832128524780273438e+01 -4.092808812856674194e-04 -9.690681844949722290e-02 -2.919482998549938202e-02 2.381161600351333618e-02
3.824000000000000000e+03 3.929505920410156250e+01 -5.172531127929687500e+00 5.327872037887573242e-01 -1.805779188871383667e-01 1.056627854704856873e-01 -3.419151902198791504e-01
3.825000000000000000e+03 7.794338226318359375e+01 2.706483840942382812e+01 -4.247732460498809814e-02 6.986344337463378906e+00 2.083160161972045898e+00 1.628005653619766235e-01
3.826000000000000000e+03 6.763914489746093750e+01 9.626584053039550781e+00 2.143334627151489258e+00 1.465930461883544922e+01 5.040791988372802734e+00 4.487560689449310303e-01
3.827000000000000000e+03 5.255292129516601562e+01 7.031095027923583984e+00 -1.422338839620351791e-02 -3.193510323762893677e-02 -1.384754758328199387e-02 -1.321249455213546753e-02
3.828000000000000000e+03 4.356929397583007812e+01 1.419272518157958984e+01 -9.004688262939453125e-01 1.643899232149124146e-01 -2.208236753940582275e-01 -9.902158379554748535e-02
3.829000000000000000e+03 4.435498046875000000e+01 1.411577129364013672e+01 -9.657062888145446777e-01 7.885713875293731689e-02 -2.660547494888305664e-01 -2.619255185127258301e-01
3.830000000000000000e+03 7.730699920654296875e+01 -1.353625202178955078e+01 3.429099321365356445e-01 8.455980300903320312e+00 2.639667034149169922e+00 -6.016771197319030762e-01
3.831000000000000000e+03 4.483988189697265625e+01 -1.438679575920104980e+00 -8.418068885803222656e-01 4.296794831752777100e-01 -1.236382275819778442e-01 1.150853112339973450e-01
3.832000000000000000e+03 4.564527893066406250e+01 2.542127132415771484e+00 -7.368339300155639648e-01 4.748857766389846802e-02 -2.068036049604415894e-01 -2.888092696666717529e-01
3.833000000000000000e+03 7.793047332763671875e+01 1.343975257873535156e+01 -3.683844208717346191e-02 5.990441322326660156e+00 1.786080837249755859e+00 -5.192221328616142273e-02
3.834000000000000000e+03 4.442937850952148438e+01 -1.051987171173095703e+01 2.331888526678085327e-01 3.306360244750976562e-01 1.691474616527557373e-01 -2.755131125450134277e-01
3.835000000000000000e+03 1.342286109924316406e+01 1.277032756805419922e+01 7.514090742915868759e-03 2.102101594209671021e-02 8.560532703995704651e-03 1.677528955042362213e-02
3.836000000000000000e+03 2.634908676147460938e+01 -4.524300992488861084e-01 -3.988603949546813965e-01 1.782554388046264648e-01 -6.618148088455200195e-02 -8.886814117431640625e-02
3.837000000000000000e+03 2.166815280914306641e+00 1.842088890075683594e+01 -2.402912592515349388e-03 -2.588999271392822266e-02 -8.487871848046779633e-03 5.806634668260812759e-03
3.838000000000000000e+03 5.792491912841796875e+01 -1.270334625244140625e+01 -4.820592105388641357e-01 4.406679153442382812e+00 1.177385926246643066e+00 1.322232604026794434e+00
3.839000000000000000e+03 5.742269134521484375e+01 -1.171823978424072266e+01 -5.051501393318176270e-01 3.870482444763183594e+00 1.009599685668945312e+00 1.206445097923278809e+00
3.840000000000000000e+03 1.649439811706542969e+00 -6.378486633300781250e+00 -6.877834675833582878e-04 1.109249610453844070e-02 3.121413756161928177e-03 5.068229977041482925e-03
3.841000000000000000e+03 1.841580390930175781e+00 6.883364200592041016e+00 -3.016106493305414915e-04 -4.549103323370218277e-03 -1.455214107409119606e-03 5.282577592879533768e-03
3.842000000000000000e+03 7.790621948242187500e+01 -2.447104072570800781e+01 -3.537512570619583130e-02 8.360360145568847656e+00 2.497495412826538086e+00 3.421902358531951904e-01
3.843000000000000000e+03 2.049340009689331055e+00 -1.736421203613281250e+01 -3.896131878718733788e-03 -5.378151312470436096e-02 -1.730329357087612152e-02 -3.151936829090118408e-02
3.844000000000000000e+03 7.124971771240234375e+01 -1.753861236572265625e+01 -1.858828663825988770e+00 4.963496208190917969e+00 9.314002394676208496e-01 2.522255659103393555e+00
3.845000000000000000e+03 2.384259223937988281e+01 8.130064964294433594e+00 -5.301313847303390503e-02 -4.772439424414187670e-04 -1.604711450636386871e-02 -2.834292501211166382e-02
3.846000000000000000e+03 6.151359176635742188e+01 -7.498805999755859375e+00 8.232435584068298340e-01 7.798218250274658203e+00 2.586438655853271484e+00 9.704464077949523926e-01
3.847000000000000000e+03 3.262266874313354492e+00 -2.821609878540039062e+01 3.111660946160554886e-03 -2.422652244567871094e-01 -7.174606621265411377e-02 -6.400367617607116699e-02
3.848000000000000000e+03 3.146739244461059570e+00 -2.744238853454589844e+01 2.635824261233210564e-03 -2.311404645442962646e-01 -6.855139136314392090e-02 -6.371897459030151367e-02
3.849000000000000000e+03 5.346580123901367188e+01 -4.552090644836425781e+00 4.508588314056396484e-01 -4.432109296321868896e-01 2.294370438903570175e-03 -2.112278044223785400e-01
3.850000000000000000e+03 2.021333312988281250e+01 1.801927566528320312e+01 -2.730435132980346680e-01 1.750519126653671265e-02 -7.666150480508804321e-02 9.596884995698928833e-02
3.851000000000000000e+03 2.586146545410156250e+01 -3.940280675888061523e+00 1.244265064597129822e-01 -5.037823915481567383e-01 -1.138067767024040222e-01 -3.872368037700653076e-01
3.852000000000000000e+03 6.495659637451171875e+01 5.977058410644531250e+00 1.333221554756164551e+00 9.944440841674804688e+00 3.383298635482788086e+00 2.565691947937011719e+00
3.853000000000000000e+03 2.455463218688964844e+01 -2.572204589843750000e+00 -4.962651804089546204e-02 -2.260727249085903168e-02 -2.167013846337795258e-02 -1.154965683817863464e-01
3.854000000000000000e+03 3.641744995117187500e+01 -1.512587547302246094e+01 -2.565340697765350342e-01 2.182750701904296875e-01 -1.147769670933485031e-02 -1.169090624898672104e-03
3.855000000000000000e+03 3.059138870239257812e+01 2.824634552001953125e+00 2.103097140789031982e-01 -3.723562359809875488e-01 -4.861395806074142456e-02 -1.178248897194862366e-01
3.856000000000000000e+03 3.649781799316406250e+01 4.673186302185058594e+00 -1.577584072947502136e-02 -1.791146467439830303e-03 -5.270096007734537125e-03 -8.501643687486648560e-02
3.857000000000000000e+03 7.668053436279296875e+01 2.494810295104980469e+01 -9.962401539087295532e-02 6.764402866363525391e+00 1.999433636665344238e+00 3.171884417533874512e-01
3.858000000000000000e+03 7.676036834716796875e+01 2.405067443847656250e+01 -1.063220351934432983e-01 6.723669052124023438e+00 1.985204100608825684e+00 3.625688850879669189e-01
3.859000000000000000e+03 2.841909790039062500e+01 -2.967666149139404297e+00 -6.261625140905380249e-02 -4.443781673908233643e-01 -1.520983278751373291e-01 -7.964565157890319824e-01
3.860000000000000000e+03 2.934980201721191406e+01 -2.355117082595825195e+00 -1.613596975803375244e-01 -7.341363430023193359e-01 -2.686488032341003418e-01 -7.977152466773986816e-01
3.861000000000000000e+03 4.754974746704101562e+01 -1.793194532394409180e+00 -4.045218825340270996e-01 1.770266890525817871e-01 -6.824855506420135498e-02 1.343269348144531250e-01
3.862000000000000000e+03 2.636296987533569336e+00 1.175277614593505859e+01 2.084065228700637817e-03 -1.468429062515497208e-02 -3.780067432671785355e-03 3.411065554246306419e-03
3.863000000000000000e+03 2.566672325134277344e+00 -7.052950382232666016e+00 -2.640659920871257782e-03 6.429937668144702911e-03 1.136783277615904808e-03 4.651128780096769333e-03
3.864000000000000000e+03 2.100949525833129883e+00 -6.714199066162109375e+00 -1.607154728844761848e-03 9.418713860213756561e-03 2.343467669561505318e-03 5.481130443513393402e-03
3.865000000000000000e+03 2.337198257446289062e+00 -1.234968757629394531e+01 -5.350762512534856796e-03 -7.118236273527145386e-03 -3.740699728950858116e-03 -1.381816342473030090e-02
3.866000000000000000e+03 2.572586536407470703e+00 -1.162095069885253906e+01 -7.298882119357585907e-03 -4.895929712802171707e-03 -3.658443689346313477e-03 -1.182421389967203140e-02
3.867000000000000000e+03 3.234547853469848633e+00 6.406211853027343750e+00 -2.553258789703249931e-03 -4.594308789819478989e-03 -2.144270343706011772e-03 7.817043922841548920e-03
3.868000000000000000e+03 5.887877655029296875e+01 -1.631442260742187500e+01 -7.048887666314840317e-03 4.551314830780029297e+00 1.363279819488525391e+00 6.262521147727966309e-01
3.869000000000000000e+03 5.786511230468750000e+01 -1.509164237976074219e+01 5.714798811823129654e-03 4.759759426116943359e+00 1.429642200469970703e+00 9.337045550346374512e-01
3.870000000000000000e+03 7.438854217529296875e+01 -1.315440654754638672e+01 1.040424108505249023e+00 1.026930522918701172e+01 3.392918825149536133e+00 -3.017528653144836426e-01
3.871000000000000000e+03 3.918933105468750000e+01 7.974617481231689453e+00 -1.240820158272981644e-03 4.970115143805742264e-03 1.118788495659828186e-03 -6.244300864636898041e-03
3.872000000000000000e+03 3.866428756713867188e+01 7.401412010192871094e+00 2.772866282612085342e-04 1.068122591823339462e-02 3.287553554400801659e-03 -8.126425556838512421e-03
3.873000000000000000e+03 2.231483650207519531e+01 2.912627160549163818e-01 -1.655930653214454651e-02 5.297613888978958130e-02 1.092504989355802536e-02 3.579005226492881775e-02
3.874000000000000000e+03 6.244708251953125000e+01 2.980028629302978516e+00 7.209507822990417480e-01 5.078188896179199219e+00 1.739741921424865723e+00 2.881177663803100586e+00
3.875000000000000000e+03 7.720413208007812500e+01 -1.937318038940429688e+01 -3.602056205272674561e-01 8.691645622253417969e+00 2.499432086944580078e+00 -1.711062788963317871e-01
3.876000000000000000e+03 7.675354766845703125e+01 -2.914044761657714844e+01 8.212240785360336304e-02 7.332915306091308594e+00 2.224511384963989258e+00 3.970163166522979736e-01
3.877000000000000000e+03 5.272029495239257812e+01 4.387887477874755859e+00 -1.479268670082092285e-01 -1.083411201834678650e-01 -7.688039541244506836e-02 1.167201027274131775e-01
3.878000000000000000e+03 5.210101318359375000e+01 3.722624301910400391e+00 -3.039002418518066406e-01 -7.941555231809616089e-02 -1.149947419762611389e-01 2.252570688724517822e-01
3.879000000000000000e+03 6.760968017578125000e+01 8.057642936706542969e+00 2.266906201839447021e-01 1.433585453033447266e+01 4.368763446807861328e+00 -6.751207113265991211e-01
3.880000000000000000e+03 6.847176361083984375e+01 7.453190803527832031e+00 -6.004230380058288574e-01 1.278688144683837891e+01 3.655937433242797852e+00 -1.145901441574096680e+00
3.881000000000000000e+03 2.415256690979003906e+01 -1.154865264892578125e+00 -1.082256659865379333e-01 1.127630844712257385e-01 1.361223985441029072e-03 5.617007147520780563e-03
3.882000000000000000e+03 3.287451553344726562e+01 -1.457942867279052734e+01 -2.643014788627624512e-01 3.622896969318389893e-01 2.939646691083908081e-02 1.085646729916334152e-02
3.883000000000000000e+03 3.345330810546875000e+01 -1.397477245330810547e+01 -2.100054621696472168e-01 4.044903814792633057e-01 5.834547430276870728e-02 -5.057001486420631409e-02
3.884000000000000000e+03 7.704615020751953125e+01 1.978166389465332031e+01 3.072600997984409332e-02 6.338747024536132812e+00 1.910841941833496094e+00 4.671707153320312500e-01
3.885000000000000000e+03 7.714703369140625000e+01 1.897494697570800781e+01 6.914285570383071899e-02 6.241789340972900391e+00 1.893279671669006348e+00 4.304247498512268066e-01
3.886000000000000000e+03 2.656792163848876953e+00 2.326418685913085938e+01 -3.449618583545088768e-03 -5.223087221384048462e-02 -1.670414768159389496e-02 1.963979937136173248e-02
3.887000000000000000e+03 7.555645751953125000e+01 6.379445195198059082e-01 -2.942575931549072266e+00 5.306730270385742188e+00 7.092462182044982910e-01 6.594182848930358887e-01
3.888000000000000000e+03 7.505787658691406250e+01 1.035054874420166016e+01 1.148638203740119934e-01 7.076951503753662109e+00 2.157544612884521484e+00 -2.992379665374755859e+00
3.889000000000000000e+03 6.798928833007812500e+01 -2.127280473709106445e+00 -4.302196025848388672e+00 3.925893545150756836e+00 -1.128906980156898499e-01 -9.213029742240905762e-01
3.890000000000000000e+03 6.534966278076171875e+01 1.551851367950439453e+01 -1.151080369949340820e+00 9.749164581298828125e+00 2.579425334930419922e+00 -2.295294761657714844e+00
3.891000000000000000e+03 6.634167480468750000e+01 3.857663631439208984e+00 2.351410865783691406e+00 9.043800354003906250e+00 3.418563604354858398e+00 6.956984996795654297e-01
3.892000000000000000e+03 5.367938613891601562e+01 -1.480722241103649139e-02 -1.333076119422912598e+00 -3.535203635692596436e-02 -4.105284512042999268e-01 -3.948891758918762207e-01
3.893000000000000000e+03 7.711213684082031250e+01 2.141980171203613281e+00 -1.994566321372985840e+00 9.663187026977539062e+00 2.300586223602294922e+00 -1.794391155242919922e+00
3.894000000000000000e+03 7.682381439208984375e+01 -1.350548744201660156e+00 -9.150698781013488770e-01 7.942306041717529297e+00 2.108170747756958008e+00 8.826684951782226562e-01
3.895000000000000000e+03 7.707523345947265625e+01 -1.863887310028076172e+00 -4.619769752025604248e-01 8.475630760192871094e+00 2.404096364974975586e+00 1.031679868698120117e+00
3.896000000000000000e+03 3.090271472930908203e+00 -2.281916618347167969e+01 -2.613437827676534653e-03 -1.495746523141860962e-01 -4.565642401576042175e-02 -6.321080029010772705e-02
3.897000000000000000e+03 3.030683994293212891e+00 -2.118675422668457031e+01 -4.256409127265214920e-03 -1.211327537894248962e-01 -3.761674836277961731e-02 -5.909257009625434875e-02
3.898000000000000000e+03 4.276721954345703125e+01 -7.467183589935302734e+00 3.309176564216613770e-01 1.498280018568038940e-01 1.442237049341201782e-01 -9.435103088617324829e-02
3.899000000000000000e+03 4.338237762451171875e+01 -7.664117336273193359e+00 2.828426957130432129e-01 2.558003962039947510e-01 1.615929305553436279e-01 -1.198995634913444519e-01
3.900000000000000000e+03 3.003620386123657227e+00 2.897669792175292969e+01 -4.322335007600486279e-04 -1.017695739865303040e-01 -3.066054359078407288e-02 3.275967016816139221e-02
3.901000000000000000e+03 3.237150430679321289e+00 3.063209724426269531e+01 1.097856904380023479e-03 -1.163915172219276428e-01 -3.458809852600097656e-02 3.486693650484085083e-02
3.902000000000000000e+03 4.472758102416992188e+01 -1.360197257995605469e+01 -1.781005114316940308e-01 3.284976482391357422e-01 4.511914029717445374e-02 -2.051497846841812134e-01
3.903000000000000000e+03 7.230194091796875000e+01 -1.810478019714355469e+01 -1.734019279479980469e+00 6.844147205352783203e+00 1.533038377761840820e+00 1.736855506896972656e+00
3.904000000000000000e+03 3.154520750045776367e+00 5.427237987518310547e+00 -5.635789129883050919e-03 -2.111649606376886368e-03 -2.324231667444109917e-03 4.180265124887228012e-03
3.905000000000000000e+03 3.458527326583862305e+00 4.833945751190185547e+00 -3.460170468315482140e-03 -1.236188400071114302e-04 -1.075136824510991573e-03 3.468210808932781219e-03
3.906000000000000000e+03 3.949128723144531250e+01 1.488122272491455078e+01 -7.823867797851562500e-01 1.592652797698974609e-01 -1.869364529848098755e-01 1.022997945547103882e-01
3.907000000000000000e+03 7.729822540283203125e+01 -1.191165161132812500e+01 4.910074770450592041e-01 8.349575996398925781e+00 2.652175188064575195e+00 -1.715283095836639404e-01
3.908000000000000000e+03 7.731831359863281250e+01 -1.271385478973388672e+01 4.810025691986083984e-01 8.390585899353027344e+00 2.661476612091064453e+00 -3.863125443458557129e-01
3.909000000000000000e+03 7.694739532470703125e+01 2.907283973693847656e+01 -7.499597966670989990e-02 6.909672737121582031e+00 2.050402879714965820e+00 1.277325451374053955e-01
3.910000000000000000e+03 7.725974273681640625e+01 2.842840003967285156e+01 -5.601452291011810303e-02 6.947114467620849609e+00 2.067330121994018555e+00 1.410287320613861084e-01
3.911000000000000000e+03 7.717936706542968750e+01 1.250592708587646484e+01 -1.668203920125961304e-01 6.458987236022949219e+00 1.887650012969970703e+00 -2.641003131866455078e-01
3.912000000000000000e+03 2.444428062438964844e+01 -1.649327993392944336e+00 -1.213811114430427551e-01 6.407698243856430054e-02 -1.719123870134353638e-02 -5.673151090741157532e-02
3.913000000000000000e+03 1.756101989746093750e+01 1.668015289306640625e+01 -1.244156360626220703e-01 2.705588378012180328e-02 -2.920792624354362488e-02 3.481017798185348511e-02
3.914000000000000000e+03 2.787121391296386719e+01 -5.291404247283935547e+00 1.946343481540679932e-01 -5.717493295669555664e-01 -1.131344959139823914e-01 -6.734951734542846680e-01
3.915000000000000000e+03 3.252109527587890625e+01 4.316766738891601562e+00 1.760449707508087158e-01 -1.626508533954620361e-01 4.018234554678201675e-03 -1.448591202497482300e-01
3.916000000000000000e+03 2.875751495361328125e+00 1.959379959106445312e+01 -4.431533161550760269e-03 -3.141622617840766907e-02 -1.075432728976011276e-02 1.139929238706827164e-02
3.917000000000000000e+03 6.788156127929687500e+01 6.383291244506835938e+00 3.074783980846405029e-01 1.359424877166748047e+01 4.170518398284912109e+00 -1.759791970252990723e+00
3.918000000000000000e+03 7.708177947998046875e+01 -2.197351837158203125e+01 -2.336204349994659424e-01 8.318713188171386719e+00 2.425527811050415039e+00 3.075114786624908447e-01
3.919000000000000000e+03 7.707801055908203125e+01 -2.281094169616699219e+01 -1.363584101200103760e-01 8.195349693298339844e+00 2.417697191238403320e+00 3.818386793136596680e-01
3.920000000000000000e+03 4.147364425659179688e+01 -7.436744689941406250e+00 4.512690603733062744e-01 -3.157716616988182068e-02 1.259075701236724854e-01 -1.537287235260009766e-01
3.921000000000000000e+03 4.109992218017578125e+01 -7.992421150207519531e+00 4.188623726367950439e-01 -1.261589489877223969e-02 1.218739449977874756e-01 -2.057063132524490356e-01
3.922000000000000000e+03 3.131274795532226562e+01 -1.026677989959716797e+01 -1.931466907262802124e-02 6.180174350738525391e-01 1.796108335256576538e-01 -1.225546747446060181e-01
3.923000000000000000e+03 2.902849674224853516e+00 -1.962671852111816406e+01 -5.695494357496500015e-03 -9.478501975536346436e-02 -3.014415502548217773e-02 -5.255970731377601624e-02
3.924000000000000000e+03 2.843005180358886719e+00 -1.888115310668945312e+01 -5.840865895152091980e-03 -8.309081196784973145e-02 -2.667950280010700226e-02 -4.845081642270088196e-02
3.925000000000000000e+03 4.999394989013671875e+01 -1.925251770019531250e+01 -6.772990822792053223e-01 5.090914964675903320e-01 -5.046227574348449707e-02 -4.546088352799415588e-02
3.926000000000000000e+03 5.010549545288085938e+01 -2.006232833862304688e+01 -5.309318304061889648e-01 5.573130249977111816e-01 7.914364337921142578e-03 -6.041631847620010376e-02
3.927000000000000000e+03 7.432061004638671875e+01 -9.955944061279296875e+00 1.388247132301330566e+00 9.868188858032226562e+00 3.376930713653564453e+00 -8.338134735822677612e-02
3.928000000000000000e+03 3.862058639526367188e+01 -4.141690731048583984e+00 3.521507680416107178e-01 -1.333363354206085205e-01 6.564432382583618164e-02 -3.905696272850036621e-01
3.929000000000000000e+03 3.787052917480468750e+01 -2.707195043563842773e+00 -3.245165348052978516e-01 3.210882842540740967e-02 -8.772231638431549072e-02 -3.859082460403442383e-01
3.930000000000000000e+03 3.458185577392578125e+01 1.344794631004333496e+00 -8.819168210029602051e-01 3.871015906333923340e-01 -1.484445631504058838e-01 -1.341529041528701782e-01
3.931000000000000000e+03 3.361689567565917969e+00 -2.903372383117675781e+01 5.001704208552837372e-03 -2.547835707664489746e-01 -7.493456453084945679e-02 -6.449285894632339478e-02
3.932000000000000000e+03 4.233408355712890625e+01 -1.514358162879943848e+00 -1.083317399024963379e+00 -1.789844483137130737e-01 -3.786905705928802490e-01 -4.891084879636764526e-02
3.933000000000000000e+03 4.137751007080078125e+01 -1.502157926559448242e+00 -1.373250365257263184e+00 -5.546159148216247559e-01 -5.783599019050598145e-01 -1.777002774178981781e-02
3.934000000000000000e+03 7.681444549560546875e+01 2.318849754333496094e+01 -8.824004232883453369e-02 6.664281368255615234e+00 1.972812414169311523e+00 4.095856845378875732e-01
3.935000000000000000e+03 3.209109306335449219e+00 3.241366958618164062e+01 2.436943352222442627e-03 -1.316358447074890137e-01 -3.875967115163803101e-02 3.282084688544273376e-02
3.936000000000000000e+03 3.096414327621459961e+00 3.328824615478515625e+01 4.172991961240768433e-03 -1.399756819009780884e-01 -4.074081033468246460e-02 3.053769469261169434e-02
3.937000000000000000e+03 1.402822494506835938e+01 1.329906940460205078e+01 -6.124090868979692459e-04 2.101002261042594910e-02 6.119284313172101974e-03 1.650575548410415649e-02
3.938000000000000000e+03 2.908707427978515625e+01 -3.742841720581054688e+00 2.078998833894729614e-01 -3.426008522510528564e-01 -4.041029140353202820e-02 -6.731910705566406250e-01
3.939000000000000000e+03 6.213507461547851562e+01 -1.105347347259521484e+01 -5.061224102973937988e-01 6.106005191802978516e+00 1.679964780807495117e+00 7.672668099403381348e-01
3.940000000000000000e+03 2.416518974304199219e+01 9.371367096900939941e-01 2.178271114826202393e-02 9.629810601472854614e-02 3.542424738407135010e-02 1.242176592350006104e-01
3.941000000000000000e+03 2.629965066909790039e+00 1.006543350219726562e+01 2.075442112982273102e-03 -1.286344416439533234e-02 -3.236400661990046501e-03 5.538976751267910004e-03
3.942000000000000000e+03 2.690147161483764648e+00 1.090098476409912109e+01 2.364033367484807968e-03 -1.345560606569051743e-02 -3.327471902593970299e-03 4.371292889118194580e-03
3.943000000000000000e+03 7.358752441406250000e+01 -1.260698032379150391e+01 1.117602229118347168e+00 1.142914962768554688e+01 3.764025449752807617e+00 4.812498390674591064e-02
3.944000000000000000e+03 2.695907592773437500e+00 -1.080460643768310547e+01 -6.585594266653060913e-03 -1.820008619688451290e-03 -2.521680900827050209e-03 -8.242392912507057190e-03
3.945000000000000000e+03 2.821985006332397461e+00 8.487113952636718750e+00 1.117494393838569522e-04 -9.244674816727638245e-03 -2.739877672865986824e-03 8.075778372585773468e-03
3.946000000000000000e+03 2.675127506256103516e+00 9.280996322631835938e+00 1.975334715098142624e-03 -1.101752743124961853e-02 -2.712657675147056580e-03 6.961893290281295776e-03
3.947000000000000000e+03 2.679125785827636719e+00 -9.171228408813476562e+00 -5.450225900858640671e-03 3.478445112705230713e-03 -5.915341898798942566e-04 -1.479149213992059231e-03
3.948000000000000000e+03 2.656532287597656250e+00 -8.372507095336914062e+00 -4.198538605123758316e-03 5.226369015872478485e-03 3.083491465076804161e-04 1.064812880940735340e-03
3.949000000000000000e+03 7.706304168701171875e+01 -3.262830352783203125e+01 5.575429275631904602e-02 7.143670082092285156e+00 2.159827232360839844e+00 2.529337406158447266e-01
3.950000000000000000e+03 3.452589416503906250e+01 -1.305122470855712891e+01 -1.649549417197704315e-02 3.759683370590209961e-01 1.078418567776679993e-01 -1.577871888875961304e-01
3.951000000000000000e+03 3.352217102050781250e+01 -1.290371704101562500e+01 -1.040855348110198975e-01 4.760408997535705566e-01 1.115866079926490784e-01 -1.128585487604141235e-01
3.952000000000000000e+03 5.657801437377929688e+01 -6.022473573684692383e-01 -1.270269989967346191e+00 -2.105377167463302612e-01 -4.442422986030578613e-01 -7.832623273134231567e-02
3.953000000000000000e+03 7.410601043701171875e+01 -9.493368148803710938e+00 1.423099040985107422e+00 9.907818794250488281e+00 3.399275541305541992e+00 -1.775103039108216763e-03
3.954000000000000000e+03 1.576647472381591797e+01 1.376414012908935547e+01 -6.613327655941247940e-03 2.161947451531887054e-02 4.501844290643930435e-03 1.502846833318471909e-02
3.955000000000000000e+03 1.523713302612304688e+01 1.439772510528564453e+01 -2.664522267878055573e-02 2.145698107779026031e-02 -1.556472503580152988e-03 1.570653542876243591e-02
3.956000000000000000e+03 3.259747505187988281e+00 3.152580833435058594e+01 1.744392677210271358e-03 -1.243469268083572388e-01 -3.678075969219207764e-02 3.358152881264686584e-02
3.957000000000000000e+03 4.132839202880859375e+01 -9.047870635986328125e+00 3.160628378391265869e-01 3.274982422590255737e-02 1.046437993645668030e-01 -2.047199755907058716e-01
3.958000000000000000e+03 4.860314941406250000e+01 1.844805717468261719e+01 -9.294278025627136230e-01 -6.080294847488403320e-01 -4.612371921539306641e-01 3.039637804031372070e-01
3.959000000000000000e+03 7.707149505615234375e+01 -2.025980758666992188e+01 -3.978278636932373047e-01 8.572248458862304688e+00 2.452326297760009766e+00 3.948094695806503296e-02
3.960000000000000000e+03 7.707486724853515625e+01 -2.112877082824707031e+01 -2.847040593624114990e-01 8.443076133728027344e+00 2.447511672973632812e+00 2.006010115146636963e-01
3.961000000000000000e+03 6.741371154785156250e+01 5.842805385589599609e+00 1.096383571624755859e+00 1.267783641815185547e+01 4.132266044616699219e+00 -1.277673602104187012e+00
3.962000000000000000e+03 6.670439147949218750e+01 6.175915718078613281e+00 7.445404529571533203e-01 1.269427490234375000e+01 4.031644821166992188e+00 -5.370736122131347656e-01
3.963000000000000000e+03 4.504066467285156250e+01 -4.963919222354888916e-01 -1.038113832473754883e+00 3.435882329940795898e-01 -2.083576768636703491e-01 -1.476595923304557800e-02
3.964000000000000000e+03 4.537580490112304688e+01 -9.879614412784576416e-02 -9.781129360198974609e-01 3.427778482437133789e-01 -1.906005144119262695e-01 -4.714944586157798767e-02
3.965000000000000000e+03 2.642696857452392578e+00 2.120125198364257812e+01 -3.847926156595349312e-03 -3.871937468647956848e-02 -1.277018990367650986e-02 1.496610324829816818e-02
3.966000000000000000e+03 2.663035631179809570e+00 2.187179374694824219e+01 -4.041467793285846710e-03 -4.269132018089294434e-02 -1.401983574032783508e-02 1.640057936310768127e-02
3.967000000000000000e+03 7.713983917236328125e+01 -1.020521068572998047e+01 5.568252205848693848e-01 8.401747703552246094e+00 2.687571763992309570e+00 3.766939043998718262e-01
3.968000000000000000e+03 7.724192047119140625e+01 -1.108832263946533203e+01 5.942118167877197266e-01 8.366334915161132812e+00 2.688163995742797852e+00 9.664744138717651367e-02
3.969000000000000000e+03 6.754051971435546875e+01 -1.711524200439453125e+01 -1.915341019630432129e+00 1.273741602897644043e+00 -1.924798339605331421e-01 -2.587297558784484863e-01
3.970000000000000000e+03 6.802023315429687500e+01 -1.867785453796386719e+01 -5.658388137817382812e-01 1.464766860008239746e+00 2.696784138679504395e-01 -5.760394409298896790e-02
3.971000000000000000e+03 7.710217285156250000e+01 1.110284328460693359e+01 -5.270391702651977539e-01 7.450431346893310547e+00 2.077017545700073242e+00 -3.216844201087951660e-01
3.972000000000000000e+03 7.707186889648437500e+01 1.036958217620849609e+01 -3.462808132171630859e-01 7.920068740844726562e+00 2.272136449813842773e+00 -3.007234036922454834e-01
3.973000000000000000e+03 7.688499450683593750e+01 2.146229934692382812e+01 -4.445731639862060547e-02 6.523559093475341797e+00 1.943730592727661133e+00 4.651720821857452393e-01
3.974000000000000000e+03 7.695710754394531250e+01 2.061010742187500000e+01 -8.513221517205238342e-03 6.443341732025146484e+00 1.930448532104492188e+00 4.750185012817382812e-01
3.975000000000000000e+03 3.684453964233398438e+01 -9.430217742919921875e-01 -1.250339150428771973e+00 6.157097816467285156e-01 -1.903888136148452759e-01 -1.587866432964801788e-02
3.976000000000000000e+03 3.401157760620117188e+01 -1.444566059112548828e+01 -2.246759384870529175e-01 3.683390021324157715e-01 4.309891909360885620e-02 -3.646627441048622131e-02
3.977000000000000000e+03 2.972164392471313477e+00 -2.039387130737304688e+01 -4.772642161697149277e-03 -1.078366488218307495e-01 -3.378278762102127075e-02 -5.572492629289627075e-02
3.978000000000000000e+03 4.340216827392578125e+01 -3.539860725402832031e+00 2.970791794359683990e-02 1.315485835075378418e-01 4.837694764137268066e-02 1.788415908813476562e-01
3.979000000000000000e+03 7.718549346923828125e+01 4.880005121231079102e-01 -1.746187090873718262e+00 9.030699729919433594e+00 2.185353994369506836e+00 -2.324789613485336304e-01
3.980000000000000000e+03 7.671662902832031250e+01 -7.363837361335754395e-01 -1.207236766815185547e+00 7.795962810516357422e+00 1.976617813110351562e+00 7.510244846343994141e-01
3.981000000000000000e+03 4.822137832641601562e+00 5.980195999145507812e+00 -1.304315123707056046e-02 -2.048444701358675957e-03 -4.527478944510221481e-03 9.104476310312747955e-03
3.982000000000000000e+03 2.539165687561035156e+01 9.721594810485839844e+00 -5.364788696169853210e-02 -1.253662072122097015e-02 -1.985535211861133575e-02 -4.207577928900718689e-02
3.983000000000000000e+03 3.133747863769531250e+01 1.594248962402343750e+01 -5.619943141937255859e-01 1.521796733140945435e-02 -1.640328913927078247e-01 1.828868091106414795e-01
3.984000000000000000e+03 3.179507255554199219e+01 1.523491859436035156e+01 -6.071975231170654297e-01 -2.616256941109895706e-03 -1.829441338777542114e-01 1.114408671855926514e-01
3.985000000000000000e+03 4.074385452270507812e+01 -2.835129976272583008e+00 -3.167223632335662842e-01 -6.877336502075195312e-01 -3.013367950916290283e-01 4.518928751349449158e-02
3.986000000000000000e+03 6.027352905273437500e+01 -3.799567520618438721e-01 -1.640066862106323242e+00 4.708745479583740234e+00 9.206036329269409180e-01 1.643566012382507324e+00
3.987000000000000000e+03 5.912961959838867188e+01 5.820899605751037598e-01 -1.880768299102783203e+00 2.229621171951293945e+00 1.046558171510696411e-01 1.018720865249633789e+00
3.988000000000000000e+03 6.295478439331054688e+01 -1.267238807678222656e+01 -1.129307389259338379e+00 5.090318679809570312e+00 1.188303351402282715e+00 3.026927113533020020e-01
3.989000000000000000e+03 1.408484363555908203e+01 -3.526601791381835938e+00 8.954023011028766632e-03 -7.193292956799268723e-03 5.282188649289309978e-04 -7.664149627089500427e-03
3.990000000000000000e+03 4.257389831542968750e+01 -1.711505317687988281e+01 -7.658043503761291504e-01 1.003275215625762939e-01 -1.996430456638336182e-01 -6.659016944468021393e-03
3.991000000000000000e+03 4.342843627929687500e+01 -1.617671585083007812e+01 -7.998957633972167969e-01 2.455422282218933105e-01 -1.663060635328292847e-01 -1.905072778463363647e-01
3.992000000000000000e+03 3.107325744628906250e+01 2.813966989517211914e+00 1.070527359843254089e-01 -4.179414510726928711e-01 -9.326662123203277588e-02 -2.529465854167938232e-01
3.993000000000000000e+03 2.981116294860839844e+01 2.389596223831176758e+00 1.543023735284805298e-01 -3.360705673694610596e-01 -5.453046038746833801e-02 1.744048856198787689e-02
3.994000000000000000e+03 2.758832931518554688e+01 1.643530464172363281e+01 -4.259326159954071045e-01 4.246461018919944763e-02 -1.150404065847396851e-01 2.110234647989273071e-01
3.995000000000000000e+03 2.637637329101562500e+01 1.625052452087402344e+01 -4.329172372817993164e-01 1.530970726162195206e-02 -1.252822577953338623e-01 2.493615150451660156e-01
3.996000000000000000e+03 4.007042312622070312e+01 -6.453553199768066406e+00 5.552057027816772461e-01 -9.650211781263351440e-02 1.376110762357711792e-01 -2.650422751903533936e-01
3.997000000000000000e+03 4.041598892211914062e+01 -8.004364967346191406e+00 4.115112721920013428e-01 1.688668131828308105e-02 1.285193860530853271e-01 -2.376501709222793579e-01
3.998000000000000000e+03 5.992138671875000000e+01 1.463613891601562500e+01 -9.028095006942749023e-01 3.300346434116363525e-01 -1.718324571847915649e-01 -1.928569972515106201e-01
3.999000000000000000e+03 3.415809631347656250e+01 7.334375381469726562e-01 -1.053777813911437988e+00 5.326425433158874512e-01 -1.563405841588973999e-01 -3.040742278099060059e-01
4.000000000000000000e+03 7.279346466064453125e+01 -7.837629318237304688e-01 -1.320095062255859375e+00 2.559970378875732422e+00 3.719625771045684814e-01 -3.435973644256591797e+00
4.001000000000000000e+03 2.405592727661132812e+01 4.114597141742706299e-01 -4.605680331587791443e-02 1.067620143294334412e-01 1.821156404912471771e-02 1.055868342518806458e-01
4.002000000000000000e+03 2.468543815612792969e+01 -1.180157542228698730e+00 -1.479574888944625854e-01 9.588028490543365479e-02 -1.562316063791513443e-02 -3.133766725659370422e-02
4.003000000000000000e+03 3.722737503051757812e+01 8.042882919311523438e+00 1.424486842006444931e-02 -1.457969192415475845e-03 3.836069954559206963e-03 -1.597316935658454895e-02
4.004000000000000000e+03 3.305213165283203125e+01 1.695327639579772949e+00 -7.361766695976257324e-01 2.892727404832839966e-02 -2.121748179197311401e-01 -5.201283097267150879e-01
4.005000000000000000e+03 4.778208541870117188e+01 1.849739074707031250e+01 -1.001753807067871094e+00 -4.811504781246185303e-01 -4.448713064193725586e-01 4.641508758068084717e-01
4.006000000000000000e+03 4.693291854858398438e+01 1.852936935424804688e+01 -1.005638003349304199e+00 -3.400824964046478271e-01 -4.037161469459533691e-01 4.973203539848327637e-01
4.007000000000000000e+03 3.820881652832031250e+01 6.657255172729492188e+00 3.482254454866051674e-03 2.183949202299118042e-02 7.596523966640233994e-03 -2.262814342975616455e-02
4.008000000000000000e+03 7.755839538574218750e+01 5.155292034149169922e+00 7.030212879180908203e-01 1.041510772705078125e+01 3.335438728332519531e+00 -2.939466714859008789e+00
4.009000000000000000e+03 3.629088592529296875e+01 -1.652751863002777100e-01 -1.252308964729309082e+00 6.516389250755310059e-01 -1.802010238170623779e-01 1.671119183301925659e-01
4.010000000000000000e+03 3.516522216796875000e+01 -9.090202450752258301e-01 -9.197606444358825684e-01 8.488551378250122070e-01 -2.127165347337722778e-02 -1.002029925584793091e-01
4.011000000000000000e+03 1.682991600036621094e+01 -7.586410999298095703e+00 -1.025371998548507690e-01 7.453982252627611160e-03 -2.852496504783630371e-02 3.505054861307144165e-03
4.012000000000000000e+03 6.820001220703125000e+01 8.035179376602172852e-01 -7.329760789871215820e-01 8.355704307556152344e+00 2.286818504333496094e+00 -8.881185650825500488e-01
4.013000000000000000e+03 6.679499816894531250e+01 -1.742441558837890625e+01 -1.371015071868896484e+00 1.807744860649108887e+00 1.310189217329025269e-01 -6.022534966468811035e-01
4.014000000000000000e+03 2.749808549880981445e+00 3.101724386215209961e+00 -3.706746792886406183e-04 4.180372634436935186e-04 1.420877197233494371e-05 -1.258320698980242014e-04
4.015000000000000000e+03 3.147239446640014648e+00 3.919647216796875000e+00 -1.186499954201281071e-03 -1.746402413118630648e-04 -4.083420499227941036e-04 3.909005899913609028e-04
4.016000000000000000e+03 2.700389099121093750e+01 -7.968620777130126953e+00 -4.713556170463562012e-01 -8.129360675811767578e-01 -3.852874934673309326e-01 -4.110245406627655029e-01
4.017000000000000000e+03 2.774359130859375000e+01 -7.264038562774658203e+00 -1.682469695806503296e-01 -5.629633069038391113e-01 -2.193630784749984741e-01 -5.159831643104553223e-01
4.018000000000000000e+03 6.700341033935546875e+01 1.463731575012207031e+01 5.082010850310325623e-02 1.210605621337890625e+01 3.647062778472900391e+00 7.834619283676147461e-01
4.019000000000000000e+03 6.635102081298828125e+01 1.481753921508789062e+01 -6.185690760612487793e-01 1.275324249267578125e+01 3.640401840209960938e+00 -5.892630219459533691e-01
4.020000000000000000e+03 4.109799957275390625e+01 -1.735035324096679688e+01 -8.087280392646789551e-01 -3.173365294933319092e-01 -3.378193676471710205e-01 5.412990227341651917e-02
4.021000000000000000e+03 5.782093811035156250e+01 -3.261902630329132080e-01 -1.525605320930480957e+00 6.432526111602783203e-01 -2.647058069705963135e-01 5.516427755355834961e-01
4.022000000000000000e+03 5.853477478027343750e+01 -3.183379769325256348e-01 -1.521578907966613770e+00 1.806669473648071289e+00 8.552715927362442017e-02 8.470513224601745605e-01
4.023000000000000000e+03 1.120403289794921875e+01 1.178775882720947266e+01 1.093330793082714081e-02 1.544078998267650604e-02 7.912228815257549286e-03 1.249112375080585480e-02
4.024000000000000000e+03 6.016036224365234375e+01 4.961717426776885986e-01 -1.724867105484008789e+00 3.876524686813354492e+00 6.454972624778747559e-01 1.689836382865905762e+00
4.025000000000000000e+03 3.504394531250000000e+01 6.250310420989990234e+00 6.965528428554534912e-02 -5.311946943402290344e-02 4.960743710398674011e-03 -4.675234109163284302e-02
4.026000000000000000e+03 3.566814804077148438e+01 6.278898715972900391e+00 6.236950308084487915e-02 -3.304099664092063904e-02 8.798551745712757111e-03 -5.330182239413261414e-02
4.027000000000000000e+03 6.078377532958984375e+01 -6.829170227050781250e+00 1.198691964149475098e+00 6.621002674102783203e+00 2.345908403396606445e+00 1.253259778022766113e+00
4.028000000000000000e+03 7.044386291503906250e+01 -8.292353153228759766e-01 -3.123645305633544922e+00 6.825198173522949219e+00 1.110466003417968750e+00 -4.043725013732910156e+00
4.029000000000000000e+03 2.879515075683593750e+01 -1.697961568832397461e+00 -6.817550063133239746e-01 -3.407232463359832764e-01 -3.067434728145599365e-01 -7.705191373825073242e-01
4.030000000000000000e+03 7.322257232666015625e+01 -6.856472492218017578e+00 2.910716831684112549e-01 8.365992546081542969e+00 2.597119331359863281e+00 -2.946526408195495605e-01
4.031000000000000000e+03 7.219683074951171875e+01 -6.005190849304199219e+00 -2.165161222219467163e-01 7.139922618865966797e+00 2.077022075653076172e+00 -1.226929426193237305e+00
4.032000000000000000e+03 6.917948913574218750e+01 6.893105059862136841e-02 -2.218172788619995117e+00 8.162766456604003906e+00 1.783378243446350098e+00 -2.273639440536499023e+00
4.033000000000000000e+03 2.295671653747558594e+01 1.018674659729003906e+01 -1.148747093975543976e-02 3.850525990128517151e-02 8.105336688458919525e-03 1.310918107628822327e-02
4.034000000000000000e+03 3.042089653015136719e+01 1.551201581954956055e+00 -2.980037033557891846e-01 -7.700358629226684570e-01 -3.204118609428405762e-01 -2.284079492092132568e-01
4.035000000000000000e+03 6.130479812622070312e+01 -5.204785823822021484e+00 1.609706997871398926e+00 7.697826385498046875e+00 2.792259931564331055e+00 1.325760126113891602e+00
4.036000000000000000e+03 6.136021804809570312e+01 -5.956743240356445312e+00 1.472293376922607422e+00 7.647399425506591797e+00 2.735907793045043945e+00 1.336678743362426758e+00
4.037000000000000000e+03 5.157117080688476562e+01 1.668330192565917969e+01 -1.573643088340759277e+00 -1.693411171436309814e-02 -4.771731495857238770e-01 6.017336994409561157e-02
4.038000000000000000e+03 5.095805358886718750e+01 1.601169967651367188e+01 -1.938358068466186523e+00 -3.277739882469177246e-01 -6.798396110534667969e-01 2.347493320703506470e-01
4.039000000000000000e+03 7.490479278564453125e+01 1.206210517883300781e+01 4.754217863082885742e-01 5.957678318023681641e+00 1.929930090904235840e+00 -1.616544842720031738e+00
4.040000000000000000e+03 7.352417755126953125e+01 1.123466968536376953e+01 1.602222800254821777e+00 3.356223106384277344e+00 1.487533807754516602e+00 -1.970495820045471191e+00
4.041000000000000000e+03 2.697019195556640625e+01 1.696246910095214844e+01 -4.639435708522796631e-01 4.781836643815040588e-02 -1.248375624418258667e-01 1.784249991178512573e-01
4.042000000000000000e+03 6.532514190673828125e+01 4.965274810791015625e+00 1.704104185104370117e+00 9.265496253967285156e+00 3.290880203247070312e+00 1.670882821083068848e+00
4.043000000000000000e+03 4.399914169311523438e+01 1.635981559753417969e+01 -1.199894785881042480e+00 2.089311480522155762e-01 -2.972890734672546387e-01 1.970412880182266235e-01
4.044000000000000000e+03 5.433900833129882812e+01 1.537075424194335938e+01 -1.221736431121826172e+00 4.417972862720489502e-01 -2.339817583560943604e-01 3.003240823745727539e-01
4.045000000000000000e+03 9.275679588317871094e+00 9.253314018249511719e+00 2.052164450287818909e-02 1.072238199412822723e-02 9.373208507895469666e-03 8.619441650807857513e-03
4.046000000000000000e+03 6.157525634765625000e+01 -9.204566955566406250e+00 2.525740861892700195e-01 6.906124114990234375e+00 2.147609472274780273e+00 9.365835785865783691e-01
4.047000000000000000e+03 4.853420257568359375e+01 -1.557060623168945312e+01 -3.993822336196899414e-01 4.413553476333618164e-01 1.259193569421768188e-02 -3.271696344017982483e-02
4.048000000000000000e+03 5.580621719360351562e+01 1.444871616363525391e+01 -1.147546529769897461e+00 4.136239588260650635e-01 -2.201767712831497192e-01 2.235247492790222168e-01
4.049000000000000000e+03 4.328689575195312500e+01 -6.157325267791748047e+00 2.774586677551269531e-01 2.770649492740631104e-01 1.663570851087570190e-01 7.157940417528152466e-02
4.050000000000000000e+03 5.433055114746093750e+01 -6.107805728912353516e+00 4.393279254436492920e-01 -2.076133787631988525e-01 6.951436400413513184e-02 -1.073160301893949509e-02
4.051000000000000000e+03 2.665728759765625000e+01 1.194265270233154297e+01 -4.324700310826301575e-02 -1.987156271934509277e-02 -1.893557049334049225e-02 -2.617981284856796265e-02
4.052000000000000000e+03 4.604954528808593750e+01 1.671589469909667969e+01 -1.661684870719909668e+00 -8.220984041690826416e-02 -5.231684446334838867e-01 3.622006475925445557e-01
4.053000000000000000e+03 7.806446075439453125e+01 1.893864512443542480e+00 -1.047454476356506348e+00 1.037413883209228516e+01 2.798005104064941406e+00 -1.731993675231933594e+00
4.054000000000000000e+03 5.354931831359863281e+00 3.155186271667480469e+01 5.524877924472093582e-03 -1.189519837498664856e-01 -3.402813151478767395e-02 5.165838450193405151e-02
4.055000000000000000e+03 3.484542846679687500e+01 5.115833759307861328e+00 2.246738970279693604e-02 -6.143037229776382446e-02 -1.168889459222555161e-02 -1.018092781305313110e-01
4.056000000000000000e+03 3.444574737548828125e+01 6.192416191101074219e+00 1.096657291054725647e-01 -5.495817214250564575e-02 1.641226559877395630e-02 -3.399978578090667725e-02
4.057000000000000000e+03 7.617302703857421875e+01 -3.182761573791503906e+01 1.014939546585083008e-01 6.943592071533203125e+00 2.113525867462158203e+00 3.492899239063262939e-01
4.058000000000000000e+03 7.487796783447265625e+01 -3.110835647583007812e+01 1.651878952980041504e-01 6.542670726776123047e+00 2.012357473373413086e+00 4.669709503650665283e-01
4.059000000000000000e+03 6.828594207763671875e+01 2.678725004196166992e+00 3.112270355224609375e+00 1.157921886444091797e+01 4.407446861267089844e+00 -9.066457152366638184e-01
4.060000000000000000e+03 2.169294118881225586e+00 -2.436536216735839844e+01 -4.679570265579968691e-04 -1.780980080366134644e-01 -5.356978997588157654e-02 -4.722078889608383179e-02
4.061000000000000000e+03 2.857659912109375000e+01 1.451265811920166016e+01 -2.928534150123596191e-01 3.814055817201733589e-03 -8.671180903911590576e-02 8.421055972576141357e-02
4.062000000000000000e+03 6.051994705200195312e+01 1.388228774070739746e+00 -1.404792666435241699e+00 3.970526218414306641e+00 7.697200775146484375e-01 1.894569396972656250e+00
4.063000000000000000e+03 1.921919250488281250e+01 -9.130198478698730469e+00 -2.368360757827758789e-01 1.459412090480327606e-02 -6.667258590459823608e-02 -1.246385835111141205e-02
4.064000000000000000e+03 2.968695163726806641e+00 3.417642974853515625e+01 4.441190510988235474e-03 -1.487508565187454224e-01 -4.329289868474006653e-02 2.711189538240432739e-02
4.065000000000000000e+03 2.086230754852294922e+00 3.398441314697265625e+01 2.115469193086028099e-03 -1.520225405693054199e-01 -4.497212171554565430e-02 1.956068165600299835e-02
4.066000000000000000e+03 7.724108886718750000e+01 -3.327838134765625000e+01 3.416717424988746643e-02 7.191064834594726562e+00 2.167569637298583984e+00 2.051992565393447876e-01
4.067000000000000000e+03 4.686594009399414062e+01 3.947797775268554688e+00 -4.039613008499145508e-01 5.912270024418830872e-02 -1.034515798091888428e-01 -1.545135080814361572e-01
4.068000000000000000e+03 4.846700286865234375e+01 4.003656864166259766e+00 -4.398961961269378662e-01 1.083537861704826355e-01 -9.946272522211074829e-02 -3.583160415291786194e-02
4.069000000000000000e+03 2.224535560607910156e+01 9.602691650390625000e+00 -1.156932394951581955e-02 2.996935509145259857e-02 5.520009435713291168e-03 9.190402925014495850e-03
4.070000000000000000e+03 7.652262878417968750e+01 1.774260997772216797e+00 -2.701178550720214844e+00 8.552819252014160156e+00 1.755492091178894043e+00 -1.235642313957214355e+00
4.071000000000000000e+03 6.926890563964843750e+01 8.108387947082519531e+00 -5.808805227279663086e-01 1.037054347991943359e+01 2.936898708343505859e+00 -8.255108445882797241e-02
4.072000000000000000e+03 4.983946609497070312e+01 -1.851763343811035156e+01 -7.374243736267089844e-01 4.985054731369018555e-01 -7.167567312717437744e-02 -2.099675126373767853e-02
4.073000000000000000e+03 4.548643112182617188e+01 -1.046584725379943848e+00 -7.998486757278442383e-01 4.054819047451019287e-01 -1.183100342750549316e-01 1.025133952498435974e-01
4.074000000000000000e+03 2.840174293518066406e+01 -4.540602207183837891e+00 2.623669207096099854e-01 -4.210457205772399902e-01 -4.760363698005676270e-02 -7.039865851402282715e-01
4.075000000000000000e+03 2.671698379516601562e+01 1.252156066894531250e+01 -4.732982069253921509e-02 -2.780441381037235260e-02 -2.254027128219604492e-02 -1.816704124212265015e-02
4.076000000000000000e+03 2.815167427062988281e+01 1.309757423400878906e+01 -1.366428583860397339e-01 -4.036977514624595642e-02 -5.310379341244697571e-02 -2.086306340061128139e-04
4.077000000000000000e+03 2.161409616470336914e+00 -2.594556045532226562e+01 4.075713804922997952e-04 -2.091583460569381714e-01 -6.262523680925369263e-02 -4.732173681259155273e-02
4.078000000000000000e+03 7.093830108642578125e+00 7.774772167205810547e+00 1.056610140949487686e-02 -1.238122396171092987e-02 -5.445368587970733643e-04 2.009014226496219635e-02
4.079000000000000000e+03 4.686222839355468750e+01 3.348182678222656250e+00 -5.220047831535339355e-01 1.022060886025428772e-01 -1.259396076202392578e-01 -1.513478457927703857e-01
4.080000000000000000e+03 3.708631038665771484e+00 5.806653499603271484e+00 -7.159996777772903442e-03 -4.498290945775806904e-04 -2.282947767525911331e-03 7.782778237015008926e-03
4.081000000000000000e+03 5.271902465820312500e+01 -2.065213584899902344e+01 -5.901073291897773743e-02 5.488261580467224121e-01 1.469446271657943726e-01 5.282713770866394043e-01
4.082000000000000000e+03 5.667793655395507812e+01 -2.117193222045898438e+01 -8.112002611160278320e-01 3.567146062850952148e+00 8.267837166786193848e-01 3.634838163852691650e-01
4.083000000000000000e+03 7.677498626708984375e+01 2.811216354370117188e+01 -7.393956929445266724e-02 6.873398780822753906e+00 2.039837837219238281e+00 1.732569634914398193e-01
4.084000000000000000e+03 5.025099754333496094e+00 -2.632033348083496094e+01 3.686784766614437103e-03 -2.024167031049728394e-01 -5.961897596716880798e-02 -9.505383670330047607e-02
4.085000000000000000e+03 4.049322605133056641e+00 -2.727582359313964844e+01 3.513052128255367279e-03 -2.213725894689559937e-01 -6.535786390304565430e-02 -7.868397980928421021e-02
4.086000000000000000e+03 2.834753036499023438e+00 -4.162876129150390625e+00 1.626267330721020699e-03 3.926542121917009354e-03 1.665842835791409016e-03 8.400604128837585449e-03
4.087000000000000000e+03 3.091396808624267578e+00 -3.689205884933471680e+00 1.873022411018610001e-03 2.583260182291269302e-03 1.336884801276028156e-03 8.550221100449562073e-03
4.088000000000000000e+03 3.670466995239257812e+01 1.651060867309570312e+01 -7.245468497276306152e-01 -5.388530716300010681e-02 -2.335296571254730225e-01 1.058819815516471863e-01
4.089000000000000000e+03 6.618918609619140625e+01 7.079157829284667969e+00 4.406907558441162109e-01 1.397034549713134766e+01 4.323310852050781250e+00 4.935799837112426758e-01
4.090000000000000000e+03 2.346824264526367188e+01 8.604375839233398438e+00 -4.130099341273307800e-02 1.192663796246051788e-02 -8.812306448817253113e-03 -1.651110500097274780e-02
4.091000000000000000e+03 3.981050109863281250e+01 -5.515724658966064453e+00 5.887305140495300293e-01 -2.130617648363113403e-01 1.127006188035011292e-01 -2.683014571666717529e-01
4.092000000000000000e+03 3.953327560424804688e+01 -4.573942184448242188e+00 4.244249761104583740e-01 -3.567209839820861816e-01 2.031119354069232941e-02 -2.411217689514160156e-01
4.093000000000000000e+03 5.008700847625732422e+00 -4.312013626098632812e+00 1.504128340457100421e-05 -6.102326369727961719e-05 -1.379459445161046460e-05 7.312932051718235016e-03
4.094000000000000000e+03 4.296163558959960938e+01 -1.266124820709228516e+01 -3.755227103829383850e-02 5.663771927356719971e-02 5.725634284317493439e-03 -2.156107425689697266e-01
4.095000000000000000e+03 5.771144866943359375e+01 -1.866848182678222656e+01 3.909281790256500244e-01 4.712121486663818359e+00 1.530914902687072754e+00 -4.201021417975425720e-02
4.096000000000000000e+03 3.893202590942382812e+01 1.511241149902343750e+01 -7.993187308311462402e-01 1.579564213752746582e-01 -1.924086958169937134e-01 1.131665855646133423e-01
4.097000000000000000e+03 2.452758789062500000e+01 -2.432391792535781860e-01 -1.380524188280105591e-01 1.502066701650619507e-01 3.646276425570249557e-03 6.233003363013267517e-02
4.098000000000000000e+03 3.294819641113281250e+01 1.626649284362792969e+01 -6.599085330963134766e-01 -8.399119228124618530e-02 -2.231699079275131226e-01 2.354038953781127930e-01
4.099000000000000000e+03 7.813055419921875000e+01 6.559550285339355469e+00 1.227234005928039551e+00 7.813315391540527344e+00 2.712164878845214844e+00 -1.661172628402709961e+00
4.100000000000000000e+03 4.598084640502929688e+01 1.663906335830688477e+00 -8.818627595901489258e-01 2.002826929092407227e-01 -2.044740319252014160e-01 -1.908428817987442017e-01
4.101000000000000000e+03 4.032161331176757812e+01 -1.895757102966308594e+01 -4.486832916736602783e-01 -2.688600420951843262e-01 -2.152629941701889038e-01 -2.227160483598709106e-01
4.102000000000000000e+03 4.157436752319335938e+01 -1.883971023559570312e+01 -5.341203808784484863e-01 -1.348473727703094482e-01 -2.006903141736984253e-01 -1.233904715627431870e-02
4.103000000000000000e+03 7.619694519042968750e+01 1.898950487375259399e-01 -2.303602695465087891e+00 7.021843433380126953e+00 1.415472269058227539e+00 3.287087380886077881e-01
4.104000000000000000e+03 6.629375457763671875e+01 1.267258077859878540e-01 -9.031698107719421387e-01 4.446045875549316406e+00 1.062862753868103027e+00 2.171632289886474609e+00
4.105000000000000000e+03 6.596888732910156250e+01 6.377136707305908203e+00 5.187169909477233887e-01 1.269665431976318359e+01 3.964611291885375977e+00 9.375458359718322754e-01
4.106000000000000000e+03 6.087121200561523438e+01 -8.339147567749023438e+00 5.997118353843688965e-01 6.529808044433593750e+00 2.138855934143066406e+00 1.197161436080932617e+00
4.107000000000000000e+03 2.303395843505859375e+01 5.219002366065979004e-01 -1.173659041523933411e-02 6.101077422499656677e-02 1.478225458413362503e-02 5.094750970602035522e-02
4.108000000000000000e+03 4.223951339721679688e+01 -1.834261322021484375e+01 -6.758651137351989746e-01 3.593529015779495239e-02 -1.919789612293243408e-01 3.227435052394866943e-02
4.109000000000000000e+03 4.453789901733398438e+01 -1.143184185028076172e+01 1.676457524299621582e-01 3.189471065998077393e-01 1.459778547286987305e-01 -2.527381479740142822e-01
4.110000000000000000e+03 2.615558433532714844e+01 -1.103827857971191406e+01 -3.960481584072113037e-01 -8.512111306190490723e-01 -3.741777837276458740e-01 5.174103751778602600e-02
4.111000000000000000e+03 4.359800720214843750e+01 1.490828227996826172e+01 -1.012368321418762207e+00 1.630022078752517700e-01 -2.548098266124725342e-01 -5.176535993814468384e-02
4.112000000000000000e+03 3.039202690124511719e+01 -1.228032302856445312e+01 -2.136719673871994019e-01 2.268459200859069824e-01 3.952183295041322708e-03 1.110943779349327087e-01
4.113000000000000000e+03 3.199629974365234375e+01 -1.226795291900634766e+01 -1.260140538215637207e-01 4.920234382152557373e-01 1.098028123378753662e-01 -7.782097905874252319e-03
4.114000000000000000e+03 6.898568725585937500e+01 -2.347799301147460938e+00 -3.921171188354492188e+00 5.182390213012695312e+00 3.783657252788543701e-01 -1.804153203964233398e+00
4.115000000000000000e+03 3.839303207397460938e+01 1.536859703063964844e+01 -8.163645267486572266e-01 1.129033565521240234e-01 -2.110383510589599609e-01 9.646528214216232300e-02
4.116000000000000000e+03 3.831456756591796875e+01 1.628555107116699219e+01 -8.011025190353393555e-01 9.617880731821060181e-02 -2.114771008491516113e-01 1.004666313529014587e-01
4.117000000000000000e+03 5.095531082153320312e+01 6.584023475646972656e+00 -5.865728482604026794e-02 -3.542227670550346375e-02 -2.822386845946311951e-02 1.221799105405807495e-02
4.118000000000000000e+03 6.354319763183593750e+01 2.927483320236206055e+00 8.270928263664245605e-01 5.879611968994140625e+00 2.012011528015136719e+00 3.054942846298217773e+00
4.119000000000000000e+03 4.243516540527343750e+01 -8.883592605590820312e+00 3.057515025138854980e-01 1.120199859142303467e-01 1.253314465284347534e-01 -1.973629593849182129e-01
4.120000000000000000e+03 1.770551919937133789e+00 -3.269044160842895508e+00 1.104828785173594952e-03 4.168518818914890289e-03 1.582004246301949024e-03 5.354940891265869141e-03
4.121000000000000000e+03 2.380940628051757812e+01 1.944901657104492188e+01 -2.841247022151947021e-01 -1.323384344577789307e-01 -1.249389424920082092e-01 1.900444924831390381e-01
4.122000000000000000e+03 5.278935241699218750e+01 7.549730777740478516e+00 -6.136300507932901382e-03 -1.407191809266805649e-02 -6.062465254217386246e-03 -2.004230953752994537e-02
4.123000000000000000e+03 5.223596572875976562e+01 7.483366489410400391e+00 -1.100308634340763092e-02 -4.043147712945938110e-02 -1.543036941438913345e-02 -1.392626389861106873e-02
4.124000000000000000e+03 4.524464416503906250e+01 -1.406207370758056641e+01 -2.679173350334167480e-01 4.196284115314483643e-01 4.551331698894500732e-02 -1.794211715459823608e-01
4.125000000000000000e+03 8.192667961120605469e+00 -4.152136802673339844e+00 -1.769981114193797112e-03 -5.111087113618850708e-03 -2.064320491626858711e-03 4.685188177973031998e-03
4.126000000000000000e+03 4.222523117065429688e+01 -4.994398117065429688e+00 3.958011269569396973e-01 -1.575508117675781250e-01 7.147508859634399414e-02 1.064751595258712769e-01
4.127000000000000000e+03 4.270697784423828125e+01 -3.989239692687988281e+00 2.016139477491378784e-01 -1.195520237088203430e-01 2.461857721209526062e-02 1.750316023826599121e-01
4.128000000000000000e+03 7.029660034179687500e+01 -3.989369153976440430e+00 -2.004687070846557617e+00 5.043547153472900391e+00 9.116580486297607422e-01 -1.912397384643554688e+00
4.129000000000000000e+03 3.591278457641601562e+01 2.914137840270996094e+00 -2.796850204467773438e-01 6.354834884405136108e-02 -6.484100222587585449e-02 -1.317483745515346527e-02
4.130000000000000000e+03 6.947682952880859375e+01 9.916203498840332031e+00 1.435185432434082031e+00 8.175428390502929688e+00 2.883184194564819336e+00 1.215863704681396484e+00
4.131000000000000000e+03 7.008435058593750000e+01 1.013788795471191406e+01 1.607884764671325684e+00 5.860376834869384766e+00 2.240478515625000000e+00 1.675788998603820801e+00
4.132000000000000000e+03 2.186789321899414062e+01 8.562519073486328125e+00 -2.352162450551986694e-02 2.142981253564357758e-02 -6.275439518503844738e-04 -3.514453070238232613e-03
4.133000000000000000e+03 3.083227872848510742e+00 -6.177172183990478516e+00 -3.038525814190506935e-03 3.387978766113519669e-03 1.048359044943936169e-04 6.571017205715179443e-03
4.134000000000000000e+03 5.655047988891601562e+01 -1.022910499572753906e+01 -4.026857316493988037e-01 2.663096427917480469e+00 6.781232357025146484e-01 8.963260650634765625e-01
4.135000000000000000e+03 7.123542022705078125e+01 -5.043893814086914062e+00 -8.201986551284790039e-01 5.853814125061035156e+00 1.510084629058837891e+00 -1.735965967178344727e+00
4.136000000000000000e+03 3.338453292846679688e+00 1.651548957824707031e+01 -3.071566578000783920e-03 -2.211888320744037628e-02 -7.557135075330734253e-03 5.030960310250520706e-03
4.137000000000000000e+03 4.376531600952148438e+01 -1.166279888153076172e+01 1.149268820881843567e-01 1.886013746261596680e-01 9.105847775936126709e-02 -2.315548956394195557e-01
4.138000000000000000e+03 3.046349763870239258e+00 1.327701950073242188e+01 9.664663230068981647e-04 -1.609811931848526001e-02 -4.539495799690485001e-03 2.384443534538149834e-03
4.139000000000000000e+03 7.762217712402343750e+01 -1.795919036865234375e+01 -2.561208903789520264e-01 8.818264961242675781e+00 2.568643093109130859e+00 -5.164886116981506348e-01
4.140000000000000000e+03 2.901429367065429688e+01 1.770691633224487305e+00 -2.010836303234100342e-01 -7.226919382810592651e-02 -8.200584352016448975e-02 1.632322520017623901e-01
4.141000000000000000e+03 7.717864990234375000e+01 -9.290999412536621094e+00 5.668252706527709961e-01 8.434810638427734375e+00 2.700490713119506836e+00 6.566483974456787109e-01
4.142000000000000000e+03 2.816819000244140625e+01 -5.797507286071777344e+00 1.669410467147827148e-01 -4.339468777179718018e-01 -8.010174334049224854e-02 -6.861174106597900391e-01
4.143000000000000000e+03 2.765230178833007812e+01 -4.663255214691162109e+00 1.900061070919036865e-01 -5.697386860847473145e-01 -1.139197647571563721e-01 -7.075110077857971191e-01
4.144000000000000000e+03 7.671559143066406250e+01 -2.775188684463500977e+00 -2.567237317562103271e-01 7.942458152770996094e+00 2.305720329284667969e+00 1.111309528350830078e+00
4.145000000000000000e+03 1.589222717285156250e+01 -5.409216403961181641e+00 -9.588979184627532959e-03 -8.411402232013642788e-04 -3.129035932943224907e-03 -3.603411838412284851e-03
4.146000000000000000e+03 1.233833503723144531e+01 1.284151172637939453e+01 2.889526542276144028e-03 1.718328148126602173e-02 6.021842360496520996e-03 1.375164091587066650e-02
4.147000000000000000e+03 1.799848556518554688e+01 1.763448333740234375e+01 -1.648137271404266357e-01 2.745796367526054382e-02 -4.120672866702079773e-02 6.163973733782768250e-02
4.148000000000000000e+03 1.890355682373046875e+01 1.723301315307617188e+01 -1.878226846456527710e-01 2.792494930326938629e-02 -4.796932265162467957e-02 4.943255707621574402e-02
4.149000000000000000e+03 2.947578191757202148e+00 -1.257845306396484375e+01 -9.206910617649555206e-03 -1.388497650623321533e-02 -6.927566137164831161e-03 -1.862458325922489166e-02
4.150000000000000000e+03 3.714382553100585938e+01 -2.997256517410278320e+00 -2.390426024794578552e-02 3.822463750839233398e-01 1.075026392936706543e-01 -4.471032321453094482e-01
4.151000000000000000e+03 4.317094802856445312e+01 -9.645594954490661621e-01 -1.123259663581848145e+00 6.502722203731536865e-02 -3.174697160720825195e-01 -9.404277056455612183e-02
4.152000000000000000e+03 4.328691864013671875e+01 -2.266839504241943359e+00 -6.033062934875488281e-01 1.151679679751396179e-01 -1.464415043592453003e-01 2.233822830021381378e-02
4.153000000000000000e+03 3.547301101684570312e+01 3.492607772350311279e-01 -1.077933073043823242e+00 6.953498125076293945e-01 -1.147749945521354675e-01 8.699073642492294312e-02
4.154000000000000000e+03 3.652876281738281250e+01 8.269388198852539062e+00 3.150167688727378845e-02 -8.532994426786899567e-03 6.890605203807353973e-03 -7.222501095384359360e-03
4.155000000000000000e+03 4.602341842651367188e+01 1.862066650390625000e+01 -9.967345595359802246e-01 -2.031204700469970703e-01 -3.599565029144287109e-01 5.331484079360961914e-01
4.156000000000000000e+03 4.646832275390625000e+01 -7.552542686462402344e-01 -7.599816918373107910e-01 3.437397181987762451e-01 -1.248726025223731995e-01 1.001073047518730164e-01
4.157000000000000000e+03 5.511342239379882812e+01 -6.088644504547119141e+00 5.750457048416137695e-01 3.344446718692779541e-01 2.728471159934997559e-01 4.829939827322959900e-02
4.158000000000000000e+03 2.685101890563964844e+01 -3.873941421508789062e+00 8.946532756090164185e-02 -5.229742527008056641e-01 -1.300526708364486694e-01 -5.880762934684753418e-01
4.159000000000000000e+03 2.665643501281738281e+01 -2.902776956558227539e+00 -1.144969612360000610e-01 -3.305357694625854492e-01 -1.335098147392272949e-01 -5.539001822471618652e-01
4.160000000000000000e+03 6.085688781738281250e+01 -7.574325561523437500e+00 9.160014986991882324e-01 6.784790039062500000e+00 2.310237407684326172e+00 1.263257980346679688e+00
4.161000000000000000e+03 6.738270568847656250e+01 -9.088609814643859863e-01 -3.065717935562133789e+00 4.578321456909179688e+00 4.537810087203979492e-01 -7.133991122245788574e-01
4.162000000000000000e+03 3.935901260375976562e+01 -1.702201008796691895e+00 -1.155666947364807129e+00 -8.210231661796569824e-01 -5.930070281028747559e-01 -1.538527011871337891e-01
4.163000000000000000e+03 2.768390464782714844e+01 -6.596424102783203125e+00 -6.475280970335006714e-02 -5.490702986717224121e-01 -1.841469258069992065e-01 -6.337798237800598145e-01
4.164000000000000000e+03 6.676165771484375000e+01 3.294327497482299805e+00 2.462388992309570312e+00 8.878326416015625000e+00 3.402214765548706055e+00 5.476712584495544434e-01
4.165000000000000000e+03 5.254782104492187500e+01 5.497045516967773438e+00 -6.439955532550811768e-02 -7.328217476606369019e-02 -4.130452126264572144e-02 3.296735510230064392e-02
4.166000000000000000e+03 7.460357666015625000e+01 -1.452209377288818359e+01 5.351437926292419434e-01 9.677422523498535156e+00 3.063769817352294922e+00 -6.905106902122497559e-01
4.167000000000000000e+03 4.901853561401367188e+01 -1.865880966186523438e+01 -7.048331499099731445e-01 5.684152841567993164e-01 -4.092536121606826782e-02 -4.802322387695312500e-02
4.168000000000000000e+03 6.910321044921875000e+01 -1.922073745727539062e+01 -2.251685410737991333e-01 2.065440893173217773e+00 5.520817041397094727e-01 8.683503866195678711e-01
4.169000000000000000e+03 3.054713487625122070e+00 -7.372018337249755859e+00 -4.567831289023160934e-03 4.057243932038545609e-03 -1.531762536615133286e-04 3.989919088780879974e-03
4.170000000000000000e+03 3.282453060150146484e+00 1.868506050109863281e+01 -4.773855675011873245e-03 -2.776875346899032593e-02 -9.762782603502273560e-03 9.892213158309459686e-03
4.171000000000000000e+03 7.656106567382812500e+01 7.553150057792663574e-01 -2.444103002548217773e+00 7.997244834899902344e+00 1.665942549705505371e+00 -9.681426919996738434e-03
4.172000000000000000e+03 1.933859586715698242e+00 7.643034934997558594e+00 -6.476681446656584740e-04 -7.135455496609210968e-03 -2.334936987608671188e-03 5.243144463747739792e-03
4.173000000000000000e+03 4.869000625610351562e+01 -1.656396102905273438e+01 -5.943362116813659668e-01 4.845456480979919434e-01 -3.293716162443161011e-02 1.378633081912994385e-02
4.174000000000000000e+03 4.897012710571289062e+01 -1.736701774597167969e+01 -7.109321355819702148e-01 5.268571376800537109e-01 -5.522250011563301086e-02 1.072681229561567307e-02
4.175000000000000000e+03 7.687498474121093750e+01 9.707756996154785156e+00 -4.943045079708099365e-01 9.112608909606933594e+00 2.585491180419921875e+00 -3.715812563896179199e-01
4.176000000000000000e+03 2.846035957336425781e+01 -5.281415939331054688e+00 1.767797917127609253e-01 -3.551631569862365723e-01 -5.351501330733299255e-02 -6.763190031051635742e-01
4.177000000000000000e+03 3.797907638549804688e+01 -1.754481697082519531e+01 -7.348540425300598145e-01 3.188597038388252258e-02 -2.108904272317886353e-01 -3.662527501583099365e-01
4.178000000000000000e+03 7.725502777099609375e+01 1.820572471618652344e+01 1.064124107360839844e-01 6.144429683685302734e+00 1.875252604484558105e+00 3.855427205562591553e-01
4.179000000000000000e+03 6.393763542175292969e+00 8.965742111206054688e+00 1.158447843044996262e-02 -1.377528533339500427e-02 -6.572420243173837662e-04 1.264884416013956070e-02
4.180000000000000000e+03 5.549915790557861328e+00 8.978251457214355469e+00 6.245100405067205429e-03 -1.338726468384265900e-02 -2.142649143934249878e-03 1.446702796965837479e-02
4.181000000000000000e+03 3.384800910949707031e+00 2.192008781433105469e+01 -5.893375258892774582e-03 -4.356233775615692139e-02 -1.483671460300683975e-02 2.139878831803798676e-02
4.182000000000000000e+03 7.155638122558593750e+01 -5.345938801765441895e-01 -1.969215035438537598e+00 4.777419090270996094e+00 8.424612283706665039e-01 -4.558106422424316406e+00
4.183000000000000000e+03 7.326720428466796875e+01 -1.174843549728393555e+00 -7.871765494346618652e-01 2.829991817474365234e+00 6.128445863723754883e-01 -2.263036251068115234e+00
4.184000000000000000e+03 3.119476318359375000e+01 -8.371629714965820312e+00 1.338607966899871826e-01 7.978687286376953125e-01 2.795188426971435547e-01 -3.973659574985504150e-01
4.185000000000000000e+03 2.990880584716796875e+01 -8.138230323791503906e+00 1.267430465668439865e-02 3.204593658447265625e-01 9.994009882211685181e-02 -3.117924928665161133e-01
4.186000000000000000e+03 2.683829545974731445e+00 -9.970694541931152344e+00 -5.668878089636564255e-03 1.566302264109253883e-03 -1.230772701092064381e-03 -4.759928677231073380e-03
4.187000000000000000e+03 7.716718292236328125e+01 -1.699445152282714844e+01 -3.193395435810089111e-01 8.782382965087890625e+00 2.538913249969482422e+00 -7.166491150856018066e-01
4.188000000000000000e+03 7.747453308105468750e+01 -1.599747943878173828e+01 -7.203119993209838867e-02 8.670819282531738281e+00 2.579636573791503906e+00 -7.862088680267333984e-01
4.189000000000000000e+03 6.894094848632812500e+01 -8.665523529052734375e-01 -3.309795141220092773e+00 6.820876121520996094e+00 1.053324341773986816e+00 -2.201599121093750000e+00
4.190000000000000000e+03 7.718711853027343750e+01 1.182387256622314453e+01 -3.025899231433868408e-01 6.829674243927001953e+00 1.958125352859497070e+00 -3.422389924526214600e-01
4.191000000000000000e+03 2.588177299499511719e+01 1.037534809112548828e+01 -4.327287152409553528e-02 -2.122718095779418945e-02 -1.935001462697982788e-02 -4.257318377494812012e-02
4.192000000000000000e+03 7.371923065185546875e+01 -1.761247992515563965e+00 -7.312351465225219727e-01 3.686684608459472656e+00 8.866348266601562500e-01 -1.324243664741516113e+00
4.193000000000000000e+03 6.701879882812500000e+01 -1.812588882446289062e+01 -1.087275624275207520e+00 1.778993129730224609e+00 2.075152397155761719e-01 -4.700278639793395996e-01
4.194000000000000000e+03 7.758906555175781250e+01 -5.426516532897949219e+00 1.642039045691490173e-02 8.796542167663574219e+00 2.643888950347900391e+00 1.207981109619140625e+00
4.195000000000000000e+03 3.239413261413574219e+00 2.098758506774902344e+01 -6.220660638064146042e-03 -3.811901807785034180e-02 -1.330190338194370270e-02 1.782960630953311920e-02
4.196000000000000000e+03 5.792384338378906250e+01 -8.705654144287109375e-01 -9.006226062774658203e-01 1.163314461708068848e+00 7.880754768848419189e-02 4.933638870716094971e-01
4.197000000000000000e+03 5.843404006958007812e+01 -8.669164180755615234e-01 -9.940279722213745117e-01 1.857771277427673340e+00 2.591229975223541260e-01 8.751742839813232422e-01
4.198000000000000000e+03 4.228665161132812500e+01 -6.576358318328857422e+00 3.966742753982543945e-01 2.481636218726634979e-02 1.264471858739852905e-01 -2.503694407641887665e-02
4.199000000000000000e+03 2.259333992004394531e+01 8.966004371643066406e+00 -2.627141773700714111e-02 2.802215702831745148e-02 5.252221017144620419e-04 -9.693460015114396811e-05
4.200000000000000000e+03 2.520018768310546875e+01 1.129488277435302734e+01 -2.424056828022003174e-02 3.316963091492652893e-02 2.678718650713562965e-03 -2.295958437025547028e-02
4.201000000000000000e+03 2.593523979187011719e+01 1.164921283721923828e+01 -2.955817617475986481e-02 -8.457840420305728912e-03 -1.140480488538742065e-02 -3.059752844274044037e-02
4.202000000000000000e+03 2.716132736206054688e+01 -8.684614181518554688e+00 -6.046739220619201660e-01 -7.006129622459411621e-01 -3.915860652923583984e-01 -3.336794376373291016e-01
4.203000000000000000e+03 4.007978439331054688e+01 -3.440856933593750000e+00 -1.293615717440843582e-02 -6.171506047248840332e-01 -1.890260279178619385e-01 -1.165701150894165039e-01
4.204000000000000000e+03 3.935335922241210938e+01 -3.857656955718994141e+00 2.569353282451629639e-01 -4.249642789363861084e-01 -5.040868371725082397e-02 -2.660534083843231201e-01
4.205000000000000000e+03 5.882228469848632812e+01 -1.352716732025146484e+01 -5.205888748168945312e-01 4.738923072814941406e+00 1.265500187873840332e+00 1.321562886238098145e+00
4.206000000000000000e+03 3.527887344360351562e+01 -1.663709259033203125e+01 -4.620306193828582764e-01 2.989458143711090088e-01 -4.892544075846672058e-02 -9.267944097518920898e-02
4.207000000000000000e+03 3.113483619689941406e+01 2.231739282608032227e+00 -1.646240800619125366e-01 -4.882365763187408447e-01 -1.958581954240798950e-01 -3.062031865119934082e-01
4.208000000000000000e+03 1.612562370300292969e+01 -6.147538185119628906e+00 -3.789032623171806335e-02 -4.299567663110792637e-04 -1.149608567357063293e-02 2.872495213523507118e-03
4.209000000000000000e+03 1.753482055664062500e+01 -9.056806564331054688e+00 -1.942731142044067383e-01 1.954695582389831543e-02 -5.241784825921058655e-02 -1.695108413696289062e-02
4.210000000000000000e+03 7.268530273437500000e+01 -6.458344459533691406e+00 4.192811995744705200e-02 7.878390789031982422e+00 2.376095771789550781e+00 -7.296907901763916016e-01
4.211000000000000000e+03 3.556128311157226562e+01 5.624908447265625000e+00 2.807306312024593353e-02 -4.106995835900306702e-02 -3.899068571627140045e-03 -7.400739192962646484e-02
4.212000000000000000e+03 3.617972183227539062e+01 5.539630889892578125e+00 2.562402002513408661e-02 -1.888490654528141022e-02 2.021733671426773071e-03 -7.728618383407592773e-02
4.213000000000000000e+03 2.993647766113281250e+01 1.582737827301025391e+01 -4.646920561790466309e-01 3.515368700027465820e-02 -1.288615018129348755e-01 1.626033931970596313e-01
4.214000000000000000e+03 7.647212982177734375e+01 -2.989447975158691406e+01 6.929574906826019287e-02 7.171541213989257812e+00 2.172250986099243164e+00 4.063226580619812012e-01
4.215000000000000000e+03 4.935812759399414062e+01 1.743014144897460938e+01 -1.283807277679443359e+00 -8.557545542716979980e-01 -6.418685913085937500e-01 2.111796438694000244e-01
4.216000000000000000e+03 7.448597717285156250e+01 1.283066272735595703e+01 1.067972779273986816e+00 5.435636043548583984e+00 1.951082587242126465e+00 -1.135917305946350098e+00
4.217000000000000000e+03 7.327428436279296875e+01 1.284869289398193359e+01 2.050150871276855469e+00 4.574711322784423828e+00 1.987458586692810059e+00 -4.326429367065429688e-01
4.218000000000000000e+03 3.026484489440917969e+01 -9.562101364135742188e+00 -8.375685662031173706e-02 4.114420115947723389e-01 9.830554574728012085e-02 -1.059789136052131653e-01
4.219000000000000000e+03 4.334221649169921875e+01 -1.693334960937500000e+01 -8.256620168685913086e-01 2.517220079898834229e-01 -1.721819937229156494e-01 -6.336952745914459229e-02
4.220000000000000000e+03 4.433069992065429688e+01 -1.417750644683837891e+01 -3.162098824977874756e-01 2.826647460460662842e-01 -1.006354112178087234e-02 -2.017848491668701172e-01
4.221000000000000000e+03 2.884285163879394531e+01 1.521334171295166016e+01 -3.633835613727569580e-01 2.004961110651493073e-02 -1.030001863837242126e-01 1.332496553659439087e-01
4.222000000000000000e+03 5.398886489868164062e+01 -5.524543762207031250e+00 4.809179604053497314e-01 -3.347884118556976318e-01 4.383886605501174927e-02 -8.637923747301101685e-02
4.223000000000000000e+03 9.502199172973632812e+00 1.041397953033447266e+01 1.753596775233745575e-02 9.833571501076221466e-03 8.210862055420875549e-03 8.764318190515041351e-03
4.224000000000000000e+03 4.935421752929687500e+01 -1.342584848403930664e+00 -5.388761162757873535e-01 1.443823426961898804e-01 -1.183481365442276001e-01 -6.054824963212013245e-02
4.225000000000000000e+03 4.854195404052734375e+01 -9.089346528053283691e-01 -6.017731428146362305e-01 2.022632658481597900e-01 -1.198529601097106934e-01 3.482314990833401680e-03
4.226000000000000000e+03 2.778973579406738281e+01 1.468618106842041016e+01 -2.415000349283218384e-01 -1.100902259349822998e-02 -7.575271278619766235e-02 1.261387467384338379e-01
4.227000000000000000e+03 2.798749923706054688e+01 1.368102455139160156e+01 -1.782438457012176514e-01 -2.692919597029685974e-02 -6.155190989375114441e-02 3.712853044271469116e-02
4.228000000000000000e+03 3.497543334960937500e+01 5.668178558349609375e+00 7.182415574789047241e-02 -5.729173868894577026e-02 4.359726794064044952e-03 -7.240001857280731201e-02
4.229000000000000000e+03 3.561187362670898438e+01 4.214877605438232422e+00 -5.936265736818313599e-02 -2.134683541953563690e-02 -2.421284839510917664e-02 -1.100700646638870239e-01
4.230000000000000000e+03 4.426380538940429688e+01 -1.324508339166641235e-02 -1.202360749244689941e+00 1.606853455305099487e-01 -3.125026226043701172e-01 -1.882209479808807373e-01
4.231000000000000000e+03 4.449779129028320312e+01 -7.194638848304748535e-01 -1.030495047569274902e+00 2.981033325195312500e-01 -2.197175025939941406e-01 -6.989658623933792114e-02
4.232000000000000000e+03 7.463983154296875000e+01 -2.975603294372558594e+01 1.642172634601593018e-01 6.560368537902832031e+00 2.017375707626342773e+00 5.059507489204406738e-01
4.233000000000000000e+03 6.972087097167968750e+01 9.314393997192382812e+00 4.064356442540884018e-03 7.267500877380371094e+00 2.181469440460205078e+00 1.217204689979553223e+00
4.234000000000000000e+03 5.284322357177734375e+01 1.537819385528564453e+01 -1.511428356170654297e+00 2.791321575641632080e-01 -3.696888685226440430e-01 4.343609213829040527e-01
4.235000000000000000e+03 5.148954772949218750e+01 1.447991180419921875e+01 -1.567304968833923340e+00 -2.302058488130569458e-01 -5.392532348632812500e-01 8.397918343544006348e-01
4.236000000000000000e+03 4.218898773193359375e+00 3.055969429016113281e+01 1.869537169113755226e-03 -1.133897230029106140e-01 -3.345605358481407166e-02 4.359373450279235840e-02
4.237000000000000000e+03 5.241524124145507812e+01 1.728397750854492188e+01 -1.211006999015808105e+00 1.824192255735397339e-01 -3.085763454437255859e-01 1.085962168872356415e-02
4.238000000000000000e+03 5.200436401367187500e+01 1.820876502990722656e+01 -1.005847215652465820e+00 3.474621847271919250e-02 -2.913302779197692871e-01 -1.165926009416580200e-01
4.239000000000000000e+03 5.151338195800781250e+01 1.501758003234863281e+01 -2.133127450942993164e+00 8.274731785058975220e-02 -6.151140332221984863e-01 6.384278535842895508e-01
4.240000000000000000e+03 3.123768234252929688e+01 1.480962467193603516e+01 -5.439435243606567383e-01 2.792761661112308502e-02 -1.548047661781311035e-01 8.057257533073425293e-02
4.241000000000000000e+03 6.488658905029296875e+01 4.399729728698730469e+00 1.823942065238952637e+00 7.983787059783935547e+00 2.942318677902221680e+00 2.144459486007690430e+00
4.242000000000000000e+03 6.649399566650390625e+01 4.841650485992431641e+00 2.035902976989746094e+00 1.050111007690429688e+01 3.761103868484497070e+00 7.935531437397003174e-02
4.243000000000000000e+03 1.603763198852539062e+01 -7.994769573211669922e+00 -9.369471669197082520e-02 1.318115275353193283e-03 -2.771298028528690338e-02 -5.759421736001968384e-03
4.244000000000000000e+03 7.413534545898437500e+01 -1.554204082489013672e+01 -1.329137980937957764e-01 9.560914993286132812e+00 2.828400373458862305e+00 -6.849906444549560547e-01
4.245000000000000000e+03 2.198897600173950195e+00 2.997584581375122070e+00 -1.298900227993726730e-03 -1.151673379354178905e-03 -7.351720705628395081e-04 -3.838953853119164705e-04
4.246000000000000000e+03 3.824185943603515625e+01 -3.467485666275024414e+00 1.837617307901382446e-01 -7.939200103282928467e-02 3.131091967225074768e-02 -3.965240120887756348e-01
4.247000000000000000e+03 6.145387649536132812e+01 -1.149558258056640625e+01 -6.023723483085632324e-01 5.786628723144531250e+00 1.555276989936828613e+00 1.101864576339721680e+00
4.248000000000000000e+03 5.839779663085937500e+01 -1.571318531036376953e+01 -2.187217772006988525e-02 4.737080574035644531e+00 1.414562463760375977e+00 8.158693909645080566e-01
4.249000000000000000e+03 4.221844482421875000e+01 1.405277538299560547e+01 -7.785878181457519531e-01 1.820449084043502808e-01 -1.789628714323043823e-01 -3.926341980695724487e-02
4.250000000000000000e+03 3.158653259277343750e+01 3.025753974914550781e+00 2.106867730617523193e-02 -3.273998498916625977e-01 -9.189935028553009033e-02 -2.706245481967926025e-01
4.251000000000000000e+03 3.273038101196289062e+01 3.255067825317382812e+00 -8.683630079030990601e-02 -1.782275885343551636e-01 -7.951916754245758057e-02 -3.289361298084259033e-01
4.252000000000000000e+03 6.574603271484375000e+01 -1.856814575195312500e+01 -8.557706475257873535e-01 2.626587152481079102e+00 5.312449932098388672e-01 -6.273658275604248047e-01
4.253000000000000000e+03 1.996095275878906250e+01 -1.018444442749023438e+01 -3.723915219306945801e-01 1.613151468336582184e-02 -1.068780049681663513e-01 -8.749662339687347412e-02
4.254000000000000000e+03 4.211567687988281250e+01 -7.271964073181152344e+00 4.163853526115417480e-01 2.193712443113327026e-02 1.314967423677444458e-01 -9.963714331388473511e-02
4.255000000000000000e+03 1.612584495544433594e+01 1.650558471679687500e+01 -9.263690561056137085e-02 2.548575401306152344e-02 -2.014534547924995422e-02 3.293904289603233337e-02
4.256000000000000000e+03 5.119067382812500000e+01 -2.160985565185546875e+01 -1.042188853025436401e-01 5.974107980728149414e-01 1.479575634002685547e-01 1.186147630214691162e-01
4.257000000000000000e+03 2.756962394714355469e+01 1.328650474548339844e+01 -1.159997135400772095e-01 -3.498449549078941345e-02 -4.529526457190513611e-02 2.164805494248867035e-02
4.258000000000000000e+03 2.713896369934082031e+01 1.292042636871337891e+01 -6.926389783620834351e-02 -3.956050425767898560e-02 -3.264731913805007935e-02 -6.401720456779003143e-04
4.259000000000000000e+03 5.867371749877929688e+01 -1.282209968566894531e+01 -5.639172196388244629e-01 4.644390106201171875e+00 1.224141836166381836e+00 1.378713369369506836e+00
4.260000000000000000e+03 2.655673789978027344e+01 -9.648820877075195312e+00 -7.304793000221252441e-01 -1.018727898597717285e+00 -5.247621536254882812e-01 -5.381243303418159485e-02
4.261000000000000000e+03 2.789052009582519531e+01 -8.493432998657226562e+00 -4.097037017345428467e-01 -3.081803321838378906e-01 -2.153652161359786987e-01 -2.480958104133605957e-01
4.262000000000000000e+03 3.356641006469726562e+01 1.191179752349853516e+00 -9.340793490409851074e-01 2.522253096103668213e-01 -2.045562118291854858e-01 -3.947077691555023193e-01
4.263000000000000000e+03 3.175725555419921875e+01 2.420157670974731445e+00 -1.278738230466842651e-01 -4.389100372791290283e-01 -1.700351536273956299e-01 -4.112433195114135742e-01
4.264000000000000000e+03 2.606170654296875000e+01 -2.610024690628051758e+00 -1.033609509468078613e-01 -1.826547682285308838e-01 -8.580471575260162354e-02 -3.568059802055358887e-01
4.265000000000000000e+03 6.334727859497070312e+01 -1.400689411163330078e+01 -1.417227149009704590e+00 4.282051086425781250e+00 8.594471812248229980e-01 1.218347474932670593e-01
4.266000000000000000e+03 2.961061096191406250e+01 1.509160995483398438e+01 -4.015029370784759521e-01 2.421591989696025848e-02 -1.131861060857772827e-01 1.042512059211730957e-01
4.267000000000000000e+03 7.307449340820312500e+01 -1.781529998779296875e+01 -1.866904020309448242e+00 7.951642036437988281e+00 1.825421452522277832e+00 1.082575559616088867e+00
4.268000000000000000e+03 7.282800292968750000e+01 -1.696952056884765625e+01 -2.061654806137084961e+00 8.790811538696289062e+00 2.018747091293334961e+00 9.693174362182617188e-01
4.269000000000000000e+03 5.212332534790039062e+01 1.522536087036132812e+01 -1.700770378112792969e+00 1.343930512666702271e-01 -4.699132144451141357e-01 4.391456842422485352e-01
4.270000000000000000e+03 5.344680404663085938e+01 -2.100638008117675781e+01 -1.837237775325775146e-01 8.817614316940307617e-01 2.094112932682037354e-01 7.309011816978454590e-01
4.271000000000000000e+03 3.360701370239257812e+01 -1.183945369720458984e+01 6.162256374955177307e-02 5.789715647697448730e-01 1.921782493591308594e-01 -2.393210530281066895e-01
4.272000000000000000e+03 7.436737060546875000e+01 -7.580677032470703125e+00 6.729497313499450684e-01 8.663366317749023438e+00 2.800894737243652344e+00 4.815078377723693848e-01
4.273000000000000000e+03 6.763965606689453125e+01 6.900116920471191406e+00 7.368681579828262329e-02 1.348835182189941406e+01 4.068611621856689453e+00 -1.495662808418273926e+00
4.274000000000000000e+03 3.786205053329467773e+00 6.790518760681152344e+00 -4.122123122215270996e-03 -3.137301886454224586e-03 -2.177827525883913040e-03 9.273110888898372650e-03
4.275000000000000000e+03 2.697418022155761719e+01 -4.013101458549499512e-01 -5.877549648284912109e-01 1.642749458551406860e-01 -1.270440071821212769e-01 -1.678986996412277222e-01
4.276000000000000000e+03 6.401013183593750000e+01 3.450535774230957031e+00 1.419698596000671387e+00 6.252490997314453125e+00 2.301656723022460938e+00 2.784375667572021484e+00
4.277000000000000000e+03 6.401576232910156250e+01 4.337543010711669922e+00 1.884908556938171387e+00 6.614073753356933594e+00 2.549694538116455078e+00 2.729389667510986328e+00
4.278000000000000000e+03 6.294894409179687500e+01 2.412668228149414062e+00 1.170706972479820251e-01 5.659462928771972656e+00 1.732960104942321777e+00 3.126674652099609375e+00
4.279000000000000000e+03 6.076621627807617188e+01 7.380560040473937988e-01 -1.791657209396362305e+00 4.795661449432373047e+00 9.012012481689453125e-01 2.019510746002197266e+00
4.280000000000000000e+03 9.731533050537109375e+00 -4.353192806243896484e+00 -5.992744117975234985e-03 -6.939660292118787766e-03 -3.879721276462078094e-03 2.752110129222273827e-03
4.281000000000000000e+03 4.257046890258789062e+01 -8.150458335876464844e+00 3.442938029766082764e-01 1.141384318470954895e-01 1.375296711921691895e-01 -1.567875891923904419e-01
4.282000000000000000e+03 4.300966262817382812e+01 -9.545037269592285156e+00 2.608034610748291016e-01 1.665648669004440308e-01 1.282104998826980591e-01 -2.245018482208251953e-01
4.283000000000000000e+03 4.205895996093750000e+01 -1.027480697631835938e+01 2.105059325695037842e-01 5.776696652173995972e-02 8.048187196254730225e-02 -1.844559311866760254e-01
4.284000000000000000e+03 6.809223175048828125e+01 1.491513729095458984e+00 4.897596836090087891e-01 8.866772651672363281e+00 2.806959867477416992e+00 -2.881915271282196045e-01
4.285000000000000000e+03 6.720112609863281250e+01 2.728760719299316406e+00 2.628245830535888672e+00 9.042041778564453125e+00 3.501086235046386719e+00 4.524223804473876953e-01
4.286000000000000000e+03 3.076342105865478516e+00 -2.361580276489257812e+01 -1.469598035328090191e-03 -1.634206324815750122e-01 -4.946706816554069519e-02 -6.355191022157669067e-02
4.287000000000000000e+03 2.519031143188476562e+01 1.941974067687988281e+01 -3.265186846256256104e-01 -1.121892407536506653e-01 -1.316123753786087036e-01 1.571193635463714600e-01
4.288000000000000000e+03 2.441662025451660156e+01 1.866061019897460938e+01 -3.679615855216979980e-01 -1.597389429807662964e-01 -1.583101600408554077e-01 1.412861794233322144e-01
4.289000000000000000e+03 1.343749809265136719e+01 -2.704268932342529297e+00 1.391276065260171890e-02 -7.523600477725267410e-03 1.916748122312128544e-03 -8.522220887243747711e-03
4.290000000000000000e+03 4.758141708374023438e+01 -1.162775397300720215e+00 -5.990880727767944336e-01 2.655859291553497314e-01 -1.000506430864334106e-01 1.080531477928161621e-01
4.291000000000000000e+03 6.183196258544921875e+01 -2.213464736938476562e+00 -9.453971385955810547e-01 7.906816482543945312e+00 2.088425874710083008e+00 1.373850584030151367e+00
4.292000000000000000e+03 4.557234573364257812e+01 -1.490801334381103516e+01 -4.198103249073028564e-01 4.716487228870391846e-01 1.555151399224996567e-02 -1.517904847860336304e-01
4.293000000000000000e+03 4.578602218627929688e+01 -1.429929065704345703e+01 -2.770268023014068604e-01 4.595535993576049805e-01 5.475804209709167480e-02 -1.666866540908813477e-01
4.294000000000000000e+03 7.585005187988281250e+01 -1.286684417724609375e+01 8.340373635292053223e-01 9.136944770812988281e+00 2.991294622421264648e+00 -4.773485958576202393e-01
4.295000000000000000e+03 7.430368041992187500e+01 -1.179794692993164062e+01 1.320012211799621582e+00 1.042072963714599609e+01 3.522222757339477539e+00 -2.493818253278732300e-01
4.296000000000000000e+03 7.015476226806640625e+01 -1.883838891983032227e+00 -3.112924098968505859e+00 6.082743167877197266e+00 8.909456729888916016e-01 -3.190246105194091797e+00
4.297000000000000000e+03 7.154287719726562500e+01 -1.215415716171264648e+00 -2.422360420227050781e+00 5.118570327758789062e+00 8.088629841804504395e-01 -3.971727132797241211e+00
4.298000000000000000e+03 5.735827636718750000e+01 1.519848251342773438e+01 -9.436297416687011719e-01 6.408979296684265137e-01 -9.081954509019851685e-02 -6.868078373372554779e-03
4.299000000000000000e+03 5.813447189331054688e+01 1.524783229827880859e+01 -8.902500271797180176e-01 6.091488599777221680e-01 -8.433034271001815796e-02 -4.550712555646896362e-02
4.300000000000000000e+03 6.412245941162109375e+01 -1.611382675170898438e+01 -1.545498847961425781e+00 3.428960323333740234e+00 5.650385022163391113e-01 -3.548233211040496826e-01
4.301000000000000000e+03 2.957628059387207031e+01 9.665941596031188965e-01 -7.634537816047668457e-01 -3.821881115436553955e-01 -3.436925709247589111e-01 5.386925116181373596e-02
4.302000000000000000e+03 7.501449108123779297e+00 8.467491149902343750e+00 1.317960396409034729e-02 -1.581854559481143951e-02 -7.916823378764092922e-04 1.432831678539514542e-02
4.303000000000000000e+03 2.077996444702148438e+01 8.110233306884765625e+00 -1.383444108068943024e-02 1.935756951570510864e-02 1.656938809901475906e-03 -1.034595188684761524e-03
4.304000000000000000e+03 6.891002655029296875e+01 9.713832855224609375e+00 1.211563348770141602e+00 9.992183685302734375e+00 3.361124277114868164e+00 1.007236361503601074e+00
4.305000000000000000e+03 6.783418273925781250e+01 8.933415412902832031e+00 1.337827086448669434e+00 1.414665412902832031e+01 4.645344257354736328e+00 -3.799936473369598389e-01
4.306000000000000000e+03 3.529839324951171875e+01 3.563814878463745117e+00 -1.959098577499389648e-01 1.855836249887943268e-02 -5.320544540882110596e-02 -7.972490787506103516e-02
4.307000000000000000e+03 6.470617675781250000e+01 -1.560094451904296875e+01 -1.518379569053649902e+00 3.169661521911621094e+00 4.953846037387847900e-01 -3.823887407779693604e-01
4.308000000000000000e+03 6.515570068359375000e+01 -1.608967971801757812e+01 -1.721975684165954590e+00 2.818001747131347656e+00 3.288078010082244873e-01 -3.890097439289093018e-01
4.309000000000000000e+03 2.495049858093261719e+01 -6.610965728759765625e-01 -1.906744986772537231e-01 1.091523468494415283e-01 -2.445664443075656891e-02 -1.021039206534624100e-02
4.310000000000000000e+03 3.585581207275390625e+01 -1.588853740692138672e+01 -4.690199792385101318e-01 2.870104014873504639e-01 -5.460287630558013916e-02 -5.969425663352012634e-02
4.311000000000000000e+03 2.656504249572753906e+01 9.926288604736328125e+00 -6.210691481828689575e-02 -4.735749214887619019e-02 -3.283932060003280640e-02 -5.895910412073135376e-02
4.312000000000000000e+03 7.760148620605468750e+01 -3.945263624191284180e+00 -9.411114454269409180e-02 8.991527557373046875e+00 2.669224977493286133e+00 1.179231405258178711e+00
4.313000000000000000e+03 7.609990692138671875e+01 -4.844293594360351562e+00 6.114472635090351105e-03 7.986568927764892578e+00 2.397804975509643555e+00 1.096904873847961426e+00
4.314000000000000000e+03 2.373775672912597656e+01 -1.148236465454101562e+01 -4.901613891124725342e-01 -6.216344833374023438e-01 -3.335387706756591797e-01 -4.619297981262207031e-01
4.315000000000000000e+03 2.861235237121582031e+01 -7.301097869873046875e+00 -8.575358241796493530e-02 -1.436076462268829346e-01 -6.880836933851242065e-02 -4.877603352069854736e-01
4.316000000000000000e+03 2.635872268676757812e+01 -1.924746394157409668e+00 -2.853221893310546875e-01 -1.017520800232887268e-01 -1.161222755908966064e-01 -3.832124769687652588e-01
4.317000000000000000e+03 5.288288879394531250e+01 -3.987510204315185547e+00 2.709938287734985352e-01 -4.266411066055297852e-01 -4.669418558478355408e-02 -2.444196939468383789e-01
4.318000000000000000e+03 5.394501876831054688e+01 -3.984280347824096680e+00 4.209913909435272217e-01 -3.094839453697204590e-01 3.345223143696784973e-02 -3.411453664302825928e-01
4.319000000000000000e+03 7.735238647460937500e+01 -1.437385559082031250e+01 2.632764875888824463e-01 8.511908531188964844e+00 2.632555484771728516e+00 -7.253070473670959473e-01
4.320000000000000000e+03 2.840220642089843750e+01 1.770326614379882812e+00 -1.492956578731536865e-01 8.195730298757553101e-02 -2.020150795578956604e-02 1.782927066087722778e-01
4.321000000000000000e+03 4.384656143188476562e+01 -8.707824349403381348e-01 -1.146731853485107422e+00 2.205451428890228271e-01 -2.778560221195220947e-01 -6.508849561214447021e-02
4.322000000000000000e+03 4.182657241821289062e+01 -8.887622833251953125e+00 3.276350498199462891e-01 6.000588461756706238e-02 1.162922754883766174e-01 -1.951615959405899048e-01
4.323000000000000000e+03 4.159556961059570312e+01 -8.330886840820312500e+00 3.759265244007110596e-01 3.034699149429798126e-02 1.218820586800575256e-01 -1.802670508623123169e-01
4.324000000000000000e+03 7.593992614746093750e+01 1.024891948699951172e+01 -3.320746421813964844e-01 8.323773384094238281e+00 2.397509813308715820e+00 -1.574915170669555664e+00
4.325000000000000000e+03 6.226148986816406250e+01 -1.537740230560302734e+00 -2.257155656814575195e+00 8.300697326660156250e+00 1.813062548637390137e+00 1.685612678527832031e+00
4.326000000000000000e+03 6.835950469970703125e+01 -2.702320575714111328e+00 -4.273289680480957031e+00 4.329891681671142578e+00 1.698062010109424591e-02 -1.157295346260070801e+00
4.327000000000000000e+03 2.148210525512695312e+01 -1.226236343383789062e+01 -3.993514478206634521e-01 -2.001708149909973145e-01 -1.798566728830337524e-01 -3.469371795654296875e-01
4.328000000000000000e+03 6.824694824218750000e+01 -1.951556396484375000e+01 -1.172128543257713318e-01 2.107357263565063477e+00 5.970433354377746582e-01 2.697274982929229736e-01
4.329000000000000000e+03 2.474242973327636719e+01 1.006736183166503906e+01 -3.874364867806434631e-02 1.053063850849866867e-02 -8.463903330266475677e-03 -2.320130541920661926e-02
4.330000000000000000e+03 2.332761192321777344e+01 9.152428627014160156e+00 -3.831135481595993042e-02 1.962209306657314301e-02 -5.606778431683778763e-03 -9.600354358553886414e-03
4.331000000000000000e+03 5.197989654541015625e+01 -2.696592807769775391e+00 -1.355310380458831787e-01 -2.196868062019348145e-01 -1.065653562545776367e-01 -2.943943440914154053e-01
4.332000000000000000e+03 2.744092941284179688e+01 -1.667903542518615723e+00 -5.483981966972351074e-01 -1.123137325048446655e-01 -1.982135772705078125e-01 -5.777922272682189941e-01
4.333000000000000000e+03 3.956211853027343750e+01 -1.844517898559570312e+01 -6.459430456161499023e-01 -2.904753088951110840e-01 -2.809255123138427734e-01 -3.459662795066833496e-01
4.334000000000000000e+03 7.660708618164062500e+01 1.215387439727783203e+01 -1.964249312877655029e-01 6.792869567871093750e+00 1.978933453559875488e+00 -6.074328422546386719e-01
4.335000000000000000e+03 5.925402832031250000e+01 -5.244947075843811035e-01 -1.384689092636108398e+00 3.007757425308227539e+00 4.869204759597778320e-01 1.150881648063659668e+00
4.336000000000000000e+03 7.245811462402343750e+01 1.213622474670410156e+01 2.649386167526245117e+00 3.611271142959594727e+00 1.878197193145751953e+00 -2.697882950305938721e-01
4.337000000000000000e+03 7.130883789062500000e+01 1.113726520538330078e+01 2.616689205169677734e+00 3.719587564468383789e+00 1.900882959365844727e+00 1.044393062591552734e+00
4.338000000000000000e+03 1.738485145568847656e+01 1.741384696960449219e+01 -1.387721598148345947e-01 2.810751087963581085e-02 -3.319939225912094116e-02 4.949512332677841187e-02
4.339000000000000000e+03 5.027006912231445312e+01 -1.704443097114562988e+00 -4.846953153610229492e-01 8.127714693546295166e-02 -1.210254505276679993e-01 -1.336954236030578613e-01
4.340000000000000000e+03 7.278517150878906250e+01 -8.294260978698730469e+00 1.240038633346557617e+00 9.996848106384277344e+00 3.371065855026245117e+00 -6.448588967323303223e-01
4.341000000000000000e+03 5.533306884765625000e+01 -8.336975097656250000e+00 -2.479775622487068176e-02 7.988432645797729492e-01 2.322136461734771729e-01 3.738221824169158936e-01
4.342000000000000000e+03 7.155507659912109375e+01 1.170542049407958984e+01 2.988420963287353516e+00 3.843716621398925781e+00 2.049641370773315430e+00 7.596728205680847168e-01
4.343000000000000000e+03 3.703742265701293945e+00 7.517503261566162109e+00 -1.623917953111231327e-03 -8.872844278812408447e-03 -3.149028634652495384e-03 9.906454011797904968e-03
4.344000000000000000e+03 6.454698944091796875e+01 1.757599258422851562e+01 -5.979446172714233398e-01 6.335957527160644531e+00 1.721403837203979492e+00 -2.465665817260742188e+00
4.345000000000000000e+03 6.299005126953125000e+01 1.640883255004882812e+01 3.275299370288848877e-01 3.235643148422241211e+00 1.068951964378356934e+00 -2.687633752822875977e+00
4.346000000000000000e+03 2.881856155395507812e+01 -1.213669896125793457e+00 -9.948773980140686035e-01 -2.601527571678161621e-01 -3.765090405941009521e-01 -8.460919857025146484e-01
4.347000000000000000e+03 5.179835510253906250e+01 -1.953569531440734863e+00 -4.202306270599365234e-01 -8.081989735364913940e-02 -1.503151506185531616e-01 -3.176771104335784912e-01
4.348000000000000000e+03 5.078709030151367188e+01 -2.991914510726928711e+00 -1.951985657215118408e-01 -7.926732301712036133e-02 -8.233976364135742188e-02 -1.215807646512985229e-01
4.349000000000000000e+03 7.375209045410156250e+01 -9.949501037597656250e+00 1.641834855079650879e+00 1.055681514739990234e+01 3.659595012664794922e+00 -3.659428954124450684e-01
4.350000000000000000e+03 7.790538024902343750e+01 -2.687473678588867188e+01 2.426922507584095001e-02 8.030252456665039062e+00 2.416356563568115234e+00 3.429618179798126221e-01
4.351000000000000000e+03 7.621914672851562500e+01 -2.761196136474609375e+01 6.100385263562202454e-02 7.279675960540771484e+00 2.202203989028930664e+00 4.986653029918670654e-01
4.352000000000000000e+03 6.099030303955078125e+01 1.478152179718017578e+01 -4.411090910434722900e-01 2.293944954872131348e-01 -6.351438164710998535e-02 -6.576999425888061523e-01
4.353000000000000000e+03 3.500341415405273438e+01 1.934491038322448730e+00 -6.750211119651794434e-01 2.830207645893096924e-01 -1.176001057028770447e-01 -1.223118007183074951e-01
4.354000000000000000e+03 6.869159698486328125e+01 3.237988471984863281e+00 4.034332752227783203e+00 1.347430992126464844e+01 5.252593040466308594e+00 -1.509732604026794434e+00
4.355000000000000000e+03 4.389046478271484375e+01 -6.435479640960693359e+00 2.037418484687805176e-01 4.173656702041625977e-01 1.863322556018829346e-01 2.308315970003604889e-02
4.356000000000000000e+03 6.249545669555664062e+01 9.419937133789062500e-01 -1.631074428558349609e+00 6.153725147247314453e+00 1.356795191764831543e+00 3.467837572097778320e+00
4.357000000000000000e+03 4.490398788452148438e+01 6.565607190132141113e-01 -1.064679741859436035e+00 1.922016888856887817e-01 -2.617434263229370117e-01 -2.099192440509796143e-01
4.358000000000000000e+03 3.585172271728515625e+01 2.128103494644165039e+00 -5.484170317649841309e-01 2.054270356893539429e-01 -1.028969958424568176e-01 7.396942377090454102e-02
4.359000000000000000e+03 1.512953186035156250e+01 1.558109474182128906e+01 -5.947507917881011963e-02 2.234032377600669861e-02 -1.114042755216360092e-02 2.252334356307983398e-02
4.360000000000000000e+03 4.777373504638671875e+01 -1.687902450561523438e+01 -6.314275264739990234e-01 5.632277131080627441e-01 -2.045993506908416748e-02 -2.678476832807064056e-02
4.361000000000000000e+03 4.433037948608398438e+01 -1.598552322387695312e+01 -6.861774325370788574e-01 3.845891654491424561e-01 -9.047647565603256226e-02 -1.406494230031967163e-01
4.362000000000000000e+03 4.333933258056640625e+01 -1.515848445892333984e+01 -5.265988707542419434e-01 1.580175757408142090e-01 -1.105743944644927979e-01 -2.302905470132827759e-01
4.363000000000000000e+03 6.638292694091796875e+01 1.547824192047119141e+01 -9.626589417457580566e-01 1.086528205871582031e+01 2.970786809921264648e+00 -5.760341286659240723e-01
4.364000000000000000e+03 6.590473937988281250e+01 1.613561439514160156e+01 -9.718630313873291016e-01 9.831360816955566406e+00 2.657849311828613281e+00 -1.852483272552490234e+00
4.365000000000000000e+03 3.376810836791992188e+01 1.699725914001464844e+01 -6.036280989646911621e-01 -1.361865699291229248e-01 -2.219443917274475098e-01 2.418333590030670166e-01
4.366000000000000000e+03 4.967340469360351562e+01 -1.785642242431640625e+01 -7.721008658409118652e-01 4.868816733360290527e-01 -8.556574583053588867e-02 2.528865635395050049e-02
4.367000000000000000e+03 7.647379302978515625e+01 -3.362117385864257812e+01 5.404818803071975708e-02 6.910351753234863281e+00 2.089319944381713867e+00 2.554413974285125732e-01
4.368000000000000000e+03 4.799009799957275391e+00 -2.119627952575683594e+01 -9.573318064212799072e-03 -1.256270110607147217e-01 -4.056009650230407715e-02 -8.753027766942977905e-02
4.369000000000000000e+03 7.683568572998046875e+01 2.233136177062988281e+01 -6.443903595209121704e-02 6.603816032409667969e+00 1.961813092231750488e+00 4.397417008876800537e-01
4.370000000000000000e+03 3.152584552764892578e+00 2.976663208007812500e+01 -1.966170566447544843e-05 -1.083096787333488464e-01 -3.249880298972129822e-02 3.387180343270301819e-02
4.371000000000000000e+03 7.404763793945312500e+01 -3.143595504760742188e+01 2.005961984395980835e-01 6.301708698272705078e+00 1.950691461563110352e+00 4.407236576080322266e-01
4.372000000000000000e+03 6.502985954284667969e+00 3.135200881958007812e+01 6.679487414658069611e-03 -1.145437508821487427e-01 -3.235927969217300415e-02 6.157362461090087891e-02
4.373000000000000000e+03 7.082872390747070312e+00 -2.751418685913085938e+01 1.210141833871603012e-02 -2.087959200143814087e-01 -5.900835245847702026e-02 -1.199454665184020996e-01
4.374000000000000000e+03 6.046491146087646484e+00 -2.781216430664062500e+01 1.071149576455354691e-02 -2.187843918800354004e-01 -6.242186948657035828e-02 -1.067809388041496277e-01
4.375000000000000000e+03 7.560481262207031250e+01 2.621158790588378906e+01 -1.512458920478820801e-01 6.717696666717529297e+00 1.969935178756713867e+00 2.763679027557373047e-01
4.376000000000000000e+03 7.437776184082031250e+01 2.685476684570312500e+01 -2.223688513040542603e-01 6.613941192626953125e+00 1.917471647262573242e+00 2.241319864988327026e-01
4.377000000000000000e+03 4.444373130798339844e+00 -2.532097244262695312e+01 1.956958323717117310e-03 -1.918737143278121948e-01 -5.697502940893173218e-02 -8.747424930334091187e-02
4.378000000000000000e+03 3.816301822662353516e+00 -2.657931900024414062e+01 1.980611123144626617e-03 -2.115389704704284668e-01 -6.286750733852386475e-02 -7.578925043344497681e-02
4.379000000000000000e+03 4.320778274536132812e+01 -1.597257971763610840e+00 -9.379327297210693359e-01 9.636364877223968506e-02 -2.524707317352294922e-01 -4.239435121417045593e-02
4.380000000000000000e+03 5.517615890502929688e+01 -5.559599399566650391e+00 7.029613256454467773e-01 3.465175628662109375e-01 3.148436546325683594e-01 -3.573395311832427979e-02
4.381000000000000000e+03 5.448014831542968750e+01 -5.292244434356689453e+00 6.031332015991210938e-01 -1.464995890855789185e-01 1.369900703430175781e-01 -1.348644793033599854e-01
4.382000000000000000e+03 5.063899612426757812e+01 -6.212682723999023438e-01 -7.163747549057006836e-01 1.616681069135665894e-01 -1.664119958877563477e-01 -1.359759271144866943e-01
4.383000000000000000e+03 5.135754394531250000e+01 -2.827910423278808594e+00 -1.696967631578445435e-01 -1.638940870761871338e-01 -1.000772565603256226e-01 -1.980200409889221191e-01
4.384000000000000000e+03 5.765089988708496094e+00 -4.870115756988525391e+00 -2.190527273342013359e-03 -1.910762395709753036e-03 -1.230386900715529919e-03 6.318058352917432785e-03
4.385000000000000000e+03 6.224057388305664062e+01 1.586004543304443359e+01 3.700599372386932373e-01 1.550667405128479004e+00 5.762181878089904785e-01 -2.025022029876708984e+00
4.386000000000000000e+03 6.090831756591796875e+01 1.607216453552246094e+01 9.907045215368270874e-02 9.776915311813354492e-01 3.230285942554473877e-01 -1.032858014106750488e+00
4.387000000000000000e+03 6.004575729370117188e+01 -1.884695291519165039e+00 -7.327876091003417969e-01 4.857734203338623047e+00 1.237483978271484375e+00 9.602267146110534668e-01
4.388000000000000000e+03 3.133073043823242188e+01 -1.172060108184814453e+01 -1.447152644395828247e-01 4.558878839015960693e-01 9.335178881883621216e-02 1.154215633869171143e-02
4.389000000000000000e+03 6.444776153564453125e+01 3.915764570236206055e+00 1.749582886695861816e+00 6.969854354858398438e+00 2.615831136703491211e+00 2.564403295516967773e+00
4.390000000000000000e+03 6.516955566406250000e+01 3.056598424911499023e+00 1.523639798164367676e+00 7.052428722381591797e+00 2.572820425033569336e+00 2.291127920150756836e+00
4.391000000000000000e+03 4.833919906616210938e+01 2.918274402618408203e+00 -6.283378601074218750e-01 1.885545253753662109e-01 -1.319350004196166992e-01 -4.343140497803688049e-02
4.392000000000000000e+03 8.465910911560058594e+00 9.751294136047363281e+00 1.615987904369831085e-02 -2.519624074921011925e-03 4.092076327651739120e-03 6.375135388225317001e-03
4.393000000000000000e+03 7.331333160400390625e+01 -1.860713195800781250e+01 -1.400125026702880859e+00 7.608284950256347656e+00 1.862447977066040039e+00 1.071543812751770020e+00
4.394000000000000000e+03 5.285892105102539062e+01 6.171422481536865234e+00 -2.432614006102085114e-02 -4.073122888803482056e-02 -1.951721124351024628e-02 -5.639097187668085098e-03
4.395000000000000000e+03 5.955922698974609375e+01 1.569284820556640625e+01 -4.731022417545318604e-01 6.683349609375000000e-01 5.856981873512268066e-02 -3.906041085720062256e-01
4.396000000000000000e+03 3.831601715087890625e+01 1.716076850891113281e+01 -7.475047707557678223e-01 7.795090228319168091e-02 -2.008661627769470215e-01 1.371647268533706665e-01
4.397000000000000000e+03 3.737413024902343750e+01 1.710928535461425781e+01 -7.128155827522277832e-01 1.266491040587425232e-02 -2.100452035665512085e-01 1.277729123830795288e-01
4.398000000000000000e+03 4.743486404418945312e+01 -1.759880638122558594e+01 -6.625762581825256348e-01 5.974760651588439941e-01 -1.953006535768508911e-02 -5.746555700898170471e-02
4.399000000000000000e+03 5.213618469238281250e+01 4.864428043365478516e+00 -1.534203439950942993e-01 -6.722179800271987915e-02 -6.619264185428619385e-02 9.670298546552658081e-02
4.400000000000000000e+03 5.096016311645507812e+01 5.917693138122558594e+00 -1.186420992016792297e-01 -3.461271151900291443e-02 -4.597644507884979248e-02 2.925230748951435089e-02
4.401000000000000000e+03 4.196610260009765625e+01 -5.587400913238525391e+00 4.126119613647460938e-01 -1.351934373378753662e-01 8.322555571794509888e-02 3.986363485455513000e-02
4.402000000000000000e+03 4.103653717041015625e+01 -6.845897197723388672e+00 4.845727384090423584e-01 -9.755084663629531860e-02 1.161065697669982910e-01 -1.519618928432464600e-01
4.403000000000000000e+03 7.455358123779296875e+01 -9.012812614440917969e+00 1.313790678977966309e+00 9.334772109985351562e+00 3.194568872451782227e+00 3.072762787342071533e-01
4.404000000000000000e+03 7.421352386474609375e+01 -8.183615684509277344e+00 1.042415142059326172e+00 9.109479904174804688e+00 3.045568466186523438e+00 2.995767295360565186e-01
4.405000000000000000e+03 4.716424942016601562e+01 -1.647888946533203125e+01 -5.939213037490844727e-01 5.728094577789306641e-01 -6.333542056381702423e-03 -5.670655146241188049e-02
4.406000000000000000e+03 5.187052249908447266e+00 3.046776962280273438e+01 2.485565608367323875e-03 -1.102286130189895630e-01 -3.232291340827941895e-02 5.244963616132736206e-02
4.407000000000000000e+03 4.908579349517822266e+00 -2.293945503234863281e+01 -5.613615736365318298e-03 -1.511252969503402710e-01 -4.702167212963104248e-02 -9.397275745868682861e-02
4.408000000000000000e+03 3.492827653884887695e+00 -9.189178466796875000e+00 -8.477548137307167053e-03 -1.713403151370584965e-03 -3.057285211980342865e-03 -3.721106797456741333e-03
4.409000000000000000e+03 3.652818441390991211e+00 8.768413543701171875e+00 1.735372468829154968e-03 -1.099050417542457581e-02 -2.776539651677012444e-03 9.299917146563529968e-03
4.410000000000000000e+03 3.573634624481201172e+00 1.932629966735839844e+01 -6.734734866768121719e-03 -3.001567721366882324e-02 -1.102512329816818237e-02 1.355670671910047531e-02
4.411000000000000000e+03 3.182805776596069336e+00 2.013747215270996094e+01 -5.163427442312240601e-03 -3.344203531742095947e-02 -1.158163882791996002e-02 1.367830671370029449e-02
4.412000000000000000e+03 3.481930971145629883e+00 -1.073066043853759766e+01 -9.427017532289028168e-03 -7.369973231106996536e-03 -5.039097275584936142e-03 -1.113963127136230469e-02
4.413000000000000000e+03 7.576362609863281250e+01 -1.146409511566162109e+01 1.030255556106567383e+00 9.135422706604003906e+00 3.049703598022460938e+00 -8.794175088405609131e-02
4.414000000000000000e+03 7.622132110595703125e+01 -1.519726514816284180e+00 -8.033683896064758301e-01 7.102987289428710938e+00 1.889885663986206055e+00 8.977516889572143555e-01
4.415000000000000000e+03 7.644827270507812500e+01 -2.158310174942016602e+00 -5.396073460578918457e-01 7.463954448699951172e+00 2.077304124832153320e+00 9.944243431091308594e-01
4.416000000000000000e+03 7.562811279296875000e+01 -1.079773235321044922e+01 1.094828605651855469e+00 9.169031143188476562e+00 3.079157829284667969e+00 8.559652417898178101e-02
4.417000000000000000e+03 7.627168273925781250e+01 -2.194438934326171875e+01 -2.860942780971527100e-01 7.965557098388671875e+00 2.303838729858398438e+00 4.422526359558105469e-01
4.418000000000000000e+03 6.955424499511718750e+01 -2.024736881256103516e+00 -3.695699691772460938e+00 6.111508369445800781e+00 7.247425913810729980e-01 -2.640684843063354492e+00
4.419000000000000000e+03 6.926619720458984375e+01 -1.456502676010131836e+00 -3.534188270568847656e+00 6.290982246398925781e+00 8.270382285118103027e-01 -2.554025650024414062e+00
4.420000000000000000e+03 4.840364933013916016e+00 -2.205736732482910156e+01 -7.036160212010145187e-03 -1.382610797882080078e-01 -4.358917474746704102e-02 -8.978544920682907104e-02
4.421000000000000000e+03 3.752087116241455078e+00 -1.960193252563476562e+01 -8.596562780439853668e-03 -9.910589456558227539e-02 -3.231073915958404541e-02 -6.523544341325759888e-02
4.422000000000000000e+03 7.471972656250000000e+01 2.315058708190917969e+01 -2.050004303455352783e-01 6.693026542663574219e+00 1.946407794952392578e+00 4.756631553173065186e-01
4.423000000000000000e+03 7.511775207519531250e+01 2.241281318664550781e+01 -1.569484919309616089e-01 6.682313919067382812e+00 1.957609653472900391e+00 5.190984010696411133e-01
4.424000000000000000e+03 7.514876556396484375e+01 2.152554702758789062e+01 -1.214601993560791016e-01 6.643124103546142578e+00 1.956499218940734863e+00 5.781516432762145996e-01
4.425000000000000000e+03 7.619684600830078125e+01 1.977384376525878906e+01 3.671669587492942810e-02 6.434474468231201172e+00 1.941357374191284180e+00 5.548285841941833496e-01
4.426000000000000000e+03 3.551353216171264648e+00 -5.203505516052246094e+00 -2.975615789182484150e-04 2.496909815818071365e-03 6.598045001737773418e-04 8.189893327653408051e-03
4.427000000000000000e+03 3.991963958740234375e+01 1.635830688476562500e+01 -8.405414819717407227e-01 1.908476352691650391e-01 -1.949081569910049438e-01 1.381680816411972046e-01
4.428000000000000000e+03 4.041533660888671875e+01 1.530611038208007812e+01 -8.280470371246337891e-01 1.939845234155654907e-01 -1.902187466621398926e-01 9.181469678878784180e-02
4.429000000000000000e+03 4.509304809570312500e+01 1.784808731079101562e+01 -1.214240670204162598e+00 1.475369744002819061e-02 -3.598460853099822998e-01 4.557142257690429688e-01
4.430000000000000000e+03 4.506213760375976562e+01 1.694523048400878906e+01 -1.348785758018493652e+00 1.328524649143218994e-01 -3.647800087928771973e-01 3.280215859413146973e-01
4.431000000000000000e+03 4.985063934326171875e+01 6.685461401939392090e-01 -7.893705964088439941e-01 2.440050989389419556e-01 -1.636096537113189697e-01 -8.649948984384536743e-03
4.432000000000000000e+03 2.767797851562500000e+01 -2.698932886123657227e+00 -2.537052035331726074e-01 -3.547830879688262939e-01 -1.825464814901351929e-01 -7.516680955886840820e-01
4.433000000000000000e+03 6.651855468750000000e+01 -5.139341354370117188e-01 -1.654078245162963867e+00 3.341846704483032227e+00 5.063305497169494629e-01 1.050462484359741211e+00
4.434000000000000000e+03 6.577480316162109375e+01 -9.451383352279663086e-02 -1.408050775527954102e+00 4.110141754150390625e+00 8.106272220611572266e-01 2.740673303604125977e+00
4.435000000000000000e+03 6.410096740722656250e+01 7.202435284852981567e-02 -1.663348317146301270e+00 5.508686065673828125e+00 1.153601408004760742e+00 4.525991439819335938e+00
4.436000000000000000e+03 4.406005859375000000e+01 -1.113433837890625000e+01 1.813666522502899170e-01 2.632092535495758057e-01 1.333727687597274780e-01 -2.371457815170288086e-01
4.437000000000000000e+03 4.576816177368164062e+01 1.062386751174926758e+00 -9.345701932907104492e-01 2.480070590972900391e-01 -2.059689462184906006e-01 -1.531468927860260010e-01
4.438000000000000000e+03 1.269040489196777344e+01 -2.732847690582275391e+00 9.944753721356391907e-03 -5.433373153209686279e-03 1.353414263576269150e-03 -5.047262180596590042e-03
4.439000000000000000e+03 1.194803333282470703e+01 -2.755627632141113281e+00 1.137356553226709366e-02 -7.044960744678974152e-03 1.298581366427242756e-03 -5.444774404168128967e-03
4.440000000000000000e+03 2.817445564270019531e+01 6.137603521347045898e-01 -7.137829661369323730e-01 9.544655680656433105e-02 -1.855009198188781738e-01 -2.394389919936656952e-02
4.441000000000000000e+03 4.309678268432617188e+01 -8.961592674255371094e+00 2.854350209236145020e-01 1.872674077749252319e-01 1.418107300996780396e-01 -2.023356854915618896e-01
4.442000000000000000e+03 3.883132696151733398e+00 -5.755010604858398438e+00 -5.071120802313089371e-03 1.596124959178268909e-03 -1.042498741298913956e-03 7.315795868635177612e-03
4.443000000000000000e+03 3.089045286178588867e+00 -5.478377342224121094e+00 -2.559739165008068085e-03 3.703000023961067200e-03 3.429782518651336432e-04 7.705482188612222672e-03
4.444000000000000000e+03 4.677906036376953125e+01 -7.456185668706893921e-02 -8.283077478408813477e-01 3.296003639698028564e-01 -1.496122032403945923e-01 1.273746695369482040e-02
4.445000000000000000e+03 3.306551361083984375e+01 4.654163360595703125e+00 1.264606565237045288e-01 -1.261930912733078003e-01 8.026845171116292477e-05 -9.895133227109909058e-02
4.446000000000000000e+03 5.844884490966796875e+01 -1.132023048400878906e+01 -4.812032878398895264e-01 4.398943901062011719e+00 1.175322294235229492e+00 1.445952177047729492e+00
4.447000000000000000e+03 5.762564086914062500e+01 -9.998711585998535156e+00 -2.453202903270721436e-01 3.500073432922363281e+00 9.764259457588195801e-01 1.216207265853881836e+00
4.448000000000000000e+03 2.756672477722167969e+01 -2.803212404251098633e-01 -6.898300647735595703e-01 1.518864929676055908e-01 -1.613830775022506714e-01 -1.779790520668029785e-01
4.449000000000000000e+03 2.695004463195800781e+01 2.246932238340377808e-01 -4.530164599418640137e-01 2.299889922142028809e-01 -6.690824776887893677e-02 1.787071675062179565e-02
4.450000000000000000e+03 7.092595672607421875e+01 -1.181823372840881348e+00 -2.491340875625610352e+00 5.723275661468505859e+00 9.695804119110107422e-01 -3.993839025497436523e+00
4.451000000000000000e+03 7.213932800292968750e+01 -1.793534278869628906e+00 -1.774260282516479492e+00 4.682406425476074219e+00 8.724438548088073730e-01 -3.225116729736328125e+00
4.452000000000000000e+03 7.087035369873046875e+01 -3.613584756851196289e+00 -2.105769872665405273e+00 5.528445243835449219e+00 1.026802659034729004e+00 -2.139461755752563477e+00
4.453000000000000000e+03 7.693210601806640625e+01 -4.001317024230957031e+00 -1.934191957116127014e-02 8.385526657104492188e+00 2.509855508804321289e+00 1.224747657775878906e+00
4.454000000000000000e+03 7.692649078369140625e+01 -6.969189643859863281e+00 3.047800362110137939e-01 8.519404411315917969e+00 2.647255182266235352e+00 1.153193235397338867e+00
4.455000000000000000e+03 7.690837097167968750e+01 -7.657701492309570312e+00 3.070339262485504150e-01 8.491686820983886719e+00 2.639616012573242188e+00 1.056949734687805176e+00
4.456000000000000000e+03 3.711633300781250000e+01 -1.605578899383544922e+00 -9.566574096679687500e-01 4.000597000122070312e-01 -1.669793128967285156e-01 -2.585329115390777588e-01
4.457000000000000000e+03 7.668867492675781250e+01 -1.747773551940917969e+01 -4.343897104263305664e-01 8.826516151428222656e+00 2.517637968063354492e+00 -5.740840435028076172e-01
4.458000000000000000e+03 3.202531099319458008e+00 1.528924751281738281e+01 -1.269210362806916237e-03 -1.964566484093666077e-02 -6.274462677538394928e-03 3.149928990751504898e-03
4.459000000000000000e+03 3.237853765487670898e+00 1.592102527618408203e+01 -2.160073723644018173e-03 -2.025751024484634399e-02 -6.725275423377752304e-03 3.558040596544742584e-03
4.460000000000000000e+03 7.655638885498046875e+01 -1.353713130950927734e+01 5.554996728897094727e-01 8.776407241821289062e+00 2.799571990966796875e+00 -6.510057449340820312e-01
4.461000000000000000e+03 7.671864318847656250e+01 -1.521842098236083984e+01 1.423019617795944214e-01 8.789510726928710938e+00 2.679543972015380859e+00 -8.703219890594482422e-01
4.462000000000000000e+03 6.774790954589843750e+01 7.512471675872802734e+00 -3.364235758781433105e-01 1.395878887176513672e+01 4.086709499359130859e+00 -1.010881543159484863e+00
4.463000000000000000e+03 7.482409667968750000e+01 -1.951744556427001953e+00 -6.548599004745483398e-01 5.050756454467773438e+00 1.318768978118896484e+00 1.312294751405715942e-01
4.464000000000000000e+03 7.552211761474609375e+01 -1.670931816101074219e+00 -8.204886913299560547e-01 5.756814479827880859e+00 1.480897784233093262e+00 6.339443922042846680e-01
4.465000000000000000e+03 7.016152191162109375e+01 -1.986777114868164062e+01 -2.928839027881622314e-01 3.440365076065063477e+00 9.442443251609802246e-01 1.368067860603332520e+00
4.466000000000000000e+03 7.634952545166015625e+01 -9.014083862304687500e+00 6.854138970375061035e-01 8.618713378906250000e+00 2.791238069534301758e+00 7.226208448410034180e-01
4.467000000000000000e+03 3.323265075683593750e+00 -6.840340137481689453e+00 -4.662795923650264740e-03 2.059054328128695488e-03 -7.811224786564707756e-04 4.815068561583757401e-03
4.468000000000000000e+03 1.563142871856689453e+01 -7.227323532104492188e+00 -7.836646586656570435e-02 1.234240247868001461e-03 -2.313966862857341766e-02 2.794918371364474297e-03
4.469000000000000000e+03 6.349691390991210938e+01 4.939133524894714355e-01 -1.831970691680908203e+00 6.277957916259765625e+00 1.333796262741088867e+00 4.136481761932373047e+00
4.470000000000000000e+03 2.817315340042114258e+00 5.918112754821777344e+00 -3.639020491391420364e-03 -2.251910045742988586e-03 -1.767279114574193954e-03 5.755291786044836044e-03
4.471000000000000000e+03 3.761644363403320312e+00 -2.518549156188964844e+01 1.012025823001749814e-04 -1.893784105777740479e-01 -5.678316205739974976e-02 -7.672068476676940918e-02
4.472000000000000000e+03 3.352574586868286133e+00 1.205612087249755859e+01 2.559739630669355392e-03 -1.605627685785293579e-02 -4.048961214721202850e-03 3.516440279781818390e-03
4.473000000000000000e+03 3.081988573074340820e+00 1.269280147552490234e+01 2.098612021654844284e-03 -1.551756821572780609e-02 -4.025686532258987427e-03 2.684904262423515320e-03
4.474000000000000000e+03 7.677567291259765625e+01 -1.638717842102050781e+01 -1.614346802234649658e-01 8.840627670288085938e+00 2.603757858276367188e+00 -8.342660069465637207e-01
4.475000000000000000e+03 3.764147043228149414e+00 1.698521232604980469e+01 -4.618570208549499512e-03 -2.160017192363739014e-02 -7.865622639656066895e-03 7.208073046058416367e-03
4.476000000000000000e+03 3.402481317520141602e+00 1.758989906311035156e+01 -4.645687062293291092e-03 -2.447498589754104614e-02 -8.736201561987400055e-03 7.186546921730041504e-03
4.477000000000000000e+03 4.618818664550781250e+01 1.975420415401458740e-01 -8.837887644767761230e-01 3.259277045726776123e-01 -1.673583239316940308e-01 -2.163619734346866608e-02
4.478000000000000000e+03 7.646933746337890625e+01 1.608860206604003906e+01 3.120554983615875244e-01 6.028092384338378906e+00 1.902044296264648438e+00 1.985415816307067871e-01
4.479000000000000000e+03 3.753062725067138672e+00 -1.332232761383056641e+01 -1.348495483398437500e-02 -2.508768998086452484e-02 -1.157179288566112518e-02 -2.953831665217876434e-02
4.480000000000000000e+03 3.617246627807617188e+00 -1.255876064300537109e+01 -1.382521912455558777e-02 -1.861171051859855652e-02 -9.731079451739788055e-03 -2.320285700261592865e-02
4.481000000000000000e+03 7.653768157958984375e+01 1.367167377471923828e+01 1.543192714452743530e-01 6.197119712829589844e+00 1.905431747436523438e+00 -3.355172276496887207e-01
4.482000000000000000e+03 7.683780670166015625e+01 1.309823513031005859e+01 -1.495942659676074982e-02 6.317617416381835938e+00 1.890797376632690430e+00 -3.302503228187561035e-01
4.483000000000000000e+03 4.284745407104492188e+01 1.592200374603271484e+01 -1.038411855697631836e+00 2.095931023359298706e-01 -2.486456036567687988e-01 1.027379781007766724e-01
4.484000000000000000e+03 7.321146392822265625e+01 1.206743049621582031e+01 2.084108829498291016e+00 3.823050260543823242e+00 1.772147774696350098e+00 -1.115283370018005371e+00
4.485000000000000000e+03 7.617700195312500000e+01 -2.527629280090332031e+01 -4.630544222891330719e-03 7.488964557647705078e+00 2.245300292968750000e+00 5.594335198402404785e-01
4.486000000000000000e+03 7.707323455810546875e+01 -2.686809921264648438e+01 1.478941179811954498e-02 7.697358608245849609e+00 2.313644409179687500e+00 4.473459720611572266e-01
4.487000000000000000e+03 3.647598028182983398e+00 -1.686757850646972656e+01 -1.196805387735366821e-02 -5.955195054411888123e-02 -2.145600132644176483e-02 -5.009251460433006287e-02
4.488000000000000000e+03 3.169114828109741211e+00 -1.467659854888916016e+01 -1.027377322316169739e-02 -3.218274191021919250e-02 -1.273695472627878189e-02 -3.212433680891990662e-02
4.489000000000000000e+03 8.946017265319824219e+00 -4.294630527496337891e+00 -4.217660054564476013e-03 -6.646070163697004318e-03 -3.259119112044572830e-03 1.784551073797047138e-03
4.490000000000000000e+03 7.484277343750000000e+01 -1.520002746582031250e+01 2.111108005046844482e-01 9.431013107299804688e+00 2.892637014389038086e+00 -7.725690603256225586e-01
4.491000000000000000e+03 3.285996913909912109e+00 -1.192424869537353516e+01 -9.847672656178474426e-03 -1.218250580132007599e-02 -6.609053350985050201e-03 -1.715374179184436798e-02
4.492000000000000000e+03 3.440004348754882812e+01 3.223372220993041992e+00 -2.523150444030761719e-01 6.701715756207704544e-03 -7.368399947881698608e-02 -1.760659068822860718e-01
4.493000000000000000e+03 3.196325874328613281e+01 3.903792142868041992e+00 1.933685541152954102e-01 -2.358589619398117065e-01 -1.274712104350328445e-02 -1.606189310550689697e-01
4.494000000000000000e+03 7.622573089599609375e+01 -2.360191917419433594e+01 -1.112169921398162842e-01 7.691511631011962891e+00 2.274088382720947266e+00 5.344779491424560547e-01
4.495000000000000000e+03 5.896192932128906250e+01 -1.746179389953613281e+01 1.164134666323661804e-01 4.424897193908691406e+00 1.362393140792846680e+00 2.424744665622711182e-01
4.496000000000000000e+03 3.392678976058959961e+00 2.256504821777343750e+01 -5.985498428344726562e-03 -4.752536118030548096e-02 -1.605325751006603241e-02 2.281058020889759064e-02
4.497000000000000000e+03 2.684807300567626953e+00 2.389194297790527344e+01 -3.534335410222411156e-03 -5.637245625257492065e-02 -1.797203719615936279e-02 2.170873247087001801e-02
4.498000000000000000e+03 3.329964399337768555e+00 2.392552947998046875e+01 -5.604407284408807755e-03 -5.702530965209007263e-02 -1.878891512751579285e-02 2.719668298959732056e-02
4.499000000000000000e+03 6.569179534912109375e+01 5.651963710784912109e+00 1.271538734436035156e+00 1.083574771881103516e+01 3.632185935974121094e+00 1.138217806816101074e+00
4.500000000000000000e+03 1.020802879333496094e+01 1.185566234588623047e+01 8.446620777249336243e-03 8.765273727476596832e-03 5.163568537682294846e-03 8.170986548066139221e-03
4.501000000000000000e+03 3.264421844482421875e+01 2.235482215881347656e+00 -4.127329289913177490e-01 -1.495854556560516357e-01 -1.686955094337463379e-01 -4.914717972278594971e-01
4.502000000000000000e+03 7.464897918701171875e+01 -7.002267360687255859e+00 4.285007119178771973e-01 8.452301979064941406e+00 2.664240837097167969e+00 6.437798738479614258e-01
4.503000000000000000e+03 5.687505722045898438e+01 -1.296142935752868652e+00 -4.746297001838684082e-01 2.192461490631103516e-01 -7.661506533622741699e-02 2.247322909533977509e-02
4.504000000000000000e+03 5.630130004882812500e+01 -1.482431054115295410e+00 -3.857043385505676270e-01 7.417263835668563843e-02 -9.345950931310653687e-02 -2.013693898916244507e-01
4.505000000000000000e+03 3.591195344924926758e+00 -1.819094848632812500e+01 -9.733658283948898315e-03 -7.746373116970062256e-02 -2.615921571850776672e-02 -5.630004033446311951e-02
4.506000000000000000e+03 6.672801208496093750e+01 1.124915719032287598e+00 3.287795186042785645e-01 6.264833450317382812e+00 1.978083848953247070e+00 1.529153585433959961e+00
4.507000000000000000e+03 1.647715187072753906e+01 -8.695821762084960938e+00 -1.519926488399505615e-01 1.169789116829633713e-02 -4.208843037486076355e-02 -1.287930458784103394e-02
4.508000000000000000e+03 2.135295867919921875e+01 1.824624824523925781e+01 -2.947455048561096191e-01 -2.828489057719707489e-02 -9.690912067890167236e-02 1.285928934812545776e-01
4.509000000000000000e+03 2.681781196594238281e+01 1.834833145141601562e+01 -4.360335469245910645e-01 1.254747156053781509e-03 -1.304336339235305786e-01 1.715034246444702148e-01
4.510000000000000000e+03 6.093198394775390625e+01 -1.039609050750732422e+01 -2.453823387622833252e-01 5.922635555267333984e+00 1.703175902366638184e+00 1.275518178939819336e+00
4.511000000000000000e+03 4.162369155883789062e+01 -6.241932392120361328e+00 4.825135469436645508e-01 -1.211799532175064087e-01 1.084000840783119202e-01 -5.284728854894638062e-02
4.512000000000000000e+03 5.340045166015625000e+01 -3.488758563995361328e+00 2.254434227943420410e-01 -3.623359203338623047e-01 -4.106774926185607910e-02 -3.557553589344024658e-01
4.513000000000000000e+03 6.990251922607421875e+01 -1.176007270812988281e+00 -3.296677350997924805e+00 6.805072307586669922e+00 1.052518486976623535e+00 -3.388796091079711914e+00
4.514000000000000000e+03 7.156540679931640625e+01 -1.851112246513366699e+00 -1.960643529891967773e+00 5.084613800048828125e+00 9.371910691261291504e-01 -3.429995775222778320e+00
4.515000000000000000e+03 2.844522285461425781e+01 -8.064184188842773438e+00 -1.624265015125274658e-01 -2.055500149726867676e-01 -1.103929504752159119e-01 -3.381852507591247559e-01
4.516000000000000000e+03 1.345154666900634766e+01 -3.435505628585815430e+00 6.157702300697565079e-03 -6.641898769885301590e-03 -1.452589640393853188e-04 -6.084467284381389618e-03
4.517000000000000000e+03 6.128413391113281250e+01 -2.856640338897705078e+00 -8.847350627183914185e-02 7.348156929016113281e+00 2.177904844284057617e+00 7.699919939041137695e-01
4.518000000000000000e+03 5.940268325805664062e+01 -1.581558704376220703e+01 -2.862920463085174561e-01 4.540570259094238281e+00 1.276283383369445801e+00 6.885861754417419434e-01
4.519000000000000000e+03 5.897959899902343750e+01 -1.522345161437988281e+01 -2.349018752574920654e-01 4.642058372497558594e+00 1.322147011756896973e+00 9.094063639640808105e-01
4.520000000000000000e+03 2.972654724121093750e+01 -1.224889755249023438e+01 -2.196193784475326538e-01 1.150267720222473145e-01 -3.137778118252754211e-02 1.636167019605636597e-01
4.521000000000000000e+03 3.103260231018066406e+01 -1.247029018402099609e+01 -1.963931471109390259e-01 3.370696306228637695e-01 4.220294207334518433e-02 8.664474636316299438e-02
4.522000000000000000e+03 6.608203125000000000e+01 -1.770271873474121094e+01 -1.318702578544616699e+00 2.360991716384887695e+00 3.126867711544036865e-01 -5.832738280296325684e-01
4.523000000000000000e+03 6.863188934326171875e+01 8.039957046508789062e+00 -5.863554477691650391e-01 1.237011718750000000e+01 3.535128593444824219e+00 -6.434825658798217773e-01
4.524000000000000000e+03 6.844991302490234375e+01 9.086772918701171875e+00 8.654699921607971191e-01 1.225807666778564453e+01 3.937064170837402344e+00 5.724419280886650085e-02
4.525000000000000000e+03 5.509194564819335938e+01 1.529178905487060547e+01 -1.128233551979064941e+00 4.552502930164337158e-01 -2.018949836492538452e-01 2.423051297664642334e-01
4.526000000000000000e+03 4.828348922729492188e+01 -1.949440574645996094e+01 -6.028305888175964355e-01 5.913725495338439941e-01 -3.437415929511189461e-03 -8.037979900836944580e-02
4.527000000000000000e+03 4.942353057861328125e+01 3.756255149841308594e+00 -4.858824014663696289e-01 1.149015799164772034e-01 -1.112942472100257874e-01 3.085816092789173126e-02
4.528000000000000000e+03 2.510062217712402344e+01 -1.249036216735839844e+01 -2.113571614027023315e-01 -7.560868859291076660e-01 -2.902332246303558350e-01 -2.056860327720642090e-01
4.529000000000000000e+03 1.602297019958496094e+01 1.724762916564941406e+01 -1.059114709496498108e-01 2.614403888583183289e-02 -2.393022924661636353e-02 4.158733040094375610e-02
4.530000000000000000e+03 7.597747802734375000e+01 -1.454802036285400391e+01 3.777608871459960938e-01 9.061952590942382812e+00 2.831914186477661133e+00 -8.619962334632873535e-01
4.531000000000000000e+03 7.636840057373046875e+01 -1.415841865539550781e+01 3.755199313163757324e-01 8.816441535949707031e+00 2.757588386535644531e+00 -7.435013055801391602e-01
4.532000000000000000e+03 3.204994964599609375e+01 1.800384330749511719e+01 -5.014994144439697266e-01 -4.319192841649055481e-02 -1.634074151515960693e-01 2.660103440284729004e-01
4.533000000000000000e+03 3.295789718627929688e+01 1.789022254943847656e+01 -5.212156176567077637e-01 -8.507885038852691650e-02 -1.818883419036865234e-01 2.699446082115173340e-01
4.534000000000000000e+03 7.755093383789062500e+01 -3.209389209747314453e+00 -8.294798433780670166e-02 9.003273010253906250e+00 2.676097631454467773e+00 1.165672302246093750e+00
4.535000000000000000e+03 7.365239715576171875e+01 -8.297966957092285156e+00 1.109151005744934082e+00 9.354276657104492188e+00 3.139028310775756836e+00 -8.515861816704273224e-03
4.536000000000000000e+03 5.681977081298828125e+01 -2.263876914978027344e+01 -5.414860844612121582e-01 3.105607986450195312e+00 7.692365646362304688e-01 3.921224176883697510e-01
4.537000000000000000e+03 5.802281570434570312e+01 -2.133228302001953125e+01 -7.515847682952880859e-01 3.974848031997680664e+00 9.669789671897888184e-01 2.573401294648647308e-02
4.538000000000000000e+03 6.389559555053710938e+01 1.834875488281250000e+01 -3.532855212688446045e-01 4.980828762054443359e+00 1.388262987136840820e+00 -2.273595809936523438e+00
4.539000000000000000e+03 5.589993286132812500e+01 1.599205875396728516e+01 -9.403625130653381348e-01 5.748103857040405273e-01 -1.096656322479248047e-01 9.494581073522567749e-02
4.540000000000000000e+03 5.732525634765625000e+01 1.598956203460693359e+01 -7.880455851554870605e-01 6.813347935676574707e-01 -3.201323747634887695e-02 -4.335868731141090393e-02
4.541000000000000000e+03 7.557897949218750000e+01 1.242916488647460938e+01 2.571189999580383301e-01 6.333958148956298828e+00 1.977323174476623535e+00 -1.167124867439270020e+00
4.542000000000000000e+03 3.407170486450195312e+01 2.717751026153564453e+00 -4.410459697246551514e-01 7.235600799322128296e-02 -1.106069907546043396e-01 -2.816566228866577148e-01
4.543000000000000000e+03 7.582675933837890625e+01 -1.216796684265136719e+01 9.218208789825439453e-01 9.110819816589355469e+00 3.009792327880859375e+00 -3.051463067531585693e-01
4.544000000000000000e+03 7.496465301513671875e+01 -1.103139495849609375e+01 1.291344642639160156e+00 9.666446685791015625e+00 3.287337303161621094e+00 -7.532383501529693604e-02
4.545000000000000000e+03 7.095001983642578125e+01 1.190813732147216797e+01 2.935812711715698242e+00 4.938372135162353516e+00 2.362255573272705078e+00 1.400985598564147949e+00
4.546000000000000000e+03 5.167180633544921875e+01 -1.180343747138977051e+00 -6.325818300247192383e-01 3.252498060464859009e-02 -1.800170540809631348e-01 -2.920969128608703613e-01
4.547000000000000000e+03 7.632721710205078125e+01 -1.044232368469238281e+01 8.516183495521545410e-01 8.739642143249511719e+00 2.877377986907958984e+00 2.909875512123107910e-01
4.548000000000000000e+03 7.022462463378906250e+01 1.252434349060058594e+01 3.018546581268310547e+00 6.759805679321289062e+00 2.933505773544311523e+00 2.069169521331787109e+00
4.549000000000000000e+03 7.041987609863281250e+01 1.189048767089843750e+01 3.219797372817993164e+00 5.673780918121337891e+00 2.668073415756225586e+00 1.924930810928344727e+00
4.550000000000000000e+03 6.776182556152343750e+01 1.443371772766113281e+01 8.796879649162292480e-01 1.167365360260009766e+01 3.766002416610717773e+00 1.607151150703430176e+00
4.551000000000000000e+03 4.388652420043945312e+01 -1.467983055114746094e+01 -3.912757039070129395e-01 2.114246189594268799e-01 -5.395532771944999695e-02 -2.287666350603103638e-01
4.552000000000000000e+03 5.159791183471679688e+01 4.339128971099853516e+00 -2.761073112487792969e-01 -3.630976006388664246e-02 -9.372512251138687134e-02 1.132011562585830688e-01
4.553000000000000000e+03 5.098726654052734375e+01 3.908294916152954102e+00 -3.600656092166900635e-01 8.760683238506317139e-03 -1.053914800286293030e-01 1.371330022811889648e-01
4.554000000000000000e+03 3.743061828613281250e+01 -1.909933471679687500e+01 -5.020834207534790039e-01 3.699589148163795471e-02 -1.395262479782104492e-01 -3.860391974449157715e-01
4.555000000000000000e+03 5.861381530761718750e+01 1.628026390075683594e+01 -5.237548947334289551e-01 7.982820868492126465e-01 8.235815167427062988e-02 -2.757345736026763916e-01
4.556000000000000000e+03 1.411394691467285156e+01 1.545180130004882812e+01 -4.737184941768646240e-02 2.024188451468944550e-02 -8.138990029692649841e-03 2.082587219774723053e-02
4.557000000000000000e+03 4.101612854003906250e+01 1.624314689636230469e+01 -8.890742659568786621e-01 2.231587320566177368e-01 -1.997746527194976807e-01 1.426494717597961426e-01
4.558000000000000000e+03 3.468078231811523438e+01 -1.737614059448242188e+01 -5.094096660614013672e-01 3.048380613327026367e-01 -6.137148290872573853e-02 -1.300465017557144165e-01
4.559000000000000000e+03 4.018741607666015625e+00 -4.979105949401855469e+00 -2.600091742351651192e-03 1.423463807441294193e-03 -3.529883397277444601e-04 7.898523472249507904e-03
4.560000000000000000e+03 4.934396266937255859e+00 -5.758317470550537109e+00 -6.704264320433139801e-03 -1.581493997946381569e-03 -2.485727425664663315e-03 5.311822518706321716e-03
4.561000000000000000e+03 2.191846084594726562e+01 -1.144777107238769531e+01 -5.365878343582153320e-01 -1.880750805139541626e-01 -2.173988819122314453e-01 -3.294515907764434814e-01
4.562000000000000000e+03 4.332879066467285156e+00 9.306843757629394531e+00 4.215614404529333115e-03 -1.057721953839063644e-02 -1.908481586724519730e-03 1.059449091553688049e-02
4.563000000000000000e+03 5.388074111938476562e+01 -2.998202085494995117e+00 1.796560138463973999e-01 -2.825395762920379639e-01 -3.086506761610507965e-02 -4.678925871849060059e-01
4.564000000000000000e+03 2.490270233154296875e+01 9.132683753967285156e+00 -5.263864994049072266e-02 -1.311024092137813568e-02 -1.972466707229614258e-02 -3.475870937108993530e-02
4.565000000000000000e+03 2.428865623474121094e+01 9.491808891296386719e+00 -4.746544361114501953e-02 1.349783968180418015e-02 -1.019028108566999435e-02 -2.270421758294105530e-02
4.566000000000000000e+03 1.214934921264648438e+01 -4.495300292968750000e+00 -4.996971227228641510e-03 -1.008062716573476791e-02 -4.523279611021280289e-03 -2.830086043104529381e-03
4.567000000000000000e+03 1.132739067077636719e+01 -4.470565795898437500e+00 -6.426583044230937958e-03 -9.647231549024581909e-03 -4.822144284844398499e-03 7.990780868567526340e-04
4.568000000000000000e+03 9.316910743713378906e+00 -5.479004383087158203e+00 -1.661364920437335968e-02 -9.063444100320339203e-03 -7.703127805143594742e-03 1.070499303750693798e-03
4.569000000000000000e+03 6.062649536132812500e+01 1.489520668983459473e-01 -1.834515929222106934e+00 4.916986942291259766e+00 9.247413277626037598e-01 1.882031679153442383e+00
4.570000000000000000e+03 6.125019836425781250e+01 -1.130895912647247314e-01 -2.103378534317016602e+00 6.012988567352294922e+00 1.172883033752441406e+00 2.226948261260986328e+00
4.571000000000000000e+03 2.217005348205566406e+01 -1.266259384155273438e+01 -3.633554279804229736e-01 -3.080594241619110107e-01 -2.014244496822357178e-01 -3.480745255947113037e-01
4.572000000000000000e+03 2.197408103942871094e+01 2.015885162353515625e+01 -2.290098071098327637e-01 -7.797974348068237305e-02 -9.209686517715454102e-02 1.986602246761322021e-01
4.573000000000000000e+03 6.076376724243164062e+01 -9.131653785705566406e+00 2.821255326271057129e-01 6.177075386047363281e+00 1.937760233879089355e+00 1.287912249565124512e+00
4.574000000000000000e+03 6.024589920043945312e+01 -8.299866676330566406e+00 6.256235241889953613e-01 5.803640842437744141e+00 1.928779363632202148e+00 1.353312969207763672e+00
4.575000000000000000e+03 3.159347915649414062e+01 -1.281493854522705078e+01 -2.010568231344223022e-01 4.049137532711029053e-01 6.115707755088806152e-02 5.235943570733070374e-02
4.576000000000000000e+03 5.779206085205078125e+01 -1.678357601165771484e+00 -1.962015479803085327e-01 1.394083261489868164e+00 3.593645393848419189e-01 3.685975670814514160e-01
4.577000000000000000e+03 5.741754150390625000e+01 -1.072210907936096191e+00 -7.742571830749511719e-01 6.556492447853088379e-01 -3.558238223195075989e-02 2.785153985023498535e-01
4.578000000000000000e+03 3.873391723632812500e+01 -2.012166404724121094e+01 -3.786357939243316650e-01 -7.119989395141601562e-02 -1.349507123231887817e-01 -3.499627411365509033e-01
4.579000000000000000e+03 5.915423202514648438e+01 -2.000502777099609375e+01 -4.105184078216552734e-01 4.157462120056152344e+00 1.124083042144775391e+00 -2.083443254232406616e-01
4.580000000000000000e+03 4.454650497436523438e+01 -1.643698501586914062e+01 -6.485210061073303223e-01 4.110903441905975342e-01 -7.122918963432312012e-02 -1.008514463901519775e-01
4.581000000000000000e+03 4.484906387329101562e+01 -1.568944835662841797e+01 -5.590217709541320801e-01 4.158109128475189209e-01 -4.296325147151947021e-02 -1.510421186685562134e-01
4.582000000000000000e+03 2.683723688125610352e+00 2.542551612854003906e+01 -2.798850415274500847e-03 -6.922572106122970581e-02 -2.160737104713916779e-02 2.498545683920383453e-02
4.583000000000000000e+03 3.225228071212768555e+00 -4.641318321228027344e+00 -9.054451365955173969e-04 2.789424266666173935e-03 5.651937681250274181e-04 8.243398740887641907e-03
4.584000000000000000e+03 3.402042388916015625e+00 -5.917465209960937500e+00 -2.182738855481147766e-03 3.045159624889492989e-03 2.587262424640357494e-04 6.698003038763999939e-03
4.585000000000000000e+03 6.822457122802734375e+01 1.062404632568359375e+01 3.071348905563354492e+00 1.203392791748046875e+01 4.531582832336425781e+00 1.504017710685729980e+00
4.586000000000000000e+03 6.834013366699218750e+01 9.670739173889160156e+00 1.871198773384094238e+00 1.255274009704589844e+01 4.327181816101074219e+00 1.520536988973617554e-01
4.587000000000000000e+03 3.456600570678710938e+01 1.778607749938964844e+01 -5.560359358787536621e-01 -1.218276619911193848e-01 -2.033590674400329590e-01 2.241502404212951660e-01
4.588000000000000000e+03 4.188884735107421875e+01 -3.154769897460937500e+00 -1.581869125366210938e-01 -3.969165086746215820e-01 -1.665310263633728027e-01 9.688505530357360840e-02
4.589000000000000000e+03 2.588099479675292969e+01 -1.155456423759460449e+00 -2.980138659477233887e-01 6.372940540313720703e-02 -7.028533518314361572e-02 -1.634539216756820679e-01
4.590000000000000000e+03 2.701538658142089844e+01 -2.244187355041503906e+00 -2.834420204162597656e-01 -1.480504572391510010e-01 -1.294477432966232300e-01 -5.211237668991088867e-01
4.591000000000000000e+03 3.345261001586914062e+01 -1.631745338439941406e+01 -4.057179391384124756e-01 3.215913176536560059e-01 -2.523798495531082153e-02 -4.158952832221984863e-02
4.592000000000000000e+03 4.285055160522460938e+01 -1.924875068664550781e+01 -5.299044251441955566e-01 1.146751791238784790e-01 -1.245687752962112427e-01 -3.576461970806121826e-02
4.593000000000000000e+03 6.426985168457031250e+01 -1.704032897949218750e+01 -1.340501785278320312e+00 3.302629947662353516e+00 5.886384248733520508e-01 -5.247908830642700195e-01
4.594000000000000000e+03 5.989871215820312500e+01 -9.182869195938110352e-01 -1.349186778068542480e+00 4.316315650939941406e+00 8.901386857032775879e-01 1.241295337677001953e+00
4.595000000000000000e+03 6.856558227539062500e+01 1.426334762573242188e+01 1.608350992202758789e+00 1.013626480102539062e+01 3.523384809494018555e+00 2.455445528030395508e+00
4.596000000000000000e+03 6.671508789062500000e+01 1.682166862487792969e+01 -1.146078467369079590e+00 9.328934669494628906e+00 2.454856872558593750e+00 -5.628888010978698730e-01
4.597000000000000000e+03 2.559690475463867188e+01 -1.174940013885498047e+01 -2.473327219486236572e-01 -9.326500296592712402e-01 -3.539948463439941406e-01 -9.172146767377853394e-02
4.598000000000000000e+03 1.855836486816406250e+01 -9.441087722778320312e+00 -2.580145895481109619e-01 3.198449686169624329e-02 -6.780903041362762451e-02 -2.528354339301586151e-02
4.599000000000000000e+03 5.405611801147460938e+01 -4.938701152801513672e+00 5.265039205551147461e-01 -2.984802126884460449e-01 6.840710341930389404e-02 -1.816338598728179932e-01
4.600000000000000000e+03 6.594716644287109375e+01 1.749118232727050781e+01 -1.053426980972290039e+00 8.303400039672851562e+00 2.174992084503173828e+00 -1.601534247398376465e+00
4.601000000000000000e+03 5.905840682983398438e+01 -1.159652900695800781e+01 -5.441825985908508301e-01 4.770821571350097656e+00 1.267991662025451660e+00 1.496126413345336914e+00
4.602000000000000000e+03 4.417462921142578125e+01 -1.253302574157714844e+01 3.677693661302328110e-03 2.321452498435974121e-01 7.074688374996185303e-02 -2.164811342954635620e-01
4.603000000000000000e+03 4.950316619873046875e+01 1.930997085571289062e+01 -6.661788821220397949e-01 -4.232785403728485107e-01 -3.268372118473052979e-01 1.466690897941589355e-01
4.604000000000000000e+03 4.941119003295898438e+01 1.835232162475585938e+01 -9.954683780670166016e-01 -5.336876511573791504e-01 -4.587468206882476807e-01 1.531822383403778076e-01
4.605000000000000000e+03 3.515429687500000000e+01 9.426938891410827637e-01 -9.848161935806274414e-01 5.182173252105712891e-01 -1.399796605110168457e-01 -4.240289703011512756e-02
4.606000000000000000e+03 4.846531391143798828e+00 8.674400329589843750e+00 3.618518356233835220e-03 -1.329865679144859314e-02 -2.904041437432169914e-03 1.139878481626510620e-02
4.607000000000000000e+03 6.831471252441406250e+01 -1.199224591255187988e+00 -3.452004671096801758e+00 5.615889072418212891e+00 6.491653323173522949e-01 -1.687080979347229004e+00
4.608000000000000000e+03 3.226125335693359375e+01 -1.523804473876953125e+01 -3.184360265731811523e-01 3.099080026149749756e-01 -2.558402018621563911e-03 2.813838236033916473e-02
4.609000000000000000e+03 5.884074783325195312e+01 -1.068532466888427734e+01 -3.962155580520629883e-01 4.594099044799804688e+00 1.259364962577819824e+00 1.476211905479431152e+00
4.610000000000000000e+03 4.962946319580078125e+01 4.736265659332275391e+00 -3.093280196189880371e-01 4.452513903379440308e-02 -7.944086194038391113e-02 2.306560799479484558e-02
4.611000000000000000e+03 1.242102241516113281e+01 1.398941707611083984e+01 -1.312710158526897430e-02 1.509053353220224380e-02 5.890296306461095810e-04 1.325087994337081909e-02
4.612000000000000000e+03 4.412351608276367188e+01 -1.846670341491699219e+01 -6.723924875259399414e-01 3.448273539543151855e-01 -9.826952964067459106e-02 -2.770385891199111938e-02
4.613000000000000000e+03 3.429565811157226562e+01 4.178864955902099609e+00 -6.003989651799201965e-02 -4.564413800835609436e-02 -3.170521184802055359e-02 -1.600839346647262573e-01
4.614000000000000000e+03 8.096991539001464844e+00 -4.886264324188232422e+00 -8.680380880832672119e-03 -5.998030304908752441e-03 -4.403523169457912445e-03 2.830085344612598419e-03
4.615000000000000000e+03 2.622488784790039062e+01 -1.235039806365966797e+01 -2.215492129325866699e-01 -6.589207053184509277e-01 -2.641409933567047119e-01 2.518444322049617767e-02
4.616000000000000000e+03 2.771862792968750000e+01 -1.018843650817871094e+01 -4.799789786338806152e-01 -4.440150260925292969e-01 -2.771981954574584961e-01 5.977390334010124207e-02
4.617000000000000000e+03 2.847082710266113281e+01 -6.438376903533935547e+00 1.155602484941482544e-01 -3.025187551975250244e-01 -5.608754977583885193e-02 -5.690436959266662598e-01
4.618000000000000000e+03 6.167419815063476562e+01 1.662122344970703125e+01 2.884875535964965820e-01 1.820837259292602539e+00 6.327974796295166016e-01 -1.712034940719604492e+00
4.619000000000000000e+03 2.632719230651855469e+01 1.751228332519531250e+01 -4.333806335926055908e-01 -1.343140564858913422e-02 -1.340436041355133057e-01 1.538150608539581299e-01
4.620000000000000000e+03 5.961372756958007812e+01 -4.954696655273437500e+00 1.379255890846252441e+00 4.549777984619140625e+00 1.778710126876831055e+00 9.604554772377014160e-01
4.621000000000000000e+03 7.075222778320312500e+01 -4.545197963714599609e+00 -1.458615899085998535e+00 5.306972026824951172e+00 1.154506921768188477e+00 -1.833920240402221680e+00
4.622000000000000000e+03 1.771361351013183594e+01 1.827766227722167969e+01 -1.601207703351974487e-01 2.245955914258956909e-02 -4.129836335778236389e-02 7.919129729270935059e-02
4.623000000000000000e+03 1.722378349304199219e+01 1.807544708251953125e+01 -1.451615691184997559e-01 2.428480796515941620e-02 -3.626303002238273621e-02 6.927327811717987061e-02
4.624000000000000000e+03 3.855511474609375000e+01 -2.562226295471191406e+00 -3.739371597766876221e-01 -3.538132309913635254e-01 -2.183251082897186279e-01 -3.433112800121307373e-01
4.625000000000000000e+03 3.848225021362304688e+01 -1.993241786956787109e+00 -8.735036849975585938e-01 -3.344239592552185059e-01 -3.623782694339752197e-01 -2.959801554679870605e-01
4.626000000000000000e+03 2.853891563415527344e+01 1.675741577148437500e+01 -4.427448511123657227e-01 4.355872422456741333e-02 -1.197558417916297913e-01 2.030307650566101074e-01
4.627000000000000000e+03 5.277672958374023438e+01 1.633522033691406250e+01 -1.439141631126403809e+00 2.660116553306579590e-01 -3.519389927387237549e-01 1.525974571704864502e-01
4.628000000000000000e+03 5.243138122558593750e+01 1.954420852661132812e+01 -6.043103933334350586e-01 1.918752789497375488e-01 -1.237305402755737305e-01 -1.995618790388107300e-01
4.629000000000000000e+03 5.160009384155273438e+01 6.596352100372314453e+00 -5.348825082182884216e-02 -4.429707303643226624e-02 -2.933559753000736237e-02 6.272607948631048203e-03
4.630000000000000000e+03 5.224731826782226562e+01 6.444173336029052734e+00 -3.564508259296417236e-02 -5.213355273008346558e-02 -2.633359096944332123e-02 3.530140034854412079e-03
4.631000000000000000e+03 2.942728996276855469e+01 -9.625441551208496094e+00 -1.997773796319961548e-01 1.416732221841812134e-01 -1.743124425411224365e-02 -7.730715721845626831e-02
4.632000000000000000e+03 7.588178253173828125e+01 -2.892655944824218750e+01 9.159027785062789917e-02 7.015737533569335938e+00 2.132198333740234375e+00 4.944258630275726318e-01
4.633000000000000000e+03 2.772931671142578125e+01 -8.017089962959289551e-01 -8.059292435646057129e-01 2.920081093907356262e-02 -2.330185174942016602e-01 -4.162694513797760010e-01
4.634000000000000000e+03 2.740781784057617188e+01 -9.427121162414550781e+00 -6.255714297294616699e-01 -4.373755455017089844e-01 -3.188841044902801514e-01 -7.286504656076431274e-02
4.635000000000000000e+03 6.435003662109375000e+01 -1.407697963714599609e+01 -1.486268281936645508e+00 3.535819292068481445e+00 6.148653030395507812e-01 -1.965866088867187500e-01
4.636000000000000000e+03 5.698313522338867188e+01 -7.112159252166748047e+00 6.097580194473266602e-01 2.107246160507202148e+00 8.151012063026428223e-01 6.278164386749267578e-01
4.637000000000000000e+03 5.563491058349609375e+01 -6.257231235504150391e+00 6.365581154823303223e-01 7.851844429969787598e-01 4.265227615833282471e-01 1.445939540863037109e-01
4.638000000000000000e+03 2.573582267761230469e+01 -1.736001849174499512e+00 -2.374596148729324341e-01 2.060451917350292206e-02 -6.505652517080307007e-02 -2.097859233617782593e-01
4.639000000000000000e+03 4.430168151855468750e+01 -1.190508842468261719e+01 9.038718044757843018e-02 2.680712640285491943e-01 1.075375303626060486e-01 -2.240231186151504517e-01
4.640000000000000000e+03 4.779323577880859375e+01 -6.699669361114501953e-01 -6.841239929199218750e-01 2.765291929244995117e-01 -1.222784370183944702e-01 4.666597396135330200e-02
4.641000000000000000e+03 1.126719474792480469e+01 1.289758872985839844e+01 7.863280479796230793e-04 1.205346919596195221e-02 3.851939225569367409e-03 1.070314552634954453e-02
4.642000000000000000e+03 6.861754608154296875e+01 -2.921282947063446045e-01 -2.507732868194580078e+00 7.156112194061279297e+00 1.394513845443725586e+00 -1.904315471649169922e+00
4.643000000000000000e+03 5.809564971923828125e+01 -9.384147644042968750e+00 -2.998926211148500443e-03 3.760905981063842773e+00 1.127372145652770996e+00 1.246417999267578125e+00
4.644000000000000000e+03 5.703025436401367188e+01 -7.889281749725341797e+00 3.681442439556121826e-01 2.422350645065307617e+00 8.371484279632568359e-01 7.467167973518371582e-01
4.645000000000000000e+03 5.335850906372070312e+01 -6.221824884414672852e-01 -1.006468176841735840e+00 -2.613879367709159851e-02 -3.097820878028869629e-01 -5.088048577308654785e-01
4.646000000000000000e+03 3.359103775024414062e+01 2.248665094375610352e+00 -5.232143402099609375e-01 6.436132639646530151e-02 -1.376558989286422729e-01 -3.429336547851562500e-01
4.647000000000000000e+03 7.274337768554687500e+01 -1.337599635124206543e+00 -1.206946134567260742e+00 3.690460920333862305e+00 7.450544238090515137e-01 -2.899529695510864258e+00
4.648000000000000000e+03 7.317107391357421875e+01 -2.281739950180053711e+00 -8.666943907737731934e-01 4.524171829223632812e+00 1.097243309020996094e+00 -1.895452976226806641e+00
4.649000000000000000e+03 2.055955505371093750e+01 -1.062944602966308594e+01 -5.097995400428771973e-01 1.421222742646932602e-02 -1.486761868000030518e-01 -1.614268124103546143e-01
4.650000000000000000e+03 4.776321887969970703e+00 -2.472115707397460938e+01 -6.764362333342432976e-04 -1.791823655366897583e-01 -5.395764112472534180e-02 -9.357598423957824707e-02
4.651000000000000000e+03 7.523719024658203125e+01 2.372222900390625000e+01 -1.727388352155685425e-01 6.696273803710937500e+00 1.957060575485229492e+00 4.399302899837493896e-01
4.652000000000000000e+03 4.308772277832031250e+01 -1.003889656066894531e+01 2.469524294137954712e-01 1.579524874687194824e-01 1.214714720845222473e-01 -2.251947671175003052e-01
4.653000000000000000e+03 4.347973251342773438e+01 -1.116658020019531250e+01 1.693080067634582520e-01 1.581472009420394897e-01 9.823656082153320312e-02 -2.300338298082351685e-01
4.654000000000000000e+03 4.128060531616210938e+01 -3.562165021896362305e+00 -4.118304699659347534e-02 -4.758192598819732666e-01 -1.551006883382797241e-01 5.630013719201087952e-02
4.655000000000000000e+03 4.259490203857421875e+01 -2.956205844879150391e+00 -2.945059239864349365e-01 -1.722929179668426514e-01 -1.400396525859832764e-01 1.446705311536788940e-01
4.656000000000000000e+03 6.753613281250000000e+01 6.199257373809814453e-01 -5.865084528923034668e-01 6.885234355926513672e+00 1.889617800712585449e+00 1.872863173484802246e-01
4.657000000000000000e+03 6.801182556152343750e+01 -6.087688803672790527e-01 -2.888730287551879883e+00 5.767681598663330078e+00 8.636854290962219238e-01 -1.048287510871887207e+00
4.658000000000000000e+03 4.998350143432617188e+01 -1.012992143630981445e+00 -6.107961535453796387e-01 1.627407670021057129e-01 -1.344166249036788940e-01 -1.029311046004295349e-01
4.659000000000000000e+03 4.195813369750976562e+01 -9.774534225463867188e+00 2.579793632030487061e-01 6.650405377149581909e-02 9.734502434730529785e-02 -2.043857276439666748e-01
4.660000000000000000e+03 7.691914367675781250e+01 -6.239155769348144531e+00 1.270985454320907593e-01 8.503345489501953125e+00 2.589133262634277344e+00 1.209644913673400879e+00
4.661000000000000000e+03 6.421707153320312500e+01 -1.509626007080078125e+01 -1.630780816078186035e+00 3.535553693771362305e+00 5.714318752288818359e-01 -2.070257514715194702e-01
4.662000000000000000e+03 7.418957519531250000e+01 1.367641353607177734e+01 1.309555888175964355e+00 5.336480140686035156e+00 1.993810892105102539e+00 -4.559828639030456543e-01
4.663000000000000000e+03 6.062181091308593750e+01 -1.240272426605224609e+01 -7.610735297203063965e-01 5.243356704711914062e+00 1.344684958457946777e+00 1.278933882713317871e+00
4.664000000000000000e+03 1.554524421691894531e+01 1.620548629760742188e+01 -7.493653893470764160e-02 2.546294219791889191e-02 -1.484207995235919952e-02 2.838416025042533875e-02
4.665000000000000000e+03 3.471753692626953125e+01 3.813661813735961914e+00 -1.480065286159515381e-01 -1.498273201286792755e-02 -4.889677837491035461e-02 -1.558675765991210938e-01
4.666000000000000000e+03 3.542067337036132812e+01 2.521076440811157227e+00 -4.488894343376159668e-01 1.362903118133544922e-01 -9.377973526716232300e-02 1.859958469867706299e-02
4.667000000000000000e+03 6.971274566650390625e+01 1.076509284973144531e+01 2.539261817932128906e+00 7.227404117584228516e+00 2.929999828338623047e+00 1.633280038833618164e+00
4.668000000000000000e+03 6.874681091308593750e+01 1.099732971191406250e+01 3.343449115753173828e+00 9.999929428100585938e+00 4.003013610839843750e+00 1.359750270843505859e+00
4.669000000000000000e+03 7.803574085235595703e+00 1.037329292297363281e+01 1.505302730947732925e-02 -4.479200113564729691e-03 3.172148251906037331e-03 6.988890934735536575e-03
4.670000000000000000e+03 1.980504798889160156e+01 1.873363494873046875e+01 -2.255833148956298828e-01 4.988895263522863388e-03 -6.617832928895950317e-02 1.275224238634109497e-01
4.671000000000000000e+03 1.364073371887207031e+01 1.500236415863037109e+01 -3.452101349830627441e-02 1.919667050242424011e-02 -4.597302060574293137e-03 1.630110479891300201e-02
4.672000000000000000e+03 5.445416259765625000e+01 1.622996139526367188e+01 -1.111949324607849121e+00 4.731805920600891113e-01 -1.916306316852569580e-01 1.567952036857604980e-01
4.673000000000000000e+03 5.557601165771484375e+01 -2.257869148254394531e+01 -3.834652900695800781e-01 2.499555587768554688e+00 6.348270773887634277e-01 8.368086814880371094e-01
4.674000000000000000e+03 5.489873123168945312e+01 -2.205936050415039062e+01 -2.986436784267425537e-01 2.085996150970458984e+00 5.362057089805603027e-01 9.238993525505065918e-01
4.675000000000000000e+03 5.830046176910400391e+00 2.936075401306152344e+01 -1.129328855313360691e-03 -9.868159145116806030e-02 -2.994327619671821594e-02 5.835433676838874817e-02
4.676000000000000000e+03 4.002553462982177734e+00 -6.368603706359863281e+00 -4.642087966203689575e-03 1.703617163002490997e-04 -1.341517898254096508e-03 4.934300202876329422e-03
4.677000000000000000e+03 4.677526092529296875e+01 2.021979093551635742e+00 -7.891101837158203125e-01 2.236762940883636475e-01 -1.696301698684692383e-01 -1.425006389617919922e-01
4.678000000000000000e+03 4.600870132446289062e+01 3.114185094833374023e+00 -5.515979528427124023e-01 3.478498011827468872e-02 -1.550439000129699707e-01 -2.390677481889724731e-01
4.679000000000000000e+03 7.264070892333984375e+01 -2.747803926467895508e+00 -1.292860865592956543e+00 5.223613739013671875e+00 1.179225921630859375e+00 -2.179033756256103516e+00
4.680000000000000000e+03 7.402662658691406250e+01 -3.436848402023315430e+00 -4.845555126667022705e-01 5.869876861572265625e+00 1.615596413612365723e+00 -4.147514700889587402e-01
4.681000000000000000e+03 6.386752319335937500e+01 1.892942070960998535e+00 -5.992623046040534973e-02 5.902726173400878906e+00 1.752840042114257812e+00 3.467688083648681641e+00
4.682000000000000000e+03 6.357312774658203125e+01 1.400934576988220215e+00 -9.008433222770690918e-01 5.992734432220458984e+00 1.527567386627197266e+00 3.708725690841674805e+00
4.683000000000000000e+03 6.193669128417968750e+01 -4.489961862564086914e-01 -2.357501506805419922e+00 6.924563407897949219e+00 1.370118498802185059e+00 2.515370368957519531e+00
4.684000000000000000e+03 6.050960159301757812e+01 -1.324959397315979004e+00 -1.236258864402770996e+00 5.423215389251708984e+00 1.256086945533752441e+00 1.385513067245483398e+00
4.685000000000000000e+03 5.597430038452148438e+01 -3.273998498916625977e+00 5.348235964775085449e-01 3.786045014858245850e-01 2.740284204483032227e-01 -1.986818462610244751e-01
4.686000000000000000e+03 7.174056243896484375e+01 -2.468920707702636719e+00 -1.955761313438415527e+00 5.354328155517578125e+00 1.019570112228393555e+00 -2.947559595108032227e+00
4.687000000000000000e+03 7.228386688232421875e+01 -4.966702938079833984e+00 -7.733206748962402344e-01 6.557097911834716797e+00 1.735133171081542969e+00 -1.276827335357666016e+00
4.688000000000000000e+03 7.171269226074218750e+01 -4.548068523406982422e+00 -1.183070540428161621e+00 6.078826427459716797e+00 1.468726754188537598e+00 -1.641953349113464355e+00
4.689000000000000000e+03 6.375101470947265625e+01 -1.455654716491699219e+01 -1.418683528900146484e+00 3.969709396362304688e+00 7.653077244758605957e-01 -6.573928147554397583e-02
4.690000000000000000e+03 5.983731460571289062e+01 -5.590415477752685547e+00 1.374747514724731445e+00 4.996596336364746094e+00 1.911403179168701172e+00 1.039666891098022461e+00
4.691000000000000000e+03 5.998910140991210938e+01 -6.279195785522460938e+00 1.363442182540893555e+00 5.341713905334472656e+00 2.011546850204467773e+00 1.241214752197265625e+00
4.692000000000000000e+03 6.319922447204589844e+00 9.817413330078125000e+00 1.205696165561676025e-02 -1.328043173998594284e-02 -3.670410660561174154e-04 1.019475515931844711e-02
4.693000000000000000e+03 4.643620300292968750e+01 8.265607357025146484e-01 -8.854784369468688965e-01 2.904430031776428223e-01 -1.785106360912322998e-01 -7.793983817100524902e-02
4.694000000000000000e+03 4.557238006591796875e+01 4.614715874195098877e-01 -9.865547418594360352e-01 2.874806523323059082e-01 -2.097222357988357544e-01 -1.006325334310531616e-01
4.695000000000000000e+03 1.960498237609863281e+01 -1.239873218536376953e+01 -3.670570254325866699e-01 -6.085077300667762756e-02 -1.283723413944244385e-01 -2.301890850067138672e-01
4.696000000000000000e+03 5.865976333618164062e+01 -9.752712249755859375e+00 -6.866819411516189575e-02 4.337921619415283203e+00 1.280776023864746094e+00 1.412075161933898926e+00
4.697000000000000000e+03 5.822322845458984375e+01 -1.036083221435546875e+01 -3.147895634174346924e-01 4.077521324157714844e+00 1.128819465637207031e+00 1.367912888526916504e+00
4.698000000000000000e+03 7.178691864013671875e+01 -3.957814693450927734e+00 -1.438542127609252930e+00 5.885536670684814453e+00 1.334098458290100098e+00 -1.792016983032226562e+00
4.699000000000000000e+03 6.799149513244628906e+00 -5.096515178680419922e+00 -4.243928939104080200e-03 -3.763131098821759224e-03 -2.402117941528558731e-03 5.034449044615030289e-03
4.700000000000000000e+03 1.404054069519042969e+01 -4.826115131378173828e+00 -1.070798281580209732e-02 -8.628548122942447662e-03 -5.800959188491106033e-03 -1.940253278007730842e-04
4.701000000000000000e+03 1.432539176940917969e+01 -5.712613105773925781e+00 -2.050559408962726593e-02 -7.670186460018157959e-03 -8.452733978629112244e-03 -1.900111441500484943e-03
4.702000000000000000e+03 3.934545516967773438e+01 1.671052360534667969e+01 -8.171561956405639648e-01 1.515287011861801147e-01 -1.996882557868957520e-01 1.312805116176605225e-01
4.703000000000000000e+03 3.874220275878906250e+01 1.688121032714843750e+01 -7.883291840553283691e-01 1.247701272368431091e-01 -1.990677118301391602e-01 1.387229114770889282e-01
4.704000000000000000e+03 4.013451576232910156e+00 2.187081718444824219e+01 -8.487240411341190338e-03 -4.350956901907920837e-02 -1.559904310852289200e-02 2.463421225547790527e-02
4.705000000000000000e+03 1.130578899383544922e+01 1.402238941192626953e+01 -1.170291285961866379e-02 9.843337349593639374e-03 -5.578726413659751415e-04 1.149784307926893234e-02
4.706000000000000000e+03 2.911268234252929688e+01 1.758431625366210938e+01 -4.610389471054077148e-01 3.273683413863182068e-02 -1.284906268119812012e-01 2.215575128793716431e-01
4.707000000000000000e+03 7.647301483154296875e+01 -1.910151100158691406e+01 -5.850489735603332520e-01 8.604706764221191406e+00 2.405897378921508789e+00 -1.487688720226287842e-01
4.708000000000000000e+03 7.597090148925781250e+01 -1.833745765686035156e+01 -7.429638504981994629e-01 8.644968986511230469e+00 2.370601415634155273e+00 -2.271587252616882324e-01
4.709000000000000000e+03 1.072873115539550781e+01 1.236941623687744141e+01 4.377877805382013321e-03 1.233331114053726196e-02 5.013356916606426239e-03 9.942847304046154022e-03
4.710000000000000000e+03 9.268268585205078125e+00 1.187792015075683594e+01 7.497007027268409729e-03 2.421846846118569374e-03 2.975656185299158096e-03 5.843275692313909531e-03
4.711000000000000000e+03 3.585420131683349609e+00 -1.752436447143554688e+01 -1.100687216967344284e-02 -6.828016042709350586e-02 -2.378611080348491669e-02 -5.387819558382034302e-02
4.712000000000000000e+03 4.770862579345703125e+00 1.161253356933593750e+01 5.792860873043537140e-03 -1.366221066564321518e-02 -2.360804937779903412e-03 5.033924244344234467e-03
4.713000000000000000e+03 6.517461395263671875e+01 4.999017417430877686e-01 -8.482079505920410156e-01 5.274538516998291016e+00 1.327899217605590820e+00 3.641741037368774414e+00
4.714000000000000000e+03 7.490882873535156250e+01 -9.946932792663574219e+00 1.326601028442382812e+00 9.479631423950195312e+00 3.241869926452636719e+00 1.771779060363769531e-01
4.715000000000000000e+03 3.802244424819946289e+00 9.792004585266113281e+00 3.825510153546929359e-03 -1.413715165108442307e-02 -3.093492239713668823e-03 7.727402262389659882e-03
4.716000000000000000e+03 3.502640724182128906e+00 -8.400028228759765625e+00 -7.392814382910728455e-03 -3.837493422906845808e-04 -2.332969103008508682e-03 2.463717692080535926e-06
4.717000000000000000e+03 2.832438468933105469e+01 1.184606075286865234e+00 -4.317039549350738525e-01 1.442841291427612305e-01 -8.622594922780990601e-02 1.296803504228591919e-01
4.718000000000000000e+03 3.624097824096679688e+00 -7.662631034851074219e+00 -7.325283717364072800e-03 4.267694312147796154e-04 -2.069554291665554047e-03 1.735905651003122330e-03
4.719000000000000000e+03 7.617959594726562500e+01 -2.443803405761718750e+01 -6.894302368164062500e-02 7.570142269134521484e+00 2.250359773635864258e+00 5.558291077613830566e-01
4.720000000000000000e+03 4.818383789062500000e+01 -1.869245147705078125e+01 -6.441438794136047363e-01 5.901210904121398926e-01 -1.620683260262012482e-02 -7.053634524345397949e-02
4.721000000000000000e+03 6.456821441650390625e+01 -3.743588626384735107e-01 -2.414278030395507812e+00 5.159853935241699219e+00 8.236728310585021973e-01 4.590538024902343750e+00
4.722000000000000000e+03 5.340486145019531250e+01 -2.498250484466552734e+00 -9.985803812742233276e-02 -2.823574542999267578e-01 -1.146646440029144287e-01 -4.998240470886230469e-01
4.723000000000000000e+03 5.214879608154296875e+01 -2.201813507080078125e+01 5.114852916449308395e-03 8.401364088058471680e-01 2.535753846168518066e-01 3.077774643898010254e-01
4.724000000000000000e+03 4.772703170776367188e+01 2.864273190498352051e-01 -7.874963879585266113e-01 3.005143404006958008e-01 -1.460946202278137207e-01 -4.994613584131002426e-03
4.725000000000000000e+03 3.652161121368408203e+00 -1.887769889831542969e+01 -9.557744488120079041e-03 -8.696732670068740845e-02 -2.895752154290676117e-02 -6.125267222523689270e-02
4.726000000000000000e+03 7.626615142822265625e+01 -2.277392959594726562e+01 -2.110308557748794556e-01 7.820131778717041016e+00 2.282730340957641602e+00 4.951733350753784180e-01
4.727000000000000000e+03 7.580864715576171875e+01 -2.411956787109375000e+00 -4.072467088699340820e-01 6.669791221618652344e+00 1.878763318061828613e+00 7.993264794349670410e-01
4.728000000000000000e+03 4.838659286499023438e+01 1.862268805503845215e+00 -7.392430305480957031e-01 2.509153485298156738e-01 -1.464983075857162476e-01 -3.376883640885353088e-02
4.729000000000000000e+03 4.785809707641601562e+01 2.377749919891357422e+00 -6.829031705856323242e-01 2.281198501586914062e-01 -1.364350020885467529e-01 -7.029163837432861328e-02
4.730000000000000000e+03 4.327673912048339844e+00 -1.436882781982421875e+01 -1.804363913834095001e-02 -3.751831501722335815e-02 -1.666858606040477753e-02 -4.088737815618515015e-02
4.731000000000000000e+03 6.703442382812500000e+01 1.721947789192199707e+00 9.203373193740844727e-01 7.486416816711425781e+00 2.522026300430297852e+00 1.103343963623046875e+00
4.732000000000000000e+03 7.631623077392578125e+01 1.892457962036132812e+01 1.060916632413864136e-01 6.322270393371582031e+00 1.928508639335632324e+00 5.263164043426513672e-01
4.733000000000000000e+03 7.419554138183593750e+01 -6.626349449157714844e+00 2.576154172420501709e-01 8.131219863891601562e+00 2.516650676727294922e+00 3.835885226726531982e-01
4.734000000000000000e+03 4.496144771575927734e+00 2.486416053771972656e+01 -7.826757617294788361e-03 -6.413834542036056519e-02 -2.158953063189983368e-02 3.905146941542625427e-02
4.735000000000000000e+03 4.202693462371826172e+00 2.316572570800781250e+01 -8.565890602767467499e-03 -5.148364230990409851e-02 -1.801485940814018250e-02 3.029444813728332520e-02
4.736000000000000000e+03 7.670274353027343750e+01 -8.274448394775390625e+00 5.658759474754333496e-01 8.531362533569335938e+00 2.729171514511108398e+00 9.233396053314208984e-01
4.737000000000000000e+03 4.485981750488281250e+01 4.429970681667327881e-02 -1.088871717453002930e+00 2.473658025264739990e-01 -2.524517774581909180e-01 -1.458207219839096069e-01
4.738000000000000000e+03 7.655687713623046875e+01 1.684161376953125000e+01 2.535709142684936523e-01 6.074833869934082031e+00 1.898521423339843750e+00 3.134896457195281982e-01
4.739000000000000000e+03 3.494113159179687500e+01 2.916935205459594727e+00 -3.436469137668609619e-01 8.452731370925903320e-02 -7.773587852716445923e-02 -1.367284059524536133e-01
4.740000000000000000e+03 9.889248847961425781e+00 -5.163759708404541016e+00 -1.032431330531835556e-02 -9.060273878276348114e-03 -5.815376061946153641e-03 -3.298229130450636148e-04
4.741000000000000000e+03 7.658345031738281250e+01 -1.278398990631103516e+01 6.159507036209106445e-01 8.713131904602050781e+00 2.798724889755249023e+00 -4.518293738365173340e-01
4.742000000000000000e+03 7.656244659423828125e+01 -1.202912902832031250e+01 7.527815699577331543e-01 8.714676856994628906e+00 2.840237379074096680e+00 -2.188035845756530762e-01
4.743000000000000000e+03 3.874290466308593750e+00 -1.509551715850830078e+01 -1.299746800214052200e-02 -4.199932888150215149e-02 -1.649903878569602966e-02 -4.132888466119766235e-02
4.744000000000000000e+03 3.696351289749145508e+00 -1.620317077636718750e+01 -1.241591479629278183e-02 -5.262285843491554260e-02 -1.951163262128829956e-02 -4.707824811339378357e-02
4.745000000000000000e+03 1.294155979156494141e+01 -4.330014228820800781e+00 -5.787241738289594650e-03 -1.005227304995059967e-02 -4.751854576170444489e-03 -9.255550685338675976e-05
4.746000000000000000e+03 5.591295623779296875e+01 -2.280084848403930664e+00 7.715559750795364380e-02 4.364855587482452393e-02 3.624124825000762939e-02 -3.128860294818878174e-01
4.747000000000000000e+03 5.516576766967773438e+01 -1.507255315780639648e+00 -4.612620174884796143e-01 -3.537063300609588623e-01 -2.444905042648315430e-01 -5.495962500572204590e-01
4.748000000000000000e+03 1.750994920730590820e+00 1.544649505615234375e+01 -3.790428454522043467e-04 -1.889024861156940460e-02 -5.780787207186222076e-03 1.011300715617835522e-03
4.749000000000000000e+03 7.546190643310546875e+01 -1.485982990264892578e+01 2.898516356945037842e-01 9.182767868041992188e+00 2.841785907745361328e+00 -8.466668725013732910e-01
4.750000000000000000e+03 7.627746582031250000e+01 -1.494001007080078125e+01 2.331745326519012451e-01 8.894845962524414062e+00 2.738405942916870117e+00 -8.509265184402465820e-01
4.751000000000000000e+03 7.622126007080078125e+01 -2.609461593627929688e+01 1.329954992979764938e-02 7.410989761352539062e+00 2.227286815643310547e+00 5.578604936599731445e-01
4.752000000000000000e+03 7.534665679931640625e+01 -2.837170982360839844e+01 1.162896156311035156e-01 6.872940540313720703e+00 2.096769094467163086e+00 5.324258804321289062e-01
4.753000000000000000e+03 7.642818450927734375e+01 -3.705810070037841797e+00 -1.359548419713973999e-01 7.837309360504150391e+00 2.310406446456909180e+00 1.089195847511291504e+00
4.754000000000000000e+03 6.774135589599609375e+01 -1.921657472848892212e-03 -1.878635644912719727e+00 6.449374675750732422e+00 1.371221661567687988e+00 -7.236147522926330566e-01
4.755000000000000000e+03 4.467026710510253906e+00 1.316086864471435547e+01 1.925709191709756851e-03 -1.695368438959121704e-02 -4.508392885327339172e-03 3.638787893578410149e-03
4.756000000000000000e+03 3.214457273483276367e+00 1.394448184967041016e+01 5.414236220531165600e-04 -1.757611520588397980e-02 -5.110407248139381409e-03 2.368045737966895103e-03
4.757000000000000000e+03 7.508588409423828125e+01 -1.231935405731201172e+01 1.111573934555053711e+00 9.673175811767578125e+00 3.235424995422363281e+00 -3.076957464218139648e-01
4.758000000000000000e+03 4.745886230468750000e+01 2.057834815979003906e+01 -4.595533609390258789e-01 -2.278863787651062012e-01 -2.062319219112396240e-01 3.584722578525543213e-01
4.759000000000000000e+03 7.571132659912109375e+01 -1.746231079101562500e+01 -6.965815424919128418e-01 8.863292694091796875e+00 2.450013160705566406e+00 -4.435595571994781494e-01
4.760000000000000000e+03 7.622147369384765625e+01 -1.788065910339355469e+01 -6.478500366210937500e-01 8.765966415405273438e+00 2.435434818267822266e+00 -4.677217602729797363e-01
4.761000000000000000e+03 7.505764007568359375e+01 -6.630626201629638672e+00 3.022306263446807861e-01 8.273873329162597656e+00 2.572831153869628906e+00 8.390668034553527832e-01
4.762000000000000000e+03 5.107442855834960938e+01 1.704843878746032715e+00 -8.410388827323913574e-01 2.103331834077835083e-01 -1.892117112874984741e-01 8.311210572719573975e-02
4.763000000000000000e+03 6.019989395141601562e+01 -7.654557228088378906e+00 8.805428147315979004e-01 5.724969863891601562e+00 1.981653809547424316e+00 1.303563475608825684e+00
4.764000000000000000e+03 5.968718338012695312e+01 -8.424935340881347656e+00 5.187178850173950195e-01 5.078083515167236328e+00 1.679040431976318359e+00 1.387522101402282715e+00
4.765000000000000000e+03 5.620127105712890625e+01 -2.339473342895507812e+01 -4.112152159214019775e-01 2.861394405364990234e+00 7.350537180900573730e-01 5.884224772453308105e-01
4.766000000000000000e+03 1.942115426063537598e+00 -1.492233753204345703e+01 -4.359474405646324158e-03 -2.256348729133605957e-02 -8.076888509094715118e-03 -2.044340036809444427e-02
4.767000000000000000e+03 3.099153757095336914e+00 -1.366939449310302734e+01 -9.912143461406230927e-03 -2.251665852963924408e-02 -9.728640317916870117e-03 -2.527627907693386078e-02
4.768000000000000000e+03 4.881253051757812500e+01 2.047428703308105469e+01 -4.245139956474304199e-01 -2.521009445190429688e-01 -2.029844820499420166e-01 2.169373631477355957e-01
4.769000000000000000e+03 7.729916381835937500e+01 1.670405578613281250e+01 1.699706017971038818e-01 5.991991043090820312e+00 1.848588466644287109e+00 2.333880066871643066e-01
4.770000000000000000e+03 7.637207794189453125e+01 1.526887226104736328e+01 3.422675728797912598e-01 6.000206947326660156e+00 1.902742385864257812e+00 2.594877034425735474e-02
4.771000000000000000e+03 7.169811248779296875e+01 1.237692737579345703e+01 2.778311252593994141e+00 4.388821601867675781e+00 2.150139808654785156e+00 8.603496551513671875e-01
4.772000000000000000e+03 7.096959686279296875e+01 1.252595710754394531e+01 3.096018552780151367e+00 5.197410106658935547e+00 2.488028526306152344e+00 1.440441370010375977e+00
4.773000000000000000e+03 6.049959182739257812e+01 -1.875022315979003906e+01 -3.486649096012115479e-01 4.028859615325927734e+00 1.104058504104614258e+00 -3.051160573959350586e-01
4.774000000000000000e+03 6.034262466430664062e+01 -1.657986831665039062e+01 -5.466231107711791992e-01 4.348674774169921875e+00 1.140615463256835938e+00 2.548139393329620361e-01
4.775000000000000000e+03 5.944435119628906250e+01 -1.686186599731445312e+01 -1.747988164424896240e-01 4.355324268341064453e+00 1.254157543182373047e+00 3.393809497356414795e-01
4.776000000000000000e+03 6.037072753906250000e+01 -4.567861557006835938e+00 1.461047410964965820e+00 5.676742553710937500e+00 2.141336917877197266e+00 9.488022327423095703e-01
4.777000000000000000e+03 5.640172195434570312e+01 -2.714249134063720703e+00 3.398722112178802490e-01 4.589869678020477295e-01 2.396577447652816772e-01 -8.180188387632369995e-02
4.778000000000000000e+03 4.520448207855224609e+00 1.437867069244384766e+01 -1.073412830010056496e-03 -1.750838570296764374e-02 -5.574539769440889359e-03 3.928940743207931519e-03
4.779000000000000000e+03 3.809167146682739258e+00 1.606224441528320312e+01 -3.504566149786114693e-03 -1.922249421477317810e-02 -6.818118039518594742e-03 5.658027250319719315e-03
4.780000000000000000e+03 6.524818420410156250e+01 1.820285797119140625e+01 -8.707406520843505859e-01 6.818195819854736328e+00 1.784236550331115723e+00 -1.871259212493896484e+00
4.781000000000000000e+03 2.687758207321166992e+00 -1.529492950439453125e+01 -6.882807705551385880e-03 -3.461475297808647156e-02 -1.244926825165748596e-02 -3.030758537352085114e-02
4.782000000000000000e+03 1.764399337768554688e+01 1.934948158264160156e+01 -1.580849438905715942e-01 1.052693463861942291e-02 -4.426740109920501709e-02 1.083605661988258362e-01
4.783000000000000000e+03 3.556822204589843750e+01 1.534939408302307129e+00 -8.139023780822753906e-01 3.568487763404846191e-01 -1.371160894632339478e-01 9.049874544143676758e-02
4.784000000000000000e+03 1.203028106689453125e+01 -3.592943668365478516e+00 2.453431952744722366e-03 -8.222308009862899780e-03 -1.730662770569324493e-03 -7.411215920001268387e-04
4.785000000000000000e+03 5.924309539794921875e+01 -1.248338985443115234e+01 -6.356547474861145020e-01 4.866716384887695312e+00 1.269318580627441406e+00 1.420139193534851074e+00
4.786000000000000000e+03 5.960466003417968750e+01 -1.188884449005126953e+01 -6.030308008193969727e-01 5.016805648803710938e+00 1.324132442474365234e+00 1.479413390159606934e+00
4.787000000000000000e+03 5.498281097412109375e+01 -4.946864128112792969e+00 6.742349267005920410e-01 1.443563550710678101e-01 2.455773949623107910e-01 -1.195737645030021667e-01
4.788000000000000000e+03 4.567250442504882812e+01 -1.613646888732910156e+01 -5.954916477203369141e-01 4.991237819194793701e-01 -2.891035377979278564e-02 -9.902244806289672852e-02
4.789000000000000000e+03 4.442328643798828125e+01 -1.512982940673828125e+01 -4.994769394397735596e-01 3.403822481632232666e-01 -4.772841185331344604e-02 -1.771069616079330444e-01
4.790000000000000000e+03 5.033133697509765625e+01 6.504397392272949219e+00 -8.675085753202438354e-02 -2.451592497527599335e-02 -3.338003531098365784e-02 9.417130611836910248e-03
4.791000000000000000e+03 5.044064331054687500e+01 5.889085769653320312e+00 -1.256529092788696289e-01 -1.673834770917892456e-02 -4.271737486124038696e-02 2.336587198078632355e-02
4.792000000000000000e+03 1.592229461669921875e+01 1.796517562866210938e+01 -1.147154718637466431e-01 2.038869075477123260e-02 -2.829803526401519775e-02 6.097174808382987976e-02
4.793000000000000000e+03 2.799100494384765625e+01 1.871131134033203125e+01 -4.213205873966217041e-01 8.968127891421318054e-03 -1.237057372927665710e-01 2.055879086256027222e-01
4.794000000000000000e+03 4.489978027343750000e+01 -1.460645580291748047e+01 -3.630791008472442627e-01 3.731129169464111328e-01 3.010145854204893112e-03 -1.802477240562438965e-01
4.795000000000000000e+03 2.724425315856933594e+01 -1.234664154052734375e+01 -2.215500324964523315e-01 -4.538707435131072998e-01 -2.026262283325195312e-01 1.376035958528518677e-01
4.796000000000000000e+03 2.860153007507324219e+01 1.822112655639648438e+01 -4.332583844661712646e-01 1.592649705708026886e-02 -1.251995712518692017e-01 2.183085083961486816e-01
4.797000000000000000e+03 3.303495883941650391e+00 2.704240608215332031e+01 -2.776101930066943169e-03 -8.292643725872039795e-02 -2.571076154708862305e-02 3.316671773791313171e-02
4.798000000000000000e+03 2.106395959854125977e+00 2.677585601806640625e+01 -1.289924373850226402e-03 -8.090814203023910522e-02 -2.465941943228244781e-02 2.224183455109596252e-02
4.799000000000000000e+03 4.657805633544921875e+01 -1.606645584106445312e+01 -5.495823025703430176e-01 5.409908294677734375e-01 -2.577425213530659676e-03 -7.769328355789184570e-02
4.800000000000000000e+03 4.692251586914062500e+01 -1.540108680725097656e+01 -4.504324495792388916e-01 5.423804521560668945e-01 2.758441120386123657e-02 -9.051583707332611084e-02
4.801000000000000000e+03 2.734962844848632812e+01 -1.127329349517822266e+01 -3.053709566593170166e-01 -5.234567523002624512e-01 -2.486483156681060791e-01 1.397381722927093506e-01
4.802000000000000000e+03 7.515583801269531250e+01 2.059583854675292969e+01 -4.786347597837448120e-02 6.600593566894531250e+00 1.965819001197814941e+00 6.197366118431091309e-01
4.803000000000000000e+03 7.476042938232421875e+01 1.929808807373046875e+01 8.650745451450347900e-02 6.545402050018310547e+00 1.989572882652282715e+00 6.889871954917907715e-01
4.804000000000000000e+03 2.391999435424804688e+01 -5.061209201812744141e-01 -1.092086806893348694e-01 1.182754561305046082e-01 2.720033749938011169e-03 4.161630198359489441e-02
4.805000000000000000e+03 6.090745925903320312e+01 -7.431866526603698730e-01 -1.802802562713623047e+00 5.838005065917968750e+00 1.210560679435729980e+00 1.637569427490234375e+00
4.806000000000000000e+03 6.064441680908203125e+01 -2.352545261383056641e+00 -2.963531315326690674e-01 5.780326366424560547e+00 1.645192027091979980e+00 9.427450299263000488e-01
4.807000000000000000e+03 5.910396194458007812e+01 -8.616655349731445312e+00 3.554971814155578613e-01 4.571012973785400391e+00 1.477953076362609863e+00 1.342586159706115723e+00
4.808000000000000000e+03 4.185437011718750000e+01 -4.102447509765625000e+00 2.262602001428604126e-01 -3.431669771671295166e-01 -3.507203236222267151e-02 9.810260683298110962e-02
4.809000000000000000e+03 5.237438583374023438e+01 -1.149232983589172363e+00 -7.025729417800903320e-01 -2.012922614812850952e-02 -2.168106585741043091e-01 -3.992802500724792480e-01
4.810000000000000000e+03 5.254736709594726562e+01 -2.424226760864257812e+00 -1.784889549016952515e-01 -2.331083863973617554e-01 -1.234792023897171021e-01 -3.882795572280883789e-01
4.811000000000000000e+03 3.222428512573242188e+01 -1.651991271972656250e+01 -3.604141771793365479e-01 2.636805176734924316e-01 -2.902009524405002594e-02 -5.420503672212362289e-03
4.812000000000000000e+03 3.168256187438964844e+01 -1.462829875946044922e+01 -2.684857547283172607e-01 2.884145081043243408e-01 5.978621542453765869e-03 6.969308853149414062e-02
4.813000000000000000e+03 4.336790084838867188e+01 1.725528526306152344e+01 -1.082685232162475586e+00 2.090949863195419312e-01 -2.620770633220672607e-01 2.817037403583526611e-01
4.814000000000000000e+03 4.318391799926757812e+01 1.657686233520507812e+01 -1.122204780578613281e+00 2.128700911998748779e-01 -2.728004157543182373e-01 1.821831315755844116e-01
4.815000000000000000e+03 6.895553588867187500e+01 1.577635765075683594e+01 3.185543715953826904e-01 9.026632308959960938e+00 2.803555965423583984e+00 1.561795473098754883e+00
4.816000000000000000e+03 4.073023986816406250e+01 -4.151177406311035156e+00 2.803731858730316162e-01 -5.048611760139465332e-01 -6.734640151262283325e-02 -3.341064602136611938e-02
4.817000000000000000e+03 3.442439794540405273e+00 2.805246734619140625e+01 -2.123912330716848373e-03 -9.121702611446380615e-02 -2.800228260457515717e-02 3.673689067363739014e-02
4.818000000000000000e+03 4.589582920074462891e+00 2.817369079589843750e+01 -3.029547631740570068e-03 -9.111001342535018921e-02 -2.824186719954013824e-02 4.667672514915466309e-02
4.819000000000000000e+03 2.881970787048339844e+01 -1.069290065765380859e+01 -3.070012629032135010e-01 -7.028580456972122192e-02 -1.131861209869384766e-01 9.709573537111282349e-02
4.820000000000000000e+03 4.169999694824218750e+01 -2.013166809082031250e+01 -3.664761483669281006e-01 -1.802457310259342194e-02 -1.153502166271209717e-01 -6.940379738807678223e-02
4.821000000000000000e+03 2.823497962951660156e+01 -9.135085105895996094e+00 -4.061808586120605469e-01 -2.762456536293029785e-01 -2.047279477119445801e-01 -1.509980857372283936e-01
4.822000000000000000e+03 4.473709487915039062e+01 -1.804876136779785156e+01 -6.565631031990051270e-01 4.211622476577758789e-01 -7.062026113271713257e-02 -3.403503820300102234e-02
4.823000000000000000e+03 6.732189178466796875e+01 -1.985316658020019531e+01 -2.010575532913208008e-01 2.244685173034667969e+00 6.130883097648620605e-01 -1.989607214927673340e-01
4.824000000000000000e+03 3.531563568115234375e+01 1.785722541809082031e+01 -5.652019977569580078e-01 -1.045727208256721497e-01 -2.009324282407760620e-01 2.015819847583770752e-01
4.825000000000000000e+03 3.543749237060546875e+01 1.696378135681152344e+01 -6.457331776618957520e-01 -1.378359496593475342e-01 -2.350707352161407471e-01 1.603501290082931519e-01
4.826000000000000000e+03 4.886486816406250000e+01 3.367607116699218750e+00 -5.214437246322631836e-01 1.471307277679443359e-01 -1.122938990592956543e-01 -2.021143957972526550e-02
4.827000000000000000e+03 2.731100463867187500e+01 1.916052055358886719e+01 -3.788664042949676514e-01 -2.505158446729183197e-02 -1.211754009127616882e-01 1.857350170612335205e-01
4.828000000000000000e+03 6.215544891357421875e+01 -1.297147464752197266e+01 -1.042448997497558594e+00 5.194395065307617188e+00 1.245583891868591309e+00 6.863926053047180176e-01
4.829000000000000000e+03 4.652302169799804688e+01 2.797203063964843750e+00 -6.704038977622985840e-01 1.329153478145599365e-01 -1.612465679645538330e-01 -1.955164521932601929e-01
4.830000000000000000e+03 5.395508193969726562e+01 -2.351863670349121094e+01 -8.937111496925354004e-02 1.647904157638549805e+00 4.675599336624145508e-01 5.826190710067749023e-01
4.831000000000000000e+03 5.460504913330078125e+01 -2.467296791076660156e+01 -4.828067496418952942e-02 2.030047178268432617e+00 5.945299267768859863e-01 5.143538117408752441e-01
4.832000000000000000e+03 5.570789337158203125e+01 -5.541897773742675781e+00 7.451303005218505859e-01 6.616132855415344238e-01 4.220230877399444580e-01 8.257941901683807373e-02
4.833000000000000000e+03 1.077325344085693359e+01 1.460994911193847656e+01 -1.812114194035530090e-02 7.390089333057403564e-03 -3.219316015020012856e-03 1.259298902004957199e-02
4.834000000000000000e+03 1.477255535125732422e+01 -7.445252418518066406e+00 -7.130797207355499268e-02 -2.931140363216400146e-03 -2.227173373103141785e-02 -7.923788391053676605e-03
4.835000000000000000e+03 4.962972164154052734e+00 -2.388623237609863281e+01 -2.221541246399283409e-03 -1.667435616254806519e-01 -5.068952962756156921e-02 -9.546459466218948364e-02
4.836000000000000000e+03 1.445509529113769531e+01 1.610688018798828125e+01 -5.991089344024658203e-02 2.135049551725387573e-02 -1.156811974942684174e-02 2.726549096405506134e-02
4.837000000000000000e+03 1.287433528900146484e+01 1.578576850891113281e+01 -4.486213997006416321e-02 1.568679697811603546e-02 -8.752603083848953247e-03 2.103619277477264404e-02
4.838000000000000000e+03 1.351366043090820312e+01 1.566932392120361328e+01 -4.387440159916877747e-02 1.877940073609352112e-02 -7.528500631451606750e-03 2.230227366089820862e-02
4.839000000000000000e+03 4.921071243286132812e+01 -2.114896011352539062e+01 -3.376352488994598389e-01 6.168718934059143066e-01 8.377098292112350464e-02 -6.164391711354255676e-02
4.840000000000000000e+03 6.900047302246093750e+01 1.200609207153320312e+01 3.442186117172241211e+00 9.574686050415039062e+00 3.905061483383178711e+00 2.286017417907714844e+00
4.841000000000000000e+03 8.156299591064453125e+00 -6.056197643280029297e+00 -1.814054325222969055e-02 -8.226484991610050201e-03 -7.910109125077724457e-03 1.977118896320462227e-03
4.842000000000000000e+03 5.778053283691406250e+01 -6.980238914489746094e+00 7.622393369674682617e-01 2.822134017944335938e+00 1.075312018394470215e+00 8.066421151161193848e-01
4.843000000000000000e+03 1.817271232604980469e+01 -1.062474250793457031e+01 -3.003400564193725586e-01 2.238224260509014130e-02 -8.338733762502670288e-02 -8.061894029378890991e-02
4.844000000000000000e+03 1.783689308166503906e+01 -9.834365844726562500e+00 -2.263144105672836304e-01 1.512667629867792130e-02 -6.335631757974624634e-02 -4.596975073218345642e-02
4.845000000000000000e+03 7.470386505126953125e+01 -1.774032592773437500e+01 -1.163517832756042480e+00 8.782905578613281250e+00 2.285816431045532227e+00 -6.117707118391990662e-02
4.846000000000000000e+03 7.520787811279296875e+01 -9.347551345825195312e+00 1.071159362792968750e+00 9.116599082946777344e+00 3.056327581405639648e+00 4.299271404743194580e-01
4.847000000000000000e+03 7.537109375000000000e+01 -1.024991035461425781e+01 1.154283404350280762e+00 9.174748420715332031e+00 3.098709583282470703e+00 2.097733020782470703e-01
4.848000000000000000e+03 7.589851379394531250e+01 1.345218372344970703e+01 3.043960034847259521e-01 6.153932571411132812e+00 1.937498569488525391e+00 -5.797449350357055664e-01
4.849000000000000000e+03 7.521664428710937500e+01 1.315137004852294922e+01 5.658908486366271973e-01 5.953293800354003906e+00 1.955755472183227539e+00 -8.128080964088439941e-01
4.850000000000000000e+03 4.131144714355468750e+01 -5.282886981964111328e+00 4.562553763389587402e-01 -2.835773825645446777e-01 5.180339887738227844e-02 -1.125121489167213440e-02
4.851000000000000000e+03 6.926804351806640625e+01 1.334999275207519531e+01 2.776449203491210938e+00 8.714989662170410156e+00 3.447431802749633789e+00 2.633687019348144531e+00
4.852000000000000000e+03 6.539133453369140625e+01 -1.801782989501953125e+01 -1.040570974349975586e+00 2.677571296691894531e+00 4.911001026630401611e-01 -7.308790683746337891e-01
4.853000000000000000e+03 2.170841598510742188e+01 2.144565391540527344e+01 -1.817341148853302002e-01 -8.330404013395309448e-02 -7.951144874095916748e-02 2.035786509513854980e-01
4.854000000000000000e+03 2.040774345397949219e+01 1.910427474975585938e+01 -2.405631393194198608e-01 -1.342607568949460983e-02 -7.619676738977432251e-02 1.451290249824523926e-01
4.855000000000000000e+03 3.699991607666015625e+01 -1.849311828613281250e+01 -5.831549763679504395e-01 1.384654641151428223e-01 -1.334068477153778076e-01 -3.068992495536804199e-01
4.856000000000000000e+03 2.593241500854492188e+01 2.174584197998046875e+01 -2.229110300540924072e-01 -9.368456155061721802e-02 -9.497867524623870850e-02 2.111037522554397583e-01
4.857000000000000000e+03 2.444043540954589844e+01 2.020434570312500000e+01 -2.692904472351074219e-01 -1.285587102174758911e-01 -1.193547472357749939e-01 1.799427568912506104e-01
4.858000000000000000e+03 6.947225189208984375e+01 1.487121868133544922e+01 1.378555774688720703e+00 8.647377014160156250e+00 3.007779836654663086e+00 2.221148490905761719e+00
4.859000000000000000e+03 3.137774085998535156e+01 -1.341625690460205078e+01 -2.260017246007919312e-01 3.204727172851562500e-01 2.834129519760608673e-02 8.574583381414413452e-02
4.860000000000000000e+03 2.969375991821289062e+01 -1.313582706451416016e+01 -2.217340916395187378e-01 6.055799499154090881e-02 -4.835283011198043823e-02 1.476019918918609619e-01
4.861000000000000000e+03 2.396191787719726562e+01 -1.274922275543212891e+01 -2.695268392562866211e-01 -5.853234529495239258e-01 -2.564550936222076416e-01 -3.306094706058502197e-01
4.862000000000000000e+03 5.173323440551757812e+01 -4.167451560497283936e-01 -8.873358964920043945e-01 1.410126090049743652e-01 -2.238969802856445312e-01 -2.458740621805191040e-01
4.863000000000000000e+03 1.679055023193359375e+01 -9.443117141723632812e+00 -1.739172488451004028e-01 9.898908436298370361e-03 -4.920550063252449036e-02 -3.243933245539665222e-02
4.864000000000000000e+03 4.036215972900390625e+01 1.585949993133544922e+01 -8.729413151741027832e-01 2.023079693317413330e-01 -2.011900097131729126e-01 1.105993092060089111e-01
4.865000000000000000e+03 4.931932067871093750e+01 2.686216831207275391e-01 -7.463937997817993164e-01 2.632561028003692627e-01 -1.449413150548934937e-01 -1.930327899754047394e-02
4.866000000000000000e+03 2.304678916931152344e+01 -1.431970977783203125e+01 -1.908110678195953369e-01 -3.917126357555389404e-01 -1.747571080923080444e-01 -2.943091392517089844e-01
4.867000000000000000e+03 1.470527362823486328e+01 -8.307862281799316406e+00 -9.595452994108200073e-02 -1.114125043386593461e-04 -2.881978265941143036e-02 -7.239057216793298721e-03
4.868000000000000000e+03 5.071707916259765625e+01 5.406894683837890625e+00 -1.757127195596694946e-01 -2.197190560400485992e-02 -5.930538848042488098e-02 3.262826427817344666e-02
4.869000000000000000e+03 6.089885330200195312e+01 -1.106586551666259766e+01 -4.465600550174713135e-01 5.797016620635986328e+00 1.605136990547180176e+00 1.294043660163879395e+00
4.870000000000000000e+03 4.415895843505859375e+01 1.799400520324707031e+01 -1.078081011772155762e+00 1.218475922942161560e-01 -2.868700325489044189e-01 3.887125551700592041e-01
4.871000000000000000e+03 3.319685745239257812e+01 2.799440860748291016e+00 -3.170368075370788574e-01 -9.221304953098297119e-02 -1.227749511599540710e-01 -3.603429794311523438e-01
4.872000000000000000e+03 6.062620925903320312e+01 -1.512897491455078125e+01 -7.506741881370544434e-01 4.627523422241210938e+00 1.163054823875427246e+00 6.994508504867553711e-01
4.873000000000000000e+03 7.109061431884765625e+01 -2.655453920364379883e+00 -2.353317499160766602e+00 5.566238403320312500e+00 9.638761878013610840e-01 -2.779857873916625977e+00
4.874000000000000000e+03 4.030188751220703125e+01 -5.857612609863281250e+00 5.410897135734558105e-01 -2.389101386070251465e-01 9.065386652946472168e-02 -2.318328619003295898e-01
4.875000000000000000e+03 6.300981521606445312e+01 -1.248325109481811523e-01 -2.568288803100585938e+00 6.969505310058593750e+00 1.320365071296691895e+00 4.044421672821044922e+00
4.876000000000000000e+03 6.263436508178710938e+01 -8.367270231246948242e-01 -3.208678960800170898e+00 8.454125404357910156e+00 1.573633909225463867e+00 3.150739192962646484e+00
4.877000000000000000e+03 2.844256877899169922e+00 -6.582590103149414062e+00 -2.913731150329113007e-03 5.936679430305957794e-03 9.068845538422465324e-04 6.076477933675050735e-03
4.878000000000000000e+03 5.102356910705566406e+00 2.746659851074218750e+01 -5.423519294708967209e-03 -8.425555378198623657e-02 -2.690372243523597717e-02 5.007638782262802124e-02
4.879000000000000000e+03 5.931133747100830078e+00 2.789132499694824219e+01 -5.009423010051250458e-03 -8.723954111337661743e-02 -2.767468988895416260e-02 5.732372775673866272e-02
4.880000000000000000e+03 7.435640716552734375e+01 -2.871516227722167969e+01 1.607859879732131958e-01 6.476552963256835938e+00 1.991201639175415039e+00 5.687550902366638184e-01
4.881000000000000000e+03 7.399140167236328125e+01 -2.764295387268066406e+01 1.557426601648330688e-01 6.370123386383056641e+00 1.957759857177734375e+00 6.370499134063720703e-01
4.882000000000000000e+03 6.460291290283203125e+01 -1.650521278381347656e+01 -1.387794733047485352e+00 3.196587324142456055e+00 5.426377654075622559e-01 -5.301377177238464355e-01
4.883000000000000000e+03 1.487055683135986328e+01 1.683364868164062500e+01 -8.144935220479965210e-02 2.182532288134098053e-02 -1.788721047341823578e-02 3.569388017058372498e-02
4.884000000000000000e+03 7.629930877685546875e+01 -1.585051918029785156e+01 -1.400279998779296875e-01 8.904235839843750000e+00 2.629262208938598633e+00 -8.825637102127075195e-01
4.885000000000000000e+03 2.441977691650390625e+01 2.182202720642089844e+01 -1.897001117467880249e-01 -1.143833771347999573e-01 -9.122505038976669312e-02 2.106761187314987183e-01
4.886000000000000000e+03 4.213557434082031250e+01 1.630406188964843750e+01 -9.858576059341430664e-01 2.414986193180084229e-01 -2.233076989650726318e-01 1.547761261463165283e-01
4.887000000000000000e+03 7.625537872314453125e+01 -2.687702178955078125e+01 5.938483029603958130e-02 7.330375671386718750e+00 2.216928243637084961e+00 5.241698026657104492e-01
4.888000000000000000e+03 3.406888580322265625e+01 -1.684049224853515625e+01 -4.108025133609771729e-01 3.012021780014038086e-01 -3.288010507822036743e-02 -7.891196012496948242e-02
4.889000000000000000e+03 5.058366394042968750e+01 4.489737510681152344e+00 -3.193352818489074707e-01 1.719095557928085327e-02 -9.064330160617828369e-02 7.232307642698287964e-02
4.890000000000000000e+03 5.114406204223632812e+01 4.919758319854736328e+00 -2.009767740964889526e-01 -2.910371124744415283e-02 -6.902414560317993164e-02 7.660324126482009888e-02
4.891000000000000000e+03 5.693029022216796875e+01 -3.047476768493652344e+00 4.728304445743560791e-01 8.986181616783142090e-01 4.114345908164978027e-01 5.537764728069305420e-02
4.892000000000000000e+03 5.829985046386718750e+01 -2.695646286010742188e+00 3.209021091461181641e-01 2.308992385864257812e+00 7.889683842658996582e-01 4.537895023822784424e-01
4.893000000000000000e+03 9.748446464538574219e+00 1.238971519470214844e+01 4.203991498798131943e-03 5.995537154376506805e-03 3.059858456254005432e-03 7.348780054599046707e-03
4.894000000000000000e+03 7.619289398193359375e+01 -1.692572021484375000e+01 -5.475780963897705078e-01 8.910186767578125000e+00 2.508782625198364258e+00 -7.279075980186462402e-01
4.895000000000000000e+03 4.404584503173828125e+01 -1.638459014892578125e+01 -6.986978054046630859e-01 3.479735851287841797e-01 -1.052172631025314331e-01 -1.013831719756126404e-01
4.896000000000000000e+03 4.510763168334960938e+01 -1.634920883178710938e+01 -6.515370607376098633e-01 4.755713939666748047e-01 -5.278969183564186096e-02 -8.350653946399688721e-02
4.897000000000000000e+03 3.846476554870605469e+00 1.995004463195800781e+01 -7.606016471982002258e-03 -3.321160376071929932e-02 -1.224528625607490540e-02 1.711262762546539307e-02
4.898000000000000000e+03 4.977803421020507812e+01 3.170708179473876953e+00 -5.521194934844970703e-01 1.448470503091812134e-01 -1.221817359328269958e-01 4.458240419626235962e-02
4.899000000000000000e+03 5.241132736206054688e+01 -1.836905121803283691e+00 -4.136765003204345703e-01 -1.309951394796371460e-01 -1.634014844894409180e-01 -4.130766987800598145e-01
4.900000000000000000e+03 5.000241088867187500e+01 4.118844032287597656e+00 -3.727167248725891113e-01 5.727497488260269165e-02 -9.463252127170562744e-02 5.924819037318229675e-02
4.901000000000000000e+03 5.069547653198242188e+01 2.953402280807495117e+00 -5.944725275039672852e-01 1.299536675214767456e-01 -1.393556594848632812e-01 1.073397621512413025e-01
4.902000000000000000e+03 7.621912384033203125e+01 1.277469062805175781e+01 -1.759736333042383194e-03 6.520900726318359375e+00 1.955742239952087402e+00 -6.788473129272460938e-01
4.903000000000000000e+03 2.900687408447265625e+01 -1.146988201141357422e+01 -2.680892348289489746e-01 -2.572328597307205200e-02 -8.814375847578048706e-02 1.576336771249771118e-01
4.904000000000000000e+03 7.623175048828125000e+01 -2.111240196228027344e+01 -4.435174763202667236e-01 8.116932868957519531e+00 2.302024602890014648e+00 3.399160504341125488e-01
4.905000000000000000e+03 3.476828575134277344e+00 -9.962889671325683594e+00 -9.377971291542053223e-03 -4.174655769020318985e-03 -4.065787885338068008e-03 -6.993790157139301300e-03
4.906000000000000000e+03 3.285535049438476562e+01 -1.703691864013671875e+01 -3.622114956378936768e-01 2.641384899616241455e-01 -2.942189760506153107e-02 -4.771047085523605347e-02
4.907000000000000000e+03 7.639562988281250000e+01 1.441996574401855469e+01 2.803615331649780273e-01 6.076927185058593750e+00 1.907186627388000488e+00 -1.893709599971771240e-01
4.908000000000000000e+03 4.652987480163574219e+00 1.799641799926757812e+01 -8.979122154414653778e-03 -2.493475191295146942e-02 -1.017416268587112427e-02 1.259764563292264938e-02
4.909000000000000000e+03 6.989802551269531250e+01 1.165141296386718750e+01 3.083214282989501953e+00 7.006728649139404297e+00 3.026982784271240234e+00 1.834431409835815430e+00
4.910000000000000000e+03 2.001410484313964844e+01 -1.146735095977783203e+01 -3.798075914382934570e-01 -4.444686323404312134e-02 -1.272763311862945557e-01 -2.088307291269302368e-01
4.911000000000000000e+03 7.103561401367187500e+01 -1.969910049438476562e+01 -6.007555127143859863e-01 4.481012344360351562e+00 1.164077043533325195e+00 1.653911828994750977e+00
4.912000000000000000e+03 6.257143783569335938e+01 1.849705505371093750e+01 9.594744769856333733e-04 3.495139360427856445e+00 1.048829674720764160e+00 -2.027443647384643555e+00
4.913000000000000000e+03 7.950132846832275391e+00 -2.575894737243652344e+01 6.030929274857044220e-03 -1.860740929841995239e-01 -5.401295050978660583e-02 -1.341763436794281006e-01
4.914000000000000000e+03 7.388665008544921875e+01 2.373704910278320312e+01 -2.706484198570251465e-01 6.684687137603759766e+00 1.924211621284484863e+00 4.156326651573181152e-01
4.915000000000000000e+03 7.458738708496093750e+01 2.463840675354003906e+01 -2.381955981254577637e-01 6.678220748901367188e+00 1.932007551193237305e+00 3.715697228908538818e-01
4.916000000000000000e+03 5.937112808227539062e+00 -2.390704536437988281e+01 -3.927003126591444016e-03 -1.649928241968154907e-01 -5.067594721913337708e-02 -1.104418635368347168e-01
4.917000000000000000e+03 6.149302005767822266e+00 -5.565773010253906250e+00 -9.409093298017978668e-03 -3.996672108769416809e-03 -4.021729808300733566e-03 5.309292580932378769e-03
4.918000000000000000e+03 6.399750137329101562e+01 1.025038003921508789e+00 -8.166858553886413574e-01 5.759397029876708984e+00 1.482813358306884766e+00 3.955689191818237305e+00
4.919000000000000000e+03 2.789847183227539062e+01 -1.301114678382873535e+00 -6.952997446060180664e-01 -3.153963387012481689e-02 -2.180518209934234619e-01 -5.398564338684082031e-01
4.920000000000000000e+03 6.227394485473632812e+01 2.649582624435424805e-01 -2.320094823837280273e+00 6.807075500488281250e+00 1.346094250679016113e+00 3.178761482238769531e+00
4.921000000000000000e+03 7.532421875000000000e+01 1.815736579895019531e+01 2.365452945232391357e-01 6.338629722595214844e+00 1.972552537918090820e+00 5.931010246276855469e-01
4.922000000000000000e+03 7.534795379638671875e+01 1.972725677490234375e+01 2.342341095209121704e-02 6.518033504486083984e+00 1.962437033653259277e+00 6.374745368957519531e-01
4.923000000000000000e+03 7.257881164550781250e+01 1.382195472717285156e+01 2.124051332473754883e+00 5.220590591430664062e+00 2.203392505645751953e+00 5.057476758956909180e-01
4.924000000000000000e+03 1.368609905242919922e+01 1.647847557067871094e+01 -6.103761866688728333e-02 1.732700876891613007e-02 -1.311318296939134598e-02 2.886312641203403473e-02
4.925000000000000000e+03 4.818404006958007812e+01 -1.790488815307617188e+01 -6.958222389221191406e-01 5.841336846351623535e-01 -3.350656107068061829e-02 -3.480399399995803833e-02
4.926000000000000000e+03 3.083707809448242188e+01 -1.312499618530273438e+01 -2.266826331615447998e-01 2.537443339824676514e-01 8.118510246276855469e-03 1.077250838279724121e-01
4.927000000000000000e+03 8.446334838867187500e+00 1.279247665405273438e+01 2.421510871499776840e-03 -4.012846387922763824e-03 -4.774006374645978212e-04 5.272916052490472794e-03
4.928000000000000000e+03 6.037083816528320312e+01 -1.442364978790283203e+01 -7.721500396728515625e-01 4.779672622680664062e+00 1.202256679534912109e+00 9.154062867164611816e-01
4.929000000000000000e+03 4.923292160034179688e+01 2.794271230697631836e+00 -6.451672911643981934e-01 1.898716390132904053e-01 -1.365886926651000977e-01 1.627201773226261139e-02
4.930000000000000000e+03 4.598031616210937500e+01 1.953146362304687500e+01 -7.792078852653503418e-01 -1.900600045919418335e-01 -2.907803654670715332e-01 5.028793811798095703e-01
4.931000000000000000e+03 4.506297683715820312e+01 1.881048393249511719e+01 -9.516344070434570312e-01 -3.109981305897235870e-02 -2.948202788829803467e-01 4.945537745952606201e-01
4.932000000000000000e+03 7.389512634277343750e+01 -4.381515979766845703e+00 -4.788996875286102295e-01 6.629867553710937500e+00 1.845290303230285645e+00 -2.569501399993896484e-01
4.933000000000000000e+03 2.275115585327148438e+01 2.200212287902832031e+01 -1.702879667282104492e-01 -1.012270525097846985e-01 -8.145450800657272339e-02 2.135894447565078735e-01
4.934000000000000000e+03 3.885804748535156250e+01 1.601340484619140625e+01 -8.182335495948791504e-01 1.482341736555099487e-01 -2.009998112916946411e-01 1.131838858127593994e-01
4.935000000000000000e+03 1.020497417449951172e+01 -5.880620002746582031e+00 -2.458562329411506653e-02 -9.515671059489250183e-03 -1.023038849234580994e-02 2.779124479275196791e-04
4.936000000000000000e+03 6.584284210205078125e+01 1.862153053283691406e+00 9.028841257095336914e-01 6.528607368469238281e+00 2.229447364807128906e+00 2.319097518920898438e+00
4.937000000000000000e+03 7.229232025146484375e+01 -2.262905120849609375e+00 -1.394563317298889160e+00 4.860639572143554688e+00 1.039822816848754883e+00 -2.664849042892456055e+00
4.938000000000000000e+03 3.052639198303222656e+01 -1.360761547088623047e+01 -2.334863841533660889e-01 1.893587708473205566e-01 -1.323828380554914474e-02 1.266334652900695801e-01
4.939000000000000000e+03 4.761535644531250000e+00 9.992140769958496094e+00 6.415716372430324554e-03 -1.566739752888679504e-02 -2.775504486635327339e-03 9.921026416122913361e-03
4.940000000000000000e+03 4.334244537353515625e+01 1.799624061584472656e+01 -1.024911403656005859e+00 1.415747553110122681e-01 -2.650009691715240479e-01 3.581235110759735107e-01
4.941000000000000000e+03 4.878839111328125000e+01 3.147277235984802246e-02 -7.318398356437683105e-01 2.572624087333679199e-01 -1.423732340335845947e-01 -8.135825395584106445e-03
4.942000000000000000e+03 4.380238056182861328e+00 -7.139951705932617188e+00 -8.414397947490215302e-03 -1.566677703522145748e-03 -2.994322683662176132e-03 2.181674586609005928e-03
4.943000000000000000e+03 7.502960205078125000e+01 -7.767194271087646484e+00 7.297386527061462402e-01 8.757485389709472656e+00 2.846167325973510742e+00 7.596415281295776367e-01
4.944000000000000000e+03 7.460655975341796875e+01 -3.046110153198242188e+00 -4.088715612888336182e-01 5.832077980041503906e+00 1.626961946487426758e+00 9.392696432769298553e-03
4.945000000000000000e+03 3.444770097732543945e+00 1.075722599029541016e+01 3.354751504957675934e-03 -1.496376190334558487e-02 -3.482703119516372681e-03 5.864154547452926636e-03
4.946000000000000000e+03 5.502347946166992188e+00 1.163289928436279297e+01 7.388730999082326889e-03 -1.333258207887411118e-02 -1.783155486918985844e-03 5.066244397312402725e-03
4.947000000000000000e+03 7.530728912353515625e+01 -2.034024238586425781e+01 -7.392238974571228027e-01 7.886224269866943359e+00 2.144100189208984375e+00 4.792453944683074951e-01
4.948000000000000000e+03 5.950072479248046875e+01 -3.418529033660888672e+00 8.370836377143859863e-01 4.054155826568603516e+00 1.467371821403503418e+00 6.274435520172119141e-01
4.949000000000000000e+03 4.990427494049072266e+00 1.069657802581787109e+01 7.450015284121036530e-03 -1.314431801438331604e-02 -1.708290888927876949e-03 6.740078330039978027e-03
4.950000000000000000e+03 5.034738540649414062e+01 2.115580797195434570e+00 -7.295348644256591797e-01 2.100265622138977051e-01 -1.558524817228317261e-01 6.095463037490844727e-02
4.951000000000000000e+03 5.041812515258789062e+01 1.582454323768615723e+00 -7.875183224678039551e-01 2.255181819200515747e-01 -1.686000525951385498e-01 4.265391081571578979e-02
4.952000000000000000e+03 7.522302246093750000e+01 -1.878978919982910156e+01 -1.010894179344177246e+00 8.463967323303222656e+00 2.235921859741210938e+00 1.285896003246307373e-01
4.953000000000000000e+03 3.931802988052368164e+00 1.258325481414794922e+01 2.784047042950987816e-03 -1.456982828676700592e-02 -3.535734489560127258e-03 3.538371995091438293e-03
4.954000000000000000e+03 5.131146907806396484e+00 1.375444507598876953e+01 4.693214432336390018e-04 -1.433891057968139648e-02 -4.160876851528882980e-03 4.730132408440113068e-03
4.955000000000000000e+03 5.147813796997070312e+00 1.727321243286132812e+01 -9.318847209215164185e-03 -2.169707790017127991e-02 -9.304777719080448151e-03 1.173822768032550812e-02
4.956000000000000000e+03 5.855728530883789062e+01 -8.877262115478515625e+00 2.109988778829574585e-01 4.032522201538085938e+00 1.273056387901306152e+00 1.288353681564331055e+00
4.957000000000000000e+03 5.601637268066406250e+01 1.738273620605468750e+01 -6.832863092422485352e-01 7.141333818435668945e-01 9.254127740859985352e-03 -1.073513999581336975e-01
4.958000000000000000e+03 5.699949264526367188e+01 -6.342219352722167969e+00 7.828492522239685059e-01 1.901545763015747070e+00 8.053185343742370605e-01 4.691983461380004883e-01
4.959000000000000000e+03 5.627943420410156250e+01 -6.342860221862792969e+00 7.105962038040161133e-01 1.242158532142639160e+00 5.858263969421386719e-01 3.183536529541015625e-01
4.960000000000000000e+03 4.024064254760742188e+01 -2.120793914794921875e+01 -2.351593077182769775e-01 -6.192720308899879456e-02 -8.912595361471176147e-02 -2.296657860279083252e-01
4.961000000000000000e+03 4.362393856048583984e+00 -1.237223720550537109e+01 -1.662394404411315918e-02 -2.161195129156112671e-02 -1.147076860070228577e-02 -2.684333175420761108e-02
4.962000000000000000e+03 5.997384262084960938e+01 -1.131680011749267578e+01 -4.988890886306762695e-01 5.238296985626220703e+00 1.421822428703308105e+00 1.487528920173645020e+00
4.963000000000000000e+03 5.948259735107421875e+01 -2.411325693130493164e+00 6.105054169893264771e-02 3.865286827087402344e+00 1.177901268005371094e+00 7.205424308776855469e-01
4.964000000000000000e+03 6.007822036743164062e+01 -2.913317203521728516e+00 2.570089995861053467e-01 5.103961467742919922e+00 1.608291149139404297e+00 7.023610472679138184e-01
4.965000000000000000e+03 5.284102630615234375e+01 1.867784690856933594e+01 -7.898730039596557617e-01 3.164069056510925293e-01 -1.420398205518722534e-01 -1.582318246364593506e-01
4.966000000000000000e+03 1.074075126647949219e+01 1.348327636718750000e+01 -6.107905413955450058e-03 9.559534490108489990e-03 1.035488676279783249e-03 9.864397346973419189e-03
4.967000000000000000e+03 6.823367309570312500e+01 1.196477222442626953e+01 4.255105018615722656e+00 1.093581485748291016e+01 4.557275772094726562e+00 1.923676967620849609e+00
4.968000000000000000e+03 1.632240295410156250e+01 1.940795326232910156e+01 -1.279534548521041870e-01 1.034632790833711624e-02 -3.528213873505592346e-02 9.214283525943756104e-02
4.969000000000000000e+03 1.589800071716308594e+01 1.872892379760742188e+01 -1.209721192717552185e-01 1.788451895117759705e-02 -3.092627972364425659e-02 7.201676070690155029e-02
4.970000000000000000e+03 7.563025665283203125e+01 -6.449067592620849609e+00 2.063332349061965942e-01 8.282911300659179688e+00 2.546773433685302734e+00 9.898413419723510742e-01
4.971000000000000000e+03 5.749922943115234375e+01 -2.741750717163085938e+00 3.940446078777313232e-01 1.385468363761901855e+00 5.338538885116577148e-01 1.928467154502868652e-01
4.972000000000000000e+03 7.435966491699218750e+01 -2.549250602722167969e+01 5.041583254933357239e-02 6.590476036071777344e+00 1.992267608642578125e+00 7.185908555984497070e-01
4.973000000000000000e+03 3.702245712280273438e+01 1.773629379272460938e+01 -6.535112857818603516e-01 -7.350035477429628372e-03 -1.982583850622177124e-01 1.564326137304306030e-01
4.974000000000000000e+03 2.775460433959960938e+01 1.296239972114562988e+00 -2.935232222080230713e-01 2.274916619062423706e-01 -1.980946771800518036e-02 1.698372215032577515e-01
4.975000000000000000e+03 5.997947692871093750e+01 -1.541097354888916016e+01 -5.323123335838317871e-01 4.589497566223144531e+00 1.217155575752258301e+00 6.917353272438049316e-01
4.976000000000000000e+03 5.180121231079101562e+01 2.780414521694183350e-01 -1.003660678863525391e+00 2.007521241903305054e-01 -2.408725768327713013e-01 -1.039557382464408875e-01
4.977000000000000000e+03 5.046656799316406250e+01 9.738572239875793457e-01 -8.056784868240356445e-01 2.382109314203262329e-01 -1.702402681112289429e-01 1.185395289212465286e-02
4.978000000000000000e+03 1.456320762634277344e+01 1.823390388488769531e+01 -9.368307143449783325e-02 1.580614037811756134e-02 -2.336307987570762634e-02 5.545100942254066467e-02
4.979000000000000000e+03 4.200127410888671875e+01 1.713022232055664062e+01 -9.531904458999633789e-01 2.173312008380889893e-01 -2.207577824592590332e-01 2.126849591732025146e-01
4.980000000000000000e+03 2.068228149414062500e+01 2.111610412597656250e+01 -1.842955797910690308e-01 -5.488466843962669373e-02 -7.175407558679580688e-02 1.919482946395874023e-01
4.981000000000000000e+03 1.353431224822998047e+01 -5.968549728393554688e+00 -3.224003687500953674e-02 -9.514182806015014648e-03 -1.252626534551382065e-02 1.489939400926232338e-03
4.982000000000000000e+03 1.399601459503173828e+01 -7.522165298461914062e+00 -7.012956589460372925e-02 -5.304906051605939865e-03 -2.263034135103225708e-02 -2.945762127637863159e-03
4.983000000000000000e+03 7.507819366455078125e+01 -1.699854087829589844e+01 -9.191682338714599609e-01 9.022591590881347656e+00 2.431027173995971680e+00 -5.070439577102661133e-01
4.984000000000000000e+03 7.539279937744140625e+01 -1.807721519470214844e+01 -9.205116629600524902e-01 8.728703498840332031e+00 2.342457532882690430e+00 -1.964700967073440552e-01
4.985000000000000000e+03 6.438488769531250000e+01 1.561416625976562500e+00 -1.750054806470870972e-01 5.885908126831054688e+00 1.713270783424377441e+00 3.444453001022338867e+00
4.986000000000000000e+03 2.770081520080566406e+01 -1.281669521331787109e+01 -2.080880254507064819e-01 -3.486421108245849609e-01 -1.670190393924713135e-01 1.327554881572723389e-01
4.987000000000000000e+03 6.363963317871093750e+01 -1.675131607055664062e+01 -1.211044311523437500e+00 3.635223150253295898e+00 7.272536754608154297e-01 -4.717160463333129883e-01
4.988000000000000000e+03 6.351150512695312500e+01 -1.806418418884277344e+01 -9.369153976440429688e-01 3.499888896942138672e+00 7.688921093940734863e-01 -5.880649089813232422e-01
4.989000000000000000e+03 5.807244491577148438e+01 1.671180915832519531e+01 -4.859207570552825928e-01 8.270472884178161621e-01 1.023379638791084290e-01 -2.593210339546203613e-01
4.990000000000000000e+03 7.364326477050781250e+01 -1.929240608215332031e+01 -1.193416237831115723e+00 7.390413284301757812e+00 1.859099030494689941e+00 9.440456032752990723e-01
4.991000000000000000e+03 5.954412460327148438e+01 -7.803531646728515625e+00 7.371550202369689941e-01 4.928111076354980469e+00 1.699579834938049316e+00 1.299156785011291504e+00
4.992000000000000000e+03 2.530903816223144531e+01 -1.378530120849609375e+01 -1.303688436746597290e-01 -5.605993270874023438e-01 -2.072904407978057861e-01 -1.281191408634185791e-01
4.993000000000000000e+03 7.013965606689453125e+01 1.327605533599853516e+01 2.917782545089721680e+00 7.040192127227783203e+00 2.987392425537109375e+00 2.057393789291381836e+00
4.994000000000000000e+03 6.937754058837890625e+01 1.413148212432861328e+01 2.050611972808837891e+00 8.782022476196289062e+00 3.249790430068969727e+00 2.263161897659301758e+00
4.995000000000000000e+03 1.449485969543457031e+01 -9.161113739013671875e+00 -1.251129060983657837e-01 2.372638846281915903e-04 -3.746269643306732178e-02 -3.180135041475296021e-02
4.996000000000000000e+03 1.524356746673583984e+01 -9.184566497802734375e+00 -1.321670114994049072e-01 2.275483449921011925e-03 -3.896745666861534119e-02 -2.444204501807689667e-02
4.997000000000000000e+03 6.581394958496093750e+01 -1.961776924133300781e+01 -4.484497010707855225e-01 2.619949817657470703e+00 6.514500379562377930e-01 -5.755872130393981934e-01
4.998000000000000000e+03 5.728321456909179688e+01 1.751106262207031250e+01 -4.891929030418395996e-01 8.835474848747253418e-01 1.183063760399818420e-01 -2.906439602375030518e-01
4.999000000000000000e+03 5.659402465820312500e+01 1.738878250122070312e+01 -5.383358597755432129e-01 8.692303895950317383e-01 9.926836192607879639e-02 -2.110115885734558105e-01
5.000000000000000000e+03 5.403779220581054688e+01 1.745107841491699219e+01 -9.831027388572692871e-01 4.666757881641387939e-01 -1.549280881881713867e-01 -2.209181338548660278e-02
5.001000000000000000e+03 6.097410202026367188e+01 -1.361855506896972656e+01 -9.432764649391174316e-01 4.988450050354003906e+00 1.213552117347717285e+00 9.405722618103027344e-01
5.002000000000000000e+03 6.178910827636718750e+01 -1.397466468811035156e+01 -1.106153607368469238e+00 4.896837711334228516e+00 1.137205243110656738e+00 6.330994963645935059e-01
5.003000000000000000e+03 4.250823497772216797e+00 1.912693405151367188e+01 -8.357249200344085693e-03 -2.900888025760650635e-02 -1.120983902364969254e-02 1.518689002841711044e-02
5.004000000000000000e+03 5.987104415893554688e+01 -1.040999221801757812e+01 -3.050944805145263672e-01 5.235339164733886719e+00 1.479073405265808105e+00 1.483760118484497070e+00
5.005000000000000000e+03 5.296348190307617188e+01 -1.009673595428466797e+00 -7.145432233810424805e-01 -7.432537525892257690e-02 -2.366605848073959351e-01 -4.868583381175994873e-01
5.006000000000000000e+03 6.112947082519531250e+01 1.739949226379394531e+01 2.356084734201431274e-01 1.860830187797546387e+00 6.289315819740295410e-01 -1.477276802062988281e+00
5.007000000000000000e+03 4.293011188507080078e+00 -9.992122650146484375e+00 -1.394916325807571411e-02 -9.224507957696914673e-03 -6.952101364731788635e-03 -1.066677831113338470e-02
5.008000000000000000e+03 3.837444305419921875e+00 -1.134353160858154297e+01 -1.430106908082962036e-02 -1.191200967878103256e-02 -7.863923907279968262e-03 -1.690603233873844147e-02
5.009000000000000000e+03 5.170047760009765625e+00 -9.258630752563476562e+00 -1.785400323569774628e-02 -9.553408250212669373e-03 -8.222223259508609772e-03 -9.723514318466186523e-03
5.010000000000000000e+03 1.943494796752929688e+01 1.949790382385253906e+01 -2.044793069362640381e-01 -4.471424967050552368e-03 -6.268521398305892944e-02 1.362156271934509277e-01
5.011000000000000000e+03 4.128235816955566406e+00 2.248578453063964844e+01 -8.315894752740859985e-03 -4.721770435571670532e-02 -1.666008122265338898e-02 2.789679728448390961e-02
5.012000000000000000e+03 5.103199958801269531e+00 2.049532127380371094e+01 -1.275368407368659973e-02 -3.478099405765533447e-02 -1.426040288060903549e-02 2.524655312299728394e-02
5.013000000000000000e+03 1.136086177825927734e+01 1.512804317474365234e+01 -2.522619813680648804e-02 8.520678617060184479e-03 -5.011655855923891068e-03 1.547987293452024460e-02
5.014000000000000000e+03 6.307336425781250000e+01 -1.625837516784667969e+01 -1.264760971069335938e+00 3.876650571823120117e+00 7.835668921470642090e-01 -1.968629211187362671e-01
5.015000000000000000e+03 5.383981704711914062e+01 -2.015447378158569336e+00 -2.616136968135833740e-01 -2.455487698316574097e-01 -1.521487385034561157e-01 -5.922708511352539062e-01
5.016000000000000000e+03 2.808243560791015625e+01 -1.244333076477050781e+01 -2.136433124542236328e-01 -2.803568243980407715e-01 -1.482000350952148438e-01 1.693761050701141357e-01
5.017000000000000000e+03 4.663845443725585938e+01 1.447098255157470703e+00 -8.337173461914062500e-01 2.595998346805572510e-01 -1.722352504730224609e-01 -1.157671436667442322e-01
5.018000000000000000e+03 4.811061477661132812e+01 1.066966772079467773e+00 -7.691184878349304199e-01 2.858193516731262207e-01 -1.449897438287734985e-01 -1.931953243911266327e-02
5.019000000000000000e+03 1.855928421020507812e+01 -1.144174003601074219e+01 -3.152726590633392334e-01 -8.747573941946029663e-03 -9.720607101917266846e-02 -1.545644402503967285e-01
5.020000000000000000e+03 2.853606414794921875e+01 1.935359764099121094e+01 -3.853207826614379883e-01 -1.323734689503908157e-02 -1.195674315094947815e-01 2.214504331350326538e-01
5.021000000000000000e+03 3.229161071777343750e+01 -1.778994369506835938e+01 -3.669310808181762695e-01 2.253718525171279907e-01 -4.246776551008224487e-02 -7.086720317602157593e-02
5.022000000000000000e+03 7.469962310791015625e+01 -4.524461269378662109e+00 -2.826950550079345703e-01 7.109249114990234375e+00 2.047966241836547852e+00 4.090567827224731445e-01
5.023000000000000000e+03 4.410071945190429688e+01 -1.971602249145507812e+01 -5.095921158790588379e-01 3.153829872608184814e-01 -5.826273560523986816e-02 -4.087382182478904724e-02
5.024000000000000000e+03 4.286056995391845703e+00 -1.758675575256347656e+01 -1.427767053246498108e-02 -7.175696641206741333e-02 -2.581039257347583771e-02 -6.134317070245742798e-02
5.025000000000000000e+03 4.683317565917968750e+01 2.136877250671386719e+01 -3.593752980232238770e-01 -1.567329764366149902e-01 -1.548324823379516602e-01 3.772695958614349365e-01
5.026000000000000000e+03 4.967253875732421875e+01 2.030784416198730469e+01 -4.597904086112976074e-01 -2.225484102964401245e-01 -2.047016471624374390e-01 7.487377524375915527e-02
5.027000000000000000e+03 2.774955749511718750e+01 -1.191272926330566406e+01 -2.702067494392395020e-01 -3.736664950847625732e-01 -1.931619793176651001e-01 1.406625509262084961e-01
5.028000000000000000e+03 7.430745697021484375e+01 -4.796142578125000000e+00 -2.506165206432342529e-01 7.057861804962158203e+00 2.042173624038696289e+00 1.009083166718482971e-01
5.029000000000000000e+03 6.686999511718750000e+01 4.127633273601531982e-01 -6.303591728210449219e-01 5.509212493896484375e+00 1.463655948638916016e+00 1.012676715850830078e+00
5.030000000000000000e+03 4.789808750152587891e+00 -2.031065368652343750e+01 -1.111249998211860657e-02 -1.125017777085304260e-01 -3.708428516983985901e-02 -8.334126323461532593e-02
5.031000000000000000e+03 6.964211273193359375e+01 -2.179700469970703125e+01 1.647588312625885010e-01 3.729732513427734375e+00 1.168347358703613281e+00 8.413347601890563965e-01
5.032000000000000000e+03 7.187860870361328125e+01 -1.937884521484375000e+01 -9.977611303329467773e-01 5.572674751281738281e+00 1.372474074363708496e+00 1.687204480171203613e+00
5.033000000000000000e+03 7.153281402587890625e+01 -1.842767715454101562e+01 -1.375716805458068848e+00 5.259524822235107422e+00 1.165142416954040527e+00 2.144620418548583984e+00
5.034000000000000000e+03 3.047788429260253906e+01 -1.468373394012451172e+01 -2.424444109201431274e-01 1.434608101844787598e-01 -2.969507873058319092e-02 1.074128448963165283e-01
5.035000000000000000e+03 3.162794876098632812e+01 -1.595715522766113281e+01 -3.027949035167694092e-01 2.340970784425735474e-01 -2.060934714972972870e-02 3.713651746511459351e-02
5.036000000000000000e+03 6.614582824707031250e+01 2.860028743743896484e+00 1.990719914436340332e+00 7.796010494232177734e+00 2.936019182205200195e+00 1.494218230247497559e+00
5.037000000000000000e+03 2.076936531066894531e+01 -1.187016105651855469e+01 -4.494694471359252930e-01 -9.710726141929626465e-02 -1.639730185270309448e-01 -2.670158743858337402e-01
5.038000000000000000e+03 2.067394065856933594e+01 -1.391978168487548828e+01 -2.652635872364044189e-01 -1.923092752695083618e-01 -1.372718513011932373e-01 -3.071033954620361328e-01
5.039000000000000000e+03 9.277845382690429688e+00 1.285541534423828125e+01 1.645072479732334614e-03 1.083777053281664848e-03 8.186548366211354733e-04 6.130306981503963470e-03
5.040000000000000000e+03 7.584022521972656250e+01 -1.410241031646728516e+01 5.079493522644042969e-01 9.122736930847167969e+00 2.889205694198608398e+00 -7.460212111473083496e-01
5.041000000000000000e+03 3.292256546020507812e+01 -1.826541900634765625e+01 -3.628058433532714844e-01 2.262816578149795532e-01 -4.095725342631340027e-02 -1.202634572982788086e-01
5.042000000000000000e+03 6.818167114257812500e+01 1.658055305480957031e+01 -5.978623032569885254e-01 9.210647583007812500e+00 2.583835601806640625e+00 7.097011804580688477e-01
5.043000000000000000e+03 6.782050323486328125e+01 1.838113784790039062e+01 -9.397578835487365723e-01 8.138283729553222656e+00 2.159557580947875977e+00 -6.716828793287277222e-02
5.044000000000000000e+03 3.889468383789062500e+01 1.751854896545410156e+01 -7.517202496528625488e-01 1.168689131736755371e-01 -1.904554069042205811e-01 1.657560318708419800e-01
5.045000000000000000e+03 5.712211227416992188e+01 -3.817847251892089844e+00 8.523187637329101562e-01 1.389758348464965820e+00 6.726231575012207031e-01 2.056140750646591187e-01
5.046000000000000000e+03 5.483499526977539062e+01 -3.115527629852294922e+00 3.450103700160980225e-01 -9.089179337024688721e-02 7.623557746410369873e-02 -4.300734698772430420e-01
5.047000000000000000e+03 5.202430343627929688e+01 5.795879840850830078e+00 -8.028028905391693115e-02 -5.847845971584320068e-02 -4.162762686610221863e-02 3.441262245178222656e-02
5.048000000000000000e+03 5.706106948852539062e+01 -5.574149608612060547e+00 9.469238519668579102e-01 1.735689163208007812e+00 8.047838807106018066e-01 4.025841355323791504e-01
5.049000000000000000e+03 5.705311965942382812e+01 -4.865182876586914062e+00 9.832437634468078613e-01 1.574645638465881348e+00 7.673668265342712402e-01 2.689631879329681396e-01
5.050000000000000000e+03 4.859464168548583984e+00 2.645131492614746094e+01 -6.429895292967557907e-03 -7.661360502243041992e-02 -2.491305023431777954e-02 4.552894085645675659e-02
5.051000000000000000e+03 3.871500015258789062e+00 2.540035057067871094e+01 -5.639968905597925186e-03 -6.865978240966796875e-02 -2.228992618620395660e-02 3.508540987968444824e-02
5.052000000000000000e+03 4.873941421508789062e+01 2.402742147445678711e+00 -6.524834036827087402e-01 2.121164053678512573e-01 -1.321101039648056030e-01 -2.243083901703357697e-02
5.053000000000000000e+03 4.900647735595703125e+01 1.867878675460815430e+00 -7.400513887405395508e-01 2.434174716472625732e-01 -1.489901840686798096e-01 -3.737752791494131088e-03
5.054000000000000000e+03 5.008919143676757812e+01 2.622202157974243164e+00 -6.751779317855834961e-01 1.731581538915634155e-01 -1.506059169769287109e-01 8.270546048879623413e-02
5.055000000000000000e+03 7.495820617675781250e+01 -3.688048839569091797e+00 -2.869159877300262451e-01 6.660102367401123047e+00 1.911955952644348145e+00 4.152894318103790283e-01
5.056000000000000000e+03 2.833723258972167969e+01 -6.988152861595153809e-01 -9.601601362228393555e-01 -3.476051986217498779e-02 -2.984761893749237061e-01 -4.405853748321533203e-01
5.057000000000000000e+03 2.797360420227050781e+01 6.575248390436172485e-02 -7.507957816123962402e-01 7.715158164501190186e-02 -2.020932585000991821e-01 -1.313354969024658203e-01
5.058000000000000000e+03 5.045240879058837891e+00 1.510468769073486328e+01 -3.655432257801294327e-03 -1.606969721615314484e-02 -5.917538888752460480e-03 5.485230591148138046e-03
5.059000000000000000e+03 4.479901123046875000e+01 -2.059538269042968750e+01 -4.208177030086517334e-01 3.927448391914367676e-01 -8.421860635280609131e-03 -4.122961312532424927e-02
5.060000000000000000e+03 1.697104835510253906e+01 2.010381317138671875e+01 -1.419588327407836914e-01 2.398652490228414536e-03 -4.186805710196495056e-02 1.130353808403015137e-01
5.061000000000000000e+03 1.724722290039062500e+01 1.872047615051269531e+01 -1.530828773975372314e-01 1.948222145438194275e-02 -4.008019715547561646e-02 8.488722145557403564e-02
5.062000000000000000e+03 5.206774902343750000e+01 -2.343807792663574219e+01 4.492138326168060303e-02 1.071507930755615234e+00 3.349288105964660645e-01 3.330161571502685547e-01
5.063000000000000000e+03 6.455694580078125000e+01 3.058280229568481445e+00 1.318262457847595215e+00 6.553561210632324219e+00 2.361546993255615234e+00 2.732913017272949219e+00
5.064000000000000000e+03 4.272388076782226562e+01 1.786220741271972656e+01 -9.612257480621337891e-01 1.902906298637390137e-01 -2.312805205583572388e-01 2.985678911209106445e-01
5.065000000000000000e+03 4.275579833984375000e+01 1.735012435913085938e+01 -1.022578477859497070e+00 1.855785101652145386e-01 -2.510999739170074463e-01 2.564780414104461670e-01
5.066000000000000000e+03 2.416839981079101562e+01 -1.401830863952636719e+01 -1.603687107563018799e-01 -4.993698596954345703e-01 -1.979215741157531738e-01 -2.414881438016891479e-01
5.067000000000000000e+03 3.643794631958007812e+01 1.923754119873046875e+01 -5.156118273735046387e-01 -3.388319909572601318e-02 -1.648485064506530762e-01 2.303929924964904785e-01
5.068000000000000000e+03 5.406897068023681641e+00 -1.417683601379394531e+01 -2.626051940023899078e-02 -4.075174033641815186e-02 -2.010367810726165771e-02 -4.890413209795951843e-02
5.069000000000000000e+03 6.386289215087890625e+01 1.977464103698730469e+01 -4.143222272396087646e-01 4.861568450927734375e+00 1.334173798561096191e+00 -1.840535998344421387e+00
5.070000000000000000e+03 4.613604068756103516e+00 -6.484982013702392578e+00 -6.596508901566267014e-03 -1.343078911304473877e-03 -2.381876343861222267e-03 5.469019059091806412e-03
5.071000000000000000e+03 1.903106117248535156e+01 2.029880332946777344e+01 -1.744704991579055786e-01 -1.361738331615924835e-02 -5.642636492848396301e-02 1.492021977901458740e-01
5.072000000000000000e+03 7.189017772674560547e+00 -5.804738044738769531e+00 -1.412549428641796112e-02 -6.461739074438810349e-03 -6.176169961690902710e-03 2.854683902114629745e-03
5.073000000000000000e+03 7.588998413085937500e+01 -9.761060714721679688e+00 9.882897734642028809e-01 8.886722564697265625e+00 2.962503671646118164e+00 4.419246315956115723e-01
5.074000000000000000e+03 6.532027435302734375e+01 1.102141022682189941e+00 1.650726795196533203e-02 5.608815670013427734e+00 1.687596917152404785e+00 3.079191207885742188e+00
5.075000000000000000e+03 6.420358276367187500e+01 2.483173370361328125e+00 6.802259087562561035e-01 6.147011280059814453e+00 2.048171281814575195e+00 3.050419807434082031e+00
5.076000000000000000e+03 5.939571762084960938e+01 1.659242630004882812e+01 -1.488006711006164551e-01 9.572532773017883301e-01 2.425357699394226074e-01 -5.898009538650512695e-01
5.077000000000000000e+03 5.563687515258789062e+01 -4.799941062927246094e+00 7.710364460945129395e-01 4.613676071166992188e-01 3.697212338447570801e-01 -5.886607244610786438e-02
5.078000000000000000e+03 5.766864776611328125e+00 -2.294151687622070312e+01 -7.020031567662954330e-03 -1.500795483589172363e-01 -4.712987691164016724e-02 -1.044286340475082397e-01
5.079000000000000000e+03 7.625340461730957031e+00 -6.472610950469970703e+00 -1.667362079024314880e-02 -7.208836730569601059e-03 -7.164737209677696228e-03 -7.221761043183505535e-04
5.080000000000000000e+03 1.242268753051757812e+01 -5.409121036529541016e+00 -2.177835628390312195e-02 -1.083018723875284195e-02 -9.782562963664531708e-03 9.859199635684490204e-04
5.081000000000000000e+03 7.441638183593750000e+01 2.249722862243652344e+01 -2.116788923740386963e-01 6.692068576812744141e+00 1.944116950035095215e+00 5.214823484420776367e-01
5.082000000000000000e+03 7.229693412780761719e+00 9.126183509826660156e+00 1.735121384263038635e-02 -1.240538153797388077e-02 1.483749831095337868e-03 1.217715628445148468e-02
5.083000000000000000e+03 7.973606109619140625e+00 9.052352905273437500e+00 2.101834118366241455e-02 -5.330218002200126648e-03 4.706436768174171448e-03 7.023836486041545868e-03
5.084000000000000000e+03 4.917966461181640625e+01 -2.024029159545898438e+01 -5.065816044807434082e-01 5.746356248855590820e-01 2.041621319949626923e-02 -8.945938944816589355e-02
5.085000000000000000e+03 7.103938102722167969e+00 9.982823371887207031e+00 1.251007895916700363e-02 -1.153638213872909546e-02 2.921091218013316393e-04 7.367978803813457489e-03
5.086000000000000000e+03 2.855907821655273438e+01 -9.897431373596191406e+00 -3.739249110221862793e-01 -1.048221215605735779e-01 -1.436241120100021362e-01 -8.569393685320392251e-06
5.087000000000000000e+03 5.897312927246093750e+01 -1.096408128738403320e+00 -1.006093382835388184e+00 2.721734762191772461e+00 5.146924257278442383e-01 8.855855464935302734e-01
5.088000000000000000e+03 4.158896255493164062e+01 1.744567871093750000e+01 -9.054920673370361328e-01 2.002687603235244751e-01 -2.115669846534729004e-01 2.379710227251052856e-01
5.089000000000000000e+03 1.139666366577148438e+01 1.618069648742675781e+01 -3.626735880970954895e-02 6.756410002708435059e-03 -8.853284642100334167e-03 2.240779064595699310e-02
5.090000000000000000e+03 1.246390819549560547e+01 1.513943481445312500e+01 -3.043606318533420563e-02 1.394178345799446106e-02 -4.948284011334180832e-03 1.718730852007865906e-02
5.091000000000000000e+03 7.008425140380859375e+01 1.631786918640136719e+01 5.157893300056457520e-01 7.946284770965576172e+00 2.538622379302978516e+00 1.520348191261291504e+00
5.092000000000000000e+03 7.339193725585937500e+01 1.366707897186279297e+01 1.724843621253967285e+00 5.148877620697021484e+00 2.062116384506225586e+00 -9.447555989027023315e-02
5.093000000000000000e+03 4.532788085937500000e+01 -1.766376495361328125e+01 -6.925992369651794434e-01 5.002722144126892090e-01 -5.769811943173408508e-02 -5.224698409438133240e-02
5.094000000000000000e+03 1.718381881713867188e+01 -1.300680923461914062e+01 -2.464740425348281860e-01 -3.100648522377014160e-02 -8.324415981769561768e-02 -1.662596911191940308e-01
5.095000000000000000e+03 6.192257690429687500e+01 1.922614097595214844e+01 4.637013003230094910e-02 3.207545042037963867e+00 9.761745333671569824e-01 -1.685883164405822754e+00
5.096000000000000000e+03 6.131127929687500000e+01 1.865011978149414062e+01 1.228720843791961670e-01 2.515021324157714844e+00 7.913680076599121094e-01 -1.588597536087036133e+00
5.097000000000000000e+03 3.841334819793701172e+00 2.647896003723144531e+01 -4.417965188622474670e-03 -7.756935060024261475e-02 -2.459619380533695221e-02 3.702296689152717590e-02
5.098000000000000000e+03 3.582772064208984375e+01 1.885370635986328125e+01 -5.196808576583862305e-01 -6.545063853263854980e-02 -1.755394488573074341e-01 2.240027934312820435e-01
5.099000000000000000e+03 4.455609512329101562e+01 -1.699423408508300781e+01 -6.872652173042297363e-01 4.185342192649841309e-01 -8.061930537223815918e-02 -6.563533842563629150e-02
5.100000000000000000e+03 3.894680023193359375e+01 -2.159543037414550781e+01 -2.088122367858886719e-01 -2.870224416255950928e-02 -7.125434279441833496e-02 -3.007799088954925537e-01
5.101000000000000000e+03 3.945586013793945312e+01 -2.066365432739257812e+01 -2.685899734497070312e-01 -7.385738193988800049e-02 -1.027342081069946289e-01 -2.875928580760955811e-01
5.102000000000000000e+03 4.516372680664062500e+01 -1.703225517272949219e+01 -6.601391434669494629e-01 4.779610931873321533e-01 -5.465340986847877502e-02 -7.810864597558975220e-02
5.103000000000000000e+03 7.097342681884765625e+01 1.405577468872070312e+01 2.388384103775024414e+00 6.390284061431884766e+00 2.633600473403930664e+00 1.660940766334533691e+00
5.104000000000000000e+03 6.685252380371093750e+01 -2.119811820983886719e+01 6.525158137083053589e-02 2.756014585494995117e+00 8.463798761367797852e-01 -1.643297523260116577e-01
5.105000000000000000e+03 3.158136940002441406e+01 1.924127578735351562e+01 -4.275767207145690918e-01 -3.819537162780761719e-02 -1.397316306829452515e-01 2.814796268939971924e-01
5.106000000000000000e+03 2.981877136230468750e+01 1.812523651123046875e+01 -4.521891772747039795e-01 1.081963256001472473e-02 -1.324108690023422241e-01 2.402796298265457153e-01
5.107000000000000000e+03 3.951663494110107422e+00 2.756380462646484375e+01 -3.394670551642775536e-03 -8.695243299007415771e-02 -2.710413001477718353e-02 4.002241790294647217e-02
5.108000000000000000e+03 3.399633026123046875e+01 -1.937706947326660156e+01 -3.755665719509124756e-01 2.007381916046142578e-01 -5.244851112365722656e-02 -2.219935208559036255e-01
5.109000000000000000e+03 3.585519409179687500e+01 -1.848023033142089844e+01 -5.301459431648254395e-01 2.199722379446029663e-01 -9.305211901664733887e-02 -2.442513704299926758e-01
5.110000000000000000e+03 5.857793807983398438e+01 -2.214424896240234375e+01 -5.285512804985046387e-01 3.589910507202148438e+00 9.184077382087707520e-01 -7.884963601827621460e-02
5.111000000000000000e+03 5.944904327392578125e+01 -2.311743545532226562e+01 -4.697378277778625488e-01 3.495479583740234375e+00 9.077225327491760254e-01 -1.843917667865753174e-01
5.112000000000000000e+03 7.122736358642578125e+01 2.412639999389648438e+01 -4.988297820091247559e-01 6.608165264129638672e+00 1.832800626754760742e+00 1.719981729984283447e-01
5.113000000000000000e+03 5.623117446899414062e+01 -2.510656356811523438e+01 -1.760334074497222900e-01 2.589308500289916992e+00 7.239825129508972168e-01 4.171266555786132812e-01
5.114000000000000000e+03 7.305599689483642578e+00 -2.459248161315917969e+01 -1.195480930618941784e-03 -1.716524362564086914e-01 -5.185437574982643127e-02 -1.283270865678787231e-01
5.115000000000000000e+03 5.799430465698242188e+01 -2.513329124450683594e+01 -2.388565540313720703e-01 3.041835069656372070e+00 8.408935666084289551e-01 1.768507212400436401e-01
5.116000000000000000e+03 7.168170928955078125e+01 -2.685080337524414062e+01 2.768041193485260010e-01 5.388350009918212891e+00 1.699546217918395996e+00 6.540854573249816895e-01
5.117000000000000000e+03 5.179120540618896484e+00 -6.799519538879394531e+00 -1.141968090087175369e-02 -4.055941477417945862e-03 -4.642686806619167328e-03 2.842898946255445480e-03
5.118000000000000000e+03 6.482386779785156250e+01 1.230483174324035645e+00 -1.526966989040374756e-01 5.757999420166015625e+00 1.681590914726257324e+00 3.480305910110473633e+00
5.119000000000000000e+03 6.842158317565917969e+00 1.076375389099121094e+01 1.253504771739244461e-02 -1.036493107676506042e-02 6.510350503958761692e-04 6.999372504651546478e-03
5.120000000000000000e+03 5.887509155273437500e+01 -8.029780387878417969e+00 6.217451691627502441e-01 4.210850238800048828e+00 1.449778556823730469e+00 1.269161939620971680e+00
5.121000000000000000e+03 5.108996200561523438e+01 1.022983551025390625e+00 -8.762614130973815918e-01 2.191910147666931152e-01 -1.971211284399032593e-01 1.354604959487915039e-02
5.122000000000000000e+03 5.893246459960937500e+01 -5.287531852722167969e+00 1.247110605239868164e+00 3.667580604553222656e+00 1.474407315254211426e+00 7.913827300071716309e-01
5.123000000000000000e+03 5.912636566162109375e+01 -5.881558418273925781e+00 1.274384856224060059e+00 4.075634002685546875e+00 1.605005741119384766e+00 9.955758452415466309e-01
5.124000000000000000e+03 5.854432678222656250e+01 -6.766838073730468750e+00 9.673441052436828613e-01 3.570845842361450195e+00 1.361456990242004395e+00 1.010780930519104004e+00
5.125000000000000000e+03 5.789048004150390625e+01 -7.708433151245117188e+00 5.675016045570373535e-01 3.116573333740234375e+00 1.105222463607788086e+00 9.908058047294616699e-01
5.126000000000000000e+03 4.955194473266601562e+01 2.251396417617797852e+00 -6.879262328147888184e-01 2.229376137256622314e-01 -1.394965797662734985e-01 2.331416495144367218e-02
5.127000000000000000e+03 1.736545181274414062e+01 -1.103663349151611328e+01 -2.515137493610382080e-01 5.677559413015842438e-03 -7.375086098909378052e-02 -1.019194647669792175e-01
5.128000000000000000e+03 1.706367301940917969e+01 -1.023497104644775391e+01 -2.299328893423080444e-01 1.639056764543056488e-02 -6.406269967555999756e-02 -5.565359443426132202e-02
5.129000000000000000e+03 8.202626228332519531e+00 -6.825523853302001953e+00 -2.341867610812187195e-02 -9.569550864398479462e-03 -9.896468371152877808e-03 -4.235646221786737442e-03
5.130000000000000000e+03 9.664758682250976562e+00 -6.145252227783203125e+00 -1.973532699048519135e-02 -9.236631914973258972e-03 -8.691587485373020172e-03 -2.759133698418736458e-03
5.131000000000000000e+03 6.048571777343750000e+01 -1.162038040161132812e+01 -6.169909834861755371e-01 5.412414073944091797e+00 1.438626885414123535e+00 1.394564867019653320e+00
5.132000000000000000e+03 6.803622436523437500e+01 -2.151263999938964844e+01 1.922108530998229980e-01 2.968057870864868164e+00 9.480805993080139160e-01 2.615905404090881348e-01
5.133000000000000000e+03 3.090373992919921875e+01 1.963229942321777344e+01 -4.001070559024810791e-01 -3.365436196327209473e-02 -1.301284283399581909e-01 2.777045071125030518e-01
5.134000000000000000e+03 2.975452995300292969e+01 1.947436141967773438e+01 -3.910552561283111572e-01 -1.460590492933988571e-02 -1.216983497142791748e-01 2.522083520889282227e-01
5.135000000000000000e+03 2.745673370361328125e+01 -1.334451103210449219e+01 -1.781633943319320679e-01 -3.341123163700103760e-01 -1.536827236413955688e-01 1.192522943019866943e-01
5.136000000000000000e+03 6.452954101562500000e+01 6.676882505416870117e-01 -9.744194149971008301e-01 5.514192104339599609e+00 1.361931800842285156e+00 3.815647125244140625e+00
5.137000000000000000e+03 4.538466262817382812e+01 -1.998248100280761719e+01 -4.965807199478149414e-01 4.618753790855407715e-01 -1.041160430759191513e-02 -5.779713019728660583e-02
5.138000000000000000e+03 7.269899749755859375e+01 -5.538706779479980469e+00 -4.356189072132110596e-01 7.111067771911621094e+00 2.002634763717651367e+00 -8.052563667297363281e-01
5.139000000000000000e+03 3.106607246398925781e+01 -1.408068847656250000e+01 -2.608597278594970703e-01 2.470563650131225586e-01 -4.141005221754312515e-03 9.852406382560729980e-02
5.140000000000000000e+03 7.094170379638671875e+01 1.496779632568359375e+01 1.621887564659118652e+00 6.958770751953125000e+00 2.574197530746459961e+00 1.731689572334289551e+00
5.141000000000000000e+03 7.102201843261718750e+01 1.592225551605224609e+01 1.036978483200073242e+00 7.256393432617187500e+00 2.488011598587036133e+00 1.507968187332153320e+00
5.142000000000000000e+03 6.850212097167968750e+01 1.795709800720214844e+01 -6.561448574066162109e-01 8.259263992309570312e+00 2.280935764312744141e+00 3.188527226448059082e-01
5.143000000000000000e+03 1.861126327514648438e+01 2.109552001953125000e+01 -1.580958068370819092e-01 -2.154031209647655487e-02 -5.389083549380302429e-02 1.548373550176620483e-01
5.144000000000000000e+03 4.429730892181396484e+00 2.699489402770996094e+01 -4.531008191406726837e-03 -8.178073912858963013e-02 -2.589352428913116455e-02 4.296322166919708252e-02
5.145000000000000000e+03 7.407436370849609375e+01 1.450523090362548828e+01 1.227208614349365234e+00 5.636660099029541016e+00 2.059160709381103516e+00 6.229065731167793274e-02
5.146000000000000000e+03 7.493077087402343750e+01 1.389631843566894531e+01 8.311840295791625977e-01 5.773596286773681641e+00 1.981434106826782227e+00 -4.952419400215148926e-01
5.147000000000000000e+03 7.241362762451171875e+01 -3.732800483703613281e+00 -1.214918255805969238e+00 5.904318332672119141e+00 1.406819939613342285e+00 -1.729976296424865723e+00
5.148000000000000000e+03 4.231904602050781250e+01 1.756622505187988281e+01 -9.557095766067504883e-01 2.044575214385986328e-01 -2.253756076097488403e-01 2.781882882118225098e-01
5.149000000000000000e+03 4.118223190307617188e+01 -2.175242233276367188e+01 -1.768027245998382568e-01 4.738489910960197449e-02 -3.882534801959991455e-02 -1.699758321046829224e-01
5.150000000000000000e+03 5.929993438720703125e+01 -4.384111404418945312e+00 1.263476729393005371e+00 3.940550804138183594e+00 1.561208248138427734e+00 7.184596657752990723e-01
5.151000000000000000e+03 5.773005676269531250e+01 -5.619845390319824219e+00 1.030413866043090820e+00 2.395748138427734375e+00 1.027848601341247559e+00 5.552297830581665039e-01
5.152000000000000000e+03 5.294448089599609375e+01 -2.020034551620483398e+00 -3.212211728096008301e-01 -2.012183517217636108e-01 -1.567318588495254517e-01 -4.776409566402435303e-01
5.153000000000000000e+03 6.111297607421875000e+01 -1.423143863677978516e+01 -9.937715530395507812e-01 4.873421192169189453e+00 1.163894891738891602e+00 8.160029649734497070e-01
5.154000000000000000e+03 6.028300094604492188e+01 -1.367634201049804688e+01 -7.985687255859375000e-01 4.958433151245117188e+00 1.247959375381469727e+00 1.133719921112060547e+00
5.155000000000000000e+03 5.904694366455078125e+01 -9.184776306152343750e+00 1.523870974779129028e-01 4.585657119750976562e+00 1.421413183212280273e+00 1.388331890106201172e+00
5.156000000000000000e+03 4.338314533233642578e+00 1.206693840026855469e+01 3.843738697469234467e-03 -1.635576225817203522e-02 -3.753606928512454033e-03 4.553792532533407211e-03
5.157000000000000000e+03 5.794544219970703125e+01 -3.708531379699707031e+00 8.463776111602783203e-01 2.242663621902465820e+00 9.267123937606811523e-01 3.440864384174346924e-01
5.158000000000000000e+03 7.587446594238281250e+01 -1.891407585144042969e+01 -7.755592465400695801e-01 8.536978721618652344e+00 2.328425884246826172e+00 -5.216243118047714233e-02
5.159000000000000000e+03 7.457089233398437500e+01 -1.852096557617187500e+01 -1.235646009445190430e+00 8.391379356384277344e+00 2.146719932556152344e+00 3.217735886573791504e-01
5.160000000000000000e+03 5.304882526397705078e+00 1.577835559844970703e+01 -5.895860958844423294e-03 -1.781824417412281036e-02 -7.114231586456298828e-03 7.634661160409450531e-03
5.161000000000000000e+03 4.314434528350830078e+00 1.553434848785400391e+01 -3.056443994864821434e-03 -1.952298171818256378e-02 -6.773827597498893738e-03 5.095151253044605255e-03
5.162000000000000000e+03 7.525254058837890625e+01 1.487019634246826172e+01 6.704391837120056152e-01 5.908156394958496094e+00 1.973578691482543945e+00 -8.829949796199798584e-02
5.163000000000000000e+03 5.484527969360351562e+01 1.949619483947753906e+01 -4.313882291316986084e-01 6.949299573898315430e-01 7.906252145767211914e-02 -3.024452626705169678e-01
5.164000000000000000e+03 3.589730453491210938e+01 -1.967919540405273438e+01 -4.277375638484954834e-01 1.545541435480117798e-01 -8.195503056049346924e-02 -3.003860712051391602e-01
5.165000000000000000e+03 7.536619567871093750e+01 -5.055158138275146484e+00 -6.209501251578330994e-02 7.630710124969482422e+00 2.270584583282470703e+00 8.279525041580200195e-01
5.166000000000000000e+03 7.440184783935546875e+01 -3.997001886367797852e+00 -3.394558131694793701e-01 6.515435695648193359e+00 1.852793931961059570e+00 1.025646738708019257e-02
5.167000000000000000e+03 7.287061309814453125e+01 -4.396435737609863281e+00 -8.426450490951538086e-01 6.435317993164062500e+00 1.677801847457885742e+00 -1.036955952644348145e+00
5.168000000000000000e+03 1.243570327758789062e+01 -7.330647945404052734e+00 -4.882147908210754395e-02 -8.840777911245822906e-03 -1.729867607355117798e-02 -9.280451573431491852e-03
5.169000000000000000e+03 4.317363739013671875e+00 1.733190727233886719e+01 -6.867449730634689331e-03 -2.293937839567661285e-02 -8.942048065364360809e-03 9.209802374243736267e-03
5.170000000000000000e+03 4.823898315429687500e+00 1.761511230468750000e+01 -8.628956973552703857e-03 -2.258593961596488953e-02 -9.364468976855278015e-03 1.199437491595745087e-02
5.171000000000000000e+03 4.898888587951660156e+00 -1.373312664031982422e+01 -2.080339193344116211e-02 -3.453422337770462036e-02 -1.660128496587276459e-02 -4.165030643343925476e-02
5.172000000000000000e+03 7.433377075195312500e+01 1.764521217346191406e+01 3.859633207321166992e-01 6.400597095489501953e+00 2.035968065261840820e+00 7.062897086143493652e-01
5.173000000000000000e+03 7.511084747314453125e+01 1.736637878417968750e+01 3.923482596874237061e-01 6.259115695953369141e+00 1.995439171791076660e+00 5.586873292922973633e-01
5.174000000000000000e+03 6.203230667114257812e+01 -1.465384578704833984e+01 -1.222218394279479980e+00 4.644251346588134766e+00 1.026609897613525391e+00 4.204541444778442383e-01
5.175000000000000000e+03 6.085590744018554688e+01 -1.581614780426025391e+01 -7.333512902259826660e-01 4.467413902282714844e+00 1.120218873023986816e+00 3.889155387878417969e-01
5.176000000000000000e+03 7.571502685546875000e+01 1.631190109252929688e+01 4.356528520584106445e-01 6.075079917907714844e+00 1.953219890594482422e+00 3.065879046916961670e-01
5.177000000000000000e+03 7.484157562255859375e+01 1.582725620269775391e+01 7.406474947929382324e-01 5.999998569488525391e+00 2.022193908691406250e+00 3.160690069198608398e-01
5.178000000000000000e+03 7.456944274902343750e+01 -2.023861885070800781e+01 -7.538182139396667480e-01 7.579228401184082031e+00 2.047622919082641602e+00 6.684248447418212891e-01
5.179000000000000000e+03 6.223652267456054688e+01 -1.782193946838378906e+01 -7.785059213638305664e-01 3.846831083297729492e+00 9.204975366592407227e-01 -3.973072171211242676e-01
5.180000000000000000e+03 4.311492443084716797e+00 -7.736045837402343750e+00 -9.986056946218013763e-03 -3.002367448061704636e-03 -3.896527457982301712e-03 1.315010595135390759e-03
5.181000000000000000e+03 4.820461273193359375e+00 -7.428055286407470703e+00 -9.791992604732513428e-03 -3.423562739044427872e-03 -3.964666277170181274e-03 6.523268530145287514e-04
5.182000000000000000e+03 2.852523994445800781e+01 -1.225201034545898438e+01 -2.443217635154724121e-01 -1.495539844036102295e-01 -1.181627213954925537e-01 1.675868630409240723e-01
5.183000000000000000e+03 4.734071350097656250e+01 1.307161569595336914e+00 -7.964815497398376465e-01 2.758905291557312012e-01 -1.561772972345352173e-01 -6.537447124719619751e-02
5.184000000000000000e+03 4.883061599731445312e+01 7.183272242546081543e-01 -7.623266577720642090e-01 2.692465186119079590e-01 -1.479240506887435913e-01 -5.693743471056222916e-03
5.185000000000000000e+03 7.353943634033203125e+01 2.196798515319824219e+01 -2.514854073524475098e-01 6.754371643066406250e+00 1.950865983963012695e+00 5.635181069374084473e-01
5.186000000000000000e+03 7.324914550781250000e+01 2.116921424865722656e+01 -2.311408370733261108e-01 6.811089992523193359e+00 1.973984837532043457e+00 6.268264055252075195e-01
5.187000000000000000e+03 3.257939910888671875e+01 1.979175186157226562e+01 -4.034145772457122803e-01 -6.194753944873809814e-02 -1.396086364984512329e-01 2.867154181003570557e-01
5.188000000000000000e+03 4.885568618774414062e+00 2.234805870056152344e+01 -1.216174010187387466e-02 -4.564694687724113464e-02 -1.734260655939579010e-02 3.223289176821708679e-02
5.189000000000000000e+03 4.924652099609375000e+00 2.310776710510253906e+01 -1.167400553822517395e-02 -5.032555013895034790e-02 -1.859986595809459686e-02 3.642762824892997742e-02
5.190000000000000000e+03 4.304813385009765625e+01 1.882516670227050781e+01 -8.653880953788757324e-01 1.166283115744590759e-01 -2.246279269456863403e-01 3.868778944015502930e-01
5.191000000000000000e+03 6.026865386962890625e+01 -1.599688053131103516e+01 -5.239645242691040039e-01 4.455744266510009766e+00 1.179533839225769043e+00 5.139021873474121094e-01
5.192000000000000000e+03 4.660237884521484375e+01 -1.989914703369140625e+01 -5.231019258499145508e-01 5.562030673027038574e-01 9.930336847901344299e-03 -7.675964385271072388e-02
5.193000000000000000e+03 4.528021240234375000e+01 -1.873816871643066406e+01 -6.324893236160278320e-01 4.811852872371673584e-01 -4.539120197296142578e-02 -4.711718484759330750e-02
5.194000000000000000e+03 2.600962257385253906e+01 -1.432575988769531250e+01 -1.115532964468002319e-01 -4.679204225540161133e-01 -1.738421171903610229e-01 -3.362385556101799011e-02
5.195000000000000000e+03 3.337599182128906250e+01 -1.992328071594238281e+01 -3.222938776016235352e-01 1.774019747972488403e-01 -4.346757382154464722e-02 -2.067260742187500000e-01
5.196000000000000000e+03 7.461071014404296875e+01 -2.335730552673339844e+01 -1.528748124837875366e-01 6.972115516662597656e+00 2.045772314071655273e+00 7.428657412528991699e-01
5.197000000000000000e+03 5.638956069946289062e+01 -4.188107967376708984e+00 8.571234345436096191e-01 8.969941735267639160e-01 5.262352824211120605e-01 2.166373282670974731e-02
5.198000000000000000e+03 6.434609985351562500e+01 -2.063204002380371094e+01 -3.341625928878784180e-01 3.134382963180541992e+00 8.400661349296569824e-01 -6.109840273857116699e-01
5.199000000000000000e+03 4.044070816040039062e+01 1.756312942504882812e+01 -8.217231035232543945e-01 1.776753962039947510e-01 -1.932143121957778931e-01 2.055920511484146118e-01
5.200000000000000000e+03 3.399628448486328125e+01 1.945517158508300781e+01 -4.347446560859680176e-01 -7.889475673437118530e-02 -1.540918201208114624e-01 2.701950669288635254e-01
5.201000000000000000e+03 3.329795074462890625e+01 1.965383338928222656e+01 -4.151735007762908936e-01 -7.410339266061782837e-02 -1.467830687761306763e-01 2.847278714179992676e-01
5.202000000000000000e+03 3.092735671997070312e+01 -1.673201560974121094e+01 -2.987224757671356201e-01 1.588828414678573608e-01 -4.195188730955123901e-02 1.933715492486953735e-02
5.203000000000000000e+03 3.178068923950195312e+01 -1.938189888000488281e+01 -2.983596026897430420e-01 1.487397551536560059e-01 -4.488595202565193176e-02 -1.335385441780090332e-01
5.204000000000000000e+03 3.673717117309570312e+01 1.848062705993652344e+01 -5.857124328613281250e-01 -3.151486441493034363e-02 -1.851681917905807495e-01 1.908473968505859375e-01
5.205000000000000000e+03 1.449345111846923828e+01 1.954489326477050781e+01 -1.002548635005950928e-01 7.347298786044120789e-03 -2.787226811051368713e-02 7.576037198305130005e-02
5.206000000000000000e+03 1.876307487487792969e+01 -1.233966159820556641e+01 -3.107595741748809814e-01 -3.861718997359275818e-02 -1.048130318522453308e-01 -1.860386580228805542e-01
5.207000000000000000e+03 2.484722518920898438e+01 -1.454875946044921875e+01 -1.145940572023391724e-01 -4.785166978836059570e-01 -1.779332309961318970e-01 -1.596524417400360107e-01
5.208000000000000000e+03 5.952196598052978516e+00 -1.751680374145507812e+01 -2.665987797081470490e-02 -7.811648398637771606e-02 -3.143290802836418152e-02 -8.382989466190338135e-02
5.209000000000000000e+03 5.166514873504638672e+00 -1.719293785095214844e+01 -1.986396685242652893e-02 -7.218170166015625000e-02 -2.761369943618774414e-02 -7.077206671237945557e-02
5.210000000000000000e+03 6.074909973144531250e+01 1.929044532775878906e+01 1.183420717716217041e-01 2.433929443359375000e+00 7.656814455986022949e-01 -1.352074146270751953e+00
5.211000000000000000e+03 1.305859947204589844e+01 1.780879974365234375e+01 -7.015512883663177490e-02 1.080591883510351181e-02 -1.780476421117782593e-02 4.248140752315521240e-02
5.212000000000000000e+03 1.981263351440429688e+01 2.072351455688476562e+01 -1.830153614282608032e-01 -3.369078785181045532e-02 -6.501184403896331787e-02 1.701837629079818726e-01
5.213000000000000000e+03 8.856268882751464844e+00 -6.964841365814208984e+00 -2.596876025199890137e-02 -1.035161595791578293e-02 -1.089611276984214783e-02 -4.335014149546623230e-03
5.214000000000000000e+03 5.537767791748046875e+01 -2.711057901382446289e+00 2.509827315807342529e-01 -9.418758749961853027e-02 4.703854024410247803e-02 -3.734882175922393799e-01
5.215000000000000000e+03 7.359540557861328125e+01 -2.030154609680175781e+01 -8.267405629158020020e-01 6.923878669738769531e+00 1.829141378402709961e+00 1.002833127975463867e+00
5.216000000000000000e+03 7.404247283935546875e+01 -1.986216735839843750e+01 -9.818621873855590820e-01 7.386039257049560547e+00 1.921253085136413574e+00 8.771563768386840820e-01
5.217000000000000000e+03 5.563862323760986328e+00 -1.574788761138916016e+01 -2.583072520792484283e-02 -5.693421140313148499e-02 -2.482948079705238342e-02 -6.441713124513626099e-02
5.218000000000000000e+03 5.145764827728271484e+00 2.433173370361328125e+01 -1.129765808582305908e-02 -5.855200812220573425e-02 -2.095489948987960815e-02 4.205997288227081299e-02
5.219000000000000000e+03 1.086696434020996094e+01 1.569463920593261719e+01 -2.996316179633140564e-02 6.064095534384250641e-03 -7.169719785451889038e-03 1.803493872284889221e-02
5.220000000000000000e+03 1.211380577087402344e+01 -6.591887950897216797e+00 -4.144249483942985535e-02 -1.017123460769653320e-02 -1.548411883413791656e-02 -2.754578599706292152e-03
5.221000000000000000e+03 1.172126483917236328e+01 -5.805658817291259766e+00 -2.117079310119152069e-02 -9.393954649567604065e-03 -9.169423952698707581e-03 -2.596593461930751801e-03
5.222000000000000000e+03 5.493727874755859375e+01 -3.798860311508178711e+00 5.464403033256530762e-01 -4.254385456442832947e-02 1.511689424514770508e-01 -3.153001070022583008e-01
5.223000000000000000e+03 6.907305145263671875e+01 1.264399242401123047e+01 3.373089075088500977e+00 9.088167190551757812e+00 3.738377094268798828e+00 2.263404369354248047e+00
5.224000000000000000e+03 5.814237213134765625e+01 1.750436401367187500e+01 -2.467356324195861816e-01 1.008942723274230957e+00 2.286621183156967163e-01 -4.665051400661468506e-01
5.225000000000000000e+03 5.600697994232177734e+00 1.053790187835693359e+01 8.749607950448989868e-03 -1.414767280220985413e-02 -1.619419548660516739e-03 7.881488651037216187e-03
5.226000000000000000e+03 5.195426464080810547e+00 1.126550865173339844e+01 6.401431281119585037e-03 -1.503395289182662964e-02 -2.589756622910499573e-03 6.456031929701566696e-03
5.227000000000000000e+03 2.761616706848144531e+01 7.399657368659973145e-01 -4.610235989093780518e-01 2.318206429481506348e-01 -6.876089423894882202e-02 9.265833348035812378e-02
5.228000000000000000e+03 6.712994384765625000e+01 1.884352684020996094e+01 -9.395347237586975098e-01 7.813584327697753906e+00 2.062214851379394531e+00 -5.946936011314392090e-01
5.229000000000000000e+03 5.955649948120117188e+01 -1.354072475433349609e+01 -6.730016469955444336e-01 4.824187755584716797e+00 1.245355844497680664e+00 1.261951923370361328e+00
5.230000000000000000e+03 6.042501068115234375e+01 -1.297991371154785156e+01 -8.157681822776794434e-01 5.113390922546386719e+00 1.289286851882934570e+00 1.229157209396362305e+00
5.231000000000000000e+03 1.237069225311279297e+01 1.614993286132812500e+01 -4.300649836659431458e-02 1.182823441922664642e-02 -9.353479370474815369e-03 2.430520951747894287e-02
5.232000000000000000e+03 1.028361701965332031e+01 1.521431827545166016e+01 -2.091347984969615936e-02 2.667073626071214676e-03 -5.473922006785869598e-03 1.388522703200578690e-02
5.233000000000000000e+03 8.828795433044433594e+00 1.321116352081298828e+01 -1.547200488857924938e-03 4.725503385998308659e-04 -3.223950625397264957e-04 6.266989745199680328e-03
5.234000000000000000e+03 2.787939262390136719e+01 1.987664031982421875e+01 -3.574327528476715088e-01 -2.680802717804908752e-02 -1.152722388505935669e-01 2.175416797399520874e-01
5.235000000000000000e+03 2.834112739562988281e+01 -1.162465095520019531e+01 -2.574829161167144775e-01 -2.281326204538345337e-01 -1.456846594810485840e-01 1.576045751571655273e-01
5.236000000000000000e+03 1.686833381652832031e+01 -1.224681568145751953e+01 -2.335083931684494019e-01 -1.701726950705051422e-02 -7.515770196914672852e-02 -1.400892287492752075e-01
5.237000000000000000e+03 1.309511280059814453e+01 -7.037152767181396484e+00 -5.449710786342620850e-02 -8.653097786009311676e-03 -1.894506253302097321e-02 -4.230487160384654999e-03
5.238000000000000000e+03 7.308029174804687500e+01 -5.971261501312255859e+00 -1.593922376632690430e-01 7.601984500885009766e+00 2.232777595520019531e+00 -4.918379187583923340e-01
5.239000000000000000e+03 7.400219726562500000e+01 -5.197939395904541016e+00 -2.368779778480529785e-01 7.219360351562500000e+00 2.094744682312011719e+00 6.383927911520004272e-02
5.240000000000000000e+03 2.150803756713867188e+01 -1.551763820648193359e+01 -1.704867035150527954e-01 -2.641530334949493408e-01 -1.303919255733489990e-01 -2.794301211833953857e-01
5.241000000000000000e+03 2.239632987976074219e+01 -1.388382625579833984e+01 -2.404827475547790527e-01 -3.454009592533111572e-01 -1.757651120424270630e-01 -3.161965012550354004e-01
5.242000000000000000e+03 1.118184566497802734e+01 -5.215034484863281250e+00 -1.839969679713249207e-02 -1.017852686345577240e-02 -8.573466911911964417e-03 -1.053516753017902374e-03
5.243000000000000000e+03 4.401370239257812500e+01 2.011793708801269531e+01 -6.809595227241516113e-01 1.009139884263277054e-02 -2.012604326009750366e-01 4.620635211467742920e-01
5.244000000000000000e+03 6.877113342285156250e+01 -2.115402793884277344e+01 1.655043363571166992e-01 3.117360115051269531e+00 9.848593473434448242e-01 5.966183543205261230e-01
5.245000000000000000e+03 2.724446868896484375e+01 2.044305229187011719e+01 -3.094839155673980713e-01 -5.415980145335197449e-02 -1.090931221842765808e-01 2.038960456848144531e-01
5.246000000000000000e+03 5.891690444946289062e+01 -3.849210739135742188e+00 1.023297071456909180e+00 3.344643592834472656e+00 1.310382127761840820e+00 6.227295994758605957e-01
5.247000000000000000e+03 1.565977859497070312e+01 1.986956024169921875e+01 -1.219484582543373108e-01 6.900499109178781509e-03 -3.451438993215560913e-02 9.310657531023025513e-02
5.248000000000000000e+03 4.698914527893066406e+00 2.161446189880371094e+01 -1.088883262127637863e-02 -4.158955067396163940e-02 -1.574351452291011810e-02 2.806727588176727295e-02
5.249000000000000000e+03 7.485410308837890625e+01 -2.193033218383789062e+01 -3.745487034320831299e-01 7.324815273284912109e+00 2.085079908370971680e+00 7.068908810615539551e-01
5.250000000000000000e+03 7.555124759674072266e+00 1.208663654327392578e+01 6.180791184306144714e-03 -8.499051444232463837e-03 -6.954779382795095444e-04 3.769468283280730247e-03
5.251000000000000000e+03 8.385021209716796875e+00 1.189584732055664062e+01 7.469037547707557678e-03 -3.590273205190896988e-03 1.163629349321126938e-03 4.587584640830755234e-03
5.252000000000000000e+03 7.033319854736328125e+01 -2.169070816040039062e+01 -1.250329148024320602e-02 4.205948352813720703e+00 1.258033633232116699e+00 1.009345650672912598e+00
5.253000000000000000e+03 5.179506778717041016e+00 -1.006709671020507812e+01 -2.049921639263629913e-02 -1.284789573401212692e-02 -1.000413391739130020e-02 -1.431826222687959671e-02
5.254000000000000000e+03 5.940959930419921875e+01 -7.169337749481201172e+00 1.012568950653076172e+00 4.656763553619384766e+00 1.700799822807312012e+00 1.261071443557739258e+00
5.255000000000000000e+03 5.772377777099609375e+01 -6.283763885498046875e+00 9.289351105690002441e-01 2.540751695632934570e+00 1.040906071662902832e+00 7.092265486717224121e-01
5.256000000000000000e+03 5.031013965606689453e+00 -1.477849102020263672e+01 -2.232683636248111725e-02 -4.408150166273117065e-02 -1.992250047624111176e-02 -5.045320838689804077e-02
5.257000000000000000e+03 4.926343154907226562e+01 -2.217341613769531250e+01 -1.853876709938049316e-01 6.361498832702636719e-01 1.352286636829376221e-01 -3.812912106513977051e-02
5.258000000000000000e+03 7.197341156005859375e+01 -2.098593711853027344e+01 -4.838461577892303467e-01 5.414754867553710938e+00 1.479272723197937012e+00 1.324742913246154785e+00
5.259000000000000000e+03 7.305459594726562500e+01 -1.968697929382324219e+01 -1.070598721504211426e+00 6.758553504943847656e+00 1.706386446952819824e+00 1.270234942436218262e+00
5.260000000000000000e+03 7.170457363128662109e+00 2.701275634765625000e+01 -1.038855873048305511e-02 -7.795248925685882568e-02 -2.650231495499610901e-02 6.658989936113357544e-02
5.261000000000000000e+03 7.075936794281005859e+00 2.582443428039550781e+01 -1.441266294568777084e-02 -6.727609038352966309e-02 -2.450662665069103241e-02 6.282662600278854370e-02
5.262000000000000000e+03 7.276496124267578125e+01 -2.576036262512207031e+01 1.631511449813842773e-01 5.859920024871826172e+00 1.806921362876892090e+00 7.532083392143249512e-01
5.263000000000000000e+03 3.458363342285156250e+01 1.925872421264648438e+01 -4.577585458755493164e-01 -7.729497551918029785e-02 -1.605160534381866455e-01 2.605676949024200439e-01
5.264000000000000000e+03 6.189798355102539062e+01 -1.903431701660156250e+01 -5.486410856246948242e-01 3.749873638153076172e+00 9.603697657585144043e-01 -5.167120695114135742e-01
5.265000000000000000e+03 5.122085189819335938e+01 -8.544564992189407349e-02 -8.472713828086853027e-01 1.924955397844314575e-01 -1.964327543973922729e-01 -1.388274580240249634e-01
5.266000000000000000e+03 5.178277206420898438e+01 1.033033370971679688e+00 -1.013435363769531250e+00 2.158477902412414551e-01 -2.392762899398803711e-01 2.547930739820003510e-02
5.267000000000000000e+03 5.481712722778320312e+01 -2.052169561386108398e+00 -1.701155751943588257e-01 -2.597393691539764404e-01 -1.289564818143844604e-01 -5.908246636390686035e-01
5.268000000000000000e+03 7.449158477783203125e+01 1.848964500427246094e+01 2.193775326013565063e-01 6.505771636962890625e+00 2.017544746398925781e+00 7.168986797332763672e-01
5.269000000000000000e+03 6.646426391601562500e+01 1.938998413085937500e+01 -9.982534646987915039e-01 7.195583343505859375e+00 1.859199047088623047e+00 -9.311846494674682617e-01
5.270000000000000000e+03 6.456591796875000000e+01 1.897463417053222656e+01 -6.150541305541992188e-01 5.882396697998046875e+00 1.580202817916870117e+00 -1.935330986976623535e+00
5.271000000000000000e+03 6.459606647491455078e+00 -2.208798217773437500e+01 -1.209304481744766235e-02 -1.387797892093658447e-01 -4.526184871792793274e-02 -1.128351688385009766e-01
5.272000000000000000e+03 5.626409053802490234e+00 -2.126730918884277344e+01 -1.122233644127845764e-02 -1.274544894695281982e-01 -4.160304740071296692e-02 -9.815969318151473999e-02
5.273000000000000000e+03 8.902408599853515625e+00 1.441016101837158203e+01 -9.888696484267711639e-03 -2.884354442358016968e-03 -3.831915324553847313e-03 8.357211016118526459e-03
5.274000000000000000e+03 9.668081283569335938e+00 1.346956253051757812e+01 -4.854357801377773285e-03 3.402716014534235001e-03 -4.354925476945936680e-04 7.702651899307966232e-03
5.275000000000000000e+03 5.381029605865478516e+00 2.610525321960449219e+01 -7.977440953254699707e-03 -7.339061796665191650e-02 -2.441041730344295502e-02 4.967572540044784546e-02
5.276000000000000000e+03 1.391160392761230469e+01 -1.022275829315185547e+01 -1.255047023296356201e-01 -3.259481396526098251e-03 -3.862925618886947632e-02 -4.859029874205589294e-02
5.277000000000000000e+03 6.106896591186523438e+01 -1.305048179626464844e+01 -9.231346249580383301e-01 5.220051765441894531e+00 1.289075136184692383e+00 1.073608636856079102e+00
5.278000000000000000e+03 6.153333663940429688e+01 -1.335860633850097656e+01 -1.077058076858520508e+00 5.132338047027587891e+00 1.216583967208862305e+00 8.316975831985473633e-01
5.279000000000000000e+03 7.096944427490234375e+01 1.324887466430664062e+01 2.694186210632324219e+00 5.867593288421630859e+00 2.568533897399902344e+00 1.692005634307861328e+00
5.280000000000000000e+03 6.304187774658203125e+01 -1.736271286010742188e+01 -1.042236447334289551e+00 3.665055990219116211e+00 7.868459224700927734e-01 -4.011952280998229980e-01
5.281000000000000000e+03 2.131822586059570312e+01 -1.429502105712890625e+01 -2.428692430257797241e-01 -2.495349347591400146e-01 -1.477212458848953247e-01 -3.003675341606140137e-01
5.282000000000000000e+03 2.259028816223144531e+01 -1.510903739929199219e+01 -1.625054031610488892e-01 -3.359467089176177979e-01 -1.495356410741806030e-01 -2.751453220844268799e-01
5.283000000000000000e+03 5.174566650390625000e+01 1.906991195678710938e+01 -7.265657186508178711e-01 5.760091170668601990e-02 -2.006894350051879883e-01 -1.385551989078521729e-01
5.284000000000000000e+03 4.942823791503906250e+01 -2.332061386108398438e+01 -1.687042973935604095e-02 7.527049183845520020e-01 2.207503616809844971e-01 2.196858264505863190e-02
5.285000000000000000e+03 5.054311752319335938e+01 -2.293785285949707031e+01 -1.967794261872768402e-02 7.911036014556884766e-01 2.314276844263076782e-01 1.287593096494674683e-01
5.286000000000000000e+03 6.140782165527343750e+01 -2.261162757873535156e+01 -3.011030852794647217e-01 3.499885320663452148e+00 9.596346616744995117e-01 -4.004732072353363037e-01
5.287000000000000000e+03 6.041739273071289062e+01 -2.226398086547851562e+01 -4.612314701080322266e-01 3.620814561843872070e+00 9.478749036788940430e-01 -3.932971656322479248e-01
5.288000000000000000e+03 5.939350509643554688e+01 -2.422119712829589844e+01 -3.161793053150177002e-01 3.352785348892211914e+00 9.109818339347839355e-01 -3.512299060821533203e-02
5.289000000000000000e+03 6.877598571777343750e+01 2.547287178039550781e+01 -5.338802337646484375e-01 6.099993228912353516e+00 1.669833898544311523e+00 -2.369583249092102051e-01
5.290000000000000000e+03 5.205184173583984375e+01 -2.548848533630371094e+01 1.502154916524887085e-01 1.296759843826293945e+00 4.340926110744476318e-01 2.782837748527526855e-01
5.291000000000000000e+03 2.617115974426269531e+01 2.315504264831542969e+01 -1.557440906763076782e-01 -1.045179888606071472e-01 -7.807862758636474609e-02 2.332204133272171021e-01
5.292000000000000000e+03 5.368838119506835938e+01 -2.536397743225097656e+01 5.844405665993690491e-02 1.730331659317016602e+00 5.366327166557312012e-01 4.121918976306915283e-01
5.293000000000000000e+03 7.166361236572265625e+01 2.244493675231933594e+01 -4.688510596752166748e-01 6.824292182922363281e+00 1.906632304191589355e+00 4.036277234554290771e-01
5.294000000000000000e+03 6.153498458862304688e+01 -1.561291599273681641e+01 -9.507200121879577637e-01 4.444271564483642578e+00 1.048065423965454102e+00 3.388350307941436768e-01
5.295000000000000000e+03 6.309242630004882812e+01 9.985532760620117188e-01 -1.409422159194946289e+00 6.197000503540039062e+00 1.436273455619812012e+00 3.685926914215087891e+00
5.296000000000000000e+03 7.421869659423828125e+01 -2.080135536193847656e+01 -6.899021267890930176e-01 7.238357067108154297e+00 1.964536428451538086e+00 8.264609575271606445e-01
5.297000000000000000e+03 5.584464645385742188e+01 1.933310890197753906e+01 -3.025574684143066406e-01 9.291917085647583008e-01 1.879902631044387817e-01 -3.907461762428283691e-01
5.298000000000000000e+03 6.482306671142578125e+01 2.072047233581542969e+00 6.741678118705749512e-01 6.189527511596679688e+00 2.059108495712280273e+00 3.033184528350830078e+00
5.299000000000000000e+03 3.968643665313720703e+00 -2.202719497680664062e+01 -5.421839654445648193e-03 -1.371328085660934448e-01 -4.276639595627784729e-02 -7.715199142694473267e-02
5.300000000000000000e+03 6.586128234863281250e+01 2.009777450561523438e+01 -8.652132153511047363e-01 6.575811862945556641e+00 1.713179707527160645e+00 -1.234701037406921387e+00
5.301000000000000000e+03 8.844160079956054688e+00 -7.728880882263183594e+00 -3.528680279850959778e-02 -1.106659788638353348e-02 -1.390602067112922668e-02 -9.634885936975479126e-03
5.302000000000000000e+03 6.669563770294189453e+00 2.034263801574707031e+01 -2.086964622139930725e-02 -3.047173842787742615e-02 -1.540241576731204987e-02 3.218706697225570679e-02
5.303000000000000000e+03 5.543426513671875000e+00 2.132272529602050781e+01 -1.564103923738002777e-02 -3.788495436310768127e-02 -1.605779863893985748e-02 3.142790868878364563e-02
5.304000000000000000e+03 2.972958183288574219e+01 2.086020088195800781e+01 -3.118717968463897705e-01 -4.419537633657455444e-02 -1.068201512098312378e-01 2.637470960617065430e-01
5.305000000000000000e+03 8.792028427124023438e+00 1.139501094818115234e+01 1.126173790544271469e-02 2.214957959949970245e-03 4.043008666485548019e-03 5.936121568083763123e-03
5.306000000000000000e+03 7.407898426055908203e+00 1.108001899719238281e+01 9.987291879951953888e-03 -9.664319455623626709e-03 9.689154830994084477e-05 4.630742128938436508e-03
5.307000000000000000e+03 3.006401634216308594e+01 -1.730352401733398438e+01 -2.506387829780578613e-01 7.699733227491378784e-02 -5.209244042634963989e-02 1.596323330886662006e-03
5.308000000000000000e+03 5.909550189971923828e+00 -1.107849693298339844e+01 -2.723009698092937469e-02 -2.008344978094100952e-02 -1.419406384229660034e-02 -2.524027973413467407e-02
5.309000000000000000e+03 1.361653995513916016e+01 -9.047141075134277344e+00 -1.003239527344703674e-01 -2.781708026304841042e-03 -3.093169815838336945e-02 -2.296335622668266296e-02
5.310000000000000000e+03 1.336974430084228516e+01 -7.785662651062011719e+00 -6.808344274759292603e-02 -5.056281574070453644e-03 -2.194191701710224152e-02 -1.079024281352758408e-02
5.311000000000000000e+03 2.856560897827148438e+01 -1.385553359985351562e+01 -2.020932137966156006e-01 -1.257884353399276733e-01 -9.836449474096298218e-02 1.342260688543319702e-01
5.312000000000000000e+03 1.111661052703857422e+01 -6.249252796173095703e+00 -3.164788335561752319e-02 -1.064833439886569977e-02 -1.268886588513851166e-02 -1.500588026829063892e-03
5.313000000000000000e+03 4.695608901977539062e+01 -1.927215576171875000e+01 -5.828213691711425781e-01 5.614040493965148926e-01 -6.425200030207633972e-03 -6.097299978137016296e-02
5.314000000000000000e+03 4.640402221679687500e+01 -1.878902626037597656e+01 -6.290750503540039062e-01 5.676445960998535156e-01 -1.842914894223213196e-02 -6.425252556800842285e-02
5.315000000000000000e+03 7.274795532226562500e+01 -2.681424331665039062e+01 1.941387504339218140e-01 5.843741416931152344e+00 1.811364054679870605e+00 6.961386203765869141e-01
5.316000000000000000e+03 7.475379180908203125e+01 -2.260539436340332031e+01 -3.068802058696746826e-01 7.117454528808593750e+00 2.043172359466552734e+00 7.242441773414611816e-01
5.317000000000000000e+03 5.390994262695312500e+01 1.972665405273437500e+01 -4.571142494678497314e-01 5.530825257301330566e-01 2.879047952592372894e-02 -2.806657552719116211e-01
5.318000000000000000e+03 4.696167373657226562e+01 -1.823581886291503906e+01 -6.498488187789916992e-01 5.744989514350891113e-01 -2.260496653616428375e-02 -5.101831629872322083e-02
5.319000000000000000e+03 1.465929126739501953e+01 -1.068487358093261719e+01 -1.563283801078796387e-01 -4.516183398663997650e-03 -4.825337231159210205e-02 -6.489734351634979248e-02
5.320000000000000000e+03 1.531272315979003906e+01 -9.904766082763671875e+00 -1.592980623245239258e-01 5.869701039046049118e-03 -4.602850973606109619e-02 -4.614011570811271667e-02
5.321000000000000000e+03 6.269689559936523438e+01 -1.854842567443847656e+01 -7.501797676086425781e-01 3.614655256271362305e+00 8.593426346778869629e-01 -5.271160602569580078e-01
5.322000000000000000e+03 6.322263336181640625e+01 -1.927190399169921875e+01 -6.390389800071716309e-01 3.444687604904174805e+00 8.416945934295654297e-01 -6.536151766777038574e-01
5.323000000000000000e+03 5.743968963623046875e+01 -3.345695257186889648e+00 7.279716134071350098e-01 1.580555438995361328e+00 6.925581693649291992e-01 2.445502430200576782e-01
5.324000000000000000e+03 5.772922897338867188e+01 -4.640138149261474609e+00 1.045220494270324707e+00 2.180732011795043945e+00 9.677857756614685059e-01 4.534958302974700928e-01
5.325000000000000000e+03 9.862822532653808594e+00 1.581704998016357422e+01 -2.453406900167465210e-02 8.162214071489870548e-04 -7.115354295819997787e-03 1.648043282330036163e-02
5.326000000000000000e+03 9.245641708374023438e+00 1.544668006896972656e+01 -1.834180578589439392e-02 -3.027486382052302361e-03 -6.410787813365459442e-03 1.264279056340456009e-02
5.327000000000000000e+03 7.406611633300781250e+01 1.526525211334228516e+01 1.051429629325866699e+00 5.879551410675048828e+00 2.079294443130493164e+00 3.497011661529541016e-01
5.328000000000000000e+03 6.229187488555908203e+00 1.057778549194335938e+01 9.558001533150672913e-03 -1.255405321717262268e-02 -8.988155168481171131e-04 7.191241718828678131e-03
5.329000000000000000e+03 1.646936607360839844e+01 2.172427749633789062e+01 -1.141628772020339966e-01 -1.843563839793205261e-02 -3.977955505251884460e-02 1.320624649524688721e-01
5.330000000000000000e+03 2.844988059997558594e+01 -1.281201934814453125e+01 -2.154788225889205933e-01 -1.756911277770996094e-01 -1.173509806394577026e-01 1.426318585872650146e-01
5.331000000000000000e+03 2.805285644531250000e+01 -1.329893684387207031e+01 -1.801823228597640991e-01 -2.419611364603042603e-01 -1.266430318355560303e-01 1.541001200675964355e-01
5.332000000000000000e+03 1.966143989562988281e+01 -1.441861248016357422e+01 -2.316088527441024780e-01 -1.495821177959442139e-01 -1.143572926521301270e-01 -2.778440713882446289e-01
5.333000000000000000e+03 4.985675811767578125e+00 -1.092221450805664062e+01 -2.090669423341751099e-02 -1.604574918746948242e-02 -1.108573284000158310e-02 -2.005159482359886169e-02
5.334000000000000000e+03 4.190790939331054688e+01 1.790905189514160156e+01 -9.019153118133544922e-01 1.880115568637847900e-01 -2.141711264848709106e-01 2.639735639095306396e-01
5.335000000000000000e+03 6.308804321289062500e+01 -2.047592353820800781e+01 -4.293224811553955078e-01 3.414083957672119141e+00 8.954284787178039551e-01 -6.261897087097167969e-01
5.336000000000000000e+03 7.046656799316406250e+01 1.725902175903320312e+01 1.513050496578216553e-01 7.726712703704833984e+00 2.363405466079711914e+00 1.188833236694335938e+00
5.337000000000000000e+03 2.506115150451660156e+01 -1.588170051574707031e+01 -9.163520485162734985e-02 -3.667166829109191895e-01 -1.375055760145187378e-01 -1.296188533306121826e-01
5.338000000000000000e+03 7.273116302490234375e+01 -2.150082778930664062e+01 -4.202420413494110107e-01 6.073124408721923828e+00 1.695864677429199219e+00 1.136599898338317871e+00
5.339000000000000000e+03 6.485709381103515625e+01 -2.131109619140625000e+01 -1.840690523386001587e-01 3.096571683883666992e+00 8.737508058547973633e-01 -5.371505022048950195e-01
5.340000000000000000e+03 6.900474548339843750e+01 1.737739944458007812e+01 -3.951651751995086670e-01 8.436120986938476562e+00 2.412286758422851562e+00 8.845738172531127930e-01
5.341000000000000000e+03 6.132068634033203125e+00 2.591442871093750000e+01 -1.127669028937816620e-02 -7.000976055860519409e-02 -2.438593469560146332e-02 5.502412468194961548e-02
5.342000000000000000e+03 7.423796081542968750e+01 1.680722045898437500e+01 6.315889358520507812e-01 6.261203765869140625e+00 2.067837953567504883e+00 6.458028554916381836e-01
5.343000000000000000e+03 8.109302520751953125e+00 1.323225879669189453e+01 -1.385917421430349350e-03 -3.467204049229621887e-03 -1.455936464481055737e-03 5.811417009681463242e-03
5.344000000000000000e+03 7.093079566955566406e+00 1.174468612670898438e+01 8.721256628632545471e-03 -8.273424580693244934e-03 1.343497424386441708e-04 5.805125460028648376e-03
5.345000000000000000e+03 5.891577529907226562e+01 1.913358497619628906e+01 -4.272245988249778748e-02 1.603891372680664062e+00 4.683506786823272705e-01 -8.782804608345031738e-01
5.346000000000000000e+03 5.885855102539062500e+01 1.840317535400390625e+01 -1.113290246576070786e-02 1.366736531257629395e+00 4.066810905933380127e-01 -7.805348634719848633e-01
5.347000000000000000e+03 4.135237503051757812e+01 1.819779014587402344e+01 -8.424043655395507812e-01 1.770842969417572021e-01 -1.995960175991058350e-01 2.673474550247192383e-01
5.348000000000000000e+03 4.063944244384765625e+01 1.838948059082031250e+01 -7.981938123703002930e-01 1.593061536550521851e-01 -1.916662901639938354e-01 2.563795745372772217e-01
5.349000000000000000e+03 7.103332519531250000e+01 -2.167991638183593750e+01 -1.263593435287475586e-01 4.728025913238525391e+00 1.380499958992004395e+00 1.118043065071105957e+00
5.350000000000000000e+03 7.911029815673828125e+00 1.147512435913085938e+01 1.039639394730329514e-02 -3.761407220736145973e-03 1.990495948120951653e-03 5.550801753997802734e-03
5.351000000000000000e+03 7.177845764160156250e+01 1.396238613128662109e+01 2.214836359024047852e+00 5.702374935150146484e+00 2.375163316726684570e+00 1.161449670791625977e+00
5.352000000000000000e+03 6.196475505828857422e+00 -1.673629379272460938e+01 -2.910557016730308533e-02 -6.941162049770355225e-02 -2.955515682697296143e-02 -7.985688745975494385e-02
5.353000000000000000e+03 5.659219741821289062e+00 -7.186048984527587891e+00 -1.213289238512516022e-02 -5.230912473052740097e-03 -5.209141410887241364e-03 1.552031317260116339e-04
5.354000000000000000e+03 6.517345905303955078e+00 -7.264238357543945312e+00 -1.606693863868713379e-02 -7.584636565297842026e-03 -7.095472421497106552e-03 -2.197732916101813316e-03
5.355000000000000000e+03 6.430132865905761719e+00 2.390970230102539062e+01 -1.720793545246124268e-02 -5.351825430989265442e-02 -2.121785655617713928e-02 5.012014135718345642e-02
5.356000000000000000e+03 5.792821884155273438e+00 -1.504532432556152344e+01 -2.957963198423385620e-02 -5.037080124020576477e-02 -2.398513071238994598e-02 -6.132075563073158264e-02
5.357000000000000000e+03 6.410017490386962891e+00 -1.596827411651611328e+01 -3.443062677979469299e-02 -6.109777092933654785e-02 -2.865851856768131256e-02 -7.645218074321746826e-02
5.358000000000000000e+03 6.170108413696289062e+01 -1.634552383422851562e+01 -8.653195500373840332e-01 4.215703964233398438e+00 1.005115270614624023e+00 5.032823234796524048e-02
5.359000000000000000e+03 1.040208721160888672e+01 1.625274467468261719e+01 -3.037744015455245972e-02 9.244138491339981556e-04 -8.835908025503158569e-03 2.070964872837066650e-02
5.360000000000000000e+03 5.805181884765625000e+01 -5.111657142639160156e+00 1.116747021675109863e+00 2.559329986572265625e+00 1.102823138236999512e+00 5.385505557060241699e-01
5.361000000000000000e+03 7.476188659667968750e+01 -6.090386390686035156e+00 8.416965603828430176e-02 7.991966724395751953e+00 2.422840833663940430e+00 6.518822312355041504e-01
5.362000000000000000e+03 7.445754241943359375e+01 -2.415955924987792969e+01 -8.597707748413085938e-02 6.764199733734130859e+00 2.003466844558715820e+00 7.571695446968078613e-01
5.363000000000000000e+03 4.565686798095703125e+01 -2.152894020080566406e+01 -3.042670190334320068e-01 4.582553207874298096e-01 4.619648307561874390e-02 -7.594433426856994629e-02
5.364000000000000000e+03 5.984833908081054688e+01 -2.061043548583984375e+01 -5.217918753623962402e-01 3.848158121109008789e+00 9.979099035263061523e-01 -4.425691664218902588e-01
5.365000000000000000e+03 5.097907066345214844e+00 -8.488821029663085938e+00 -1.459278445690870285e-02 -7.052584551274776459e-03 -6.493610795587301254e-03 -4.309973679482936859e-03
5.366000000000000000e+03 7.296434783935546875e+01 2.024509811401367188e+01 -1.572505086660385132e-01 6.834446430206298828e+00 2.003158807754516602e+00 7.059266567230224609e-01
5.367000000000000000e+03 3.754378128051757812e+01 -2.043349266052246094e+01 -3.551022112369537354e-01 1.532554626464843750e-02 -1.019330024719238281e-01 -3.605076968669891357e-01
5.368000000000000000e+03 3.703863906860351562e+01 -2.197653770446777344e+01 -1.969294100999832153e-01 4.895808175206184387e-02 -4.439139738678932190e-02 -3.325762748718261719e-01
5.369000000000000000e+03 5.259465217590332031e+00 1.935463523864746094e+01 -1.241107285022735596e-02 -2.960085496306419373e-02 -1.260357908904552460e-02 2.058509364724159241e-02
5.370000000000000000e+03 6.284834384918212891e+00 1.805201339721679688e+01 -1.611480861902236938e-02 -2.123759873211383820e-02 -1.120572164654731750e-02 1.847584173083305359e-02
5.371000000000000000e+03 5.921398162841796875e+00 -1.269851207733154297e+01 -3.033898212015628815e-02 -3.059054352343082428e-02 -1.827885769307613373e-02 -4.029883816838264465e-02
5.372000000000000000e+03 7.431268310546875000e+01 -2.175278091430664062e+01 -4.746837019920349121e-01 7.007384777069091797e+00 1.959810256958007812e+00 8.134642839431762695e-01
5.373000000000000000e+03 6.363574981689453125e+00 -2.139669799804687500e+01 -1.515724044293165207e-02 -1.271698325872421265e-01 -4.269811883568763733e-02 -1.084563285112380981e-01
5.374000000000000000e+03 5.572201251983642578e+00 -1.327056026458740234e+01 -3.039139509201049805e-02 -3.273614495992660522e-02 -1.893826201558113098e-02 -4.284161329269409180e-02
5.375000000000000000e+03 5.989924430847167969e+00 -1.438647651672363281e+01 -3.175794705748558044e-02 -4.374732077121734619e-02 -2.265158109366893768e-02 -5.624476447701454163e-02
5.376000000000000000e+03 6.610649585723876953e+00 1.144950199127197266e+01 7.110069971531629562e-03 -1.148210838437080383e-02 -1.311611500568687916e-03 5.147148855030536652e-03
5.377000000000000000e+03 5.207909584045410156e+00 1.208802604675292969e+01 4.336424637585878372e-03 -1.492961589246988297e-02 -3.177957376465201378e-03 4.757721442729234695e-03
5.378000000000000000e+03 3.557991409301757812e+01 1.949412536621093750e+01 -4.747607409954071045e-01 -6.476701796054840088e-02 -1.618583351373672485e-01 2.451563775539398193e-01
5.379000000000000000e+03 7.455316925048828125e+01 -1.959295082092285156e+01 -1.041608214378356934e+00 7.863518238067626953e+00 2.046572923660278320e+00 5.925837159156799316e-01
5.380000000000000000e+03 6.857075691223144531e+00 -2.015666961669921875e+01 -2.235890924930572510e-02 -1.134857907891273499e-01 -4.075340926647186279e-02 -1.112172752618789673e-01
5.381000000000000000e+03 6.532796382904052734e+00 -1.872287178039550781e+01 -2.672911249101161957e-02 -9.454175829887390137e-02 -3.638125956058502197e-02 -9.948908537626266479e-02
5.382000000000000000e+03 1.681746101379394531e+01 -1.420736598968505859e+01 -2.138968110084533691e-01 -5.664497241377830505e-02 -8.116253465414047241e-02 -1.903244704008102417e-01
5.383000000000000000e+03 3.742089843750000000e+01 1.894009399414062500e+01 -5.804646015167236328e-01 1.406630314886569977e-02 -1.699194908142089844e-01 2.145668864250183105e-01
5.384000000000000000e+03 6.938944339752197266e+00 1.440099143981933594e+01 -4.119716119021177292e-03 -1.050378289073705673e-02 -4.387049935758113861e-03 7.518704049289226532e-03
5.385000000000000000e+03 8.330158233642578125e+00 -2.154253387451171875e+01 -1.872275769710540771e-02 -1.332713812589645386e-01 -4.559823870658874512e-02 -1.360149383544921875e-01
5.386000000000000000e+03 7.832602024078369141e+00 -2.083337783813476562e+01 -2.137401886284351349e-02 -1.255826950073242188e-01 -4.408701136708259583e-02 -1.269097179174423218e-01
5.387000000000000000e+03 7.238291168212890625e+01 2.172485160827636719e+01 -3.446159660816192627e-01 6.836620807647705078e+00 1.947601437568664551e+00 5.146234631538391113e-01
5.388000000000000000e+03 7.460990428924560547e+00 -8.569551467895507812e+00 -3.201219812035560608e-02 -1.157612632960081100e-02 -1.307649724185466766e-02 -1.120395585894584656e-02
5.389000000000000000e+03 3.904502487182617188e+01 1.874972724914550781e+01 -6.818780303001403809e-01 9.742248058319091797e-02 -1.753366589546203613e-01 2.287634015083312988e-01
5.390000000000000000e+03 6.657764911651611328e+00 1.592225933074951172e+01 -1.025991234928369522e-02 -1.415059529244899750e-02 -7.323152385652065277e-03 1.115010492503643036e-02
5.391000000000000000e+03 6.951981353759765625e+01 -2.093001747131347656e+01 1.334558334201574326e-02 3.372520923614501953e+00 1.015759944915771484e+00 8.990219235420227051e-01
5.392000000000000000e+03 5.748725128173828125e+01 -4.133005619049072266e+00 9.329438805580139160e-01 1.775142192840576172e+00 8.124258518218994141e-01 2.911899387836456299e-01
5.393000000000000000e+03 2.925370025634765625e+01 -1.451940631866455078e+01 -2.070255875587463379e-01 -1.182373426854610443e-02 -6.565479934215545654e-02 1.284211724996566772e-01
5.394000000000000000e+03 2.976869010925292969e+01 -1.652168273925781250e+01 -2.495927661657333374e-01 6.326033920049667358e-02 -5.589972808957099915e-02 5.246343836188316345e-02
5.395000000000000000e+03 2.370196914672851562e+01 -1.478603458404541016e+01 -1.405148208141326904e-01 -4.177449643611907959e-01 -1.674779355525970459e-01 -2.411011904478073120e-01
5.396000000000000000e+03 6.728791809082031250e+01 -2.202666473388671875e+01 1.967595517635345459e-01 3.094547271728515625e+00 9.873920679092407227e-01 7.518359273672103882e-02
5.397000000000000000e+03 6.230149459838867188e+01 -1.538495826721191406e+01 -1.143434166908264160e+00 4.330336093902587891e+00 9.560704827308654785e-01 1.321286857128143311e-01
5.398000000000000000e+03 4.662085723876953125e+01 2.052888488769531250e+01 -5.034438967704772949e-01 -2.047182470560073853e-01 -2.124486416578292847e-01 4.250158667564392090e-01
5.399000000000000000e+03 6.559436798095703125e+01 -2.087475967407226562e+01 -1.604350358247756958e-01 2.871872186660766602e+00 8.134311437606811523e-01 -4.723555147647857666e-01
5.400000000000000000e+03 6.780039978027343750e+01 -2.275009536743164062e+01 2.782012224197387695e-01 3.294138669967651367e+00 1.071702003479003906e+00 2.375231683254241943e-01
5.401000000000000000e+03 7.294021606445312500e+01 -2.794310569763183594e+01 2.275706827640533447e-01 5.925016403198242188e+00 1.845776081085205078e+00 6.332442760467529297e-01
5.402000000000000000e+03 6.961046218872070312e+00 2.822943496704101562e+01 -5.326543468981981277e-03 -8.831824362277984619e-02 -2.809343673288822174e-02 6.770408898591995239e-02
5.403000000000000000e+03 5.086978530883789062e+01 2.107470893859863281e+01 -2.788526117801666260e-01 6.248672306537628174e-02 -6.490976363420486450e-02 -7.037446647882461548e-02
5.404000000000000000e+03 4.680862045288085938e+01 -2.216545486450195312e+01 -2.537312209606170654e-01 5.269439220428466797e-01 8.196381479501724243e-02 -7.861980795860290527e-02
5.405000000000000000e+03 2.712320709228515625e+01 2.333910942077636719e+01 -1.565671861171722412e-01 -9.843338280916213989e-02 -7.650016993284225464e-02 2.436618506908416748e-01
5.406000000000000000e+03 1.256160640716552734e+01 -2.450297355651855469e+01 8.837583474814891815e-03 -1.717500537633895874e-01 -4.887374117970466614e-02 -1.864813268184661865e-01
5.407000000000000000e+03 6.782985687255859375e+01 2.548125839233398438e+01 -5.350640416145324707e-01 5.854361057281494141e+00 1.595789074897766113e+00 -4.043259024620056152e-01
5.408000000000000000e+03 6.839707183837890625e+01 -2.858075904846191406e+01 4.044632315635681152e-01 4.421233654022216797e+00 1.447708964347839355e+00 3.582941889762878418e-01
5.409000000000000000e+03 7.083903503417968750e+01 -2.515067291259765625e+01 2.752395570278167725e-01 4.928783416748046875e+00 1.561206936836242676e+00 7.058265805244445801e-01
5.410000000000000000e+03 1.031086254119873047e+01 -2.243405342102050781e+01 -1.512972731143236160e-02 -1.465095728635787964e-01 -4.849179089069366455e-02 -1.638995707035064697e-01
5.411000000000000000e+03 3.968702697753906250e+01 -2.332267761230468750e+01 -4.076554626226425171e-02 6.733860820531845093e-02 7.971919141709804535e-03 -2.594546079635620117e-01
5.412000000000000000e+03 4.143802261352539062e+01 -2.368583488464355469e+01 -3.400664031505584717e-02 1.384752541780471802e-01 3.134058788418769836e-02 -1.854150146245956421e-01
5.413000000000000000e+03 6.053613662719726562e+00 -7.575682163238525391e+00 -1.758115366101264954e-02 -8.211468346416950226e-03 -7.737786509096622467e-03 -2.112587681040167809e-03
5.414000000000000000e+03 6.109156131744384766e+00 -6.678855419158935547e+00 -1.469589676707983017e-02 -6.017368286848068237e-03 -6.213979329913854599e-03 1.696706982329487801e-03
5.415000000000000000e+03 1.022608184814453125e+01 -7.535012245178222656e+00 -4.020170494914054871e-02 -1.004326343536376953e-02 -1.507349032908678055e-02 -1.004302687942981720e-02
5.416000000000000000e+03 6.844853973388671875e+01 -2.336852645874023438e+01 3.041714429855346680e-01 3.715369462966918945e+00 1.205862283706665039e+00 4.358300268650054932e-01
5.417000000000000000e+03 7.026457977294921875e+01 1.866158866882324219e+01 -3.314651846885681152e-01 7.588072299957275391e+00 2.176982164382934570e+00 8.046041131019592285e-01
5.418000000000000000e+03 9.421165466308593750e+00 -7.015901565551757812e+00 -2.998382598161697388e-02 -1.014311239123344421e-02 -1.203808188438415527e-02 -6.261683069169521332e-03
5.419000000000000000e+03 2.277921104431152344e+01 -1.632728195190429688e+01 -1.137836650013923645e-01 -3.063600957393646240e-01 -1.260431259870529175e-01 -2.411333322525024414e-01
5.420000000000000000e+03 6.550128173828125000e+01 -2.302337455749511719e+01 1.263491809368133545e-01 3.264328002929687500e+00 1.017203211784362793e+00 -2.459264248609542847e-01
5.421000000000000000e+03 1.088561534881591797e+01 1.673163604736328125e+01 -3.954561054706573486e-02 3.978792112320661545e-03 -1.067004539072513580e-02 2.478190325200557709e-02
5.422000000000000000e+03 2.864409446716308594e+01 -1.520903205871582031e+01 -1.957977265119552612e-01 -8.938919752836227417e-02 -8.555607497692108154e-02 8.969985693693161011e-02
5.423000000000000000e+03 2.111533546447753906e+01 2.263698577880859375e+01 -1.352139562368392944e-01 -8.130362629890441895e-02 -6.495527923107147217e-02 2.087525427341461182e-01
5.424000000000000000e+03 7.179631042480468750e+01 1.972831916809082031e+01 -2.266930490732192993e-01 7.056780338287353516e+00 2.049026250839233398e+00 7.363114953041076660e-01
5.425000000000000000e+03 8.111617088317871094e+00 -7.643269062042236328e+00 -2.875841036438941956e-02 -1.041438803076744080e-02 -1.175183989107608795e-02 -6.853453349322080612e-03
5.426000000000000000e+03 2.916553688049316406e+01 2.229293632507324219e+01 -2.278921306133270264e-01 -6.938241422176361084e-02 -8.918236196041107178e-02 2.649034261703491211e-01
5.427000000000000000e+03 6.893396759033203125e+01 -2.265787506103515625e+01 2.720379233360290527e-01 3.679074287414550781e+00 1.185333728790283203e+00 5.564868450164794922e-01
5.428000000000000000e+03 1.649883079528808594e+01 -1.146499633789062500e+01 -2.273330837488174438e-01 -7.101467344909906387e-04 -6.841297447681427002e-02 -9.830743074417114258e-02
5.429000000000000000e+03 7.340787506103515625e+01 -2.199498748779296875e+01 -3.921463191509246826e-01 6.423905372619628906e+00 1.809527754783630371e+00 9.622656106948852539e-01
5.430000000000000000e+03 6.794746398925781250e+01 2.032945060729980469e+01 -8.308386802673339844e-01 7.161555767059326172e+00 1.899215102195739746e+00 -3.043198883533477783e-01
5.431000000000000000e+03 7.161868095397949219e+00 -2.093161010742187500e+01 -1.912053860723972321e-02 -1.257368028163909912e-01 -4.345720261335372925e-02 -1.203794032335281372e-01
5.432000000000000000e+03 7.189159393310546875e+01 1.567215347290039062e+01 1.266846895217895508e+00 6.529904842376708984e+00 2.339025497436523438e+00 1.267256855964660645e+00
5.433000000000000000e+03 7.180481719970703125e+01 1.481971454620361328e+01 1.776449799537658691e+00 6.198818206787109375e+00 2.392580270767211914e+00 1.212147474288940430e+00
5.434000000000000000e+03 6.451425075531005859e+00 -9.411675453186035156e+00 -2.640899643301963806e-02 -1.301291491836309433e-02 -1.182657293975353241e-02 -1.412588544189929962e-02
5.435000000000000000e+03 1.784232330322265625e+01 -1.443860530853271484e+01 -2.294596880674362183e-01 -8.262683451175689697e-02 -9.362595528364181519e-02 -2.217751443386077881e-01
5.436000000000000000e+03 4.049162673950195312e+01 2.015443801879882812e+01 -5.959574580192565918e-01 9.558728337287902832e-02 -1.501110494136810303e-01 3.334093093872070312e-01
5.437000000000000000e+03 6.109349822998046875e+01 -2.094459152221679688e+01 -4.716371595859527588e-01 3.646733760833740234e+00 9.525289535522460938e-01 -5.365871787071228027e-01
5.438000000000000000e+03 7.218421459197998047e+00 1.274685478210449219e+01 4.242702387273311615e-03 -8.075963705778121948e-03 -1.149978488683700562e-03 5.360926501452922821e-03
5.439000000000000000e+03 6.769448757171630859e+00 1.236596584320068359e+01 4.620183724910020828e-03 -1.163771562278270721e-02 -2.105259336531162262e-03 4.159730859100818634e-03
5.440000000000000000e+03 4.513511276245117188e+01 2.148324966430664062e+01 -4.215876460075378418e-01 -8.094776421785354614e-02 -1.507606208324432373e-01 4.496676623821258545e-01
5.441000000000000000e+03 1.408956432342529297e+01 -1.074338436126708984e+01 -1.441110223531723022e-01 -2.266269410029053688e-03 -4.391318559646606445e-02 -5.930188670754432678e-02
5.442000000000000000e+03 2.388799285888671875e+01 -1.602704620361328125e+01 -1.014019101858139038e-01 -3.523460924625396729e-01 -1.361244022846221924e-01 -2.004493921995162964e-01
5.443000000000000000e+03 6.309464645385742188e+01 -2.163847923278808594e+01 -2.907649874687194824e-01 3.405150175094604492e+00 9.343156218528747559e-01 -5.406820774078369141e-01
5.444000000000000000e+03 6.367992401123046875e+01 -2.110737991333007812e+01 -3.293336629867553711e-01 3.274532556533813477e+00 8.835597038269042969e-01 -6.304575204849243164e-01
5.445000000000000000e+03 2.627105331420898438e+01 -1.567280483245849609e+01 -1.075069755315780640e-01 -3.253981471061706543e-01 -1.298715323209762573e-01 -3.401279449462890625e-02
5.446000000000000000e+03 2.795723152160644531e+01 -1.458124351501464844e+01 -1.635881513357162476e-01 -2.008479237556457520e-01 -1.093308255076408386e-01 1.034392192959785461e-01
5.447000000000000000e+03 1.258721828460693359e+01 1.948028182983398438e+01 -7.317423075437545776e-02 2.999867429025471210e-04 -2.186227217316627502e-02 6.168966740369796753e-02
5.448000000000000000e+03 1.308350849151611328e+01 1.873296737670898438e+01 -7.655441015958786011e-02 7.166824769228696823e-03 -2.081627398729324341e-02 5.496481433510780334e-02
5.449000000000000000e+03 5.470151424407958984e+00 1.692722129821777344e+01 -9.726131334900856018e-03 -1.948318816721439362e-02 -8.762795478105545044e-03 1.156109478324651718e-02
5.450000000000000000e+03 6.784286022186279297e+00 1.519760799407958984e+01 -8.428232744336128235e-03 -1.254329271614551544e-02 -6.291457917541265488e-03 7.757520768791437149e-03
5.451000000000000000e+03 6.001671314239501953e+00 1.416515541076660156e+01 -2.418711315840482712e-03 -1.408892218023538589e-02 -4.952290095388889313e-03 4.848854616284370422e-03
5.452000000000000000e+03 1.901192474365234375e+01 -1.416650772094726562e+01 -2.620980441570281982e-01 -1.072615757584571838e-01 -1.108078882098197937e-01 -2.507259249687194824e-01
5.453000000000000000e+03 1.872465133666992188e+01 -1.318735885620117188e+01 -3.001542687416076660e-01 -6.872534751892089844e-02 -1.106638833880424500e-01 -2.313483655452728271e-01
5.454000000000000000e+03 6.383653163909912109e+00 1.204111194610595703e+01 7.765064015984535217e-03 -1.170972082763910294e-02 -1.183397020213305950e-03 4.792144522070884705e-03
5.455000000000000000e+03 1.538223171234130859e+01 -1.072880268096923828e+01 -1.742495596408843994e-01 9.559519821777939796e-04 -5.198808386921882629e-02 -6.578084826469421387e-02
5.456000000000000000e+03 1.201746273040771484e+01 -8.220018386840820312e+00 -6.605667620897293091e-02 -1.018349267542362213e-02 -2.287205122411251068e-02 -1.729603298008441925e-02
5.457000000000000000e+03 5.780838012695312500e+00 -7.984897136688232422e+00 -1.674415543675422668e-02 -7.490723393857479095e-03 -7.270463742315769196e-03 -4.262924194335937500e-03
5.458000000000000000e+03 5.181613922119140625e+00 1.798324394226074219e+01 -1.079712156206369400e-02 -2.377369627356529236e-02 -1.037124544382095337e-02 1.502975635230541229e-02
5.459000000000000000e+03 6.736546516418457031e+00 -1.278235912322998047e+01 -3.929384052753448486e-02 -3.142094984650611877e-02 -2.121443860232830048e-02 -4.774856939911842346e-02
5.460000000000000000e+03 7.471800994873046875e+01 -2.131829071044921875e+01 -5.494436621665954590e-01 7.355266094207763672e+00 2.041746854782104492e+00 6.867411732673645020e-01
5.461000000000000000e+03 6.733194351196289062e+00 -1.443086814880371094e+01 -3.876793757081031799e-02 -4.639691486954689026e-02 -2.554945461452007294e-02 -6.503033638000488281e-02
5.462000000000000000e+03 6.842417716979980469e+00 -1.115111255645751953e+01 -3.749809414148330688e-02 -2.173075824975967407e-02 -1.776865683495998383e-02 -3.217216208577156067e-02
5.463000000000000000e+03 1.494094944000244141e+01 2.028686141967773438e+01 -1.046935692429542542e-01 1.202412066049873829e-03 -3.104734793305397034e-02 9.314723312854766846e-02
5.464000000000000000e+03 6.189776992797851562e+01 -1.708973312377929688e+01 -8.738246560096740723e-01 4.005282402038574219e+00 9.394373297691345215e-01 -1.749272346496582031e-01
5.465000000000000000e+03 6.614265918731689453e+00 2.208383178710937500e+01 -2.061617933213710785e-02 -4.057638719677925110e-02 -1.835777051746845245e-02 4.179970175027847290e-02
5.466000000000000000e+03 7.290007019042968750e+01 1.700358009338378906e+01 6.737399697303771973e-01 6.567442417144775391e+00 2.172354698181152344e+00 9.618362784385681152e-01
5.467000000000000000e+03 7.340074920654296875e+01 1.535036754608154297e+01 1.201370954513549805e+00 5.940042018890380859e+00 2.142423868179321289e+00 6.034724116325378418e-01
5.468000000000000000e+03 2.027904701232910156e+01 -1.474621486663818359e+01 -2.300636023283004761e-01 -1.861333250999450684e-01 -1.248590797185897827e-01 -2.790546119213104248e-01
5.469000000000000000e+03 3.096520042419433594e+01 -1.939773178100585938e+01 -2.334649413824081421e-01 9.257277101278305054e-02 -4.226765409111976624e-02 -1.071594655513763428e-01
5.470000000000000000e+03 3.895503616333007812e+01 1.971812629699707031e+01 -5.886011719703674316e-01 7.481123507022857666e-02 -1.541369855403900146e-01 2.747519314289093018e-01
5.471000000000000000e+03 5.612317085266113281e+00 -1.829633140563964844e+01 -2.002158761024475098e-02 -8.724037557840347290e-02 -3.217858821153640747e-02 -8.377794921398162842e-02
5.472000000000000000e+03 1.249937915802001953e+01 -9.787933349609375000e+00 -9.595659375190734863e-02 -7.313216570764780045e-03 -3.098094277083873749e-02 -3.362724557518959045e-02
5.473000000000000000e+03 9.514945030212402344e+00 1.637238311767578125e+01 -2.598487958312034607e-02 -3.472898388281464577e-03 -8.837333880364894867e-03 1.813068799674510956e-02
5.474000000000000000e+03 8.929831504821777344e+00 1.611745071411132812e+01 -2.145402319729328156e-02 -4.298857878893613815e-03 -7.725864648818969727e-03 1.652228832244873047e-02
5.475000000000000000e+03 6.740299224853515625e+00 -7.925660610198974609e+00 -2.307891286909580231e-02 -9.840992279350757599e-03 -9.875970892608165741e-03 -5.821148399263620377e-03
5.476000000000000000e+03 6.492799758911132812e+00 -2.072382926940917969e+01 -1.659904792904853821e-02 -1.204392388463020325e-01 -4.111148789525032043e-02 -1.077128723263740540e-01
5.477000000000000000e+03 1.564951515197753906e+01 2.183464241027832031e+01 -1.017299816012382507e-01 -1.814208365976810455e-02 -3.596162050962448120e-02 1.230480670928955078e-01
5.478000000000000000e+03 7.096070861816406250e+01 -2.247424507141113281e+01 4.229458421468734741e-02 4.755346298217773438e+00 1.439292311668395996e+00 1.007284402847290039e+00
5.479000000000000000e+03 1.049512100219726562e+01 -2.110141944885253906e+01 -3.241965547204017639e-02 -1.288149505853652954e-01 -4.837038367986679077e-02 -1.629565656185150146e-01
5.480000000000000000e+03 9.468089103698730469e+00 -2.092115020751953125e+01 -2.723516151309013367e-02 -1.261057704687118530e-01 -4.600227996706962585e-02 -1.491539031267166138e-01
5.481000000000000000e+03 1.514091396331787109e+01 -1.156214332580566406e+01 -1.883966475725173950e-01 -5.511247552931308746e-03 -5.817236751317977905e-02 -9.003010392189025879e-02
5.482000000000000000e+03 7.475239562988281250e+01 -5.067234039306640625e+00 -1.042574122548103333e-01 7.553497791290283203e+00 2.234772205352783203e+00 5.219827890396118164e-01
5.483000000000000000e+03 6.946511077880859375e+01 -2.502197265625000000e+01 3.424261808395385742e-01 4.415711402893066406e+00 1.427441239356994629e+00 5.733240246772766113e-01
5.484000000000000000e+03 5.927574539184570312e+01 -6.519752502441406250e+00 1.140257000923156738e+00 4.434574127197265625e+00 1.672449350357055664e+00 1.080713748931884766e+00
5.485000000000000000e+03 7.042933940887451172e+00 1.354156112670898438e+01 -1.518204458989202976e-03 -1.009686943143606186e-02 -3.484522225335240364e-03 4.549900069832801819e-03
5.486000000000000000e+03 7.703847408294677734e+00 1.355584812164306641e+01 -9.376740781590342522e-04 -8.054565638303756714e-03 -2.697671996429562569e-03 6.570365745574235916e-03
5.487000000000000000e+03 1.234036827087402344e+01 1.807966232299804688e+01 -6.064273416996002197e-02 4.936429671943187714e-03 -1.671189069747924805e-02 4.408383369445800781e-02
5.488000000000000000e+03 1.253902244567871094e+01 1.713194274902343750e+01 -5.618274211883544922e-02 1.103265117853879929e-02 -1.354502700269222260e-02 3.241809830069541931e-02
5.489000000000000000e+03 3.118498611450195312e+01 2.048423957824707031e+01 -3.489744663238525391e-01 -4.774616658687591553e-02 -1.190161928534507751e-01 2.852019667625427246e-01
5.490000000000000000e+03 2.741771316528320312e+01 2.186993789672851562e+01 -2.377051711082458496e-01 -7.593915611505508423e-02 -9.409330040216445923e-02 2.285435050725936890e-01
5.491000000000000000e+03 3.484583282470703125e+01 1.978551483154296875e+01 -4.298796951770782471e-01 -6.429553776979446411e-02 -1.482525765895843506e-01 2.695800065994262695e-01
5.492000000000000000e+03 2.970552825927734375e+01 2.328407478332519531e+01 -1.804501414299011230e-01 -8.217120170593261719e-02 -7.878640294075012207e-02 2.783723473548889160e-01
5.493000000000000000e+03 1.182966709136962891e+01 2.617197608947753906e+01 -2.658198960125446320e-02 -6.724084913730621338e-02 -2.814685180783271790e-02 1.071412116289138794e-01
5.494000000000000000e+03 4.387841415405273438e+01 -2.277409934997558594e+01 -1.237383708357810974e-01 3.081041574478149414e-01 5.530973523855209351e-02 -9.704086184501647949e-02
5.495000000000000000e+03 4.326033020019531250e+01 -2.161658287048339844e+01 -2.612480819225311279e-01 2.415666729211807251e-01 -5.904422607272863388e-03 -9.198659658432006836e-02
5.496000000000000000e+03 6.212651062011718750e+01 -2.410374259948730469e+01 -1.217684522271156311e-01 3.413681507110595703e+00 9.875739216804504395e-01 -3.031641542911529541e-01
5.497000000000000000e+03 1.382149028778076172e+01 -2.364078140258789062e+01 1.805948442779481411e-03 -1.656055003404617310e-01 -4.913986474275588989e-02 -2.010484188795089722e-01
5.498000000000000000e+03 6.747680664062500000e+01 -2.578309440612792969e+01 3.780232071876525879e-01 3.928053617477416992e+00 1.291823029518127441e+00 2.484434843063354492e-01
5.499000000000000000e+03 6.851651763916015625e+01 -2.730969810485839844e+01 3.903690576553344727e-01 4.351706981658935547e+00 1.422622799873352051e+00 3.923777937889099121e-01
5.500000000000000000e+03 2.053274154663085938e+01 2.376893615722656250e+01 -1.006314828991889954e-01 -8.580734580755233765e-02 -5.593165010213851929e-02 2.060936838388442993e-01
5.501000000000000000e+03 6.586826324462890625e+01 2.564223480224609375e+01 -4.428611695766448975e-01 5.222462654113769531e+00 1.433880448341369629e+00 -6.821266412734985352e-01
5.502000000000000000e+03 6.907225036621093750e+01 2.212352752685546875e+01 -7.202243804931640625e-01 6.817689895629882812e+00 1.829239606857299805e+00 -5.045107379555702209e-02
5.503000000000000000e+03 1.261418628692626953e+01 -2.246874237060546875e+01 -1.630823872983455658e-02 -1.508634090423583984e-01 -5.015149340033531189e-02 -1.917145848274230957e-01
5.504000000000000000e+03 4.842694091796875000e+01 -2.513908004760742188e+01 1.247849240899085999e-01 7.606458067893981934e-01 2.656292319297790527e-01 2.319889329373836517e-02
5.505000000000000000e+03 4.715031433105468750e+01 -2.108573341369628906e+01 -3.707333803176879883e-01 5.601366758346557617e-01 5.682099238038063049e-02 -8.874472230672836304e-02
5.506000000000000000e+03 1.648259735107421875e+01 -1.346060466766357422e+01 -2.103793919086456299e-01 -3.981127962470054626e-02 -7.505720108747482300e-02 -1.685958951711654663e-01
5.507000000000000000e+03 1.180145263671875000e+01 -7.634823799133300781e+00 -5.757488310337066650e-02 -9.813405573368072510e-03 -2.021648548543453217e-02 -9.363591670989990234e-03
5.508000000000000000e+03 1.145069408416748047e+01 -6.983819007873535156e+00 -3.910814225673675537e-02 -9.026962332427501678e-03 -1.444053184241056442e-02 -7.448727265000343323e-03
5.509000000000000000e+03 1.953732681274414062e+01 2.331065559387207031e+01 -1.086941212415695190e-01 -6.640287488698959351e-02 -5.252910032868385315e-02 1.931374371051788330e-01
5.510000000000000000e+03 3.023784255981445312e+01 2.185342216491699219e+01 -2.696899771690368652e-01 -5.871201679110527039e-02 -9.852059185504913330e-02 2.827014923095703125e-01
5.511000000000000000e+03 8.490579605102539062e+00 -1.994045448303222656e+01 -2.976684458553791046e-02 -1.139592975378036499e-01 -4.311784356832504272e-02 -1.324117183685302734e-01
5.512000000000000000e+03 5.933434963226318359e+00 1.185482597351074219e+01 5.084382370114326477e-03 -1.262672152370214462e-02 -2.262701746076345444e-03 5.103136878460645676e-03
5.513000000000000000e+03 7.288256835937500000e+01 -2.423440361022949219e+01 2.350159548223018646e-02 5.918821811676025391e+00 1.782696962356567383e+00 8.647469282150268555e-01
5.514000000000000000e+03 7.207096099853515625e+01 1.647588729858398438e+01 8.598209023475646973e-01 6.778260707855224609e+00 2.291424512863159180e+00 1.178259015083312988e+00
5.515000000000000000e+03 7.123224735260009766e+00 2.399174880981445312e+01 -1.963483355939388275e-02 -5.299093574285507202e-02 -2.178773097693920135e-02 5.601889267563819885e-02
5.516000000000000000e+03 8.602367401123046875e+00 2.336313438415527344e+01 -2.838642522692680359e-02 -4.572380334138870239e-02 -2.223306894302368164e-02 6.367706507444381714e-02
5.517000000000000000e+03 1.191923618316650391e+01 1.842621040344238281e+01 -5.890763923525810242e-02 1.517212833277881145e-03 -1.721712760627269745e-02 4.457969591021537781e-02
5.518000000000000000e+03 1.028118133544921875e+01 1.729937553405761719e+01 -3.722457587718963623e-02 -2.214721869677305222e-03 -1.183178927749395370e-02 2.800091914832592010e-02
5.519000000000000000e+03 9.579319000244140625e+00 -7.771476268768310547e+00 -4.003633186221122742e-02 -1.133414730429649353e-02 -1.541114412248134613e-02 -9.970013983547687531e-03
5.520000000000000000e+03 2.810824584960937500e+01 -1.589371681213378906e+01 -1.597938686609268188e-01 -1.418356150388717651e-01 -9.048884361982345581e-02 5.327527970075607300e-02
5.521000000000000000e+03 7.138531494140625000e+01 -2.338427352905273438e+01 1.153594106435775757e-01 5.080787658691406250e+00 1.558844089508056641e+00 9.014927744865417480e-01
5.522000000000000000e+03 7.307328033447265625e+01 -2.274717140197753906e+01 -1.975430995225906372e-01 6.126107692718505859e+00 1.778569340705871582e+00 9.765897989273071289e-01
5.523000000000000000e+03 5.363689041137695312e+01 2.157606315612792969e+01 -1.404468268156051636e-01 6.086564660072326660e-01 1.404628902673721313e-01 -3.343952298164367676e-01
5.524000000000000000e+03 3.503238677978515625e+01 2.087864303588867188e+01 -3.672526478767395020e-01 -5.521885305643081665e-02 -1.267414540052413940e-01 2.902900576591491699e-01
5.525000000000000000e+03 7.241254425048828125e+01 -2.223253631591796875e+01 -2.573487460613250732e-01 5.657162189483642578e+00 1.619944095611572266e+00 1.119823098182678223e+00
5.526000000000000000e+03 7.628731250762939453e+00 2.050527000427246094e+01 -2.670071832835674286e-02 -2.857786603271961212e-02 -1.658357493579387665e-02 3.967174515128135681e-02
5.527000000000000000e+03 5.294356918334960938e+01 2.145851516723632812e+01 -1.655428409576416016e-01 4.518583118915557861e-01 8.589463680982589722e-02 -2.942619621753692627e-01
5.528000000000000000e+03 1.239563369750976562e+01 -1.059763240814208984e+01 -1.059112772345542908e-01 -1.171995792537927628e-02 -3.528936952352523804e-02 -5.279804021120071411e-02
5.529000000000000000e+03 7.278784179687500000e+01 1.626307296752929688e+01 9.449977874755859375e-01 6.387415885925292969e+00 2.199724197387695312e+00 9.629619717597961426e-01
5.530000000000000000e+03 7.145136260986328125e+01 1.887784385681152344e+01 -1.487945914268493652e-01 7.219795703887939453e+00 2.121300220489501953e+00 8.454455137252807617e-01
5.531000000000000000e+03 1.938186454772949219e+01 -1.624121093750000000e+01 -1.638582944869995117e-01 -1.695556193590164185e-01 -1.000241711735725403e-01 -2.609588801860809326e-01
5.532000000000000000e+03 2.043681907653808594e+01 -1.594700431823730469e+01 -1.675950586795806885e-01 -2.098228931427001953e-01 -1.132253855466842651e-01 -2.718640267848968506e-01
5.533000000000000000e+03 6.828321456909179688e+00 2.277687644958496094e+01 -2.059204131364822388e-02 -4.495679587125778198e-02 -1.966465078294277191e-02 4.754070937633514404e-02
5.534000000000000000e+03 7.013281250000000000e+01 -2.449091339111328125e+01 2.633688449859619141e-01 4.538776397705078125e+00 1.440643668174743652e+00 6.602279543876647949e-01
5.535000000000000000e+03 1.755300903320312500e+01 -1.563959217071533203e+01 -1.883392482995986938e-01 -1.018384769558906555e-01 -8.705332130193710327e-02 -2.298570424318313599e-01
5.536000000000000000e+03 7.261125946044921875e+01 -2.336522102355957031e+01 -7.261494547128677368e-02 5.773075580596923828e+00 1.710138201713562012e+00 9.669721722602844238e-01
5.537000000000000000e+03 7.322834777832031250e+01 -2.507122230529785156e+01 7.561202347278594971e-02 6.050046920776367188e+00 1.837697625160217285e+00 7.899706363677978516e-01
5.538000000000000000e+03 7.553761005401611328e+00 1.549542903900146484e+01 -1.169697567820549011e-02 -9.604040533304214478e-03 -6.390304770320653915e-03 1.143314782530069351e-02
5.539000000000000000e+03 2.813010787963867188e+01 -1.710137176513671875e+01 -1.550054997205734253e-01 -1.092036440968513489e-01 -7.926274091005325317e-02 5.146586336195468903e-03
5.540000000000000000e+03 2.869096946716308594e+01 -1.651462173461914062e+01 -1.899500042200088501e-01 -6.068424507975578308e-02 -7.519027590751647949e-02 3.034054674208164215e-02
5.541000000000000000e+03 7.090275764465332031e+00 2.481194686889648438e+01 -1.727530173957347870e-02 -5.975832790136337280e-02 -2.311008796095848083e-02 5.804121121764183044e-02
5.542000000000000000e+03 1.244452667236328125e+01 2.101077461242675781e+01 -6.980524212121963501e-02 -1.239039190113544464e-02 -2.465868927538394928e-02 7.674035429954528809e-02
5.543000000000000000e+03 1.299604511260986328e+01 2.012972831726074219e+01 -7.710875570774078369e-02 -4.253017716109752655e-03 -2.440853230655193329e-02 7.155930250883102417e-02
5.544000000000000000e+03 7.794979095458984375e+00 1.473399543762207031e+01 -8.367073722183704376e-03 -8.689777925610542297e-03 -5.117055494338274002e-03 7.580940611660480499e-03
5.545000000000000000e+03 6.460807800292968750e+01 -2.231711387634277344e+01 -5.782294273376464844e-02 3.246498823165893555e+00 9.566027522087097168e-01 -4.497321248054504395e-01
5.546000000000000000e+03 6.178036499023437500e+01 -2.034231376647949219e+01 -4.548093080520629883e-01 3.665516614913940430e+00 9.632121920585632324e-01 -5.398352742195129395e-01
5.547000000000000000e+03 6.248490524291992188e+01 -1.978465270996093750e+01 -5.771843194961547852e-01 3.551090478897094727e+00 8.921718597412109375e-01 -6.240258812904357910e-01
5.548000000000000000e+03 1.315044879913330078e+01 2.151731491088867188e+01 -7.398155331611633301e-02 -1.748356036841869354e-02 -2.743953466415405273e-02 9.030668437480926514e-02
5.549000000000000000e+03 6.903888702392578125e+00 1.850327110290527344e+01 -2.052588574588298798e-02 -2.000510320067405701e-02 -1.215929724276065826e-02 2.321975119411945343e-02
5.550000000000000000e+03 7.232386016845703125e+01 1.720344543457031250e+01 5.264493823051452637e-01 6.827566146850585938e+00 2.206204652786254883e+00 1.077510595321655273e+00
5.551000000000000000e+03 2.454146766662597656e+01 -1.656615447998046875e+01 -8.332671970129013062e-02 -3.283182978630065918e-01 -1.234935000538825989e-01 -1.615379750728607178e-01
5.552000000000000000e+03 7.826356410980224609e+00 -9.782664299011230469e+00 -4.101636633276939392e-02 -1.590526476502418518e-02 -1.707648858428001404e-02 -2.234340272843837738e-02
5.553000000000000000e+03 8.158174514770507812e+00 -8.401143074035644531e+00 -3.246793150901794434e-02 -1.296515762805938721e-02 -1.362992729991674423e-02 -1.290879026055335999e-02
5.554000000000000000e+03 2.437084579467773438e+01 -1.530058097839355469e+01 -1.071986183524131775e-01 -4.072366654872894287e-01 -1.543305963277816772e-01 -1.862623542547225952e-01
5.555000000000000000e+03 3.642203903198242188e+01 -2.027342033386230469e+01 -3.836573362350463867e-01 1.019344106316566467e-01 -8.451687544584274292e-02 -3.453361392021179199e-01
5.556000000000000000e+03 6.746532440185546875e+01 -2.474247169494628906e+01 3.564006686210632324e-01 3.738383769989013672e+00 1.228435277938842773e+00 2.238731682300567627e-01
5.557000000000000000e+03 9.956690788269042969e+00 2.516889762878417969e+01 -2.754379995167255402e-02 -5.850174650549888611e-02 -2.581366337835788727e-02 8.517996966838836670e-02
5.558000000000000000e+03 1.029878616333007812e+01 2.431147193908691406e+01 -3.338516503572463989e-02 -5.094975605607032776e-02 -2.530047670006752014e-02 8.424111455678939819e-02
5.559000000000000000e+03 7.180713653564453125e+01 -2.555855560302734375e+01 2.003965526819229126e-01 5.392360210418701172e+00 1.677827000617980957e+00 7.394574284553527832e-01
5.560000000000000000e+03 1.212840938568115234e+01 1.909813308715820312e+01 -6.630042940378189087e-02 1.035233726724982262e-03 -1.957955770194530487e-02 5.214264616370201111e-02
5.561000000000000000e+03 1.239763069152832031e+01 1.860108947753906250e+01 -6.422228366136550903e-02 3.638291731476783752e-03 -1.817519776523113251e-02 4.789821431040763855e-02
5.562000000000000000e+03 8.900330543518066406e+00 2.572121047973632812e+01 -1.985870301723480225e-02 -6.527774780988693237e-02 -2.554093673825263977e-02 7.724422961473464966e-02
5.563000000000000000e+03 3.441072463989257812e+01 -2.146172523498535156e+01 -2.363667339086532593e-01 1.177900433540344238e-01 -3.557300567626953125e-02 -2.796723246574401855e-01
5.564000000000000000e+03 3.306710815429687500e+01 -2.115190887451171875e+01 -2.346760034561157227e-01 1.236189752817153931e-01 -3.331710770726203918e-02 -2.247590422630310059e-01
5.565000000000000000e+03 3.046479034423828125e+01 2.398490142822265625e+01 -1.400518864393234253e-01 -8.907188475131988525e-02 -6.873713433742523193e-02 2.901087999343872070e-01
5.566000000000000000e+03 1.442945957183837891e+01 2.541766548156738281e+01 -4.512738436460494995e-02 -6.130823120474815369e-02 -3.193068504333496094e-02 1.358876377344131470e-01
5.567000000000000000e+03 6.616417694091796875e+01 -2.686654663085937500e+01 3.446228802204132080e-01 3.810057163238525391e+00 1.246404051780700684e+00 1.089384630322456360e-01
5.568000000000000000e+03 6.462017059326171875e+01 2.470682907104492188e+01 -4.068518877029418945e-01 4.836493968963623047e+00 1.328892707824707031e+00 -8.969256281852722168e-01
5.569000000000000000e+03 2.071374702453613281e+01 2.658842086791992188e+01 -2.329891920089721680e-02 -1.129666343331336975e-01 -4.087966680526733398e-02 2.122265249490737915e-01
5.570000000000000000e+03 2.171945953369140625e+01 2.595756721496582031e+01 -3.866239264607429504e-02 -1.156005263328552246e-01 -4.627887532114982605e-02 2.198997437953948975e-01
5.571000000000000000e+03 4.683082580566406250e+01 2.304768371582031250e+01 -1.113839969038963318e-01 -4.321231693029403687e-02 -4.637889564037322998e-02 2.984560430049896240e-01
5.572000000000000000e+03 6.809120941162109375e+01 2.123214340209960938e+01 -8.434336185455322266e-01 6.939377307891845703e+00 1.828783154487609863e+00 -2.721519172191619873e-01
5.573000000000000000e+03 6.706225585937500000e+01 2.230609703063964844e+01 -7.754497528076171875e-01 6.338511466979980469e+00 1.668918490409851074e+00 -6.041408181190490723e-01
5.574000000000000000e+03 1.166823768615722656e+01 -2.013623237609863281e+01 -4.768017306923866272e-02 -1.199037656188011169e-01 -5.027518048882484436e-02 -1.743863672018051147e-01
5.575000000000000000e+03 1.452635955810546875e+01 -2.123190498352050781e+01 -4.106306284666061401e-02 -1.435540020465850830e-01 -5.538511648774147034e-02 -2.111024260520935059e-01
5.576000000000000000e+03 4.478834915161132812e+01 -2.498397064208984375e+01 7.520136982202529907e-02 4.199120998382568359e-01 1.485340297222137451e-01 -9.045360982418060303e-02
5.577000000000000000e+03 2.899897193908691406e+01 2.564669799804687500e+01 -5.442658066749572754e-02 -1.132728308439254761e-01 -5.030982196331024170e-02 2.768257558345794678e-01
5.578000000000000000e+03 2.454477310180664062e+01 -1.768241691589355469e+01 -7.117320597171783447e-02 -2.703509032726287842e-01 -1.024572327733039856e-01 -1.656288206577301025e-01
5.579000000000000000e+03 2.361150932312011719e+01 -1.789203071594238281e+01 -6.795578449964523315e-02 -2.665438055992126465e-01 -1.003498807549476624e-01 -1.977138221263885498e-01
5.580000000000000000e+03 7.924524784088134766e+00 2.386612319946289062e+01 -2.445862255990505219e-02 -5.049045011401176453e-02 -2.248472161591053009e-02 6.119513511657714844e-02
5.581000000000000000e+03 1.073885536193847656e+01 -7.977362155914306641e+00 -5.183691903948783875e-02 -1.131351012736558914e-02 -1.894512772560119629e-02 -1.469773706048727036e-02
5.582000000000000000e+03 1.132311534881591797e+01 -8.915849685668945312e+00 -6.708090007305145264e-02 -1.247633248567581177e-02 -2.386717125773429871e-02 -2.379137463867664337e-02
5.583000000000000000e+03 7.212944793701171875e+01 -2.288903045654296875e+01 -5.718820542097091675e-02 5.491965293884277344e+00 1.630433082580566406e+00 1.022033691406250000e+00
5.584000000000000000e+03 1.251783657073974609e+01 2.167936134338378906e+01 -6.701472401618957520e-02 -1.958015374839305878e-02 -2.597846277058124542e-02 8.636578917503356934e-02
5.585000000000000000e+03 8.463150024414062500e+00 -1.909502220153808594e+01 -3.807093575596809387e-02 -1.017605289816856384e-01 -4.194943979382514954e-02 -1.275544464588165283e-01
5.586000000000000000e+03 8.577050209045410156e+00 -1.825421142578125000e+01 -4.125922173261642456e-02 -9.129264950752258301e-02 -3.976556286215782166e-02 -1.205788627266883850e-01
5.587000000000000000e+03 7.097986602783203125e+01 1.809142303466796875e+01 1.424138993024826050e-02 7.377690315246582031e+00 2.217579603195190430e+00 9.953535199165344238e-01
5.588000000000000000e+03 2.752658462524414062e+01 -1.834182357788085938e+01 -1.307075619697570801e-01 -1.170038208365440369e-01 -7.431340962648391724e-02 -6.308217346668243408e-02
5.589000000000000000e+03 1.846666336059570312e+01 -1.547550010681152344e+01 -1.980717331171035767e-01 -1.227566525340080261e-01 -9.624851495027542114e-02 -2.466121912002563477e-01
5.590000000000000000e+03 1.891078758239746094e+01 -1.581642913818359375e+01 -1.703693717718124390e-01 -1.488655507564544678e-01 -9.577047824859619141e-02 -2.632587850093841553e-01
5.591000000000000000e+03 3.919290924072265625e+01 2.234753608703613281e+01 -3.463609516620635986e-01 1.964673586189746857e-02 -9.801426529884338379e-02 3.455082774162292480e-01
5.592000000000000000e+03 3.730013275146484375e+01 2.118967628479003906e+01 -3.964423239231109619e-01 -9.705745615065097809e-03 -1.218444257974624634e-01 2.931180000305175781e-01
5.593000000000000000e+03 7.023891448974609375e+01 1.995779037475585938e+01 -5.436889529228210449e-01 7.298421382904052734e+00 2.026419639587402344e+00 4.999613165855407715e-01
5.594000000000000000e+03 1.186577606201171875e+01 2.259382629394531250e+01 -5.579987540841102600e-02 -3.029799275100231171e-02 -2.582936175167560577e-02 8.866488933563232422e-02
5.595000000000000000e+03 1.446518993377685547e+01 2.262057495117187500e+01 -7.872863858938217163e-02 -2.662432007491588593e-02 -3.160588815808296204e-02 1.144037693738937378e-01
5.596000000000000000e+03 5.156082153320312500e+01 2.192786979675292969e+01 -1.134834885597229004e-01 2.649272382259368896e-01 4.543312266469001770e-02 -1.573977768421173096e-01
5.597000000000000000e+03 1.199270248413085938e+01 -8.890851020812988281e+00 -7.680073380470275879e-02 -7.414751686155796051e-03 -2.526464499533176422e-02 -2.292788587510585785e-02
5.598000000000000000e+03 1.542912769317626953e+01 -1.329231357574462891e+01 -1.833400130271911621e-01 -3.009449131786823273e-02 -6.403034925460815430e-02 -1.426312625408172607e-01
5.599000000000000000e+03 1.404067134857177734e+01 -1.131782341003417969e+01 -1.455942392349243164e-01 -1.101432088762521744e-02 -4.698256775736808777e-02 -7.409509271383285522e-02
5.600000000000000000e+03 1.714496612548828125e+01 -1.499647521972656250e+01 -1.896115094423294067e-01 -8.477800339460372925e-02 -8.231685310602188110e-02 -2.201531231403350830e-01
5.601000000000000000e+03 7.769290924072265625e+00 -1.044603538513183594e+01 -4.295476526021957397e-02 -1.957212202250957489e-02 -1.875806599855422974e-02 -2.946871146559715271e-02
5.602000000000000000e+03 7.201295471191406250e+01 -2.353884315490722656e+01 1.727859675884246826e-02 5.444864273071289062e+00 1.638642787933349609e+00 9.213271141052246094e-01
5.603000000000000000e+03 7.547057628631591797e+00 2.127496147155761719e+01 -2.662870101630687714e-02 -3.274983540177345276e-02 -1.781356148421764374e-02 4.289158433675765991e-02
5.604000000000000000e+03 1.263787460327148438e+01 -1.205652618408203125e+01 -1.204674169421195984e-01 -2.053495123982429504e-02 -4.230071231722831726e-02 -8.280017226934432983e-02
5.605000000000000000e+03 1.354344558715820312e+01 -1.128779697418212891e+01 -1.337311118841171265e-01 -9.099910035729408264e-03 -4.284930601716041565e-02 -6.855624169111251831e-02
5.606000000000000000e+03 7.325997829437255859e+00 1.624597930908203125e+01 -1.499149203300476074e-02 -1.269974280148744583e-02 -8.307370357215404510e-03 1.261651981621980667e-02
5.607000000000000000e+03 7.485709667205810547e+00 2.202964591979980469e+01 -2.570842392742633820e-02 -3.727089241147041321e-02 -1.889379508793354034e-02 4.768303781747817993e-02
5.608000000000000000e+03 8.601904869079589844e+00 1.756621170043945312e+01 -2.774658426642417908e-02 -1.057231985032558441e-02 -1.149567123502492905e-02 2.503881044685840607e-02
5.609000000000000000e+03 6.476274967193603516e+00 1.738635063171386719e+01 -1.500282529741525650e-02 -1.858575455844402313e-02 -1.007657404989004135e-02 1.683595590293407440e-02
5.610000000000000000e+03 7.643877506256103516e+00 -1.279079055786132812e+01 -4.871916770935058594e-02 -3.308591246604919434e-02 -2.454152330756187439e-02 -5.283349379897117615e-02
5.611000000000000000e+03 8.518626213073730469e+00 -1.276975917816162109e+01 -5.977563187479972839e-02 -3.212795034050941467e-02 -2.757107466459274292e-02 -6.138179451227188110e-02
5.612000000000000000e+03 1.030838298797607422e+01 -9.800156593322753906e+00 -6.836172938346862793e-02 -1.514427084475755692e-02 -2.505180053412914276e-02 -3.223147243261337280e-02
5.613000000000000000e+03 1.168969345092773438e+01 -9.543501853942871094e+00 -8.527314662933349609e-02 -1.068474818021059036e-02 -2.878736704587936401e-02 -3.209388256072998047e-02
5.614000000000000000e+03 3.433057022094726562e+01 2.027574539184570312e+01 -3.836130797863006592e-01 -6.896126270294189453e-02 -1.357723027467727661e-01 2.836701273918151855e-01
5.615000000000000000e+03 6.900368499755859375e+01 -2.411871337890625000e+01 3.088375926017761230e-01 4.041707515716552734e+00 1.305163502693176270e+00 5.140333771705627441e-01
5.616000000000000000e+03 7.074793243408203125e+01 -2.311698532104492188e+01 1.073173806071281433e-01 4.697283744812011719e+00 1.441380381584167480e+00 8.645657896995544434e-01
5.617000000000000000e+03 7.584935665130615234e+00 -1.449868869781494141e+01 -4.653714224696159363e-02 -4.773372784256935120e-02 -2.828126028180122375e-02 -7.170362025499343872e-02
5.618000000000000000e+03 8.520688056945800781e+00 -1.458896160125732422e+01 -5.980476737022399902e-02 -4.806008934974670410e-02 -3.235945850610733032e-02 -8.379269391298294067e-02
5.619000000000000000e+03 8.110503196716308594e+00 -1.635877609252929688e+01 -4.992424696683883667e-02 -6.733114272356033325e-02 -3.517661616206169128e-02 -9.913250803947448730e-02
5.620000000000000000e+03 1.051508426666259766e+01 -8.856812477111816406e+00 -5.834841355681419373e-02 -1.155925448983907700e-02 -2.097230032086372375e-02 -2.064594253897666931e-02
5.621000000000000000e+03 2.201112937927246094e+01 -1.797054100036621094e+01 -8.251957595348358154e-02 -2.459542900323867798e-01 -9.854216128587722778e-02 -2.355565279722213745e-01
5.622000000000000000e+03 2.236002922058105469e+01 -1.712960624694824219e+01 -9.504436701536178589e-02 -2.712045907974243164e-01 -1.098746806383132935e-01 -2.436407655477523804e-01
5.623000000000000000e+03 2.089142990112304688e+01 -1.512240123748779297e+01 -1.968304961919784546e-01 -2.245735973119735718e-01 -1.264212280511856079e-01 -2.958618402481079102e-01
5.624000000000000000e+03 7.698909759521484375e+00 -1.118422317504882812e+01 -4.640050977468490601e-02 -2.193629741668701172e-02 -2.050104178488254547e-02 -3.513612225651741028e-02
5.625000000000000000e+03 8.475178718566894531e+00 -1.116088676452636719e+01 -5.371553450822830200e-02 -2.269033156335353851e-02 -2.292175963521003723e-02 -4.119935631752014160e-02
5.626000000000000000e+03 8.351340293884277344e+00 1.926678085327148438e+01 -2.960369735956192017e-02 -1.918398402631282806e-02 -1.463630422949790955e-02 3.309241682291030884e-02
5.627000000000000000e+03 7.332478046417236328e+00 1.902543067932128906e+01 -2.404763549566268921e-02 -2.163204550743103027e-02 -1.370390411466360092e-02 2.826784364879131317e-02
5.628000000000000000e+03 1.182162570953369141e+01 -1.914436721801757812e+01 -5.844201892614364624e-02 -1.060370430350303650e-01 -4.934372007846832275e-02 -1.696227788925170898e-01
5.629000000000000000e+03 8.007890701293945312e+00 1.657094001770019531e+01 -1.917947456240653992e-02 -9.956844151020050049e-03 -8.740895427763462067e-03 1.687326468527317047e-02
5.630000000000000000e+03 6.466104030609130859e+00 1.651957321166992188e+01 -1.216603815555572510e-02 -1.608501747250556946e-02 -8.475316688418388367e-03 1.165671180933713913e-02
5.631000000000000000e+03 1.502516651153564453e+01 -1.270754623413085938e+01 -1.837508678436279297e-01 -2.101077698171138763e-02 -6.142849102616310120e-02 -1.180248707532882690e-01
5.632000000000000000e+03 3.133719825744628906e+01 2.157336616516113281e+01 -2.850280702114105225e-01 -6.043487787246704102e-02 -1.036388799548149109e-01 2.941326797008514404e-01
5.633000000000000000e+03 3.194875717163085938e+01 2.011969757080078125e+01 -3.670389056205749512e-01 -5.275891348719596863e-02 -1.259393393993377686e-01 2.904354333877563477e-01
5.634000000000000000e+03 3.435893249511718750e+01 -2.009354782104492188e+01 -3.449701964855194092e-01 1.778664141893386841e-01 -5.013113841414451599e-02 -2.535495758056640625e-01
5.635000000000000000e+03 6.335012817382812500e+01 -2.416884231567382812e+01 6.062716129235923290e-04 3.381540060043334961e+00 1.014643907546997070e+00 -3.271078169345855713e-01
5.636000000000000000e+03 3.440311050415039062e+01 -2.354666328430175781e+01 -9.064238518476486206e-02 7.187762856483459473e-02 -5.629428196698427200e-03 -2.896078824996948242e-01
5.637000000000000000e+03 5.504106140136718750e+01 2.043840599060058594e+01 -2.315303981304168701e-01 8.601455092430114746e-01 1.885845363140106201e-01 -4.353228211402893066e-01
5.638000000000000000e+03 4.848134231567382812e+01 2.248361396789550781e+01 -1.231547668576240540e-01 -6.140376627445220947e-02 -5.536755919456481934e-02 1.834737956523895264e-01
5.639000000000000000e+03 3.214797592163085938e+01 2.365081787109375000e+01 -1.612337380647659302e-01 -7.964976131916046143e-02 -7.226505130529403687e-02 3.054879307746887207e-01
5.640000000000000000e+03 1.427986907958984375e+01 2.712474632263183594e+01 -1.753090880811214447e-02 -8.336219191551208496e-02 -3.026793152093887329e-02 1.374628692865371704e-01
5.641000000000000000e+03 4.285813522338867188e+01 2.151000785827636719e+01 -4.629814922809600830e-01 1.932865381240844727e-02 -1.330958455801010132e-01 4.345525801181793213e-01
5.642000000000000000e+03 4.274562454223632812e+01 2.040444755554199219e+01 -6.461250185966491699e-01 5.697091296315193176e-02 -1.767462342977523804e-01 4.318393766880035400e-01
5.643000000000000000e+03 4.338005065917968750e+01 2.312398529052734375e+01 -2.272636592388153076e-01 -1.088764239102602005e-02 -7.144539058208465576e-02 4.131661355495452881e-01
5.644000000000000000e+03 1.731748771667480469e+01 2.296339988708496094e+01 -1.003809943795204163e-01 -4.104844853281974792e-02 -4.242883250117301941e-02 1.572958827018737793e-01
5.645000000000000000e+03 1.848264503479003906e+01 2.196516036987304688e+01 -1.345816701650619507e-01 -3.611490502953529358e-02 -5.120897293090820312e-02 1.679222136735916138e-01
5.646000000000000000e+03 1.995198440551757812e+01 2.492448043823242188e+01 -6.603509932756423950e-02 -9.059751033782958984e-02 -4.698978364467620850e-02 2.024001628160476685e-01
5.647000000000000000e+03 3.665945816040039062e+01 2.208604812622070312e+01 -3.202846646308898926e-01 -2.344055287539958954e-02 -1.031175628304481506e-01 3.183615505695343018e-01
5.648000000000000000e+03 6.528794097900390625e+01 -2.415267944335937500e+01 1.969790607690811157e-01 3.371744871139526367e+00 1.070617198944091797e+00 -1.756635606288909912e-01
5.649000000000000000e+03 6.649370574951171875e+01 -2.444758796691894531e+01 2.999143004417419434e-01 3.543547153472900391e+00 1.153038382530212402e+00 3.778052702546119690e-02
5.650000000000000000e+03 1.363826751708984375e+01 -2.012096786499023438e+01 -5.577460676431655884e-02 -1.271404027938842773e-01 -5.487450212240219116e-02 -1.983958482742309570e-01
5.651000000000000000e+03 1.228961181640625000e+01 2.422040939331054688e+01 -4.586919024586677551e-02 -4.763046279549598694e-02 -2.804989553987979889e-02 1.054718941450119019e-01
5.652000000000000000e+03 3.456023025512695312e+01 2.283330535888671875e+01 -2.218331694602966309e-01 -6.067595630884170532e-02 -8.475273847579956055e-02 3.214635848999023438e-01
5.653000000000000000e+03 6.493721771240234375e+01 2.216752815246582031e+01 -5.923884510993957520e-01 5.373919486999511719e+00 1.434459328651428223e+00 -1.166515350341796875e+00
5.654000000000000000e+03 6.879717254638671875e+01 1.998564147949218750e+01 -8.102868199348449707e-01 7.428944587707519531e+00 1.985597252845764160e+00 8.283469080924987793e-02
5.655000000000000000e+03 2.660918045043945312e+01 -1.708265304565429688e+01 -1.117181628942489624e-01 -2.189793437719345093e-01 -9.920924901962280273e-02 -5.451399832963943481e-02
5.656000000000000000e+03 2.643796348571777344e+01 -1.817957878112792969e+01 -8.934695273637771606e-02 -1.910156756639480591e-01 -8.410879224538803101e-02 -9.445291757583618164e-02
5.657000000000000000e+03 2.550637817382812500e+01 -1.813074302673339844e+01 -7.766780257225036621e-02 -2.295615673065185547e-01 -9.216880798339843750e-02 -1.234583556652069092e-01
5.658000000000000000e+03 1.109588813781738281e+01 2.168818473815917969e+01 -5.344797298312187195e-02 -2.386453561484813690e-02 -2.319375239312648773e-02 7.354344427585601807e-02
5.659000000000000000e+03 1.117996501922607422e+01 2.089397048950195312e+01 -5.565859749913215637e-02 -1.715455949306488037e-02 -2.184394747018814087e-02 6.506911665201187134e-02
5.660000000000000000e+03 8.579738616943359375e+00 -9.645157814025878906e+00 -4.474719986319541931e-02 -1.687445305287837982e-02 -1.848649606108665466e-02 -2.483862824738025665e-02
5.661000000000000000e+03 7.662598133087158203e+00 -9.221406936645507812e+00 -3.330327197909355164e-02 -1.485449913889169693e-02 -1.444733235985040665e-02 -1.793747022747993469e-02
5.662000000000000000e+03 2.924548339843750000e+01 -1.887359046936035156e+01 -1.876848042011260986e-01 6.109279580414295197e-03 -5.447265878319740295e-02 -5.990847572684288025e-02
5.663000000000000000e+03 1.436456489562988281e+01 -1.327228450775146484e+01 -1.564243137836456299e-01 -2.973918616771697998e-02 -5.584904924035072327e-02 -1.274514794349670410e-01
5.664000000000000000e+03 1.552052688598632812e+01 -1.511599540710449219e+01 -1.640914082527160645e-01 -6.530279666185379028e-02 -6.881825625896453857e-02 -1.827745884656906128e-01
5.665000000000000000e+03 8.373626708984375000e+00 -8.989685058593750000e+00 -4.262490570545196533e-02 -1.327963918447494507e-02 -1.677136309444904327e-02 -1.655833050608634949e-02
5.666000000000000000e+03 9.282271385192871094e+00 -1.042585563659667969e+01 -5.999540910124778748e-02 -1.917074248194694519e-02 -2.374984510242938995e-02 -3.679718822240829468e-02
5.667000000000000000e+03 6.622531127929687500e+01 2.128859710693359375e+01 -8.238925933837890625e-01 6.322256088256835938e+00 1.649509072303771973e+00 -9.301174283027648926e-01
5.668000000000000000e+03 1.324387359619140625e+01 -1.175014877319335938e+01 -1.397961229085922241e-01 -1.282564643770456314e-02 -4.578652977943420410e-02 -7.675479352474212646e-02
5.669000000000000000e+03 1.417830944061279297e+01 -1.181404399871826172e+01 -1.639915108680725098e-01 -8.988212794065475464e-03 -5.189391598105430603e-02 -8.493527770042419434e-02
5.670000000000000000e+03 1.265224742889404297e+01 -1.375719070434570312e+01 -1.285076588392257690e-01 -3.483270108699798584e-02 -4.900210723280906677e-02 -1.122228205204010010e-01
5.671000000000000000e+03 7.794173717498779297e+00 1.874815940856933594e+01 -2.629172056913375854e-02 -1.863252371549606323e-02 -1.347727328538894653e-02 2.849583886563777924e-02
5.672000000000000000e+03 6.415392303466796875e+01 -2.264366340637207031e+01 -7.106386870145797729e-02 3.310991048812866211e+00 9.719781875610351562e-01 -4.111606478691101074e-01
5.673000000000000000e+03 6.368062973022460938e+01 -2.215251159667968750e+01 -1.688444763422012329e-01 3.288958072662353516e+00 9.360340237617492676e-01 -5.386052131652832031e-01
5.674000000000000000e+03 9.021524429321289062e+00 2.258089256286621094e+01 -3.422632813453674316e-02 -3.773851320147514343e-02 -2.158945240080356598e-02 6.284188479185104370e-02
5.675000000000000000e+03 7.612898349761962891e+00 2.320853042602539062e+01 -2.392293512821197510e-02 -4.603089019656181335e-02 -2.098614722490310669e-02 5.522293969988822937e-02
5.676000000000000000e+03 8.718293190002441406e+00 1.681694221496582031e+01 -2.493424899876117706e-02 -8.131340146064758301e-03 -9.919676929712295532e-03 1.881945133209228516e-02
5.677000000000000000e+03 1.341738414764404297e+01 2.220276069641113281e+01 -7.211958616971969604e-02 -2.283237315714359283e-02 -2.848558686673641205e-02 9.933021664619445801e-02
5.678000000000000000e+03 1.062070941925048828e+01 -1.198553276062011719e+01 -8.759840577840805054e-02 -2.485361881554126740e-02 -3.373560681939125061e-02 -6.363533437252044678e-02
5.679000000000000000e+03 8.283943176269531250e+00 2.220841026306152344e+01 -2.990256622433662415e-02 -3.757035359740257263e-02 -2.024187520146369934e-02 5.424136668443679810e-02
5.680000000000000000e+03 9.517745018005371094e+00 2.035870361328125000e+01 -4.060771316289901733e-02 -2.054926380515098572e-02 -1.834709383547306061e-02 5.011914297938346863e-02
5.681000000000000000e+03 8.964814186096191406e+00 -1.656934928894042969e+01 -5.411868169903755188e-02 -7.100689411163330078e-02 -3.753767162561416626e-02 -1.099673286080360413e-01
5.682000000000000000e+03 2.300948333740234375e+01 -1.749834060668945312e+01 -8.153221011161804199e-02 -2.734424173831939697e-01 -1.064923852682113647e-01 -2.185273766517639160e-01
5.683000000000000000e+03 9.488717079162597656e+00 1.763466453552246094e+01 -3.461755812168121338e-02 -6.549862679094076157e-03 -1.235022675246000290e-02 2.656316012144088745e-02
5.684000000000000000e+03 1.437155055999755859e+01 -1.859868240356445312e+01 -8.229001611471176147e-02 -1.112078651785850525e-01 -5.804936587810516357e-02 -2.024984061717987061e-01
5.685000000000000000e+03 3.241016006469726562e+01 -1.898196601867675781e+01 -3.364729583263397217e-01 1.881204396486282349e-01 -4.450575634837150574e-02 -1.284558176994323730e-01
5.686000000000000000e+03 7.100129699707031250e+01 2.002419853210449219e+01 -4.104985594749450684e-01 7.184823036193847656e+00 2.032297372817993164e+00 5.967783331871032715e-01
5.687000000000000000e+03 7.202600097656250000e+01 2.072896766662597656e+01 -3.357553482055664062e-01 6.962222099304199219e+00 1.987940073013305664e+00 6.068674325942993164e-01
5.688000000000000000e+03 1.189063644409179688e+01 1.992967987060546875e+01 -6.477518379688262939e-02 -6.859971210360527039e-03 -2.149054594337940216e-02 6.140875071287155151e-02
5.689000000000000000e+03 2.698620414733886719e+01 -1.616125297546386719e+01 -1.192291080951690674e-01 -2.408333569765090942e-01 -1.080187410116195679e-01 -4.052557982504367828e-03
5.690000000000000000e+03 1.990563583374023438e+01 -1.676790428161621094e+01 -1.378580033779144287e-01 -1.887349188327789307e-01 -9.797787666320800781e-02 -2.704912424087524414e-01
5.691000000000000000e+03 9.607025146484375000e+00 -1.762569236755371094e+01 -5.408974364399909973e-02 -8.421847969293594360e-02 -4.149246588349342346e-02 -1.287123411893844604e-01
5.692000000000000000e+03 3.193380355834960938e+01 -2.036333274841308594e+01 -2.402546852827072144e-01 1.182999163866043091e-01 -3.658642992377281189e-02 -1.668504774570465088e-01
5.693000000000000000e+03 3.117399787902832031e+01 -2.176209068298339844e+01 -1.562914103269577026e-01 6.248963624238967896e-02 -2.814053371548652649e-02 -1.936738938093185425e-01
5.694000000000000000e+03 2.984654617309570312e+01 -2.053991699218750000e+01 -1.635730862617492676e-01 3.149923309683799744e-02 -3.962215781211853027e-02 -1.350950896739959717e-01
5.695000000000000000e+03 3.156346130371093750e+01 -2.310562705993652344e+01 -9.946934878826141357e-02 4.350196942687034607e-02 -1.679021306335926056e-02 -2.315264195203781128e-01
5.696000000000000000e+03 5.507778930664062500e+01 2.136444854736328125e+01 -1.258536279201507568e-01 9.695324897766113281e-01 2.531036436557769775e-01 -4.646283090114593506e-01
5.697000000000000000e+03 5.503535842895507812e+01 2.282490730285644531e+01 7.125610858201980591e-02 1.135216712951660156e+00 3.619418442249298096e-01 -5.292661190032958984e-01
5.698000000000000000e+03 3.597779846191406250e+01 2.295233154296875000e+01 -2.324180305004119873e-01 -4.572943598031997681e-02 -8.344423770904541016e-02 3.281691074371337891e-01
5.699000000000000000e+03 6.293844604492187500e+01 2.205045700073242188e+01 -2.506082355976104736e-01 4.134122371673583984e+00 1.165054202079772949e+00 -1.376085281372070312e+00
5.700000000000000000e+03 1.689608192443847656e+01 2.536831092834472656e+01 -5.123295262455940247e-02 -7.190337777137756348e-02 -3.694089874625205994e-02 1.647125333547592163e-01
5.701000000000000000e+03 1.543475532531738281e+01 -2.019981575012207031e+01 -5.864473804831504822e-02 -1.411643177270889282e-01 -5.994271486997604370e-02 -2.215088903903961182e-01
5.702000000000000000e+03 4.013050842285156250e+01 2.295503044128417969e+01 -2.790681123733520508e-01 1.821366138756275177e-02 -7.825633138418197632e-02 3.764986395835876465e-01
5.703000000000000000e+03 6.451757049560546875e+01 2.048057174682617188e+01 -5.803364515304565430e-01 5.458648204803466797e+00 1.463493585586547852e+00 -1.564431905746459961e+00
5.704000000000000000e+03 9.807266235351562500e+00 -1.679869270324707031e+01 -6.570678949356079102e-02 -7.349427044391632080e-02 -4.176031798124313354e-02 -1.229960247874259949e-01
5.705000000000000000e+03 1.043722534179687500e+01 -1.785044097900390625e+01 -6.458458304405212402e-02 -8.726254850625991821e-02 -4.555413872003555298e-02 -1.422251611948013306e-01
5.706000000000000000e+03 6.420771789550781250e+01 -2.170887374877929688e+01 -1.727882623672485352e-01 3.226258993148803711e+00 9.160412549972534180e-01 -5.092067122459411621e-01
5.707000000000000000e+03 1.069707775115966797e+01 2.343121147155761719e+01 -4.188683256506919861e-02 -4.120178893208503723e-02 -2.492658607661724091e-02 8.329802006483078003e-02
5.708000000000000000e+03 1.166933059692382812e+01 1.937998771667480469e+01 -6.167827546596527100e-02 -3.030568361282348633e-03 -1.941265352070331573e-02 5.362327024340629578e-02
5.709000000000000000e+03 1.223370933532714844e+01 2.046837806701660156e+01 -6.518578529357910156e-02 -1.030003093183040619e-02 -2.264574356377124786e-02 6.917292624711990356e-02
5.710000000000000000e+03 1.869512939453125000e+01 -1.791934204101562500e+01 -1.052931174635887146e-01 -1.624155044555664062e-01 -8.031258732080459595e-02 -2.536250352859497070e-01
5.711000000000000000e+03 6.779922485351562500e+01 -2.398880004882812500e+01 3.349693715572357178e-01 3.665610551834106445e+00 1.200173974037170410e+00 2.758383452892303467e-01
5.712000000000000000e+03 9.811284065246582031e+00 2.112251281738281250e+01 -4.297292977571487427e-02 -2.450303547084331512e-02 -2.024278976023197174e-02 5.735805258154869080e-02
5.713000000000000000e+03 4.056861114501953125e+01 2.107941055297851562e+01 -4.952845871448516846e-01 6.166170910000801086e-02 -1.300868690013885498e-01 3.597729504108428955e-01
5.714000000000000000e+03 9.980815887451171875e+00 -1.059846210479736328e+01 -6.815896183252334595e-02 -1.784905046224594116e-02 -2.580240368843078613e-02 -4.012301564216613770e-02
5.715000000000000000e+03 9.424267768859863281e+00 -9.607130050659179688e+00 -5.405741184949874878e-02 -1.446314901113510132e-02 -2.055616863071918488e-02 -2.486520633101463318e-02
5.716000000000000000e+03 1.449004364013671875e+01 -1.496831989288330078e+01 -1.495986580848693848e-01 -5.511505529284477234e-02 -6.141411140561103821e-02 -1.610755175352096558e-01
5.717000000000000000e+03 1.487705707550048828e+01 -1.564239883422851562e+01 -1.396779865026473999e-01 -6.943581998348236084e-02 -6.273414194583892822e-02 -1.793775558471679688e-01
5.718000000000000000e+03 9.582478523254394531e+00 1.850955009460449219e+01 -3.778605535626411438e-02 -9.660325944423675537e-03 -1.423391513526439667e-02 3.484169393777847290e-02
5.719000000000000000e+03 1.112268066406250000e+01 -1.240166091918945312e+01 -9.368008375167846680e-02 -2.480602264404296875e-02 -3.554583340883255005e-02 -7.284083217382431030e-02
5.720000000000000000e+03 1.290130519866943359e+01 -1.269301605224609375e+01 -1.348726451396942139e-01 -2.267469093203544617e-02 -4.726419970393180847e-02 -9.306235611438751221e-02
5.721000000000000000e+03 8.504424095153808594e+00 -1.193283843994140625e+01 -5.855277925729751587e-02 -2.666762843728065491e-02 -2.556612342596054077e-02 -4.834240674972534180e-02
5.722000000000000000e+03 2.267672920227050781e+01 -1.823836708068847656e+01 -6.767891347408294678e-02 -2.518220841884613037e-01 -9.585030376911163330e-02 -2.241202592849731445e-01
5.723000000000000000e+03 8.545661926269531250e+00 -1.366716957092285156e+01 -5.979233235120773315e-02 -4.094630479812622070e-02 -3.022159077227115631e-02 -7.083594053983688354e-02
5.724000000000000000e+03 1.587321472167968750e+01 -1.699049949645996094e+01 -1.233280897140502930e-01 -1.027712896466255188e-01 -6.782981008291244507e-02 -2.145559042692184448e-01
5.725000000000000000e+03 1.097872161865234375e+01 2.253673934936523438e+01 -4.841244965791702271e-02 -3.249752894043922424e-02 -2.427299506962299347e-02 7.914286106824874878e-02
5.726000000000000000e+03 9.957679748535156250e+00 -1.954202270507812500e+01 -4.370452091097831726e-02 -1.099665164947509766e-01 -4.610130935907363892e-02 -1.484556943178176880e-01
5.727000000000000000e+03 2.055908584594726562e+01 -1.726209831237792969e+01 -1.184580996632575989e-01 -2.123474478721618652e-01 -9.924166649580001831e-02 -2.585028409957885742e-01
5.728000000000000000e+03 6.717938232421875000e+01 2.054985618591308594e+01 -9.304558634757995605e-01 6.959389209747314453e+00 1.808679938316345215e+00 -5.720385313034057617e-01
5.729000000000000000e+03 1.531127929687500000e+01 -1.634469032287597656e+01 -1.394220888614654541e-01 -8.406658470630645752e-02 -6.704660505056381226e-02 -1.969895362854003906e-01
5.730000000000000000e+03 9.349246025085449219e+00 2.175944709777832031e+01 -3.814396634697914124e-02 -3.051079250872135162e-02 -2.059642784297466278e-02 5.881397798657417297e-02
5.731000000000000000e+03 1.168286800384521484e+01 -1.278438282012939453e+01 -1.117318347096443176e-01 -2.674061991274356842e-02 -4.154173657298088074e-02 -8.680821955204010010e-02
5.732000000000000000e+03 1.251373672485351562e+01 -1.135291671752929688e+01 -1.170444712042808533e-01 -1.360089331865310669e-02 -3.919360786676406860e-02 -6.131407618522644043e-02
5.733000000000000000e+03 1.376346778869628906e+01 2.302764129638671875e+01 -7.116329669952392578e-02 -3.071884810924530029e-02 -3.056464157998561859e-02 1.109091565012931824e-01
5.734000000000000000e+03 2.476017379760742188e+01 -1.828486442565917969e+01 -6.380402296781539917e-02 -2.487260252237319946e-01 -9.375901520252227783e-02 -1.596051454544067383e-01
5.735000000000000000e+03 2.805241966247558594e+01 -2.149763679504394531e+01 -8.169353008270263672e-02 -5.608918145298957825e-02 -4.133481159806251526e-02 -1.599355638027191162e-01
5.736000000000000000e+03 5.685905838012695312e+01 2.152627182006835938e+01 -1.123673282563686371e-02 1.420776486396789551e+00 4.228619039058685303e-01 -6.962164640426635742e-01
5.737000000000000000e+03 5.811141967773437500e+01 2.027468299865722656e+01 -4.155312851071357727e-02 1.548815965652465820e+00 4.521788358688354492e-01 -8.131517767906188965e-01
5.738000000000000000e+03 5.650021362304687500e+01 2.317840003967285156e+01 1.263921558856964111e-01 1.537966847419738770e+00 4.993076920509338379e-01 -6.921172738075256348e-01
5.739000000000000000e+03 1.708009719848632812e+01 2.415208053588867188e+01 -7.664847373962402344e-02 -5.713704600930213928e-02 -4.013565555214881897e-02 1.641172021627426147e-01
5.740000000000000000e+03 6.139468765258789062e+01 2.320460700988769531e+01 -8.056890219449996948e-02 3.388359308242797852e+00 9.923371076583862305e-01 -1.182308316230773926e+00
5.741000000000000000e+03 6.118267440795898438e+01 2.211241912841796875e+01 -4.287932440638542175e-02 3.232828140258789062e+00 9.569846391677856445e-01 -1.264465451240539551e+00
5.742000000000000000e+03 6.474433135986328125e+01 2.341952514648437500e+01 -4.526211321353912354e-01 5.032093524932861328e+00 1.373841762542724609e+00 -1.048601269721984863e+00
5.743000000000000000e+03 6.169260406494140625e+01 2.059887313842773438e+01 -3.210083022713661194e-02 3.296825647354125977e+00 9.794174432754516602e-01 -1.478143215179443359e+00
5.744000000000000000e+03 4.161426162719726562e+01 2.075183486938476562e+01 -5.493817329406738281e-01 7.676772028207778931e-02 -1.417842060327529907e-01 3.888869881629943848e-01
5.745000000000000000e+03 1.744111061096191406e+01 -2.089091873168945312e+01 -4.052976146340370178e-02 -1.651120781898498535e-01 -6.169255077838897705e-02 -2.343531847000122070e-01
5.746000000000000000e+03 1.661168670654296875e+01 -1.756802749633789062e+01 -1.208223104476928711e-01 -1.216687709093093872e-01 -7.274731993675231934e-02 -2.272008657455444336e-01
5.747000000000000000e+03 1.346730995178222656e+01 -1.484122562408447266e+01 -1.335179954767227173e-01 -5.082232132554054260e-02 -5.530209839344024658e-02 -1.434428989887237549e-01
5.748000000000000000e+03 1.590142631530761719e+01 -1.575168037414550781e+01 -1.527048647403717041e-01 -7.945306599140167236e-02 -6.964737921953201294e-02 -1.991647034883499146e-01
5.749000000000000000e+03 1.004101085662841797e+01 -1.597728538513183594e+01 -6.887078285217285156e-02 -6.395268440246582031e-02 -3.984704241156578064e-02 -1.164755746722221375e-01
5.750000000000000000e+03 1.410572624206542969e+01 -1.435225391387939453e+01 -1.442575305700302124e-01 -4.483219981193542480e-02 -5.672692134976387024e-02 -1.463219672441482544e-01
5.751000000000000000e+03 1.045354270935058594e+01 2.089690589904785156e+01 -4.892247170209884644e-02 -1.929295808076858521e-02 -2.046462893486022949e-02 6.046042591333389282e-02
5.752000000000000000e+03 1.038865661621093750e+01 2.152569770812988281e+01 -4.705999419093132019e-02 -2.582129463553428650e-02 -2.186438627541065216e-02 6.584572792053222656e-02
5.753000000000000000e+03 1.810810089111328125e+01 -1.740274620056152344e+01 -1.240980997681617737e-01 -1.485157757997512817e-01 -8.178415894508361816e-02 -2.435525208711624146e-01
5.754000000000000000e+03 9.667688369750976562e+00 -1.125562572479248047e+01 -7.235621660947799683e-02 -2.243886142969131470e-02 -2.843852341175079346e-02 -4.891772195696830750e-02
5.755000000000000000e+03 8.870249748229980469e+00 1.935540771484375000e+01 -3.503295034170150757e-02 -1.661210320889949799e-02 -1.549351587891578674e-02 3.808199241757392883e-02
5.756000000000000000e+03 9.290889739990234375e+00 -1.351012516021728516e+01 -6.792282313108444214e-02 -3.848456591367721558e-02 -3.192221745848655701e-02 -7.881177216768264771e-02
5.757000000000000000e+03 1.013504409790039062e+01 -1.159317874908447266e+01 -7.437098771333694458e-02 -2.239613607525825500e-02 -2.903013676404953003e-02 -5.473444983363151550e-02
5.758000000000000000e+03 1.787092781066894531e+01 -1.980547523498535156e+01 -5.933257937431335449e-02 -1.639706790447235107e-01 -6.699097901582717896e-02 -2.430903613567352295e-01
5.759000000000000000e+03 4.176831054687500000e+01 1.883541679382324219e+01 -8.183780312538146973e-01 1.499684751033782959e-01 -2.005228698253631592e-01 3.231024742126464844e-01
5.760000000000000000e+03 9.272089958190917969e+00 -1.921451568603515625e+01 -4.044728726148605347e-02 -1.033311933279037476e-01 -4.313354194164276123e-02 -1.365769952535629272e-01
5.761000000000000000e+03 1.042846775054931641e+01 1.857939147949218750e+01 -4.481213912367820740e-02 -6.397688761353492737e-03 -1.536294817924499512e-02 3.775847703218460083e-02
5.762000000000000000e+03 1.035055446624755859e+01 2.020778083801269531e+01 -4.906376823782920837e-02 -1.567052677273750305e-02 -1.942028850317001343e-02 5.347016826272010803e-02
5.763000000000000000e+03 1.505940914154052734e+01 2.344959640502929688e+01 -7.590135186910629272e-02 -3.895045816898345947e-02 -3.445554152131080627e-02 1.323294639587402344e-01
5.764000000000000000e+03 1.018904209136962891e+01 -1.346590232849121094e+01 -8.057554066181182861e-02 -3.519430756568908691e-02 -3.473095595836639404e-02 -8.200278878211975098e-02
5.765000000000000000e+03 1.151189994812011719e+01 -1.186390495300292969e+01 -1.025730445981025696e-01 -2.184904552996158600e-02 -3.732662647962570190e-02 -6.835245341062545776e-02
5.766000000000000000e+03 4.099580001831054688e+01 1.915689086914062500e+01 -7.366197109222412109e-01 1.353920102119445801e-01 -1.803683191537857056e-01 3.074906766414642334e-01
5.767000000000000000e+03 2.638418197631835938e+01 -2.202632141113281250e+01 -3.120578266680240631e-02 -1.157527193427085876e-01 -4.408755153417587280e-02 -1.780658513307571411e-01
5.768000000000000000e+03 2.834221839904785156e+01 -2.332278060913085938e+01 -3.050385601818561554e-02 -5.379779636859893799e-02 -2.529049478471279144e-02 -1.943290829658508301e-01
5.769000000000000000e+03 5.889112854003906250e+01 2.294373130798339844e+01 9.544249624013900757e-02 2.251478195190429688e+00 7.040762305259704590e-01 -9.698184728622436523e-01
5.770000000000000000e+03 6.104806137084960938e+01 2.435769653320312500e+01 -1.479577645659446716e-02 3.274230003356933594e+00 9.778302311897277832e-01 -1.048025012016296387e+00
5.771000000000000000e+03 1.151139354705810547e+01 -1.723949050903320312e+01 -8.269198983907699585e-02 -8.014862239360809326e-02 -4.885218292474746704e-02 -1.503450721502304077e-01
5.772000000000000000e+03 1.064525890350341797e+01 -1.702834701538085938e+01 -6.910748034715652466e-02 -7.675524801015853882e-02 -4.375881701707839966e-02 -1.359362751245498657e-01
5.773000000000000000e+03 1.203451061248779297e+01 -1.429824352264404297e+01 -1.061361655592918396e-01 -4.324198514223098755e-02 -4.481344670057296753e-02 -1.163767725229263306e-01
5.774000000000000000e+03 1.016930580139160156e+01 -1.255265331268310547e+01 -7.909511029720306396e-02 -2.869503386318683624e-02 -3.233704343438148499e-02 -6.911756843328475952e-02
5.775000000000000000e+03 2.569524002075195312e+01 -2.044664764404296875e+01 -4.865320399403572083e-02 -1.588070243597030640e-01 -6.223806738853454590e-02 -1.574538797140121460e-01
5.776000000000000000e+03 2.540694046020507812e+01 -1.907936477661132812e+01 -6.346480548381805420e-02 -1.945880502462387085e-01 -7.741586118936538696e-02 -1.403460353612899780e-01
5.777000000000000000e+03 1.197093868255615234e+01 -1.522352409362792969e+01 -9.998206794261932373e-02 -5.494805425405502319e-02 -4.647903889417648315e-02 -1.306854188442230225e-01
5.778000000000000000e+03 1.036462116241455078e+01 -1.515832614898681641e+01 -8.399839699268341064e-02 -5.330514535307884216e-02 -4.119106382131576538e-02 -1.092894598841667175e-01
5.779000000000000000e+03 1.590281009674072266e+01 -1.855026626586914062e+01 -8.715939521789550781e-02 -1.260972023010253906e-01 -6.397698074579238892e-02 -2.232324779033660889e-01
5.780000000000000000e+03 1.456550216674804688e+01 -1.695031166076660156e+01 -1.122582927346229553e-01 -9.037919342517852783e-02 -6.079124286770820618e-02 -1.922511607408523560e-01
5.781000000000000000e+03 1.051513671875000000e+01 -1.392804431915283203e+01 -8.762588351964950562e-02 -4.150174185633659363e-02 -3.873828798532485962e-02 -9.265201538801193237e-02
5.782000000000000000e+03 9.759384155273437500e+00 -1.308773803710937500e+01 -8.052695542573928833e-02 -3.391878306865692139e-02 -3.433372080326080322e-02 -7.480327785015106201e-02
5.783000000000000000e+03 1.383608245849609375e+01 -1.545104122161865234e+01 -1.283956617116928101e-01 -6.064866483211517334e-02 -5.671329796314239502e-02 -1.613549739122390747e-01
5.784000000000000000e+03 1.091109275817871094e+01 -1.444488525390625000e+01 -8.827725797891616821e-02 -4.599273949861526489e-02 -4.028099775314331055e-02 -1.068317443132400513e-01
5.785000000000000000e+03 1.350010299682617188e+01 -1.652021980285644531e+01 -1.132871583104133606e-01 -7.374631613492965698e-02 -5.611003935337066650e-02 -1.722299307584762573e-01
5.786000000000000000e+03 1.107865142822265625e+01 -1.551455974578857422e+01 -8.581099659204483032e-02 -5.867602676153182983e-02 -4.334610700607299805e-02 -1.243534758687019348e-01
5.787000000000000000e+03 1.917189025878906250e+01 -1.894704818725585938e+01 -7.300902158021926880e-02 -1.797566264867782593e-01 -7.582969218492507935e-02 -2.495310157537460327e-01
5.788000000000000000e+03 1.830918693542480469e+01 -1.877116012573242188e+01 -8.910129219293594360e-02 -1.646892130374908447e-01 -7.613714784383773804e-02 -2.462232112884521484e-01
5.789000000000000000e+03 1.743613052368164062e+01 -1.819677162170410156e+01 -1.003632247447967529e-01 -1.413163542747497559e-01 -7.250387221574783325e-02 -2.412425428628921509e-01
5.790000000000000000e+03 2.679438400268554688e+01 -2.368754005432128906e+01 7.043743506073951721e-03 -1.004045382142066956e-01 -2.800823934376239777e-02 -1.979076713323593140e-01
5.791000000000000000e+03 5.846043395996093750e+01 2.115137672424316406e+01 6.866957992315292358e-02 1.808383584022521973e+00 5.631159543991088867e-01 -9.035212397575378418e-01
5.792000000000000000e+03 2.066405105590820312e+01 -1.946823501586914062e+01 -5.528355389833450317e-02 -2.001332491636276245e-01 -7.662504166364669800e-02 -2.463021576404571533e-01
5.793000000000000000e+03 1.170842456817626953e+01 -1.573886489868164062e+01 -9.899047017097473145e-02 -6.010610237717628479e-02 -4.772897064685821533e-02 -1.344920396804809570e-01
5.794000000000000000e+03 1.317137432098388672e+01 -1.589047336578369141e+01 -1.168628260493278503e-01 -6.616231054067611694e-02 -5.490754172205924988e-02 -1.566863209009170532e-01
5.795000000000000000e+03 9.806250572204589844e+00 -1.401171302795410156e+01 -7.998002320528030396e-02 -4.082509502768516541e-02 -3.624153509736061096e-02 -8.801555633544921875e-02
5.796000000000000000e+03 1.246718692779541016e+01 -1.629890823364257812e+01 -9.916653484106063843e-02 -7.012908160686492920e-02 -5.078868567943572998e-02 -1.531108319759368896e-01
5.797000000000000000e+03 1.157669639587402344e+01 -1.384221363067626953e+01 -1.081928238272666931e-01 -3.734207153320312500e-02 -4.366046935319900513e-02 -1.018850430846214294e-01
5.798000000000000000e+03 1.227744293212890625e+01 -1.565909767150878906e+01 -1.055237948894500732e-01 -6.014633551239967346e-02 -4.970103874802589417e-02 -1.393160372972488403e-01
5.799000000000000000e+03 1.196670627593994141e+01 -1.828988075256347656e+01 -7.232968509197235107e-02 -9.583663195371627808e-02 -5.044989660382270813e-02 -1.643429547548294067e-01
5.800000000000000000e+03 2.020736122131347656e+01 -2.036732292175292969e+01 -3.783294185996055603e-02 -1.929075717926025391e-01 -6.922215223312377930e-02 -2.387338876724243164e-01
5.801000000000000000e+03 2.017827606201171875e+01 -1.820149612426757812e+01 -8.738026767969131470e-02 -1.981978267431259155e-01 -8.567342907190322876e-02 -2.565357685089111328e-01
5.802000000000000000e+03 2.261816215515136719e+01 -2.007059860229492188e+01 -3.432738408446311951e-02 -2.110079079866409302e-01 -7.360059022903442383e-02 -2.187994569540023804e-01
5.803000000000000000e+03 2.518202781677246094e+01 -2.158825302124023438e+01 -2.831657044589519501e-02 -1.551602929830551147e-01 -5.504306033253669739e-02 -1.795844733715057373e-01
5.804000000000000000e+03 2.475734519958496094e+01 -2.359152412414550781e+01 2.063114009797573090e-02 -1.424420922994613647e-01 -3.654328361153602600e-02 -2.042780518531799316e-01
5.805000000000000000e+03 1.358089351654052734e+01 -1.909963417053222656e+01 -6.718101352453231812e-02 -1.163985952734947205e-01 -5.507388338446617126e-02 -1.932210624217987061e-01
5.806000000000000000e+03 1.166961956024169922e+01 -1.643424034118652344e+01 -8.647770434617996216e-02 -7.076637446880340576e-02 -4.717322438955307007e-02 -1.428577601909637451e-01
5.807000000000000000e+03 2.260775184631347656e+01 -1.902218437194824219e+01 -5.919884890317916870e-02 -2.297645360231399536e-01 -8.668901771306991577e-02 -2.175955772399902344e-01
5.808000000000000000e+03 1.356571865081787109e+01 -1.817828369140625000e+01 -8.993870764970779419e-02 -1.001254171133041382e-01 -5.701923742890357971e-02 -1.895612329244613647e-01
5.809000000000000000e+03 1.232316493988037109e+01 -1.759489822387695312e+01 -8.124991506338119507e-02 -8.678058534860610962e-02 -5.040914937853813171e-02 -1.650757193565368652e-01
5.810000000000000000e+03 1.268922424316406250e+01 -1.828256988525390625e+01 -7.994409650564193726e-02 -9.578145295381546021e-02 -5.271766707301139832e-02 -1.751353293657302856e-01
5.811000000000000000e+03 5.693592834472656250e+01 1.930862426757812500e+01 -2.568096816539764404e-01 1.102909207344055176e+00 2.538298666477203369e-01 -5.202530026435852051e-01
5.812000000000000000e+03 1.943622589111328125e+01 -1.972397422790527344e+01 -5.685721337795257568e-02 -1.829184144735336304e-01 -7.193268835544586182e-02 -2.483553290367126465e-01
5.813000000000000000e+03 2.129650497436523438e+01 -1.763788604736328125e+01 -9.437352418899536133e-02 -2.306180000305175781e-01 -9.749745577573776245e-02 -2.548407316207885742e-01
5.814000000000000000e+03 1.991490554809570312e+01 -1.907682418823242188e+01 -7.018817961215972900e-02 -1.942058354616165161e-01 -7.931820303201675415e-02 -2.480517029762268066e-01
5.815000000000000000e+03 6.831308746337890625e+01 3.857755661010742188e+01 7.787850499153137207e-02 5.069659233093261719e+00 1.544261336326599121e+00 -9.320532530546188354e-02
5.816000000000000000e+03 1.185561466217041016e+01 -3.864451980590820312e+01 9.993116557598114014e-02 -2.614063024520874023e-01 -4.844253882765769958e-02 -5.264001339673995972e-02
5.817000000000000000e+03 2.549307632446289062e+01 2.469140052795410156e+00 4.961688518524169922e-01 4.554385691881179810e-02 1.625138074159622192e-01 1.610316783189773560e-01
5.818000000000000000e+03 1.552451801300048828e+01 6.565335273742675781e+00 3.474302589893341064e-02 1.665130630135536194e-02 1.541830040514469147e-02 2.705539762973785400e-02
5.819000000000000000e+03 1.594677829742431641e+01 6.431883335113525391e+00 1.810953952372074127e-02 7.925856858491897583e-03 7.810619194060564041e-03 1.070575509220361710e-02
5.820000000000000000e+03 5.647927093505859375e+01 8.454980850219726562e+00 3.249664092436432838e-03 6.282134912908077240e-03 2.859539585188031197e-03 -1.176826073788106441e-03
5.821000000000000000e+03 2.571464157104492188e+01 1.551432323455810547e+01 -2.139203101396560669e-01 -2.095944434404373169e-02 -7.046392560005187988e-02 2.229660451412200928e-01
5.822000000000000000e+03 5.612150192260742188e+01 8.673870086669921875e+00 -2.370788017287850380e-03 5.265794694423675537e-03 8.685020147822797298e-04 -3.208001144230365753e-04
5.823000000000000000e+03 7.860810089111328125e+01 4.196189117431640625e+01 1.358210016041994095e-02 7.329509735107421875e+00 2.202927589416503906e+00 2.032854408025741577e-02
5.824000000000000000e+03 6.562931060791015625e+01 1.361962032318115234e+01 5.519238710403442383e-01 1.543551731109619141e+01 4.796232223510742188e+00 -1.785320520401000977e+00
5.825000000000000000e+03 4.867752075195312500e+01 1.646265411376953125e+01 -1.723935604095458984e+00 -1.145223021507263184e+00 -8.607475757598876953e-01 3.012143373489379883e-01
5.826000000000000000e+03 5.210809707641601562e+01 1.449134826660156250e+01 -1.584694623947143555e+00 8.697185665369033813e-02 -4.493168294429779053e-01 7.591193914413452148e-01
5.827000000000000000e+03 1.326377391815185547e+00 -3.553814697265625000e+01 1.590445986948907375e-03 -3.804027438163757324e-01 -1.136436909437179565e-01 -1.712808385491371155e-02
5.828000000000000000e+03 2.172393798828125000e+00 -3.538788604736328125e+01 5.708889220841228962e-04 -3.609459996223449707e-01 -1.081125363707542419e-01 -2.493751794099807739e-02
5.829000000000000000e+03 4.156621456146240234e+00 -4.131372070312500000e+01 1.533787883818149567e-02 -3.614757061004638672e-01 -1.038413494825363159e-01 -9.537622332572937012e-03
5.830000000000000000e+03 2.470169639587402344e+01 1.388300418853759766e+00 9.549503773450851440e-02 1.086463183164596558e-01 6.124240905046463013e-02 1.537058502435684204e-01
5.831000000000000000e+03 4.315435028076171875e+01 -4.709448337554931641e+00 3.808172941207885742e-01 5.720169469714164734e-02 1.314056962728500366e-01 2.018535286188125610e-01
5.832000000000000000e+03 5.509048080444335938e+01 8.674179077148437500e+00 -9.504977613687515259e-03 1.039822679013013840e-02 2.679748577065765858e-04 -7.534870877861976624e-03
5.833000000000000000e+03 2.913052940368652344e+01 -3.023218512535095215e-01 -1.203137755393981934e+00 -3.285869956016540527e-01 -4.595174491405487061e-01 -3.434684872627258301e-01
5.834000000000000000e+03 4.084312438964843750e+01 -9.356902122497558594e+00 2.576442360877990723e-01 3.410404548048973083e-02 8.752448111772537231e-02 -1.975994408130645752e-01
5.835000000000000000e+03 2.737116813659667969e+01 2.024912834167480469e+00 1.255485862493515015e-01 2.842927873134613037e-01 1.229524090886116028e-01 2.979089915752410889e-01
5.836000000000000000e+03 5.552454376220703125e+01 -1.079223036766052246e+00 -8.110285401344299316e-01 -3.774735331535339355e-01 -3.565506339073181152e-01 -5.881465673446655273e-01
5.837000000000000000e+03 4.184103012084960938e+01 -1.745000648498535156e+01 -8.718560934066772461e-01 -1.701652258634567261e-01 -3.126063942909240723e-01 -1.086485758423805237e-01
5.838000000000000000e+03 6.907232666015625000e+01 9.188649177551269531e+00 6.181948781013488770e-01 1.019306945800781250e+01 3.243379116058349609e+00 3.931169807910919189e-01
5.839000000000000000e+03 7.384026336669921875e+01 1.240308570861816406e+01 1.512685060501098633e+00 4.595641136169433594e+00 1.832497954368591309e+00 -1.296014189720153809e+00
5.840000000000000000e+03 4.998915863037109375e+01 1.657408714294433594e+01 -1.994458556175231934e+00 -8.400914072990417480e-01 -8.503649830818176270e-01 8.246758580207824707e-02
5.841000000000000000e+03 3.767464876174926758e+00 -3.696580886840820312e+01 9.533962234854698181e-03 -3.463600873947143555e-01 -1.010478362441062927e-01 -3.176293522119522095e-02
5.842000000000000000e+03 3.017453908920288086e+00 -3.534528732299804688e+01 6.379068363457918167e-03 -3.448344767093658447e-01 -1.015366241335868835e-01 -3.448174148797988892e-02
5.843000000000000000e+03 2.060948133468627930e+00 -3.474010848999023438e+01 2.801083493977785110e-03 -3.585953116416931152e-01 -1.067382693290710449e-01 -2.508656866848468781e-02
5.844000000000000000e+03 2.790913581848144531e+00 -3.451232147216796875e+01 7.207177579402923584e-03 -3.403418362140655518e-01 -9.994039684534072876e-02 -3.658767789602279663e-02
5.845000000000000000e+03 2.218549537658691406e+01 7.672676444053649902e-01 1.415663980878889561e-03 3.976540639996528625e-02 1.235432084649801254e-02 2.322622947394847870e-02
5.846000000000000000e+03 3.072101831436157227e+00 -2.200222396850585938e+01 -3.242830745875835419e-03 -1.353444606065750122e-01 -4.157618805766105652e-02 -6.137369200587272644e-02
5.847000000000000000e+03 3.029436588287353516e+00 -1.617207527160644531e+01 -7.578878197818994522e-03 -4.761690646409988403e-02 -1.655873656272888184e-02 -3.834183514118194580e-02
5.848000000000000000e+03 3.379163503646850586e+00 -1.566330242156982422e+01 -1.176589541137218475e-02 -4.462061822414398193e-02 -1.691595464944839478e-02 -4.019736498594284058e-02
5.849000000000000000e+03 4.163353347778320312e+01 -9.411340713500976562e+00 2.721872329711914062e-01 5.985909700393676758e-02 9.961389750242233276e-02 -1.960437148809432983e-01
5.850000000000000000e+03 3.645980596542358398e+00 -1.402393150329589844e+01 -1.281499955803155899e-02 -3.004333749413490295e-02 -1.285750046372413635e-02 -3.219240531325340271e-02
5.851000000000000000e+03 5.095853042602539062e+01 -1.359832048416137695e+00 -5.866258740425109863e-01 7.273296266794204712e-02 -1.541678607463836670e-01 -2.090921550989151001e-01
5.852000000000000000e+03 5.109333038330078125e+01 -2.071696472167968750e+01 -3.619433045387268066e-01 5.228843092918395996e-01 4.828231036663055420e-02 2.181928604841232300e-02
5.853000000000000000e+03 9.529371261596679688e+00 8.291104316711425781e+00 2.005810104310512543e-02 2.136110514402389526e-02 1.242576166987419128e-02 8.326341398060321808e-03
5.854000000000000000e+03 8.425974845886230469e+00 8.540295600891113281e+00 1.503657177090644836e-02 -2.898932900279760361e-03 3.641291521489620209e-03 9.404048323631286621e-03
5.855000000000000000e+03 7.801770782470703125e+01 8.978844642639160156e+00 1.723237186670303345e-01 7.554200649261474609e+00 2.317957401275634766e+00 3.729393780231475830e-01
5.856000000000000000e+03 6.812041473388671875e+01 8.354064941406250000e+00 -3.899277001619338989e-02 1.360226917266845703e+01 4.068983078002929688e+00 -6.874417662620544434e-01
5.857000000000000000e+03 6.436260223388671875e+01 4.758017539978027344e+00 1.877717614173889160e+00 7.569390296936035156e+00 2.834132432937622070e+00 2.685817003250122070e+00
5.858000000000000000e+03 6.860983276367187500e+01 8.559304237365722656e+00 2.255800515413284302e-01 1.202326679229736328e+01 3.674654006958007812e+00 -4.455436468124389648e-01
5.859000000000000000e+03 5.467547607421875000e+01 -9.890896081924438477e-01 -8.716843724250793457e-01 -3.023756444454193115e-01 -3.522180020809173584e-01 -7.064862847328186035e-01
5.860000000000000000e+03 3.214570236206054688e+01 1.621244239807128906e+01 -6.095946431159973145e-01 -2.944061160087585449e-02 -1.917105764150619507e-01 2.027000486850738525e-01
5.861000000000000000e+03 4.088111400604248047e+00 3.654914474487304688e+01 9.104761295020580292e-03 -1.577831804752349854e-01 -4.460352286696434021e-02 2.661768160760402679e-02
5.862000000000000000e+03 2.815491104125976562e+01 2.258012533187866211e+00 1.832966655492782593e-01 2.306488454341888428e-01 1.241836473345756531e-01 3.125515878200531006e-01
5.863000000000000000e+03 6.617461395263671875e+01 -1.623876380920410156e+01 -1.885733008384704590e+00 2.015706062316894531e+00 3.899193555116653442e-02 -3.083290755748748779e-01
5.864000000000000000e+03 6.529777526855468750e+01 -2.918338966369628906e+01 3.445993959903717041e-01 3.843366861343383789e+00 1.256389856338500977e+00 1.180316284298896790e-01
5.865000000000000000e+03 2.236509513854980469e+01 -1.859495341777801514e-01 -2.918960340321063995e-02 7.440429180860519409e-02 1.356440689414739609e-02 1.754856854677200317e-02
5.866000000000000000e+03 1.605811357498168945e+00 -1.288551425933837891e+01 -2.795117208734154701e-03 -1.204254687763750553e-03 -1.199811580590903759e-03 -1.032892428338527679e-02
5.867000000000000000e+03 3.633917999267578125e+01 7.620336055755615234e+00 2.844186127185821533e-02 -1.248680613934993744e-02 4.786516539752483368e-03 -1.879316940903663635e-02
5.868000000000000000e+03 4.083193778991699219e+00 3.532613754272460938e+01 8.000372909009456635e-03 -1.505659818649291992e-01 -4.276968166232109070e-02 3.106776624917984009e-02
5.869000000000000000e+03 7.632746124267578125e+01 9.920215606689453125e+00 -2.286317050457000732e-01 9.035330772399902344e+00 2.642009735107421875e+00 -1.285904645919799805e+00
5.870000000000000000e+03 7.401406097412109375e+01 -8.688839912414550781e+00 1.150300502777099609e+00 9.494493484497070312e+00 3.193438291549682617e+00 1.536111682653427124e-01
5.871000000000000000e+03 5.960472869873046875e+01 1.392761802673339844e+01 -1.447535872459411621e+00 4.010425806045532227e-01 -3.139480054378509521e-01 -2.402147799730300903e-01
5.872000000000000000e+03 7.427615356445312500e+01 -1.054585933685302734e+01 1.416958689689636230e+00 1.018592739105224609e+01 3.480865716934204102e+00 -1.741875261068344116e-01
5.873000000000000000e+03 4.949732971191406250e+01 -1.729471015930175781e+01 -7.137252688407897949e-01 4.439698755741119385e-01 -8.092661947011947632e-02 7.042582333087921143e-02
5.874000000000000000e+03 4.418655872344970703e+00 6.838910102844238281e+00 -4.962971433997154236e-03 -7.696333341300487518e-03 -3.797791432589292526e-03 1.217341329902410507e-02
5.875000000000000000e+03 4.110756301879882812e+01 -5.835768699645996094e+00 4.939566850662231445e-01 -1.947394311428070068e-01 8.976517617702484131e-02 -9.982554614543914795e-02
5.876000000000000000e+03 2.291167640686035156e+01 -1.657739728689193726e-01 -5.380788445472717285e-02 9.082874655723571777e-02 1.110625732690095901e-02 3.632412478327751160e-02
5.877000000000000000e+03 2.327759552001953125e+01 1.619097888469696045e-01 -4.155414924025535583e-02 1.031635701656341553e-01 1.848282665014266968e-02 6.797833740711212158e-02
5.878000000000000000e+03 5.099179267883300781e+00 -5.013176918029785156e+00 -3.287980100139975548e-03 -1.557095791213214397e-03 -1.453522709198296070e-03 8.339623920619487762e-03
5.879000000000000000e+03 7.005952835083007812e+00 -3.218423604965209961e+00 4.197339992970228195e-03 -3.071467159315943718e-03 3.377618559170514345e-04 5.113311577588319778e-03
5.880000000000000000e+03 3.741901779174804688e+01 -9.859816431999206543e-01 -1.494913935661315918e+00 2.824853062629699707e-01 -3.637285828590393066e-01 -1.272650361061096191e-01
5.881000000000000000e+03 7.756340789794921875e+01 3.983091354370117188e+00 1.448316872119903564e-01 9.945747375488281250e+00 3.027173757553100586e+00 -2.762208223342895508e+00
5.882000000000000000e+03 7.820579528808593750e+01 3.793555498123168945e+00 -4.998654872179031372e-02 9.591782569885253906e+00 2.862538814544677734e+00 -2.631947755813598633e+00
5.883000000000000000e+03 7.132683563232421875e+01 1.056167221069335938e+01 2.220293521881103516e+00 2.707147359848022461e+00 1.478232264518737793e+00 8.962441682815551758e-01
5.884000000000000000e+03 9.213516235351562500e+00 1.093998622894287109e+01 1.179072074592113495e-02 4.242655355483293533e-03 4.810012876987457275e-03 5.988866556435823441e-03
5.885000000000000000e+03 7.395960235595703125e+01 -1.840519523620605469e+01 -1.476976037025451660e+00 8.117627143859863281e+00 1.992195248603820801e+00 6.408233046531677246e-01
5.886000000000000000e+03 4.479972839355468750e+00 -2.975677490234375000e+01 1.021725405007600784e-02 -2.556860446929931641e-01 -7.364063709974288940e-02 -7.879737019538879395e-02
5.887000000000000000e+03 4.684269428253173828e+00 -3.289344787597656250e+01 1.511187665164470673e-02 -2.919381558895111084e-01 -8.304788917303085327e-02 -6.568175554275512695e-02
5.888000000000000000e+03 7.126557159423828125e+01 -3.212554931640625000e+01 3.091214597225189209e-01 5.451838493347167969e+00 1.728288054466247559e+00 4.123146235942840576e-01
5.889000000000000000e+03 2.446596717834472656e+01 2.837220728397369385e-01 -8.613327145576477051e-02 1.423050612211227417e-01 1.685153320431709290e-02 1.009463444352149963e-01
5.890000000000000000e+03 2.578289985656738281e+01 -6.059497594833374023e-01 -3.150372207164764404e-01 1.319920271635055542e-01 -5.491355434060096741e-02 -6.808423995971679688e-02
5.891000000000000000e+03 2.646301078796386719e+01 -1.188803911209106445e+00 -4.246171116828918457e-01 6.241304054856300354e-02 -1.086612194776535034e-01 -2.760314643383026123e-01
5.892000000000000000e+03 7.644214630126953125e+01 1.043288421630859375e+01 -6.964452862739562988e-01 8.532252311706542969e+00 2.350742101669311523e+00 -9.400084614753723145e-01
5.893000000000000000e+03 7.632291412353515625e+01 1.105348014831542969e+01 -3.417017757892608643e-01 7.551243305206298828e+00 2.162862300872802734e+00 -1.025692820549011230e+00
5.894000000000000000e+03 4.400628662109375000e+01 -1.691476058959960938e+01 -7.095772027969360352e-01 3.455410301685333252e-01 -1.092108562588691711e-01 -8.435977250337600708e-02
5.895000000000000000e+03 5.022824478149414062e+01 1.821924591064453125e+01 -1.020991325378417969e+00 -5.166009068489074707e-01 -4.612776637077331543e-01 3.870345279574394226e-02
5.896000000000000000e+03 4.107588768005371094e+00 1.039396286010742188e+01 4.463359247893095016e-03 -1.193858496844768524e-02 -2.242567716166377068e-03 7.289173081517219543e-03
5.897000000000000000e+03 6.412784576416015625e+01 -2.970668792724609375e+01 3.329561948776245117e-01 3.640545845031738281e+00 1.192050576210021973e+00 7.600730657577514648e-02
5.898000000000000000e+03 6.488599395751953125e+01 3.525739908218383789e+00 1.658257246017456055e+00 7.261150836944580078e+00 2.675822496414184570e+00 2.291286468505859375e+00
5.899000000000000000e+03 4.546499252319335938e+01 -1.554354572296142578e+01 -5.232872962951660156e-01 4.689455926418304443e-01 -1.630250923335552216e-02 -1.203811615705490112e-01
5.900000000000000000e+03 4.277877044677734375e+01 -2.058050727844238281e+01 -3.490642309188842773e-01 1.340557485818862915e-01 -6.450254470109939575e-02 -6.611884385347366333e-02
5.901000000000000000e+03 5.755326080322265625e+01 -2.337689781188964844e+01 -4.649458825588226318e-01 3.293981790542602539e+00 8.487107157707214355e-01 2.991845309734344482e-01
5.902000000000000000e+03 2.809592247009277344e+01 1.776066780090332031e+01 -4.465081691741943359e-01 3.294622525572776794e-02 -1.240685805678367615e-01 2.043653130531311035e-01
5.903000000000000000e+03 3.690007400512695312e+01 7.354285240173339844e+00 2.387235872447490692e-02 -8.224130608141422272e-03 4.694468341767787933e-03 -2.524191327393054962e-02
5.904000000000000000e+03 2.912071037292480469e+01 2.473371982574462891e+00 1.376233249902725220e-01 -8.360760658979415894e-02 1.620471663773059845e-02 1.832733005285263062e-01
5.905000000000000000e+03 4.073525619506835938e+01 -5.376227378845214844e+00 5.160973072052001953e-01 -3.439010977745056152e-01 5.165885388851165771e-02 -1.054141223430633545e-01
5.906000000000000000e+03 6.701420593261718750e+01 5.239413261413574219e+00 1.691093802452087402e+00 1.187490177154541016e+01 4.069798946380615234e+00 -9.355292320251464844e-01
5.907000000000000000e+03 3.536907958984375000e+01 4.999742984771728516e+00 8.535398170351982117e-03 -4.036265239119529724e-02 -9.548176079988479614e-03 -9.979703277349472046e-02
5.908000000000000000e+03 3.137140083312988281e+01 3.574273586273193359e+00 3.089420199394226074e-01 -2.792899012565612793e-01 8.895634673535823822e-03 -1.367301046848297119e-01
5.909000000000000000e+03 3.106140327453613281e+01 4.069480895996093750e+00 3.805220425128936768e-01 -1.482154428958892822e-01 6.969198584556579590e-02 2.998155355453491211e-02
5.910000000000000000e+03 4.247037506103515625e+01 -9.581248283386230469e+00 2.726959288120269775e-01 1.057509109377861023e-01 1.135340556502342224e-01 -2.070262432098388672e-01
5.911000000000000000e+03 7.750873565673828125e+01 -3.793836593627929688e+01 3.326428309082984924e-02 7.010476112365722656e+00 2.113122224807739258e+00 1.189767643809318542e-01
5.912000000000000000e+03 2.335074424743652344e+01 5.785417556762695312e-01 -9.287185035645961761e-03 7.752165943384170532e-02 2.047034166753292084e-02 7.961562275886535645e-02
5.913000000000000000e+03 5.819289779663085938e+01 -1.282565951347351074e+00 -6.997227668762207031e-01 1.849455714225769043e+00 3.449198901653289795e-01 6.245698928833007812e-01
5.914000000000000000e+03 7.087115478515625000e+01 -1.889423489570617676e+00 -2.811772584915161133e+00 5.772596359252929688e+00 8.882471323013305664e-01 -3.537600040435791016e+00
5.915000000000000000e+03 7.809405517578125000e+01 1.200613379478454590e+00 -1.218802213668823242e+00 1.038919544219970703e+01 2.751117944717407227e+00 -9.671736955642700195e-01
5.916000000000000000e+03 7.753096771240234375e+01 1.524042844772338867e+00 -1.761054992675781250e+00 9.704457283020019531e+00 2.383020877838134766e+00 -1.294023633003234863e+00
5.917000000000000000e+03 4.274541091918945312e+01 -3.516440391540527344e+00 -3.194793313741683960e-02 -1.397900283336639404e-01 -5.152139067649841309e-02 1.164483204483985901e-01
5.918000000000000000e+03 2.845732116699218750e+01 1.729253196716308594e+01 -4.452324509620666504e-01 3.376220539212226868e-02 -1.234410777688026428e-01 1.993669867515563965e-01
5.919000000000000000e+03 3.054605245590209961e+00 3.558665847778320312e+01 4.991902504116296768e-03 -1.582862585783004761e-01 -4.598830640316009521e-02 2.370357699692249298e-02
5.920000000000000000e+03 1.960864901542663574e+00 3.468091583251953125e+01 2.293809782713651657e-03 -1.582569628953933716e-01 -4.678894579410552979e-02 1.787086203694343567e-02
5.921000000000000000e+03 4.125773239135742188e+01 1.431407928466796875e+01 -7.423110604286193848e-01 1.844390779733657837e-01 -1.673616021871566772e-01 3.260532394051551819e-02
5.922000000000000000e+03 4.168496322631835938e+01 1.484517383575439453e+01 -8.581261634826660156e-01 1.979441195726394653e-01 -1.980546116828918457e-01 2.501161769032478333e-02
5.923000000000000000e+03 4.281612014770507812e+01 -1.206212711334228516e+01 7.463040202856063843e-02 3.982927650213241577e-02 3.433790430426597595e-02 -1.930914968252182007e-01
5.924000000000000000e+03 6.876536560058593750e+01 6.146084070205688477e-01 -1.141634941101074219e+00 8.432292938232421875e+00 2.187197446823120117e+00 -1.865051269531250000e+00
5.925000000000000000e+03 4.434130191802978516e+00 -4.324890136718750000e+00 -4.556334461085498333e-04 1.804472703952342272e-04 -8.255585271399468184e-05 9.145802818238735199e-03
5.926000000000000000e+03 5.222027206420898438e+01 8.132176399230957031e+00 4.593896679580211639e-03 -2.275747992098331451e-02 -5.449074786156415939e-03 -1.104334462434053421e-02
5.927000000000000000e+03 2.833779144287109375e+01 -1.178373575210571289e+00 -9.223802685737609863e-01 -1.333961188793182373e-01 -3.167329132556915283e-01 -6.116688847541809082e-01
5.928000000000000000e+03 6.641121673583984375e+01 5.470832347869873047e+00 1.322189092636108398e+00 1.135118865966796875e+01 3.802013397216796875e+00 6.600664556026458740e-02
5.929000000000000000e+03 2.323418426513671875e+01 -8.073843121528625488e-01 -5.636152625083923340e-02 1.204875856637954712e-01 1.923781819641590118e-02 2.722065150737762451e-02
5.930000000000000000e+03 2.517900657653808594e+01 1.067323589324951172e+01 -4.123394191265106201e-02 1.336344145238399506e-02 -8.361150510609149933e-03 -3.218613564968109131e-02
5.931000000000000000e+03 2.470603466033935547e+00 1.536852741241455078e+01 -1.041593030095100403e-03 -1.897284202277660370e-02 -6.004330702126026154e-03 1.935309148393571377e-03
5.932000000000000000e+03 2.740782976150512695e+00 2.060721015930175781e+01 -4.450497683137655258e-03 -3.513738512992858887e-02 -1.187636516988277435e-02 1.305785868316888809e-02
5.933000000000000000e+03 1.488028240203857422e+01 -4.568273067474365234e+00 4.630114883184432983e-03 -4.667097236961126328e-03 -1.109469303628429770e-05 -6.136970128864049911e-03
5.934000000000000000e+03 7.773750305175781250e+01 -3.224895477294921875e+01 3.324238583445549011e-02 7.414851665496826172e+00 2.234428167343139648e+00 2.027885019779205322e-01
5.935000000000000000e+03 7.705948638916015625e+01 -3.532123947143554688e+01 3.361406922340393066e-02 7.012615203857421875e+00 2.113868713378906250e+00 1.662686020135879517e-01
5.936000000000000000e+03 5.079950714111328125e+01 4.459506273269653320e-01 -8.655518293380737305e-01 2.270700484514236450e-01 -1.915445327758789062e-01 -4.487606883049011230e-02
5.937000000000000000e+03 3.336445808410644531e+00 9.422732353210449219e+00 2.809551078826189041e-03 -1.157398987561464310e-02 -2.629331545904278755e-03 7.815496996045112610e-03
5.938000000000000000e+03 7.328659057617187500e+01 -3.232697677612304688e+01 2.129348069429397583e-01 6.055061340332031250e+00 1.880398869514465332e+00 4.408481121063232422e-01
5.939000000000000000e+03 6.584577178955078125e+01 4.668150246143341064e-01 -3.453921973705291748e-01 4.761211872100830078e+00 1.324745893478393555e+00 2.628607273101806641e+00
5.940000000000000000e+03 2.734396743774414062e+01 -5.548962116241455078e+00 1.924443095922470093e-01 -6.943653225898742676e-01 -1.505763083696365356e-01 -6.707765460014343262e-01
5.941000000000000000e+03 3.481881618499755859e+00 -6.353146553039550781e+00 -4.248908255249261856e-03 2.845628885552287102e-03 -4.209838516544550657e-04 6.412552669644355774e-03
5.942000000000000000e+03 7.303279113769531250e+01 -3.311767578125000000e+00 -9.280678629875183105e-01 5.616808891296386719e+00 1.406622290611267090e+00 -1.430960416793823242e+00
5.943000000000000000e+03 5.668882751464843750e+01 -2.842218399047851562e+01 1.119456067681312561e-01 2.438249588012695312e+00 7.650585770606994629e-01 1.904640644788742065e-01
5.944000000000000000e+03 5.801170730590820312e+01 -2.260585975646972656e+01 -6.113960742950439453e-01 3.513364553451538086e+00 8.705905675888061523e-01 4.840387776494026184e-02
5.945000000000000000e+03 7.485478973388671875e+01 -8.402689933776855469e+00 8.989202380180358887e-01 8.884056091308593750e+00 2.934892892837524414e+00 5.995575785636901855e-01
5.946000000000000000e+03 4.615941238403320312e+01 -1.664643669128417969e+01 -6.342125535011291504e-01 5.517768263816833496e-01 -2.473071403801441193e-02 -7.069905847311019897e-02
5.947000000000000000e+03 6.490769958496093750e+01 -1.692609024047851562e+01 -1.384127974510192871e+00 2.910788536071777344e+00 4.579982161521911621e-01 -6.053486466407775879e-01
5.948000000000000000e+03 4.341886997222900391e+00 -5.444006919860839844e+00 -2.136267023161053658e-03 5.148328491486608982e-04 -4.864302463829517365e-04 7.936168462038040161e-03
5.949000000000000000e+03 6.631446075439453125e+01 -1.829387092590332031e+01 -9.286539554595947266e-01 2.280328750610351562e+00 4.055024087429046631e-01 -6.635461449623107910e-01
5.950000000000000000e+03 6.995117187500000000e+01 -2.476747512817382812e+00 -3.358269691467285156e+00 5.689954757690429688e+00 6.995055079460144043e-01 -2.596726417541503906e+00
5.951000000000000000e+03 6.063685226440429688e+01 1.817826080322265625e+01 1.282739043235778809e-01 1.933737754821777344e+00 6.186034679412841797e-01 -1.300776958465576172e+00
5.952000000000000000e+03 3.272813796997070312e+00 1.003944778442382812e+01 3.126195166260004044e-03 -1.196775864809751511e-02 -2.652469091117382050e-03 6.742950994521379471e-03
5.953000000000000000e+03 7.738961791992187500e+01 -1.335328698158264160e+00 -6.414859294891357422e-01 9.029313087463378906e+00 2.516348123550415039e+00 8.248705863952636719e-01
5.954000000000000000e+03 3.440007400512695312e+01 5.671300888061523438e+00 9.126132726669311523e-02 -7.594197243452072144e-02 4.595806822180747986e-03 -5.929564312100410461e-02
5.955000000000000000e+03 3.465006256103515625e+01 4.594919681549072266e+00 -2.769464813172817230e-02 -5.416674539446830750e-02 -2.455841749906539917e-02 -1.196085140109062195e-01
5.956000000000000000e+03 3.509489822387695312e+01 4.399445533752441406e+00 -4.984655976295471191e-02 -3.707924857735633850e-02 -2.607774175703525543e-02 -1.010252609848976135e-01
5.957000000000000000e+03 5.361286163330078125e+00 -1.647297477722167969e+01 -2.424838766455650330e-02 -6.414272636175155640e-02 -2.651733346283435822e-02 -6.867166608572006226e-02
5.958000000000000000e+03 5.871403694152832031e+00 -3.164118194580078125e+01 1.984239555895328522e-02 -2.645699381828308105e-01 -7.341826707124710083e-02 -8.713744580745697021e-02
5.959000000000000000e+03 4.633089542388916016e+00 -3.066684150695800781e+01 1.099607720971107483e-02 -2.658894658088684082e-01 -7.646802067756652832e-02 -7.632926851511001587e-02
5.960000000000000000e+03 5.126426315307617188e+01 1.965889739990234375e+01 -5.760222077369689941e-01 -1.826710440218448639e-02 -1.782867908477783203e-01 -1.020985543727874756e-01
5.961000000000000000e+03 4.700825119018554688e+01 2.489558696746826172e+00 -6.796921491622924805e-01 1.822664290666580200e-01 -1.492277234792709351e-01 -1.425122469663619995e-01
5.962000000000000000e+03 7.384500885009765625e+01 -3.336836242675781250e+01 1.754821091890335083e-01 6.203013420104980469e+00 1.913548707962036133e+00 3.658166527748107910e-01
5.963000000000000000e+03 2.905903053283691406e+01 -8.690458297729492188e+00 -2.066222280263900757e-01 8.427519351243972778e-02 -3.670411184430122375e-02 -2.136952131986618042e-01
5.964000000000000000e+03 4.769991397857666016e+00 -2.690235519409179688e+01 4.332839511334896088e-03 -2.120948284864425659e-01 -6.232859939336776733e-02 -8.968116343021392822e-02
5.965000000000000000e+03 5.903279495239257812e+01 -1.929095149040222168e+00 -3.743947446346282959e-01 3.191986083984375000e+00 8.452774286270141602e-01 7.287103533744812012e-01
5.966000000000000000e+03 3.865031814575195312e+01 1.807169342041015625e+01 -7.214462161064147949e-01 9.537095576524734497e-02 -1.878225654363632202e-01 1.876233220100402832e-01
5.967000000000000000e+03 7.606134796142578125e+01 -3.066777420043945312e+01 1.117113605141639709e-01 6.981529235839843750e+00 2.127972126007080078e+00 3.929847478866577148e-01
5.968000000000000000e+03 7.555046081542968750e+01 -3.143374443054199219e+01 9.781322628259658813e-02 6.782008171081542969e+00 2.063946485519409180e+00 3.691079616546630859e-01
5.969000000000000000e+03 3.218301773071289062e+00 1.464534473419189453e+01 -7.734723039902746677e-04 -1.800663769245147705e-02 -5.634033121168613434e-03 2.442171331495046616e-03
5.970000000000000000e+03 2.938027858734130859e+00 1.808370208740234375e+01 -4.007120151072740555e-03 -2.509938739240169525e-02 -8.731952868402004242e-03 7.693206425756216049e-03
5.971000000000000000e+03 5.596303939819335938e+01 1.671445465087890625e+01 -8.074870109558105469e-01 7.051793336868286133e-01 -3.069231100380420685e-02 -1.579318381845951080e-02
5.972000000000000000e+03 3.940269708633422852e+00 2.430541419982910156e+01 -7.178371772170066833e-03 -5.949803441762924194e-02 -2.000292204320430756e-02 3.292776271700859070e-02
5.973000000000000000e+03 3.722903013229370117e+00 -2.588055038452148438e+01 1.267412677407264709e-03 -2.020670771598815918e-01 -6.023989990353584290e-02 -7.464960962533950806e-02
5.974000000000000000e+03 5.282162189483642578e+00 -7.778512954711914062e+00 -1.456404104828834534e-02 -6.154434289783239365e-03 -6.215542554855346680e-03 -1.438761479221284389e-03
5.975000000000000000e+03 4.739744186401367188e+01 -2.022020339965820312e+01 -5.052052736282348633e-01 5.704910159111022949e-01 1.958573050796985626e-02 -7.870161533355712891e-02
5.976000000000000000e+03 7.584887695312500000e+01 -1.353048515319824219e+01 7.058987617492675781e-01 9.082113265991210938e+00 2.936403512954711914e+00 -6.436361670494079590e-01
5.977000000000000000e+03 7.649130249023437500e+01 -1.125390911102294922e+01 7.743325233459472656e-01 8.698882102966308594e+00 2.841964483261108398e+00 5.593352019786834717e-03
5.978000000000000000e+03 2.547265815734863281e+01 -2.353371381759643555e+00 -1.341381669044494629e-01 -1.111198887228965759e-01 -7.357741892337799072e-02 -2.567795217037200928e-01
5.979000000000000000e+03 7.651813507080078125e+01 -1.840904045104980469e+01 -5.195661187171936035e-01 8.710614204406738281e+00 2.457314491271972656e+00 -3.166076540946960449e-01
5.980000000000000000e+03 6.259934616088867188e+01 -1.676301956176757812e+01 -9.997315406799316406e-01 3.930224895477294922e+00 8.791479468345642090e-01 -2.622115612030029297e-01
5.981000000000000000e+03 7.145857238769531250e+01 -3.321420192718505859e+00 -1.876129150390625000e+00 5.658715724945068359e+00 1.134775996208190918e+00 -2.389726161956787109e+00
5.982000000000000000e+03 3.527389907836914062e+01 -1.921006584167480469e+01 -4.351879954338073730e-01 1.958634257316589355e-01 -7.179737091064453125e-02 -2.777827978134155273e-01
5.983000000000000000e+03 4.577066040039062500e+01 -1.721061515808105469e+01 -6.484597921371459961e-01 5.203012824058532715e-01 -3.844754770398139954e-02 -6.029286980628967285e-02
5.984000000000000000e+03 2.195381164550781250e+01 -1.469276046752929688e+01 -2.023363858461380005e-01 -2.947478890419006348e-01 -1.491252779960632324e-01 -3.054974675178527832e-01
5.985000000000000000e+03 1.137824535369873047e+01 2.913194084167480469e+01 1.609212835319340229e-03 -9.643391519784927368e-02 -2.844741009175777435e-02 1.053926870226860046e-01
5.986000000000000000e+03 1.814366912841796875e+01 2.429422187805175781e+01 -7.851196825504302979e-02 -6.729390472173690796e-02 -4.374176263809204102e-02 1.809082329273223877e-01
5.987000000000000000e+03 4.599524307250976562e+01 2.223884391784667969e+01 -2.563979029655456543e-01 -7.339910417795181274e-02 -9.893909841775894165e-02 3.744665384292602539e-01
5.988000000000000000e+03 7.471281433105468750e+01 1.457344150543212891e+01 9.465361237525939941e-01 5.729836463928222656e+00 2.002911806106567383e+00 -1.191967576742172241e-01
5.989000000000000000e+03 5.833037567138671875e+01 -4.240222930908203125e+00 1.106827139854431152e+00 2.719900846481323242e+00 1.148018360137939453e+00 4.788080453872680664e-01
5.990000000000000000e+03 4.135639190673828125e+01 1.992068672180175781e+01 -6.521816849708557129e-01 1.003721058368682861e-01 -1.655428856611251831e-01 3.602932095527648926e-01
5.991000000000000000e+03 4.209017181396484375e+01 1.449035358428955078e+01 -8.068395256996154785e-01 1.972211599349975586e-01 -1.828854978084564209e-01 5.126702133566141129e-03
5.992000000000000000e+03 3.389666366577148438e+01 5.375020503997802734e+00 1.152768358588218689e-01 -7.591736316680908203e-02 1.180784031748771667e-02 -6.523235142230987549e-02
5.993000000000000000e+03 3.420739364624023438e+01 4.681038856506347656e+00 4.820408299565315247e-03 -8.366727828979492188e-02 -2.365406043827533722e-02 -1.504288464784622192e-01
5.994000000000000000e+03 6.545450592041015625e+01 2.481935262680053711e+00 1.279578328132629395e+00 6.891181468963623047e+00 2.451227903366088867e+00 2.356131315231323242e+00
5.995000000000000000e+03 8.843590736389160156e+00 1.234598350524902344e+01 4.858015105128288269e-03 1.287641585804522038e-03 1.843696925789117813e-03 6.024063099175691605e-03
5.996000000000000000e+03 4.823216247558593750e+01 -2.371013760566711426e-01 -7.059185504913330078e-01 2.845375537872314453e-01 -1.264142990112304688e-01 2.435432747006416321e-02
5.997000000000000000e+03 4.899540424346923828e+00 -1.785035514831542969e+01 -1.788520440459251404e-02 -8.008125424385070801e-02 -2.938993647694587708e-02 -7.197115570306777954e-02
5.998000000000000000e+03 3.196304512023925781e+01 -1.333943843841552734e+01 -2.110027819871902466e-01 3.942734897136688232e-01 5.498121306300163269e-02 3.901338577270507812e-02
5.999000000000000000e+03 7.513713836669921875e+01 -7.161923408508300781e+00 4.327047169208526611e-01 8.494650840759277344e+00 2.678206682205200195e+00 8.346737623214721680e-01
6.000000000000000000e+03 1.748514366149902344e+01 -1.375199794769287109e+01 -2.314067482948303223e-01 -5.970015004277229309e-02 -8.733206987380981445e-02 -2.024804651737213135e-01
6.001000000000000000e+03 6.690023803710937500e+01 2.441681861877441406e+01 -5.965733528137207031e-01 5.801765918731689453e+00 1.561557769775390625e+00 -5.762827992439270020e-01
6.002000000000000000e+03 6.521423339843750000e+01 1.604808568954467773e+00 2.909363210201263428e-01 6.054150581359863281e+00 1.903526067733764648e+00 2.931781768798828125e+00
6.003000000000000000e+03 7.227547645568847656e+00 -2.897179985046386719e+01 1.823978871107101440e-02 -2.255960106849670410e-01 -6.220686435699462891e-02 -1.156371235847473145e-01
6.004000000000000000e+03 6.112961578369140625e+01 -2.363577842712402344e+01 -2.688195109367370605e-01 3.457146406173706055e+00 9.564980268478393555e-01 -3.141051828861236572e-01
6.005000000000000000e+03 1.189719963073730469e+01 1.564481830596923828e+01 -3.627108782529830933e-02 1.118922512978315353e-02 -7.524558808654546738e-03 1.954713650047779083e-02
6.006000000000000000e+03 6.369686126708984375e+01 2.124685859680175781e+01 -4.102367758750915527e-01 4.672643184661865234e+00 1.278721928596496582e+00 -1.491402029991149902e+00
6.007000000000000000e+03 4.058842468261718750e+01 1.683119392395019531e+01 -8.755185604095458984e-01 1.920098811388015747e-01 -2.050526142120361328e-01 1.611015647649765015e-01
6.008000000000000000e+03 2.797159957885742188e+01 2.115127944946289062e+01 -2.780851721763610840e-01 -5.824137851595878601e-02 -1.008979603648185730e-01 2.365662306547164917e-01
6.009000000000000000e+03 4.158470535278320312e+01 1.669071769714355469e+01 -9.356774091720581055e-01 2.097836583852767944e-01 -2.177681326866149902e-01 1.725907921791076660e-01
6.010000000000000000e+03 3.439991235733032227e+00 2.326082229614257812e+01 -5.926480516791343689e-03 -5.237307772040367126e-02 -1.748986728489398956e-02 2.619053050875663757e-02
6.011000000000000000e+03 2.448885345458984375e+01 2.661890029907226562e+01 -1.161629240959882736e-02 -1.333647966384887695e-01 -4.349432513117790222e-02 2.392203211784362793e-01
6.012000000000000000e+03 7.384902954101562500e+01 -5.678836345672607422e+00 -1.463925689458847046e-01 7.522775650024414062e+00 2.212914943695068359e+00 1.064740940928459167e-01
6.013000000000000000e+03 7.634873199462890625e+01 -7.767018318176269531e+00 4.978185892105102539e-01 8.578164100646972656e+00 2.722794771194458008e+00 1.017634153366088867e+00
6.014000000000000000e+03 7.626215362548828125e+01 -6.325323104858398438e+00 2.333468943834304810e-01 8.366548538208007812e+00 2.579968690872192383e+00 1.158115148544311523e+00
6.015000000000000000e+03 7.482469177246093750e+01 -3.186308479309082031e+01 1.487435847520828247e-01 6.465208053588867188e+00 1.984185576438903809e+00 3.833103477954864502e-01
6.016000000000000000e+03 7.719999694824218750e+01 1.437408733367919922e+01 1.059674173593521118e-01 6.023586273193359375e+00 1.838865995407104492e+00 -5.878213047981262207e-02
6.017000000000000000e+03 4.682839870452880859e+00 1.689347839355468750e+01 -6.900481414049863815e-03 -2.036800421774387360e-02 -8.180545642971992493e-03 9.080441668629646301e-03
6.018000000000000000e+03 3.836459732055664062e+01 1.862162971496582031e+01 -6.453052759170532227e-01 6.759642809629440308e-02 -1.733126491308212280e-01 2.160168588161468506e-01
6.019000000000000000e+03 3.815020751953125000e+01 1.938495635986328125e+01 -5.831010937690734863e-01 4.041488468647003174e-02 -1.628058701753616333e-01 2.363080233335494995e-01
6.020000000000000000e+03 2.342615890502929688e+01 2.741070175170898438e+01 1.224435493350028992e-02 -1.365569531917572021e-01 -3.729378059506416321e-02 2.283542156219482422e-01
6.021000000000000000e+03 4.650117397308349609e+00 1.844801330566406250e+01 -8.897270075976848602e-03 -2.563951909542083740e-02 -1.036103628575801849e-02 1.415785122662782669e-02
6.022000000000000000e+03 4.883237361907958984e+00 -2.571153640747070312e+01 2.680005505681037903e-03 -1.961671859025955200e-01 -5.804615467786788940e-02 -9.309941530227661133e-02
6.023000000000000000e+03 4.356495380401611328e+00 -2.585283088684082031e+01 2.111574402078986168e-03 -2.000953704118728638e-01 -5.939513817429542542e-02 -8.452760428190231323e-02
6.024000000000000000e+03 5.695478916168212891e+00 -8.516411781311035156e+00 -1.752195321023464203e-02 -9.354562498629093170e-03 -8.062954992055892944e-03 -5.674088839441537857e-03
6.025000000000000000e+03 1.054690837860107422e+01 -5.055239200592041016e+00 -1.303173415362834930e-02 -8.271104656159877777e-03 -6.390851456671953201e-03 1.864036545157432556e-03
6.026000000000000000e+03 4.162311172485351562e+01 2.245572471618652344e+01 -3.460394144058227539e-01 1.733096316456794739e-02 -9.861253947019577026e-02 4.107466638088226318e-01
6.027000000000000000e+03 5.535276412963867188e+01 1.746301078796386719e+01 -7.621850371360778809e-01 6.723737120628356934e-01 -2.694339677691459656e-02 -1.132489666342735291e-01
6.028000000000000000e+03 7.172933197021484375e+01 -2.186489105224609375e+01 -1.651471555233001709e-01 5.191978454589843750e+00 1.508049488067626953e+00 1.163115382194519043e+00
6.029000000000000000e+03 1.912609291076660156e+01 2.447983169555664062e+01 -7.885199040174484253e-02 -7.639310508966445923e-02 -4.657353088259696960e-02 1.895217597484588623e-01
6.030000000000000000e+03 1.901296043395996094e+01 2.564897918701171875e+01 -4.701001569628715515e-02 -9.088735282421112061e-02 -4.136921092867851257e-02 1.948076635599136353e-01
6.031000000000000000e+03 3.496309280395507812e+01 -1.996552658081054688e+01 -3.874705433845520020e-01 1.706768125295639038e-01 -6.503812223672866821e-02 -2.675706446170806885e-01
6.032000000000000000e+03 3.552608871459960938e+01 -2.025407409667968750e+01 -3.724138140678405762e-01 1.491197049617767334e-01 -6.698822975158691406e-02 -3.189811110496520996e-01
6.033000000000000000e+03 3.914934873580932617e+00 3.428109741210937500e+01 7.751706987619400024e-03 -1.453828066587448120e-01 -4.128932952880859375e-02 3.352839127182960510e-02
6.034000000000000000e+03 6.006973266601562500e+01 1.965811538696289062e+01 3.066346980631351471e-02 2.107935190200805664e+00 6.415796279907226562e-01 -1.205036640167236328e+00
6.035000000000000000e+03 5.476356506347656250e+00 -2.536018562316894531e+01 1.800525817088782787e-03 -1.868993490934371948e-01 -5.552964657545089722e-02 -1.040993407368659973e-01
6.036000000000000000e+03 4.783126068115234375e+01 -2.757927322387695312e+01 2.731438279151916504e-01 7.688772678375244141e-01 3.126063346862792969e-01 1.338256988674402237e-02
6.037000000000000000e+03 6.094080734252929688e+01 -1.195630455017089844e+01 -7.815158963203430176e-01 5.471790313720703125e+00 1.407082319259643555e+00 1.241227388381958008e+00
6.038000000000000000e+03 2.501038551330566406e+01 -2.268985176086425781e+01 -2.393489121459424496e-04 -1.460517793893814087e-01 -4.388733580708503723e-02 -1.978044956922531128e-01
6.039000000000000000e+03 2.397787094116210938e+01 -2.280826950073242188e+01 7.158785592764616013e-03 -1.615879386663436890e-01 -4.632874578237533569e-02 -2.073426395654678345e-01
6.040000000000000000e+03 6.038997650146484375e+01 -9.825683593750000000e+00 -4.380753729492425919e-03 5.743896484375000000e+00 1.721854686737060547e+00 1.399493098258972168e+00
6.041000000000000000e+03 2.882735443115234375e+01 2.130864906311035156e+01 -2.822730243206024170e-01 -5.233728885650634766e-02 -1.003830879926681519e-01 2.508717775344848633e-01
6.042000000000000000e+03 4.906093978881835938e+01 -2.821080780029296875e+01 3.386225104331970215e-01 9.908239245414733887e-01 3.988339304924011230e-01 7.307939976453781128e-02
6.043000000000000000e+03 7.546964263916015625e+01 -5.771418094635009766e+00 1.173151955008506775e-01 7.989999771118164062e+00 2.432194471359252930e+00 9.242142438888549805e-01
6.044000000000000000e+03 7.579741668701171875e+01 2.782642936706542969e+01 -1.220622882246971130e-01 6.755599975585937500e+00 1.990061402320861816e+00 1.866336017847061157e-01
6.045000000000000000e+03 7.648098754882812500e+01 2.756105995178222656e+01 -7.241846621036529541e-02 6.827473163604736328e+00 2.026516437530517578e+00 1.927542090415954590e-01
6.046000000000000000e+03 2.900244522094726562e+01 -1.307696437835693359e+01 -2.123946696519851685e-01 -4.260788857936859131e-02 -7.650076597929000854e-02 1.747133582830429077e-01
6.047000000000000000e+03 5.859472274780273438e+00 -9.048637390136718750e+00 -2.222530543804168701e-02 -1.192157249897718430e-02 -1.024406310170888901e-02 -1.046918518841266632e-02
6.048000000000000000e+03 6.294674873352050781e+00 1.261715221405029297e+01 2.556521212682127953e-03 -1.123498566448688507e-02 -2.603539265692234039e-03 4.386942833662033081e-03
6.049000000000000000e+03 7.497370147705078125e+01 1.657876205444335938e+01 5.465689897537231445e-01 6.145129203796386719e+00 2.007509469985961914e+00 4.637428820133209229e-01
6.050000000000000000e+03 9.047739982604980469e+00 1.374072456359863281e+01 -4.378130193799734116e-03 -4.788020742125809193e-04 -1.457079662941396236e-03 8.133553899824619293e-03
6.051000000000000000e+03 7.630310058593750000e+01 -7.044225215911865234e+00 3.316830396652221680e-01 8.464768409729003906e+00 2.638935327529907227e+00 1.096818923950195312e+00
6.052000000000000000e+03 7.441484832763671875e+01 -5.569810867309570312e+00 -5.870949476957321167e-02 7.613201618194580078e+00 2.266347646713256836e+00 3.923836946487426758e-01
6.053000000000000000e+03 3.377033996582031250e+01 2.620107460021972656e+01 -5.669549107551574707e-03 -8.643818646669387817e-02 -2.763232029974460602e-02 3.154417276382446289e-01
6.054000000000000000e+03 3.973472976684570312e+01 2.004200172424316406e+01 -5.958695411682128906e-01 8.058013767004013062e-02 -1.545868068933486938e-01 3.020890355110168457e-01
6.055000000000000000e+03 3.247886657714843750e+01 2.269251251220703125e+01 -2.218407243490219116e-01 -7.062502205371856689e-02 -8.773972839117050171e-02 3.102742731571197510e-01
6.056000000000000000e+03 5.635511398315429688e+01 2.423709487915039062e+01 1.526008844375610352e-01 1.568183183670043945e+00 5.162352323532104492e-01 -6.752169132232666016e-01
6.057000000000000000e+03 6.175243377685546875e+00 -8.563774108886718750e+00 -2.226047590374946594e-02 -1.033066771924495697e-02 -9.777342900633811951e-03 -9.064504876732826233e-03
6.058000000000000000e+03 5.461163711547851562e+01 2.207229232788085938e+01 -1.619768911041319370e-03 8.995674252510070801e-01 2.693842947483062744e-01 -4.491551816463470459e-01
6.059000000000000000e+03 7.481407165527343750e+01 -2.720811653137207031e+01 1.180620267987251282e-01 6.710269451141357422e+00 2.048499345779418945e+00 6.056006550788879395e-01
6.060000000000000000e+03 7.353592681884765625e+01 1.695026397705078125e+01 6.517000794410705566e-01 6.405454635620117188e+00 2.117146492004394531e+00 8.305889368057250977e-01
6.061000000000000000e+03 5.200624942779541016e+00 1.848256111145019531e+01 -1.190299820154905319e-02 -2.535115182399749756e-02 -1.117624528706073761e-02 1.621953211724758148e-02
6.062000000000000000e+03 4.837328910827636719e+00 1.888757133483886719e+01 -1.108169276267290115e-02 -2.672264166176319122e-02 -1.134129986166954041e-02 1.698203943669795990e-02
6.063000000000000000e+03 6.794483184814453125e+01 2.436287498474121094e+01 -6.077503561973571777e-01 6.080887794494628906e+00 1.641941308975219727e+00 -3.977796137332916260e-01
6.064000000000000000e+03 1.269200420379638672e+01 2.243532180786132812e+01 -6.470116227865219116e-02 -2.689301222562789917e-02 -2.747825346887111664e-02 9.458219259977340698e-02
6.065000000000000000e+03 3.537559509277343750e+01 -2.090240478515625000e+01 -3.121043741703033447e-01 1.259883046150207520e-01 -5.583482235670089722e-02 -2.993144989013671875e-01
6.066000000000000000e+03 3.541403198242187500e+01 -2.184296226501464844e+01 -2.046149671077728271e-01 9.683577716350555420e-02 -3.233375772833824158e-02 -3.125596046447753906e-01
6.067000000000000000e+03 3.530110168457031250e+01 2.225132942199707031e+01 -2.771550416946411133e-01 -4.961337521672248840e-02 -9.803052246570587158e-02 3.154595494270324707e-01
6.068000000000000000e+03 3.455578613281250000e+01 2.180062103271484375e+01 -3.004805147647857666e-01 -5.730790272355079651e-02 -1.073365285992622375e-01 3.037981390953063965e-01
6.069000000000000000e+03 6.117594909667968750e+01 -1.246073246002197266e+01 -8.499898910522460938e-01 5.376456737518310547e+00 1.357940077781677246e+00 1.102899789810180664e+00
6.070000000000000000e+03 1.174938774108886719e+01 -2.376402091979980469e+01 -3.342356067150831223e-03 -1.623843312263488770e-01 -4.971800372004508972e-02 -1.787850856781005859e-01
6.071000000000000000e+03 3.627736282348632812e+01 -2.149100875854492188e+01 -2.365946769714355469e-01 8.369390666484832764e-02 -4.587023332715034485e-02 -3.293687701225280762e-01
6.072000000000000000e+03 7.455167388916015625e+01 -2.638210678100585938e+01 1.045352593064308167e-01 6.641734123229980469e+00 2.023880958557128906e+00 6.503023505210876465e-01
6.073000000000000000e+03 6.745098590850830078e+00 -8.659104347229003906e+00 -2.656120993196964264e-02 -1.141116302460432053e-02 -1.139171142131090164e-02 -1.064163912087678909e-02
6.074000000000000000e+03 7.570332336425781250e+01 -7.131482124328613281e+00 4.554850459098815918e-01 8.491314888000488281e+00 2.684040069580078125e+00 1.022652745246887207e+00
6.075000000000000000e+03 3.679267501831054688e+01 2.369549751281738281e+01 -1.787948012351989746e-01 -3.798894211649894714e-02 -6.503512710332870483e-02 3.345513045787811279e-01
6.076000000000000000e+03 6.314567565917968750e+01 -2.328508377075195312e+01 -1.124008074402809143e-01 3.357846736907958984e+00 9.736338257789611816e-01 -3.964859843254089355e-01
6.077000000000000000e+03 4.727383136749267578e+00 1.606559181213378906e+01 -5.442115478217601776e-03 -1.820508204400539398e-02 -7.094159256666898727e-03 6.858953740447759628e-03
6.078000000000000000e+03 5.079586505889892578e+00 1.653321647644042969e+01 -7.441464345902204514e-03 -1.979603990912437439e-02 -8.171251974999904633e-03 8.976255543529987335e-03
6.079000000000000000e+03 8.155708312988281250e+00 1.408802032470703125e+01 -5.566209089010953903e-03 -4.597640596330165863e-03 -3.049154998734593391e-03 7.643420249223709106e-03
6.080000000000000000e+03 6.076620101928710938e+01 2.119463539123535156e+01 -5.794699303805828094e-03 2.791535377502441406e+00 8.357222080230712891e-01 -1.293102860450744629e+00
6.081000000000000000e+03 3.477523803710937500e+01 -2.066694450378417969e+01 -3.099433183670043945e-01 1.432560980319976807e-01 -5.000616982579231262e-02 -2.999655902385711670e-01
6.082000000000000000e+03 3.516667938232421875e+01 2.378619194030761719e+01 -1.703821867704391479e-01 -5.944533646106719971e-02 -6.894826143980026245e-02 3.248443603515625000e-01
6.083000000000000000e+03 5.612478637695312500e+01 2.228178787231445312e+01 3.769892826676368713e-02 1.311790704727172852e+00 4.048468768596649170e-01 -6.395828723907470703e-01
6.084000000000000000e+03 7.651567840576171875e+01 1.816564750671386719e+01 1.671387404203414917e-01 6.221587181091308594e+00 1.916617751121520996e+00 4.671897292137145996e-01
6.085000000000000000e+03 3.544538879394531250e+01 2.548580932617187500e+01 -4.596760496497154236e-02 -6.399183720350265503e-02 -3.298783302307128906e-02 3.290778696537017822e-01
6.086000000000000000e+03 5.357820510864257812e+00 2.870636940002441406e+01 -2.779035596176981926e-03 -9.465644508600234985e-02 -2.923064306378364563e-02 5.378010123968124390e-02
6.087000000000000000e+03 5.415205955505371094e+00 2.677173423767089844e+01 -6.999298464506864548e-03 -7.871786504983901978e-02 -2.571514993906021118e-02 5.098888650536537170e-02
6.088000000000000000e+03 2.487598991394042969e+01 -1.982901573181152344e+01 -4.792879149317741394e-02 -1.940916031599044800e-01 -7.260611653327941895e-02 -1.647976189851760864e-01
6.089000000000000000e+03 5.876687622070312500e+01 2.195789718627929688e+01 7.600501179695129395e-02 2.045025348663330078e+00 6.363090872764587402e-01 -9.466318488121032715e-01
6.090000000000000000e+03 5.976124954223632812e+01 2.163811492919921875e+01 7.094234228134155273e-02 2.432363986968994141e+00 7.509919404983520508e-01 -1.096052765846252441e+00
6.091000000000000000e+03 8.136191368103027344e+00 -2.392633056640625000e+01 -5.934596527367830276e-03 -1.624387055635452271e-01 -5.051199346780776978e-02 -1.379052400588989258e-01
6.092000000000000000e+03 6.962897300720214844e+00 -1.038739299774169922e+01 -3.451952710747718811e-02 -1.807276904582977295e-02 -1.577768847346305847e-02 -2.420032024383544922e-02
6.093000000000000000e+03 7.172235488891601562e+00 -9.675098419189453125e+00 -3.470038995146751404e-02 -1.612858287990093231e-02 -1.524869073182344437e-02 -1.987942121922969818e-02
6.094000000000000000e+03 6.976214599609375000e+01 -2.371253395080566406e+01 2.851426601409912109e-01 4.269887924194335938e+00 1.366509199142456055e+00 6.820939779281616211e-01
6.095000000000000000e+03 5.944584655761718750e+01 2.077717971801757812e+01 1.489793509244918823e-02 2.115150690078735352e+00 6.390146017074584961e-01 -1.062871217727661133e+00
6.096000000000000000e+03 1.362603569030761719e+01 -1.071877861022949219e+01 -1.313644498586654663e-01 -9.163867682218551636e-03 -4.215849190950393677e-02 -5.662014707922935486e-02
6.097000000000000000e+03 7.277858734130859375e+01 1.773585319519042969e+01 3.431999683380126953e-01 6.773869514465332031e+00 2.135120868682861328e+00 9.555264115333557129e-01
6.098000000000000000e+03 1.396461677551269531e+01 -1.275521659851074219e+01 -1.595521122217178345e-01 -2.115598693490028381e-02 -5.421242862939834595e-02 -1.064079180359840393e-01
6.099000000000000000e+03 1.293254184722900391e+01 1.650436973571777344e+01 -5.425786226987838745e-02 1.469754427671432495e-02 -1.186809595674276352e-02 2.914274483919143677e-02
6.100000000000000000e+03 3.186204719543457031e+01 -1.856722831726074219e+01 -3.034772574901580811e-01 1.707808971405029297e-01 -3.980891034007072449e-02 -8.545799553394317627e-02
6.101000000000000000e+03 5.493007659912109375e+00 1.627907180786132812e+01 -8.109116926789283752e-03 -1.773052662611007690e-02 -7.751893252134323120e-03 9.159493260085582733e-03
6.102000000000000000e+03 5.771146297454833984e+00 1.661970710754394531e+01 -1.014820113778114319e-02 -1.863919012248516083e-02 -8.636217564344406128e-03 1.093741599470376968e-02
6.103000000000000000e+03 1.139870262145996094e+01 1.719120216369628906e+01 -4.557717964053153992e-02 4.587070550769567490e-03 -1.229703333228826523e-02 2.935819886624813080e-02
6.104000000000000000e+03 6.993152618408203125e+00 1.960385131835937500e+01 -2.253802493214607239e-02 -2.459030039608478546e-02 -1.413849741220474243e-02 2.989191748201847076e-02
6.105000000000000000e+03 6.450525760650634766e+00 2.322881698608398438e+01 -1.873994246125221252e-02 -4.834709689021110535e-02 -2.012611180543899536e-02 4.776591062545776367e-02
6.106000000000000000e+03 7.038107872009277344e+00 2.333178329467773438e+01 -2.213913016021251678e-02 -4.809498786926269531e-02 -2.107023634016513824e-02 5.288553610444068909e-02
6.107000000000000000e+03 1.081529521942138672e+01 1.780406379699707031e+01 -4.625399410724639893e-02 -5.952218634774908423e-05 -1.389405503869056702e-02 3.386433050036430359e-02
6.108000000000000000e+03 1.330522823333740234e+01 -1.324859905242919922e+01 -1.333230733871459961e-01 -3.038655966520309448e-02 -4.911288991570472717e-02 -1.130170747637748718e-01
6.109000000000000000e+03 1.370869445800781250e+01 -1.378941631317138672e+01 -1.483489423990249634e-01 -3.539586812257766724e-02 -5.512344464659690857e-02 -1.260654181241989136e-01
6.110000000000000000e+03 6.172860145568847656e+00 1.691753578186035156e+01 -1.265618950128555298e-02 -1.724554970860481262e-02 -8.970521390438079834e-03 1.368635706603527069e-02
6.111000000000000000e+03 1.143684959411621094e+01 1.814244842529296875e+01 -5.178742110729217529e-02 1.356035791104659438e-04 -1.549554523080587387e-02 3.969731181859970093e-02
6.112000000000000000e+03 8.036579132080078125e+00 2.285013580322265625e+01 -2.727456390857696533e-02 -4.208631440997123718e-02 -2.080826461315155029e-02 5.617475137114524841e-02
6.113000000000000000e+03 1.803741073608398438e+01 -1.600107002258300781e+01 -1.604487597942352295e-01 -1.290931552648544312e-01 -8.686257898807525635e-02 -2.442928999662399292e-01
6.114000000000000000e+03 5.968097686767578125e+00 1.572864723205566406e+01 -8.215909823775291443e-03 -1.562498509883880615e-02 -7.152268197387456894e-03 8.361679501831531525e-03
6.115000000000000000e+03 5.948789596557617188e+00 1.626328468322753906e+01 -9.004933759570121765e-03 -1.703480444848537445e-02 -7.811921648681163788e-03 1.074509415775537491e-02
6.116000000000000000e+03 9.038370132446289062e+00 2.482305145263671875e+01 -2.516895532608032227e-02 -5.673351883888244629e-02 -2.457074262201786041e-02 7.425580173730850220e-02
6.117000000000000000e+03 7.811393260955810547e+00 1.925528526306152344e+01 -2.669921517372131348e-02 -2.101708389818668365e-02 -1.431488990783691406e-02 3.183786943554878235e-02
6.118000000000000000e+03 1.308833885192871094e+01 2.087855339050292969e+01 -7.692659646272659302e-02 -1.042330078780651093e-02 -2.620496787130832672e-02 8.296552300453186035e-02
6.119000000000000000e+03 1.195054531097412109e+01 -1.151838016510009766e+01 -1.063720658421516418e-01 -1.761402748525142670e-02 -3.719582781195640564e-02 -6.686226278543472290e-02
6.120000000000000000e+03 1.109064388275146484e+01 -1.140490531921386719e+01 -8.815143257379531860e-02 -1.815302111208438873e-02 -3.189133480191230774e-02 -5.714148283004760742e-02
6.121000000000000000e+03 7.432113647460937500e+01 2.166859626770019531e+01 -1.875545680522918701e-01 6.713705062866210938e+00 1.957845211029052734e+00 5.813449621200561523e-01
6.122000000000000000e+03 1.200523471832275391e+01 -1.213598823547363281e+01 -1.109208613634109497e-01 -2.139137499034404755e-02 -3.969367220997810364e-02 -7.482940703630447388e-02
6.123000000000000000e+03 1.104926490783691406e+01 1.943986129760742188e+01 -5.484436824917793274e-02 -7.009092718362808228e-03 -1.855603791773319244e-02 4.968592151999473572e-02
6.124000000000000000e+03 1.066783809661865234e+01 -1.296088027954101562e+01 -9.295565634965896606e-02 -3.065553307533264160e-02 -3.708335757255554199e-02 -7.948619127273559570e-02
6.125000000000000000e+03 8.436396598815917969e+00 1.821222877502441406e+01 -2.858489751815795898e-02 -1.392383873462677002e-02 -1.275262050330638885e-02 2.656972967088222504e-02
6.126000000000000000e+03 8.443167686462402344e+00 1.979276466369628906e+01 -3.271929919719696045e-02 -2.075990848243236542e-02 -1.604376174509525299e-02 3.907010331749916077e-02
6.127000000000000000e+03 1.842980575561523438e+01 -1.636231040954589844e+01 -1.574212610721588135e-01 -1.448389440774917603e-01 -9.067805856466293335e-02 -2.502136528491973877e-01
6.128000000000000000e+03 1.247680568695068359e+01 -1.476823520660400391e+01 -1.179733425378799438e-01 -4.803231731057167053e-02 -4.980169981718063354e-02 -1.280322819948196411e-01
6.129000000000000000e+03 8.346009254455566406e+00 1.873388481140136719e+01 -2.819499559700489044e-02 -1.748600415885448456e-02 -1.370429992675781250e-02 3.082557022571563721e-02
6.130000000000000000e+03 8.873014450073242188e+00 1.864911651611328125e+01 -3.332401439547538757e-02 -1.333487406373023987e-02 -1.399766560643911362e-02 3.146218508481979370e-02
6.131000000000000000e+03 1.782453918457031250e+01 -1.668477821350097656e+01 -1.501546055078506470e-01 -1.299884319305419922e-01 -8.404290676116943359e-02 -2.473152726888656616e-01
6.132000000000000000e+03 1.507986450195312500e+01 -1.934631538391113281e+01 -7.410262525081634521e-02 -1.277281194925308228e-01 -6.054922565817832947e-02 -2.126765549182891846e-01
6.133000000000000000e+03 5.044127273559570312e+01 1.099644851684570312e+01 4.646619781851768494e-03 1.578230760060250759e-03 1.867455197498202324e-03 2.585424575954675674e-03
6.134000000000000000e+03 5.050074005126953125e+01 1.018372249603271484e+01 1.270168367773294449e-02 1.992699690163135529e-03 4.408314824104309082e-03 1.426680572330951691e-02
6.135000000000000000e+03 5.168460845947265625e+01 1.091720294952392578e+01 1.661662571132183075e-02 -3.286416409537196159e-03 3.999062813818454742e-03 2.987144747748970985e-03
6.136000000000000000e+03 5.002314758300781250e+01 1.028509712219238281e+01 9.297553449869155884e-03 1.184595935046672821e-02 6.343053653836250305e-03 1.272897049784660339e-02
6.137000000000000000e+03 5.171300888061523438e+01 1.017313861846923828e+01 2.143626473844051361e-02 -7.548475172370672226e-03 4.166336730122566223e-03 2.948856214061379433e-03
6.138000000000000000e+03 5.106197738647460938e+01 1.014778423309326172e+01 1.729586906731128693e-02 -4.373207688331604004e-03 3.876798320561647415e-03 8.855809457600116730e-03
6.139000000000000000e+03 5.095102310180664062e+01 1.069138431549072266e+01 1.641216874122619629e-02 1.803750172257423401e-03 5.464775953441858292e-03 5.754797253757715225e-03
6.140000000000000000e+03 5.550102233886718750e+01 1.066995906829833984e+01 2.872798591852188110e-03 5.870640743523836136e-04 1.037958776578307152e-03 -1.840189797803759575e-03
6.141000000000000000e+03 5.632652664184570312e+01 1.056964015960693359e+01 6.737803050782531500e-05 6.113130366429686546e-04 2.036073274211958051e-04 -4.140626406297087669e-04
6.142000000000000000e+03 5.673705673217773438e+01 9.758838653564453125e+00 -6.818112451583147049e-04 5.894227069802582264e-04 -2.771655636024661362e-05 -7.515043762396089733e-06
6.143000000000000000e+03 5.535813522338867188e+01 9.941739082336425781e+00 4.253813822288066149e-04 3.188203554600477219e-03 1.084075425751507282e-03 -4.838350694626569748e-03
6.144000000000000000e+03 5.741368103027343750e+01 9.646233558654785156e+00 1.215728698298335075e-03 1.908323465613648295e-04 4.219683178234845400e-04 -3.873443929478526115e-04
6.145000000000000000e+03 5.714625549316406250e+01 1.045326423645019531e+01 3.293501504231244326e-04 5.552008224185556173e-05 1.154610727098770440e-04 -1.289464707951992750e-04
6.146000000000000000e+03 5.795603942871093750e+01 1.032375431060791016e+01 -3.748592280317097902e-04 -3.030324660358019173e-05 -1.215487427543848753e-04 1.193229400087147951e-04
6.147000000000000000e+03 5.605047988891601562e+01 9.858309745788574219e+00 1.209082896821200848e-03 3.212148789316415787e-03 1.326369470916688442e-03 -1.694552483968436718e-03
6.148000000000000000e+03 4.031083583831787109e+00 1.132906794548034668e+00 7.376153953373432159e-04 3.301205288153141737e-04 3.203207743354141712e-04 9.327228181064128876e-04
6.149000000000000000e+03 3.863600015640258789e+00 3.929068446159362793e-01 9.716863278299570084e-04 -1.128134550526738167e-03 -4.693444134318269789e-05 -9.287332068197429180e-05
6.150000000000000000e+03 2.989670753479003906e+00 3.542558252811431885e-01 7.349458755925297737e-04 9.248662972822785378e-04 4.979436635039746761e-04 -1.596417132532224059e-04
6.151000000000000000e+03 1.716356039047241211e+00 1.218976974487304688e+00 -2.272913261549547315e-04 -1.790719456039369106e-03 -6.054032128304243088e-04 -1.032782136462628841e-03
6.152000000000000000e+03 2.113904714584350586e+00 3.504228591918945312e-01 5.962480790913105011e-04 -7.522525265812873840e-04 -4.680132769863121212e-05 1.047048208420164883e-04
6.153000000000000000e+03 1.245388984680175781e+00 3.806717991828918457e-01 3.217456978745758533e-04 4.018415929749608040e-04 2.170761872548609972e-04 -3.959431778639554977e-04
6.154000000000000000e+03 3.546209037303924561e-01 1.121597886085510254e+00 4.738915886264294386e-04 5.749257979914546013e-05 1.594152563484385610e-04 -2.494634827598929405e-04
6.155000000000000000e+03 4.069884419441223145e-01 3.815979361534118652e-01 -1.174407443613745272e-04 -6.568083335878327489e-05 -5.493647404364310205e-05 9.328355372417718172e-05
6.156000000000000000e+03 2.922404527664184570e+00 8.942048549652099609e-01 2.306046662852168083e-03 1.273469679290428758e-04 7.300181314349174500e-04 -8.081396226771175861e-04
6.157000000000000000e+03 2.854472875595092773e+00 1.299949049949645996e+00 -5.665645585395395756e-04 6.443265010602772236e-04 2.332858457521069795e-05 -2.379727666266262531e-04
6.158000000000000000e+03 2.261663675308227539e+00 1.298247218132019043e+00 4.014581791125237942e-04 8.459620294161140919e-04 3.742260742001235485e-04 -5.027724546380341053e-04
6.159000000000000000e+03 1.088286399841308594e+00 1.120671868324279785e+00 2.185868797823786736e-04 6.433298112824559212e-04 2.585750189609825611e-04 -2.506174205336719751e-04
6.160000000000000000e+03 2.197355985641479492e+00 8.886700272560119629e-01 1.305206911638379097e-03 7.065131212584674358e-04 6.035160040482878685e-04 2.440758253214880824e-04
6.161000000000000000e+03 3.399591922760009766e+00 1.224511742591857910e+00 -3.064756456296890974e-04 -2.373461378738284111e-03 -8.039811509661376476e-04 1.018951588775962591e-04
6.162000000000000000e+03 8.019037246704101562e+00 -5.698001384735107422e-01 2.359171025454998016e-02 1.557894982397556305e-03 7.544881198555231094e-03 4.253553051967173815e-04
6.163000000000000000e+03 8.802864074707031250e+00 -1.147397160530090332e+00 2.064868248999118805e-02 -1.004808349534869194e-03 5.893162451684474945e-03 1.899988274089992046e-03
6.164000000000000000e+03 7.366508960723876953e+00 -1.208535552024841309e+00 1.700978353619575500e-02 -2.529924502596259117e-03 4.343957640230655670e-03 5.049177911132574081e-03
6.165000000000000000e+03 9.578845977783203125e+00 -1.131019115447998047e+00 2.095846645534038544e-02 -2.014659810811281204e-03 5.683141760528087616e-03 2.062188694253563881e-03
6.166000000000000000e+03 8.069246292114257812e+00 -1.189969897270202637e+00 1.855824328958988190e-02 -1.405393239110708237e-03 5.145854782313108444e-03 4.419638309627771378e-03
6.167000000000000000e+03 9.559395790100097656e+00 -3.910191655158996582e-01 2.842907980084419250e-02 9.459154680371284485e-04 8.812498301267623901e-03 -2.074372314382344484e-04
6.168000000000000000e+03 7.455066680908203125e+00 -6.983375549316406250e-01 1.988734677433967590e-02 -1.926249125972390175e-03 5.388329271227121353e-03 5.881884135305881500e-03
6.169000000000000000e+03 7.593650817871093750e+00 -2.498020380735397339e-01 2.284118346869945526e-02 2.671193797141313553e-03 7.653712760657072067e-03 1.599921146407723427e-03
6.170000000000000000e+03 8.711921691894531250e+00 -4.073971211910247803e-01 2.591771632432937622e-02 -2.412080531939864159e-03 7.051690947264432907e-03 1.974498853087425232e-03
6.171000000000000000e+03 5.357113838195800781e+00 -3.411730229854583740e-01 1.762086641974747181e-03 1.732669305056333542e-03 1.048426725901663303e-03 -1.748274196870625019e-03
6.172000000000000000e+03 4.608037471771240234e+00 -2.835304141044616699e-01 5.569436587393283844e-03 -1.836878829635679722e-03 1.119767199270427227e-03 -1.415226375684142113e-03
6.173000000000000000e+03 4.710992336273193359e+00 -1.023530364036560059e+00 1.159095577895641327e-02 -3.133022226393222809e-03 2.537380205467343330e-03 2.184344455599784851e-03
6.174000000000000000e+03 6.835397243499755859e+00 -7.025487422943115234e-01 1.554301381111145020e-02 -2.560761524364352226e-03 3.894675755873322487e-03 6.771227810531854630e-03
6.175000000000000000e+03 6.662335872650146484e+00 -1.208234548568725586e+00 2.360988222062587738e-02 -1.335242297500371933e-03 6.682391744107007980e-03 4.253379069268703461e-03
6.176000000000000000e+03 5.497839450836181641e+00 -1.081173062324523926e+00 2.385236695408821106e-02 8.060268126428127289e-03 9.573790244758129120e-03 3.817321034148335457e-03
6.177000000000000000e+03 6.861754417419433594e+00 -2.543141841888427734e-01 1.552704069763422012e-02 -4.177006427198648453e-03 3.405010327696800232e-03 2.265653805807232857e-03
6.178000000000000000e+03 6.181279182434082031e+00 -9.049344062805175781e-01 2.291340008378028870e-02 1.800987753085792065e-03 7.414316292852163315e-03 5.567293148487806320e-03
6.179000000000000000e+03 6.095579147338867188e+00 -3.066433668136596680e-01 5.890979431569576263e-03 3.304447513073682785e-03 2.758628223091363907e-03 4.374081734567880630e-03
6.180000000000000000e+03 6.431427001953125000e+00 1.820162296295166016e+00 -1.369975943816825747e-04 -2.536989086365792900e-05 -4.871024430030956864e-05 4.681271457229740918e-05
6.181000000000000000e+03 7.159246444702148438e+00 1.673283696174621582e+00 1.954752369783818722e-04 8.754166628932580352e-05 8.490507025271654129e-05 -7.253800140460953116e-05
6.182000000000000000e+03 1.486083126068115234e+01 1.910661458969116211e+00 2.062944113276898861e-04 1.723563327686861157e-04 1.135952261392958462e-04 2.352255978621542454e-04
6.183000000000000000e+03 1.441791820526123047e+01 2.632187604904174805e+00 1.885107485577464104e-03 8.594556129537522793e-04 8.233689004555344582e-04 1.711402204819023609e-03
6.184000000000000000e+03 1.515290832519531250e+01 2.633690834045410156e+00 -1.924159703776240349e-03 -1.389294193359091878e-04 -6.189267151057720184e-04 -8.035818464122712612e-04
6.185000000000000000e+03 9.320051193237304688e+00 2.530618906021118164e+00 2.501330454833805561e-04 1.382942864438518882e-04 1.165281937574036419e-04 3.211292787455022335e-04
6.186000000000000000e+03 7.954456329345703125e+00 1.631025195121765137e+00 -1.268855266971513629e-04 -1.173833952634595335e-04 -7.328067295020446181e-05 -2.772716288745868951e-05
6.187000000000000000e+03 1.361968803405761719e+01 2.622767448425292969e+00 -8.245212375186383724e-04 -1.390906516462564468e-03 -6.646283436566591263e-04 -1.505980151705443859e-03
6.188000000000000000e+03 1.213305759429931641e+01 2.841513872146606445e+00 -5.326743121258914471e-05 -1.084748655557632446e-03 -3.414048114791512489e-04 -6.717756623402237892e-04
6.189000000000000000e+03 1.246205234527587891e+01 2.230782270431518555e+00 -9.169416152872145176e-04 3.459643048699945211e-04 -1.712931989459320903e-04 -2.186544588766992092e-04
6.190000000000000000e+03 1.121730422973632812e+01 1.682812094688415527e+00 -2.192484826082363725e-04 -4.515509062912315130e-04 -2.012398181250318885e-04 -4.648114263545721769e-04
6.191000000000000000e+03 1.091978168487548828e+01 2.322612047195434570e+00 -6.782803102396428585e-04 2.520519192330539227e-04 -1.278685231227427721e-04 -5.836490163346752524e-05
6.192000000000000000e+03 1.054293537139892578e+01 1.827096104621887207e+00 3.778020036406815052e-04 4.164753772784024477e-04 2.382832026341930032e-04 4.035218444187194109e-04
6.193000000000000000e+03 9.875226020812988281e+00 2.119815349578857422e+00 -3.342956479173153639e-04 -3.120681212749332190e-04 -1.939091307576745749e-04 -3.281026438344269991e-04
6.194000000000000000e+03 8.908290863037109375e+00 2.015291929244995117e+00 -4.481217183638364077e-04 -3.089911842835135758e-05 -1.437062455806881189e-04 -2.857577637769281864e-04
6.195000000000000000e+03 9.933198928833007812e+00 2.792418003082275391e+00 7.772236858727410436e-05 2.158637216780334711e-04 8.807583071757107973e-05 6.524603577418019995e-07
6.196000000000000000e+03 8.757272720336914062e+00 1.653222799301147461e+00 1.424894435331225395e-04 6.265034608077257872e-05 6.154193397378548980e-05 -8.275224536191672087e-05
6.197000000000000000e+03 1.192528820037841797e+01 2.063076496124267578e+00 -2.221145114162936807e-04 -1.419131440343335271e-04 -1.092082966351881623e-04 -3.300979442428797483e-04
6.198000000000000000e+03 1.416244125366210938e+01 1.869152307510375977e+00 -8.153906092047691345e-04 -4.337599675636738539e-04 -3.747451701201498508e-04 -5.361192743293941021e-04
6.199000000000000000e+03 1.285039234161376953e+01 2.713908910751342773e+00 4.730129439849406481e-04 1.166614703834056854e-03 4.918882623314857483e-04 1.014401554130017757e-03
6.200000000000000000e+03 1.340081119537353516e+01 1.819726228713989258e+00 3.947294608224183321e-04 6.856617401354014874e-04 3.241173399146646261e-04 6.650366703979671001e-04
6.201000000000000000e+03 1.140880393981933594e+01 2.873075962066650391e+00 -3.211627190466970205e-04 8.913023048080503941e-04 1.710418873699381948e-04 2.107401960529386997e-04
6.202000000000000000e+03 1.190408706665039062e+01 1.648286223411560059e+00 -5.967596371192485094e-05 6.502432515844702721e-04 1.771701790858060122e-04 3.669628640636801720e-04
6.203000000000000000e+03 1.067175102233886719e+01 2.809747695922851562e+00 3.187731199432164431e-04 -4.574576159939169884e-04 -4.160534808761440217e-05 6.634566670982167125e-05
6.204000000000000000e+03 1.262930583953857422e+01 1.723191618919372559e+00 2.133473171852529049e-04 -9.187175892293453217e-04 -2.116110845236107707e-04 -4.882406210526823997e-04
6.205000000000000000e+03 8.728892326354980469e+00 2.783323049545288086e+00 -2.427117724437266588e-04 -1.705209870124235749e-04 -1.239698322024196386e-04 -2.739606134127825499e-04
6.206000000000000000e+03 9.416337966918945312e+00 1.719183564186096191e+00 3.558759053703397512e-04 -1.168415692518465221e-04 7.171030301833525300e-05 1.076232874765992165e-04
6.207000000000000000e+03 8.204321861267089844e+00 2.081028461456298828e+00 1.620774710318073630e-04 1.282088342122733593e-04 8.708589302841573954e-05 1.988521253224462271e-04
6.208000000000000000e+03 1.199478149414062500e+01 2.437086343765258789e+00 4.958392819389700890e-04 7.859097240725532174e-05 1.723290624795481563e-04 5.666138604283332825e-04
6.209000000000000000e+03 1.143562221527099609e+01 2.473625183105468750e+00 -2.344116364838555455e-04 -1.072425220627337694e-04 -1.024962475639767945e-04 -4.230053455103188753e-04
6.210000000000000000e+03 1.137620067596435547e+01 2.100027799606323242e+00 4.056717443745583296e-04 9.788894385565072298e-05 1.510682050138711929e-04 4.127389111090451479e-04
6.211000000000000000e+03 7.861133575439453125e+00 4.031277179718017578e+00 -6.836661486886441708e-05 -3.341453339089639485e-05 -3.053434556932188570e-05 -1.932704435603227466e-05
6.212000000000000000e+03 7.410462379455566406e+00 3.546055316925048828e+00 1.673150982242077589e-04 2.902044252550695091e-05 5.890065949643030763e-05 -1.004445221042260528e-04
6.213000000000000000e+03 7.613649845123291016e+00 2.915391683578491211e+00 -6.510502862511202693e-05 1.071304068318568170e-04 1.260761291632661596e-05 4.414301292854361236e-05
6.214000000000000000e+03 6.688477516174316406e+00 2.444559097290039062e+00 1.491359871579334140e-04 9.858933481154963374e-05 7.431759877363219857e-05 -3.604802986956201494e-05
6.215000000000000000e+03 8.198487281799316406e+00 3.243148326873779297e+00 1.552797621116042137e-04 1.944167888723313808e-05 5.241643521003425121e-05 9.756359213497489691e-05
6.216000000000000000e+03 7.040536880493164062e+00 3.044068336486816406e+00 -1.444420049665495753e-04 -1.307195780100300908e-04 -8.254847489297389984e-05 1.212249480886384845e-04
6.217000000000000000e+03 7.417679786682128906e+00 2.185935020446777344e+00 -1.138452935265377164e-04 -1.128365111071616411e-04 -6.800454139010980725e-05 -7.394848216790705919e-05
6.218000000000000000e+03 2.034901237487792969e+01 5.342971324920654297e+00 -5.600281804800033569e-02 6.422212813049554825e-03 -1.487418077886104584e-02 -1.163979433476924896e-02
6.219000000000000000e+03 2.110828781127929688e+01 5.289262771606445312e+00 -4.885386303067207336e-02 3.233938245102763176e-03 -1.368597708642482758e-02 -1.674375496804714203e-02
6.220000000000000000e+03 1.883009910583496094e+01 5.447298526763916016e+00 -6.639574468135833740e-02 4.278324544429779053e-03 -1.863522641360759735e-02 -7.948012091219425201e-03
6.221000000000000000e+03 1.954028892517089844e+01 4.657379150390625000e+00 -8.137068152427673340e-02 3.302858211100101471e-03 -2.342034876346588135e-02 1.913689775392413139e-04
6.222000000000000000e+03 2.104417419433593750e+01 4.551930904388427734e+00 -5.447831004858016968e-02 2.391140442341566086e-03 -1.562615111470222473e-02 -3.483764361590147018e-03
6.223000000000000000e+03 1.878804969787597656e+01 4.708437442779541016e+00 -9.457156062126159668e-02 -4.278252366930246353e-03 -2.965494431555271149e-02 -1.157105900347232819e-03
6.224000000000000000e+03 2.029225349426269531e+01 4.605130195617675781e+00 -6.877788901329040527e-02 -7.640674011781811714e-04 -2.086258679628372192e-02 -2.344081643968820572e-03
6.225000000000000000e+03 1.958969306945800781e+01 5.395730018615722656e+00 -6.300841271877288818e-02 -5.992880323901772499e-04 -1.908230967819690704e-02 -1.224068365991115570e-02
6.226000000000000000e+03 1.637947654724121094e+01 4.803587436676025391e+00 -1.375324428081512451e-01 1.070949248969554901e-02 -3.804688528180122375e-02 -1.992711098864674568e-03
6.227000000000000000e+03 1.397352027893066406e+01 5.439821243286132812e+00 1.933628879487514496e-02 -1.604261994361877441e-02 9.881010046228766441e-04 1.607305929064750671e-02
6.228000000000000000e+03 1.010553455352783203e+01 5.775064945220947266e+00 2.220176346600055695e-02 1.065791621804237366e-01 3.863427788019180298e-02 -1.777468249201774597e-02
6.229000000000000000e+03 9.268284797668457031e+00 5.873455047607421875e+00 -1.805680338293313980e-03 -5.353512242436408997e-02 -1.660224050283432007e-02 4.235229641199111938e-02
6.230000000000000000e+03 9.962050437927246094e+00 4.842160224914550781e+00 -3.821771442890167236e-01 1.007457636296749115e-02 -1.116307675838470459e-01 9.822808951139450073e-02
6.231000000000000000e+03 1.803855323791503906e+01 5.487751483917236328e+00 -7.153598964214324951e-02 -6.124799139797687531e-03 -2.329823561012744904e-02 -1.272181794047355652e-02
6.232000000000000000e+03 1.639236259460449219e+01 5.543583869934082031e+00 -7.426964491605758667e-02 -9.058468975126743317e-03 -2.499843575060367584e-02 -1.923656277358531952e-02
6.233000000000000000e+03 1.475934505462646484e+01 5.574888706207275391e+00 -1.494781021028757095e-02 1.819932088255882263e-02 9.754530037753283978e-04 -8.780401200056076050e-03
6.234000000000000000e+03 1.397391319274902344e+01 4.807001590728759766e+00 -2.722993195056915283e-01 -4.528652504086494446e-02 -9.527575224637985229e-02 -2.892355062067508698e-02
6.235000000000000000e+03 1.317943286895751953e+01 4.738107681274414062e+00 -3.724242448806762695e-01 4.962512850761413574e-02 -9.683973342180252075e-02 -1.225334126502275467e-02
6.236000000000000000e+03 1.238088989257812500e+01 4.660449504852294922e+00 -4.270311892032623291e-01 -3.139881417155265808e-02 -1.375290006399154663e-01 1.854605227708816528e-02
6.237000000000000000e+03 8.494715690612792969e+00 5.880544662475585938e+00 -4.726268351078033447e-02 -2.486887760460376740e-02 -2.163946814835071564e-02 3.480114042758941650e-02
6.238000000000000000e+03 9.217906951904296875e+00 4.906161785125732422e+00 -1.967739909887313843e-01 -4.231281578540802002e-02 -7.172603905200958252e-02 3.065178543329238892e-02
6.239000000000000000e+03 7.731138229370117188e+00 5.860728263854980469e+00 -3.337975218892097473e-02 -2.109308727085590363e-02 -1.634185202419757843e-02 3.730089962482452393e-02
6.240000000000000000e+03 8.089071273803710938e+00 5.107919692993164062e+00 -9.853541105985641479e-02 -7.713563740253448486e-03 -3.187469393014907837e-02 1.373427547514438629e-02
6.241000000000000000e+03 1.085972213745117188e+01 4.910424232482910156e+00 -1.441626157611608505e-02 7.102395594120025635e-02 1.698230952024459839e-02 -6.031534448266029358e-02
6.242000000000000000e+03 1.008083248138427734e+01 5.222311019897460938e+00 2.799365436658263206e-03 4.081089422106742859e-02 1.308307703584432602e-02 3.438907489180564880e-02
6.243000000000000000e+03 1.244511699676513672e+01 4.836139202117919922e+00 -3.827617764472961426e-01 -3.399107605218887329e-02 -1.250258535146713257e-01 -6.551473587751388550e-02
6.244000000000000000e+03 1.556862068176269531e+01 4.825209617614746094e+00 -1.682680994272232056e-01 -2.234122902154922485e-02 -5.718279629945755005e-02 -1.555844023823738098e-02
6.245000000000000000e+03 1.557131195068359375e+01 5.565557956695556641e+00 -5.205740407109260559e-02 -3.385562682524323463e-03 -1.663289032876491547e-02 -8.171391673386096954e-03
6.246000000000000000e+03 1.719220733642578125e+01 4.777179718017578125e+00 -1.205307245254516602e-01 -8.270985446870326996e-03 -3.864051401615142822e-02 -4.624914377927780151e-03
6.247000000000000000e+03 1.800527954101562500e+01 4.748459815979003906e+00 -1.067430526018142700e-01 4.651303868740797043e-03 -3.062752448022365570e-02 -2.236273285234346986e-04
6.248000000000000000e+03 9.318325996398925781e+00 5.356408596038818359e+00 -1.019236892461776733e-01 -6.898833066225051880e-02 -5.127360671758651733e-02 7.569982856512069702e-02
6.249000000000000000e+03 8.727790832519531250e+00 5.248922824859619141e+00 -1.053461804986000061e-01 1.173049909994006157e-03 -3.125193715095520020e-02 4.560025036334991455e-02
6.250000000000000000e+03 1.476684761047363281e+01 4.834187984466552734e+00 -2.077405005693435669e-01 3.101576864719390869e-02 -5.301741883158683777e-02 -6.486826110631227493e-03
6.251000000000000000e+03 1.721528816223144531e+01 5.516823768615722656e+00 -7.237488776445388794e-02 3.789768088608980179e-03 -2.057553641498088837e-02 -8.057675324380397797e-03
6.252000000000000000e+03 1.075677967071533203e+01 4.723136425018310547e+00 -7.479707598686218262e-01 -1.212857477366924286e-02 -2.280297875404357910e-01 7.933453470468521118e-02
6.253000000000000000e+03 1.156710433959960938e+01 4.636063575744628906e+00 -9.183409214019775391e-01 2.193121798336505890e-02 -2.689228951930999756e-01 -1.414887513965368271e-02
6.254000000000000000e+03 1.163449478149414062e+01 4.698029041290283203e+00 -1.485273957252502441e+00 -3.715892322361469269e-03 -4.466969668865203857e-01 -2.838343568146228790e-02
6.255000000000000000e+03 1.321089267730712891e+01 5.142216682434082031e+00 7.935917237773537636e-04 3.351962566375732422e-02 1.029396429657936096e-02 9.136261418461799622e-03
6.256000000000000000e+03 6.064543247222900391e+00 3.573476552963256836e+00 8.641321619506925344e-05 1.137297600507736206e-03 3.671132726594805717e-04 -2.010980097111314535e-04
6.257000000000000000e+03 6.481155872344970703e+00 4.280267238616943359e+00 -9.927923791110515594e-03 2.216303022578358650e-03 -2.313486300408840179e-03 -3.994555678218603134e-03
6.258000000000000000e+03 5.616716861724853516e+00 2.920150279998779297e+00 -2.456545829772949219e-03 -1.471359399147331715e-03 -1.178371603600680828e-03 -6.075804121792316437e-04
6.259000000000000000e+03 6.529135227203369141e+00 3.343321800231933594e+00 -4.974315408617258072e-03 8.827895508147776127e-04 -1.227457774803042412e-03 2.720306627452373505e-03
6.260000000000000000e+03 6.083950042724609375e+00 2.712398290634155273e+00 5.091341212391853333e-03 4.190578125417232513e-03 2.784575801342725754e-03 -2.569388307165354490e-04
6.261000000000000000e+03 6.081230640411376953e+00 4.429358959197998047e+00 -9.061153046786785126e-03 1.499768579378724098e-03 -2.268415177240967751e-03 -2.699879463762044907e-03
6.262000000000000000e+03 7.072127342224121094e+00 5.498886585235595703e+00 -4.244854301214218140e-02 4.087886190973222256e-04 -1.261192653328180313e-02 1.532212272286415100e-02
6.263000000000000000e+03 5.160166740417480469e+00 3.122973203659057617e+00 6.467938073910772800e-04 -4.866550152655690908e-04 4.804163472726941109e-05 2.077688230201601982e-03
6.264000000000000000e+03 5.633822441101074219e+00 3.782831668853759766e+00 -7.546831388026475906e-03 -3.956771688535809517e-04 -2.382752485573291779e-03 -2.472669584676623344e-03
6.265000000000000000e+03 6.546886920928955078e+00 4.943883895874023438e+00 -3.874285146594047546e-02 1.773159718140959740e-03 -1.109090726822614670e-02 3.731067525222897530e-03
6.266000000000000000e+03 6.969904899597167969e+00 4.040812969207763672e+00 1.005428028292953968e-03 1.286278595216572285e-03 6.875119288451969624e-04 -4.540586844086647034e-03
6.267000000000000000e+03 7.447043418884277344e+00 4.761515140533447266e+00 -4.474208131432533264e-02 -5.817225202918052673e-03 -1.516779139637947083e-02 7.090843864716589451e-04
6.268000000000000000e+03 5.466835975646972656e+00 1.780064940452575684e+00 1.402668189257383347e-03 4.587450530380010605e-03 1.797035569325089455e-03 -2.559679094702005386e-03
6.269000000000000000e+03 5.362783908843994141e+00 2.328254699707031250e+00 7.358529255725443363e-04 -9.150400292128324509e-04 -5.375613181968219578e-05 1.918715308420360088e-03
6.270000000000000000e+03 4.886854648590087891e+00 2.462563276290893555e+00 -2.256673324154689908e-04 1.615464920178055763e-03 4.169392632320523262e-04 -1.816242234781384468e-03
6.271000000000000000e+03 5.811068058013916016e+00 2.087705373764038086e+00 -3.761873114854097366e-03 -1.424252870492637157e-03 -1.555837807245552540e-03 4.373661242425441742e-03
6.272000000000000000e+03 4.849430561065673828e+00 1.816301584243774414e+00 3.728257725015282631e-04 -2.450854983180761337e-03 -6.234087632037699223e-04 2.231399063020944595e-03
6.273000000000000000e+03 6.373782157897949219e+00 -1.653981924057006836e+00 1.100165862590074539e-02 4.801588656846433878e-04 3.444545436650514603e-03 2.411906840279698372e-03
6.274000000000000000e+03 4.977878570556640625e+00 -1.675424814224243164e+00 1.644464768469333649e-02 3.807971021160483360e-03 6.075785495340824127e-03 9.174107573926448822e-03
6.275000000000000000e+03 5.699524402618408203e+00 -1.621715664863586426e+00 9.959281422197818756e-03 4.924705252051353455e-03 4.465195816010236740e-03 7.000731769949197769e-03
6.276000000000000000e+03 5.394181728363037109e+00 -1.995555639266967773e+00 7.540292572230100632e-03 3.379221307113766670e-03 3.275854280218482018e-03 7.182320579886436462e-03
6.277000000000000000e+03 5.981556415557861328e+00 -1.885626554489135742e+00 1.326761208474636078e-02 1.413547084666788578e-03 4.404347855597734451e-03 5.327970720827579498e-03
6.278000000000000000e+03 1.782813072204589844e+01 3.230243206024169922e+00 -2.169833751395344734e-03 3.341807983815670013e-03 3.515922289807349443e-04 1.431348035112023354e-03
6.279000000000000000e+03 1.714116096496582031e+01 3.993293046951293945e+00 3.281206008978188038e-04 1.685506431385874748e-03 6.040881271474063396e-04 1.152203418314456940e-03
6.280000000000000000e+03 1.640153312683105469e+01 3.835260152816772461e+00 2.760523930191993713e-03 6.299626547843217850e-04 1.017146045342087746e-03 8.522298303432762623e-04
6.281000000000000000e+03 1.699337387084960938e+01 3.295589685440063477e+00 -1.225298736244440079e-03 -5.693514365702867508e-03 -2.075643977150321007e-03 -2.997402334585785866e-03
6.282000000000000000e+03 1.504697036743164062e+01 3.567740201950073242e+00 3.559432225301861763e-04 1.027019927278161049e-03 4.148889274802058935e-04 1.371453399769961834e-04
6.283000000000000000e+03 1.561089420318603516e+01 3.856454133987426758e+00 -6.483340257545933127e-05 3.557128831744194031e-03 1.047688652761280537e-03 -6.155722658149898052e-04
6.284000000000000000e+03 1.794592475891113281e+01 3.966614723205566406e+00 6.715462077409029007e-04 -2.850890625268220901e-03 -6.538033485412597656e-04 -7.155932253226637840e-04
6.285000000000000000e+03 1.581922817230224609e+01 3.549530982971191406e+00 8.211381500586867332e-04 -3.918907605111598969e-03 -9.293308830820024014e-04 1.112268888391554356e-03
6.286000000000000000e+03 1.634235382080078125e+01 3.297840595245361328e+00 -5.058641545474529266e-04 7.698845118284225464e-03 2.157894428819417953e-03 2.335071563720703125e-03
6.287000000000000000e+03 1.438146591186523438e+01 3.381093740463256836e+00 -1.013203989714384079e-03 -2.614309312775731087e-03 -1.088254037313163280e-03 -1.768667279975488782e-04
6.288000000000000000e+03 1.329724788665771484e+01 4.140674114227294922e+00 4.807086588698439300e-05 -5.747050745412707329e-04 -1.579902600497007370e-04 2.622214669827371836e-04
6.289000000000000000e+03 1.248905467987060547e+01 4.164461135864257812e+00 6.773100176360458136e-05 4.922173684462904930e-04 1.679845154285430908e-04 -1.644064905121922493e-04
6.290000000000000000e+03 1.165108394622802734e+01 4.189624786376953125e+00 9.172255522571504116e-05 -3.547369560692459345e-04 -7.890432607382535934e-05 8.652646647533401847e-05
6.291000000000000000e+03 1.078305053710937500e+01 4.266128063201904297e+00 1.898451228043995798e-05 2.653678529895842075e-04 8.530570630682632327e-05 -3.006266524607781321e-05
6.292000000000000000e+03 9.957069396972656250e+00 4.345382690429687500e+00 1.791859358490910381e-05 -2.383863029535859823e-04 -6.614031008211895823e-05 5.990673889755271375e-05
6.293000000000000000e+03 9.924817085266113281e+00 3.370098114013671875e+00 -2.903887070715427399e-04 -2.724441874306648970e-04 -1.688498596195131540e-04 -2.343085652682930231e-04
6.294000000000000000e+03 9.205478668212890625e+00 4.340355396270751953e+00 -8.136370161082595587e-05 1.776765566319227219e-04 2.889385541493538767e-05 -1.208163666888140142e-05
6.295000000000000000e+03 8.465488433837890625e+00 4.315529346466064453e+00 -1.501099541201256216e-05 -5.077866080682724714e-05 -1.973689722944982350e-05 -1.373892064293613657e-05
6.296000000000000000e+03 8.824824333190917969e+00 3.562671899795532227e+00 2.528932782297488302e-05 1.387158699799329042e-04 4.920155697618611157e-05 3.314079003757797182e-05
6.297000000000000000e+03 1.547460079193115234e+01 3.192302942276000977e+00 2.349138027057051659e-03 5.984823219478130341e-03 2.500188304111361504e-03 3.878826682921499014e-04
6.298000000000000000e+03 1.360837554931640625e+01 3.389482259750366211e+00 -1.045664757839404047e-04 1.477325335144996643e-03 4.118276701774448156e-04 -1.236426178365945816e-04
6.299000000000000000e+03 1.280821704864501953e+01 3.412991762161254883e+00 2.135546128556597978e-05 -7.580064120702445507e-04 -2.209952945122495294e-04 1.892115687951445580e-04
6.300000000000000000e+03 1.197828102111816406e+01 3.437877893447875977e+00 -1.354842825094237924e-04 4.872949793934822083e-04 1.055432076100260019e-04 -1.304065226577222347e-04
6.301000000000000000e+03 1.125790977478027344e+01 3.370196819305419922e+00 4.126000858377665281e-04 -2.290506236022338271e-04 5.506483648787252605e-05 3.551654226612299681e-04
6.302000000000000000e+03 9.442800521850585938e+00 3.711421728134155273e+00 1.905458339024335146e-04 -2.222467264800798148e-05 5.049635001341812313e-05 1.334216067334637046e-04
6.303000000000000000e+03 1.482516002655029297e+01 4.167678833007812500e+00 -2.467420708853751421e-04 -3.451937111094594002e-03 -1.109603792428970337e-03 -1.187882735393941402e-03
6.304000000000000000e+03 1.407837200164794922e+01 4.132007598876953125e+00 5.276329466141760349e-04 1.160844461992383003e-03 5.065432633273303509e-04 1.543219550512731075e-04
6.305000000000000000e+03 1.072352790832519531e+01 3.738190412521362305e+00 -3.546602674759924412e-04 -1.896822650451213121e-04 -1.633027568459510803e-04 -2.331430005142465234e-04
6.306000000000000000e+03 1.001016712188720703e+01 3.837498903274536133e+00 1.363440533168613911e-04 6.657981430180370808e-05 6.087715883040800691e-05 7.258990808622911572e-05
6.307000000000000000e+03 1.553310966491699219e+01 4.222949981689453125e+00 -3.125018556602299213e-04 5.611847620457410812e-03 1.589803723618388176e-03 1.404340728186070919e-03
6.308000000000000000e+03 1.613050460815429688e+01 4.176828861236572266e+00 -3.181653330102562904e-03 -4.592335782945156097e-03 -2.332196570932865143e-03 -1.795638934709131718e-03
6.309000000000000000e+03 1.588247585296630859e+01 3.192303419113159180e+00 -6.267088465392589569e-04 -1.929772645235061646e-02 -5.977330729365348816e-03 -3.545243758708238602e-03
6.310000000000000000e+03 1.061053848266601562e+01 3.322460174560546875e+00 3.703656693687662482e-05 1.557120704092085361e-04 5.782458902103826404e-05 -3.801615457632578909e-05
6.311000000000000000e+03 1.948812866210937500e+01 3.877326726913452148e+00 -5.487729795277118683e-04 -4.204454366117715836e-03 -1.425968250259757042e-03 -6.870220531709492207e-04
6.312000000000000000e+03 2.017558670043945312e+01 3.088615179061889648e+00 -4.371122049633413553e-04 -1.634167158044874668e-03 -6.213838350959122181e-04 -1.632840139791369438e-03
6.313000000000000000e+03 2.097657775878906250e+01 3.774520874023437500e+00 -4.877027124166488647e-03 -3.780579427257180214e-03 -2.597281942144036293e-03 -1.293655135668814182e-03
6.314000000000000000e+03 1.870165252685546875e+01 3.189713239669799805e+00 1.555335475131869316e-03 -4.638983402401208878e-03 -9.250942966900765896e-04 1.725152287690434605e-05
6.315000000000000000e+03 1.874370384216308594e+01 3.928573846817016602e+00 -1.269526692340150476e-04 3.747745417058467865e-03 1.086237840354442596e-03 1.265488681383430958e-04
6.316000000000000000e+03 2.091246414184570312e+01 3.037189483642578125e+00 -2.694272261578589678e-04 1.366283860988914967e-03 3.290569875389337540e-04 -2.338513499125838280e-03
6.317000000000000000e+03 1.943872451782226562e+01 3.138975620269775391e+00 -5.151475779712200165e-04 1.476073171943426132e-03 2.882776898331940174e-04 -2.486976329237222672e-03
6.318000000000000000e+03 2.023234558105468750e+01 3.826456785202026367e+00 -2.531517529860138893e-03 3.832862712442874908e-03 3.904034965671598911e-04 -7.760511361993849277e-04
6.319000000000000000e+03 2.364089393615722656e+01 2.601082563400268555e+00 1.939240470528602600e-02 -1.262126397341489792e-02 2.031342359259724617e-03 7.389178033918142319e-03
6.320000000000000000e+03 2.332264328002929688e+01 2.560712575912475586e+00 3.949569538235664368e-02 4.156040493398904800e-03 1.309552043676376343e-02 4.592021461576223373e-03
6.321000000000000000e+03 2.290981674194335938e+01 3.515486240386962891e+00 -3.680387744680047035e-03 -3.199200145900249481e-03 -2.063876483589410782e-03 3.527161665260791779e-03
6.322000000000000000e+03 2.310150527954101562e+01 2.904940843582153320e+00 -1.312791835516691208e-02 1.498512574471533298e-03 -3.488821676000952721e-03 -2.663980703800916672e-03
6.323000000000000000e+03 2.188722229003906250e+01 3.671722650527954102e+00 -6.973247509449720383e-03 3.972931765019893646e-03 -9.000947466120123863e-04 5.966207245364785194e-04
6.324000000000000000e+03 2.182034492492675781e+01 2.934541463851928711e+00 4.336763173341751099e-03 2.804625546559691429e-03 2.142416546121239662e-03 1.094735998776741326e-04
6.325000000000000000e+03 2.274585723876953125e+01 2.712561368942260742e+00 3.674939041957259178e-03 3.612751024775207043e-04 1.210864284075796604e-03 2.305330417584627867e-04
6.326000000000000000e+03 2.352721786499023438e+01 5.054647922515869141e+00 -1.078583020716905594e-02 -1.656919531524181366e-02 -8.206508122384548187e-03 -1.715597137808799744e-02
6.327000000000000000e+03 2.308097648620605469e+01 4.360989093780517578e+00 -8.629444986581802368e-03 -2.346409717574715614e-03 -3.292756387963891029e-03 -4.515742883086204529e-03
6.328000000000000000e+03 2.183312416076660156e+01 5.238581657409667969e+00 -4.274510592222213745e-02 6.563420407474040985e-03 -1.085450593382120132e-02 -1.983334496617317200e-02
6.329000000000000000e+03 2.184036636352539062e+01 4.492896556854248047e+00 -3.442733734846115112e-02 7.024953374639153481e-04 -1.011745352298021317e-02 -5.731042940169572830e-03
6.330000000000000000e+03 2.258285140991210938e+01 4.687993049621582031e+00 -2.010344713926315308e-02 7.214300567284226418e-04 -5.814604926854372025e-03 -1.110964547842741013e-02
6.331000000000000000e+03 2.305534362792968750e+01 5.176393508911132812e+00 -2.296147309243679047e-02 -6.692652124911546707e-03 -8.896238170564174652e-03 -1.951330155134201050e-02
6.332000000000000000e+03 2.249032783508300781e+01 5.236608028411865234e+00 -3.884750977158546448e-02 1.338402042165398598e-03 -1.125273201614618301e-02 -2.211461216211318970e-02
6.333000000000000000e+03 6.957012653350830078e+00 3.898485600948333740e-01 3.053632099181413651e-05 1.417805906385183334e-04 5.169507130631245673e-05 -1.794043237168807536e-05
6.334000000000000000e+03 7.073252201080322266e+00 1.129848599433898926e+00 -6.930490781087428331e-05 -1.102704482036642730e-04 -5.387260898714885116e-05 4.123335747863166034e-05
6.335000000000000000e+03 6.319694042205810547e+00 1.129848599433898926e+00 5.715235238312743604e-05 5.099060581414960325e-05 3.244288745918311179e-05 -2.242320806544739753e-05
6.336000000000000000e+03 6.201207637786865234e+00 3.898485600948333740e-01 -1.212992629007203504e-05 -3.543312777765095234e-05 -1.426891594746848568e-05 -6.594794967895722948e-07
6.337000000000000000e+03 8.670824050903320312e+00 3.840262591838836670e-01 -8.030467142816632986e-06 3.213880117982625961e-04 9.400726412422955036e-05 3.369965270394459367e-05
6.338000000000000000e+03 7.878619670867919922e+00 1.127028346061706543e+00 6.462098099291324615e-06 1.249048509635031223e-04 3.941008253605104983e-05 -5.406196942203678191e-05
6.339000000000000000e+03 7.779973506927490234e+00 3.870283365249633789e-01 1.403092210239265114e-05 -2.393271570326760411e-04 -6.758887320756912231e-05 9.525308087177108973e-06
6.340000000000000000e+03 9.562618255615234375e+00 3.869979083538055420e-01 -2.267600939376279712e-05 -3.394595114514231682e-04 -1.086406555259600282e-04 -5.139063796377740800e-05
6.341000000000000000e+03 9.595384597778320312e+00 1.126997947692871094e+00 -2.174402106902562082e-05 3.453756216913461685e-04 9.708948346087709069e-05 8.001424430403858423e-05
6.342000000000000000e+03 8.736529350280761719e+00 1.124026298522949219e+00 5.816307384520769119e-05 -2.259588654851540923e-04 -5.033873821957968175e-05 3.280409509898163378e-05
6.343000000000000000e+03 3.834463834762573242e+00 -2.739506065845489502e-01 6.366649642586708069e-03 6.935157580301165581e-04 2.118049655109643936e-03 9.689957951195538044e-04
6.344000000000000000e+03 3.093028068542480469e+00 -3.520590662956237793e-01 4.540314432233572006e-03 -2.017809310927987099e-04 1.301560085266828537e-03 4.696035757660865784e-04
6.345000000000000000e+03 3.340586423873901367e+00 -1.092059016227722168e+00 5.404512397944927216e-03 -1.168829330708831549e-04 1.586288795806467533e-03 3.504623193293809891e-03
6.346000000000000000e+03 1.921213746070861816e+00 -9.470339417457580566e-01 2.531755948439240456e-03 6.588980904780328274e-04 9.571962291374802589e-04 1.828854321502149105e-03
6.347000000000000000e+03 1.483282208442687988e+00 -6.837459802627563477e-01 7.414587889797985554e-04 4.185726866126060486e-04 3.480094310361891985e-04 1.146790338680148125e-03
6.348000000000000000e+03 4.336619675159454346e-01 -3.766717910766601562e-01 7.605315477121621370e-05 6.665862019872292876e-05 4.281353176338598132e-05 9.417820547241717577e-05
6.349000000000000000e+03 3.791656792163848877e-01 -1.116671800613403320e+00 1.779243611963465810e-04 4.020213673356920481e-04 1.739837171044200659e-04 2.637539873830974102e-04
6.350000000000000000e+03 3.973029613494873047e+00 -1.013950586318969727e+00 7.155695930123329163e-03 -2.845213457476347685e-04 2.061352366581559181e-03 1.740982173942029476e-03
6.351000000000000000e+03 2.721148252487182617e+00 -1.183547735214233398e+00 4.506432916969060898e-03 4.140995442867279053e-04 1.476159668527543545e-03 2.877110848203301430e-03
6.352000000000000000e+03 2.155137300491333008e+00 -1.291291832923889160e+00 2.453648718073964119e-03 4.846176016144454479e-04 8.814799366518855095e-04 2.693599322810769081e-03
6.353000000000000000e+03 1.631773233413696289e+00 -1.295232534408569336e+00 1.534822164103388786e-03 1.231894828379154205e-03 8.300151093862950802e-04 2.304537920281291008e-03
6.354000000000000000e+03 1.947731614112854004e+00 -2.673526406288146973e-01 2.163893543183803558e-03 1.204529980896040797e-04 6.853039958514273167e-04 6.097904988564550877e-04
6.355000000000000000e+03 1.066096186637878418e+00 -1.176393389701843262e+00 1.150926575064659119e-03 9.614801965653896332e-04 6.337220547720789909e-04 1.229017740115523338e-03
6.356000000000000000e+03 1.251662254333496094e+00 -2.880039215087890625e-01 4.655318334698677063e-04 2.513553044991567731e-05 1.472002186346799135e-04 1.772600517142564058e-04
6.357000000000000000e+03 2.435557126998901367e+00 -5.945681929588317871e-01 2.347522648051381111e-03 -1.169414026662707329e-04 6.691744201816618443e-04 1.367187127470970154e-03
6.358000000000000000e+03 4.036039733886718750e+01 1.114265346527099609e+01 -1.976050734519958496e-01 3.122688969597220421e-03 -5.834471434354782104e-02 2.135823480784893036e-02
6.359000000000000000e+03 3.966772079467773438e+01 1.205386352539062500e+01 -3.258700072765350342e-01 2.561054751276969910e-02 -9.007783979177474976e-02 5.676865950226783752e-02
6.360000000000000000e+03 4.225427627563476562e+01 1.164550399780273438e+01 -2.648276984691619873e-01 1.401317026466131210e-02 -7.524435222148895264e-02 -6.482467055320739746e-02
6.361000000000000000e+03 4.334437942504882812e+01 1.116233730316162109e+01 -9.346958249807357788e-02 -1.361442636698484421e-02 -3.212520107626914978e-02 -3.752166777849197388e-02
6.362000000000000000e+03 3.885581588745117188e+01 1.148345088958740234e+01 -2.188734561204910278e-01 -1.112890709191560745e-02 -6.900070607662200928e-02 6.214374303817749023e-02
6.363000000000000000e+03 4.115266036987304688e+01 1.092946243286132812e+01 -1.476916372776031494e-01 8.908934891223907471e-03 -4.163480922579765320e-02 5.124575458467006683e-03
6.364000000000000000e+03 4.144107818603515625e+01 1.143102073669433594e+01 -2.388021647930145264e-01 2.679919451475143433e-02 -6.360089033842086792e-02 -2.321989834308624268e-02
6.365000000000000000e+03 4.277515411376953125e+01 1.144325256347656250e+01 -1.551223546266555786e-01 4.088617861270904541e-03 -4.531012102961540222e-02 -4.954916983842849731e-02
6.366000000000000000e+03 4.215513992309570312e+01 1.124989604949951172e+01 -1.622240096330642700e-01 3.636956680566072464e-03 -4.757611453533172607e-02 -2.668633125722408295e-02
6.367000000000000000e+03 3.897381210327148438e+01 1.221635723114013672e+01 -3.207715749740600586e-01 2.232050523161888123e-02 -8.953532576560974121e-02 1.037836819887161255e-01
6.368000000000000000e+03 4.039749145507812500e+01 1.189725589752197266e+01 -3.203940987586975098e-01 3.527840599417686462e-02 -8.553470671176910400e-02 2.230153419077396393e-02
6.369000000000000000e+03 4.106439590454101562e+01 1.185079860687255859e+01 -2.957362830638885498e-01 4.618464410305023193e-02 -7.486549019813537598e-02 -1.449481956660747528e-02
6.370000000000000000e+03 4.164868545532226562e+01 1.179485225677490234e+01 -2.961179316043853760e-01 3.584944829344749451e-02 -7.808054238557815552e-02 -3.812246397137641907e-02
6.371000000000000000e+03 3.959017562866210938e+01 1.131011009216308594e+01 -2.258776724338531494e-01 4.466029349714517593e-03 -6.642349064350128174e-02 4.583040997385978699e-02
6.372000000000000000e+03 4.196603775024414062e+01 1.073589038848876953e+01 -7.891973853111267090e-02 1.980066765099763870e-03 -2.308190241456031799e-02 -1.147191412746906281e-02
6.373000000000000000e+03 4.277367019653320312e+01 1.056568622589111328e+01 -2.590786851942539215e-02 -2.755397930741310120e-03 -8.598979562520980835e-03 -8.325081318616867065e-03
6.374000000000000000e+03 3.660844421386718750e+01 1.264014816284179688e+01 -1.437266618013381958e-01 -2.264722883701324463e-01 -1.110596805810928345e-01 1.832324266433715820e-01
6.375000000000000000e+03 3.708995437622070312e+01 1.262835311889648438e+01 -2.606981396675109863e-01 -9.049784392118453979e-02 -1.053587943315505981e-01 2.140872925519943237e-01
6.376000000000000000e+03 3.741391754150390625e+01 1.203295421600341797e+01 -1.312096267938613892e-01 -6.522621214389801025e-02 -5.893075093626976013e-02 1.026700958609580994e-01
6.377000000000000000e+03 3.807363891601562500e+01 1.165119171142578125e+01 -1.400556117296218872e-01 -8.128514513373374939e-03 -4.445523768663406372e-02 7.009272277355194092e-02
6.378000000000000000e+03 3.684595489501953125e+01 1.185508537292480469e+01 -1.270370930433273315e-02 -1.277808472514152527e-02 -7.644538301974534988e-03 1.264683715999126434e-02
6.379000000000000000e+03 3.828802871704101562e+01 1.236698246002197266e+01 -3.414222300052642822e-01 -7.138815242797136307e-03 -1.045683175325393677e-01 1.531254500150680542e-01
6.380000000000000000e+03 3.765207290649414062e+01 1.253643894195556641e+01 -3.324033617973327637e-01 -1.473817415535449982e-02 -1.041424572467803955e-01 1.691818088293075562e-01
6.381000000000000000e+03 5.397003936767578125e+01 1.078238105773925781e+01 1.330640632659196854e-02 -1.926689583342522383e-04 3.934121225029230118e-03 -4.174211062490940094e-03
6.382000000000000000e+03 5.390347290039062500e+01 1.004510879516601562e+01 6.362403277307748795e-03 2.956885437015444040e-04 1.997427549213171005e-03 -8.042679168283939362e-03
6.383000000000000000e+03 5.471431732177734375e+01 1.073740196228027344e+01 6.571228150278329849e-03 1.328255981206893921e-03 2.369845286011695862e-03 -3.106145886704325676e-03
6.384000000000000000e+03 5.322494125366210938e+01 1.082944869995117188e+01 1.812532544136047363e-02 -1.956908090505748987e-04 5.378890316933393478e-03 -3.111186204478144646e-03
6.385000000000000000e+03 5.242547225952148438e+01 1.014035129547119141e+01 1.434874162077903748e-02 -6.990030407905578613e-03 2.207613317295908928e-03 -1.606788136996328831e-03
6.386000000000000000e+03 5.247904205322265625e+01 1.087844371795654297e+01 2.165352180600166321e-02 -7.787416107021272182e-04 6.262434180825948715e-03 -2.075002761557698250e-03
6.387000000000000000e+03 5.464125442504882812e+01 1.000053882598876953e+01 5.694710183888673782e-03 2.793279942125082016e-03 2.546397037804126740e-03 -7.702739443629980087e-03
6.388000000000000000e+03 5.316487503051757812e+01 1.009176635742187500e+01 1.290416624397039413e-02 -1.425439026206731796e-03 3.443618072196841240e-03 -8.396798744797706604e-03
6.389000000000000000e+03 3.878360366821289062e+01 1.077974700927734375e+01 -2.118379343301057816e-03 -1.475150929763913155e-03 -1.078059081919491291e-03 1.382860704325139523e-03
6.390000000000000000e+03 3.957522964477539062e+01 1.056512928009033203e+01 -2.552962687332183123e-04 1.661151181906461716e-04 -2.675434006960131228e-05 2.405273698968812823e-04
6.391000000000000000e+03 4.090800857543945312e+01 1.034381008148193359e+01 -8.841641247272491455e-04 2.660288242623209953e-03 5.328372353687882423e-04 1.858870615251362324e-03
6.392000000000000000e+03 3.851947784423828125e+01 9.862163543701171875e+00 2.256363950436934829e-04 -2.488717902451753616e-03 -6.789244944229722023e-04 -4.711053334176540375e-04
6.393000000000000000e+03 4.172409439086914062e+01 9.294953346252441406e+00 -1.167760347016155720e-03 -8.633731049485504627e-04 -6.093400297686457634e-04 6.625117384828627110e-04
6.394000000000000000e+03 4.155122756958007812e+01 1.012382030487060547e+01 -3.774262440856546164e-04 -1.994693418964743614e-03 -7.116358610801398754e-04 2.161004813387989998e-04
6.395000000000000000e+03 4.225697326660156250e+01 9.941902160644531250e+00 3.696565108839422464e-04 2.528254990465939045e-04 1.867445971583947539e-04 -9.625084931030869484e-05
6.396000000000000000e+03 3.865528106689453125e+01 1.028447341918945312e+01 -4.030657000839710236e-03 -6.806210731156170368e-04 -1.413383404724299908e-03 -3.517216769978404045e-03
6.397000000000000000e+03 4.028055191040039062e+01 1.048345947265625000e+01 -2.538063796237111092e-03 -1.571616390720009804e-03 -1.232904032804071903e-03 -1.330800238065421581e-03
6.398000000000000000e+03 3.979833984375000000e+01 9.753077507019042969e+00 -3.124015871435403824e-03 -3.276205854490399361e-03 -1.920066541060805321e-03 2.371729351580142975e-03
6.399000000000000000e+03 4.048064422607421875e+01 9.892707824707031250e+00 2.377787604928016663e-03 1.702744164504110813e-03 1.224159495905041695e-03 9.410016937181353569e-04
6.400000000000000000e+03 4.102310943603515625e+01 9.477449417114257812e+00 5.848375149071216583e-04 2.195570414187386632e-04 2.413183683529496193e-04 -1.193496515043079853e-03
6.401000000000000000e+03 3.913888168334960938e+01 9.795186042785644531e+00 6.050149910151958466e-03 5.323179066181182861e-03 3.411998739466071129e-03 6.270682206377387047e-04
6.402000000000000000e+03 1.478255176544189453e+01 1.125994801521301270e+00 4.348297079559415579e-05 -3.359975016792304814e-05 2.964965688079246320e-06 3.571867637219838798e-05
6.403000000000000000e+03 1.406890583038330078e+01 1.073610067367553711e+00 4.376708529889583588e-04 2.072021452477201819e-04 1.934619067469611764e-04 1.645160809857770801e-04
6.404000000000000000e+03 1.411068916320800781e+01 3.298048675060272217e-01 -1.174863646156154573e-04 1.942230883287265897e-04 2.302101711393333972e-05 -2.314390621904749423e-05
6.405000000000000000e+03 1.334397411346435547e+01 1.023863434791564941e+00 -1.327103236690163612e-04 -3.608427068684250116e-04 -1.480659120716154575e-04 -3.380752168595790863e-04
6.406000000000000000e+03 1.484494400024414062e+01 3.804935514926910400e-01 -1.372797942167380825e-05 -9.108222729992121458e-05 -3.144306174363009632e-05 -4.241464193910360336e-05
6.407000000000000000e+03 1.336514949798583984e+01 2.817863523960113525e-01 5.535833406611345708e-05 -9.535473509458824992e-05 -1.199892176373396069e-05 1.507708366261795163e-04
6.408000000000000000e+03 1.038163661956787109e+01 3.719484806060791016e-01 2.780552495096344501e-05 3.937635337933897972e-04 1.264707098016515374e-04 4.500399154494516551e-05
6.409000000000000000e+03 1.112833786010742188e+01 3.352923989295959473e-01 3.314587274871882983e-06 -3.662575909402221441e-04 -1.088829012587666512e-04 -5.850378511240705848e-05
6.410000000000000000e+03 1.187404060363769531e+01 3.023687005043029785e-01 6.047946953913196921e-06 2.893734490498900414e-04 8.862642425810918212e-05 9.440108260605484247e-05
6.411000000000000000e+03 1.187335777282714844e+01 1.043116807937622070e+00 8.561933645978569984e-05 -4.118994402233511209e-04 -9.788402530830353498e-05 -2.458030648995190859e-04
6.412000000000000000e+03 1.261872673034667969e+01 2.733090519905090332e-01 1.919182250276207924e-05 -1.146196591435000300e-04 -2.862835208361502737e-05 -1.475702447351068258e-04
6.413000000000000000e+03 1.261125278472900391e+01 1.014356493949890137e+00 -4.660651882204547292e-07 3.580017655622214079e-04 1.072607046808116138e-04 3.420030407141894102e-04
6.414000000000000000e+03 1.039453697204589844e+01 1.112098097801208496e+00 -1.080753354472108185e-04 -4.140834207646548748e-04 -1.566476275911554694e-04 -1.344864867860451341e-04
6.415000000000000000e+03 1.113444709777832031e+01 1.075741291046142578e+00 3.037407836359307112e-08 4.209468315821141005e-04 1.262931618839502335e-04 1.141053144237957895e-04
6.416000000000000000e+03 5.544353008270263672e+00 1.129850029945373535e+00 1.456483150832355022e-03 6.171161076053977013e-04 6.220797658897936344e-04 8.962411084212362766e-04
6.417000000000000000e+03 4.790751457214355469e+00 1.129850029945373535e+00 5.716675659641623497e-04 -3.297753864899277687e-04 7.256765820784494281e-05 -2.026372239924967289e-04
6.418000000000000000e+03 4.676749229431152344e+00 3.898500204086303711e-01 5.893499474041163921e-04 7.797452271915972233e-04 4.107285640202462673e-04 6.691915332339704037e-04
6.419000000000000000e+03 5.432579994201660156e+00 3.898500204086303711e-01 -1.940920192282646894e-04 -1.141500470112077892e-04 -9.247261914424598217e-05 -1.181304396595805883e-04
6.420000000000000000e+03 1.112103080749511719e+01 -4.428110718727111816e-01 2.938626892864704132e-02 1.695261598797515035e-04 8.866738528013229370e-03 -1.769526512362062931e-03
6.421000000000000000e+03 1.187371921539306641e+01 -4.752737879753112793e-01 2.782955765724182129e-02 -3.970640245825052261e-04 8.229747414588928223e-03 -2.106004161760210991e-03
6.422000000000000000e+03 1.111492252349853516e+01 -1.183259963989257812e+00 2.125102281570434570e-02 -1.539416611194610596e-03 5.913482047617435455e-03 -9.216212783940136433e-04
6.423000000000000000e+03 1.262644767761230469e+01 -5.069373250007629395e-01 2.516063861548900604e-02 -2.906760491896420717e-04 7.460988592356443405e-03 -3.095310647040605545e-03
6.424000000000000000e+03 1.035515594482421875e+01 -1.148333072662353516e+00 2.248552627861499786e-02 -1.112062716856598854e-03 6.412039510905742645e-03 -9.150218102149665356e-04
6.425000000000000000e+03 1.036805534362792969e+01 -4.081833958625793457e-01 2.886328287422657013e-02 -1.359326066449284554e-03 8.251187391579151154e-03 -4.318177234381437302e-04
6.426000000000000000e+03 1.263392257690429688e+01 -1.248021602630615234e+00 1.878958009183406830e-02 -7.686372264288365841e-04 5.406282842159271240e-03 -5.296802613884210587e-03
6.427000000000000000e+03 1.187440204620361328e+01 -1.216021895408630371e+00 2.137516625225543976e-02 -1.971628051251173019e-03 5.821061786264181137e-03 -4.123402759432792664e-03
6.428000000000000000e+03 3.690422439575195312e+01 1.020223522186279297e+01 1.598430564627051353e-03 5.979588604532182217e-04 6.589168333448469639e-04 -1.273212488740682602e-03
6.429000000000000000e+03 3.796553421020507812e+01 1.098825454711914062e+01 3.561340563464909792e-04 3.124866401776671410e-03 1.044300151988863945e-03 -1.750645227730274200e-03
6.430000000000000000e+03 3.791804885864257812e+01 1.050252246856689453e+01 -2.811444923281669617e-03 2.972751390188932419e-03 4.839192843064665794e-05 3.152457764372229576e-03
6.431000000000000000e+03 3.733737182617187500e+01 1.076026248931884766e+01 -4.333014599978923798e-03 -3.455173922702670097e-03 -2.336456673219799995e-03 3.520985774230211973e-05
6.432000000000000000e+03 3.674065399169921875e+01 1.102671718597412109e+01 1.156220059783663601e-05 7.896823808550834656e-05 2.715913251449819654e-05 1.389674725942313671e-04
6.433000000000000000e+03 3.630093765258789062e+01 1.034548854827880859e+01 -1.773600582964718342e-03 -8.079954423010349274e-04 -7.744788308627903461e-04 -1.526573905721306801e-03
6.434000000000000000e+03 3.774382019042968750e+01 1.002957153320312500e+01 1.391570200212299824e-03 8.881958783604204655e-04 6.839298293925821781e-04 -3.433446690905839205e-04
6.435000000000000000e+03 1.532617664337158203e+01 -1.230204224586486816e+00 2.462588483467698097e-03 1.059066969901323318e-02 3.915977198630571365e-03 -6.692161317914724350e-03
6.436000000000000000e+03 1.546412372589111328e+01 -1.145073413848876953e+00 2.397186588495969772e-03 1.336690410971641541e-02 4.729227162897586823e-03 -1.168410526588559151e-03
6.437000000000000000e+03 1.425182247161865234e+01 -3.902684152126312256e-01 9.491921402513980865e-03 2.358540077693760395e-04 2.918332582339644432e-03 -2.985911443829536438e-03
6.438000000000000000e+03 1.512440299987792969e+01 -8.298792243003845215e-01 3.438593819737434387e-03 -9.242517262464389205e-05 1.003850600682199001e-03 -6.248408462852239609e-03
6.439000000000000000e+03 1.499323558807373047e+01 -3.236857652664184570e-01 1.483202329836785793e-03 9.173613507300615311e-04 7.201691041700541973e-04 -1.203516847454011440e-03
6.440000000000000000e+03 1.343327617645263672e+01 -4.957430660724639893e-01 1.793950423598289490e-02 -1.895803870866075158e-04 5.324977450072765350e-03 -3.370099933817982674e-03
6.441000000000000000e+03 1.345798492431640625e+01 -1.237600922584533691e+00 1.663213409483432770e-02 -3.119514090940356255e-03 4.053785931318998337e-03 -9.124817326664924622e-03
6.442000000000000000e+03 1.458326053619384766e+01 -9.111518859863281250e-01 5.693920888006687164e-03 1.857385970652103424e-03 2.265392104163765907e-03 -6.963889580219984055e-03
6.443000000000000000e+03 1.425705051422119141e+01 -1.277629494667053223e+00 1.505230367183685303e-02 1.853230176493525505e-03 5.071660038083791733e-03 -1.059241779148578644e-02
6.444000000000000000e+03 1.492532062530517578e+01 -1.292750954627990723e+00 1.175922714173793793e-02 3.878590418025851250e-03 4.691345151513814926e-03 -1.053717453032732010e-02
