# el_label, x, y, sXX, sYY, sZZ, sXY
1.000000000000000000e+00 6.113276481628417969e+00 1.448785543441772461e+00 4.320707798004150391e+00 7.037271499633789062e+00 3.407393693923950195e+00 2.888874769210815430e+00
2.000000000000000000e+00 5.204861640930175781e+00 1.292151331901550293e+00 2.493567466735839844e+00 -1.370820283889770508e+00 3.368241786956787109e-01 2.150099515914916992e+00
3.000000000000000000e+00 5.670957565307617188e+00 1.029553532600402832e+00 -1.590416312217712402e+00 3.804146289825439453e+00 6.641190648078918457e-01 3.345949649810791016e+00
4.000000000000000000e+00 5.925440311431884766e+00 1.285175561904907227e+00 4.762053489685058594e+00 6.694085597991943359e+00 3.436841726303100586e+00 2.717462539672851562e+00
5.000000000000000000e+00 6.458719730377197266e+00 1.342818856239318848e+00 -5.055460929870605469e+00 3.700345516204833984e+00 -4.065346717834472656e-01 -3.222767353057861328e+00
6.000000000000000000e+00 7.043815612792968750e+00 1.446686148643493652e+00 5.499691963195800781e-01 -5.814677476882934570e-01 -9.449559263885021210e-03 -5.803655624389648438e+00
7.000000000000000000e+00 6.770737171173095703e+00 1.230419754981994629e+00 -9.220667481422424316e-01 1.001134037971496582e+00 2.372018620371818542e-02 -3.348608493804931641e+00
8.000000000000000000e+00 5.487413406372070312e+00 1.331071376800537109e+00 2.759235620498657227e+00 1.136480331420898438e+00 1.168714761734008789e+00 3.816907167434692383e+00
9.000000000000000000e+00 6.224540710449218750e+00 1.021135807037353516e+00 -4.187749385833740234e+00 3.162466287612915039e+00 -3.075849413871765137e-01 -1.109227180480957031e+00
1.000000000000000000e+01 6.194868087768554688e+00 1.896316051483154297e+00 1.438180446624755859e+01 1.115031242370605469e+01 7.659635066986083984e+00 -1.819797754287719727e+00
1.100000000000000000e+01 5.558750152587890625e+00 2.656470537185668945e+00 5.135137081146240234e+00 3.567114353179931641e+00 2.610675334930419922e+00 -2.539176464080810547e+00
1.200000000000000000e+01 5.644047260284423828e+00 1.861826300621032715e+00 8.305865287780761719e+00 2.572795629501342773e+00 3.263598442077636719e+00 7.567800283432006836e-01
1.300000000000000000e+01 6.664355278015136719e+00 2.298081636428833008e+00 8.938362121582031250e+00 3.540303230285644531e+00 3.743599414825439453e+00 1.328193187713623047e+00
1.400000000000000000e+01 6.154476165771484375e+00 2.742687463760375977e+00 3.017428874969482422e+00 5.301922321319580078e+00 2.495805263519287109e+00 -2.163118600845336914e+00
1.500000000000000000e+01 9.636538505554199219e+00 2.779568672180175781e+00 1.803459167480468750e+00 -9.056343436241149902e-01 2.693474590778350830e-01 -4.659329950809478760e-01
1.600000000000000000e+01 1.195651912689208984e+01 1.626765012741088867e+00 -2.052727043628692627e-01 -7.145220786333084106e-02 -8.301747590303421021e-02 -4.589237868785858154e-01
1.700000000000000000e+01 1.373262310028076172e+01 2.722576618194580078e+00 8.739348053932189941e-01 -3.873402178287506104e-01 1.459783911705017090e-01 -4.097832143306732178e-01
1.800000000000000000e+01 1.445687198638916016e+01 2.640424013137817383e+00 1.570985555648803711e+00 -7.056405544281005859e-01 2.596034705638885498e-01 -3.334304690361022949e-01
1.900000000000000000e+01 8.004005432128906250e+00 1.761866211891174316e+00 1.247331619262695312e+00 -1.250918149948120117e+00 -1.075973617844283581e-03 -1.871750712394714355e+00
2.000000000000000000e+01 1.054384231567382812e+01 2.700494050979614258e+00 1.029796361923217773e+00 -3.664451837539672852e-01 1.990053504705429077e-01 -1.337456107139587402e-01
2.100000000000000000e+01 8.395219802856445312e+00 2.301767587661743164e+00 3.788633108139038086e+00 -1.911601543426513672e+00 5.631094574928283691e-01 -7.231650352478027344e-01
2.200000000000000000e+01 1.177618026733398438e+01 2.317718505859375000e+00 9.438169747591018677e-02 -2.957252971827983856e-02 1.944275014102458954e-02 -5.848342180252075195e-01
2.300000000000000000e+01 1.512198352813720703e+01 2.404973268508911133e+00 1.217208147048950195e+00 5.275137349963188171e-02 3.809878528118133545e-01 4.885855689644813538e-02
2.400000000000000000e+01 1.427736091613769531e+01 2.106133937835693359e+00 8.646754622459411621e-01 -2.864966094493865967e-01 1.734536588191986084e-01 4.267922043800354004e-01
2.500000000000000000e+01 1.256369304656982422e+01 1.590920209884643555e+00 -2.250959426164627075e-01 6.040484830737113953e-02 -4.940732568502426147e-02 -3.422776758670806885e-01
2.600000000000000000e+01 1.316461944580078125e+01 1.650249958038330078e+00 4.421870112419128418e-01 -8.248967677354812622e-02 1.079092025756835938e-01 -4.154850542545318604e-01
2.700000000000000000e+01 1.140904426574707031e+01 2.769944429397583008e+00 1.212371349334716797e+00 -6.686834245920181274e-02 3.436509072780609131e-01 -5.099030733108520508e-01
2.800000000000000000e+01 1.232740020751953125e+01 1.987769961357116699e+00 7.289330363273620605e-01 -5.858780443668365479e-02 2.011035680770874023e-01 -4.638530015945434570e-01
2.900000000000000000e+01 1.128614902496337891e+01 1.783799409866333008e+00 2.788152098655700684e-01 -9.984984993934631348e-02 5.368960648775100708e-02 -3.732470870018005371e-01
3.000000000000000000e+01 1.043916511535644531e+01 1.886378765106201172e+00 5.014161467552185059e-01 -5.130330920219421387e-01 -3.485089167952537537e-03 -7.359033226966857910e-01
3.100000000000000000e+01 8.821611404418945312e+00 2.873221397399902344e+00 2.408552408218383789e+00 -6.687883734703063965e-01 5.219292044639587402e-01 1.120587348937988281e+00
3.200000000000000000e+01 1.469960689544677734e+01 1.773026227951049805e+00 -4.187629222869873047e-01 -8.624683618545532227e-01 -3.843693733215332031e-01 2.030025869607925415e-01
3.300000000000000000e+01 1.373498630523681641e+01 1.684527635574340820e+00 -1.646078079938888550e-01 -4.885052144527435303e-02 -6.403750181198120117e-02 4.879517108201980591e-02
3.400000000000000000e+01 1.369102573394775391e+01 2.190876007080078125e+00 9.288769960403442383e-01 -2.861130833625793457e-01 1.928291767835617065e-01 -4.296065866947174072e-01
3.500000000000000000e+01 9.563919067382812500e+00 1.794910192489624023e+00 2.280283272266387939e-01 -7.880939841270446777e-01 -1.680196970701217651e-01 -8.478295207023620605e-01
3.600000000000000000e+01 1.293921661376953125e+01 2.733771800994873047e+00 9.779495596885681152e-01 -2.428876236081123352e-02 2.860982418060302734e-01 -6.068828105926513672e-01
3.700000000000000000e+01 8.785841941833496094e+00 1.716702342033386230e+00 1.364111781120300293e+00 -1.123998165130615234e+00 7.203405350446701050e-02 -1.052091479301452637e+00
3.800000000000000000e+01 1.215355300903320312e+01 2.788318872451782227e+00 1.011402487754821777e+00 -1.827164292335510254e-01 2.486058026552200317e-01 -3.036554455757141113e-01
3.900000000000000000e+01 1.426114082336425781e+01 1.688049077987670898e+00 -1.711959689855575562e-01 6.265625357627868652e-02 -3.256191685795783997e-02 -2.621773481369018555e-01
4.000000000000000000e+01 9.156477928161621094e+00 2.176604509353637695e+00 1.544734358787536621e+00 -8.814370036125183105e-01 1.989892274141311646e-01 -2.217959612607955933e-01
4.100000000000000000e+01 1.299131965637207031e+01 2.173904418945312500e+00 1.271374523639678955e-01 -7.072558254003524780e-02 1.692355982959270477e-02 -2.423492223024368286e-01
4.200000000000000000e+01 7.223058223724365234e+00 3.091298341751098633e+00 1.230598449707031250e+00 3.300430774688720703e-01 4.681924581527709961e-01 2.288143396377563477e+00
4.300000000000000000e+01 8.968113899230957031e+00 4.342281341552734375e+00 1.783655405044555664e+00 -3.346231877803802490e-01 4.347096681594848633e-01 2.607024312019348145e-01
4.400000000000000000e+01 8.016814231872558594e+00 3.611662149429321289e+00 2.126986503601074219e+00 7.607762813568115234e-01 8.663288354873657227e-01 5.522240996360778809e-01
4.500000000000000000e+01 7.257318496704101562e+00 1.840143322944641113e+00 7.465323925018310547e+00 -6.174574494361877441e-01 2.054359912872314453e+00 -1.926328063011169434e+00
4.600000000000000000e+01 1.789638710021972656e+01 3.960572004318237305e+00 -4.416209220886230469e+00 -4.895004257559776306e-02 -1.339547753334045410e+00 9.320070743560791016e-01
4.700000000000000000e+01 1.776437950134277344e+01 3.224691390991210938e+00 5.124029159545898438e+00 1.292880296707153320e+00 1.925072789192199707e+00 -1.056845068931579590e+00
4.800000000000000000e+01 1.713155937194824219e+01 4.073242664337158203e+00 -5.759269237518310547e+00 4.447813928127288818e-01 -1.594346404075622559e+00 7.669631838798522949e-01
4.900000000000000000e+01 1.503298759460449219e+01 4.148536205291748047e+00 -7.294927239418029785e-01 -5.165719389915466309e-01 -3.738194108009338379e-01 -1.150900840759277344e+00
5.000000000000000000e+01 1.662192726135253906e+01 3.243062734603881836e+00 9.506490707397460938e+00 8.873462677001953125e-01 3.118150949478149414e+00 -1.760327100753784180e+00
5.100000000000000000e+01 7.725541591644287109e+00 2.514275074005126953e+00 5.447029590606689453e+00 -5.654953718185424805e-01 1.464460253715515137e+00 1.984331130981445312e+00
5.200000000000000000e+01 1.656656074523925781e+01 3.751701593399047852e+00 -3.452040851116180420e-01 9.938926696777343750e-01 1.946065723896026611e-01 -1.342806935310363770e+00
5.300000000000000000e+01 1.582931327819824219e+01 3.712594747543334961e+00 2.177377462387084961e+00 1.135098457336425781e+00 9.937427639961242676e-01 -2.521090745925903320e+00
5.400000000000000000e+01 1.426812362670898438e+01 4.164473056793212891e+00 1.046030163764953613e+00 -1.561818737536668777e-02 3.091235756874084473e-01 -4.612725079059600830e-01
5.500000000000000000e+01 1.352667808532714844e+01 4.236391067504882812e+00 1.729551553726196289e+00 -1.627019941806793213e-01 4.700548648834228516e-01 -1.681063920259475708e-01
5.600000000000000000e+01 1.278802871704101562e+01 4.268956184387207031e+00 2.028765916824340820e+00 2.030832022428512573e-01 6.695547103881835938e-01 -2.161479294300079346e-01
5.700000000000000000e+01 1.204056358337402344e+01 4.291207313537597656e+00 2.309377670288085938e+00 -1.749897599220275879e-01 6.403163671493530273e-01 -2.050586789846420288e-01
5.800000000000000000e+01 1.053096771240234375e+01 4.336191654205322266e+00 2.477697849273681641e+00 -1.326126307249069214e-01 7.035255432128906250e-01 -1.274830251932144165e-01
5.900000000000000000e+01 9.764554977416992188e+00 4.349418640136718750e+00 2.372932672500610352e+00 7.436541467905044556e-02 7.341894507408142090e-01 -3.071576915681362152e-02
6.000000000000000000e+01 1.533323192596435547e+01 3.186989784240722656e+00 3.626715421676635742e+00 -2.388113290071487427e-01 1.016371250152587891e+00 8.182941377162933350e-02
6.100000000000000000e+01 1.470104503631591797e+01 3.276196479797363281e+00 1.564624190330505371e+00 -9.251894950866699219e-01 1.918303966522216797e-01 -9.638305306434631348e-01
6.200000000000000000e+01 1.363651561737060547e+01 3.258119583129882812e+00 1.417320847511291504e+00 -8.567730337381362915e-02 3.994930684566497803e-01 -7.761833071708679199e-01
6.300000000000000000e+01 1.215652465820312500e+01 3.298619031906127930e+00 1.388315916061401367e+00 1.354635208845138550e-01 4.571338295936584473e-01 -5.420004725456237793e-01
6.400000000000000000e+01 1.059380245208740234e+01 3.348225116729736328e+00 1.852823138236999512e+00 3.389220312237739563e-02 5.660145878791809082e-01 -4.923835098743438721e-01
6.500000000000000000e+01 1.055944824218750000e+01 3.830400228500366211e+00 2.066261291503906250e+00 -2.485415041446685791e-01 5.453159809112548828e-01 5.098324269056320190e-02
6.600000000000000000e+01 1.585849285125732422e+01 3.227764606475830078e+00 7.463991641998291016e+00 5.876488089561462402e-01 2.415492057800292969e+00 1.293575614690780640e-01
6.700000000000000000e+01 1.648879814147949219e+01 4.177664279937744141e+00 -6.505562782287597656e+00 -2.070687115192413330e-01 -2.013789415359497070e+00 7.763592898845672607e-02
6.800000000000000000e+01 8.287027359008789062e+00 3.088304996490478516e+00 9.925427436828613281e-01 -4.014597833156585693e-01 1.773248910903930664e-01 1.210831642150878906e+00
6.900000000000000000e+01 8.079313278198242188e+00 4.310329437255859375e+00 8.812721967697143555e-01 2.609980404376983643e-01 3.426810801029205322e-01 4.770660102367401123e-01
7.000000000000000000e+01 1.518139457702636719e+01 3.641123056411743164e+00 1.809081792831420898e+00 -8.558998703956604004e-01 2.859545648097991943e-01 -1.431566238403320312e+00
7.100000000000000000e+01 1.411992645263671875e+01 3.556810617446899414e+00 1.073208928108215332e+00 -4.871453344821929932e-01 1.758190989494323730e-01 -6.839830875396728516e-01
7.200000000000000000e+01 1.128799533843994141e+01 4.314478397369384766e+00 2.471134185791015625e+00 1.388082653284072876e-01 7.829827666282653809e-01 -1.434322595596313477e-01
7.300000000000000000e+01 1.209193229675292969e+01 3.789014339447021484e+00 1.748660564422607422e+00 -2.128793112933635712e-02 5.182117819786071777e-01 -2.275079637765884399e-01
7.400000000000000000e+01 1.577957057952880859e+01 4.179265975952148438e+00 -4.284561634063720703e+00 8.782978653907775879e-01 -1.021879196166992188e+00 -9.155413508415222168e-01
7.500000000000000000e+01 8.938398361206054688e+00 3.783268690109252930e+00 1.743082046508789062e+00 -9.747917652130126953e-01 2.304871082305908203e-01 7.419260740280151367e-01
7.600000000000000000e+01 1.351820278167724609e+01 3.746903419494628906e+00 1.224755764007568359e+00 1.515116095542907715e-01 4.128802120685577393e-01 -4.288194179534912109e-01
7.700000000000000000e+01 1.292332649230957031e+01 3.275328636169433594e+00 1.109323740005493164e+00 -1.954482048749923706e-01 2.741626799106597900e-01 -2.889259755611419678e-01
7.800000000000000000e+01 1.137687397003173828e+01 3.324579000473022461e+00 1.394692063331604004e+00 -2.918376326560974121e-01 3.308563530445098877e-01 -1.334051638841629028e-01
7.900000000000000000e+01 1.132962989807128906e+01 3.811643123626708984e+00 1.971719384193420410e+00 1.415807195007801056e-02 5.957632064819335938e-01 -3.454351723194122314e-01
8.000000000000000000e+01 9.805389404296875000e+00 3.363494873046875000e+00 1.647060036659240723e+00 -7.679110765457153320e-01 2.637447118759155273e-01 7.379770874977111816e-01
8.100000000000000000e+01 8.995772361755371094e+00 3.348208427429199219e+00 2.290567398071289062e+00 -1.905851364135742188e-01 6.299946904182434082e-01 -1.816609054803848267e-01
8.200000000000000000e+01 1.283628177642822266e+01 3.770075559616088867e+00 1.657619118690490723e+00 -5.442909523844718933e-02 4.809570014476776123e-01 -4.039421379566192627e-01
8.300000000000000000e+01 9.774539947509765625e+00 3.832294702529907227e+00 1.888768076896667480e+00 1.562095284461975098e-01 6.134932637214660645e-01 -3.790824860334396362e-02
8.400000000000000000e+01 2.034901237487792969e+01 5.342971324920654297e+00 -3.033688366413116455e-01 8.588341996073722839e-03 -8.843415230512619019e-02 -6.981491297483444214e-02
8.500000000000000000e+01 2.110828781127929688e+01 5.289262771606445312e+00 -2.737691104412078857e-01 3.276409208774566650e-02 -7.230150699615478516e-02 -7.983160018920898438e-02
8.600000000000000000e+01 1.883009910583496094e+01 5.447298526763916016e+00 -3.414638638496398926e-01 -2.234704792499542236e-02 -1.091432720422744751e-01 -3.044065088033676147e-02
8.700000000000000000e+01 1.954028892517089844e+01 4.657379150390625000e+00 -4.438954889774322510e-01 1.112130377441644669e-02 -1.298322528600692749e-01 3.484115237370133400e-03
8.800000000000000000e+01 2.104417419433593750e+01 4.551930904388427734e+00 -3.024343252182006836e-01 9.608974680304527283e-03 -8.784760534763336182e-02 -2.009204216301441193e-02
8.900000000000000000e+01 1.878804969787597656e+01 4.708437442779541016e+00 -5.298718810081481934e-01 -2.913316898047924042e-02 -1.677015125751495361e-01 -1.842805556952953339e-02
9.000000000000000000e+01 2.029225349426269531e+01 4.605130195617675781e+00 -3.819359242916107178e-01 2.627365058287978172e-03 -1.137925684452056885e-01 -1.074224431067705154e-02
9.100000000000000000e+01 1.958969306945800781e+01 5.395730018615722656e+00 -3.656656444072723389e-01 2.915402315557003021e-02 -1.009534820914268494e-01 -6.751900911331176758e-02
9.200000000000000000e+01 1.638060379028320312e+01 4.805315017700195312e+00 -7.168304324150085449e-01 6.208787858486175537e-02 -1.964227557182312012e-01 7.319212425500154495e-03
9.300000000000000000e+01 1.273424148559570312e+01 4.954342842102050781e+00 -1.706233024597167969e+00 -9.674365073442459106e-02 -5.408930182456970215e-01 -1.986745297908782959e-01
9.400000000000000000e+01 1.144852066040039062e+01 4.709006309509277344e+00 -2.987446546554565430e+00 8.127149194478988647e-02 -8.718525171279907227e-01 -8.056519180536270142e-02
9.500000000000000000e+01 1.028316974639892578e+01 5.586583614349365234e+00 4.732891619205474854e-01 6.172717213630676270e-01 3.271682560443878174e-01 -3.904291987419128418e-01
9.600000000000000000e+01 9.601679801940917969e+00 5.413262844085693359e+00 -7.625223994255065918e-01 -5.737515091896057129e-01 -4.008821845054626465e-01 4.004572629928588867e-01
9.700000000000000000e+01 9.208973884582519531e+00 4.932752132415771484e+00 -8.835733532905578613e-01 1.266864687204360962e-01 -2.270660698413848877e-01 -1.484500914812088013e-01
9.800000000000000000e+01 6.621524333953857422e+00 5.114597320556640625e+00 2.334185503423213959e-02 3.722781240940093994e-01 1.186859980225563049e-01 -5.022597312927246094e-01
9.900000000000000000e+01 7.455934047698974609e+00 4.582567214965820312e+00 -1.423594951629638672e+00 -3.692483603954315186e-01 -5.378530025482177734e-01 6.276406645774841309e-01
1.000000000000000000e+02 6.583996295928955078e+00 3.481126070022583008e+00 -1.703362464904785156e+00 -6.045521497726440430e-01 -6.923743486404418945e-01 1.786774635314941406e+00
1.010000000000000000e+02 5.165789604187011719e+00 2.552900075912475586e+00 5.838831424713134766e+00 -1.013244986534118652e+00 1.447675943374633789e+00 -6.721609234809875488e-01
1.020000000000000000e+02 5.204782962799072266e+00 1.836862325668334961e+00 5.434355258941650391e+00 3.981391191482543945e-01 1.749748349189758301e+00 3.969144821166992188e-02
1.030000000000000000e+02 5.291680335998535156e+00 3.378608465194702148e+00 1.460296630859375000e+00 2.565707445144653320e+00 1.207801222801208496e+00 -2.299364328384399414e+00
1.040000000000000000e+02 5.544961452484130859e+00 3.177261114120483398e+00 2.345581531524658203e+00 5.845650196075439453e+00 2.457369565963745117e+00 -3.174021005630493164e+00
1.050000000000000000e+02 1.803871154785156250e+01 5.487858772277832031e+00 -3.614385128021240234e-01 -9.734735358506441116e-04 -1.087235957384109497e-01 -8.941424638032913208e-02
1.060000000000000000e+02 1.639247894287109375e+01 5.545345783233642578e+00 -4.473717212677001953e-01 1.100432593375444412e-02 -1.309102177619934082e-01 -4.090693220496177673e-02
1.070000000000000000e+02 1.474613094329833984e+01 5.591561794281005859e+00 2.139707505702972412e-01 1.666922718286514282e-01 1.141989082098007202e-01 3.975282981991767883e-02
1.080000000000000000e+02 1.390379333496093750e+01 4.820617675781250000e+00 -1.457063436508178711e+00 6.224594637751579285e-02 -4.184452295303344727e-01 3.100972855463624001e-03
1.090000000000000000e+02 1.220908260345458984e+01 4.634608268737792969e+00 -9.169365763664245605e-01 -8.088215440511703491e-02 -2.993456125259399414e-01 -6.967648863792419434e-02
1.100000000000000000e+02 8.220018386840820312e+00 5.856881141662597656e+00 -5.742220282554626465e-01 -8.188238739967346191e-02 -1.968313306570053101e-01 2.782291173934936523e-01
1.110000000000000000e+02 8.980537414550781250e+00 5.780924797058105469e+00 1.328845624811947346e-03 -1.104610040783882141e-01 -3.273964673280715942e-02 2.394191771745681763e-01
1.120000000000000000e+02 7.384444713592529297e+00 5.910383224487304688e+00 -5.344064161181449890e-02 5.286373496055603027e-01 1.425590068101882935e-01 4.606325644999742508e-03
1.130000000000000000e+02 7.176356792449951172e+00 5.323984622955322266e+00 -6.860825419425964355e-01 1.681039296090602875e-02 -2.007816433906555176e-01 6.716394424438476562e-01
1.140000000000000000e+02 1.061242198944091797e+01 4.834765434265136719e+00 -2.859404325485229492e+00 2.037258446216583252e-01 -7.967035174369812012e-01 5.854778289794921875e-01
1.150000000000000000e+02 1.177636051177978516e+01 4.762909889221191406e+00 -5.574686050415039062e+00 4.109540022909641266e-03 -1.671172976493835449e+00 2.368953973054885864e-01
1.160000000000000000e+02 1.380805110931396484e+01 5.399801254272460938e+00 2.451802939176559448e-01 3.107645735144615173e-02 8.287702500820159912e-02 -3.552732616662979126e-02
1.170000000000000000e+02 1.556813049316406250e+01 4.830718040466308594e+00 -8.558699488639831543e-01 -1.365516036748886108e-01 -2.977264523506164551e-01 -7.744138687849044800e-02
1.180000000000000000e+02 1.475545310974121094e+01 4.850798130035400391e+00 -1.176244616508483887e+00 7.818670570850372314e-02 -3.294173777103424072e-01 -1.522401273250579834e-01
1.190000000000000000e+02 1.556940746307373047e+01 5.571115493774414062e+00 -3.250577151775360107e-01 -1.870765239000320435e-01 -1.536402702331542969e-01 -7.270181924104690552e-02
1.200000000000000000e+02 1.719314765930175781e+01 4.777714729309082031e+00 -6.663970947265625000e-01 -4.764742404222488403e-02 -2.142133563756942749e-01 -1.044056005775928497e-02
1.210000000000000000e+02 1.800563812255859375e+01 4.748559951782226562e+00 -6.048160195350646973e-01 4.152491316199302673e-02 -1.689873337745666504e-01 -1.492814481025561690e-04
1.220000000000000000e+02 4.937408924102783203e+00 2.675364732742309570e+00 4.900934696197509766e+00 7.098579406738281250e-01 1.683237791061401367e+00 -1.703812003135681152e+00
1.230000000000000000e+02 5.758213043212890625e+00 3.978812456130981445e+00 -7.109205126762390137e-01 3.100651979446411133e+00 7.169194817543029785e-01 -3.763428330421447754e-01
1.240000000000000000e+02 6.985049724578857422e+00 4.809646129608154297e+00 -5.246347561478614807e-02 1.161089658737182617e+00 3.325878381729125977e-01 -9.677341580390930176e-02
1.250000000000000000e+02 4.911309242248535156e+00 1.886043667793273926e+00 3.841481208801269531e+00 -1.017480969429016113e+00 8.472000360488891602e-01 1.923828363418579102e+00
1.260000000000000000e+02 7.842556476593017578e+00 5.187762737274169922e+00 1.462675929069519043e-01 2.959301173686981201e-01 1.326593160629272461e-01 -2.337053269147872925e-01
1.270000000000000000e+02 7.046584606170654297e+00 4.041451454162597656e+00 1.285017967224121094e+00 1.175414800643920898e+00 7.381298542022705078e-01 -7.609461545944213867e-01
1.280000000000000000e+02 8.513796806335449219e+00 5.056610107421875000e+00 -1.000943779945373535e+00 5.679290369153022766e-02 -2.832452654838562012e-01 3.737729787826538086e-02
1.290000000000000000e+02 1.721562194824218750e+01 5.517379760742187500e+00 -4.146045446395874023e-01 2.809784747660160065e-02 -1.159520074725151062e-01 -4.908020794391632080e-02
1.300000000000000000e+02 1.298742389678955078e+01 4.704641819000244141e+00 -1.411552429199218750e+00 4.643447231501340866e-03 -4.220727086067199707e-01 1.379514485597610474e-01
1.310000000000000000e+02 9.883002281188964844e+00 4.871497154235839844e+00 -1.365414261817932129e+00 -4.513493180274963379e-01 -5.450291037559509277e-01 4.773349761962890625e-01
1.320000000000000000e+02 6.211241722106933594e+00 4.569443702697753906e+00 -4.833273291587829590e-01 6.301593184471130371e-01 4.404960200190544128e-02 8.557910323143005371e-01
1.330000000000000000e+02 6.098369121551513672e+00 3.723337888717651367e+00 -1.558418154716491699e+00 1.550324797630310059e+00 -2.427999861538410187e-03 9.020340442657470703e-01
1.340000000000000000e+02 6.589702129364013672e+00 4.298835754394531250e+00 -6.265922635793685913e-02 -3.688241541385650635e-01 -1.294450163841247559e-01 1.198156476020812988e-01
1.350000000000000000e+02 1.948812866210937500e+01 3.877326726913452148e+00 -2.326124906539916992e+00 -2.213754057884216309e-01 -7.642500996589660645e-01 4.241756796836853027e-01
1.360000000000000000e+02 2.017558670043945312e+01 3.088615179061889648e+00 7.641854137182235718e-02 -1.746384203433990479e-01 -2.946596406400203705e-02 3.488242328166961670e-01
1.370000000000000000e+02 2.097657775878906250e+01 3.774520874023437500e+00 -1.306867957115173340e+00 -2.280553877353668213e-01 -4.604769945144653320e-01 2.966430783271789551e-01
1.380000000000000000e+02 1.870165252685546875e+01 3.189713239669799805e+00 8.607760667800903320e-01 -7.248414158821105957e-01 4.078039526939392090e-02 5.062636137008666992e-01
1.390000000000000000e+02 1.874370384216308594e+01 3.928573846817016602e+00 -3.107575893402099609e+00 -2.010427117347717285e-01 -9.925855994224548340e-01 7.711513638496398926e-01
1.400000000000000000e+02 2.091246414184570312e+01 3.037189483642578125e+00 -1.451184004545211792e-01 -1.753319427371025085e-02 -4.879547655582427979e-02 3.723856508731842041e-01
1.410000000000000000e+02 1.943872451782226562e+01 3.138975620269775391e+00 3.369062244892120361e-01 -1.028630733489990234e-01 7.021294534206390381e-02 4.803633093833923340e-01
1.420000000000000000e+02 2.023234558105468750e+01 3.826456785202026367e+00 -1.777685046195983887e+00 1.100420504808425903e-01 -5.002928972244262695e-01 3.995766937732696533e-01
1.430000000000000000e+02 2.338276290893554688e+01 2.962652921676635742e+00 -2.004216611385345459e-01 -2.854048609733581543e-01 -1.457479596138000488e-01 3.374913334846496582e-01
1.440000000000000000e+02 2.264334869384765625e+01 2.863679885864257812e+00 -3.012551069259643555e-01 -1.215153634548187256e-01 -1.268311291933059692e-01 3.768067657947540283e-01
1.450000000000000000e+02 2.270840263366699219e+01 3.601070642471313477e+00 -3.978324532508850098e-01 -2.035336047410964966e-01 -1.804098188877105713e-01 1.757691949605941772e-01
1.460000000000000000e+02 2.175264739990234375e+01 2.959368467330932617e+00 -2.797084748744964600e-01 -7.140764594078063965e-02 -1.053348332643508911e-01 4.050859510898590088e-01
1.470000000000000000e+02 2.181952476501464844e+01 3.696549654006958008e+00 -8.213288187980651855e-01 1.008430644869804382e-01 -2.161457389593124390e-01 2.994078099727630615e-01
1.480000000000000000e+02 2.251446151733398438e+01 4.627945423126220703e+00 -1.015644818544387817e-01 4.887327551841735840e-02 -1.580736227333545685e-02 -5.885528400540351868e-02
1.490000000000000000e+02 2.351535415649414062e+01 5.272481441497802734e+00 -1.230605095624923706e-01 -1.084071099758148193e-01 -6.944028288125991821e-02 -1.266956180334091187e-01
1.500000000000000000e+02 2.182980918884277344e+01 5.243100166320800781e+00 -2.328622043132781982e-01 2.777614630758762360e-02 -6.152581796050071716e-02 -1.194009333848953247e-01
1.510000000000000000e+02 2.247423362731933594e+01 5.229226112365722656e+00 -2.243116945028305054e-01 2.724974416196346283e-02 -5.911858752369880676e-02 -1.134173944592475891e-01
1.520000000000000000e+02 2.183705139160156250e+01 4.497415542602539062e+00 -1.981528550386428833e-01 3.803448344115167856e-04 -5.933175608515739441e-02 -2.614993229508399963e-02
1.530000000000000000e+02 2.288488769531250000e+01 5.190820693969726562e+00 -1.364616006612777710e-01 -5.086361244320869446e-02 -5.619756504893302917e-02 -8.491065353155136108e-02
1.540000000000000000e+02 2.318619728088378906e+01 5.324548721313476562e+00 -1.289674341678619385e-01 -3.070746175944805145e-02 -4.790246859192848206e-02 -1.017123758792877197e-01
1.550000000000000000e+02 2.317033004760742188e+01 4.731772899627685547e+00 -1.141423881053924561e-01 -3.505004197359085083e-02 -4.475773125886917114e-02 -6.377237290143966675e-02
1.560000000000000000e+02 2.294223785400390625e+01 4.251420497894287109e+00 -4.586465656757354736e-02 -1.187560986727476120e-02 -1.732208020985126495e-02 -4.687458649277687073e-02
1.570000000000000000e+02 2.310712242126464844e+01 5.102261543273925781e+00 -1.144471466541290283e-01 -4.603638872504234314e-02 -4.814505949616432190e-02 -9.516359865665435791e-02
1.580000000000000000e+02 2.365458869934082031e+01 5.207394123077392578e+00 -6.174603104591369629e-02 -1.626609861850738525e-01 -6.732210516929626465e-02 -9.893059730529785156e-02
1.590000000000000000e+02 2.291119003295898438e+01 4.889540195465087891e+00 -1.329197585582733154e-01 -5.690113082528114319e-02 -5.694627016782760620e-02 -7.005476951599121094e-02
1.600000000000000000e+02 2.334641265869140625e+01 5.053529262542724609e+00 -8.604664355516433716e-02 -1.947363838553428650e-02 -3.165608644485473633e-02 -7.790581881999969482e-02
1.610000000000000000e+02 2.348650550842285156e+01 4.675466537475585938e+00 -6.028643995523452759e-02 -7.052171230316162109e-02 -3.924244642257690430e-02 -4.644349589943885803e-02
1.620000000000000000e+02 2.122451591491699219e+01 6.819976329803466797e+00 -2.322077006101608276e-01 1.180162206292152405e-01 -3.425744175910949707e-02 -8.886790275573730469e-02
1.630000000000000000e+02 2.103931427001953125e+01 1.037267780303955078e+01 1.827895790338516235e-01 1.858741492033004761e-01 1.105991229414939880e-01 1.282768696546554565e-01
1.640000000000000000e+02 1.991580390930175781e+01 9.557695388793945312e+00 7.996968179941177368e-02 7.714549452066421509e-02 4.713455215096473694e-02 1.366818100214004517e-01
1.650000000000000000e+02 1.881742095947265625e+01 6.042851448059082031e+00 -2.959389090538024902e-01 6.819665431976318359e-02 -6.832268089056015015e-02 -9.103777259588241577e-02
1.660000000000000000e+02 1.743497848510742188e+01 6.183660507202148438e+00 -9.342812746763229370e-02 8.076389878988265991e-02 -3.799268277361989021e-03 -5.507706478238105774e-02
1.670000000000000000e+02 2.378982734680175781e+01 5.656595230102539062e+00 -1.269023567438125610e-01 -1.744056642055511475e-01 -9.039240330457687378e-02 -1.574061959981918335e-01
1.680000000000000000e+02 2.315371513366699219e+01 6.709752559661865234e+00 -2.880890965461730957e-01 2.745499834418296814e-02 -7.819022983312606812e-02 -1.469730287790298462e-01
1.690000000000000000e+02 2.681764793395996094e+01 9.636182785034179688e+00 -4.296196401119232178e-01 -3.503758311271667480e-01 -2.339986413717269897e-01 -3.655816912651062012e-01
1.700000000000000000e+02 2.485149765014648438e+01 1.348702907562255859e+01 2.489750683307647705e-01 7.015815377235412598e-01 2.851669788360595703e-01 3.160263597965240479e-01
1.710000000000000000e+02 2.531232452392578125e+01 1.479041767120361328e+01 1.694525964558124542e-02 5.975689888000488281e-01 1.843542754650115967e-01 4.448067545890808105e-01
1.720000000000000000e+02 2.519563484191894531e+01 9.854260444641113281e+00 -3.293918967247009277e-01 -3.273547068238258362e-02 -1.086382120847702026e-01 -1.082742959260940552e-01
1.730000000000000000e+02 2.901146697998046875e+01 1.133534336090087891e+01 -4.427184462547302246e-01 -3.998273909091949463e-01 -2.527637481689453125e-01 -3.493310809135437012e-01
1.740000000000000000e+02 2.862486076354980469e+01 1.233992195129394531e+01 -3.907742500305175781e-01 -2.966993153095245361e-01 -2.062420696020126343e-01 -2.545277476310729980e-01
1.750000000000000000e+02 2.807638359069824219e+01 1.611865806579589844e+01 -7.823543548583984375e-01 7.628525048494338989e-02 -2.118207365274429321e-01 4.322312474250793457e-01
1.760000000000000000e+02 2.807319641113281250e+01 1.994468879699707031e+01 -7.969186305999755859e-01 4.981151223182678223e-02 -2.241321355104446411e-01 2.721028029918670654e-01
1.770000000000000000e+02 2.775025749206542969e+01 2.393599510192871094e+01 -2.065278440713882446e-01 -5.035195499658584595e-02 -7.706394046545028687e-02 2.130640745162963867e-01
1.780000000000000000e+02 2.940007400512695312e+01 2.858681488037109375e+01 2.225928604602813721e-01 1.258176565170288086e-01 1.045231521129608154e-01 9.653023630380630493e-02
1.790000000000000000e+02 2.912258911132812500e+01 3.094548988342285156e+01 3.176339864730834961e-01 1.881905645132064819e-01 1.517473608255386353e-01 6.920216232538223267e-02
1.800000000000000000e+02 2.984061241149902344e+01 3.363370895385742188e+01 4.004258811473846436e-01 2.872746288776397705e-01 2.063101530075073242e-01 1.895271055400371552e-02
1.810000000000000000e+02 3.119474792480468750e+01 3.678209304809570312e+01 4.686509072780609131e-01 5.240811109542846680e-01 2.978196144104003906e-01 -2.728438749909400940e-02
1.820000000000000000e+02 3.229371261596679688e+01 4.047304153442382812e+01 4.888886511325836182e-01 6.862815022468566895e-01 3.525510430335998535e-01 -1.721832342445850372e-02
1.830000000000000000e+02 2.736314010620117188e+01 4.085716629028320312e+01 4.912802278995513916e-01 2.142029702663421631e-01 2.116449624300003052e-01 1.862704940140247345e-02
1.840000000000000000e+02 2.691758728027343750e+01 3.757882690429687500e+01 4.641467630863189697e-01 1.839744001626968384e-01 1.944363564252853394e-01 5.996990948915481567e-02
1.850000000000000000e+02 2.636783027648925781e+01 3.432764816284179688e+01 3.903260529041290283e-01 1.215640306472778320e-01 1.535670310258865356e-01 9.677813202142715454e-02
1.860000000000000000e+02 2.607463645935058594e+01 3.109934043884277344e+01 2.835887074470520020e-01 2.297412417829036713e-02 9.196884930133819580e-02 1.385830491781234741e-01
1.870000000000000000e+02 2.445099830627441406e+01 2.677532958984375000e+01 3.530953451991081238e-02 -1.233675777912139893e-01 -2.641741372644901276e-02 2.249772995710372925e-01
1.880000000000000000e+02 2.607842254638671875e+01 2.478911018371582031e+01 -1.379177123308181763e-01 -8.163966983556747437e-02 -6.586721539497375488e-02 2.174736857414245605e-01
1.890000000000000000e+02 2.658063507080078125e+01 1.948511695861816406e+01 -7.493457794189453125e-01 -4.486172273755073547e-02 -2.382622510194778442e-01 2.187660038471221924e-01
1.900000000000000000e+02 2.453495597839355469e+01 1.691165733337402344e+01 -1.582834005355834961e+00 -3.318936526775360107e-01 -5.744183063507080078e-01 3.379242420196533203e-01
1.910000000000000000e+02 2.690455627441406250e+01 1.612096595764160156e+01 -7.898916602134704590e-01 2.203104197978973389e-01 -1.708743721246719360e-01 5.347186326980590820e-01
1.920000000000000000e+02 3.111562538146972656e+01 1.305239009857177734e+01 -8.671269416809082031e-01 -2.908093929290771484e-01 -3.473809063434600830e-01 -3.986096084117889404e-01
1.930000000000000000e+02 3.146170425415039062e+01 1.499994754791259766e+01 -1.472244977951049805e+00 -6.035928055644035339e-02 -4.597812891006469727e-01 1.311746239662170410e-01
1.940000000000000000e+02 3.349491500854492188e+01 1.608345222473144531e+01 -1.293449759483337402e+00 -4.462943971157073975e-01 -5.219232439994812012e-01 3.851266205310821533e-01
1.950000000000000000e+02 3.156290817260742188e+01 2.340667915344238281e+01 -1.773948669433593750e-01 6.611068546772003174e-02 -3.338525816798210144e-02 1.645987927913665771e-01
1.960000000000000000e+02 3.221772384643554688e+01 2.560960960388183594e+01 1.022117063403129578e-01 2.245305329561233521e-01 9.802266955375671387e-02 6.065101176500320435e-02
1.970000000000000000e+02 3.267970275878906250e+01 3.233423614501953125e+01 3.973889946937561035e-01 4.801334738731384277e-01 2.632567286491394043e-01 -4.038783535361289978e-02
1.980000000000000000e+02 3.427437591552734375e+01 3.482506561279296875e+01 4.373583495616912842e-01 8.170402646064758301e-01 3.763195872306823730e-01 -9.557205438613891602e-02
1.990000000000000000e+02 3.764729690551757812e+01 3.607423400878906250e+01 3.840298652648925781e-01 1.295734047889709473e+00 5.039291381835937500e-01 -1.687956005334854126e-01
2.000000000000000000e+02 3.367141723632812500e+01 1.451431846618652344e+01 -2.646932601928710938e+00 -3.863568007946014404e-01 -9.099868535995483398e-01 -4.167818930000066757e-03
2.010000000000000000e+02 3.570628356933593750e+01 1.383822917938232422e+01 -2.459325790405273438e+00 -7.309784293174743652e-01 -9.570912718772888184e-01 9.723859429359436035e-01
2.020000000000000000e+02 3.709696197509765625e+01 1.322592926025390625e+01 -1.240154504776000977e+00 -2.371960729360580444e-01 -4.432051777839660645e-01 7.560160160064697266e-01
2.030000000000000000e+02 3.665363311767578125e+01 1.374195671081542969e+01 -2.307812690734863281e+00 -2.779884040355682373e-01 -7.757403254508972168e-01 7.637758851051330566e-01
2.040000000000000000e+02 3.842503738403320312e+01 1.307581520080566406e+01 -1.105606675148010254e+00 1.058956012129783630e-01 -2.999133467674255371e-01 4.415498673915863037e-01
2.050000000000000000e+02 4.007354736328125000e+01 1.675608062744140625e+01 -9.193584322929382324e-01 5.012289881706237793e-01 -1.254388242959976196e-01 -7.581926137208938599e-02
2.060000000000000000e+02 4.051551055908203125e+01 1.948958206176757812e+01 -2.366535216569900513e-01 6.838436722755432129e-01 1.341570466756820679e-01 -3.368856310844421387e-01
2.070000000000000000e+02 4.074131774902343750e+01 2.682294845581054688e+01 2.376375794410705566e-01 1.408866167068481445e+00 4.939511418342590332e-01 -5.724849700927734375e-01
2.080000000000000000e+02 4.073813629150390625e+01 2.917408561706542969e+01 2.731318473815917969e-01 1.586392760276794434e+00 5.578573942184448242e-01 -5.254696011543273926e-01
2.090000000000000000e+02 4.106615447998046875e+01 3.222347640991210938e+01 2.559870779514312744e-01 1.781870007514953613e+00 6.113571524620056152e-01 -4.391736984252929688e-01
2.100000000000000000e+02 4.193550872802734375e+01 3.588712692260742188e+01 2.176861464977264404e-01 2.112042665481567383e+00 6.989186406135559082e-01 -2.861168682575225830e-01
2.110000000000000000e+02 4.251176452636718750e+01 4.018306732177734375e+01 2.034087777137756348e-01 2.262308597564697266e+00 7.397152185440063477e-01 -1.111024022102355957e-01
2.120000000000000000e+02 3.737714004516601562e+01 4.027494049072265625e+01 4.030890762805938721e-01 1.309200763702392578e+00 5.136869549751281738e-01 -5.884186923503875732e-02
2.130000000000000000e+02 3.809279251098632812e+01 3.237934112548828125e+01 3.481023609638214111e-01 1.286927700042724609e+00 4.905090034008026123e-01 -3.095031976699829102e-01
2.140000000000000000e+02 3.346167755126953125e+01 2.781833076477050781e+01 2.271740287542343140e-01 4.020527601242065430e-01 1.887680292129516602e-01 -2.920010685920715332e-02
2.150000000000000000e+02 3.549172210693359375e+01 2.624746322631835938e+01 1.850145608186721802e-01 5.568788647651672363e-01 2.225680202245712280e-01 -1.550419032573699951e-01
2.160000000000000000e+02 3.540280151367187500e+01 2.266734695434570312e+01 -4.287407174706459045e-02 2.638548314571380615e-01 6.629422307014465332e-02 -5.572030320763587952e-02
2.170000000000000000e+02 3.681578826904296875e+01 1.966089820861816406e+01 -3.597662746906280518e-01 1.377951055765151978e-01 -6.659135222434997559e-02 -8.928950130939483643e-02
2.180000000000000000e+02 3.604973220825195312e+01 1.533778858184814453e+01 -1.538684725761413574e+00 -2.756628394126892090e-01 -5.443042516708374023e-01 1.299067288637161255e-01
2.190000000000000000e+02 3.851495742797851562e+01 1.381712722778320312e+01 -1.310773134231567383e+00 2.614980638027191162e-01 -3.147825300693511963e-01 3.223178088665008545e-01
2.200000000000000000e+02 4.422997283935546875e+01 1.315398406982421875e+01 -1.185667634010314941e+00 -1.720319390296936035e-01 -4.073098897933959961e-01 -4.874576926231384277e-01
2.210000000000000000e+02 4.436035919189453125e+01 1.620224571228027344e+01 -5.056807398796081543e-01 3.759428858757019043e-01 -3.892135992646217346e-02 -1.921478845179080963e-02
2.220000000000000000e+02 4.303462982177734375e+01 2.864319229125976562e+01 1.993552893400192261e-01 2.066320657730102539e+00 6.797028183937072754e-01 -6.604594588279724121e-01
2.230000000000000000e+02 4.368220520019531250e+01 3.129854965209960938e+01 1.370304673910140991e-01 2.334426641464233398e+00 7.414370775222778320e-01 -5.209871530532836914e-01
2.240000000000000000e+02 4.523488235473632812e+01 3.423144149780273438e+01 6.746457517147064209e-02 2.757966041564941406e+00 8.476291894912719727e-01 -3.631486892700195312e-01
2.250000000000000000e+02 4.838101959228515625e+01 3.602811050415039062e+01 -7.043822854757308960e-02 3.384564399719238281e+00 9.942378401756286621e-01 -2.863623201847076416e-01
2.260000000000000000e+02 4.484172821044921875e+01 1.499632453918457031e+01 -1.692932724952697754e+00 2.960832118988037109e-01 -4.190548658370971680e-01 -3.227523863315582275e-01
2.270000000000000000e+02 4.642781066894531250e+01 1.448754787445068359e+01 -2.279061555862426758e+00 -9.701604843139648438e-01 -9.747666120529174805e-01 -1.119197845458984375e+00
2.280000000000000000e+02 5.060176467895507812e+01 1.432667732238769531e+01 3.976242065429687500e+00 2.048921394348144531e+01 7.339636802673339844e+00 -3.925984859466552734e+00
2.290000000000000000e+02 4.682470321655273438e+01 1.679961967468261719e+01 7.327774763107299805e-01 1.060500264167785645e+00 5.379832983016967773e-01 -1.562313318252563477e+00
2.300000000000000000e+02 4.882175827026367188e+01 1.652877044677734375e+01 4.021242260932922363e-01 3.893236398696899414e+00 1.288608193397521973e+00 -3.438595294952392578e+00
2.310000000000000000e+02 4.631559371948242188e+01 2.250521850585937500e+01 2.671057917177677155e-02 2.884587764739990234e+00 8.733895421028137207e-01 -1.253359556198120117e+00
2.320000000000000000e+02 4.572355651855468750e+01 3.006447410583496094e+01 9.362076409161090851e-03 2.895089626312255859e+00 8.713355064392089844e-01 -5.490056276321411133e-01
2.330000000000000000e+02 4.709911727905273438e+01 3.193545913696289062e+01 -4.985543340444564819e-02 3.218064308166503906e+00 9.504626393318176270e-01 -5.128081440925598145e-01
2.340000000000000000e+02 4.916033172607421875e+01 3.286355590820312500e+01 -1.521215140819549561e-01 3.716490268707275391e+00 1.069310665130615234e+00 -4.261108934879302979e-01
2.350000000000000000e+02 4.763781738281250000e+01 4.017185592651367188e+01 -1.285267341881990433e-02 3.202749013900756836e+00 9.569688439369201660e-01 -1.046437844634056091e-01
2.360000000000000000e+02 4.403127670288085938e+01 1.194699096679687500e+01 -7.820722460746765137e-01 -3.113842010498046875e-01 -3.280369341373443604e-01 -4.850352704524993896e-01
2.370000000000000000e+02 4.758862686157226562e+01 1.537155818939208984e+01 -1.068140506744384766e+00 -3.145525157451629639e-01 -4.148078858852386475e-01 -2.018297672271728516e+00
2.380000000000000000e+02 5.086960983276367188e+01 1.205652999877929688e+01 2.120095491409301758e+00 2.551010322570800781e+01 8.289059638977050781e+00 7.167825102806091309e-01
2.390000000000000000e+02 5.217201232910156250e+01 1.163935852050781250e+01 3.902327060699462891e+00 1.545565605163574219e+01 5.807394981384277344e+00 9.598399996757507324e-01
2.400000000000000000e+02 5.060754394531250000e+01 1.067156028747558594e+01 2.344191312789916992e+00 2.287265014648437500e+01 7.565052509307861328e+00 4.349351406097412109e+00
2.410000000000000000e+02 5.011309814453125000e+01 7.396220684051513672e+00 3.910868167877197266e-01 1.234302520751953125e+01 3.820233583450317383e+00 2.206740856170654297e+00
2.420000000000000000e+02 5.214587402343750000e+01 7.427977561950683594e+00 -5.601220130920410156e-01 1.439165306091308594e+01 4.149459362030029297e+00 -4.805348217487335205e-01
2.430000000000000000e+02 4.929241561889648438e+01 4.524461269378662109e+00 2.637275218963623047e+00 6.837132453918457031e+00 2.842322349548339844e+00 1.733789086341857910e+00
2.440000000000000000e+02 4.878590393066406250e+01 -6.370399594306945801e-01 6.689533591270446777e-01 2.551602840423583984e+00 9.661669135093688965e-01 2.950651168823242188e+00
2.450000000000000000e+02 4.483591842651367188e+01 -3.601682901382446289e+00 2.680518150329589844e+00 1.284530448913574219e+01 4.657746791839599609e+00 4.045596599578857422e+00
2.460000000000000000e+02 4.666711807250976562e+01 -2.932155609130859375e+00 -2.066953659057617188e+00 8.729256391525268555e-01 -3.582083880901336670e-01 3.509897470474243164e+00
2.470000000000000000e+02 4.551253128051757812e+01 -2.387844324111938477e+00 1.520383805036544800e-01 6.660750865936279297e+00 2.043836832046508789e+00 5.245304584503173828e+00
2.480000000000000000e+02 4.937794876098632812e+01 -3.647533416748046875e+00 -7.465791225433349609e+00 -1.032908558845520020e+00 -2.549609899520874023e+00 2.518520593643188477e+00
2.490000000000000000e+02 5.164347839355468750e+01 -5.591483116149902344e+00 -1.438706755638122559e+00 1.323933124542236328e+00 -3.443208336830139160e-02 -6.748665124177932739e-02
2.500000000000000000e+02 5.337876129150390625e+01 -7.836885452270507812e+00 9.169354438781738281e-01 4.571017265319824219e+00 1.646385788917541504e+00 -2.134995937347412109e+00
2.510000000000000000e+02 5.490689468383789062e+01 -1.025207233428955078e+01 1.277742385864257812e+00 7.868968486785888672e+00 2.744013309478759766e+00 -2.608847618103027344e+00
2.520000000000000000e+02 5.580664443969726562e+01 -1.311921024322509766e+01 4.805962741374969482e-01 1.191443443298339844e+01 3.718509197235107422e+00 -2.080091238021850586e+00
2.530000000000000000e+02 6.879740142822265625e+01 -2.313525199890136719e+01 4.986250996589660645e-01 5.084698677062988281e+00 1.674997091293334961e+00 1.839243806898593903e-02
2.540000000000000000e+02 7.927152252197265625e+01 -3.057149314880371094e+01 -2.109120786190032959e-02 8.036427497863769531e+00 2.404600858688354492e+00 2.335800975561141968e-02
2.550000000000000000e+02 7.778237152099609375e+01 -3.181401824951171875e+01 -4.492572916205972433e-04 7.718531608581542969e+00 2.315424680709838867e+00 4.591769725084304810e-02
2.560000000000000000e+02 7.928868103027343750e+01 -2.918592834472656250e+01 3.334039077162742615e-02 8.095886230468750000e+00 2.438768148422241211e+00 2.934832684695720673e-02
2.570000000000000000e+02 7.794953918457031250e+01 -2.764296531677246094e+01 4.462199658155441284e-02 7.850605487823486328e+00 2.368568420410156250e+00 1.003736630082130432e-01
2.580000000000000000e+02 7.542305755615234375e+01 -2.479026794433593750e+01 4.218376055359840393e-02 7.314894199371337891e+00 2.207123279571533203e+00 2.600186765193939209e-01
2.590000000000000000e+02 7.109176635742187500e+01 -2.138096427917480469e+01 3.161153495311737061e-01 5.582662105560302734e+00 1.769633293151855469e+00 6.574851870536804199e-01
2.600000000000000000e+02 6.658152008056640625e+01 -1.732695579528808594e+01 -1.044887453317642212e-01 2.807013750076293945e+00 8.107575178146362305e-01 -1.460286021232604980e+00
2.610000000000000000e+02 6.728148651123046875e+01 -1.423680496215820312e+01 -5.138714313507080078e-01 6.405992507934570312e-01 3.801835328340530396e-02 -5.787541344761848450e-02
2.620000000000000000e+02 6.630725097656250000e+01 -1.326844406127929688e+01 6.979338824748992920e-02 1.368061423301696777e+00 4.313564598560333252e-01 -6.532244086265563965e-01
2.630000000000000000e+02 6.534578704833984375e+01 -1.231711196899414062e+01 6.391494274139404297e-01 2.795557498931884766e+00 1.030412077903747559e+00 -1.348688364028930664e+00
2.640000000000000000e+02 6.360128402709960938e+01 -1.268630313873291016e+01 -1.641774773597717285e-01 6.238988876342773438e+00 1.822443366050720215e+00 -7.590801119804382324e-01
2.650000000000000000e+02 6.329556655883789062e+01 -1.080082130432128906e+01 7.212879061698913574e-01 7.576962471008300781e+00 2.489475011825561523e+00 -1.169198870658874512e+00
2.660000000000000000e+02 6.213190460205078125e+01 -7.019976615905761719e+00 8.131608366966247559e-01 1.052108097076416016e+01 3.400272607803344727e+00 1.860607266426086426e-01
2.670000000000000000e+02 5.669018554687500000e+01 -3.402798652648925781e+00 -7.875960469245910645e-01 5.338566780090332031e+00 1.365291237831115723e+00 -3.549427270889282227e+00
2.680000000000000000e+02 5.486806869506835938e+01 -2.645510733127593994e-01 -2.521559953689575195e+00 1.126155376434326172e+01 2.621998310089111328e+00 -6.604728698730468750e+00
2.690000000000000000e+02 5.286159896850585938e+01 9.638831615447998047e-01 2.148405075073242188e+00 1.064021778106689453e+01 3.836586713790893555e+00 -3.639097213745117188e-01
2.700000000000000000e+02 5.348111343383789062e+01 2.200226306915283203e+00 5.297543048858642578e+00 1.793348121643066406e+01 6.969306945800781250e+00 -3.044950246810913086e+00
2.710000000000000000e+02 5.386700820922851562e+01 3.500111579895019531e+00 3.165105819702148438e+00 2.355909347534179688e+01 8.017259597778320312e+00 -2.084252595901489258e+00
2.720000000000000000e+02 5.456632232666015625e+01 6.111072540283203125e+00 1.026511549949645996e+00 1.297260761260986328e+01 4.199735641479492188e+00 2.580217123031616211e+00
2.730000000000000000e+02 5.480485534667968750e+01 1.206992530822753906e+01 2.118637800216674805e+00 7.555171966552734375e+00 2.902142763137817383e+00 1.839057326316833496e+00
2.740000000000000000e+02 5.408924102783203125e+01 4.815016269683837891e+00 1.019767403602600098e+00 1.901475334167480469e+01 6.010356426239013672e+00 2.179628610610961914e+00
2.750000000000000000e+02 4.999045562744140625e+01 9.336957931518554688e+00 2.753587961196899414e+00 1.552669334411621094e+01 5.484084129333496094e+00 4.865371227264404297e+00
2.760000000000000000e+02 4.819418716430664062e+01 7.077119827270507812e+00 1.925572276115417480e+00 5.060515403747558594e+00 2.095826387405395508e+00 2.706717252731323242e+00
2.770000000000000000e+02 4.652069091796875000e+01 3.144572257995605469e+00 2.523132801055908203e+00 2.742674350738525391e+00 1.579742193222045898e+00 2.904239416122436523e+00
2.780000000000000000e+02 4.350225830078125000e+01 1.539507269859313965e+00 9.786397218704223633e-01 2.909333705902099609e+00 1.166392087936401367e+00 2.054816722869873047e+00
2.790000000000000000e+02 3.853430557250976562e+01 -5.384168624877929688e-01 5.460848212242126465e-01 -3.001566603779792786e-02 1.548207551240921021e-01 -5.016756653785705566e-01
2.800000000000000000e+02 3.968810653686523438e+01 -3.361888825893402100e-01 1.896369457244873047e-01 5.432383343577384949e-02 7.318823039531707764e-02 -6.568194031715393066e-01
2.810000000000000000e+02 3.923521041870117188e+01 -3.111392498016357422e+00 1.361312150955200195e+00 -1.893241554498672485e-01 3.515964150428771973e-01 -6.918938159942626953e-01
2.820000000000000000e+02 3.830690002441406250e+01 -2.239381551742553711e+00 1.013791084289550781e+00 -4.484249353408813477e-01 1.696098595857620239e-01 -6.877954602241516113e-01
2.830000000000000000e+02 3.858488845825195312e+01 -7.552995204925537109e+00 -8.930977582931518555e-01 -2.181850910186767578e+00 -9.224846363067626953e-01 1.563155770301818848e+00
2.840000000000000000e+02 3.927695846557617188e+01 -8.740903854370117188e+00 -9.714468121528625488e-01 -1.227715373039245605e+00 -6.597486138343811035e-01 1.459173679351806641e+00
2.850000000000000000e+02 3.974405670166015625e+01 -7.079888820648193359e+00 -2.773606181144714355e-01 4.126438498497009277e-01 4.058496654033660889e-02 9.651051759719848633e-01
2.860000000000000000e+02 4.172140502929687500e+01 -1.067719268798828125e+01 -1.236557364463806152e+00 5.380469322204589844e+00 1.243173599243164062e+00 1.796070814132690430e+00
2.870000000000000000e+02 4.336154937744140625e+01 -1.293756961822509766e+01 -4.253905117511749268e-01 5.207564353942871094e+00 1.434652090072631836e+00 1.487399816513061523e+00
2.880000000000000000e+02 4.703221511840820312e+01 -1.225195884704589844e+01 -5.733515620231628418e-01 1.010707616806030273e+00 1.312068253755569458e-01 7.487466931343078613e-02
2.890000000000000000e+02 4.883760833740234375e+01 -1.665887641906738281e+01 -1.210389494895935059e+00 4.079002737998962402e-01 -2.407467663288116455e-01 2.633827626705169678e-01
2.900000000000000000e+02 5.531779861450195312e+01 -2.289986419677734375e+01 -8.558493852615356445e-01 3.856552124023437500e+00 9.002108573913574219e-01 1.835408926010131836e+00
2.910000000000000000e+02 5.847812652587890625e+01 -2.633290672302246094e+01 -6.145849227905273438e-01 5.299119949340820312e+00 1.405360460281372070e+00 2.085052281618118286e-01
2.920000000000000000e+02 6.107788848876953125e+01 -3.042791175842285156e+01 -2.495951503515243530e-01 4.934570312500000000e+00 1.405492544174194336e+00 -2.323798649013042450e-02
2.930000000000000000e+02 6.523017120361328125e+01 -3.358251190185546875e+01 -2.432034816592931747e-03 5.452692031860351562e+00 1.635077953338623047e+00 -6.022222712635993958e-02
2.940000000000000000e+02 6.789434814453125000e+01 -3.741653823852539062e+01 4.553201794624328613e-02 5.907152175903320312e+00 1.785805225372314453e+00 1.145033817738294601e-02
2.950000000000000000e+02 7.194750213623046875e+01 -4.090624237060546875e+01 3.811395913362503052e-02 6.642338752746582031e+00 2.004135847091674805e+00 7.692684419453144073e-03
2.960000000000000000e+02 7.504598236083984375e+01 -4.021739959716796875e+01 3.404351696372032166e-02 7.176420211791992188e+00 2.163139104843139648e+00 -3.305718302726745605e-02
2.970000000000000000e+02 7.797636413574218750e+01 -4.163090515136718750e+01 6.275151669979095459e-02 7.658933639526367188e+00 2.316505670547485352e+00 1.750314794480800629e-02
2.980000000000000000e+02 7.925634765625000000e+01 -3.743643951416015625e+01 -1.788814738392829895e-02 7.817296028137207031e+00 2.339822292327880859e+00 3.197101131081581116e-02
2.990000000000000000e+02 7.750177001953125000e+01 -3.803078842163085938e+01 -2.022654563188552856e-02 7.577675342559814453e+00 2.267234563827514648e+00 6.384517252445220947e-02
3.000000000000000000e+02 7.932244873046875000e+01 -3.473339843750000000e+01 -8.905062451958656311e-03 7.917771339416503906e+00 2.372659921646118164e+00 2.070691064000129700e-02
3.010000000000000000e+02 7.796481323242187500e+01 -3.457015609741210938e+01 -1.258726511150598526e-02 7.686803340911865234e+00 2.302264690399169922e+00 2.853244170546531677e-02
3.020000000000000000e+02 7.445237731933593750e+01 -3.184013175964355469e+01 4.676381871104240417e-02 7.022197723388671875e+00 2.120688438415527344e+00 6.109606847167015076e-02
3.030000000000000000e+02 7.186249542236328125e+01 -2.606848335266113281e+01 2.253865599632263184e-01 6.214082717895507812e+00 1.931840777397155762e+00 1.595508009195327759e-01
3.040000000000000000e+02 6.866332244873046875e+01 -2.550165748596191406e+01 3.239070773124694824e-01 5.522559165954589844e+00 1.753939867019653320e+00 -6.286051124334335327e-02
3.050000000000000000e+02 5.972323989868164062e+01 -1.701555252075195312e+01 7.452641129493713379e-01 8.012275695800781250e+00 2.627262115478515625e+00 -8.921803236007690430e-01
3.060000000000000000e+02 5.635247039794921875e+01 -1.713549232482910156e+01 1.249773025512695312e+00 1.410925197601318359e+01 4.607707500457763672e+00 1.017323136329650879e+00
3.070000000000000000e+02 5.716600799560546875e+01 -1.416249465942382812e+01 7.524430155754089355e-01 1.118694496154785156e+01 3.581816434860229492e+00 -6.126752495765686035e-01
3.080000000000000000e+02 5.797649002075195312e+01 -1.635832595825195312e+01 1.386117815971374512e+00 9.180691719055175781e+00 3.170042753219604492e+00 -1.964890360832214355e-01
3.090000000000000000e+02 5.838904953002929688e+01 -1.755613136291503906e+01 8.187744021415710449e-01 8.589290618896484375e+00 2.822419404983520508e+00 -9.496151208877563477e-01
3.100000000000000000e+02 5.686721801757812500e+01 -1.834480857849121094e+01 1.673681139945983887e+00 1.095089626312255859e+01 3.787373304367065430e+00 4.921451508998870850e-01
3.110000000000000000e+02 5.759301376342773438e+01 -2.252657318115234375e+01 -1.427250266075134277e+00 5.851519584655761719e+00 1.327280759811401367e+00 9.518490731716156006e-02
3.120000000000000000e+02 5.304266357421875000e+01 -1.880030632019042969e+01 -3.134416103363037109e+00 -1.366588473320007324e+00 -1.350301384925842285e+00 1.572118401527404785e+00
3.130000000000000000e+02 4.978002166748046875e+01 -1.779024887084960938e+01 -1.377091050148010254e+00 2.790869772434234619e-01 -3.294012248516082764e-01 4.189300537109375000e-01
3.140000000000000000e+02 3.620492935180664062e+01 8.757225275039672852e-01 7.557436227798461914e-01 -3.716354370117187500e-01 1.152324602007865906e-01 -8.078476041555404663e-02
3.150000000000000000e+02 3.794680404663085938e+01 5.010194182395935059e-01 7.144824266433715820e-01 -2.597729563713073730e-01 1.364128440618515015e-01 -2.816769182682037354e-01
3.160000000000000000e+02 3.343604660034179688e+01 -1.178047060966491699e+00 1.154439806938171387e+00 1.196848526597023010e-01 3.822374045848846436e-01 -3.867515921592712402e-01
3.170000000000000000e+02 3.289632034301757812e+01 -1.591694205999374390e-01 1.698476910591125488e+00 -1.258378475904464722e-01 4.717917144298553467e-01 -6.925424188375473022e-02
3.180000000000000000e+02 3.436402130126953125e+01 -2.030151844024658203e+00 4.174386560916900635e-01 -1.892688721418380737e-01 6.845093518495559692e-02 -1.354819387197494507e-01
3.190000000000000000e+02 3.531269454956054688e+01 -2.965405464172363281e+00 1.004779785871505737e-01 -6.718306541442871094e-01 -1.714058071374893188e-01 2.195038646459579468e-01
3.200000000000000000e+02 3.713525390625000000e+01 -5.094949722290039062e+00 -3.402679860591888428e-01 -2.033575296401977539e+00 -7.121529579162597656e-01 9.704707264900207520e-01
3.210000000000000000e+02 3.776032257080078125e+01 2.407943010330200195e+00 -1.994849555194377899e-02 -6.084035634994506836e-01 -1.885056048631668091e-01 1.421369053423404694e-02
3.220000000000000000e+02 3.592300033569335938e+01 4.003346443176269531e+00 1.324883103370666504e-02 -4.923371132463216782e-03 2.497637877240777016e-03 2.758981883525848389e-01
3.230000000000000000e+02 3.021282768249511719e+01 4.565386772155761719e+00 -1.092156171798706055e+00 -2.481791675090789795e-01 -4.021005928516387939e-01 -5.824304223060607910e-01
3.240000000000000000e+02 3.318763351440429688e+01 4.780452251434326172e+00 -3.732827901840209961e-01 2.862584888935089111e-01 -2.610729448497295380e-02 1.790368854999542236e-01
3.250000000000000000e+02 2.903627967834472656e+01 3.789846897125244141e+00 -1.335684418678283691e+00 -5.083457827568054199e-01 -5.532090663909912109e-01 -9.289757609367370605e-01
3.260000000000000000e+02 2.785306358337402344e+01 3.164788246154785156e+00 -1.749884486198425293e+00 -6.508360505104064941e-01 -7.202161550521850586e-01 -8.341107964515686035e-01
3.270000000000000000e+02 2.704072380065917969e+01 2.598444700241088867e+00 -1.071921348571777344e+00 -3.297627270221710205e-01 -4.205052256584167480e-01 -8.180839419364929199e-01
3.280000000000000000e+02 3.812603378295898438e+01 3.629703760147094727e+00 1.607165671885013580e-02 -2.842651307582855225e-01 -8.045804500579833984e-02 -4.728069063276052475e-03
3.290000000000000000e+02 3.623000335693359375e+01 8.784345626831054688e+00 1.072223018854856491e-02 -1.227069925516843796e-02 -4.645409353543072939e-04 -1.054447982460260391e-02
3.300000000000000000e+02 3.762941360473632812e+01 9.409930229187011719e+00 -1.277736108750104904e-02 -5.545828491449356079e-03 -5.496956873685121536e-03 -2.549049211665987968e-03
3.310000000000000000e+02 3.618145370483398438e+01 9.593315124511718750e+00 -2.672938164323568344e-03 6.148434244096279144e-03 1.042648917064070702e-03 6.766977719962596893e-03
3.320000000000000000e+02 3.357619476318359375e+01 6.921773910522460938e+00 -2.522722482681274414e-01 -5.159496795386075974e-04 -7.583645731210708618e-02 -1.777698844671249390e-02
3.330000000000000000e+02 3.478029251098632812e+01 7.222703456878662109e+00 -1.625184863805770874e-01 2.246490493416786194e-02 -4.201607406139373779e-02 5.910109262913465500e-03
3.340000000000000000e+02 3.750460815429687500e+01 6.404961109161376953e+00 -5.083612352609634399e-02 -3.782062977552413940e-02 -2.659702673554420471e-02 4.520756751298904419e-02
3.350000000000000000e+02 3.619338989257812500e+01 7.935252189636230469e+00 -8.326002955436706543e-02 -3.764404391404241323e-04 -2.509094029664993286e-02 9.590296074748039246e-03
3.360000000000000000e+02 3.936753845214843750e+01 7.160339355468750000e+00 -3.697609156370162964e-02 -9.297917596995830536e-03 -1.388220302760601044e-02 8.042171597480773926e-03
3.370000000000000000e+02 4.041999435424804688e+01 8.718400955200195312e+00 -5.992072634398937225e-03 5.380533635616302490e-03 -1.834615832194685936e-04 -2.830457407981157303e-03
3.380000000000000000e+02 2.536852645874023438e+01 1.772075891494750977e+00 -4.673137366771697998e-01 -3.672884702682495117e-01 -2.503806650638580322e-01 -3.261141180992126465e-01
3.390000000000000000e+02 2.550813484191894531e+01 -2.107027322053909302e-01 8.011363148689270020e-01 -4.935293197631835938e-01 9.228210896253585815e-02 -2.409990876913070679e-01
3.400000000000000000e+02 2.465304565429687500e+01 -4.783768177032470703e+00 9.376028925180435181e-02 1.238017827272415161e-01 6.526862084865570068e-02 -2.868079952895641327e-02
3.410000000000000000e+02 2.527341461181640625e+01 -6.112932682037353516e+00 -2.170841675251722336e-03 3.772211074829101562e-01 1.125150769948959351e-01 2.427401021122932434e-02
3.420000000000000000e+02 2.641826248168945312e+01 -5.537059307098388672e+00 6.462612003087997437e-02 4.865821003913879395e-01 1.653624624013900757e-01 1.848065108060836792e-01
3.430000000000000000e+02 3.116300392150878906e+01 -6.702307224273681641e+00 2.309185266494750977e-02 2.277485132217407227e-01 7.525210827589035034e-02 5.428603384643793106e-03
3.440000000000000000e+02 3.205954742431640625e+01 -1.084163570404052734e+01 -3.813602924346923828e-01 8.161988854408264160e-02 -8.992212265729904175e-02 1.853347569704055786e-01
3.450000000000000000e+02 3.489016342163085938e+01 -1.244552040100097656e+01 -4.756129682064056396e-01 -3.688629865646362305e-01 -2.533427774906158447e-01 4.604663848876953125e-01
3.460000000000000000e+02 3.661756515502929688e+01 -1.451655387878417969e+01 -7.107285857200622559e-01 -5.292309522628784180e-01 -3.719878792762756348e-01 7.003016471862792969e-01
3.470000000000000000e+02 3.398155975341796875e+01 -1.143465995788574219e+01 -4.431338310241699219e-01 -2.900882959365844727e-01 -2.199666351079940796e-01 3.339256644248962402e-01
3.480000000000000000e+02 2.486607933044433594e+01 4.135669171810150146e-01 4.102647602558135986e-01 -5.085490942001342773e-01 -2.948530577123165131e-02 -1.914225816726684570e-01
3.490000000000000000e+02 2.413830757141113281e+01 1.868466019630432129e+00 -6.370140314102172852e-01 -7.513855695724487305e-01 -4.165198802947998047e-01 7.678196579217910767e-02
3.500000000000000000e+02 2.350568962097167969e+01 1.915061950683593750e+00 -3.205527663230895996e-01 -3.315348029136657715e-01 -1.956262737512588501e-01 1.230881363153457642e-01
3.510000000000000000e+02 2.257667350769042969e+01 2.013134479522705078e+00 1.466992944478988647e-01 -8.819917589426040649e-02 1.755003631114959717e-02 1.591860502958297729e-01
3.520000000000000000e+02 2.082584190368652344e+01 2.389486789703369141e+00 5.341473817825317383e-01 5.134803056716918945e-02 1.756486296653747559e-01 3.025731444358825684e-01
3.530000000000000000e+02 1.811588287353515625e+01 2.536445140838623047e+00 6.679211139678955078e+00 2.946992874145507812e+00 2.887861251831054688e+00 -3.845694065093994141e+00
3.540000000000000000e+02 1.953446960449218750e+01 2.430755138397216797e+00 2.336976051330566406e+00 -1.282851118594408035e-02 6.972442269325256348e-01 -5.542691946029663086e-01
3.550000000000000000e+02 2.041571617126464844e+01 7.744455933570861816e-01 1.854699969291687012e+00 1.120820641517639160e+00 8.926562070846557617e-01 -1.222895622253417969e+00
3.560000000000000000e+02 2.244614791870117188e+01 5.530449748039245605e-02 1.050977945327758789e+00 1.178513243794441223e-01 3.506487905979156494e-01 -6.166121959686279297e-01
3.570000000000000000e+02 2.231483840942382812e+01 1.069904565811157227e+00 6.653869152069091797e-01 -1.488102320581674576e-02 1.951517760753631592e-01 -2.382220923900604248e-01
3.580000000000000000e+02 2.308075523376464844e+01 -9.392182230949401855e-01 7.204678058624267578e-01 9.357956796884536743e-02 2.442142218351364136e-01 -5.450546145439147949e-01
3.590000000000000000e+02 2.595708084106445312e+01 -9.461767196655273438e+00 -1.296712011098861694e-01 6.859866380691528320e-01 1.668946295976638794e-01 1.192299798130989075e-01
3.600000000000000000e+02 2.339313316345214844e+01 -1.035272026062011719e+01 -4.276015460491180420e-01 -6.274116039276123047e-02 -1.471028178930282593e-01 1.508779376745223999e-01
3.610000000000000000e+02 2.463003158569335938e+01 -9.711819648742675781e+00 -3.226001858711242676e-01 3.000076711177825928e-01 -6.777758244425058365e-03 2.142245918512344360e-01
3.620000000000000000e+02 2.261097145080566406e+01 -9.292735099792480469e+00 -4.891556501388549805e-01 -9.039989858865737915e-02 -1.738666594028472900e-01 1.550567299127578735e-01
3.630000000000000000e+02 2.232452583312988281e+01 -1.147246932983398438e+01 -2.471419125795364380e-01 6.626450270414352417e-02 -5.426322296261787415e-02 1.515437941998243332e-02
3.640000000000000000e+02 2.276337814331054688e+01 -1.530782508850097656e+01 -2.326086163520812988e-01 2.205270379781723022e-01 -3.624475328251719475e-03 -5.068042501807212830e-02
3.650000000000000000e+02 2.176253700256347656e+01 -1.626894187927246094e+01 -1.429612785577774048e-01 2.291033565998077393e-01 2.584262751042842865e-02 -3.734437003731727600e-02
3.660000000000000000e+02 1.821788406372070312e+01 -1.947630691528320312e+01 -7.431198656558990479e-02 1.483017653226852417e-01 2.219693362712860107e-02 -1.433755010366439819e-01
3.670000000000000000e+02 1.907534790039062500e+01 -2.649981689453125000e+01 5.864623934030532837e-02 2.005685865879058838e-01 7.776445150375366211e-02 -1.546789705753326416e-01
3.680000000000000000e+02 2.174561119079589844e+01 -2.740698051452636719e+01 1.061872020363807678e-01 3.099189698696136475e-01 1.248318478465080261e-01 -1.149053275585174561e-01
3.690000000000000000e+02 1.998971366882324219e+01 -3.275254058837890625e+01 1.540343910455703735e-01 2.812950313091278076e-01 1.305988281965255737e-01 -8.864808082580566406e-02
3.700000000000000000e+02 1.862899780273437500e+01 -3.556874847412109375e+01 1.455602347850799561e-01 2.303975522518157959e-01 1.127873361110687256e-01 -7.626347988843917847e-02
3.710000000000000000e+02 1.596588611602783203e+01 -3.750860595703125000e+01 1.272071897983551025e-01 1.204461306333541870e-01 7.429599761962890625e-02 -5.686903372406959534e-02
3.720000000000000000e+02 1.720595359802246094e+01 -4.078836441040039062e+01 1.517068892717361450e-01 1.815294474363327026e-01 9.997090697288513184e-02 -1.325931958854198456e-02
3.730000000000000000e+02 2.204579925537109375e+01 -4.073021697998046875e+01 1.944677829742431641e-01 3.892052173614501953e-01 1.751018911600112915e-01 -1.934832707047462463e-02
3.740000000000000000e+02 2.207513236999511719e+01 -3.727721405029296875e+01 1.924740076065063477e-01 3.862690925598144531e-01 1.736229211091995239e-01 -3.850047662854194641e-02
3.750000000000000000e+02 2.298395156860351562e+01 -3.409257888793945312e+01 1.691997200250625610e-01 4.096243977546691895e-01 1.736472398042678833e-01 -6.162120401859283447e-02
3.760000000000000000e+02 2.378113746643066406e+01 -3.117341423034667969e+01 1.738945841789245605e-01 4.247702956199645996e-01 1.795994639396667480e-01 -7.007712870836257935e-02
3.770000000000000000e+02 2.450474548339843750e+01 -2.842100143432617188e+01 1.175915747880935669e-01 4.259102642536163330e-01 1.630505472421646118e-01 -9.579050540924072266e-02
3.780000000000000000e+02 2.249377441406250000e+01 -2.475205230712890625e+01 3.192995488643646240e-02 2.950061857700347900e-01 9.808084368705749512e-02 -1.415893286466598511e-01
3.790000000000000000e+02 2.460120582580566406e+01 -2.020417594909667969e+01 -7.273297756910324097e-02 3.723539113998413086e-01 8.988627791404724121e-02 -9.057603031396865845e-02
3.800000000000000000e+02 2.521499633789062500e+01 -1.497627544403076172e+01 -2.637764513492584229e-01 3.586575686931610107e-01 2.846433408558368683e-02 4.423532634973526001e-02
3.810000000000000000e+02 2.504413032531738281e+01 -1.328247165679931641e+01 -3.497132658958435059e-01 3.245880305767059326e-01 -7.537568919360637665e-03 6.123314425349235535e-02
3.820000000000000000e+02 1.952283287048339844e+01 -6.586469173431396484e+00 -1.132105216383934021e-01 -5.691852420568466187e-02 -5.103871226310729980e-02 8.075611293315887451e-02
3.830000000000000000e+02 1.854581451416015625e+01 -5.601716995239257812e+00 -7.608709484338760376e-02 -3.154323622584342957e-02 -3.228909894824028015e-02 5.226095765829086304e-02
3.840000000000000000e+02 1.484320640563964844e+01 -3.117559432983398438e+00 -3.061971813440322876e-02 4.903920460492372513e-03 -7.714739535003900528e-03 9.112187661230564117e-03
3.850000000000000000e+02 1.088299942016601562e+01 -2.681315660476684570e+00 -2.053416706621646881e-02 1.006128150038421154e-03 -5.858411546796560287e-03 -1.672449754551053047e-03
3.860000000000000000e+02 1.011400127410888672e+01 -2.662676572799682617e+00 -2.246857993304729462e-02 4.522367846220731735e-03 -5.383863579481840134e-03 -2.896318444982171059e-03
3.870000000000000000e+02 2.958604097366333008e+00 -1.975747704505920410e+00 -2.026046626269817352e-03 -1.766876433975994587e-03 -1.137876883149147034e-03 -1.210936228744685650e-03
3.880000000000000000e+02 1.278847455978393555e+00 -2.124268770217895508e+00 -1.389716519042849541e-03 -1.292163069592788815e-04 -4.556798667181283236e-04 -4.796171924681402743e-05
3.890000000000000000e+02 6.473324298858642578e-01 -4.974450111389160156e+00 1.994899241253733635e-03 -3.396966785658150911e-04 4.965608241036534309e-04 -7.952713640406727791e-04
3.900000000000000000e+02 1.908988714218139648e+00 -8.051533699035644531e+00 -6.872022990137338638e-03 -1.742612384259700775e-02 -7.289444096386432648e-03 -1.185583230108022690e-02
3.910000000000000000e+02 4.355740070343017578e+00 -9.632125854492187500e+00 -1.040379330515861511e-02 -2.711487375199794769e-02 -1.125560048967599869e-02 -3.465852886438369751e-02
3.920000000000000000e+02 9.139326095581054688e+00 -1.510957622528076172e+01 -3.797647356986999512e-02 -1.634246110916137695e-02 -1.629568077623844147e-02 -1.115472540259361267e-01
3.930000000000000000e+02 1.342291355133056641e+01 -1.697908401489257812e+01 -7.053058594465255737e-02 3.885657712817192078e-02 -9.502202272415161133e-03 -1.475187242031097412e-01
3.940000000000000000e+02 1.330930709838867188e+01 -2.068855094909667969e+01 -1.618464291095733643e-02 4.266422241926193237e-02 7.943873293697834015e-03 -1.576994657516479492e-01
3.950000000000000000e+02 1.696570396423339844e+01 -2.363699150085449219e+01 1.610345579683780670e-02 1.103704720735549927e-01 3.794217854738235474e-02 -1.645373255014419556e-01
3.960000000000000000e+02 1.507054901123046875e+01 -2.137495422363281250e+01 -1.361361145973205566e-02 6.488979607820510864e-02 1.538285519927740097e-02 -1.613752245903015137e-01
3.970000000000000000e+02 1.705098533630371094e+01 -2.168624877929687500e+01 -1.178654935210943222e-02 1.347402185201644897e-01 3.688609972596168518e-02 -1.616075783967971802e-01
3.980000000000000000e+02 1.642675018310546875e+01 -1.637653541564941406e+01 -1.041972339153289795e-01 9.137877821922302246e-02 -3.845537314191460609e-03 -1.223668456077575684e-01
3.990000000000000000e+02 1.513462543487548828e+01 -1.296895980834960938e+01 -1.119050160050392151e-01 6.108402833342552185e-02 -1.524629723280668259e-02 -1.015193015336990356e-01
4.000000000000000000e+02 8.276870727539062500e+00 -4.181861400604248047e+00 -2.642434090375900269e-02 3.055389272049069405e-03 -7.010685745626688004e-03 -1.125006657093763351e-02
4.010000000000000000e+02 3.919020175933837891e+00 -2.738172769546508789e+00 -5.484569817781448364e-03 -2.545624040067195892e-03 -2.409058157354593277e-03 -3.756195073947310448e-03
4.020000000000000000e+02 4.151270389556884766e+00 -5.072544574737548828e+00 -1.061981357634067535e-02 -4.749157931655645370e-03 -4.610691685229539871e-03 -7.773778401315212250e-03
4.030000000000000000e+02 4.695946216583251953e+00 -6.401416301727294922e+00 -1.800334453582763672e-02 -7.364303339272737503e-03 -7.610294036567211151e-03 -1.658234186470508575e-02
4.040000000000000000e+02 2.153702926635742188e+01 -8.508050918579101562e+00 -3.436778187751770020e-01 -9.178214520215988159e-02 -1.306379884481430054e-01 1.645844429731369019e-01
4.050000000000000000e+02 1.501686668395996094e+01 -2.037235975265502930e+00 -1.209531910717487335e-02 -3.174160607159137726e-03 -4.580844193696975708e-03 8.526509627699851990e-03
4.060000000000000000e+02 6.116127371788024902e-01 -9.303583145141601562e+00 -5.648282356560230255e-03 -2.124865725636482239e-02 -8.069082163274288177e-03 -5.081341136246919632e-03
4.070000000000000000e+02 1.810714483261108398e+00 -1.071501255035400391e+01 -8.334147743880748749e-03 -3.890699148178100586e-02 -1.417234167456626892e-02 -1.964648626744747162e-02
4.080000000000000000e+02 4.291298866271972656e+00 -1.321228694915771484e+01 -1.846873946487903595e-02 -5.802762508392333984e-02 -2.294890955090522766e-02 -5.737300962209701538e-02
4.090000000000000000e+02 8.657244682312011719e+00 -1.829764556884765625e+01 -2.237304300069808960e-02 -5.202523246407508850e-02 -2.231948263943195343e-02 -1.333086192607879639e-01
4.100000000000000000e+02 7.999528884887695312e+00 -1.965708923339843750e+01 -1.319377776235342026e-02 -6.980620324611663818e-02 -2.489999309182167053e-02 -1.207873746752738953e-01
4.110000000000000000e+02 1.647832679748535156e+01 -2.572610855102539062e+01 4.454091936349868774e-02 1.241811439394950867e-01 5.061661824584007263e-02 -1.471335291862487793e-01
4.120000000000000000e+02 6.006776094436645508e-01 -1.208510589599609375e+01 -6.773020140826702118e-03 -5.220298096537590027e-02 -1.769280061125755310e-02 -8.288801647722721100e-03
4.130000000000000000e+02 1.830036520957946777e+00 -1.339659023284912109e+01 -8.854642510414123535e-03 -7.164266705513000488e-02 -2.414919435977935791e-02 -2.812464162707328796e-02
4.140000000000000000e+02 6.013572692871093750e+00 -1.763093185424804688e+01 -1.070022676140069962e-02 -8.785865455865859985e-02 -2.956766262650489807e-02 -1.005303338170051575e-01
4.150000000000000000e+02 5.348053932189941406e+00 -2.120730590820312500e+01 -3.660063492134213448e-03 -1.411065459251403809e-01 -4.342998564243316650e-02 -1.047982946038246155e-01
4.160000000000000000e+02 1.093522453308105469e+01 -2.564146232604980469e+01 1.510540954768657684e-02 -4.344683885574340820e-02 -8.502428419888019562e-03 -1.516878157854080200e-01
4.170000000000000000e+02 1.323743724822998047e+01 -2.691373825073242188e+01 4.428517073392868042e-02 1.657079346477985382e-02 1.825678907334804535e-02 -1.392474025487899780e-01
4.180000000000000000e+02 1.740186309814453125e+01 -3.127495193481445312e+01 1.013682857155799866e-01 1.595378965139389038e-01 7.827185839414596558e-02 -1.277159899473190308e-01
4.190000000000000000e+02 1.832238960266113281e+01 -2.893305397033691406e+01 1.001821756362915039e-01 1.947854012250900269e-01 8.849027007818222046e-02 -1.270957440137863159e-01
4.200000000000000000e+02 6.559624671936035156e-01 -1.627234077453613281e+01 6.387885194271802902e-03 -1.237219497561454773e-01 -3.520021960139274597e-02 -1.216676924377679825e-02
4.210000000000000000e+02 2.101513862609863281e+00 -1.747874069213867188e+01 4.132262896746397018e-03 -1.347012966871261597e-01 -3.917071223258972168e-02 -4.057785496115684509e-02
4.220000000000000000e+02 2.395740985870361328e+00 -2.048853111267089844e+01 6.014708429574966431e-03 -1.881021559238433838e-01 -5.462623387575149536e-02 -5.456589534878730774e-02
4.230000000000000000e+02 6.969587206840515137e-01 -2.761909294128417969e+01 6.490469910204410553e-03 -3.855282068252563477e-01 -1.137113273143768311e-01 -1.455404516309499741e-02
4.240000000000000000e+02 2.101872920989990234e+00 -2.754535675048828125e+01 -2.167761791497468948e-03 -3.354235887527465820e-01 -1.012774109840393066e-01 -4.190344735980033875e-02
4.250000000000000000e+02 8.677517175674438477e-01 -3.471224212646484375e+01 2.888115122914314270e-03 -5.053495168685913086e-01 -1.507384181022644043e-01 -6.131656933575868607e-03
4.260000000000000000e+02 8.404289484024047852e-01 -3.614485549926757812e+01 -2.844948321580886841e-03 -5.156607627868652344e-01 -1.555517166852951050e-01 -6.668422371149063110e-03
4.270000000000000000e+02 1.245671510696411133e+00 -3.998735046386718750e+01 4.936139564961194992e-03 -5.059987306594848633e-01 -1.503187716007232666e-01 1.005554664880037308e-02
4.280000000000000000e+02 8.100694656372070312e+00 -4.105334472656250000e+01 4.102057963609695435e-02 -2.095714807510375977e-01 -5.056527256965637207e-02 -8.032102137804031372e-03
4.290000000000000000e+02 9.051345825195312500e+00 -3.562789916992187500e+01 5.542508512735366821e-02 -1.469293236732482910e-01 -2.745126932859420776e-02 -6.587585061788558960e-02
4.300000000000000000e+02 8.317514419555664062e+00 -3.110299301147460938e+01 3.283793851733207703e-02 -1.489651203155517578e-01 -3.483815491199493408e-02 -9.825871884822845459e-02
4.310000000000000000e+02 9.653619766235351562e+00 -2.702409172058105469e+01 3.082554973661899567e-02 -8.950301259756088257e-02 -1.760323904454708099e-02 -1.321109235286712646e-01
4.320000000000000000e+02 9.137545585632324219e+00 -2.411775779724121094e+01 1.374059449881315231e-02 -8.737123757600784302e-02 -2.208919264376163483e-02 -1.331553459167480469e-01
4.330000000000000000e+02 6.760224819183349609e+00 -2.395790290832519531e+01 6.640338804572820663e-03 -1.392041295766830444e-01 -3.976913541555404663e-02 -1.143516823649406433e-01
4.340000000000000000e+02 6.403750419616699219e+00 -2.190311241149902344e+01 2.231945283710956573e-03 -1.280027180910110474e-01 -3.773123025894165039e-02 -1.107739284634590149e-01
4.350000000000000000e+02 2.011337518692016602e+00 -4.159206008911132812e+01 -1.060907728970050812e-02 -5.016713738441467285e-01 -1.536841392517089844e-01 2.858506049960851669e-03
4.360000000000000000e+02 1.251559925079345703e+01 -4.109017944335937500e+01 9.319902956485748291e-02 -2.857383713126182556e-02 1.938755810260772705e-02 -2.155268378555774689e-02
4.370000000000000000e+02 1.230170536041259766e+01 -3.818948364257812500e+01 8.949965238571166992e-02 -2.628049068152904510e-02 1.896574907004833221e-02 -4.792268946766853333e-02
4.380000000000000000e+02 1.171195411682128906e+01 -3.523387145996093750e+01 8.126637339591979980e-02 -4.819582030177116394e-02 9.921166114509105682e-03 -8.378972858190536499e-02
4.390000000000000000e+02 1.215813159942626953e+01 -3.142680740356445312e+01 6.750918924808502197e-02 -2.710956521332263947e-02 1.211988646537065506e-02 -1.088349819183349609e-01
4.400000000000000000e+02 1.261775302886962891e+01 -2.914687538146972656e+01 5.152260512113571167e-02 -6.478573195636272430e-03 1.351320929825305939e-02 -1.418435275554656982e-01
4.410000000000000000e+02 1.439260482788085938e+01 -3.464579391479492188e+01 9.866505861282348633e-02 5.195933952927589417e-02 4.518732056021690369e-02 -8.571972697973251343e-02
4.420000000000000000e+02 1.419605255126953125e+01 -3.225499343872070312e+01 7.770004123449325562e-02 3.832016885280609131e-02 3.480606526136398315e-02 -1.162403300404548645e-01
4.430000000000000000e+02 2.654165077209472656e+01 -4.094167327880859375e+01 2.308624535799026489e-01 6.823153495788574219e-01 2.739533483982086182e-01 -6.213309708982706070e-03
4.440000000000000000e+02 2.579855346679687500e+01 -3.800461578369140625e+01 2.026265263557434082e-01 5.916396975517272949e-01 2.382798790931701660e-01 -2.615360170602798462e-02
4.450000000000000000e+02 2.628076934814453125e+01 -3.514072036743164062e+01 2.068662643432617188e-01 5.918006896972656250e-01 2.396000921726226807e-01 -3.123552352190017700e-02
4.460000000000000000e+02 2.681706428527832031e+01 -3.219276428222656250e+01 1.783843040466308594e-01 6.077880859375000000e-01 2.358517050743103027e-01 -4.451480880379676819e-02
4.470000000000000000e+02 2.736408233642578125e+01 -2.934471321105957031e+01 1.706075966358184814e-01 6.064262390136718750e-01 2.331101447343826294e-01 -2.860655449330806732e-02
4.480000000000000000e+02 2.596718025207519531e+01 -2.366585922241210938e+01 1.183228939771652222e-02 4.074331521987915039e-01 1.257796287536621094e-01 -1.125397011637687683e-01
4.490000000000000000e+02 2.693841552734375000e+01 -1.879846954345703125e+01 -2.017501145601272583e-01 4.366751909255981445e-01 7.047752290964126587e-02 -7.794968038797378540e-02
4.500000000000000000e+02 2.938877296447753906e+01 -1.662491798400878906e+01 -3.688262701034545898e-01 4.035468995571136475e-01 1.041618641465902328e-02 -2.621727995574474335e-02
4.510000000000000000e+02 3.102802467346191406e+01 -1.411655807495117188e+01 -4.518858790397644043e-01 3.582763671875000000e-01 -2.808285318315029144e-02 3.224312886595726013e-02
4.520000000000000000e+02 3.076927375793457031e+01 -8.419274330139160156e+00 -1.337994933128356934e-01 2.403972744941711426e-01 3.197933733463287354e-02 9.075361490249633789e-02
4.530000000000000000e+02 2.868117332458496094e+01 -9.905579566955566406e+00 -2.725223600864410400e-01 4.359229803085327148e-01 4.902018979191780090e-02 1.009723693132400513e-01
4.540000000000000000e+02 2.568377494812011719e+01 -7.613217830657958984e+00 4.527795314788818359e-02 7.073712348937988281e-01 2.257947474718093872e-01 1.009961292147636414e-01
4.550000000000000000e+02 2.900534057617187500e+01 -3.936641311645507812e+01 2.319996505975723267e-01 8.063311576843261719e-01 3.114992380142211914e-01 -2.376656979322433472e-03
4.560000000000000000e+02 2.959290122985839844e+01 -3.617796707153320312e+01 2.178618460893630981e-01 8.549014329910278320e-01 3.218289613723754883e-01 -1.820053905248641968e-02
4.570000000000000000e+02 2.991103172302246094e+01 -3.306713485717773438e+01 1.904424279928207397e-01 8.520064353942871094e-01 3.127346634864807129e-01 -1.612909371033310890e-03
4.580000000000000000e+02 3.022952270507812500e+01 -3.009157371520996094e+01 1.482390761375427246e-01 8.246956467628479004e-01 2.918804287910461426e-01 1.619563624262809753e-02
4.590000000000000000e+02 3.061758804321289062e+01 -2.731551361083984375e+01 1.553439497947692871e-01 7.777541279792785645e-01 2.799294292926788330e-01 6.453296542167663574e-02
4.600000000000000000e+02 2.925196838378906250e+01 -2.205352210998535156e+01 -2.440587058663368225e-02 4.984627068042755127e-01 1.422170549631118774e-01 -5.921730771660804749e-02
4.610000000000000000e+02 3.274831771850585938e+01 -1.364761543273925781e+01 -5.254983901977539062e-01 1.428528428077697754e-01 -1.147936582565307617e-01 1.830009371042251587e-01
4.620000000000000000e+02 3.273727798461914062e+01 -4.062147521972656250e+01 2.400552630424499512e-01 1.085757017135620117e+00 3.977436721324920654e-01 -3.815085394307971001e-03
4.630000000000000000e+02 3.298305130004882812e+01 -3.372199249267578125e+01 1.807264536619186401e-01 1.096225500106811523e+00 3.830855786800384521e-01 2.243942581117153168e-02
4.640000000000000000e+02 3.300299072265625000e+01 -3.066761779785156250e+01 1.384835839271545410e-01 1.094763755798339844e+00 3.699741959571838379e-01 4.744562134146690369e-02
4.650000000000000000e+02 3.333373641967773438e+01 -2.778979682922363281e+01 6.362169981002807617e-02 1.080635905265808105e+00 3.432773053646087646e-01 1.304354071617126465e-01
4.660000000000000000e+02 3.063499832153320312e+01 -2.071558761596679688e+01 -5.906509235501289368e-02 5.049465298652648926e-01 1.337644308805465698e-01 -1.591005176305770874e-02
4.670000000000000000e+02 3.776557540893554688e+01 -1.743686676025390625e+01 -3.131166100502014160e-01 -2.825783789157867432e-01 -1.787084937095642090e-01 7.315128445625305176e-01
4.680000000000000000e+02 3.550127029418945312e+01 -1.639258575439453125e+01 -5.646040439605712891e-01 2.345868498086929321e-01 -9.900515526533126831e-02 1.508952230215072632e-01
4.690000000000000000e+02 3.666682052612304688e+01 -3.733007812500000000e+01 2.037183046340942383e-01 1.432178735733032227e+00 4.907691180706024170e-01 9.990878403186798096e-03
4.700000000000000000e+02 3.604540634155273438e+01 -3.398370361328125000e+01 1.616929322481155396e-01 1.397450447082519531e+00 4.677430391311645508e-01 3.823547437787055969e-02
4.710000000000000000e+02 3.763635253906250000e+01 -3.073730468750000000e+01 4.469645023345947266e-02 1.602161288261413574e+00 4.940573275089263916e-01 1.046255007386207581e-01
4.720000000000000000e+02 3.733273315429687500e+01 -2.698894309997558594e+01 -4.652328323572874069e-03 1.571315646171569824e+00 4.699989855289459229e-01 2.244342118501663208e-01
4.730000000000000000e+02 3.566940689086914062e+01 -2.470559310913085938e+01 -1.205192133784294128e-01 1.240521550178527832e+00 3.360007107257843018e-01 3.086537420749664307e-01
4.740000000000000000e+02 3.549635314941406250e+01 -2.245179939270019531e+01 2.735258340835571289e-01 9.593430161476135254e-01 3.698606491088867188e-01 5.071871876716613770e-01
4.750000000000000000e+02 3.723793029785156250e+01 -4.078934097290039062e+01 2.357839345932006836e-01 1.500488638877868652e+00 5.208817720413208008e-01 6.669299211353063583e-03
4.760000000000000000e+02 4.034157943725585938e+01 -3.707812118530273438e+01 2.107471078634262085e-01 1.824568629264831543e+00 6.105947494506835938e-01 3.883512690663337708e-03
4.770000000000000000e+02 3.892229843139648438e+01 -3.366103744506835938e+01 9.656184166669845581e-02 1.673705816268920898e+00 5.310803055763244629e-01 1.814779639244079590e-02
4.780000000000000000e+02 3.951000213623046875e+01 -2.965735816955566406e+01 -8.141548931598663330e-02 1.795924782752990723e+00 5.143527984619140625e-01 5.560610070824623108e-02
4.790000000000000000e+02 4.056573104858398438e+01 -2.625321578979492188e+01 -2.277587801218032837e-01 2.091470718383789062e+00 5.591135621070861816e-01 1.650145500898361206e-01
4.800000000000000000e+02 4.141618347167968750e+01 -1.965225219726562500e+01 -1.300875782966613770e+00 3.393836021423339844e+00 6.278880834579467773e-01 6.927626132965087891e-01
4.810000000000000000e+02 3.738603591918945312e+01 -1.559972953796386719e+01 -1.193787097930908203e+00 -6.377325057983398438e-01 -5.494558811187744141e-01 6.945614814758300781e-01
4.820000000000000000e+02 4.116631317138671875e+01 -1.750629425048828125e+01 1.888558864593505859e-01 5.875181198120117188e+00 1.819211125373840332e+00 1.216191887855529785e+00
4.830000000000000000e+02 4.179816055297851562e+01 -4.068412780761718750e+01 2.242007255554199219e-01 1.944136619567871094e+00 6.505011916160583496e-01 1.942207803949713707e-03
4.840000000000000000e+02 4.341500854492187500e+01 -3.632367324829101562e+01 1.812560856342315674e-01 2.109062671661376953e+00 6.870956420898437500e-01 1.371289836242794991e-03
4.850000000000000000e+02 4.539355087280273438e+01 -3.112868690490722656e+01 1.270978804677724838e-02 2.229320049285888672e+00 6.726089715957641602e-01 -6.103898584842681885e-02
4.860000000000000000e+02 4.600924682617187500e+01 -2.738432121276855469e+01 -1.983858048915863037e-01 2.263918638229370117e+00 6.196599006652832031e-01 -2.191102802753448486e-01
4.870000000000000000e+02 4.509386825561523438e+01 -2.424490547180175781e+01 -5.264294743537902832e-01 2.369563579559326172e+00 5.529402494430541992e-01 -2.360718101263046265e-01
4.880000000000000000e+02 4.335562515258789062e+01 -1.970236968994140625e+01 -7.760259509086608887e-01 3.933183193206787109e+00 9.471471905708312988e-01 -3.630332946777343750e-01
4.890000000000000000e+02 4.689380645751953125e+01 -1.664538574218750000e+01 -7.730106711387634277e-01 1.769074082374572754e+00 2.988190054893493652e-01 -2.234578877687454224e-01
4.900000000000000000e+02 4.297450256347656250e+01 -1.778995704650878906e+01 -5.068141818046569824e-01 4.373270988464355469e+00 1.159937024116516113e+00 -5.430994033813476562e-01
4.910000000000000000e+02 4.292041015625000000e+01 -1.628392410278320312e+01 6.175525784492492676e-01 3.930892229080200195e+00 1.364533424377441406e+00 -2.249827831983566284e-01
4.920000000000000000e+02 4.165662002563476562e+01 -1.474065589904785156e+01 8.092583417892456055e-01 8.070357322692871094e+00 2.663884639739990234e+00 9.951996803283691406e-01
4.930000000000000000e+02 4.306610870361328125e+01 -1.510055637359619141e+01 1.185855984687805176e+00 4.896039485931396484e+00 1.824568629264831543e+00 1.077907562255859375e+00
4.940000000000000000e+02 4.119321823120117188e+01 -1.579651927947998047e+01 1.602838158607482910e+00 8.675516128540039062e+00 3.083506107330322266e+00 1.536255836486816406e+00
4.950000000000000000e+02 4.602753067016601562e+01 -4.031248855590820312e+01 2.338568866252899170e-01 2.459958076477050781e+00 8.081445097923278809e-01 -6.240617483854293823e-03
4.960000000000000000e+02 4.566769409179687500e+01 -3.509438323974609375e+01 1.688615828752517700e-01 2.283322334289550781e+00 7.356551885604858398e-01 -2.089944481849670410e-02
4.970000000000000000e+02 4.739971160888671875e+01 -3.349936294555664062e+01 1.503903716802597046e-01 2.512423038482666016e+00 7.988439798355102539e-01 1.132895611226558685e-02
4.980000000000000000e+02 4.956471633911132812e+01 -2.975569915771484375e+01 5.272099748253822327e-02 2.614099502563476562e+00 8.000462055206298828e-01 7.603397965431213379e-02
4.990000000000000000e+02 4.992675399780273438e+01 -2.780966377258300781e+01 1.365050673484802246e-01 2.539802074432373047e+00 8.028921484947204590e-01 1.222102269530296326e-01
5.000000000000000000e+02 4.717617034912109375e+01 -2.327574729919433594e+01 -4.324307739734649658e-01 2.140639066696166992e+00 5.124624371528625488e-01 -5.097411274909973145e-01
5.010000000000000000e+02 4.629409790039062500e+01 -2.067586135864257812e+01 -7.291307449340820312e-01 2.393793582916259766e+00 4.993988573551177979e-01 -6.785775423049926758e-01
5.020000000000000000e+02 4.783543777465820312e+01 -1.559905242919921875e+01 -7.348840236663818359e-01 8.129057288169860840e-01 2.340649999678134918e-02 1.532898843288421631e-01
5.030000000000000000e+02 4.880865097045898438e+01 -3.853592300415039062e+01 2.121597975492477417e-01 2.794761657714843750e+00 9.020764231681823730e-01 3.169396147131919861e-02
5.040000000000000000e+02 5.021950149536132812e+01 -3.567690277099609375e+01 1.673498600721359253e-01 2.964848756790161133e+00 9.396595954895019531e-01 7.855973392724990845e-02
5.050000000000000000e+02 5.124842071533203125e+01 -3.307724380493164062e+01 1.191435903310775757e-01 3.047522068023681641e+00 9.499996900558471680e-01 1.511385142803192139e-01
5.060000000000000000e+02 5.190995407104492188e+01 -3.054109764099121094e+01 7.808658480644226074e-02 3.072186470031738281e+00 9.450818896293640137e-01 2.138845920562744141e-01
5.070000000000000000e+02 5.292673492431640625e+01 -2.576614570617675781e+01 -1.694303005933761597e-01 2.798773765563964844e+00 7.888029813766479492e-01 5.743891000747680664e-01
5.080000000000000000e+02 5.142457199096679688e+01 -2.582696914672851562e+01 1.594519317150115967e-01 2.488656044006347656e+00 7.944324016571044922e-01 3.620802760124206543e-01
5.090000000000000000e+02 5.039686584472656250e+01 -2.166998291015625000e+01 -1.659212559461593628e-01 1.271196007728576660e+00 3.315824270248413086e-01 -3.340199217200279236e-02
5.100000000000000000e+02 5.287753295898437500e+01 -4.062887954711914062e+01 1.772080510854721069e-01 3.349237680435180664e+00 1.057933688163757324e+00 2.483593672513961792e-02
5.110000000000000000e+02 5.359260177612304688e+01 -3.717993545532226562e+01 1.332002431154251099e-01 3.464109897613525391e+00 1.079192996025085449e+00 9.098169952630996704e-02
5.120000000000000000e+02 5.419457626342773438e+01 -3.416995620727539062e+01 6.110713258385658264e-02 3.573204755783081055e+00 1.090293526649475098e+00 1.583377569913864136e-01
5.130000000000000000e+02 5.463357162475585938e+01 -3.137281417846679688e+01 -1.682760659605264664e-03 3.624522686004638672e+00 1.086851954460144043e+00 2.790621519088745117e-01
5.140000000000000000e+02 5.478659057617187500e+01 -2.454493331909179688e+01 -3.352397680282592773e-01 3.615588903427124023e+00 9.841046929359436035e-01 1.026484370231628418e+00
5.150000000000000000e+02 5.734128952026367188e+01 -4.097970962524414062e+01 1.136293709278106689e-01 4.125558853149414062e+00 1.271756529808044434e+00 1.627986878156661987e-02
5.160000000000000000e+02 5.726802444458007812e+01 -3.792648315429687500e+01 7.203374803066253662e-02 4.119741916656494141e+00 1.257532596588134766e+00 6.482277810573577881e-02
5.170000000000000000e+02 5.746833419799804688e+01 -3.495335006713867188e+01 3.437061328440904617e-03 4.170705318450927734e+00 1.252242684364318848e+00 1.299418061971664429e-01
5.180000000000000000e+02 5.764236450195312500e+01 -3.213708877563476562e+01 -1.240282654762268066e-01 4.286357879638671875e+00 1.248698949813842773e+00 2.017037123441696167e-01
5.190000000000000000e+02 5.779593276977539062e+01 -2.796005821228027344e+01 -5.424045324325561523e-01 4.612436771392822266e+00 1.221009612083435059e+00 3.314149677753448486e-01
5.200000000000000000e+02 6.161028671264648438e+01 -4.107538223266601562e+01 6.174249574542045593e-02 4.914927482604980469e+00 1.493001103401184082e+00 1.353314332664012909e-02
5.210000000000000000e+02 6.081937408447265625e+01 -3.832818603515625000e+01 3.970962762832641602e-02 4.727005004882812500e+00 1.430014371871948242e+00 3.637424111366271973e-02
5.220000000000000000e+02 6.098526382446289062e+01 -3.549575424194335938e+01 -3.033725917339324951e-02 4.759360313415527344e+00 1.418707013130187988e+00 4.692696779966354370e-02
5.230000000000000000e+02 6.073271179199218750e+01 -3.264494323730468750e+01 -9.147357940673828125e-02 4.870458126068115234e+00 1.433695316314697266e+00 1.031031925231218338e-02
5.240000000000000000e+02 6.397711181640625000e+01 -3.952961349487304688e+01 3.799403831362724304e-02 5.232583999633789062e+00 1.581173300743103027e+00 9.517914615571498871e-03
5.250000000000000000e+02 6.448056030273437500e+01 -3.640754699707031250e+01 1.797970943152904510e-02 5.414794445037841797e+00 1.629832267761230469e+00 -3.360660374164581299e-02
5.260000000000000000e+02 6.765843963623046875e+01 -4.074791717529296875e+01 4.395993798971176147e-02 5.859786033630371094e+00 1.771123766899108887e+00 -4.977293778210878372e-03
5.270000000000000000e+02 7.934171295166015625e+01 -2.501146125793457031e+01 -3.996957466006278992e-02 8.346383094787597656e+00 2.491924047470092773e+00 3.211076557636260986e-02
5.280000000000000000e+02 7.801888275146484375e+01 -2.487294197082519531e+01 3.069533966481685638e-02 8.004774093627929688e+00 2.410640716552734375e+00 1.022762283682823181e-01
5.290000000000000000e+02 7.579298400878906250e+01 -2.028090667724609375e+01 -5.680366754531860352e-01 7.967989921569824219e+00 2.219985961914062500e+00 2.125595957040786743e-01
5.300000000000000000e+02 7.222700500488281250e+01 -1.736713600158691406e+01 -1.727881431579589844e+00 7.572226047515869141e+00 1.753303408622741699e+00 1.583352804183959961e+00
5.310000000000000000e+02 6.944579315185546875e+01 -1.610198211669921875e+01 -2.588845014572143555e+00 -4.157690703868865967e-01 -9.013841748237609863e-01 9.935861229896545410e-01
5.320000000000000000e+02 7.936289215087890625e+01 -2.224275779724121094e+01 -6.788524240255355835e-02 8.452175140380859375e+00 2.515286922454833984e+00 -9.746808558702468872e-03
5.330000000000000000e+02 7.815675354003906250e+01 -2.074733352661132812e+01 -1.915898621082305908e-01 8.178940773010253906e+00 2.396205186843872070e+00 -1.117187216877937317e-01
5.340000000000000000e+02 7.337471771240234375e+01 -1.707023239135742188e+01 -5.825704932212829590e-01 9.355366706848144531e+00 2.631838798522949219e+00 2.915242910385131836e-01
5.350000000000000000e+02 7.298251342773437500e+01 -1.453910064697265625e+01 1.338375210762023926e+00 1.078505039215087891e+01 3.637027502059936523e+00 6.337727904319763184e-01
5.360000000000000000e+02 7.220573425292968750e+01 -1.315759181976318359e+01 1.547005623579025269e-01 1.464272403717041016e+01 4.439227581024169922e+00 9.668773412704467773e-01
5.370000000000000000e+02 7.202511596679687500e+01 -1.440924644470214844e+01 1.838572025299072266e+00 1.397860527038574219e+01 4.745153427124023438e+00 2.510428905487060547e+00
5.380000000000000000e+02 7.198912811279296875e+01 -1.584318351745605469e+01 5.157210826873779297e-01 1.044071197509765625e+01 3.286930084228515625e+00 2.047717809677124023e+00
5.390000000000000000e+02 7.076165771484375000e+01 -1.616972923278808594e+01 -1.218251511454582214e-01 3.651571989059448242e+00 1.058924078941345215e+00 2.913846492767333984e+00
5.400000000000000000e+02 7.521894836425781250e+01 -1.527135658264160156e+01 3.937900960445404053e-01 9.058886528015136719e+00 2.835803031921386719e+00 -4.646207988262176514e-01
5.410000000000000000e+02 7.941062164306640625e+01 -1.946815490722656250e+01 -8.934857696294784546e-02 8.231807708740234375e+00 2.442737579345703125e+00 -1.174230203032493591e-01
5.420000000000000000e+02 7.832934570312500000e+01 -1.536655139923095703e+01 -7.458218839019536972e-03 7.645816326141357422e+00 2.291507482528686523e+00 -4.152462184429168701e-01
5.430000000000000000e+02 7.835636901855468750e+01 -1.668531036376953125e+01 5.673816427588462830e-02 7.775319576263427734e+00 2.349617242813110352e+00 -4.670608341693878174e-01
5.440000000000000000e+02 7.812191009521484375e+01 -1.394493389129638672e+01 2.905182838439941406e-01 7.596374988555908203e+00 2.366067886352539062e+00 -2.772538065910339355e-01
5.450000000000000000e+02 7.579647827148437500e+01 -1.168480205535888672e+01 1.087006092071533203e+00 9.042038917541503906e+00 3.038713455200195312e+00 3.845404088497161865e-01
5.460000000000000000e+02 7.845664978027343750e+01 -6.948007583618164062e+00 1.013480126857757568e-01 9.058874130249023438e+00 2.748066663742065430e+00 1.051116228103637695e+00
5.470000000000000000e+02 7.668790435791015625e+01 -4.609744071960449219e+00 -7.866790890693664551e-02 8.532318115234375000e+00 2.536095142364501953e+00 1.473381876945495605e+00
5.480000000000000000e+02 7.641763305664062500e+01 -1.163097977638244629e+00 -8.285139203071594238e-01 7.744850158691406250e+00 2.074900865554809570e+00 8.195809125900268555e-01
5.490000000000000000e+02 7.767811584472656250e+01 3.777251482009887695e+00 -1.814081817865371704e-01 1.104596233367919922e+01 3.259366273880004883e+00 -2.791415691375732422e+00
5.500000000000000000e+02 7.935623931884765625e+01 8.408376693725585938e+00 2.791850566864013672e-01 5.588416099548339844e+00 1.760280251502990723e+00 3.033997714519500732e-01
5.510000000000000000e+02 7.690194702148437500e+01 1.189661979675292969e+01 -6.699881553649902344e-01 7.676187038421630859e+00 2.101859807968139648e+00 -6.055125594139099121e-01
5.520000000000000000e+02 7.935580444335937500e+01 1.539136028289794922e+01 2.401663735508918762e-02 6.254879474639892578e+00 1.883668780326843262e+00 -1.230485066771507263e-01
5.530000000000000000e+02 7.815874481201171875e+01 1.695468139648437500e+01 1.488660424947738647e-01 6.011926174163818359e+00 1.848237752914428711e+00 -1.951143741607666016e-01
5.540000000000000000e+02 7.673396301269531250e+01 2.098157691955566406e+01 1.300642937421798706e-01 6.055337905883789062e+00 1.855620741844177246e+00 1.126620993018150330e-01
5.550000000000000000e+02 7.777588653564453125e+01 2.375826644897460938e+01 -6.447599735110998154e-03 6.120485782623291016e+00 1.834211468696594238e+00 1.660298109054565430e-01
5.560000000000000000e+02 7.777619934082031250e+01 2.644990921020507812e+01 -1.146777626127004623e-02 6.256532669067382812e+00 1.873519420623779297e+00 1.573414355516433716e-01
5.570000000000000000e+02 7.927464294433593750e+01 3.059892272949218750e+01 -6.720886565744876862e-03 6.522543430328369141e+00 1.954746723175048828e+00 3.928822278976440430e-02
5.580000000000000000e+02 7.780992126464843750e+01 3.317236709594726562e+01 -8.568691089749336243e-03 6.544640064239501953e+00 1.960821390151977539e+00 8.459905534982681274e-02
5.590000000000000000e+02 7.711443328857421875e+01 3.577973937988281250e+01 -1.875280030071735382e-02 6.555344104766845703e+00 1.960977435111999512e+00 7.917573302984237671e-02
5.600000000000000000e+02 7.596286010742187500e+01 4.076838684082031250e+01 -2.351702935993671417e-02 6.602417945861816406e+00 1.973670363426208496e+00 5.518528819084167480e-02
5.610000000000000000e+02 7.862741088867187500e+01 4.037800598144531250e+01 -1.294803991913795471e-02 6.741328716278076172e+00 2.018514156341552734e+00 -2.605560794472694397e-02
5.620000000000000000e+02 7.442045593261718750e+01 3.647270965576171875e+01 -6.487250328063964844e-02 6.376137733459472656e+00 1.893379569053649902e+00 9.870816022157669067e-02
5.630000000000000000e+02 7.436027526855468750e+01 3.402363967895507812e+01 -5.554780736565589905e-02 6.354567050933837891e+00 1.889705777168273926e+00 1.397978365421295166e-01
5.640000000000000000e+02 7.477363586425781250e+01 3.090015220642089844e+01 -5.503868684172630310e-02 6.335857391357421875e+00 1.884245634078979492e+00 1.870565414428710938e-01
5.650000000000000000e+02 7.386674499511718750e+01 2.508417320251464844e+01 -2.071831189095973969e-02 6.267715930938720703e+00 1.874099254608154297e+00 2.538172602653503418e-01
5.660000000000000000e+02 7.435066986083984375e+01 2.332168388366699219e+01 2.291893400251865387e-02 6.222805976867675781e+00 1.873717427253723145e+00 2.811145186424255371e-01
5.670000000000000000e+02 7.486212921142578125e+01 1.896914482116699219e+01 3.540394902229309082e-01 5.964679718017578125e+00 1.895615696907043457e+00 7.244016230106353760e-02
5.680000000000000000e+02 7.442179870605468750e+01 1.502040290832519531e+01 8.189539313316345215e-01 5.368685722351074219e+00 1.856291890144348145e+00 -6.282694339752197266e-01
5.690000000000000000e+02 7.423482513427734375e+01 1.164042758941650391e+01 2.150668762624263763e-02 4.371079921722412109e+00 1.317775964736938477e+00 -2.719651937484741211e+00
5.700000000000000000e+02 7.324257659912109375e+01 1.145722198486328125e+01 1.658413887023925781e+00 3.225717544555664062e+00 1.465239405632019043e+00 -2.354459762573242188e+00
5.710000000000000000e+02 7.512156677246093750e+01 8.927762031555175781e+00 1.827168107032775879e+00 8.094603538513183594e+00 2.976531505584716797e+00 -4.114367961883544922e+00
5.720000000000000000e+02 7.582809448242187500e+01 7.882208824157714844e+00 3.211092233657836914e+00 1.560012722015380859e+01 5.643365859985351562e+00 -4.308096885681152344e+00
5.730000000000000000e+02 7.762419128417968750e+01 6.177813053131103516e+00 1.454133391380310059e+00 1.013787269592285156e+01 3.477601766586303711e+00 -1.733691811561584473e+00
5.740000000000000000e+02 7.611672210693359375e+01 5.890337944030761719e+00 8.693494796752929688e-01 1.686871337890625000e+01 5.321418762207031250e+00 -1.341906666755676270e+00
5.750000000000000000e+02 7.597671508789062500e+01 4.701203823089599609e+00 -3.142673894762992859e-02 1.464295673370361328e+01 4.383459091186523438e+00 1.174562349915504456e-01
5.760000000000000000e+02 7.590450286865234375e+01 2.245233297348022461e+00 -2.243493318557739258e+00 7.491700649261474609e+00 1.574462175369262695e+00 -4.272395670413970947e-01
5.770000000000000000e+02 7.488323211669921875e+01 1.835172533988952637e+00 -3.136925220489501953e+00 2.046879291534423828e+00 -3.270138204097747803e-01 -8.967630863189697266e-01
5.780000000000000000e+02 7.565380096435546875e+01 -1.259072184562683105e+00 -1.155571222305297852e+00 6.509666919708251953e+00 1.606228709220886230e+00 9.628525376319885254e-01
5.790000000000000000e+02 7.391693115234375000e+01 1.161180973052978516e+00 -6.240215301513671875e+00 -1.124682188034057617e+00 -2.209469318389892578e+00 -2.222050428390502930e+00
5.800000000000000000e+02 7.313120269775390625e+01 2.370353490114212036e-01 -4.362240791320800781e+00 -4.749222695827484131e-01 -1.451148986816406250e+00 -2.036880254745483398e+00
5.810000000000000000e+02 7.210839843750000000e+01 7.786499261856079102e-01 -3.993775367736816406e+00 8.240242600440979004e-01 -9.509253501892089844e-01 -2.442881584167480469e+00
5.820000000000000000e+02 7.104367065429687500e+01 1.266974806785583496e+00 1.279302358627319336e+00 6.137424945831298828e+00 2.225018024444580078e+00 -3.696982860565185547e+00
5.830000000000000000e+02 7.075473785400390625e+01 2.973300963640213013e-02 -4.119563579559326172e+00 6.658604145050048828e+00 7.617121338844299316e-01 -3.723593711853027344e+00
5.840000000000000000e+02 6.989594268798828125e+01 1.422872900962829590e+00 1.014896035194396973e+00 8.769718170166015625e+00 2.935384273529052734e+00 -3.359455347061157227e+00
5.850000000000000000e+02 6.966249084472656250e+01 2.709602832794189453e+00 3.206680536270141602e+00 1.326190471649169922e+01 4.940575599670410156e+00 -4.940507888793945312e+00
5.860000000000000000e+02 6.862138366699218750e+01 4.909458160400390625e+00 1.432888865470886230e+00 1.414621543884277344e+01 4.673731327056884766e+00 -1.456343650817871094e+00
5.870000000000000000e+02 6.935005187988281250e+01 5.900306701660156250e+00 5.695006251335144043e-01 1.382557201385498047e+01 4.318521499633789062e+00 1.478765904903411865e-01
5.880000000000000000e+02 7.055731201171875000e+01 8.217435836791992188e+00 -1.870950222015380859e+00 2.128428697586059570e+00 7.724352180957794189e-02 -7.823231816291809082e-01
5.890000000000000000e+02 7.044976043701171875e+01 9.901378631591796875e+00 2.165524102747440338e-02 3.911851406097412109e+00 1.180052042007446289e+00 9.944787025451660156e-01
5.900000000000000000e+02 7.224415588378906250e+01 1.154767513275146484e+01 2.373023986816406250e+00 2.368037462234497070e+00 1.422318458557128906e+00 -9.589453339576721191e-01
5.910000000000000000e+02 7.104911041259765625e+01 1.075815868377685547e+01 1.234287261962890625e+00 2.478016853332519531e+00 1.113691210746765137e+00 6.123647093772888184e-01
5.920000000000000000e+02 7.315303039550781250e+01 1.273562240600585938e+01 1.275942444801330566e+00 4.144845485687255859e+00 1.626236319541931152e+00 -9.692309498786926270e-01
5.930000000000000000e+02 7.113722229003906250e+01 1.285445117950439453e+01 2.416041374206542969e+00 4.093849658966064453e+00 1.952967286109924316e+00 4.943846762180328369e-01
5.940000000000000000e+02 6.984071350097656250e+01 1.416993618011474609e+01 2.049871444702148438e+00 6.376558303833007812e+00 2.527929067611694336e+00 1.311176776885986328e+00
5.950000000000000000e+02 6.651162719726562500e+01 2.132420730590820312e+01 1.601575165987014771e-01 6.143703460693359375e+00 1.891158223152160645e+00 -9.896770119667053223e-02
5.960000000000000000e+02 6.421167755126953125e+01 2.253813171386718750e+01 4.697755277156829834e-01 5.547531604766845703e+00 1.805192112922668457e+00 -1.736641079187393188e-01
5.970000000000000000e+02 6.113492965698242188e+01 2.515338325500488281e+01 2.434879243373870850e-01 5.334398746490478516e+00 1.673365950584411621e+00 2.045611292123794556e-01
5.980000000000000000e+02 5.716451644897460938e+01 2.926778411865234375e+01 -2.489444166421890259e-01 5.158091545104980469e+00 1.472744107246398926e+00 6.729901582002639771e-02
5.990000000000000000e+02 5.471188354492187500e+01 3.116614151000976562e+01 -3.099301159381866455e-01 4.732100009918212891e+00 1.326650977134704590e+00 -1.083976775407791138e-01
6.000000000000000000e+02 5.267703628540039062e+01 3.595689773559570312e+01 -2.348450124263763428e-01 4.251108646392822266e+00 1.204879164695739746e+00 -1.487233340740203857e-01
6.010000000000000000e+02 5.190718460083007812e+01 3.245842742919921875e+01 -2.599857449531555176e-01 4.225797653198242188e+00 1.189743518829345703e+00 -3.068800568580627441e-01
6.020000000000000000e+02 5.097471237182617188e+01 2.949822616577148438e+01 -3.021813035011291504e-01 4.243678569793701172e+00 1.182449102401733398e+00 -4.937143027782440186e-01
6.030000000000000000e+02 5.339081573486328125e+01 2.841647148132324219e+01 -3.804703652858734131e-01 4.868919372558593750e+00 1.346534609794616699e+00 -2.251577675342559814e-01
6.040000000000000000e+02 5.658093643188476562e+01 2.382577705383300781e+01 -6.242794916033744812e-02 5.394842147827148438e+00 1.599724292755126953e+00 6.142005920410156250e-01
6.050000000000000000e+02 6.101456069946289062e+01 1.873970985412597656e+01 1.562922835350036621e+00 3.615698814392089844e+00 1.553586483001708984e+00 2.048896402120590210e-01
6.060000000000000000e+02 6.242827987670898438e+01 1.786447334289550781e+01 1.541945576667785645e+00 3.370941638946533203e+00 1.473866224288940430e+00 -6.519646048545837402e-01
6.070000000000000000e+02 6.549588012695312500e+01 1.317171382904052734e+01 3.248969793319702148e+00 1.404350948333740234e+01 5.187743663787841797e+00 -4.094532966613769531e+00
6.080000000000000000e+02 6.991194152832031250e+01 1.569948482513427734e+01 1.102169156074523926e+00 6.596397399902343750e+00 2.309570074081420898e+00 9.660339951515197754e-01
6.090000000000000000e+02 6.868404388427734375e+01 1.748884201049804688e+01 7.670173794031143188e-02 7.348430156707763672e+00 2.227539539337158203e+00 3.643692433834075928e-01
6.100000000000000000e+02 7.238172912597656250e+01 4.097750091552734375e+01 -9.100305289030075073e-02 6.242103576660156250e+00 1.845330238342285156e+00 3.110440820455551147e-02
6.110000000000000000e+02 6.749980163574218750e+01 3.742092132568359375e+01 -1.853085011243820190e-01 5.905592918395996094e+00 1.716085433959960938e+00 8.520782738924026489e-02
6.120000000000000000e+02 7.285567474365234375e+01 3.507688140869140625e+01 -8.433568477630615234e-02 6.287929534912109375e+00 1.861078143119812012e+00 1.369046419858932495e-01
6.130000000000000000e+02 7.191696929931640625e+01 3.132719039916992188e+01 -1.054295524954795837e-01 6.208703994750976562e+00 1.830982327461242676e+00 2.091042548418045044e-01
6.140000000000000000e+02 7.151086425781250000e+01 2.535404968261718750e+01 4.499302594922482967e-04 6.240643024444580078e+00 1.872327804565429688e+00 2.303196340799331665e-01
6.150000000000000000e+02 7.040587615966796875e+01 1.904175567626953125e+01 2.202634811401367188e-01 6.586311340332031250e+00 2.041972398757934570e+00 3.767367005348205566e-01
6.160000000000000000e+02 7.151537322998046875e+01 1.704630851745605469e+01 8.676321506500244141e-01 6.048438549041748047e+00 2.074821233749389648e+00 4.990659654140472412e-01
6.170000000000000000e+02 6.762420654296875000e+01 4.080908966064453125e+01 -1.774302721023559570e-01 5.903039455413818359e+00 1.717682719230651855e+00 2.917310036718845367e-02
6.180000000000000000e+02 7.077268981933593750e+01 3.650313949584960938e+01 -1.214362829923629761e-01 6.138917922973632812e+00 1.805244565010070801e+00 1.185776069760322571e-01
6.190000000000000000e+02 6.734832763671875000e+01 3.415870285034179688e+01 -1.736840605735778809e-01 5.903975486755371094e+00 1.719087481498718262e+00 1.339611411094665527e-01
6.200000000000000000e+02 6.534609985351562500e+01 3.082568740844726562e+01 -1.238265633583068848e-01 5.787810325622558594e+00 1.699195146560668945e+00 1.323770731687545776e-01
6.210000000000000000e+02 6.522988128662109375e+01 2.545517349243164062e+01 7.658877223730087280e-02 5.792859554290771484e+00 1.760834455490112305e+00 1.202198714017868042e-01
6.220000000000000000e+02 6.617218017578125000e+01 2.279741096496582031e+01 2.557713985443115234e-01 5.944624423980712891e+00 1.860118746757507324e+00 -1.000010818243026733e-01
6.230000000000000000e+02 6.430934906005859375e+01 3.389633560180664062e+01 -2.112213224172592163e-01 5.652972698211669922e+00 1.632525444030761719e+00 1.194179579615592957e-01
6.240000000000000000e+02 6.301622772216796875e+01 3.005644416809082031e+01 -1.257975548505783081e-01 5.601913928985595703e+00 1.642834901809692383e+00 1.476421058177947998e-01
6.250000000000000000e+02 6.385171127319335938e+01 2.489885902404785156e+01 2.136250138282775879e-01 5.609883308410644531e+00 1.747052550315856934e+00 4.292156919836997986e-02
6.260000000000000000e+02 6.274888992309570312e+01 4.075124740600585938e+01 -2.584997415542602539e-01 5.484477519989013672e+00 1.567793250083923340e+00 2.457033470273017883e-02
6.270000000000000000e+02 6.340390777587890625e+01 3.726404190063476562e+01 -2.421700954437255859e-01 5.548590183258056641e+00 1.591925978660583496e+00 6.825848668813705444e-02
6.280000000000000000e+02 6.138405990600585938e+01 3.295949935913085938e+01 -2.141364067792892456e-01 5.435925483703613281e+00 1.566536784172058105e+00 7.178253680467605591e-02
6.290000000000000000e+02 6.098551177978515625e+01 2.880275154113769531e+01 -8.009595423936843872e-02 5.450796127319335938e+00 1.611209988594055176e+00 1.290609389543533325e-01
6.300000000000000000e+02 5.786036682128906250e+01 4.034241104125976562e+01 -2.797877788543701172e-01 4.908477306365966797e+00 1.388606786727905273e+00 -4.704240709543228149e-03
6.310000000000000000e+02 5.900558090209960938e+01 3.134818458557128906e+01 -2.272700071334838867e-01 5.257154941558837891e+00 1.508965492248535156e+00 9.083494544029235840e-02
6.320000000000000000e+02 5.638747024536132812e+01 3.414124298095703125e+01 -2.855631113052368164e-01 4.858297824859619141e+00 1.371820449829101562e+00 -5.564266815781593323e-02
6.330000000000000000e+02 5.278890228271484375e+01 4.018671417236328125e+01 -2.064926475286483765e-01 4.207412719726562500e+00 1.200276017189025879e+00 -5.948638170957565308e-02
6.340000000000000000e+02 2.257617759704589844e+01 3.465036010742187500e+01 3.519092202186584473e-01 -4.089642688632011414e-02 9.330384433269500732e-02 1.437574326992034912e-01
6.350000000000000000e+02 2.260184669494628906e+01 3.133091354370117188e+01 2.377514541149139404e-01 -7.818701118230819702e-02 4.786933213472366333e-02 2.064789235591888428e-01
6.360000000000000000e+02 2.179035186767578125e+01 2.281617927551269531e+01 -2.857929468154907227e-01 -2.069087922573089600e-01 -1.478105187416076660e-01 2.841149866580963135e-01
6.370000000000000000e+02 2.275924110412597656e+01 1.870704269409179688e+01 -9.278210401535034180e-01 -3.581096827983856201e-01 -3.857792019844055176e-01 2.969496548175811768e-01
6.380000000000000000e+02 2.030581283569335938e+01 1.575704479217529297e+01 -7.606264352798461914e-01 -1.712394654750823975e-01 -2.795597612857818604e-01 -2.385614216327667236e-01
6.390000000000000000e+02 1.632314109802246094e+01 1.370493888854980469e+01 -3.993266820907592773e-01 -1.123306229710578918e-01 -1.534971892833709717e-01 -2.021656185388565063e-01
6.400000000000000000e+02 1.326719951629638672e+01 1.287636375427246094e+01 -2.733477950096130371e-01 -7.179567962884902954e-02 -1.035430431365966797e-01 -1.137181371450424194e-01
6.410000000000000000e+02 9.213549613952636719e+00 1.432430934906005859e+01 -2.233382612466812134e-01 1.111430749297142029e-01 -3.365855664014816284e-02 -5.654861032962799072e-02
6.420000000000000000e+02 4.440410137176513672e+00 1.398330497741699219e+01 -1.213404163718223572e-01 1.892606467008590698e-01 2.037607133388519287e-02 -9.165805578231811523e-02
6.430000000000000000e+02 6.458219885826110840e-01 1.360160446166992188e+01 1.487430464476346970e-02 2.816175222396850586e-01 8.894754946231842041e-02 -2.458545379340648651e-02
6.440000000000000000e+02 1.921414017677307129e+00 1.516732311248779297e+01 3.424863098189234734e-03 2.591693401336669922e-01 7.877826690673828125e-02 -3.663819283246994019e-02
6.450000000000000000e+02 6.415956020355224609e-01 9.320709228515625000e+00 -1.847499608993530273e-02 -1.005358397960662842e-01 -3.570325300097465515e-02 -9.800580143928527832e-02
6.460000000000000000e+02 1.998975515365600586e+00 1.085498905181884766e+01 -9.332884848117828369e-02 1.189539283514022827e-01 7.687523961067199707e-03 -1.613152176141738892e-01
6.470000000000000000e+02 5.787494182586669922e-01 6.499874591827392578e+00 -2.749573998153209686e-02 -7.669617533683776855e-01 -2.383372485637664795e-01 -1.848960816860198975e-01
6.480000000000000000e+02 5.374525547027587891e+00 4.438246250152587891e+00 -3.330109119415283203e-01 1.806213140487670898e+00 4.419606924057006836e-01 -5.615704059600830078e-01
6.490000000000000000e+02 6.195377826690673828e+00 5.437615394592285156e+00 -3.680766522884368896e-01 9.548801779747009277e-01 1.760410666465759277e-01 2.950443625450134277e-01
6.500000000000000000e+02 5.577141284942626953e+00 5.468014240264892578e+00 -4.372801780700683594e-01 9.347991347312927246e-01 1.492556780576705933e-01 -2.118142545223236084e-01
6.510000000000000000e+02 8.405974388122558594e+00 6.656865119934082031e+00 4.035574197769165039e-02 -6.186034157872200012e-02 -6.451380439102649689e-03 7.045889645814895630e-02
6.520000000000000000e+02 9.170592308044433594e+00 7.547981262207031250e+00 -1.439654231071472168e-01 6.236749142408370972e-02 -2.447937987744808197e-02 -3.937527164816856384e-02
6.530000000000000000e+02 9.259139060974121094e+00 6.651732921600341797e+00 3.402994573116302490e-02 6.068827211856842041e-02 2.841546572744846344e-02 -7.523357123136520386e-02
6.540000000000000000e+02 1.288861370086669922e+01 1.079272651672363281e+01 -1.901560276746749878e-01 -1.065656468272209167e-01 -8.901650458574295044e-02 -1.166083589196205139e-01
6.550000000000000000e+02 1.099956130981445312e+01 8.599565505981445312e+00 -9.708637744188308716e-02 -9.641528129577636719e-03 -3.201837092638015747e-02 -4.972846806049346924e-02
6.560000000000000000e+02 1.184525775909423828e+01 9.732642173767089844e+00 -1.276919394731521606e-01 -5.660065636038780212e-02 -5.528777837753295898e-02 -1.118334904313087463e-01
6.570000000000000000e+02 1.515139579772949219e+01 1.267430686950683594e+01 -3.124524354934692383e-01 -1.592287272214889526e-01 -1.415043473243713379e-01 -1.766742616891860962e-01
6.580000000000000000e+02 2.253188133239746094e+01 4.099184417724609375e+01 4.190033972263336182e-01 -5.465310532599687576e-03 1.240614205598831177e-01 2.619599550962448120e-02
6.590000000000000000e+02 1.868319892883300781e+01 3.470359802246093750e+01 2.675990760326385498e-01 -1.150870993733406067e-01 4.575359076261520386e-02 1.733083128929138184e-01
6.600000000000000000e+02 1.917470359802246094e+01 3.159843444824218750e+01 1.887502968311309814e-01 -1.217787340283393860e-01 2.009146846830844879e-02 2.318266034126281738e-01
6.610000000000000000e+02 1.905541610717773438e+01 2.644539451599121094e+01 -3.827059268951416016e-02 -1.331649422645568848e-01 -5.143066123127937317e-02 3.008955121040344238e-01
6.620000000000000000e+02 1.778599929809570312e+01 2.233642196655273438e+01 -3.149884641170501709e-01 -9.576488286256790161e-02 -1.232260018587112427e-01 2.877395153045654297e-01
6.630000000000000000e+02 1.740250015258789062e+01 2.031201362609863281e+01 -4.502947330474853516e-01 -4.427605867385864258e-02 -1.483712345361709595e-01 1.887757629156112671e-01
6.640000000000000000e+02 1.899299240112304688e+01 1.512962341308593750e+01 -5.600246191024780273e-01 -6.812786310911178589e-02 -1.884457468986511230e-01 -2.448392212390899658e-01
6.650000000000000000e+02 1.730614280700683594e+01 1.645760345458984375e+01 -5.422570705413818359e-01 -3.406341746449470520e-02 -1.728961467742919922e-01 -1.054977178573608398e-01
6.660000000000000000e+02 1.770044326782226562e+01 4.101654052734375000e+01 3.153186738491058350e-01 -1.087868735194206238e-01 6.195954233407974243e-02 3.446305170655250549e-02
6.670000000000000000e+02 1.813938331604003906e+01 3.792930984497070312e+01 3.086852729320526123e-01 -1.090941354632377625e-01 5.987734720110893250e-02 1.045540198683738708e-01
6.680000000000000000e+02 1.491518115997314453e+01 3.428735351562500000e+01 1.785701811313629150e-01 -1.239482685923576355e-01 1.638657227158546448e-02 1.881968975067138672e-01
6.690000000000000000e+02 1.681668853759765625e+01 2.869424438476562500e+01 5.278631299734115601e-02 -1.226477473974227905e-01 -2.095843106508255005e-02 2.777797579765319824e-01
6.700000000000000000e+02 1.714606094360351562e+01 2.658050727844238281e+01 -2.970014140009880066e-02 -1.179212629795074463e-01 -4.428642243146896362e-02 2.902665138244628906e-01
6.710000000000000000e+02 1.473445510864257812e+01 2.333054351806640625e+01 -1.846949756145477295e-01 -4.758693650364875793e-02 -6.968457251787185669e-02 2.511729300022125244e-01
6.720000000000000000e+02 1.481067276000976562e+01 1.994306564331054688e+01 -3.608697056770324707e-01 4.368230700492858887e-03 -1.069504395127296448e-01 1.404399871826171875e-01
6.730000000000000000e+02 1.469514369964599609e+01 1.695688819885253906e+01 -3.931162059307098389e-01 -1.544583495706319809e-02 -1.225686147809028625e-01 4.030974523629993200e-04
6.740000000000000000e+02 1.291483497619628906e+01 4.097541427612304688e+01 2.015642970800399780e-01 -1.333336532115936279e-01 2.046919241547584534e-02 3.363490849733352661e-02
6.750000000000000000e+02 1.373585987091064453e+01 3.769192123413085938e+01 1.995157003402709961e-01 -1.300839632749557495e-01 2.082952111959457397e-02 1.140928342938423157e-01
6.760000000000000000e+02 1.211645412445068359e+01 3.292003250122070312e+01 1.163351163268089294e-01 -1.067678034305572510e-01 2.870194148272275925e-03 1.982195526361465454e-01
6.770000000000000000e+02 1.181662559509277344e+01 2.917592239379882812e+01 3.742559999227523804e-02 -7.458536326885223389e-02 -1.114792842417955399e-02 2.362301647663116455e-01
6.780000000000000000e+02 1.103261184692382812e+01 2.644516372680664062e+01 -3.367294371128082275e-02 -3.332447633147239685e-02 -2.009922638535499573e-02 2.310730814933776855e-01
6.790000000000000000e+02 1.250351428985595703e+01 2.247966957092285156e+01 -1.862737089395523071e-01 -3.121045650914311409e-03 -5.681842565536499023e-02 2.039767205715179443e-01
6.800000000000000000e+02 1.218436908721923828e+01 1.948066711425781250e+01 -2.505277991294860840e-01 3.951274603605270386e-02 -6.330451369285583496e-02 1.060939207673072815e-01
6.810000000000000000e+02 1.234717273712158203e+01 1.673394775390625000e+01 -2.908752262592315674e-01 5.071052536368370056e-02 -7.204940915107727051e-02 2.165980450809001923e-02
6.820000000000000000e+02 1.358717060089111328e+01 1.728769874572753906e+01 -3.328818976879119873e-01 2.168048545718193054e-02 -9.336042404174804688e-02 2.756238542497158051e-02
6.830000000000000000e+02 8.361582756042480469e+00 4.092399597167968750e+01 9.841546416282653809e-02 -1.344067901372909546e-01 -1.079739909619092941e-02 3.105571120977401733e-02
6.840000000000000000e+02 9.678839683532714844e+00 3.770468902587890625e+01 1.190828010439872742e-01 -1.242756694555282593e-01 -1.557861920446157455e-03 1.054573208093643188e-01
6.850000000000000000e+02 7.631462097167968750e+00 3.048090744018554688e+01 1.795197837054729462e-02 -4.396757110953330994e-02 -7.804677356034517288e-03 1.820837557315826416e-01
6.860000000000000000e+02 8.861665725708007812e+00 2.683248329162597656e+01 -1.927976682782173157e-02 -7.630783133208751678e-03 -8.073165081441402435e-03 2.030286788940429688e-01
6.870000000000000000e+02 9.294625282287597656e+00 2.329948043823242188e+01 -1.032811999320983887e-01 2.822400256991386414e-02 -2.251715958118438721e-02 1.735237687826156616e-01
6.880000000000000000e+02 8.558325767517089844e+00 2.092645454406738281e+01 -1.344926357269287109e-01 7.891300320625305176e-02 -1.667389087378978729e-02 1.117023006081581116e-01
6.890000000000000000e+02 9.578536987304687500e+00 1.665923500061035156e+01 -2.185383588075637817e-01 9.589236229658126831e-02 -3.679380193352699280e-02 1.821964234113693237e-02
6.900000000000000000e+02 1.041637897491455078e+01 1.668735504150390625e+01 -2.284520566463470459e-01 6.770188361406326294e-02 -4.822504892945289612e-02 3.797170473262667656e-03
6.910000000000000000e+02 5.216736316680908203e+00 4.020693969726562500e+01 3.593146800994873047e-02 -1.485338509082794189e-01 -3.378071635961532593e-02 4.075901582837104797e-02
6.920000000000000000e+02 6.771299362182617188e+00 3.782795715332031250e+01 6.537599116563796997e-02 -1.206065267324447632e-01 -1.656916178762912750e-02 8.334723860025405884e-02
6.930000000000000000e+02 6.463739395141601562e+00 3.270435333251953125e+01 4.450255259871482849e-02 -7.592685520648956299e-02 -9.427291341125965118e-03 1.448212116956710815e-01
6.940000000000000000e+02 6.393916606903076172e+00 2.957653617858886719e+01 8.349188603460788727e-03 -1.989432983100414276e-02 -3.463542321696877480e-03 1.642602384090423584e-01
6.950000000000000000e+02 6.208103656768798828e+00 2.653186225891113281e+01 -2.746083214879035950e-02 3.579364344477653503e-02 2.499842783436179161e-03 1.582230329513549805e-01
6.960000000000000000e+02 6.050314426422119141e+00 2.511350822448730469e+01 -1.819415017962455750e-02 6.046495959162712097e-02 1.268124300986528397e-02 1.543702334165573120e-01
6.970000000000000000e+02 5.967922687530517578e+00 2.091800308227539062e+01 -8.640319854021072388e-02 1.237752586603164673e-01 1.121161784976720810e-02 8.688202500343322754e-02
6.980000000000000000e+02 5.742858886718750000e+00 1.674103927612304688e+01 -8.045344054698944092e-02 1.583383381366729736e-01 2.336546778678894043e-02 -1.071507297456264496e-02
6.990000000000000000e+02 4.457801342010498047e+00 1.535909843444824219e+01 -5.569251254200935364e-02 1.865402758121490479e-01 3.925433009862899780e-02 -5.400165170431137085e-02
7.000000000000000000e+02 2.063246726989746094e+00 4.162322616577148438e+01 8.735026232898235321e-03 -2.114177495241165161e-01 -6.080481782555580139e-02 2.373665338382124901e-03
7.010000000000000000e+02 2.780345439910888672e+00 3.786575317382812500e+01 1.128295529633760452e-02 -1.631172448396682739e-01 -4.555028676986694336e-02 3.930516541004180908e-02
7.020000000000000000e+02 1.857511281967163086e+00 3.331520462036132812e+01 1.343021169304847717e-03 -8.633097261190414429e-02 -2.549638412892818451e-02 4.994654282927513123e-02
7.030000000000000000e+02 1.952322483062744141e+00 3.198546409606933594e+01 1.275407336652278900e-02 -4.743369668722152710e-02 -1.040388643741607666e-02 6.246567517518997192e-02
7.040000000000000000e+02 2.030306577682495117e+00 2.780374717712402344e+01 -1.109474804252386093e-02 7.360151410102844238e-02 1.875202916562557220e-02 6.887956708669662476e-02
7.050000000000000000e+02 1.969766855239868164e+00 2.499161148071289062e+01 -1.867308095097541809e-02 1.571988314390182495e-01 4.155772551894187927e-02 6.103206425905227661e-02
7.060000000000000000e+02 1.923272490501403809e+00 2.077115249633789062e+01 9.269856847822666168e-03 2.539209127426147461e-01 7.895722985267639160e-02 3.744408115744590759e-02
7.070000000000000000e+02 1.922034740447998047e+00 1.796752929687500000e+01 7.523454260081052780e-03 2.791779041290283203e-01 8.601041138172149658e-02 7.309736683964729309e-03
7.080000000000000000e+02 6.378399133682250977e-01 1.783177947998046875e+01 -2.574820071458816528e-02 3.519453704357147217e-01 9.785915166139602661e-02 -4.034343292005360126e-04
7.090000000000000000e+02 1.764745712280273438e+00 7.953071594238281250e+00 -1.066640168428421021e-01 -1.508990824222564697e-01 -7.726892828941345215e-02 -3.381656408309936523e-01
7.100000000000000000e+02 5.436959862709045410e-01 3.581403017044067383e+00 8.887174725532531738e-02 -1.180466413497924805e+00 -3.274784088134765625e-01 7.108555734157562256e-02
7.110000000000000000e+02 3.603990554809570312e+00 1.912909507751464844e+00 1.420190095901489258e+00 -1.235093832015991211e+00 5.552888661623001099e-02 1.397683978080749512e+00
7.120000000000000000e+02 4.343194961547851562e+00 2.770457267761230469e+00 3.405014753341674805e+00 -4.334656000137329102e-01 8.914647698402404785e-01 -7.481442689895629883e-01
7.130000000000000000e+02 2.658654451370239258e+00 3.355559349060058594e+00 9.723485708236694336e-01 -8.104521036148071289e-01 4.856894537806510925e-02 -1.078547537326812744e-02
7.140000000000000000e+02 4.203826904296875000e+00 3.697108983993530273e+00 1.492519497871398926e+00 4.782477617263793945e-01 5.912301540374755859e-01 -1.307616829872131348e+00
7.150000000000000000e+02 2.312086486816406250e+01 1.704047966003417969e+01 -1.755265593528747559e+00 -3.922337293624877930e-01 -6.442497968673706055e-01 1.776413992047309875e-02
7.160000000000000000e+02 2.329469490051269531e+01 1.187682914733886719e+01 2.911352515220642090e-01 3.584227561950683594e-01 1.948674023151397705e-01 2.652192413806915283e-01
7.170000000000000000e+02 2.323136711120605469e+01 9.022036552429199219e+00 -2.513635456562042236e-01 1.156281679868698120e-01 -4.072061181068420410e-02 -5.695103108882904053e-02
7.180000000000000000e+02 1.793682098388671875e+01 6.789410114288330078e+00 -1.423377245664596558e-01 -5.383554100990295410e-02 -5.885197967290878296e-02 -3.226203471422195435e-02
7.190000000000000000e+02 2.190270423889160156e+01 5.953593730926513672e+00 -2.499940693378448486e-01 6.153848394751548767e-02 -5.653667449951171875e-02 -1.193593814969062805e-01
7.200000000000000000e+02 6.201354980468750000e+01 1.397609901428222656e+01 -2.174681425094604492e-01 -7.787819206714630127e-02 -8.860389888286590576e-02 -7.513440251350402832e-01
7.210000000000000000e+02 5.898687744140625000e+01 1.533259296417236328e+01 1.762331843376159668e+00 2.154218673706054688e+00 1.174965143203735352e+00 1.639332056045532227e+00
7.220000000000000000e+02 5.624872207641601562e+01 1.823781776428222656e+01 8.632023930549621582e-01 5.597312927246093750e+00 1.938154578208923340e+00 1.954076647758483887e+00
7.230000000000000000e+02 5.477682113647460938e+01 2.468355178833007812e+01 -3.648360073566436768e-01 5.495092391967773438e+00 1.539076924324035645e+00 2.148376554250717163e-01
7.240000000000000000e+02 5.058012390136718750e+01 2.520771980285644531e+01 -4.924245476722717285e-01 4.746196269989013672e+00 1.276131510734558105e+00 -7.414447069168090820e-01
7.250000000000000000e+02 4.884136199951171875e+01 2.451098632812500000e+01 -3.433956205844879150e-01 4.189185619354248047e+00 1.153737068176269531e+00 -1.073152184486389160e+00
7.260000000000000000e+02 4.793978500366210938e+01 2.110198211669921875e+01 -9.666519612073898315e-02 3.760976791381835938e+00 1.099293470382690430e+00 -1.649039983749389648e+00
7.270000000000000000e+02 5.465942382812500000e+01 1.652359199523925781e+01 9.233402013778686523e-01 7.621242046356201172e+00 2.563374757766723633e+00 2.377151727676391602e+00
7.280000000000000000e+02 5.791159820556640625e+01 1.251093006134033203e+01 8.548607230186462402e-01 1.590605258941650391e+00 7.336397767066955566e-01 1.111924529075622559e+00
7.290000000000000000e+02 5.878989410400390625e+01 1.156690311431884766e+01 -5.608728528022766113e-01 -2.294802665710449219e-01 -2.371059358119964600e-01 -2.991997003555297852e-01
7.300000000000000000e+02 6.092852783203125000e+01 1.323347568511962891e+01 -9.679256677627563477e-01 -2.984664738178253174e-01 -3.799176514148712158e-01 -4.037763476371765137e-01
7.310000000000000000e+02 5.984836578369140625e+01 1.242867374420166016e+01 -6.819789409637451172e-01 -2.202223092317581177e-01 -2.706603705883026123e-01 -4.337558448314666748e-01
7.320000000000000000e+02 6.622312164306640625e+01 9.146361351013183594e+00 1.215274333953857422e+00 1.439301109313964844e+01 4.682485580444335938e+00 1.060401439666748047e+00
7.330000000000000000e+02 6.431361389160156250e+01 7.402351856231689453e+00 7.416148185729980469e-01 5.011630058288574219e+00 1.725973486900329590e+00 2.294708490371704102e+00
7.340000000000000000e+02 6.187166976928710938e+01 4.228160381317138672e+00 -7.674444317817687988e-01 9.372192621231079102e-01 5.093244835734367371e-02 3.057190589606761932e-02
7.350000000000000000e+02 6.063599014282226562e+01 -2.039248228073120117e+00 -2.793814241886138916e-01 5.235301971435546875e+00 1.486776113510131836e+00 -4.618287980556488037e-01
7.360000000000000000e+02 5.660701370239257812e+01 1.324526965618133545e-01 -2.232810258865356445e+00 1.392289757728576660e+00 -2.521561682224273682e-01 -4.812014579772949219e+00
7.370000000000000000e+02 5.761039352416992188e+01 1.005397081375122070e+00 -6.214691162109375000e+00 -1.519202113151550293e+00 -2.320168018341064453e+00 -3.220827579498291016e+00
7.380000000000000000e+02 5.276567840576171875e+01 5.213208675384521484e+00 1.499817252159118652e+00 1.535812950134277344e+01 5.057384014129638672e+00 -1.697769522666931152e+00
7.390000000000000000e+02 5.601240158081054688e+01 8.475790023803710938e+00 1.262238025665283203e-01 3.448697328567504883e+00 1.072476387023925781e+00 8.062605261802673340e-01
7.400000000000000000e+02 5.373935317993164062e+01 1.223333740234375000e+01 2.870127439498901367e+00 1.047729396820068359e+01 4.004226207733154297e+00 1.650904297828674316e+00
7.410000000000000000e+02 5.151944351196289062e+01 1.340228939056396484e+01 3.420767307281494141e+00 1.961360931396484375e+01 6.910313129425048828e+00 -3.424156904220581055e-01
7.420000000000000000e+02 5.686751174926757812e+01 9.569987297058105469e+00 -2.403687536716461182e-01 1.141600131988525391e+00 2.703694105148315430e-01 1.646889001131057739e-01
7.430000000000000000e+02 5.779255676269531250e+01 1.060666942596435547e+01 -2.999608814716339111e-01 2.259604930877685547e-01 -2.220012247562408447e-02 -2.360561639070510864e-01
7.440000000000000000e+02 5.349056243896484375e+01 1.380356502532958984e+01 3.220273971557617188e+00 1.093322277069091797e+01 4.246048927307128906e+00 2.251011610031127930e+00
7.450000000000000000e+02 5.541246795654296875e+01 1.555512428283691406e+01 1.398756265640258789e+00 6.763921260833740234e+00 2.448803186416625977e+00 3.070180654525756836e+00
7.460000000000000000e+02 5.135807418823242188e+01 1.922498703002929688e+01 -1.219037294387817383e+00 7.849431514739990234e+00 1.989118218421936035e+00 -4.116050004959106445e-01
7.470000000000000000e+02 2.786276245117187500e+01 1.527181267738342285e+00 1.944837123155593872e-01 -2.999213635921478271e-01 -3.163129463791847229e-02 -4.431329071521759033e-01
7.480000000000000000e+02 3.024092102050781250e+01 -1.272141575813293457e+00 1.509366750717163086e+00 2.441537380218505859e+00 1.185271263122558594e+00 1.408343434333801270e+00
7.490000000000000000e+02 2.607793426513671875e+01 1.654692769050598145e+00 -2.937901616096496582e-01 -3.324559032917022705e-01 -1.878738254308700562e-01 -4.399995505809783936e-01
7.500000000000000000e+02 3.163138389587402344e+01 -2.944200634956359863e-01 3.432938814163208008e+00 9.147551655769348145e-01 1.304308176040649414e+00 2.822614610195159912e-01
7.510000000000000000e+02 3.050004577636718750e+01 -1.570162326097488403e-01 3.428372144699096680e+00 2.120897769927978516e+00 1.664780974388122559e+00 7.148397564888000488e-01
7.520000000000000000e+02 4.054767227172851562e+01 -1.124669075012207031e+01 -3.770681321620941162e-01 3.661190509796142578e+00 9.852367043495178223e-01 4.512186348438262939e-01
7.530000000000000000e+02 3.245306396484375000e+01 -9.160712242126464844e+00 -1.141981482505798340e-01 -5.321882292628288269e-02 -5.022509023547172546e-02 1.161311417818069458e-01
7.540000000000000000e+02 3.005254173278808594e+01 -7.173594951629638672e+00 -8.393005281686782837e-02 3.099617063999176025e-01 6.780949234962463379e-02 2.336965315043926239e-02
7.550000000000000000e+02 3.061928176879882812e+01 -5.400569915771484375e+00 -5.130569264292716980e-02 3.862244486808776855e-01 1.004756242036819458e-01 -8.842163532972335815e-02
7.560000000000000000e+02 2.919767951965332031e+01 -1.224890589714050293e+00 1.680122137069702148e+00 5.167157649993896484e-01 6.590513586997985840e-01 7.231827974319458008e-01
7.570000000000000000e+02 4.995693588256835938e+01 -1.557746887207031250e+01 -1.089468479156494141e+00 -6.805942058563232422e-01 -5.310187935829162598e-01 9.822541475296020508e-01
7.580000000000000000e+02 4.563066864013671875e+01 -1.273569011688232422e+01 -5.393075942993164062e-01 3.266138553619384766e+00 8.180493116378784180e-01 4.998598396778106689e-01
7.590000000000000000e+02 4.795214843750000000e+01 -1.346120452880859375e+01 -6.413859128952026367e-01 1.451338976621627808e-01 -1.488756090402603149e-01 5.560882687568664551e-01
7.600000000000000000e+02 4.515920639038085938e+01 -8.332425117492675781e+00 4.929754137992858887e-01 8.548972129821777344e+00 2.712584257125854492e+00 -1.311703205108642578e+00
7.610000000000000000e+02 4.276730346679687500e+01 -5.144405364990234375e+00 2.493824005126953125e+00 6.234863281250000000e+00 2.618606090545654297e+00 5.867148041725158691e-01
7.620000000000000000e+02 4.453224945068359375e+01 -5.699434280395507812e+00 1.787529826164245605e+00 1.508308219909667969e+01 5.061183452606201172e+00 4.769864976406097412e-01
7.630000000000000000e+02 4.390085220336914062e+01 -4.460492134094238281e+00 3.040580749511718750e+00 1.166446781158447266e+01 4.411514759063720703e+00 1.501770257949829102e+00
7.640000000000000000e+02 4.765162277221679688e+01 -2.579292058944702148e-01 9.143880009651184082e-01 1.907343149185180664e+00 8.465193510055541992e-01 3.799984693527221680e+00
7.650000000000000000e+02 4.727698898315429688e+01 6.011861324310302734e+00 2.122889995574951172e+00 3.216873645782470703e+00 1.601929068565368652e+00 2.320593595504760742e+00
7.660000000000000000e+02 4.826704025268554688e+01 5.290010452270507812e+00 2.260218143463134766e+00 5.215734004974365234e+00 2.242785692214965820e+00 2.521212339401245117e+00
7.670000000000000000e+02 6.623273468017578125e+01 -2.519329786300659180e+00 -6.698951721191406250e+00 -1.348710894584655762e+00 -2.414298772811889648e+00 2.720718145370483398e+00
7.680000000000000000e+02 6.817024993896484375e+01 -4.353998661041259766e+00 -1.829524159431457520e+00 7.814437150955200195e-01 -3.144241273403167725e-01 1.826389878988265991e-01
7.690000000000000000e+02 6.720223236083984375e+01 -3.379721164703369141e+00 -3.660385131835937500e+00 -1.887295842170715332e-01 -1.154734492301940918e+00 1.792883157730102539e+00
7.700000000000000000e+02 7.098772430419921875e+01 -5.724452495574951172e+00 -1.687658876180648804e-01 5.012242794036865234e+00 1.453042984008789062e+00 -1.447200655937194824e+00
7.710000000000000000e+02 7.161265563964843750e+01 -8.650151252746582031e+00 1.716088175773620605e+00 9.749636650085449219e+00 3.439717292785644531e+00 -3.281062841415405273e+00
7.720000000000000000e+02 7.238614654541015625e+01 -1.195272827148437500e+01 5.579922199249267578e-01 1.381065845489501953e+01 4.310595035552978516e+00 -6.012902408838272095e-02
7.730000000000000000e+02 7.418875122070312500e+01 -1.179039478302001953e+01 1.264604687690734863e+00 1.044587421417236328e+01 3.513143777847290039e+00 3.564482331275939941e-01
7.740000000000000000e+02 7.489216613769531250e+01 -1.089095497131347656e+01 1.114166259765625000e+00 9.698744773864746094e+00 3.243873357772827148e+00 3.995377123355865479e-01
7.750000000000000000e+02 7.360654449462890625e+01 -1.269576549530029297e+01 1.151984572410583496e+00 1.124315166473388672e+01 3.718540906906127930e+00 3.817448318004608154e-01
7.760000000000000000e+02 6.911574554443359375e+01 -5.368471622467041016e+00 -1.169161722064018250e-01 1.897240281105041504e+00 5.340971946716308594e-01 -7.885106801986694336e-01
7.770000000000000000e+02 6.356890106201171875e+01 -9.450449943542480469e+00 9.868003129959106445e-01 9.046459197998046875e+00 3.009977817535400391e+00 -1.782251358032226562e+00
7.780000000000000000e+02 6.326020812988281250e+01 -6.845358371734619141e+00 6.720310449600219727e-01 1.248175239562988281e+01 3.946135044097900391e+00 -5.560207962989807129e-01
7.790000000000000000e+02 6.197157669067382812e+01 -4.394882678985595703e+00 2.092170715332031250e+00 9.019010543823242188e+00 3.333354234695434570e+00 9.833077788352966309e-01
7.800000000000000000e+02 5.577835845947265625e+01 -9.842020273208618164e-01 -5.877029299736022949e-01 5.866584300994873047e+00 1.583664298057556152e+00 -6.602066040039062500e+00
7.810000000000000000e+02 5.586712265014648438e+01 -2.770156145095825195e+00 -1.142010688781738281e+00 6.026940822601318359e+00 1.465479135513305664e+00 -4.662391185760498047e+00
7.820000000000000000e+02 6.318171691894531250e+01 -5.492403984069824219e+00 2.073332965373992920e-01 1.411486530303955078e+01 4.296659469604492188e+00 4.371776282787322998e-01
7.830000000000000000e+02 6.322748947143554688e+01 -4.155970573425292969e+00 2.072538137435913086e+00 1.478359317779541016e+01 5.056839466094970703e+00 2.759083271026611328e+00
7.840000000000000000e+02 6.042621612548828125e+01 1.557697296142578125e+00 -4.184473991394042969e+00 1.735707640647888184e+00 -7.346298098564147949e-01 -2.995840311050415039e-01
7.850000000000000000e+02 5.981882095336914062e+01 2.454655647277832031e+00 -4.136872768402099609e+00 -7.682971358299255371e-01 -1.471550941467285156e+00 -1.821619629859924316e+00
7.860000000000000000e+02 6.433176422119140625e+01 -2.298180341720581055e+00 -1.978200554847717285e+00 6.135572433471679688e+00 1.247211575508117676e+00 4.629507541656494141e+00
7.870000000000000000e+02 6.313584899902343750e+01 -2.776359081268310547e+00 1.345174431800842285e+00 1.143138122558593750e+01 3.832966804504394531e+00 2.252499580383300781e+00
7.880000000000000000e+02 6.933356475830078125e+01 -1.541064381599426270e+00 -3.328940868377685547e+00 5.319318294525146484e+00 5.971131920814514160e-01 -2.133001327514648438e+00
7.890000000000000000e+02 6.673992919921875000e+01 6.513637542724609375e+00 -3.928444683551788330e-01 1.028328132629394531e+01 2.967131137847900391e+00 -1.395836949348449707e+00
7.900000000000000000e+02 6.592910766601562500e+01 1.173627758026123047e+01 2.825022697448730469e+00 2.139234924316406250e+01 7.265211582183837891e+00 -1.339921474456787109e+00
7.910000000000000000e+02 6.594161987304687500e+01 1.038625240325927734e+01 1.387854933738708496e+00 1.891598892211914062e+01 6.091153144836425781e+00 1.914404153823852539e+00
7.920000000000000000e+02 6.531164550781250000e+01 1.612893867492675781e+01 1.465672850608825684e-01 7.939393043518066406e+00 2.425787925720214844e+00 -2.083607196807861328e+00
7.930000000000000000e+02 6.584178924560546875e+01 1.804133033752441406e+01 2.676991224288940430e-01 6.592227458953857422e+00 2.057977914810180664e+00 -5.867978930473327637e-01
7.940000000000000000e+02 6.049071121215820312e+01 1.735382080078125000e+01 1.705892682075500488e+00 2.897516489028930664e+00 1.381022691726684570e+00 6.337700486183166504e-01
7.950000000000000000e+02 5.955767440795898438e+01 1.940004158020019531e+01 1.243867635726928711e+00 4.064806938171386719e+00 1.592602491378784180e+00 9.290815591812133789e-01
7.960000000000000000e+02 5.635905075073242188e+01 2.171821022033691406e+01 1.435577869415283203e-01 5.528850078582763672e+00 1.701722383499145508e+00 8.912739157676696777e-01
7.970000000000000000e+02 5.300671005249023438e+01 2.463065910339355469e+01 -5.179645419120788574e-01 5.378033638000488281e+00 1.458020806312561035e+00 -1.299492716789245605e-01
7.980000000000000000e+02 4.875129318237304688e+01 3.038644218444824219e+01 -1.891819089651107788e-01 3.741658687591552734e+00 1.065742969512939453e+00 -5.731405019760131836e-01
7.990000000000000000e+02 4.225172042846679688e+01 6.629032492637634277e-01 5.125588551163673401e-02 1.876688003540039062e+00 5.783831477165222168e-01 9.014858007431030273e-01
8.000000000000000000e+02 7.933271789550781250e+01 1.395827674865722656e+01 -1.028202101588249207e-02 6.528665065765380859e+00 1.955514907836914062e+00 -1.357701867818832397e-01
8.010000000000000000e+02 7.617284393310546875e+01 1.304820156097412109e+01 -6.895752251148223877e-02 6.525331020355224609e+00 1.936911940574645996e+00 -1.348305463790893555e+00
8.020000000000000000e+02 5.805390930175781250e+01 1.633890914916992188e+01 1.700832009315490723e+00 3.487017154693603516e+00 1.556354761123657227e+00 1.979067444801330566e+00
8.030000000000000000e+02 4.311500549316406250e+01 1.731981658935546875e+01 -3.163434863090515137e-01 7.398462295532226562e-01 1.270508170127868652e-01 -2.890712320804595947e-01
8.040000000000000000e+02 3.590793991088867188e+01 1.775872039794921875e+01 -7.709507942199707031e-01 -2.111214250326156616e-01 -2.946216762065887451e-01 1.960604265332221985e-02
8.050000000000000000e+02 3.221900177001953125e+01 1.614671707153320312e+01 -1.389340043067932129e+00 -2.216677367687225342e-01 -4.833023250102996826e-01 3.991739153861999512e-01
8.060000000000000000e+02 5.392185211181640625e+01 9.662529945373535156e+00 5.175291299819946289e-01 1.093435096740722656e+01 3.435564279556274414e+00 5.094829797744750977e-01
8.070000000000000000e+02 2.949247360229492188e+01 1.297049522399902344e+01 -5.964608192443847656e-01 -2.693713307380676270e-01 -2.597496509552001953e-01 -2.588967382907867432e-01
8.080000000000000000e+02 5.121980667114257812e+01 4.030039310455322266e+00 3.088671922683715820e+00 1.064253139495849609e+01 4.119360923767089844e+00 -1.626655608415603638e-01
8.090000000000000000e+02 5.024495697021484375e+01 3.877708017826080322e-01 1.542681574821472168e+00 5.546707630157470703e+00 2.126816749572753906e+00 1.833012104034423828e+00
8.100000000000000000e+02 6.392799377441406250e+01 -9.369279742240905762e-01 -3.591217756271362305e+00 6.509337902069091797e+00 8.754361271858215332e-01 4.647735595703125000e+00
8.110000000000000000e+02 6.506787872314453125e+01 -3.546156883239746094e-01 -1.416563868522644043e+00 4.279579162597656250e+00 8.589045405387878418e-01 4.614281177520751953e+00
8.120000000000000000e+02 6.862075805664062500e+01 1.067856788635253906e+00 -1.202324151992797852e+00 8.890265464782714844e+00 2.306382417678833008e+00 -6.336157917976379395e-01
8.130000000000000000e+02 7.830002593994140625e+01 1.295768618583679199e+00 -8.241449594497680664e-01 1.151474952697753906e+01 3.207181453704833984e+00 -1.065185785293579102e+00
8.140000000000000000e+02 3.004803276062011719e+01 -2.609365701675415039e+00 -5.787597969174385071e-02 1.431877970695495605e+00 4.122005701065063477e-01 1.727897822856903076e-01
8.150000000000000000e+02 2.480448532104492188e+01 -2.951884269714355469e+00 5.483840703964233398e-01 -2.000735886394977570e-02 1.585130244493484497e-01 -1.550314575433731079e-01
8.160000000000000000e+02 4.025699996948242188e+01 -2.113735198974609375e+00 1.070657014846801758e+00 8.459106683731079102e-01 5.749703049659729004e-01 -6.621201634407043457e-01
8.170000000000000000e+02 5.156814575195312500e+01 -3.668350458145141602e+00 -4.486794948577880859e+00 3.741884946823120117e+00 -2.234729677438735962e-01 -8.744871616363525391e-01
8.180000000000000000e+02 5.340713500976562500e+01 -3.995012998580932617e+00 -3.433538675308227539e+00 6.263282299041748047e+00 8.489230871200561523e-01 -2.319523572921752930e+00
8.190000000000000000e+02 5.435094451904296875e+01 -4.992941856384277344e+00 -1.879342675209045410e+00 6.018460750579833984e+00 1.241735458374023438e+00 -2.038496732711791992e+00
8.200000000000000000e+02 5.257255172729492188e+01 -6.680356025695800781e+00 2.919475734233856201e-01 3.204954862594604492e+00 1.049070715904235840e+00 -1.336320519447326660e+00
8.210000000000000000e+02 5.965560913085937500e+01 -4.846385002136230469e+00 1.335963845252990723e+00 6.529533386230468750e+00 2.359649181365966797e+00 -4.509012401103973389e-01
8.220000000000000000e+02 7.014252471923828125e+01 -4.587709426879882812e+00 -1.497624278068542480e+00 3.805416345596313477e+00 6.923375725746154785e-01 -1.355407834053039551e+00
8.230000000000000000e+02 7.124167633056640625e+01 -3.823695898056030273e+00 -1.393613219261169434e+00 4.960574626922607422e+00 1.070088505744934082e+00 -1.573421835899353027e+00
8.240000000000000000e+02 7.524089813232421875e+01 -2.661788225173950195e+00 -3.311634361743927002e-01 6.303470134735107422e+00 1.791692018508911133e+00 7.161833643913269043e-01
8.250000000000000000e+02 7.802098846435546875e+01 -4.415604591369628906e+00 7.094394415616989136e-02 9.670882225036621094e+00 2.922547817230224609e+00 1.283215045928955078e+00
8.260000000000000000e+02 7.274648284912109375e+01 -6.252568244934082031e+00 -1.169427558779716492e-01 7.264244556427001953e+00 2.144190549850463867e+00 -3.021424114704132080e-01
8.270000000000000000e+02 3.859599304199218750e+01 4.873775959014892578e+00 -4.837441723793745041e-03 -8.915099501609802246e-02 -2.819653041660785675e-02 8.760660886764526367e-03
8.280000000000000000e+02 3.909917068481445312e+01 6.082481861114501953e+00 2.772177197039127350e-02 -2.176425047218799591e-02 1.787256565876305103e-03 1.352451927959918976e-02
8.290000000000000000e+02 4.266465187072753906e+00 -1.201491355895996094e+01 -9.504470042884349823e-03 -4.640524461865425110e-02 -1.677291467785835266e-02 -5.008908733725547791e-02
8.300000000000000000e+02 8.841668128967285156e+00 -9.307115554809570312e+00 -5.103939026594161987e-02 6.755094509571790695e-03 -1.328528858721256256e-02 -4.837002232670783997e-02
8.310000000000000000e+02 1.751734352111816406e+01 -1.028670215606689453e+01 -1.952987760305404663e-01 5.806231126189231873e-02 -4.117093980312347412e-02 -5.481652915477752686e-02
8.320000000000000000e+02 1.207042598724365234e+01 -6.532732486724853516e+00 -7.383747398853302002e-02 1.820947602391242981e-02 -1.668839901685714722e-02 -2.074582688510417938e-02
8.330000000000000000e+02 3.777262926101684570e+00 -1.912279844284057617e+00 -1.513292663730680943e-03 -7.156718056648969650e-04 -6.686893757432699203e-04 -4.240577982272952795e-04
8.340000000000000000e+02 1.186604881286621094e+01 -1.371686649322509766e+01 -7.436775416135787964e-02 3.331442177295684814e-02 -1.231599971652030945e-02 -1.071127653121948242e-01
8.350000000000000000e+02 1.100813388824462891e+01 -1.156924057006835938e+01 -7.050593197345733643e-02 2.031384594738483429e-02 -1.505762711167335510e-02 -7.939845323562622070e-02
8.360000000000000000e+02 1.963397598266601562e+01 -8.503468513488769531e+00 -2.463299185037612915e-01 1.645314390771090984e-03 -7.340537756681442261e-02 5.423654243350028992e-02
8.370000000000000000e+02 2.053262519836425781e+01 -9.521177291870117188e+00 -3.269197046756744385e-01 2.452519908547401428e-02 -9.071835130453109741e-02 3.389738872647285461e-02
8.380000000000000000e+02 1.988755226135253906e+01 -1.380352210998535156e+01 -1.511150747537612915e-01 1.255619674921035767e-01 -7.665934972465038300e-03 -5.925487726926803589e-02
8.390000000000000000e+02 1.955384445190429688e+01 -1.858870887756347656e+01 -6.372090429067611694e-02 1.730055063962936401e-01 3.278538212180137634e-02 -1.203918755054473877e-01
8.400000000000000000e+02 1.491752147674560547e+01 -1.468712329864501953e+01 -1.106854751706123352e-01 7.138008624315261841e-02 -1.179161667823791504e-02 -1.128097847104072571e-01
8.410000000000000000e+02 2.639486885070800781e+01 -1.310870170593261719e+01 -3.351272940635681152e-01 4.336300790309906006e-01 2.955083362758159637e-02 1.043327897787094116e-01
8.420000000000000000e+02 2.357923698425292969e+01 -1.344204044342041016e+01 -2.896519303321838379e-01 2.336470037698745728e-01 -1.680147275328636169e-02 6.078398600220680237e-02
8.430000000000000000e+02 1.639283370971679688e+01 -8.188858985900878906e+00 -1.543271988630294800e-01 3.694207966327667236e-02 -3.521553426980972290e-02 -9.288769215345382690e-03
8.440000000000000000e+02 1.180198383331298828e+01 -1.958765745162963867e+00 -1.571384817361831665e-02 -4.273744125384837389e-04 -4.842366557568311691e-03 1.325558521784842014e-03
8.450000000000000000e+02 8.534325599670410156e+00 -2.644769668579101562e+00 -1.773721724748611450e-02 2.151107881218194962e-03 -4.675833042711019516e-03 -5.047143902629613876e-03
8.460000000000000000e+02 8.658745765686035156e+00 -1.880236983299255371e+00 -1.086468249559402466e-02 -2.914203214459121227e-04 -3.346830839291214943e-03 -2.998359734192490578e-03
8.470000000000000000e+02 1.282294750213623047e+01 -9.161502838134765625e+00 -1.098083481192588806e-01 3.588122874498367310e-02 -2.217813767492771149e-02 -4.943209141492843628e-02
8.480000000000000000e+02 1.549422264099121094e+01 -6.082662105560302734e+00 -9.206445515155792236e-02 2.133475802838802338e-02 -2.121891081333160400e-02 1.625039801001548767e-02
8.490000000000000000e+02 1.661140441894531250e+01 -3.769278049468994141e+00 -2.840687334537506104e-02 -4.419859498739242554e-03 -9.848020039498806000e-03 2.102128230035305023e-02
8.500000000000000000e+02 1.269441509246826172e+01 -5.062370777130126953e+00 -5.379432812333106995e-02 1.256170962005853653e-02 -1.236978545784950256e-02 -1.338312402367591858e-03
8.510000000000000000e+02 8.995622634887695312e+00 -4.998971462249755859e+00 -3.610880672931671143e-02 4.799567162990570068e-03 -9.392772801220417023e-03 -1.449759863317012787e-02
8.520000000000000000e+02 1.148984050750732422e+01 -3.470213651657104492e+00 -2.886275015771389008e-02 2.974480157718062401e-03 -7.766480557620525360e-03 -1.879747724160552025e-03
8.530000000000000000e+02 4.567355155944824219e+00 -1.561057853698730469e+01 -1.608557812869548798e-02 -8.537808060646057129e-02 -3.043909743428230286e-02 -7.453814148902893066e-02
8.540000000000000000e+02 7.458627223968505859e+00 -1.521859359741210938e+01 -3.508211299777030945e-02 -4.257569089531898499e-02 -2.329734154045581818e-02 -1.017465069890022278e-01
8.550000000000000000e+02 1.391865158081054688e+01 -1.920490264892578125e+01 -4.338137432932853699e-02 4.879146441817283630e-02 1.623026910237967968e-03 -1.584982424974441528e-01
8.560000000000000000e+02 2.363496208190917969e+01 -1.610816764831542969e+01 -1.814045011997222900e-01 3.070644438266754150e-01 3.769798204302787781e-02 2.832433907315135002e-03
8.570000000000000000e+02 5.583440303802490234e+00 -1.854295349121093750e+01 -9.988706558942794800e-03 -1.005762368440628052e-01 -3.316948562860488892e-02 -9.027031064033508301e-02
8.580000000000000000e+02 1.016953659057617188e+01 -1.897620964050292969e+01 -2.296611294150352478e-02 -2.074643783271312714e-02 -1.311376504600048065e-02 -1.375008523464202881e-01
8.590000000000000000e+02 2.285505485534667969e+01 -2.100346946716308594e+01 -3.608318045735359192e-02 3.135228157043457031e-01 8.323188871145248413e-02 -1.223890259861946106e-01
8.600000000000000000e+02 2.098669815063476562e+01 -2.029723930358886719e+01 -6.586908549070358276e-02 2.183792293071746826e-01 4.575304314494132996e-02 -1.418007165193557739e-01
8.610000000000000000e+02 2.615610122680664062e+01 -1.742546463012695312e+01 -1.934664994478225708e-01 3.834587335586547852e-01 5.699766799807548523e-02 -5.467687174677848816e-02
8.620000000000000000e+02 3.075031280517578125e+01 -1.691205215454101562e+01 -2.817095220088958740e-01 4.618119597434997559e-01 5.403073877096176147e-02 -4.277254641056060791e-02
8.630000000000000000e+02 3.382590866088867188e+01 -1.673741722106933594e+01 -2.680963873863220215e-01 2.690967619419097900e-01 3.001143340952694416e-04 4.194702580571174622e-02
8.640000000000000000e+02 5.444148635864257812e+01 -2.011532020568847656e+01 -1.769773840904235840e+00 1.368047595024108887e+00 -1.205178722739219666e-01 2.591560840606689453e+00
8.650000000000000000e+02 5.687733840942382812e+01 -2.040056228637695312e+01 -2.361513853073120117e+00 8.107319831848144531e+00 1.723741769790649414e+00 6.280525326728820801e-01
8.660000000000000000e+02 5.903202056884765625e+01 -2.323220443725585938e+01 -9.525188207626342773e-01 6.547181606292724609e+00 1.678398847579956055e+00 4.727584123611450195e-02
8.670000000000000000e+02 6.133318328857421875e+01 -2.593990516662597656e+01 -3.931183218955993652e-01 5.511909961700439453e+00 1.535637497901916504e+00 -3.390930891036987305e-01
8.680000000000000000e+02 6.300625610351562500e+01 -2.675696754455566406e+01 -2.838047742843627930e-01 5.325119495391845703e+00 1.512394428253173828e+00 -4.319172501564025879e-01
8.690000000000000000e+02 6.814186096191406250e+01 -3.449909973144531250e+01 5.528600141406059265e-02 5.965127468109130859e+00 1.806123971939086914e+00 -1.090417522937059402e-02
8.700000000000000000e+02 7.122407531738281250e+01 -3.773668289184570312e+01 3.318086266517639160e-02 6.488785266876220703e+00 1.956589818000793457e+00 5.887949839234352112e-03
8.710000000000000000e+02 7.382463836669921875e+01 -3.776651763916015625e+01 2.315716631710529327e-02 6.888050556182861328e+00 2.073362350463867188e+00 2.140768058598041534e-02
8.720000000000000000e+02 7.541707611083984375e+01 -3.740557479858398438e+01 9.649753919802606106e-04 7.273737907409667969e+00 2.182410955429077148e+00 -3.425075113773345947e-02
8.730000000000000000e+02 7.548519134521484375e+01 -3.500841522216796875e+01 1.362395472824573517e-02 7.196785449981689453e+00 2.163122892379760742e+00 2.351095154881477356e-02
8.740000000000000000e+02 7.068904113769531250e+01 -3.225109863281250000e+01 9.441862255334854126e-02 6.315582752227783203e+00 1.923000454902648926e+00 3.880282491445541382e-02
8.750000000000000000e+02 6.912235260009765625e+01 -2.810387039184570312e+01 1.517830342054367065e-01 5.829154014587402344e+00 1.794281125068664551e+00 -7.277914136648178101e-02
8.760000000000000000e+02 6.303139495849609375e+01 -2.232123947143554688e+01 -5.920914933085441589e-02 5.389053344726562500e+00 1.598953247070312500e+00 -1.136356353759765625e+00
8.770000000000000000e+02 5.992695236206054688e+01 -1.953348159790039062e+01 -6.922068595886230469e-01 7.183723449707031250e+00 1.947454929351806641e+00 -1.650645256042480469e+00
8.780000000000000000e+02 6.474449157714843750e+01 -1.727587509155273438e+01 -1.617738753557205200e-01 4.411338806152343750e+00 1.274869561195373535e+00 -1.799292922019958496e+00
8.790000000000000000e+02 6.385846710205078125e+01 -1.638194847106933594e+01 -1.931099295616149902e-01 5.307137966156005859e+00 1.534208416938781738e+00 -1.464436531066894531e+00
8.800000000000000000e+02 6.205243301391601562e+01 -1.325082015991210938e+01 1.360991746187210083e-01 7.290206432342529297e+00 2.227891683578491211e+00 -4.324869513511657715e-01
8.810000000000000000e+02 5.963234329223632812e+01 -1.062944698333740234e+01 7.553431391716003418e-01 8.458065986633300781e+00 2.764022588729858398e+00 3.562262952327728271e-01
8.820000000000000000e+02 6.218885040283203125e+01 -9.425969123840332031e+00 6.406933665275573730e-01 8.794780731201171875e+00 2.830642223358154297e+00 -1.075965538620948792e-01
8.830000000000000000e+02 6.101203155517578125e+01 -2.024663352966308594e+01 -3.336977660655975342e-01 6.685463905334472656e+00 1.905529856681823730e+00 -1.215393066406250000e+00
8.840000000000000000e+02 6.563068389892578125e+01 -2.176268577575683594e+01 2.157050669193267822e-01 4.643989086151123047e+00 1.457908272743225098e+00 -1.139884591102600098e+00
8.850000000000000000e+02 6.627391052246093750e+01 -1.944771957397460938e+01 2.778465747833251953e-01 3.733695507049560547e+00 1.203462600708007812e+00 -1.281515479087829590e+00
8.860000000000000000e+02 7.033570098876953125e+01 -1.997131919860839844e+01 -4.407085850834846497e-02 4.930177688598632812e+00 1.465832114219665527e+00 8.706539273262023926e-01
8.870000000000000000e+02 7.508429718017578125e+01 -1.941945457458496094e+01 -7.689830064773559570e-01 8.041873931884765625e+00 2.181867122650146484e+00 9.672532975673675537e-02
8.880000000000000000e+02 6.750707244873046875e+01 -1.627567100524902344e+01 -1.210109949111938477e+00 1.836754083633422852e+00 1.879932433366775513e-01 -8.393975496292114258e-01
8.890000000000000000e+02 7.242482662200927734e+00 -2.085231399536132812e+01 -1.067598536610603333e-02 -1.007568314671516418e-01 -3.342984616756439209e-02 -1.284459233283996582e-01
8.900000000000000000e+02 1.170049953460693359e+01 -1.983237838745117188e+01 -2.543925493955612183e-02 -3.593949368223547935e-03 -8.709961548447608948e-03 -1.541452109813690186e-01
8.910000000000000000e+02 2.523266792297363281e+01 -2.591503715515136719e+01 1.007591336965560913e-01 4.531129300594329834e-01 1.661616265773773193e-01 -7.702039182186126709e-02
8.920000000000000000e+02 2.574665832519531250e+01 -2.167874336242675781e+01 -3.856792673468589783e-02 4.063355624675750732e-01 1.103302836418151855e-01 -1.031795516610145569e-01
8.930000000000000000e+02 4.168877410888671875e+01 -2.174677658081054688e+01 -5.858371257781982422e-01 3.014504909515380859e+00 7.286003232002258301e-01 4.010464549064636230e-01
8.940000000000000000e+02 4.359440231323242188e+01 -2.173552513122558594e+01 -9.927374720573425293e-01 2.860433816909790039e+00 5.603089332580566406e-01 -1.840529590845108032e-01
8.950000000000000000e+02 6.048554992675781250e+01 -2.470395469665527344e+01 -7.430047392845153809e-01 5.979695796966552734e+00 1.571007370948791504e+00 -3.913449645042419434e-01
8.960000000000000000e+02 6.033160400390625000e+01 -2.328100967407226562e+01 -6.794790029525756836e-01 5.590660572052001953e+00 1.473354578018188477e+00 -7.391075491905212402e-01
8.970000000000000000e+02 6.430976104736328125e+01 -2.316324806213378906e+01 -2.761504799127578735e-02 5.380270957946777344e+00 1.605796813964843750e+00 -1.005741715431213379e+00
8.980000000000000000e+02 7.151767730712890625e+01 -2.475123214721679688e+01 8.979784697294235229e-02 6.148696899414062500e+00 1.871548414230346680e+00 2.305067032575607300e-01
8.990000000000000000e+02 7.076856231689453125e+01 -2.351380729675292969e+01 3.398377299308776855e-01 5.747267246246337891e+00 1.826131463050842285e+00 3.310400545597076416e-01
9.000000000000000000e+02 7.520144653320312500e+01 -2.325756454467773438e+01 -1.987005323171615601e-01 7.329572200775146484e+00 2.139261484146118164e+00 2.179096788167953491e-01
9.010000000000000000e+02 2.137495756149291992e+00 -2.341646957397460938e+01 6.990087218582630157e-03 -2.523650228977203369e-01 -7.361248135566711426e-02 -5.105638131499290466e-02
9.020000000000000000e+02 3.615449190139770508e+00 -2.349243164062500000e+01 -3.173651406541466713e-03 -2.152517735958099365e-01 -6.552763283252716064e-02 -7.220558822154998779e-02
9.030000000000000000e+02 6.574456691741943359e+00 -2.761283302307128906e+01 1.528844051063060760e-02 -1.821342408657073975e-01 -5.005374178290367126e-02 -1.099785268306732178e-01
9.040000000000000000e+02 1.035737323760986328e+01 -2.891485786437988281e+01 3.178401663899421692e-02 -7.146272063255310059e-02 -1.190361194312572479e-02 -1.212492063641548157e-01
9.050000000000000000e+02 2.792634391784667969e+01 -2.670459175109863281e+01 1.026438251137733459e-01 5.651184916496276855e-01 2.003286927938461304e-01 -5.607804283499717712e-02
9.060000000000000000e+02 4.099452590942382812e+01 -2.451993560791015625e+01 -7.058217525482177734e-01 2.323339700698852539e+00 4.852553904056549072e-01 1.208990290760993958e-01
9.070000000000000000e+02 4.350627517700195312e+01 -2.355087661743164062e+01 -4.382528066635131836e-01 2.596793889999389648e+00 6.475623250007629395e-01 -2.122450172901153564e-01
9.080000000000000000e+02 5.110195159912109375e+01 -2.365651512145996094e+01 -2.286323755979537964e-01 1.692327141761779785e+00 4.391084313392639160e-01 2.319024205207824707e-01
9.090000000000000000e+02 6.423583221435546875e+01 -2.998019981384277344e+01 -8.389000594615936279e-02 5.365091323852539062e+00 1.584360361099243164e+00 -2.314630299806594849e-01
9.100000000000000000e+02 6.545955657958984375e+01 -2.836688423156738281e+01 2.102835569530725479e-03 5.440623760223388672e+00 1.632817983627319336e+00 -2.763360440731048584e-01
9.110000000000000000e+02 6.980083465576171875e+01 -2.673986053466796875e+01 2.000197768211364746e-01 5.824467658996582031e+00 1.807346224784851074e+00 -4.855950176715850830e-02
9.120000000000000000e+02 7.544973754882812500e+01 -2.713263702392578125e+01 1.112301871180534363e-01 7.231096744537353516e+00 2.202697992324829102e+00 1.884176284074783325e-01
9.130000000000000000e+02 2.155301332473754883e+00 -2.890980720520019531e+01 4.614319186657667160e-03 -3.578659594058990479e-01 -1.059754863381385803e-01 -4.319917038083076477e-02
9.140000000000000000e+02 3.543958902359008789e+00 -2.750682258605957031e+01 8.877187967300415039e-03 -2.856481373310089111e-01 -8.303128182888031006e-02 -7.281797379255294800e-02
9.150000000000000000e+02 5.337082862854003906e+00 -3.241286087036132812e+01 2.430083043873310089e-02 -2.775242626667022705e-01 -7.596702873706817627e-02 -7.048108428716659546e-02
9.160000000000000000e+02 8.601072311401367188e+00 -3.326613235473632812e+01 5.012815445661544800e-02 -1.592859327793121338e-01 -3.274733200669288635e-02 -9.159896522760391235e-02
9.170000000000000000e+02 2.095236396789550781e+01 -3.005209732055664062e+01 1.158987879753112793e-01 2.940292954444885254e-01 1.229784265160560608e-01 -1.144152283668518066e-01
9.180000000000000000e+02 3.554337310791015625e+01 -3.107937049865722656e+01 1.032845973968505859e-01 1.307341933250427246e+00 4.231879711151123047e-01 7.735843956470489502e-02
9.190000000000000000e+02 4.506396102905273438e+01 -2.904765319824218750e+01 9.320678189396858215e-03 2.236425399780273438e+00 6.737238168716430664e-01 -7.883001863956451416e-02
9.200000000000000000e+02 5.186376190185546875e+01 -2.807725906372070312e+01 -5.070233717560768127e-02 2.879722356796264648e+00 8.487060070037841797e-01 3.311614990234375000e-01
9.210000000000000000e+02 5.524388885498046875e+01 -2.903935241699218750e+01 -2.160854786634445190e-01 3.762316226959228516e+00 1.063869237899780273e+00 3.978353142738342285e-01
9.220000000000000000e+02 6.849917602539062500e+01 -3.203782653808593750e+01 5.720410123467445374e-02 5.918251037597656250e+00 1.792636513710021973e+00 -4.018844291567802429e-02
9.230000000000000000e+02 6.626399230957031250e+01 -3.129176330566406250e+01 5.480797961354255676e-02 5.634776592254638672e+00 1.706875443458557129e+00 -9.411119669675827026e-02
9.240000000000000000e+02 7.253484344482421875e+01 -2.991345977783203125e+01 1.193033307790756226e-01 6.594202995300292969e+00 2.014051914215087891e+00 8.469786494970321655e-02
9.250000000000000000e+02 2.279038667678833008e+00 -3.029966735839843750e+01 -1.745636342093348503e-03 -3.719211518764495850e-01 -1.121000424027442932e-01 -4.121882095932960510e-02
9.260000000000000000e+02 3.626704454421997070e+00 -3.009626197814941406e+01 6.670535076409578323e-03 -3.241622745990753174e-01 -9.524752199649810791e-02 -6.459000706672668457e-02
9.270000000000000000e+02 2.584983110427856445e+00 -3.322938537597656250e+01 7.616514805704355240e-03 -4.015123844146728516e-01 -1.181687563657760620e-01 -3.434114530682563782e-02
9.280000000000000000e+02 1.079899787902832031e+01 -3.282798767089843750e+01 5.821585655212402344e-02 -6.232969462871551514e-02 -1.234152005054056644e-03 -9.858012199401855469e-02
9.290000000000000000e+02 4.156380844116210938e+01 -2.880870819091796875e+01 -1.205334141850471497e-01 2.012931108474731445e+00 5.677192807197570801e-01 -2.607782371342182159e-02
9.300000000000000000e+02 7.479825592041015625e+01 -3.357042312622070312e+01 4.200838506221771240e-02 7.108732223510742188e+00 2.145222187042236328e+00 7.818918675184249878e-02
9.310000000000000000e+02 2.615215063095092773e+00 -3.467593002319335938e+01 1.292733568698167801e-02 -4.284150004386901855e-01 -1.246463060379028320e-01 -3.062996640801429749e-02
9.320000000000000000e+02 4.011399269104003906e+00 -3.386560821533203125e+01 1.297273114323616028e-02 -3.414226770401000977e-01 -9.853498637676239014e-02 -5.479288101196289062e-02
9.330000000000000000e+02 6.299706935882568359e+00 -3.775692367553710938e+01 3.396812081336975098e-02 -2.614071667194366455e-01 -6.823171675205230713e-02 -3.652520477771759033e-02
9.340000000000000000e+02 8.922923088073730469e+00 -3.825224304199218750e+01 5.639783665537834167e-02 -1.726361066102981567e-01 -3.487148135900497437e-02 -4.710721597075462341e-02
9.350000000000000000e+02 4.366437435150146484e+00 -3.687530136108398438e+01 2.039073407649993896e-02 -3.621632456779479980e-01 -1.025317534804344177e-01 -4.832962155342102051e-02
9.360000000000000000e+02 3.299254226684570312e+01 -3.702391052246093750e+01 2.177774906158447266e-01 1.119624972343444824e+00 4.012207388877868652e-01 1.261360850185155869e-02
9.370000000000000000e+02 7.827426147460937500e+01 -1.094644641876220703e+01 2.977565526962280273e-01 7.663449764251708984e+00 2.388361930847167969e+00 3.692926764488220215e-01
9.380000000000000000e+02 7.301159667968750000e+01 -1.090971374511718750e+01 1.031748056411743164e+00 1.233920097351074219e+01 4.011284351348876953e+00 -4.052562415599822998e-01
9.390000000000000000e+02 7.335201263427734375e+01 -7.367755889892578125e+00 3.278694748878479004e-01 8.115054130554199219e+00 2.532876968383789062e+00 2.281547188758850098e-01
9.400000000000000000e+02 7.175978088378906250e+01 -6.869002342224121094e+00 1.341334879398345947e-01 6.883850097656250000e+00 2.105395078659057617e+00 -1.503000259399414062e+00
9.410000000000000000e+02 7.831010437011718750e+01 -5.778380393981933594e+00 1.805135607719421387e-02 9.455865859985351562e+00 2.842175245285034180e+00 1.100705027580261230e+00
9.420000000000000000e+02 5.685151290893554688e+01 -6.273301124572753906e+00 -2.561252936720848083e-02 6.412726879119873047e+00 1.916134238243103027e+00 -1.401776671409606934e+00
9.430000000000000000e+02 5.764429473876953125e+01 -6.962707996368408203e+00 6.520986557006835938e-01 6.921849250793457031e+00 2.272184371948242188e+00 -7.201130986213684082e-01
9.440000000000000000e+02 5.550091171264648438e+01 -1.164107990264892578e+01 1.188357830047607422e+00 1.014763355255126953e+01 3.400797367095947266e+00 -2.280146360397338867e+00
9.450000000000000000e+02 5.704319381713867188e+01 -9.734371185302734375e+00 8.252215385437011719e-01 8.120463371276855469e+00 2.683705568313598633e+00 -6.075433492660522461e-01
9.460000000000000000e+02 6.202268600463867188e+01 -5.721452713012695312e+00 1.560639381408691406e+00 1.067211246490478516e+01 3.669825553894042969e+00 1.155220508575439453e+00
9.470000000000000000e+02 5.061694335937500000e+01 -4.497279644012451172e+00 -4.618597030639648438e+00 -1.295809298753738403e-01 -1.424453496932983398e+00 1.672365546226501465e+00
9.480000000000000000e+02 7.582550048828125000e+01 3.495625257492065430e+00 8.113516867160797119e-02 1.026427841186523438e+01 3.103624105453491211e+00 1.174626126885414124e-01
9.490000000000000000e+02 7.701808929443359375e+01 2.381755828857421875e+00 -1.555651426315307617e+00 1.076511478424072266e+01 2.762839078903198242e+00 -1.935144305229187012e+00
9.500000000000000000e+02 7.666701507568359375e+01 6.914769172668457031e+00 2.711524009704589844e+00 1.513878726959228516e+01 5.355093479156494141e+00 -2.567347288131713867e+00
9.510000000000000000e+02 6.764523315429687500e+01 9.506594657897949219e+00 -3.172098845243453979e-02 1.220722198486328125e+01 3.652650356292724609e+00 -9.305842518806457520e-01
9.520000000000000000e+02 6.961688995361328125e+01 8.969546318054199219e+00 -1.820073843002319336e+00 7.150143623352050781e+00 1.599020957946777344e+00 -1.564962118864059448e-01
9.530000000000000000e+02 7.146852111816406250e+01 9.099846839904785156e+00 -3.484511852264404297e+00 -5.603904128074645996e-01 -1.213470697402954102e+00 -1.386250376701354980e+00
9.540000000000000000e+02 7.837399291992187500e+01 1.107352924346923828e+01 -3.760900199413299561e-01 7.112339019775390625e+00 2.020874738693237305e+00 1.898003518581390381e-01
9.550000000000000000e+02 7.937855529785156250e+01 1.679744720458984375e+01 -2.234905958175659180e-03 6.006357192993164062e+00 1.801236629486083984e+00 -9.640282392501831055e-02
9.560000000000000000e+02 7.689264678955078125e+01 1.577759742736816406e+01 2.867361009120941162e-01 6.010197162628173828e+00 1.889080047607421875e+00 -4.218438267707824707e-01
9.570000000000000000e+02 6.354600143432617188e+01 2.108216285705566406e+01 5.365919470787048340e-01 5.384777069091796875e+00 1.776410698890686035e+00 -2.934205830097198486e-01
9.580000000000000000e+02 6.540322875976562500e+01 2.168718910217285156e+01 2.207966744899749756e-01 5.956668853759765625e+00 1.853239655494689941e+00 -2.260908335447311401e-01
9.590000000000000000e+02 5.513781356811523438e+01 1.821652412414550781e+01 1.912835538387298584e-01 6.902636528015136719e+00 2.128175973892211914e+00 1.950941324234008789e+00
9.600000000000000000e+02 5.282147979736328125e+01 2.034605026245117188e+01 -6.740421652793884277e-01 6.950047492980957031e+00 1.882801532745361328e+00 1.876835674047470093e-01
9.610000000000000000e+02 4.911189651489257812e+01 1.943910026550292969e+01 -3.463911712169647217e-01 5.066109180450439453e+00 1.415915369987487793e+00 -2.211856126785278320e+00
9.620000000000000000e+02 4.468928909301757812e+01 1.897581481933593750e+01 2.127649337053298950e-01 1.321690559387207031e+00 4.603366553783416748e-01 -8.896750807762145996e-01
9.630000000000000000e+02 4.245528793334960938e+01 1.881391716003417969e+01 -9.157046675682067871e-02 9.089974164962768555e-01 2.452280968427658081e-01 -4.923245906829833984e-01
9.640000000000000000e+02 3.615402221679687500e+01 2.110609817504882812e+01 -2.236690223217010498e-01 1.923614144325256348e-01 -9.392284788191318512e-03 -8.300029486417770386e-02
9.650000000000000000e+02 3.191606903076171875e+01 2.070518875122070312e+01 -4.351571798324584961e-01 -5.058987066149711609e-02 -1.457241177558898926e-01 2.889548242092132568e-01
9.660000000000000000e+02 2.588339805603027344e+01 2.125253105163574219e+01 -5.709037780761718750e-01 -8.339360356330871582e-02 -1.962892115116119385e-01 2.229282557964324951e-01
9.670000000000000000e+02 2.952669143676757812e+01 2.029425811767578125e+01 -5.982371568679809570e-01 -1.589472219347953796e-02 -1.842395663261413574e-01 3.333304822444915771e-01
9.680000000000000000e+02 7.803063201904296875e+01 2.101984786987304688e+01 1.426775194704532623e-02 5.988371372222900391e+00 1.800791621208190918e+00 1.045584231615066528e-01
9.690000000000000000e+02 7.690660095214843750e+01 1.970812797546386719e+01 1.136724427342414856e-01 6.022633552551269531e+00 1.840891838073730469e+00 6.717558950185775757e-02
9.700000000000000000e+02 7.124153137207031250e+01 2.304670143127441406e+01 -7.949080318212509155e-03 6.304579734802246094e+00 1.888989210128784180e+00 2.553518414497375488e-01
9.710000000000000000e+02 5.801920318603515625e+01 1.965553283691406250e+01 1.005226612091064453e+00 4.675711631774902344e+00 1.704281449317932129e+00 1.368295311927795410e+00
9.720000000000000000e+02 6.282098770141601562e+01 2.366913032531738281e+01 3.560341596603393555e-01 5.402533531188964844e+00 1.727570414543151855e+00 9.387092292308807373e-02
9.730000000000000000e+02 4.429593276977539062e+01 2.337952041625976562e+01 1.445442289113998413e-01 2.044282197952270508e+00 6.566479206085205078e-01 -9.697816371917724609e-01
9.740000000000000000e+02 4.222396087646484375e+01 2.420352935791015625e+01 1.636671870946884155e-01 1.546116352081298828e+00 5.129350423812866211e-01 -7.111803293228149414e-01
9.750000000000000000e+02 3.694073104858398438e+01 2.266639328002929688e+01 -2.620372362434864044e-02 4.089790284633636475e-01 1.148325875401496887e-01 -1.743018776178359985e-01
9.760000000000000000e+02 3.950155258178710938e+01 2.358093643188476562e+01 1.367192864418029785e-01 9.422850608825683594e-01 3.237013220787048340e-01 -4.416345655918121338e-01
9.770000000000000000e+02 3.100557899475097656e+01 2.170862579345703125e+01 -3.120188415050506592e-01 -2.221356891095638275e-02 -1.002697274088859558e-01 2.513409554958343506e-01
9.780000000000000000e+02 2.189129447937011719e+01 2.012965583801269531e+01 -5.774263143539428711e-01 -2.477981746196746826e-01 -2.475673407316207886e-01 2.376486361026763916e-01
9.790000000000000000e+02 1.856502914428710938e+01 1.845254707336425781e+01 -6.407157778739929199e-01 -2.252604998648166656e-02 -1.989725530147552490e-01 5.977683886885643005e-02
9.800000000000000000e+02 1.615569114685058594e+01 2.293327331542968750e+01 -2.478183060884475708e-01 -6.687979400157928467e-02 -9.440942853689193726e-02 2.583277523517608643e-01
9.810000000000000000e+02 8.910416603088378906e+00 1.948548889160156250e+01 -1.508532315492630005e-01 7.973707467317581177e-02 -2.133484557271003723e-02 8.420393615961074829e-02
9.820000000000000000e+02 5.953702926635742188e+00 1.949714851379394531e+01 -6.423995643854141235e-02 1.377188265323638916e-01 2.204366214573383331e-02 5.788307264447212219e-02
9.830000000000000000e+02 6.360337734222412109e-01 2.065180397033691406e+01 -2.296167053282260895e-02 3.201200664043426514e-01 8.914752304553985596e-02 1.021660678088665009e-02
9.840000000000000000e+02 7.927822113037109375e+01 2.372132110595703125e+01 2.426464483141899109e-02 6.045886993408203125e+00 1.821045517921447754e+00 5.375616997480392456e-02
9.850000000000000000e+02 7.647528076171875000e+01 2.230027770996093750e+01 3.777458146214485168e-02 6.125369071960449219e+00 1.848943114280700684e+00 2.171374410390853882e-01
9.860000000000000000e+02 6.753836822509765625e+01 2.334372138977050781e+01 2.801864221692085266e-02 6.129112243652343750e+00 1.847139239311218262e+00 8.894907683134078979e-02
9.870000000000000000e+02 5.763935089111328125e+01 2.551628875732421875e+01 -4.993739351630210876e-02 5.331211566925048828e+00 1.584382295608520508e+00 3.261090219020843506e-01
9.880000000000000000e+02 4.273143005371093750e+01 2.630112457275390625e+01 1.742667257785797119e-01 1.851745367050170898e+00 6.078036427497863770e-01 -7.201465368270874023e-01
9.890000000000000000e+02 3.896354675292968750e+01 2.655175018310546875e+01 2.293024063110351562e-01 1.049678921699523926e+00 3.836944103240966797e-01 -3.981083035469055176e-01
9.900000000000000000e+02 2.988415145874023438e+01 2.617981147766113281e+01 5.090095475316047668e-02 7.388231158256530762e-02 3.743498027324676514e-02 1.197091042995452881e-01
9.910000000000000000e+02 2.666113853454589844e+01 2.818749427795410156e+01 1.340536177158355713e-01 -1.877487823367118835e-02 3.458362072706222534e-02 1.758926659822463989e-01
9.920000000000000000e+02 1.934882926940917969e+01 2.189017677307128906e+01 -3.579419851303100586e-01 -1.470103114843368530e-01 -1.514856815338134766e-01 2.747998535633087158e-01
9.930000000000000000e+02 1.303773212432861328e+01 2.547572135925292969e+01 -7.757730782032012939e-02 -5.393071845173835754e-02 -3.945240750908851624e-02 2.534788846969604492e-01
9.940000000000000000e+02 7.398639678955078125e+00 2.505778694152832031e+01 -5.015087872743606567e-02 3.544097021222114563e-02 -4.412972368299961090e-03 1.670199334621429443e-01
9.950000000000000000e+02 4.689798355102539062e+00 2.511194229125976562e+01 -3.146288171410560608e-02 8.771109580993652344e-02 1.687446609139442444e-02 1.233306601643562317e-01
9.960000000000000000e+02 6.426750421524047852e-01 2.347496032714843750e+01 -1.948972791433334351e-02 2.485698759555816650e-01 6.872404366731643677e-02 1.776578463613986969e-02
9.970000000000000000e+02 7.927674865722656250e+01 2.784493827819824219e+01 -9.813267737627029419e-03 6.358280658721923828e+00 1.904540181159973145e+00 5.244051292538642883e-02
9.980000000000000000e+02 6.634291839599609375e+01 2.811578559875488281e+01 -8.023998141288757324e-02 5.889274120330810547e+00 1.742710232734680176e+00 1.660124361515045166e-01
9.990000000000000000e+02 6.432984161376953125e+01 2.758128929138183594e+01 6.436058902181684971e-04 5.731928825378417969e+00 1.719771623611450195e+00 1.022328510880470276e-01
1.000000000000000000e+03 3.827545547485351562e+01 2.909159088134765625e+01 2.928177714347839355e-01 1.126069784164428711e+00 4.256662726402282715e-01 -3.690842688083648682e-01
1.001000000000000000e+03 3.151400947570800781e+01 2.980225372314453125e+01 2.999620735645294189e-01 3.240913748741149902e-01 1.872160285711288452e-01 1.152077410370111465e-02
1.002000000000000000e+03 2.209029769897460938e+01 2.831440544128417969e+01 9.433951973915100098e-02 -1.198944970965385437e-01 -7.666492369025945663e-03 2.510118186473846436e-01
1.003000000000000000e+03 7.911669254302978516e+00 2.782384872436523438e+01 -1.570096984505653381e-02 -1.118039060384035110e-02 -8.064407855272293091e-03 1.903386861085891724e-01
1.004000000000000000e+03 4.886786460876464844e+00 2.798330307006835938e+01 -9.195406921207904816e-03 2.665863372385501862e-02 5.238967947661876678e-03 1.374637484550476074e-01
1.005000000000000000e+03 6.712492704391479492e-01 2.770612907409667969e+01 1.298755686730146408e-02 1.010501980781555176e-01 3.421132639050483704e-02 2.657295949757099152e-02
1.006000000000000000e+03 7.927472686767578125e+01 3.197720718383789062e+01 1.308543141931295395e-03 6.589120864868164062e+00 1.977128863334655762e+00 3.450503945350646973e-02
1.007000000000000000e+03 6.777999877929687500e+01 3.117616081237792969e+01 -1.490045934915542603e-01 5.945502281188964844e+00 1.738949298858642578e+00 1.783363670110702515e-01
1.008000000000000000e+03 1.613887023925781250e+01 3.125783538818359375e+01 1.361396759748458862e-01 -1.232202947139739990e-01 3.875816240906715393e-03 2.428810149431228638e-01
1.009000000000000000e+03 4.889691352844238281e+00 2.942394447326660156e+01 1.195352897047996521e-02 7.960792863741517067e-04 3.824882442131638527e-03 1.460465639829635620e-01
1.010000000000000000e+03 6.628028750419616699e-01 3.051997756958007812e+01 1.115394569933414459e-02 -2.554300939664244652e-03 2.579893451184034348e-03 2.444561570882797241e-02
1.011000000000000000e+03 7.655665588378906250e+01 3.301945495605468750e+01 -2.229253016412258148e-02 6.466361999511718750e+00 1.933220863342285156e+00 1.225374490022659302e-01
1.012000000000000000e+03 6.998332214355468750e+01 3.385231399536132812e+01 -1.467526704072952271e-01 6.070071220397949219e+00 1.776995658874511719e+00 1.637347042560577393e-01
1.013000000000000000e+03 2.256155967712402344e+01 3.789057540893554688e+01 3.988568484783172607e-01 -1.673387736082077026e-02 1.146368905901908875e-01 8.181639760732650757e-02
1.014000000000000000e+03 4.435864925384521484e+00 3.373077392578125000e+01 2.137236855924129486e-02 -7.708123326301574707e-02 -1.671265996992588043e-02 1.066068485379219055e-01
1.015000000000000000e+03 6.002360582351684570e-01 3.466559219360351562e+01 -6.312989164143800735e-03 -1.310183554887771606e-01 -4.119940474629402161e-02 1.516955066472291946e-02
1.016000000000000000e+03 7.881736755371093750e+01 3.754730224609375000e+01 -6.822316907346248627e-03 6.754168510437011719e+00 2.024203777313232422e+00 1.465278677642345428e-02
1.017000000000000000e+03 7.303448486328125000e+01 3.835398483276367188e+01 -8.378702402114868164e-02 6.283838748931884766e+00 1.860015511512756348e+00 8.166453987360000610e-02
1.018000000000000000e+03 5.935683441162109375e+01 3.635068511962890625e+01 -2.721475660800933838e-01 5.116353988647460938e+00 1.453261852264404297e+00 1.412600278854370117e-02
1.019000000000000000e+03 8.059015870094299316e-01 3.732513046264648438e+01 -2.443843986839056015e-03 -1.830611675977706909e-01 -5.565150454640388489e-02 1.046274602413177490e-02
1.020000000000000000e+03 3.188507795333862305e+00 1.389913368225097656e+01 -3.179492056369781494e-02 2.016458809375762939e-01 5.095528811216354370e-02 -8.845423161983489990e-02
1.021000000000000000e+03 9.037082672119140625e+00 1.028286743164062500e+01 -2.319500744342803955e-01 1.161780282855033875e-01 -3.473161533474922180e-02 -7.740675657987594604e-02
1.022000000000000000e+03 1.001057434082031250e+01 9.571904182434082031e+00 -1.174365803599357605e-01 1.016292199492454529e-01 -4.742207936942577362e-03 -9.292524307966232300e-02
1.023000000000000000e+03 1.260294151306152344e+01 1.398407459259033203e+01 -2.703383266925811768e-01 9.680139832198619843e-03 -7.819745689630508423e-02 -8.760031312704086304e-02
1.024000000000000000e+03 3.675464153289794922e+00 9.943420410156250000e+00 -2.010538578033447266e-01 2.109474539756774902e-01 2.968076383695006371e-03 -2.645852565765380859e-01
1.025000000000000000e+03 6.273065567016601562e+01 5.280566692352294922e+00 1.296668648719787598e-01 1.566166281700134277e+00 5.087499022483825684e-01 8.243676424026489258e-01
1.026000000000000000e+03 6.926148223876953125e+01 3.850856781005859375e+00 2.600854635238647461e+00 1.795841598510742188e+01 6.167780876159667969e+00 -2.814432382583618164e+00
1.027000000000000000e+03 6.830704498291015625e+01 6.698292732238769531e+00 -7.378365397453308105e-01 1.108770942687988281e+01 3.104961633682250977e+00 -2.299388885498046875e+00
1.028000000000000000e+03 6.351712799072265625e+01 4.466407299041748047e+00 -3.028549551963806152e-01 3.568346500396728516e+00 9.796474575996398926e-01 1.059088230133056641e+00
1.029000000000000000e+03 4.428681945800781250e+01 -1.005460071563720703e+01 -8.400869369506835938e-01 6.295574188232421875e+00 1.636646151542663574e+00 8.812904953956604004e-01
1.030000000000000000e+03 4.563005828857421875e+01 -9.679563522338867188e+00 -5.062639713287353516e-02 5.736613750457763672e+00 1.705796122550964355e+00 -1.039572954177856445e+00
1.031000000000000000e+03 6.441706848144531250e+01 1.420249557495117188e+01 1.777836203575134277e+00 5.234826087951660156e+00 2.103798627853393555e+00 -3.157346963882446289e+00
1.032000000000000000e+03 2.419254493713378906e+01 6.164411544799804688e+00 -1.789925396442413330e-01 -2.234532833099365234e-01 -1.207337453961372375e-01 -2.101218551397323608e-01
1.033000000000000000e+03 2.478436660766601562e+01 7.108228683471679688e+00 -3.442956507205963135e-01 -2.903189659118652344e-01 -1.903843879699707031e-01 -2.890879511833190918e-01
1.034000000000000000e+03 2.587183761596679688e+01 8.676351547241210938e+00 -3.761330544948577881e-01 -2.675386667251586914e-01 -1.931015104055404663e-01 -3.471571803092956543e-01
1.035000000000000000e+03 2.787534523010253906e+01 1.056885337829589844e+01 -4.160123169422149658e-01 -3.358563184738159180e-01 -2.255605906248092651e-01 -4.229003489017486572e-01
1.036000000000000000e+03 3.006703186035156250e+01 1.215981674194335938e+01 -5.275797247886657715e-01 -2.408682405948638916e-01 -2.305343896150588989e-01 -3.666813373565673828e-01
1.037000000000000000e+03 3.230564880371093750e+01 1.393192100524902344e+01 -1.586058020591735840e+00 -2.359517961740493774e-01 -5.466029644012451172e-01 -4.234999716281890869e-01
1.038000000000000000e+03 3.665599822998046875e+01 1.325376796722412109e+01 -9.920898675918579102e-01 -3.953407704830169678e-01 -4.162291884422302246e-01 7.029089927673339844e-01
1.039000000000000000e+03 3.774341583251953125e+01 1.315613174438476562e+01 -1.216605067253112793e+00 8.313063532114028931e-02 -3.400423228740692139e-01 5.000226497650146484e-01
1.040000000000000000e+03 3.994256973266601562e+01 1.284890937805175781e+01 -9.912509322166442871e-01 2.001827657222747803e-01 -2.373204529285430908e-01 1.856287866830825806e-01
1.041000000000000000e+03 4.075006103515625000e+01 1.274049568176269531e+01 -1.013117194175720215e+00 2.808134257793426514e-01 -2.196911424398422241e-01 4.913867264986038208e-02
1.042000000000000000e+03 4.239540100097656250e+01 1.237791538238525391e+01 -9.840425848960876465e-01 2.295940220355987549e-01 -2.263345718383789062e-01 -1.642739772796630859e-01
1.043000000000000000e+03 4.312902069091796875e+01 1.213050460815429688e+01 -9.692430496215820312e-01 1.741042435169219971e-01 -2.385416477918624878e-01 -3.230964541435241699e-01
1.044000000000000000e+03 4.535581207275390625e+01 1.358485889434814453e+01 -1.349099397659301758e+00 -3.807632029056549072e-01 -5.189588069915771484e-01 -9.379249215126037598e-01
1.045000000000000000e+03 4.909056854248046875e+01 8.177010536193847656e+00 2.002908229827880859e+00 8.060330390930175781e+00 3.018971681594848633e+00 3.877765178680419922e+00
1.046000000000000000e+03 4.633814239501953125e+01 4.975857257843017578e+00 2.153897762298583984e+00 2.465434551239013672e+00 1.385799646377563477e+00 2.256204366683959961e+00
1.047000000000000000e+03 4.455735397338867188e+01 2.688959836959838867e+00 1.757144689559936523e+00 3.032491922378540039e+00 1.436890959739685059e+00 2.618015050888061523e+00
1.048000000000000000e+03 4.096003723144531250e+01 -8.321975171566009521e-02 -4.847997725009918213e-01 3.272819519042968750e-01 -4.725534468889236450e-02 -2.446545809507369995e-01
1.049000000000000000e+03 4.037814712524414062e+01 7.479099273681640625e+00 -7.950729690492153168e-03 1.486031059175729752e-02 2.072874456644058228e-03 9.469216689467430115e-03
1.050000000000000000e+03 4.108624267578125000e+01 8.447866439819335938e+00 1.050210371613502502e-02 6.997817195951938629e-03 5.249976180493831635e-03 -2.542278030887246132e-03
1.051000000000000000e+03 3.979616165161132812e+01 8.989366531372070312e+00 2.870453055948019028e-03 -2.070832066237926483e-03 2.398862707195803523e-04 -2.045668428763747215e-03
1.052000000000000000e+03 3.922084045410156250e+01 8.495140075683593750e+00 4.403620958328247070e-03 -8.874284103512763977e-04 1.054857741110026836e-03 8.519608527421951294e-03
1.053000000000000000e+03 3.917074584960937500e+01 9.145590782165527344e+00 -1.255690585821866989e-02 -5.695438012480735779e-04 -3.937934990972280502e-03 -6.546161603182554245e-03
1.054000000000000000e+03 3.844501876831054688e+01 9.244407653808593750e+00 9.303219616413116455e-03 -3.070226637646555901e-03 1.869897823780775070e-03 5.580653087235987186e-04
1.055000000000000000e+03 3.248685455322265625e+01 6.165079116821289062e+00 -4.150919020175933838e-01 3.769524767994880676e-02 -1.132190003991127014e-01 -1.914562135934829712e-01
1.056000000000000000e+03 2.938956642150878906e+01 2.852933645248413086e+00 -7.374306321144104004e-01 1.223204880952835083e-01 -1.845330446958541870e-01 -2.971920073032379150e-01
1.057000000000000000e+03 2.518885421752929688e+01 2.398519754409790039e+00 -8.927186727523803711e-01 -2.385394275188446045e-02 -2.749717831611633301e-01 -1.911137700080871582e-01
1.058000000000000000e+03 2.525835418701171875e+01 1.013119816780090332e+00 3.745618090033531189e-02 -2.497491985559463501e-01 -6.368790566921234131e-02 -2.683897614479064941e-01
1.059000000000000000e+03 2.646486282348632812e+01 2.187158107757568359e+00 -7.892489433288574219e-01 -4.607932269573211670e-01 -3.750126361846923828e-01 -5.232363343238830566e-01
1.060000000000000000e+03 2.573190307617187500e+01 2.305592775344848633e+00 -8.030923604965209961e-01 -2.418249398469924927e-01 -3.134751915931701660e-01 -4.362048208713531494e-01
1.061000000000000000e+03 1.978395843505859375e+01 1.669104576110839844e+00 1.896248579025268555e+00 7.557915449142456055e-01 7.956120371818542480e-01 -1.229643583297729492e+00
1.062000000000000000e+03 1.890563774108886719e+01 1.895833015441894531e+00 3.030458927154541016e+00 1.945792555809020996e+00 1.492875456809997559e+00 -2.785854101181030273e+00
1.063000000000000000e+03 1.881499099731445312e+01 2.510614395141601562e+00 3.882365942001342773e+00 -3.851337432861328125e-01 1.049169659614562988e+00 -7.563504576683044434e-01
1.064000000000000000e+03 2.132252883911132812e+01 -2.686932981014251709e-01 8.825326561927795410e-01 9.199132323265075684e-01 5.407337546348571777e-01 -9.537333846092224121e-01
1.065000000000000000e+03 2.384837913513183594e+01 -3.583887338638305664e+00 2.698335349559783936e-01 1.050493940711021423e-01 1.124648749828338623e-01 -1.852822154760360718e-01
1.066000000000000000e+03 2.050032997131347656e+01 -7.588562011718750000e+00 -2.223860323429107666e-01 -8.486075699329376221e-02 -9.217403829097747803e-02 1.225408390164375305e-01
1.067000000000000000e+03 1.756468009948730469e+01 -4.648801326751708984e+00 -4.761200025677680969e-02 -2.599038369953632355e-02 -2.208071574568748474e-02 3.041866607964038849e-02
1.068000000000000000e+03 1.337306976318359375e+01 -2.013987064361572266e+00 -1.568187959492206573e-02 -1.822714111767709255e-03 -5.251378286629915237e-03 4.536655265837907791e-03
1.069000000000000000e+03 1.257578182220458984e+01 -1.995660901069641113e+00 -1.897220872342586517e-02 4.676625132560729980e-03 -4.288674797862768173e-03 2.540288493037223816e-03
1.070000000000000000e+03 1.026820468902587891e+01 -1.898721933364868164e+00 -1.376377511769533157e-02 -2.201200695708394051e-04 -4.195168614387512207e-03 -1.432672026567161083e-03
1.071000000000000000e+03 1.165179061889648438e+01 -2.709690809249877930e+00 -2.611318230628967285e-02 6.369180977344512939e-03 -5.923200398683547974e-03 2.132045046892017126e-04
1.072000000000000000e+03 7.836039543151855469e+00 -1.880614519119262695e+00 -1.127848587930202484e-02 1.006431877613067627e-03 -3.081616247072815895e-03 -3.458217019215226173e-03
1.073000000000000000e+03 7.011786460876464844e+00 -1.880535721778869629e+00 -7.306518498808145523e-03 -5.917160306125879288e-04 -2.369470195844769478e-03 -3.359802532941102982e-03
1.074000000000000000e+03 5.380798816680908203e+00 -1.852418899536132812e+00 -4.215983208268880844e-03 -6.560449837706983089e-04 -1.461608451791107655e-03 -2.445858903229236603e-03
1.075000000000000000e+03 4.582741737365722656e+00 -1.859109997749328613e+00 -4.043585155159235001e-03 -1.521911704912781715e-03 -1.669649151153862476e-03 -2.672962844371795654e-03
1.076000000000000000e+03 2.287825345993041992e+00 -3.105619907379150391e+00 -2.655058866366744041e-03 -3.574084956198930740e-03 -1.868743100203573704e-03 -2.071081427857279778e-03
1.077000000000000000e+03 1.770868420600891113e+00 -4.594640731811523438e+00 -3.219278529286384583e-03 -5.437723360955715179e-03 -2.597100567072629929e-03 -4.419339820742607117e-03
1.078000000000000000e+03 4.275293350219726562e-01 -2.184624195098876953e+00 1.439764513634145260e-03 1.585590769536793232e-03 9.076066198758780956e-04 7.297222618944942951e-04
1.079000000000000000e+03 4.943922519683837891e+00 -4.014263916015625000e+01 1.035397406667470932e-02 -3.445034623146057129e-01 -1.002448499202728271e-01 -3.174654394388198853e-02
1.080000000000000000e+03 7.869731783866882324e-01 -3.872072219848632812e+01 -1.152975368313491344e-03 -5.186905860900878906e-01 -1.559530794620513916e-01 4.389394074678421021e-03
1.081000000000000000e+03 8.597694635391235352e-01 -3.328114700317382812e+01 4.251681268215179443e-03 -4.897525310516357422e-01 -1.456502526998519897e-01 -1.267770491540431976e-02
1.082000000000000000e+03 8.394454717636108398e-01 -3.185668563842773438e+01 -3.229576628655195236e-03 -4.685437679290771484e-01 -1.415320038795471191e-01 -1.327054016292095184e-02
1.083000000000000000e+03 7.235954999923706055e-01 -2.902162551879882812e+01 -6.378926336765289307e-03 -4.146600663661956787e-01 -1.263116896152496338e-01 -1.458627451211214066e-02
1.084000000000000000e+03 6.877264380455017090e-01 -2.621788978576660156e+01 -5.978878587484359741e-03 -3.547383248805999756e-01 -1.082151606678962708e-01 -1.500956621021032333e-02
1.085000000000000000e+03 2.231009006500244141e+00 -2.199855613708496094e+01 -6.886173505336046219e-03 -2.199552357196807861e-01 -6.805241852998733521e-02 -4.913512989878654480e-02
1.086000000000000000e+03 2.343434095382690430e+00 -1.894079780578613281e+01 -1.110969483852386475e-02 -1.580971926450729370e-01 -5.076206848025321960e-02 -5.151207000017166138e-02
1.087000000000000000e+03 1.808784127235412598e+00 -1.205112934112548828e+01 2.679128432646393776e-03 -5.411458387970924377e-02 -1.543063670396804810e-02 -2.313358522951602936e-02
1.088000000000000000e+03 2.083289861679077148e+00 -6.684271335601806641e+00 -2.749135310295969248e-04 -1.192914508283138275e-02 -3.661217400804162025e-03 -8.923864923417568207e-03
1.089000000000000000e+03 1.418254852294921875e+00 -3.362188339233398438e+00 6.555865984410047531e-04 4.912966687697917223e-05 2.114148810505867004e-04 1.077243359759449959e-03
1.090000000000000000e+03 7.866296386718750000e+01 3.898870086669921875e+01 -2.823919057846069336e-02 6.757586479187011719e+00 2.018804073333740234e+00 -5.217107944190502167e-03
1.091000000000000000e+03 7.915584564208984375e+01 3.473886489868164062e+01 1.869248342700302601e-03 6.695466518402099609e+00 2.009200572967529297e+00 2.781807258725166321e-02
1.092000000000000000e+03 7.927417755126953125e+01 2.922460746765136719e+01 1.532878144644200802e-03 6.446909427642822266e+00 1.934532642364501953e+00 4.460953548550605774e-02
1.093000000000000000e+03 7.781314086914062500e+01 2.779966926574707031e+01 -1.483678631484508514e-02 6.332113742828369141e+00 1.895183086395263672e+00 1.347664892673492432e-01
1.094000000000000000e+03 7.772454833984375000e+01 2.511374664306640625e+01 2.665602602064609528e-03 6.194532394409179688e+00 1.859159350395202637e+00 1.514315605163574219e-01
1.095000000000000000e+03 7.790258789062500000e+01 2.238475227355957031e+01 4.324892163276672363e-02 6.055384159088134766e+00 1.829589843750000000e+00 1.205420419573783875e-01
1.096000000000000000e+03 7.937203979492187500e+01 1.957258987426757812e+01 -2.939078584313392639e-02 5.814014434814453125e+00 1.735387086868286133e+00 1.207116898149251938e-02
1.097000000000000000e+03 7.817151641845703125e+01 1.832299232482910156e+01 5.074291676282882690e-02 5.973289489746093750e+00 1.807209730148315430e+00 -8.926865458488464355e-02
1.098000000000000000e+03 7.810275268554687500e+01 1.554247570037841797e+01 5.436549708247184753e-02 6.209301948547363281e+00 1.879100203514099121e+00 -3.854692876338958740e-01
1.099000000000000000e+03 7.808493041992187500e+01 1.243271350860595703e+01 -1.437888443470001221e-01 6.900445461273193359e+00 2.026997089385986328e+00 -3.616832792758941650e-01
1.100000000000000000e+03 7.943645477294921875e+01 9.782139778137207031e+00 -3.124148249626159668e-01 6.327013492584228516e+00 1.804379701614379883e+00 3.196614682674407959e-01
1.101000000000000000e+03 7.810259246826171875e+01 8.702272415161132812e+00 -9.490875154733657837e-02 8.676463127136230469e+00 2.574466228485107422e+00 4.300067126750946045e-01
1.102000000000000000e+03 7.721622467041015625e+01 5.294925212860107422e+00 8.764523863792419434e-01 1.187831115722656250e+01 3.826429128646850586e+00 -2.766590356826782227e+00
1.103000000000000000e+03 7.813755035400390625e+01 2.653669357299804688e+00 -6.397995352745056152e-01 1.068028545379638672e+01 3.012145757675170898e+00 -2.073137521743774414e+00
1.104000000000000000e+03 7.943945312500000000e+01 -1.795135438442230225e-02 -1.915095448493957520e-01 1.382539463043212891e+01 4.090165615081787109e+00 -5.089650675654411316e-02
1.105000000000000000e+03 7.835449218750000000e+01 -5.035725235939025879e-02 -8.021213412284851074e-01 1.153363227844238281e+01 3.219453334808349609e+00 1.598237603902816772e-01
1.106000000000000000e+03 7.947064208984375000e+01 -6.967042446136474609e+00 -1.489525102078914642e-02 9.060442924499511719e+00 2.713664293289184570e+00 3.847576677799224854e-01
1.107000000000000000e+03 7.826837158203125000e+01 -8.282477378845214844e+00 8.440902084112167358e-02 8.423369407653808594e+00 2.552333593368530273e+00 9.555440545082092285e-01
1.108000000000000000e+03 7.678913879394531250e+01 -1.218000698089599609e+01 6.636645197868347168e-01 8.337295532226562500e+00 2.700288057327270508e+00 1.867944449186325073e-01
1.109000000000000000e+03 7.944741058349609375e+01 -1.670994567871093750e+01 -7.669901102781295776e-02 7.504414558410644531e+00 2.228314638137817383e+00 -1.873554140329360962e-01
1.110000000000000000e+03 7.806887054443359375e+01 -2.211630439758300781e+01 -1.667076349258422852e-02 8.125073432922363281e+00 2.432520627975463867e+00 1.217693369835615158e-02
1.111000000000000000e+03 7.933427429199218750e+01 -2.640279388427734375e+01 3.222116455435752869e-02 8.261096954345703125e+00 2.487995386123657227e+00 3.213896602392196655e-02
1.112000000000000000e+03 7.784387969970703125e+01 -2.901824188232421875e+01 -1.361754070967435837e-02 7.794417381286621094e+00 2.334239959716796875e+00 8.414666354656219482e-02
1.113000000000000000e+03 7.615544891357421875e+01 -3.022549819946289062e+01 2.153461985290050507e-02 7.415605545043945312e+00 2.231142044067382812e+00 9.030068665742874146e-02
1.114000000000000000e+03 7.930029296875000000e+01 -3.335009002685546875e+01 -3.506793407723307610e-03 7.954307079315185547e+00 2.385240077972412109e+00 6.836683955043554306e-03
1.115000000000000000e+03 7.931689453125000000e+01 -3.609635543823242188e+01 9.220997802913188934e-03 7.873536586761474609e+00 2.364827156066894531e+00 1.682393252849578857e-02
1.116000000000000000e+03 7.664853668212890625e+01 -3.690703964233398438e+01 -1.498815603554248810e-02 7.486433982849121094e+00 2.241433620452880859e+00 5.603085458278656006e-02
1.117000000000000000e+03 7.869144439697265625e+01 -4.007336044311523438e+01 -2.109518088400363922e-02 7.685143947601318359e+00 2.299214601516723633e+00 5.523351579904556274e-02
1.118000000000000000e+03 4.253390431404113770e-01 2.179293394088745117e+00 2.648842521011829376e-03 -7.337457537651062012e-01 -2.193290740251541138e-01 2.228441387414932251e-01
1.119000000000000000e+03 6.091283559799194336e-01 5.050505638122558594e+00 7.825440913438796997e-02 -1.125827789306640625e+00 -3.142720162868499756e-01 -1.149621382355690002e-01
1.120000000000000000e+03 1.719051361083984375e+00 6.615946769714355469e+00 -3.180193901062011719e-02 -2.788716554641723633e-01 -9.320207685232162476e-02 -3.974128067493438721e-01
1.121000000000000000e+03 1.921262502670288086e+00 9.360694885253906250e+00 -5.243316292762756348e-02 2.986901625990867615e-02 -6.769244559109210968e-03 -2.565394341945648193e-01
1.122000000000000000e+03 6.564791798591613770e-01 1.218176078796386719e+01 -2.614122629165649414e-02 2.079787999391555786e-01 5.455126985907554626e-02 -4.055754095315933228e-02
1.123000000000000000e+03 1.946469545364379883e+00 1.233642959594726562e+01 -9.467691183090209961e-03 1.780020892620086670e-01 5.056032165884971619e-02 -1.073475480079650879e-01
1.124000000000000000e+03 6.390939354896545410e-01 1.642325210571289062e+01 1.975698210299015045e-02 3.483199179172515869e-01 1.104230657219886780e-01 -3.051316132768988609e-03
1.125000000000000000e+03 6.369420289993286133e-01 1.924145889282226562e+01 1.977435871958732605e-02 3.428382277488708496e-01 1.087837740778923035e-01 9.970752522349357605e-03
1.126000000000000000e+03 6.378070712089538574e-01 2.206264877319335938e+01 1.802413910627365112e-02 2.890945672988891602e-01 9.213561564683914185e-02 1.868052221834659576e-02
1.127000000000000000e+03 6.505861878395080566e-01 2.488681793212890625e+01 1.558784022927284241e-02 2.032262235879898071e-01 6.564421951770782471e-02 2.436654455959796906e-02
1.128000000000000000e+03 6.620954871177673340e-01 2.629657936096191406e+01 -1.551671605557203293e-02 1.524823457002639771e-01 4.108968749642372131e-02 2.247040532529354095e-02
1.129000000000000000e+03 6.726388931274414062e-01 2.911480712890625000e+01 -1.119517907500267029e-02 4.806042835116386414e-02 1.105957478284835815e-02 2.371167019009590149e-02
1.130000000000000000e+03 2.036386966705322266e+00 2.920967292785644531e+01 1.085761003196239471e-02 3.303242847323417664e-02 1.316701155155897141e-02 7.228606194257736206e-02
1.131000000000000000e+03 6.106839179992675781e-01 3.329979324340820312e+01 9.256459772586822510e-03 -9.266430884599685669e-02 -2.502235397696495056e-02 1.714677363634109497e-02
1.132000000000000000e+03 6.711063981056213379e-01 3.599790191650390625e+01 6.976124830543994904e-03 -1.620028167963027954e-01 -4.650801047682762146e-02 1.180076785385608673e-02
1.133000000000000000e+03 3.841099977493286133e+00 3.656309509277343750e+01 2.284037694334983826e-02 -1.357398778200149536e-01 -3.386985138058662415e-02 6.306830048561096191e-02
1.134000000000000000e+03 1.394275546073913574e+00 4.003873443603515625e+01 -5.218655132921412587e-05 -2.081040441989898682e-01 -6.244686618447303772e-02 8.314112201333045959e-03
1.135000000000000000e+03 4.359550476074218750e+00 1.924847960472106934e+00 2.624626874923706055e+00 -1.168915390968322754e+00 4.367134273052215576e-01 1.343625187873840332e+00
1.136000000000000000e+03 2.827131271362304688e+00 1.908095836639404297e+00 2.879400551319122314e-01 -8.181499242782592773e-01 -1.590629667043685913e-01 1.134647488594055176e+00
1.137000000000000000e+03 1.254888892173767090e+00 2.084105491638183594e+00 -2.202942036092281342e-03 -7.065143585205078125e-01 -2.126151919364929199e-01 5.818267464637756348e-01
1.138000000000000000e+03 4.886401653289794922e+00 3.957027673721313477e+00 8.823363780975341797e-01 1.888887286186218262e+00 8.313671350479125977e-01 -1.463473081588745117e+00
1.139000000000000000e+03 5.840042114257812500e+00 4.922180652618408203e+00 -4.271669685840606689e-01 1.438630104064941406e+00 3.034389615058898926e-01 5.860615894198417664e-02
1.140000000000000000e+03 1.023389434814453125e+01 6.724015712738037109e+00 -1.132442280650138855e-01 1.663593947887420654e-01 1.593455113470554352e-02 -3.082383796572685242e-02
1.141000000000000000e+03 1.403901672363281250e+01 1.171288967132568359e+01 -2.183229625225067139e-01 -1.016350314021110535e-01 -9.598740190267562866e-02 -1.780387908220291138e-01
1.142000000000000000e+03 1.764063644409179688e+01 1.453107643127441406e+01 -4.710681438446044922e-01 -1.237212866544723511e-01 -1.784368306398391724e-01 -1.897079497575759888e-01
1.143000000000000000e+03 2.164764213562011719e+01 1.641352462768554688e+01 -1.079243898391723633e+00 -5.713004618883132935e-02 -3.409121930599212646e-01 -2.999003529548645020e-01
1.144000000000000000e+03 2.217202568054199219e+01 1.115564632415771484e+01 1.959503293037414551e-01 1.654508113861083984e-01 1.084203422069549561e-01 2.321071624755859375e-01
1.145000000000000000e+03 1.777282142639160156e+01 7.886552333831787109e+00 -2.571391873061656952e-03 4.662165418267250061e-02 1.321507804095745087e-02 1.110452711582183838e-01
1.146000000000000000e+03 1.610384368896484375e+01 6.891450405120849609e+00 2.795617878437042236e-01 8.760411292314529419e-02 1.101497709751129150e-01 3.651526570320129395e-02
1.147000000000000000e+03 1.518144512176513672e+01 6.308787822723388672e+00 -6.305858492851257324e-02 3.792314603924751282e-02 -7.540631573647260666e-03 1.849758625030517578e-01
1.148000000000000000e+03 1.815425109863281250e+01 6.067595958709716797e+00 -2.445521205663681030e-01 -1.119713708758354187e-01 -1.069570481777191162e-01 -4.179666936397552490e-02
1.149000000000000000e+03 1.663392639160156250e+01 6.256932258605957031e+00 -2.166629880666732788e-01 -3.647672384977340698e-02 -7.594191282987594604e-02 -1.412527710199356079e-01
1.150000000000000000e+03 1.582441806793212891e+01 6.255792140960693359e+00 4.782890155911445618e-02 4.491031169891357422e-02 2.782176434993743896e-02 1.690693050622940063e-01
1.151000000000000000e+03 1.869672012329101562e+01 7.416813850402832031e+00 7.119269669055938721e-02 3.054581396281719208e-02 3.052155300974845886e-02 -4.147272557020187378e-03
1.152000000000000000e+03 2.034506797790527344e+01 6.112874984741210938e+00 -2.612867355346679688e-01 5.248809978365898132e-02 -6.263959407806396484e-02 -8.160516619682312012e-02
1.153000000000000000e+03 2.255565643310546875e+01 5.820473194122314453e+00 -2.273399680852890015e-01 8.772521279752254486e-03 -6.557023525238037109e-02 -1.435745656490325928e-01
1.154000000000000000e+03 2.357460403442382812e+01 5.630061149597167969e+00 -1.412943005561828613e-01 -1.038684844970703125e-01 -7.354883849620819092e-02 -1.285107582807540894e-01
1.155000000000000000e+03 6.509359741210937500e+01 8.408423423767089844e+00 1.530689954757690430e+00 1.132561874389648438e+01 3.856892824172973633e+00 2.964364767074584961e+00
1.156000000000000000e+03 6.352691650390625000e+01 6.351302146911621094e+00 6.330678462982177734e-01 3.190011024475097656e+00 1.146923661231994629e+00 1.097803592681884766e+00
1.157000000000000000e+03 6.088904190063476562e+01 3.284524202346801758e+00 -2.139871835708618164e+00 -8.066659420728683472e-02 -6.661615371704101562e-01 -8.460286855697631836e-01
1.158000000000000000e+03 5.523293304443359375e+01 7.328236103057861328e+00 4.275418519973754883e-01 7.408120155334472656e+00 2.350698709487915039e+00 1.975562453269958496e+00
1.159000000000000000e+03 3.790402603149414062e+01 -6.319584369659423828e+00 -5.702418088912963867e-01 -2.255502462387084961e+00 -8.477232456207275391e-01 1.309938073158264160e+00
1.160000000000000000e+03 3.992758178710937500e+01 -9.960478782653808594e+00 -8.589220046997070312e-01 6.148387193679809570e-01 -7.322496920824050903e-02 9.036220908164978027e-01
1.161000000000000000e+03 4.090062332153320312e+01 -1.260944461822509766e+01 -1.410538107156753540e-01 6.599110603332519531e+00 1.937417149543762207e+00 2.287073433399200439e-01
1.162000000000000000e+03 3.577826690673828125e+01 -1.347169017791748047e+01 -7.554031014442443848e-01 -4.777686595916748047e-01 -3.699515163898468018e-01 5.348875522613525391e-01
1.163000000000000000e+03 3.315933609008789062e+01 -1.034897327423095703e+01 -2.518768906593322754e-01 -2.077908962965011597e-01 -1.379003375768661499e-01 2.281248718500137329e-01
1.164000000000000000e+03 3.178652763366699219e+01 -7.944943904876708984e+00 -6.102916598320007324e-02 5.707486346364021301e-02 -1.186291105113923550e-03 9.190950542688369751e-03
1.165000000000000000e+03 3.020635414123535156e+01 -4.028200149536132812e+00 1.491867303848266602e-01 8.001754283905029297e-01 2.848086357116699219e-01 6.138491258025169373e-02
1.166000000000000000e+03 5.412389373779296875e+01 -9.030401229858398438e+00 1.206887006759643555e+00 5.724212169647216797e+00 2.079329729080200195e+00 -2.481258392333984375e+00
1.167000000000000000e+03 5.619935989379882812e+01 -1.586205482482910156e+01 7.552677392959594727e-02 1.391499614715576172e+01 4.197156906127929688e+00 -5.664106607437133789e-01
1.168000000000000000e+03 5.093092346191406250e+01 -1.663977622985839844e+01 -1.681849122047424316e+00 -9.896038174629211426e-01 -8.014358878135681152e-01 1.074118971824645996e+00
1.169000000000000000e+03 4.897447204589843750e+01 -1.453392791748046875e+01 -9.638184309005737305e-01 -5.158121585845947266e-01 -4.438891708850860596e-01 6.754567623138427734e-01
1.170000000000000000e+03 4.626267242431640625e+01 -1.097666740417480469e+01 -1.115576457232236862e-02 3.137730836868286133e+00 9.379725456237792969e-01 -3.321197032928466797e-01
1.171000000000000000e+03 4.480424880981445312e+01 -7.000077247619628906e+00 2.075353637337684631e-02 1.134668540954589844e+01 3.410231828689575195e+00 -1.924460053443908691e+00
1.172000000000000000e+03 7.001412200927734375e+01 -6.419679164886474609e+00 8.106071949005126953e-01 3.016954421997070312e+00 1.148268461227416992e+00 -1.834138512611389160e+00
1.173000000000000000e+03 7.086764526367187500e+01 -7.501376628875732422e+00 1.715485215187072754e+00 5.429372787475585938e+00 2.143457412719726562e+00 -2.713315248489379883e+00
1.174000000000000000e+03 7.215660095214843750e+01 -9.848069190979003906e+00 1.352527379989624023e+00 1.322286224365234375e+01 4.372616767883300781e+00 -1.759277820587158203e+00
1.175000000000000000e+03 6.445264434814453125e+01 -1.138328361511230469e+01 9.726696014404296875e-01 5.429187297821044922e+00 1.920557022094726562e+00 -1.946523666381835938e+00
1.176000000000000000e+03 6.339325714111328125e+01 -8.177802085876464844e+00 2.813189923763275146e-01 1.108165740966796875e+01 3.408892869949340820e+00 -1.420318841934204102e+00
1.177000000000000000e+03 6.984458160400390625e+01 7.095273017883300781e+00 -4.782293736934661865e-01 7.265505313873291016e+00 2.036182880401611328e+00 7.058003544807434082e-01
1.178000000000000000e+03 3.641057586669921875e+01 1.332790851593017578e+01 -1.386953353881835938e+00 -8.192381858825683594e-01 -6.618574857711791992e-01 9.036457538604736328e-01
1.179000000000000000e+03 2.357201004028320312e+01 6.046280860900878906e+00 -2.017879039049148560e-01 -8.832887560129165649e-02 -8.703503012657165527e-02 -1.724242717027664185e-01
1.180000000000000000e+03 2.316603660583496094e+01 6.191522121429443359e+00 -2.480874806642532349e-01 -6.350464373826980591e-02 -9.347763657569885254e-02 -2.028686553239822388e-01
1.181000000000000000e+03 3.607278442382812500e+01 6.886006355285644531e+00 -5.511957406997680664e-02 1.158721279352903366e-02 -1.305970922112464905e-02 6.644571572542190552e-02
1.182000000000000000e+03 2.161093902587890625e+01 2.184483528137207031e+00 4.596689045429229736e-01 -1.123525202274322510e-01 1.041949167847633362e-01 1.938765197992324829e-01
1.183000000000000000e+03 2.270462608337402344e+01 6.433924674987792969e+00 -2.455724030733108521e-01 6.687076389789581299e-02 -5.361049249768257141e-02 -1.221380010247230530e-01
1.184000000000000000e+03 2.316089248657226562e+01 5.700960159301757812e+00 -1.940605938434600830e-01 -4.294859617948532104e-02 -7.110276073217391968e-02 -1.464634090662002563e-01
1.185000000000000000e+03 2.375166320800781250e+01 8.067851066589355469e+00 -2.309283316135406494e-01 -4.259778652340173721e-03 -7.055643200874328613e-02 -1.492329835891723633e-01
1.186000000000000000e+03 2.375371551513671875e+01 6.548827171325683594e+00 -2.870582640171051025e-01 -1.176775097846984863e-01 -1.214207336306571960e-01 -2.210504710674285889e-01
1.187000000000000000e+03 3.634945297241210938e+01 1.437933731079101562e+01 -1.905388832092285156e+00 -2.078182250261306763e-01 -6.339620947837829590e-01 1.918508559465408325e-01
1.188000000000000000e+03 3.781673049926757812e+01 1.386247920989990234e+01 -1.422764897346496582e+00 1.073397099971771240e-01 -3.946275413036346436e-01 4.058780074119567871e-01
1.189000000000000000e+03 3.915976333618164062e+01 1.297005844116210938e+01 -1.063676476478576660e+00 1.904681026935577393e-01 -2.619625329971313477e-01 3.162988424301147461e-01
1.190000000000000000e+03 2.480610084533691406e+01 -1.151131391525268555e+00 7.391979098320007324e-01 -3.110064864158630371e-01 1.284574270248413086e-01 -2.529890537261962891e-01
1.191000000000000000e+03 2.468958282470703125e+01 1.092623949050903320e+00 -6.461825966835021973e-02 -5.189146995544433594e-01 -1.750598847866058350e-01 -1.607830077409744263e-01
1.192000000000000000e+03 2.408957481384277344e+01 1.047239422798156738e+00 3.044808208942413330e-01 -4.562703371047973633e-01 -4.553686454892158508e-02 -1.130137816071510315e-01
1.193000000000000000e+03 4.525751113891601562e+00 4.807109355926513672e+00 -5.834973603487014771e-02 8.521339893341064453e-01 2.381352782249450684e-01 -7.887459993362426758e-01
1.194000000000000000e+03 6.467910289764404297e+00 6.060229301452636719e+00 -3.527892231941223145e-01 2.750191390514373779e-01 -2.333102561533451080e-02 1.425216048955917358e-01
1.195000000000000000e+03 5.592272758483886719e+00 6.167537689208984375e+00 -2.969866394996643066e-01 1.036049127578735352e+00 2.217187285423278809e-01 -4.399408062454313040e-04
1.196000000000000000e+03 5.022026538848876953e+00 5.126478672027587891e+00 -2.553432285785675049e-01 1.448592185974121094e+00 3.579747080802917480e-01 -5.712130665779113770e-01
1.197000000000000000e+03 4.068598747253417969e+00 7.857437133789062500e+00 -3.124781548976898193e-01 3.278399705886840820e-01 4.608545918017625809e-03 -3.250126540660858154e-01
1.198000000000000000e+03 1.402906227111816406e+01 -2.951208353042602539e+00 -2.654087729752063751e-02 -1.413648948073387146e-03 -8.386357687413692474e-03 7.745975162833929062e-03
1.199000000000000000e+03 9.477300643920898438e+00 -1.882661104202270508e+00 -1.482657529413700104e-02 2.497822279110550880e-03 -3.698625834658741951e-03 -2.228230703622102737e-03
1.200000000000000000e+03 1.103455734252929688e+01 -1.927485823631286621e+00 -1.767265424132347107e-02 4.013936500996351242e-03 -4.097615368664264679e-03 -9.038585994858294725e-05
1.201000000000000000e+03 1.954135704040527344e+01 6.108633995056152344e+00 -2.035256624221801758e-01 -1.425653137266635895e-02 -6.533465534448623657e-02 -7.098370790481567383e-02
1.202000000000000000e+03 1.930019187927246094e+01 6.806204795837402344e+00 -1.823974549770355225e-01 3.506385535001754761e-02 -4.420008137822151184e-02 -5.313804373145103455e-02
1.203000000000000000e+03 2.115875244140625000e+01 6.051474571228027344e+00 -2.429789900779724121e-01 4.457079991698265076e-02 -5.952245742082595825e-02 -1.186940968036651611e-01
1.204000000000000000e+03 2.207439041137695312e+01 6.707955360412597656e+00 -2.441882044076919556e-01 2.402125298976898193e-02 -6.605008244514465332e-02 -1.460565030574798584e-01
1.205000000000000000e+03 4.003869247436523438e+01 1.375552845001220703e+01 -1.140290975570678711e+00 3.803405463695526123e-01 -2.279851436614990234e-01 1.400643438100814819e-01
1.206000000000000000e+03 4.178577804565429688e+01 1.384980297088623047e+01 -1.132607817649841309e+00 4.953295290470123291e-01 -1.911834776401519775e-01 -8.421479910612106323e-02
1.207000000000000000e+03 4.161506271362304688e+01 1.264040565490722656e+01 -1.006200551986694336e+00 2.903298139572143555e-01 -2.147612273693084717e-01 -8.122666925191879272e-02
1.208000000000000000e+03 4.086871337890625000e+01 1.377857112884521484e+01 -1.099310874938964844e+00 3.811287283897399902e-01 -2.154546529054641724e-01 5.117579922080039978e-02
1.209000000000000000e+03 4.311523056030273438e+01 1.301489543914794922e+01 -1.065945148468017578e+00 3.245974481105804443e-01 -2.224043309688568115e-01 -2.669290602207183838e-01
1.210000000000000000e+03 4.078649520874023438e+01 1.482112503051757812e+01 -1.125020623207092285e+00 5.365626811981201172e-01 -1.765373647212982178e-01 8.873353712260723114e-03
1.211000000000000000e+03 2.842782258987426758e+00 2.675961732864379883e+00 1.274831056594848633e+00 -9.946931600570678711e-01 8.404137194156646729e-02 6.003298759460449219e-01
1.212000000000000000e+03 1.492098689079284668e+00 3.264843702316284180e+00 3.522855043411254883e-01 -9.174990653991699219e-01 -1.695640683174133301e-01 2.776052951812744141e-01
1.213000000000000000e+03 2.048291683197021484e+00 1.964817643165588379e+00 1.536782681941986084e-01 -6.440556049346923828e-01 -1.471131891012191772e-01 8.342489004135131836e-01
1.214000000000000000e+03 1.419006252288818359e+01 -2.018645524978637695e+00 -1.528047677129507065e-02 2.376839285716414452e-03 -3.871091408655047417e-03 5.428797099739313126e-03
1.215000000000000000e+03 1.448614311218261719e+01 -4.149292469024658203e+00 -4.519935697317123413e-02 -3.902399039361625910e-04 -1.367687899619340897e-02 9.117614477872848511e-03
1.216000000000000000e+03 1.243063259124755859e+01 -2.757776260375976562e+00 -2.357588149607181549e-02 6.455389084294438362e-04 -6.879102904349565506e-03 2.134388778358697891e-03
1.217000000000000000e+03 1.706962013244628906e+01 7.038104534149169922e+00 2.528364062309265137e-01 6.798496097326278687e-02 9.624640643596649170e-02 6.335153430700302124e-02
1.218000000000000000e+03 7.555612087249755859e+00 6.733042240142822266e+00 -3.787590861320495605e-01 2.346165329217910767e-01 -4.324276000261306763e-02 2.035144865512847900e-01
1.219000000000000000e+03 8.427739143371582031e+00 7.515533447265625000e+00 -1.943315714597702026e-01 1.403929740190505981e-01 -1.618158072233200073e-02 -7.985034026205539703e-03
1.220000000000000000e+03 5.372399330139160156e+00 -3.660561561584472656e+00 -1.011121273040771484e-02 -1.318044611252844334e-03 -3.428777214139699936e-03 -5.862320773303508759e-03
1.221000000000000000e+03 3.121740579605102539e+00 -2.907720804214477539e+00 -2.179512288421392441e-03 -1.749286078847944736e-03 -1.178639475256204605e-03 -1.423732377588748932e-03
1.222000000000000000e+03 2.123559951782226562e+00 -2.046828985214233398e+00 1.767534267855808139e-04 -2.863928384613245726e-04 -3.289182859589345753e-05 1.332889776676893234e-03
1.223000000000000000e+03 5.315128326416015625e+00 -2.558828353881835938e+00 -7.977328263223171234e-03 -1.474402728490531445e-03 -2.835519379004836082e-03 -4.410550929605960846e-03
1.224000000000000000e+03 8.409454345703125000e+00 -3.415091037750244141e+00 -1.923955976963043213e-02 5.659057642333209515e-04 -5.602096207439899445e-03 -7.657175883650779724e-03
1.225000000000000000e+03 6.916582584381103516e+00 -2.645991086959838867e+00 -1.318272203207015991e-02 2.664233325049281120e-04 -3.874889807775616646e-03 -5.484618712216615677e-03
1.226000000000000000e+03 6.188521862030029297e+00 -1.873590469360351562e+00 -7.439095526933670044e-03 -2.642888575792312622e-04 -2.311015268787741661e-03 -3.317829687148332596e-03
1.227000000000000000e+03 7.727464199066162109e+00 -2.646082401275634766e+00 -1.248863711953163147e-02 -4.103788232896476984e-04 -3.869704902172088623e-03 -5.210927687585353851e-03
1.228000000000000000e+03 4.643361091613769531e+00 -2.552489757537841797e+00 -4.606939386576414108e-03 -1.246184576302766800e-03 -1.755937235429883003e-03 -2.252851612865924835e-03
1.229000000000000000e+03 4.931344032287597656e+00 -3.131097316741943359e+00 -8.660319261252880096e-03 -3.282707417383790016e-03 -3.582908073440194130e-03 -6.332140415906906128e-03
1.230000000000000000e+03 4.851492345333099365e-01 -3.557303905487060547e+00 -2.331754192709922791e-03 1.865978701971471310e-03 -1.397326705045998096e-04 -6.542677874676883221e-04
1.231000000000000000e+03 3.884633779525756836e+00 4.677905082702636719e+00 3.771834373474121094e-01 6.796998977661132812e-01 3.170650005340576172e-01 -8.464282155036926270e-01
1.232000000000000000e+03 2.334159851074218750e+01 1.049682378768920898e+00 4.398722052574157715e-01 -2.845351397991180420e-01 4.660112038254737854e-02 -2.515788972377777100e-01
1.233000000000000000e+03 2.616038131713867188e+01 -1.140377807617187500e+01 -5.189065933227539062e-01 4.285340607166290283e-01 -2.711175195872783661e-02 1.213459298014640808e-01
1.234000000000000000e+03 2.740376091003417969e+01 -9.627821922302246094e+00 -2.200056016445159912e-01 4.885911047458648682e-01 8.057565242052078247e-02 4.111437126994132996e-02
1.235000000000000000e+03 6.691004943847656250e+01 1.386761856079101562e+01 1.414998292922973633e+00 1.058928203582763672e+01 3.601284027099609375e+00 8.914092183113098145e-01
1.236000000000000000e+03 6.827877044677734375e+01 -1.522462940216064453e+01 -1.600654721260070801e+00 6.275005172938108444e-03 -4.783139228820800781e-01 6.016232967376708984e-01
1.237000000000000000e+03 4.380399322509765625e+01 -2.528736591339111328e+00 -2.496992200613021851e-01 6.844042778015136719e+00 1.978303074836730957e+00 4.784936308860778809e-01
1.238000000000000000e+03 5.459869384765625000e+01 1.087534236907958984e+01 1.300200581550598145e+00 8.287705421447753906e+00 2.876371860504150391e+00 1.286713361740112305e+00
1.239000000000000000e+03 5.559845733642578125e+01 8.572972416877746582e-01 8.730095028877258301e-01 4.727890491485595703e+00 1.680269956588745117e+00 -5.992468357086181641e+00
1.240000000000000000e+03 5.460054397583007812e+01 1.530679821968078613e+00 6.138820171356201172e+00 1.745577049255371094e+01 7.078376770019531250e+00 -7.235790729522705078e+00
1.241000000000000000e+03 5.390385818481445312e+01 3.998282253742218018e-01 -2.010758399963378906e+00 1.260876274108886719e+01 3.179401397705078125e+00 -1.965557932853698730e+00
1.242000000000000000e+03 6.592864990234375000e+01 7.377877235412597656e+00 -1.128615617752075195e+00 1.081809139251708984e+01 2.906842708587646484e+00 -5.110182762145996094e-01
1.243000000000000000e+03 7.165908813476562500e+01 -4.470829367637634277e-01 -2.085322618484497070e+00 4.277764320373535156e+00 6.577324867248535156e-01 -4.761380672454833984e+00
1.244000000000000000e+03 2.887139511108398438e+01 1.189296126365661621e+00 6.501609683036804199e-01 -2.788085043430328369e-01 1.114057376980781555e-01 -2.940951883792877197e-01
1.245000000000000000e+03 2.669986343383789062e+01 5.873104929924011230e-01 5.934580564498901367e-01 -4.891338348388671875e-01 3.129727393388748169e-02 -2.444049268960952759e-01
1.246000000000000000e+03 3.687235641479492188e+01 8.776546478271484375e+00 -3.562851622700691223e-02 -6.266548763960599899e-03 -1.256851945072412491e-02 -1.499074138700962067e-02
1.247000000000000000e+03 6.089666748046875000e+01 1.524811172485351562e+01 1.735289454460144043e+00 1.270396232604980469e+00 9.017057418823242188e-01 3.842851221561431885e-01
1.248000000000000000e+03 6.304145431518554688e+01 1.519141674041748047e+01 1.220535635948181152e+00 1.932396411895751953e+00 9.458796381950378418e-01 -1.614629149436950684e+00
1.249000000000000000e+03 7.328183746337890625e+01 9.842137336730957031e+00 -1.332910776138305664e+00 1.238221645355224609e+00 -2.840674854815006256e-02 -2.332123756408691406e+00
1.250000000000000000e+03 7.453713226318359375e+01 1.020240783691406250e+01 -1.458555161952972412e-01 5.109247207641601562e+00 1.489017605781555176e+00 -2.972289800643920898e+00
1.251000000000000000e+03 6.816551971435546875e+01 3.331973791122436523e+00 2.949066638946533203e+00 8.893177032470703125e+00 3.552673101425170898e+00 -8.963806033134460449e-01
1.252000000000000000e+03 7.681314849853515625e+01 3.464734315872192383e+00 -7.612720727920532227e-01 1.065678691864013672e+01 2.968654632568359375e+00 -1.975720763206481934e+00
1.253000000000000000e+03 5.872433090209960938e+01 1.677417755126953125e+00 -6.363090991973876953e+00 -1.339879751205444336e+00 -2.310891151428222656e+00 -3.057402133941650391e+00
1.254000000000000000e+03 5.744512939453125000e+01 -8.062369227409362793e-01 -7.571589350700378418e-01 1.521377086639404297e+00 2.292654365301132202e-01 -4.068870067596435547e+00
1.255000000000000000e+03 7.745536041259765625e+01 1.060278606414794922e+01 -3.355790376663208008e-01 7.923007488250732422e+00 2.276228427886962891e+00 -4.657176509499549866e-02
1.256000000000000000e+03 7.578931427001953125e+01 1.101420593261718750e+01 -6.414742469787597656e-01 8.037687301635742188e+00 2.218863725662231445e+00 -2.454775333404541016e+00
1.257000000000000000e+03 7.552629852294921875e+01 -3.057234287261962891e-01 -1.674913763999938965e+00 5.780864238739013672e+00 1.231785058975219727e+00 6.447562575340270996e-01
1.258000000000000000e+03 7.529895782470703125e+01 7.212927341461181641e-01 -3.892054319381713867e+00 5.633771896362304688e+00 5.225152969360351562e-01 6.548600196838378906e-01
1.259000000000000000e+03 5.679135894775390625e+01 1.151607036590576172e+01 9.038044810295104980e-01 3.082910060882568359e+00 1.196014285087585449e+00 1.293449044227600098e+00
1.260000000000000000e+03 6.348217773437500000e+01 2.654664516448974609e+00 -1.991374492645263672e+00 4.172633171081542969e+00 6.543775200843811035e-01 1.724324703216552734e+00
1.261000000000000000e+03 5.415117263793945312e+01 7.893329620361328125e+00 -6.375613808631896973e-01 1.149200916290283203e+01 3.256334304809570312e+00 5.510599613189697266e-01
1.262000000000000000e+03 5.896450805664062500e+01 1.343348693847656250e+01 6.143374443054199219e-01 1.051264524459838867e+00 4.996806085109710693e-01 9.998902678489685059e-01
1.263000000000000000e+03 6.156731414794921875e+01 2.359033107757568359e+00 -2.939704656600952148e+00 2.474641084671020508e+00 -1.395190805196762085e-01 8.383511900901794434e-01
1.264000000000000000e+03 6.434908294677734375e+01 5.498077869415283203e+00 2.210816144943237305e-01 4.880913257598876953e+00 1.530598402023315430e+00 1.163044571876525879e+00
1.265000000000000000e+03 5.996725845336914062e+01 1.432526969909667969e+01 8.773629665374755859e-01 9.427863359451293945e-01 5.460447669029235840e-01 8.947081565856933594e-01
1.266000000000000000e+03 6.514870452880859375e+01 6.489215850830078125e+00 -3.174161911010742188e-01 8.525305747985839844e+00 2.462366819381713867e+00 9.428853988647460938e-01
1.267000000000000000e+03 5.546315383911132812e+01 -1.905195808410644531e+01 -1.207093358039855957e+00 6.646415710449218750e+00 1.631796717643737793e+00 2.711800336837768555e+00
1.268000000000000000e+03 6.987281036376953125e+01 1.066015213727951050e-01 -3.383559465408325195e+00 7.346280097961425781e+00 1.188816308975219727e+00 -2.152711868286132812e+00
1.269000000000000000e+03 7.210275268554687500e+01 1.018539047241210938e+01 -1.213203668594360352e+00 -1.052440889179706573e-02 -3.671184182167053223e-01 -9.615972638130187988e-01
1.270000000000000000e+03 2.529109764099121094e+01 1.859030723571777344e+01 -1.068521022796630859e+00 -7.459856569766998291e-02 -3.429358601570129395e-01 4.781945794820785522e-02
1.271000000000000000e+03 6.768534088134765625e+01 4.141624927520751953e+00 2.778950929641723633e+00 9.713489532470703125e+00 3.747731924057006836e+00 -1.597409009933471680e+00
1.272000000000000000e+03 6.887136077880859375e+01 7.839759349822998047e+00 -1.829469799995422363e+00 1.071705627441406250e+01 2.666275739669799805e+00 -1.495897889137268066e+00
1.273000000000000000e+03 6.550617218017578125e+01 -1.556038856506347656e+00 -4.038423061370849609e+00 -2.311458289623260498e-01 -1.280870676040649414e+00 3.530721664428710938e+00
1.274000000000000000e+03 6.321615982055664062e+01 1.549269437789916992e+00 -2.180359363555908203e+00 4.546597003936767578e+00 7.098712921142578125e-01 2.756669521331787109e+00
1.275000000000000000e+03 7.096763610839843750e+01 -1.777286148071289062e+01 -8.374665975570678711e-01 5.017977714538574219e+00 1.254153370857238770e+00 2.318683385848999023e+00
1.276000000000000000e+03 3.995584869384765625e+01 -2.174187088012695312e+01 -6.122282147407531738e-01 2.390048503875732422e+00 5.333460569381713867e-01 4.866309165954589844e-01
1.277000000000000000e+03 3.951972961425781250e+01 -1.715783691406250000e+01 2.457223832607269287e-01 1.857733130455017090e+00 6.310366392135620117e-01 2.244184732437133789e+00
1.278000000000000000e+03 4.978343963623046875e+01 1.533667659759521484e+01 2.334959983825683594e+00 9.148823738098144531e+00 3.445135116577148438e+00 -5.114919185638427734e+00
1.279000000000000000e+03 5.093846511840820312e+01 1.669577407836914062e+01 -1.790063977241516113e+00 1.183760070800781250e+01 3.014260768890380859e+00 -9.276227951049804688e-01
1.280000000000000000e+03 7.317234802246093750e+01 -9.073573112487792969e+00 1.245306134223937988e+00 9.625638008117675781e+00 3.261283159255981445e+00 1.629685051739215851e-02
1.281000000000000000e+03 2.889152526855468750e+01 -2.653349161148071289e+00 5.521725416183471680e-01 9.117489457130432129e-01 4.391764402389526367e-01 6.953397393226623535e-01
1.282000000000000000e+03 2.897120857238769531e+01 -4.261890411376953125e+00 1.187708005309104919e-01 6.728027462959289551e-01 2.374720722436904907e-01 1.993207931518554688e-01
1.283000000000000000e+03 3.529307556152343750e+01 -1.330314397811889648e+00 9.241546392440795898e-01 -6.349128484725952148e-01 8.677253127098083496e-02 -1.328969597816467285e-01
1.284000000000000000e+03 6.286594009399414062e+01 -1.377006340026855469e+01 1.817738264799118042e-02 6.228903293609619141e+00 1.874124288558959961e+00 -9.744946360588073730e-01
1.285000000000000000e+03 6.647964477539062500e+01 -1.528342056274414062e+01 -7.250242233276367188e-01 2.302539825439453125e+00 4.732546508312225342e-01 -8.048943281173706055e-01
1.286000000000000000e+03 3.279542541503906250e+01 -1.202744483947753906e+01 -4.331680834293365479e-01 1.992464764043688774e-03 -1.293526887893676758e-01 2.150634229183197021e-01
1.287000000000000000e+03 6.825895690917968750e+01 -2.408103942871093750e+00 -4.297805309295654297e+00 3.514058113098144531e+00 -2.351242005825042725e-01 -8.400294184684753418e-01
1.288000000000000000e+03 6.452500915527343750e+01 -1.345763397216796875e+01 -1.683320552110671997e-01 4.724170684814453125e+00 1.366751551628112793e+00 -1.356363058090209961e+00
1.289000000000000000e+03 6.549107360839843750e+01 -1.433871746063232422e+01 -3.047231137752532959e-01 3.330301761627197266e+00 9.076736569404602051e-01 -1.139989733695983887e+00
1.290000000000000000e+03 6.093068695068359375e+01 -7.295234680175781250e+00 1.220635175704956055e+00 8.807229995727539062e+00 3.008359432220458984e+00 5.632857680320739746e-01
1.291000000000000000e+03 6.921862030029296875e+01 -3.486647129058837891e+00 -2.613356113433837891e+00 3.540909528732299805e+00 2.782660126686096191e-01 -8.823069334030151367e-01
1.292000000000000000e+03 3.453985214233398438e+01 -6.328407526016235352e-01 1.080992937088012695e+00 -5.160207748413085938e-01 1.694916635751724243e-01 4.060433804988861084e-02
1.293000000000000000e+03 3.412306213378906250e+01 2.839221656322479248e-01 1.122868895530700684e+00 -1.380320489406585693e-01 2.954510450363159180e-01 2.130496203899383545e-01
1.294000000000000000e+03 3.575641632080078125e+01 -1.803454017639160156e+01 -1.491436548531055450e-02 4.494875669479370117e-01 1.303719580173492432e-01 2.696534693241119385e-01
1.295000000000000000e+03 3.630348587036132812e+01 -2.122815370559692383e+00 7.787714600563049316e-01 -9.976096749305725098e-01 -6.565146893262863159e-02 -1.421085596084594727e-01
1.296000000000000000e+03 3.624006652832031250e+01 -3.985149145126342773e+00 -1.993024349212646484e-01 -1.443381190299987793e+00 -4.928050935268402100e-01 5.598365664482116699e-01
1.297000000000000000e+03 2.828099822998046875e+01 -6.290989875793457031e+00 -3.672680631279945374e-02 5.097360014915466309e-01 1.419027596712112427e-01 1.657119989395141602e-01
1.298000000000000000e+03 3.228041839599609375e+01 -1.448609066009521484e+01 -6.215042471885681152e-01 3.312716782093048096e-01 -8.706977218389511108e-02 5.852806940674781799e-02
1.299000000000000000e+03 3.507552337646484375e+01 -1.517019081115722656e+01 -9.031635522842407227e-01 1.164935715496540070e-02 -2.674542665481567383e-01 3.896645009517669678e-01
1.300000000000000000e+03 3.150447082519531250e+01 -9.581139564514160156e+00 -2.167765200138092041e-01 7.782482355833053589e-02 -4.168551042675971985e-02 1.035155504941940308e-01
1.301000000000000000e+03 3.373138427734375000e+01 -1.302951335906982422e+01 -6.460887789726257324e-01 -3.410572186112403870e-02 -2.040583491325378418e-01 3.005021214485168457e-01
1.302000000000000000e+03 3.450439834594726562e+01 -1.405480098724365234e+01 -6.121032238006591797e-01 -7.035253942012786865e-02 -2.047367244958877563e-01 3.563980162143707275e-01
1.303000000000000000e+03 3.740148162841796875e+01 -1.266332507133483887e+00 9.203126430511474609e-01 -7.350818514823913574e-01 5.556925013661384583e-02 -4.383110404014587402e-01
1.304000000000000000e+03 4.045725631713867188e+01 -8.237596511840820312e+00 -7.515168190002441406e-01 1.949204802513122559e+00 3.593063950538635254e-01 1.127331972122192383e+00
1.305000000000000000e+03 5.176611709594726562e+01 1.559842395782470703e+01 1.806522458791732788e-01 1.155928516387939453e+01 3.521981239318847656e+00 1.969484448432922363e+00
1.306000000000000000e+03 3.477751541137695312e+01 1.627863502502441406e+01 -1.264515399932861328e+00 -5.340223908424377441e-01 -5.395613312721252441e-01 1.142015978693962097e-01
1.307000000000000000e+03 5.183108139038085938e+01 1.044499397277832031e+01 2.390768766403198242e+00 1.666229057312011719e+01 5.715917587280273438e+00 3.528632223606109619e-01
1.308000000000000000e+03 3.683398437500000000e+01 2.890950202941894531e+00 9.842672944068908691e-02 -1.673975884914398193e-01 -2.069125883281230927e-02 1.885105073451995850e-01
1.309000000000000000e+03 3.032346343994140625e+01 1.400739955902099609e+01 -9.930646419525146484e-01 -9.479416906833648682e-02 -3.263576328754425049e-01 -1.597562581300735474e-01
1.310000000000000000e+03 2.683031463623046875e+01 1.599976539611816406e+00 -2.563810944557189941e-01 -6.531110405921936035e-01 -2.728476524353027344e-01 -5.166205763816833496e-01
1.311000000000000000e+03 4.798723983764648438e+01 -3.217233657836914062e+00 -7.227701663970947266e+00 -7.858154773712158203e-01 -2.404055118560791016e+00 2.228120565414428711e+00
1.312000000000000000e+03 4.720146179199218750e+01 -1.535859107971191406e+00 -2.184907943010330200e-01 1.957335472106933594e+00 5.216534137725830078e-01 5.060044765472412109e+00
1.313000000000000000e+03 2.481149291992187500e+01 8.245023727416992188e+00 -3.099413514137268066e-01 -1.704181730747222900e-01 -1.441078484058380127e-01 -2.237885445356369019e-01
1.314000000000000000e+03 2.749614524841308594e+01 1.198740768432617188e+01 -2.015279531478881836e-01 -2.721842825412750244e-01 -1.421136707067489624e-01 -2.068010717630386353e-01
1.315000000000000000e+03 7.787155914306640625e+01 -3.321421813964843750e+01 1.619115285575389862e-02 7.694414138793945312e+00 2.313181638717651367e+00 5.884440243244171143e-02
1.316000000000000000e+03 7.927667236328125000e+01 -3.195996665954589844e+01 1.971003599464893341e-02 7.986341476440429688e+00 2.401815414428710938e+00 2.018473111093044281e-02
1.317000000000000000e+03 7.931464385986328125e+01 -2.779759597778320312e+01 -3.130047395825386047e-02 8.174636840820312500e+00 2.443001031875610352e+00 3.782428801059722900e-02
1.318000000000000000e+03 7.776906585693359375e+01 -3.040602684020996094e+01 3.893679752945899963e-02 7.737083911895751953e+00 2.332806110382080078e+00 7.986779510974884033e-02
1.319000000000000000e+03 7.658561706542968750e+01 -3.899528121948242188e+01 -1.593795605003833771e-03 7.562036991119384766e+00 2.268132925033569336e+00 2.240058593451976776e-02
1.320000000000000000e+03 7.906990051269531250e+01 -3.874291610717773438e+01 5.131158977746963501e-03 7.752245426177978516e+00 2.327213048934936523e+00 3.646450862288475037e-02
1.321000000000000000e+03 7.796482086181640625e+01 -3.584020614624023438e+01 -1.113389153033494949e-02 7.680483341217041016e+00 2.300804853439331055e+00 5.569962039589881897e-02
1.322000000000000000e+03 7.934763336181640625e+01 -2.362581443786621094e+01 3.367985039949417114e-02 8.418409347534179688e+00 2.535626888275146484e+00 1.774118095636367798e-02
1.323000000000000000e+03 7.801300811767578125e+01 -2.625752449035644531e+01 -4.151186347007751465e-02 7.929699420928955078e+00 2.366456270217895508e+00 1.076968833804130554e-01
1.324000000000000000e+03 7.938631439208984375e+01 -2.085754013061523438e+01 3.125762939453125000e-02 8.402590751647949219e+00 2.530154466629028320e+00 -5.861779674887657166e-02
1.325000000000000000e+03 7.802040100097656250e+01 -2.349130821228027344e+01 -9.252821654081344604e-02 8.066993713378906250e+00 2.392339706420898438e+00 6.455347687005996704e-02
1.326000000000000000e+03 7.900145721435546875e+01 3.612895584106445312e+01 -6.556374486535787582e-03 6.732016086578369141e+00 2.017637968063354492e+00 2.349870093166828156e-02
1.327000000000000000e+03 7.635551452636718750e+01 -2.877770614624023438e+01 6.307321041822433472e-02 7.447540760040283203e+00 2.253184318542480469e+00 1.287098973989486694e-01
1.328000000000000000e+03 7.943952178955078125e+01 1.113462066650390625e+01 6.931925565004348755e-02 6.741464138031005859e+00 2.043235063552856445e+00 -8.561900467611849308e-04
1.329000000000000000e+03 7.936654663085937500e+01 1.252677249908447266e+01 -9.005519747734069824e-02 6.704767704010009766e+00 1.984413862228393555e+00 -3.159751370549201965e-02
1.330000000000000000e+03 7.799285888671875000e+01 1.400606918334960938e+01 -3.917908295989036560e-02 6.516364574432373047e+00 1.943155527114868164e+00 -3.739539086818695068e-01
1.331000000000000000e+03 7.934368133544921875e+01 2.095491409301757812e+01 5.091437697410583496e-02 5.853945255279541016e+00 1.771457910537719727e+00 2.847610227763652802e-02
1.332000000000000000e+03 7.930886077880859375e+01 2.233979606628417969e+01 -2.663756348192691803e-02 5.938529968261718750e+00 1.773567795753479004e+00 5.913940444588661194e-02
1.333000000000000000e+03 7.938503265380859375e+01 1.818800926208496094e+01 6.232782080769538879e-02 5.848645687103271484e+00 1.773291945457458496e+00 -3.532950207591056824e-02
1.334000000000000000e+03 7.926656341552734375e+01 2.509265136718750000e+01 -1.609701290726661682e-02 6.151942729949951172e+00 1.840753793716430664e+00 6.294614821672439575e-02
1.335000000000000000e+03 7.927250671386718750e+01 2.646338462829589844e+01 7.702148985117673874e-03 6.259538650512695312e+00 1.880172252655029297e+00 5.482484027743339539e-02
1.336000000000000000e+03 7.778884124755859375e+01 3.050668334960937500e+01 -1.107547432184219360e-02 6.447884082794189453e+00 1.931042671203613281e+00 1.075725480914115906e-01
1.337000000000000000e+03 7.778113555908203125e+01 2.915434265136718750e+01 -1.645535789430141449e-02 6.391991138458251953e+00 1.912660717964172363e+00 1.227432861924171448e-01
1.338000000000000000e+03 7.924660491943359375e+01 3.335792922973632812e+01 -5.230001173913478851e-03 6.646947860717773438e+00 1.992515325546264648e+00 3.028263524174690247e-02
1.339000000000000000e+03 7.943267822265625000e+01 -1.808400535583496094e+01 5.658866837620735168e-02 7.917239665985107422e+00 2.392148494720458984e+00 -1.682758927345275879e-01
1.340000000000000000e+03 7.693996429443359375e+01 -2.058001518249511719e+01 -1.857484430074691772e-01 7.991921424865722656e+00 2.341851949691772461e+00 -6.574165076017379761e-02
1.341000000000000000e+03 7.942922973632812500e+01 -1.532716846466064453e+01 7.594701647758483887e-02 7.046606063842773438e+00 2.136765956878662109e+00 -1.905395686626434326e-01
1.342000000000000000e+03 7.937541198730468750e+01 -1.392148876190185547e+01 1.092795934528112411e-02 6.741687774658203125e+00 2.025784730911254883e+00 -8.654139935970306396e-02
1.343000000000000000e+03 7.936117553710937500e+01 -1.250096988677978516e+01 6.283055245876312256e-02 6.642814159393310547e+00 2.011693477630615234e+00 -1.162801682949066162e-02
1.344000000000000000e+03 7.941650390625000000e+01 -1.110069751739501953e+01 9.008853882551193237e-02 6.801967620849609375e+00 2.067616939544677734e+00 1.597915589809417725e-01
1.345000000000000000e+03 7.943794250488281250e+01 -9.723452568054199219e+00 8.513289503753185272e-03 7.363030433654785156e+00 2.211462974548339844e+00 2.894859313964843750e-01
1.346000000000000000e+03 7.944023895263671875e+01 -8.342473030090332031e+00 4.211062565445899963e-02 8.127925872802734375e+00 2.451010942459106445e+00 3.507708609104156494e-01
1.347000000000000000e+03 7.943350982666015625e+01 -5.612183570861816406e+00 8.623174577951431274e-02 1.022542381286621094e+01 3.093496561050415039e+00 4.849464893341064453e-01
1.348000000000000000e+03 7.936157989501953125e+01 -4.239141941070556641e+00 -4.972872883081436157e-02 1.135047054290771484e+01 3.390222549438476562e+00 5.106722712516784668e-01
1.349000000000000000e+03 7.936631011962890625e+01 -2.828237295150756836e+00 1.728016138076782227e-02 1.240848731994628906e+01 3.727730035781860352e+00 4.829258322715759277e-01
1.350000000000000000e+03 7.941618347167968750e+01 -1.416414022445678711e+00 -1.274604946374893188e-01 1.338844966888427734e+01 3.978296756744384766e+00 3.479831516742706299e-01
1.351000000000000000e+03 7.942285919189453125e+01 1.375983476638793945e+00 -1.724169254302978516e-01 1.321077728271484375e+01 3.911508083343505859e+00 -5.102644562721252441e-01
1.352000000000000000e+03 7.935300445556640625e+01 2.813760519027709961e+00 -2.615431249141693115e-01 1.151591396331787109e+01 3.376311302185058594e+00 -1.031352519989013672e+00
1.353000000000000000e+03 7.938272094726562500e+01 4.255326747894287109e+00 1.419560909271240234e-01 9.393321037292480469e+00 2.860583066940307617e+00 -1.201264023780822754e+00
1.354000000000000000e+03 7.947394561767578125e+01 5.629199504852294922e+00 1.888582259416580200e-01 6.843729019165039062e+00 2.109776258468627930e+00 -7.861935496330261230e-01
1.355000000000000000e+03 7.824120330810546875e+01 4.659910202026367188e+00 3.896017372608184814e-01 9.494159698486328125e+00 2.965128421783447266e+00 -2.217828512191772461e+00
1.356000000000000000e+03 7.939676666259765625e+01 7.001788139343261719e+00 2.382552772760391235e-01 5.515382766723632812e+00 1.726091384887695312e+00 -2.188913822174072266e-01
1.357000000000000000e+03 7.599507904052734375e+01 3.891160202026367188e+01 -5.829902738332748413e-02 6.533250808715820312e+00 1.942485451698303223e+00 5.475991964340209961e-02
1.358000000000000000e+03 7.807582855224609375e+01 4.177208709716796875e+01 3.779488429427146912e-02 6.721664428710937500e+00 2.027837753295898438e+00 -1.051665470004081726e-02
1.359000000000000000e+03 7.783741760253906250e+01 3.185416221618652344e+01 -1.395865157246589661e-02 6.500974655151367188e+00 1.946104884147644043e+00 9.501414000988006592e-02
1.360000000000000000e+03 7.652749633789062500e+01 3.724603271484375000e+01 -4.450547695159912109e-02 6.528646945953369141e+00 1.945242524147033691e+00 6.509299576282501221e-02
1.361000000000000000e+03 7.757629394531250000e+01 3.445912170410156250e+01 -1.529675163328647614e-02 6.563994407653808594e+00 1.964609384536743164e+00 8.126346021890640259e-02
1.362000000000000000e+03 7.829479217529296875e+01 -1.420119166374206543e+00 -2.486748844385147095e-01 1.099179840087890625e+01 3.222937107086181641e+00 7.498933076858520508e-01
1.363000000000000000e+03 7.829035949707031250e+01 -1.800256156921386719e+01 -1.403186172246932983e-01 7.996240615844726562e+00 2.356776475906372070e+00 -4.064537584781646729e-01
1.364000000000000000e+03 3.930781173706054688e+01 -1.335075259208679199e+00 7.665032744407653809e-01 -1.244741454720497131e-01 1.926087439060211182e-01 -8.118326067924499512e-01
1.365000000000000000e+03 4.258071517944335938e+01 -5.732426643371582031e-01 -4.045629799365997314e-01 3.423608541488647461e+00 9.057136774063110352e-01 1.028761744499206543e+00
1.366000000000000000e+03 4.257444381713867188e+01 -6.859202861785888672e+00 9.257274270057678223e-01 5.889472961425781250e+00 2.044560194015502930e+00 1.016814947128295898e+00
1.367000000000000000e+03 5.213332748413085938e+01 9.368436813354492188e+00 4.564419090747833252e-01 1.570835208892822266e+01 4.849438190460205078e+00 -1.489348411560058594e-01
1.368000000000000000e+03 4.429340744018554688e+01 3.369322419166564941e-01 -3.880088329315185547e-01 4.881215572357177734e+00 1.347962141036987305e+00 2.604104995727539062e+00
1.369000000000000000e+03 4.576165008544921875e+01 1.903229117393493652e+00 1.864889144897460938e+00 3.130516767501831055e+00 1.498621821403503418e+00 3.195946931838989258e+00
1.370000000000000000e+03 4.139542388916015625e+01 -1.215758562088012695e+00 6.911980509757995605e-01 1.619318723678588867e+00 6.931549906730651855e-01 2.198227792978286743e-01
1.371000000000000000e+03 4.359058380126953125e+01 -7.126538157463073730e-01 -2.594414353370666504e-01 4.482895851135253906e+00 1.267036318778991699e+00 1.870110273361206055e+00
1.372000000000000000e+03 3.722730636596679688e+01 5.138664722442626953e+00 1.066714711487293243e-02 -9.726183116436004639e-02 -2.597840689122676849e-02 1.186142861843109131e-01
1.373000000000000000e+03 4.917293930053710938e+01 6.350080013275146484e+00 1.868474721908569336e+00 7.452606678009033203e+00 2.796324491500854492e+00 2.371534585952758789e+00
1.374000000000000000e+03 4.543976974487304688e+01 3.884818077087402344e+00 2.179804325103759766e+00 2.647713422775268555e+00 1.448255300521850586e+00 2.489205121994018555e+00
1.375000000000000000e+03 4.736369323730468750e+01 4.248622417449951172e+00 2.777926921844482422e+00 3.649460554122924805e+00 1.928216218948364258e+00 2.556760072708129883e+00
1.376000000000000000e+03 5.014153671264648438e+01 5.592211723327636719e+00 1.606585383415222168e+00 9.751630783081054688e+00 3.407464981079101562e+00 1.419356226921081543e+00
1.377000000000000000e+03 5.110805892944335938e+01 8.475513458251953125e+00 -3.095727041363716125e-02 1.529298210144042969e+01 4.578607559204101562e+00 9.013459086418151855e-01
1.378000000000000000e+03 5.692506027221679688e+01 -1.124766540527343750e+01 8.444573879241943359e-01 9.127805709838867188e+00 2.991678953170776367e+00 -8.244650959968566895e-01
1.379000000000000000e+03 5.595938873291015625e+01 -9.154445648193359375e+00 6.321821212768554688e-01 7.783948898315429688e+00 2.524839401245117188e+00 -1.257457375526428223e+00
1.380000000000000000e+03 5.601520919799804688e+01 -1.452322864532470703e+01 8.092836737632751465e-01 1.345692729949951172e+01 4.279863357543945312e+00 -1.179254412651062012e+00
1.381000000000000000e+03 5.835457992553710938e+01 -1.109377765655517578e+01 8.592578172683715820e-01 8.806074142456054688e+00 2.899599552154541016e+00 1.479289531707763672e-01
1.382000000000000000e+03 4.290478897094726562e+01 -1.027845001220703125e+01 -1.329904079437255859e+00 5.933091640472412109e+00 1.380956172943115234e+00 1.589872241020202637e+00
1.383000000000000000e+03 4.494234848022460938e+01 -1.142586612701416016e+01 -1.099434256553649902e+00 4.859835147857666016e+00 1.128120183944702148e+00 7.113340497016906738e-01
1.384000000000000000e+03 4.840573120117187500e+01 -1.940493106842041016e+00 -7.192708253860473633e-01 -4.271110296249389648e-01 -3.439145684242248535e-01 2.932700395584106445e+00
1.385000000000000000e+03 5.250526809692382812e+01 -4.802035331726074219e+00 -3.052564382553100586e+00 4.208522319793701172e+00 3.467873632907867432e-01 -7.164580821990966797e-01
1.386000000000000000e+03 5.102845764160156250e+01 -2.383282899856567383e+00 -3.168051242828369141e+00 3.654393911361694336e+00 1.459027975797653198e-01 -5.895978808403015137e-01
1.387000000000000000e+03 4.381309890747070312e+01 -8.586426734924316406e+00 -6.143111586570739746e-01 7.460250377655029297e+00 2.053781747817993164e+00 6.927437186241149902e-01
1.388000000000000000e+03 5.750279235839843750e+01 -1.526183986663818359e+01 1.118461489677429199e+00 1.109730339050292969e+01 3.664729595184326172e+00 -4.650827124714851379e-02
1.389000000000000000e+03 4.241116333007812500e+01 -8.931290626525878906e+00 -8.759849071502685547e-01 6.059624671936035156e+00 1.555091977119445801e+00 1.716388463973999023e+00
1.390000000000000000e+03 4.576838302612304688e+01 -1.513174438476562500e+01 -4.307166039943695068e-01 2.658856630325317383e+00 6.684420108795166016e-01 9.264862537384033203e-02
1.391000000000000000e+03 5.428536605834960938e+01 -7.005439281463623047e+00 -1.117205061018466949e-02 5.406836986541748047e+00 1.618699550628662109e+00 -1.687770128250122070e+00
1.392000000000000000e+03 5.076457214355468750e+01 -1.903718757629394531e+01 -1.979769349098205566e+00 3.955072462558746338e-01 -4.752786159515380859e-01 1.445031613111495972e-01
1.393000000000000000e+03 4.438927841186523438e+01 -1.297671985626220703e+01 -7.226431369781494141e-01 4.696842670440673828e+00 1.192259907722473145e+00 8.672762513160705566e-01
1.394000000000000000e+03 5.509128952026367188e+01 -8.117464065551757812e+00 4.230533540248870850e-01 6.513258457183837891e+00 2.080893516540527344e+00 -1.861928701400756836e+00
1.395000000000000000e+03 2.004661083221435547e+00 2.639684295654296875e+01 1.015526056289672852e-02 1.173826456069946289e-01 3.826137259602546692e-02 7.086391001939773560e-02
1.396000000000000000e+03 6.405693292617797852e-01 3.191707038879394531e+01 -7.169265765696763992e-03 -5.078402906656265259e-02 -1.738598756492137909e-02 1.996446028351783752e-02
1.397000000000000000e+03 1.766922831535339355e+00 3.454648590087890625e+01 1.007666718214750290e-02 -1.126240491867065430e-01 -3.076421283185482025e-02 4.140940681099891663e-02
1.398000000000000000e+03 3.709562063217163086e+00 3.892350387573242188e+01 1.797360368072986603e-02 -1.668394505977630615e-01 -4.465975612401962280e-02 4.161952435970306396e-02
1.399000000000000000e+03 1.018643021583557129e+00 3.866486358642578125e+01 2.375863958150148392e-03 -1.978742331266403198e-01 -5.864951014518737793e-02 8.600868284702301025e-03
1.400000000000000000e+03 2.592418670654296875e+00 -3.626250839233398438e+01 1.059939246624708176e-02 -4.442272782325744629e-01 -1.300883591175079346e-01 -1.343151554465293884e-02
1.401000000000000000e+03 6.984665989875793457e-01 -3.750644302368164062e+01 8.346329443156719208e-03 -5.231256484985351562e-01 -1.544338017702102661e-01 -1.434045843780040741e-03
1.402000000000000000e+03 1.942328214645385742e+00 2.358418655395507812e+01 9.659525938332080841e-03 1.957982480525970459e-01 6.163733080029487610e-02 5.814488232135772705e-02
1.403000000000000000e+03 2.012987613677978516e+00 3.060959053039550781e+01 -4.635679535567760468e-03 -8.836846798658370972e-03 -4.041757900267839432e-03 6.558411568403244019e-02
1.404000000000000000e+03 7.736600041389465332e-01 -3.043537139892578125e+01 5.394214298576116562e-03 -4.435785710811614990e-01 -1.314553171396255493e-01 -1.531579531729221344e-02
1.405000000000000000e+03 7.129459381103515625e-01 -6.450527667999267578e+00 -4.158507566899061203e-03 -3.690829966217279434e-03 -2.354801399633288383e-03 -2.880617510527372360e-03
1.406000000000000000e+03 2.599824905395507812e+00 -4.042781829833984375e+00 -3.024042816832661629e-03 -2.470120089128613472e-03 -1.648248871788382530e-03 -2.850613556802272797e-03
1.407000000000000000e+03 6.007481217384338379e-01 -1.069420719146728516e+01 5.023584701120853424e-03 -3.498859703540802002e-02 -8.989503607153892517e-03 -6.452098023146390915e-03
1.408000000000000000e+03 1.838032245635986328e+00 -9.386789321899414062e+00 1.500866492278873920e-03 -2.712304517626762390e-02 -7.686653640121221542e-03 -1.542484201490879059e-02
1.409000000000000000e+03 6.086510419845581055e-01 -1.347840881347656250e+01 5.940404720604419708e-03 -7.285469770431518555e-02 -2.007428742945194244e-02 -9.036304429173469543e-03
1.410000000000000000e+03 7.068236470222473145e-01 -1.768278884887695312e+01 -9.271672926843166351e-03 -1.541426330804824829e-01 -4.902429133653640747e-02 -1.660000532865524292e-02
1.411000000000000000e+03 1.958544969558715820e+00 -1.609792900085449219e+01 -1.016107108443975449e-02 -1.134455204010009766e-01 -3.708197548985481262e-02 -3.816492483019828796e-02
1.412000000000000000e+03 7.661809921264648438e-01 -1.910758209228515625e+01 7.885124534368515015e-03 -1.863632798194885254e-01 -5.354344844818115234e-02 -1.665400899946689606e-02
1.413000000000000000e+03 7.796590924263000488e-01 -2.054475784301757812e+01 -8.897509425878524780e-03 -2.174963504076004028e-01 -6.791815906763076782e-02 -1.835785061120986938e-02
1.414000000000000000e+03 7.417541742324829102e-01 -2.198207092285156250e+01 8.494853973388671875e-03 -2.520490288734436035e-01 -7.306625694036483765e-02 -1.860144548118114471e-02
1.415000000000000000e+03 7.081578373908996582e-01 -2.340447807312011719e+01 -7.246409542858600616e-03 -2.869909107685089111e-01 -8.827120065689086914e-02 -1.707076095044612885e-02
1.416000000000000000e+03 2.081632614135742188e+00 -2.617848777770996094e+01 7.413717918097972870e-03 -3.095106184482574463e-01 -9.062907099723815918e-02 -4.674106091260910034e-02
1.417000000000000000e+03 1.921233177185058594e+00 1.656930732727050781e+01 -3.848484531044960022e-02 2.755920886993408203e-01 7.113217562437057495e-02 -1.396504882723093033e-02
1.418000000000000000e+03 6.409717798233032227e-01 1.501374816894531250e+01 -2.682622149586677551e-02 3.260124027729034424e-01 8.975585550069808960e-02 -1.530045177787542343e-02
1.419000000000000000e+03 6.653965115547180176e-01 1.075024223327636719e+01 -5.275982432067394257e-03 8.376607298851013184e-02 2.354702726006507874e-02 -7.349470257759094238e-02
1.420000000000000000e+03 5.976339578628540039e-01 7.906239986419677734e+00 -1.321756932884454727e-02 -3.707463443279266357e-01 -1.151891797780990601e-01 -1.359736770391464233e-01
1.421000000000000000e+03 1.922054767608642578e+00 1.936852645874023438e+01 -3.129138797521591187e-02 2.701874971389770508e-01 7.166883349418640137e-02 2.044580504298210144e-02
1.422000000000000000e+03 1.788323998451232910e+00 5.260327816009521484e+00 1.161963120102882385e-01 -5.238956809043884277e-01 -1.223098039627075195e-01 -4.132316708564758301e-01
1.423000000000000000e+03 1.929316878318786621e+00 2.217482566833496094e+01 -2.509289607405662537e-02 2.273285686969757080e-01 6.067070364952087402e-02 4.468397796154022217e-02
1.424000000000000000e+03 3.222697496414184570e+00 -3.873894882202148438e+01 1.479709893465042114e-02 -4.585570693016052246e-01 -1.331279873847961426e-01 -1.368990354239940643e-02
1.425000000000000000e+03 1.967828273773193359e+00 -3.780466842651367188e+01 1.044570654630661011e-02 -4.699577391147613525e-01 -1.378536075353622437e-01 -4.553548526018857956e-03
1.426000000000000000e+03 2.564030170440673828e+00 -3.175205612182617188e+01 8.762106299400329590e-03 -3.862575888633728027e-01 -1.132486462593078613e-01 -4.425917565822601318e-02
1.427000000000000000e+03 2.094143152236938477e+00 -2.480252647399902344e+01 -3.885758807882666588e-03 -2.808322310447692871e-01 -8.541539311408996582e-02 -4.552645981311798096e-02
1.428000000000000000e+03 6.926496028900146484e-01 -2.481483268737792969e+01 7.676141336560249329e-03 -3.219540715217590332e-01 -9.428337961435317993e-02 -1.700979843735694885e-02
1.429000000000000000e+03 1.876125216484069824e+00 -1.474607753753662109e+01 3.694484010338783264e-03 -9.152040630578994751e-02 -2.634777501225471497e-02 -3.102055937051773071e-02
1.430000000000000000e+03 6.251790523529052734e-01 -1.487391662597656250e+01 -7.709813304245471954e-03 -9.676510840654373169e-02 -3.134247660636901855e-02 -1.173991803079843521e-02
1.431000000000000000e+03 3.326364278793334961e+00 -7.089227199554443359e+00 -1.215559337288141251e-02 -1.305052172392606735e-02 -7.561834529042243958e-03 -1.562649756669998169e-02
1.432000000000000000e+03 6.405715346336364746e-01 -7.902935981750488281e+00 3.881608368828892708e-03 -1.118484977632761002e-02 -2.190972445532679558e-03 -3.996108658611774445e-03
1.433000000000000000e+03 1.926262855529785156e+00 1.376148223876953125e+01 -5.024668946862220764e-02 2.298965454101562500e-01 5.389495939016342163e-02 -6.419289857149124146e-02
1.434000000000000000e+03 3.499598693847656250e+01 8.327173233032226562e+00 -3.399626165628433228e-02 6.210105028003454208e-03 -8.335846476256847382e-03 -2.034107223153114319e-03
1.435000000000000000e+03 3.069639205932617188e+01 3.521294355392456055e+00 -6.121069192886352539e-01 2.824412286281585693e-01 -9.889970719814300537e-02 -1.332577466964721680e-01
1.436000000000000000e+03 3.197463989257812500e+01 4.131487369537353516e+00 -6.533095240592956543e-01 3.554343879222869873e-01 -8.936253935098648071e-02 1.202758178114891052e-01
1.437000000000000000e+03 3.532488632202148438e+01 6.083676338195800781e+00 -1.503085196018218994e-01 3.996892273426055908e-02 -3.310188278555870056e-02 1.239173561334609985e-01
1.438000000000000000e+03 3.136341857910156250e+01 5.368520736694335938e+00 -6.759201288223266602e-01 -1.737483441829681396e-01 -2.549005448818206787e-01 -3.105418086051940918e-01
1.439000000000000000e+03 3.423213958740234375e+01 5.520792484283447266e+00 -2.307930588722229004e-01 1.043635457754135132e-01 -3.792885690927505493e-02 1.261086463928222656e-01
1.440000000000000000e+03 2.123837280273437500e+01 1.384113192558288574e+00 9.599071741104125977e-01 1.954663991928100586e-01 3.466120660305023193e-01 -3.171278536319732666e-01
1.441000000000000000e+03 2.213985633850097656e+01 -1.383316040039062500e+00 7.349421977996826172e-01 6.231431961059570312e-01 4.074256122112274170e-01 -6.685795783996582031e-01
1.442000000000000000e+03 1.525397491455078125e+01 -4.503798484802246094e+00 -5.265723168849945068e-02 9.103448130190372467e-03 -1.306613534688949585e-02 1.843534037470817566e-02
1.443000000000000000e+03 2.390693855285644531e+01 -1.891267299652099609e+00 7.920032143592834473e-01 -8.356166630983352661e-02 2.125324606895446777e-01 -4.134265482425689697e-01
1.444000000000000000e+03 2.341793060302734375e+01 2.441991865634918213e-01 5.477025508880615234e-01 -3.011611402034759521e-01 7.396242022514343262e-02 -2.745608985424041748e-01
1.445000000000000000e+03 1.875009727478027344e+01 -7.485222339630126953e+00 -1.853646934032440186e-01 3.484261687844991684e-03 -5.456412956118583679e-02 6.286531686782836914e-02
1.446000000000000000e+03 5.193552017211914062e+01 -1.772752571105957031e+01 -2.172595500946044922e+00 -9.984925389289855957e-01 -9.513264298439025879e-01 1.581193208694458008e+00
1.447000000000000000e+03 2.631348228454589844e+01 1.338757419586181641e+01 3.771391138434410095e-02 -1.759606786072254181e-02 6.035353057086467743e-03 4.714804887771606445e-02
1.448000000000000000e+03 2.657914924621582031e+01 1.473867130279541016e+01 -3.192572891712188721e-01 4.685060307383537292e-02 -8.172200620174407959e-02 4.559087455272674561e-01
1.449000000000000000e+03 2.130102920532226562e+01 1.785570144653320312e+01 -1.181549906730651855e+00 -1.068610697984695435e-01 -3.865233063697814941e-01 1.319858878850936890e-01
1.450000000000000000e+03 1.533456420898437500e+01 1.494352722167968750e+01 -4.147412776947021484e-01 -7.379850000143051147e-02 -1.465619355440139771e-01 -1.008834391832351685e-01
1.451000000000000000e+03 1.432853507995605469e+01 1.377801418304443359e+01 -3.144069910049438477e-01 -5.221812799572944641e-02 -1.099875345826148987e-01 -1.376898288726806641e-01
1.452000000000000000e+03 4.094443130493164062e+01 -1.388760471343994141e+01 1.722779124975204468e-01 8.843134880065917969e+00 2.704623699188232422e+00 3.978809118270874023e-01
1.453000000000000000e+03 1.865279769897460938e+01 1.678160667419433594e+01 -6.949597597122192383e-01 -6.019762530922889709e-02 -2.265472114086151123e-01 -7.963524013757705688e-02
1.454000000000000000e+03 1.065979480743408203e+01 1.061153125762939453e+01 -2.133834511041641235e-01 4.931183531880378723e-02 -4.922148585319519043e-02 -7.253341376781463623e-02
1.455000000000000000e+03 1.084255695343017578e+01 1.195297431945800781e+01 -1.858281344175338745e-01 2.412704564630985260e-02 -4.851032793521881104e-02 -8.676885068416595459e-02
1.456000000000000000e+03 1.996969223022460938e+01 1.721801185607910156e+01 -8.140419721603393555e-01 -9.765401482582092285e-03 -2.471422106027603149e-01 -1.151665896177291870e-01
1.457000000000000000e+03 2.466355895996093750e+01 1.215931510925292969e+01 1.586151868104934692e-01 4.025149345397949219e-01 1.683390289545059204e-01 1.616937220096588135e-01
1.458000000000000000e+03 2.758247566223144531e+01 1.340163135528564453e+01 -3.477552831172943115e-01 -1.172178164124488831e-01 -1.394919306039810181e-01 3.900399804115295410e-02
1.459000000000000000e+03 2.226921272277832031e+01 7.612178325653076172e+00 -2.379787415266036987e-01 1.209288910031318665e-01 -3.511495515704154968e-02 -8.147276937961578369e-02
1.460000000000000000e+03 2.272056388854980469e+01 1.011228942871093750e+01 -8.334946818649768829e-03 2.299832701683044434e-01 6.649449467658996582e-02 9.565930813550949097e-02
1.461000000000000000e+03 1.881563949584960938e+01 8.721714973449707031e+00 1.726744472980499268e-01 9.600400924682617188e-02 8.060353249311447144e-02 5.647866800427436829e-02
1.462000000000000000e+03 4.581692886352539062e+01 1.577207946777343750e+01 -7.066409587860107422e-01 1.018973067402839661e-01 -1.814230829477310181e-01 -3.796336650848388672e-01
1.463000000000000000e+03 4.385990142822265625e+01 1.451261425018310547e+01 -1.300727128982543945e+00 3.985633552074432373e-01 -2.706491053104400635e-01 -3.780765533447265625e-01
1.464000000000000000e+03 2.802860832214355469e+01 2.499687910079956055e+00 -7.276898622512817383e-01 -5.658357143402099609e-01 -3.880576491355895996e-01 -6.250730156898498535e-01
1.465000000000000000e+03 6.599006652832031250e+01 5.613792419433593750e+00 1.686819046735763550e-01 8.276481628417968750e+00 2.533549070358276367e+00 -7.166835665702819824e-01
1.466000000000000000e+03 3.702252960205078125e+01 1.553717899322509766e+01 -1.482519865036010742e+00 -5.278871394693851471e-03 -4.463396072387695312e-01 5.229979753494262695e-02
1.467000000000000000e+03 3.495989227294921875e+01 1.492209148406982422e+01 -2.419916152954101562e+00 -6.718159317970275879e-01 -9.275196790695190430e-01 3.398876488208770752e-01
1.468000000000000000e+03 5.191709899902343750e+01 -2.047304153442382812e+01 -6.749352812767028809e-01 4.791839122772216797e-01 -5.872541293501853943e-02 2.762990593910217285e-01
1.469000000000000000e+03 5.350348663330078125e+01 -2.180779647827148438e+01 -2.167142629623413086e-01 1.800173282623291016e+00 4.750377237796783447e-01 1.312299132347106934e+00
1.470000000000000000e+03 3.717193984985351562e+01 1.386299133300781250e+01 -1.766635775566101074e+00 9.123080223798751831e-02 -5.026214718818664551e-01 3.829486072063446045e-01
1.471000000000000000e+03 3.709068298339843750e+01 1.461161231994628906e+01 -1.572389364242553711e+00 -6.257248669862747192e-02 -4.904885590076446533e-01 2.022915035486221313e-01
1.472000000000000000e+03 3.854079055786132812e+01 1.457852935791015625e+01 -1.320114254951477051e+00 2.759861350059509277e-01 -3.132384419441223145e-01 1.884582936763763428e-01
1.473000000000000000e+03 2.418059539794921875e+01 2.588726282119750977e-01 4.208303391933441162e-01 -3.519052267074584961e-01 2.067752741277217865e-02 -3.603502810001373291e-01
1.474000000000000000e+03 2.026429939270019531e+01 6.917682170867919922e+00 -1.499288678169250488e-01 3.084590286016464233e-02 -3.572488948702812195e-02 -7.026554644107818604e-02
1.475000000000000000e+03 3.938852071762084961e+00 6.705203533172607422e+00 -1.683722883462905884e-01 5.354777574539184570e-01 1.101316362619400024e-01 -4.166223406791687012e-01
1.476000000000000000e+03 4.839215755462646484e+00 6.406002998352050781e+00 -3.385683894157409668e-01 6.727123260498046875e-01 1.002431735396385193e-01 -4.072672724723815918e-01
1.477000000000000000e+03 5.514121532440185547e+00 6.941669464111328125e+00 -4.251239597797393799e-01 5.388196706771850586e-01 3.410872071981430054e-02 -8.711344003677368164e-02
1.478000000000000000e+03 3.379451990127563477e+00 3.582374334335327148e+00 1.554251313209533691e+00 -4.690979719161987305e-01 3.255459964275360107e-01 -4.421653151512145996e-01
1.479000000000000000e+03 1.132095050811767578e+01 -4.252451896667480469e+00 -4.238797724246978760e-02 1.071207225322723389e-02 -9.502771310508251190e-03 -4.924429580569267273e-03
1.480000000000000000e+03 1.300986957550048828e+01 -3.639915943145751953e+00 -3.506928682327270508e-02 2.630637260153889656e-03 -9.731594473123550415e-03 2.572764176875352859e-03
1.481000000000000000e+03 9.332719802856445312e+00 -2.650481462478637695e+00 -1.703040674328804016e-02 6.133717834018170834e-04 -4.925110377371311188e-03 -4.325301386415958405e-03
1.482000000000000000e+03 1.073376083374023438e+01 -3.442675590515136719e+00 -3.156866133213043213e-02 7.269387133419513702e-03 -7.289781700819730759e-03 -3.645327175036072731e-03
1.483000000000000000e+03 1.960421752929687500e+01 8.157810211181640625e+00 -4.523215070366859436e-02 3.963281214237213135e-02 -1.679800683632493019e-03 2.694400772452354431e-02
1.484000000000000000e+03 2.131063270568847656e+01 7.564354896545410156e+00 -1.451090276241302490e-01 5.270862951874732971e-02 -2.772012166678905487e-02 -7.241523265838623047e-02
1.485000000000000000e+03 2.044374656677246094e+01 7.689568996429443359e+00 -6.115782633423805237e-02 1.124533936381340027e-01 1.538867037743330002e-02 -1.324978005141019821e-02
1.486000000000000000e+03 9.191408157348632812e+00 -3.429464340209960938e+00 -2.557442896068096161e-02 4.212323576211929321e-03 -6.408631801605224609e-03 -6.681315135210752487e-03
1.487000000000000000e+03 6.554834842681884766e+00 7.974779605865478516e+00 -3.426552414894104004e-01 2.995508909225463867e-01 -1.293130125850439072e-02 -1.237006508745253086e-03
1.488000000000000000e+03 6.575011253356933594e+00 6.895574092864990234e+00 -1.394578218460083008e-01 4.830792546272277832e-01 1.030864268541336060e-01 -5.760550126433372498e-02
1.489000000000000000e+03 4.163183212280273438e+01 1.506162929534912109e+01 -1.124851226806640625e+00 5.410693883895874023e-01 -1.751345545053482056e-01 -3.164170542731881142e-03
1.490000000000000000e+03 4.281754684448242188e+01 1.411460781097412109e+01 -1.226703882217407227e+00 3.755392134189605713e-01 -2.553494274616241455e-01 -1.783609092235565186e-01
1.491000000000000000e+03 3.979182815551757812e+01 1.555113029479980469e+01 -1.117171287536621094e+00 4.690807461738586426e-01 -1.944271624088287354e-01 1.567457616329193115e-02
1.492000000000000000e+03 3.925745391845703125e+01 1.377216625213623047e+01 -1.170946598052978516e+00 2.790617644786834717e-01 -2.675654590129852295e-01 2.438677996397018433e-01
1.493000000000000000e+03 3.999766540527343750e+01 1.466368389129638672e+01 -1.155988693237304688e+00 4.164894819259643555e-01 -2.218497842550277710e-01 1.086844503879547119e-01
1.494000000000000000e+03 3.549148559570312500e+00 2.737990140914916992e+00 1.814353585243225098e+00 -9.162039160728454590e-01 2.694449126720428467e-01 1.642932295799255371e-01
1.495000000000000000e+03 2.161559581756591797e+00 4.121538639068603516e+00 6.532676815986633301e-01 -6.230736970901489258e-01 9.058201685547828674e-03 -1.615805774927139282e-01
1.496000000000000000e+03 1.322646141052246094e+01 -2.834611177444458008e+00 -2.830331213772296906e-02 6.672260817140340805e-03 -6.489315535873174667e-03 4.671739414334297180e-03
1.497000000000000000e+03 9.304823875427246094e+00 8.815164566040039062e+00 -2.134904563426971436e-01 9.075734019279479980e-02 -3.681993484497070312e-02 -8.517035841941833496e-02
1.498000000000000000e+03 8.701739311218261719e+00 8.196730613708496094e+00 2.224599197506904602e-02 1.305080801248550415e-01 4.582622274756431580e-02 -4.562054947018623352e-02
1.499000000000000000e+03 7.597649097442626953e+00 7.728672504425048828e+00 -8.973981253802776337e-03 2.088569402694702148e-01 5.996488779783248901e-02 -2.230280824005603790e-02
1.500000000000000000e+03 3.375918149948120117e+00 -3.801097393035888672e+00 -7.424523122608661652e-03 -4.132883623242378235e-03 -3.467221977189183235e-03 -4.701938945800065994e-03
1.501000000000000000e+03 4.197257041931152344e+00 -3.570435285568237305e+00 -5.518079735338687897e-03 -2.478101523593068123e-03 -2.398854587227106094e-03 -3.853824222460389137e-03
1.502000000000000000e+03 7.832527160644531250e+00 -4.829645633697509766e+00 -2.659762836992740631e-02 -1.103259972296655178e-03 -8.310266770422458649e-03 -1.686393842101097107e-02
1.503000000000000000e+03 6.078743934631347656e+00 -2.648873567581176758e+00 -8.144895546138286591e-03 -1.212941948324441910e-03 -2.807351294904947281e-03 -4.854864906519651413e-03
1.504000000000000000e+03 7.621406555175781250e+00 -3.421020746231079102e+00 -1.946111768484115601e-02 1.161766005679965019e-03 -5.489805713295936584e-03 -8.511418476700782776e-03
1.505000000000000000e+03 6.049797534942626953e+00 -3.391363143920898438e+00 -1.379683613777160645e-02 -1.453734468668699265e-03 -4.575171042233705521e-03 -6.990468129515647888e-03
1.506000000000000000e+03 5.532837867736816406e+00 -4.745645999908447266e+00 -1.615612022578716278e-02 -1.891206717118620872e-03 -5.414197687059640884e-03 -9.674764238297939301e-03
1.507000000000000000e+03 9.969738960266113281e+00 -3.433125019073486328e+00 -2.420571073889732361e-02 2.182630123570561409e-03 -6.606924347579479218e-03 -5.792891606688499451e-03
1.508000000000000000e+03 1.224890708923339844e+01 -3.526383399963378906e+00 -3.607131168246269226e-02 9.196154773235321045e-03 -8.062547072768211365e-03 8.162811864167451859e-04
1.509000000000000000e+03 1.374902534484863281e+01 -3.848216533660888672e+00 -4.326988384127616882e-02 1.123278588056564331e-02 -9.611128829419612885e-03 7.229805458337068558e-03
1.510000000000000000e+03 2.427215194702148438e+01 9.448261260986328125e+00 -2.574854791164398193e-01 4.441412910819053650e-02 -6.392140686511993408e-02 -1.544380784034729004e-01
1.511000000000000000e+03 7.123970794677734375e+01 1.170551204681396484e+01 1.685053229331970215e+00 2.504686594009399414e+00 1.256921887397766113e+00 6.458750963211059570e-01
1.512000000000000000e+03 6.959075927734375000e+01 1.073318862915039062e+01 1.357563734054565430e+00 5.905320167541503906e+00 2.178865194320678711e+00 1.008392930030822754e+00
1.513000000000000000e+03 3.835031127929687500e+01 8.413738250732421875e+00 -2.516301721334457397e-02 -5.409389734268188477e-03 -9.171721525490283966e-03 5.634486209601163864e-03
1.514000000000000000e+03 3.075732946395874023e+00 4.498018264770507812e+00 5.547882318496704102e-01 -8.030290901660919189e-02 1.423455923795700073e-01 -7.534521818161010742e-01
1.515000000000000000e+03 7.733990478515625000e+01 -7.799745351076126099e-02 -1.312858819961547852e+00 9.666326522827148438e+00 2.506040334701538086e+00 3.104109466075897217e-01
1.516000000000000000e+03 7.621955108642578125e+01 9.974490404129028320e-01 -3.176640033721923828e+00 7.802796840667724609e+00 1.387847065925598145e+00 -3.711461126804351807e-01
1.517000000000000000e+03 5.883753585815429688e+01 1.711075401306152344e+01 1.682080268859863281e+00 3.349107503890991211e+00 1.509356260299682617e+00 1.694593787193298340e+00
1.518000000000000000e+03 2.482600021362304688e+01 1.087235164642333984e+01 -1.608895361423492432e-01 1.343346685171127319e-01 -7.966459728777408600e-03 -9.398732334375381470e-02
1.519000000000000000e+03 6.767002868652343750e+01 -5.078646540641784668e-01 -2.839856147766113281e+00 5.035420894622802734e+00 6.586695313453674316e-01 1.645569503307342529e-01
1.520000000000000000e+03 7.025495910644531250e+01 -8.527902364730834961e-01 -2.734078645706176758e+00 5.521978855133056641e+00 8.363700509071350098e-01 -3.572589874267578125e+00
1.521000000000000000e+03 3.350412368774414062e+01 1.946986579895019531e+01 -5.548140406608581543e-01 -1.352547109127044678e-01 -2.070206254720687866e-01 2.692100107669830322e-01
1.522000000000000000e+03 3.231741714477539062e+01 1.765388870239257812e+01 -8.654823899269104004e-01 -2.326919585466384888e-01 -3.294523060321807861e-01 4.014314413070678711e-01
1.523000000000000000e+03 6.210780334472656250e+01 1.198763132095336914e+00 -3.124484539031982422e+00 3.807579040527343750e+00 2.049283534288406372e-01 1.538628816604614258e+00
1.524000000000000000e+03 6.282421875000000000e+01 -1.395896792411804199e+00 -3.867876052856445312e+00 7.137776851654052734e+00 9.809702038764953613e-01 2.084921121597290039e+00
1.525000000000000000e+03 4.792177963256835938e+01 -2.086165046691894531e+01 -4.878242313861846924e-01 1.841064929962158203e+00 4.059722125530242920e-01 -5.420261025428771973e-01
1.526000000000000000e+03 4.943573379516601562e+01 -2.008957862854003906e+01 -9.046641588211059570e-01 9.994396567344665527e-01 2.843263745307922363e-02 -5.381667017936706543e-01
1.527000000000000000e+03 4.697330856323242188e+01 1.389477372169494629e+00 1.763479113578796387e+00 2.681842803955078125e+00 1.333596587181091309e+00 3.528172969818115234e+00
1.528000000000000000e+03 7.456654357910156250e+01 -1.354221439361572266e+01 1.280537486076354980e+00 9.718184471130371094e+00 3.299616575241088867e+00 1.743758767843246460e-01
1.529000000000000000e+03 7.396857452392578125e+01 -1.002458286285400391e+01 1.511978983879089355e+00 9.966605186462402344e+00 3.443575382232666016e+00 1.458364874124526978e-01
1.530000000000000000e+03 5.309429931640625000e+01 8.554843902587890625e+00 -3.936897516250610352e-01 1.342151260375976562e+01 3.908346891403198242e+00 -1.597051769495010376e-01
1.531000000000000000e+03 5.497842025756835938e+01 9.092144012451171875e+00 -5.515514314174652100e-02 7.856315135955810547e+00 2.340348005294799805e+00 9.964972734451293945e-01
1.532000000000000000e+03 6.609755706787109375e+01 3.744000673294067383e+00 9.966911077499389648e-01 6.854629993438720703e+00 2.355396509170532227e+00 6.412829756736755371e-01
1.533000000000000000e+03 6.839205932617187500e+01 2.273600101470947266e+00 1.080497980117797852e+00 9.637624740600585938e+00 3.215436935424804688e+00 3.356505930423736572e-01
1.534000000000000000e+03 4.772506332397460938e+01 -1.764438056945800781e+01 -9.256827831268310547e-01 1.343758106231689453e+00 1.254225969314575195e-01 -3.023514151573181152e-01
1.535000000000000000e+03 3.061902618408203125e+01 -9.938994407653808594e+00 -3.077915906906127930e-01 2.631759345531463623e-01 -1.338469050824642181e-02 1.265173703432083130e-01
1.536000000000000000e+03 2.998147583007812500e+01 -9.102024078369140625e+00 -1.787933856248855591e-01 2.701222300529479980e-01 2.739865519106388092e-02 9.583640843629837036e-02
1.537000000000000000e+03 2.760455131530761719e+01 4.138787090778350830e-01 7.967962026596069336e-01 -3.745186030864715576e-01 1.266832649707794189e-01 -1.735046952962875366e-01
1.538000000000000000e+03 3.716741561889648438e+01 1.451827645301818848e+00 2.132975161075592041e-01 -5.061427950859069824e-01 -8.785357326269149780e-02 -1.343710273504257202e-01
1.539000000000000000e+03 4.576054382324218750e+01 -1.399573802947998047e+01 -5.762991309165954590e-01 2.734883069992065430e+00 6.475751996040344238e-01 1.441060900688171387e-01
1.540000000000000000e+03 4.206194305419921875e+01 -1.377770805358886719e+01 3.855393826961517334e-01 6.068277359008789062e+00 1.936144948005676270e+00 1.155444622039794922e+00
1.541000000000000000e+03 7.205262756347656250e+01 -5.070050716400146484e+00 -9.698641300201416016e-01 5.944520473480224609e+00 1.492396950721740723e+00 -9.649333953857421875e-01
1.542000000000000000e+03 4.112846755981445312e+01 -9.451769828796386719e+00 -1.218877196311950684e+00 3.640155315399169922e+00 7.263834476470947266e-01 1.443028569221496582e+00
1.543000000000000000e+03 4.269746398925781250e+01 -1.144875049591064453e+01 -1.077777028083801270e+00 5.648946285247802734e+00 1.371350765228271484e+00 1.626049637794494629e+00
1.544000000000000000e+03 4.833393478393554688e+01 3.550289869308471680e+00 2.905267953872680664e+00 4.516880512237548828e+00 2.226644515991210938e+00 2.480122327804565430e+00
1.545000000000000000e+03 2.487738418579101562e+01 -1.159060573577880859e+01 -3.599209785461425781e-01 4.025511443614959717e-01 1.278905104845762253e-02 2.176213860511779785e-01
1.546000000000000000e+03 6.188325119018554688e+01 -3.065109014511108398e+00 7.993215322494506836e-01 7.967581748962402344e+00 2.630070924758911133e+00 2.539935111999511719e-01
1.547000000000000000e+03 3.335751342773437500e+01 -1.447066688537597656e+01 -7.004102468490600586e-01 1.857592016458511353e-01 -1.543953269720077515e-01 2.238405048847198486e-01
1.548000000000000000e+03 7.456488037109375000e+01 1.396392154693603516e+01 1.158280491828918457e+00 5.051588058471679688e+00 1.862960577011108398e+00 -9.529718756675720215e-01
1.549000000000000000e+03 4.209184265136718750e+01 -2.289046764373779297e+00 5.024642348289489746e-01 4.054536342620849609e+00 1.367100238800048828e+00 -3.952012956142425537e-02
1.550000000000000000e+03 1.594860076904296875e+01 1.654566955566406250e+01 -4.360590279102325439e-01 -3.545165807008743286e-02 -1.414532065391540527e-01 -5.627823993563652039e-02
1.551000000000000000e+03 6.865080261230468750e+01 -1.730403137207031250e+01 1.307672064285725355e-04 1.248601913452148438e+00 3.746198117733001709e-01 -2.094744443893432617e-01
1.552000000000000000e+03 6.730064392089843750e+01 -1.589742660522460938e+00 -3.077050924301147461e+00 3.462945461273193359e+00 1.157683730125427246e-01 -2.907190322875976562e-01
1.553000000000000000e+03 6.623714447021484375e+01 2.692852020263671875e-01 -1.343544125556945801e+00 3.164288997650146484e+00 5.462234616279602051e-01 2.104791641235351562e+00
1.554000000000000000e+03 6.519403076171875000e+01 4.625532150268554688e+00 7.479660958051681519e-02 6.504791736602783203e+00 1.973876476287841797e+00 7.972930669784545898e-01
1.555000000000000000e+03 7.314639282226562500e+01 -1.357843780517578125e+01 1.741393566131591797e+00 1.177605438232421875e+01 4.055234432220458984e+00 1.085197448730468750e+00
1.556000000000000000e+03 3.591191101074218750e+01 5.062102794647216797e+00 -1.150197833776473999e-01 -6.889844662509858608e-04 -3.471263125538825989e-02 1.756526827812194824e-01
1.557000000000000000e+03 6.467842864990234375e+01 -1.539122104644775391e+01 -4.382554292678833008e-01 4.421695232391357422e+00 1.195032000541687012e+00 -1.402871608734130859e+00
1.558000000000000000e+03 5.717780303955078125e+01 1.546029949188232422e+01 1.705316543579101562e+00 4.085910797119140625e+00 1.737368226051330566e+00 2.546711683273315430e+00
1.559000000000000000e+03 7.247682189941406250e+01 -8.008875846862792969e+00 7.816210389137268066e-01 9.089912414550781250e+00 2.961460113525390625e+00 -6.270286440849304199e-01
1.560000000000000000e+03 5.789586639404296875e+01 -1.946288108825683594e+01 -1.258230805397033691e+00 7.903892517089843750e+00 1.993698596954345703e+00 -1.024321436882019043e+00
1.561000000000000000e+03 3.481593704223632812e+01 1.616131663322448730e+00 6.117450594902038574e-01 -8.608786761760711670e-02 1.576971709728240967e-01 2.813074886798858643e-01
1.562000000000000000e+03 6.741455841064453125e+01 7.328402042388916016e+00 -1.398946523666381836e+00 1.119255447387695312e+01 2.938082456588745117e+00 -1.599348068237304688e+00
1.563000000000000000e+03 2.761460876464843750e+01 1.735467529296875000e+01 -1.012932300567626953e+00 2.079128324985504150e-01 -2.415058463811874390e-01 4.555723667144775391e-01
1.564000000000000000e+03 2.575903129577636719e+01 1.638337707519531250e+01 -1.003373742103576660e+00 2.621094882488250732e-01 -2.223792672157287598e-01 5.510383248329162598e-01
1.565000000000000000e+03 4.654954910278320312e+01 1.917784810066223145e-01 1.205925464630126953e+00 3.160844564437866211e+00 1.310031056404113770e+00 4.135623931884765625e+00
1.566000000000000000e+03 4.540088272094726562e+01 6.222416162490844727e-01 3.566850125789642334e-01 3.219600439071655273e+00 1.072885632514953613e+00 3.714119672775268555e+00
1.567000000000000000e+03 2.704576110839843750e+01 -7.048691749572753906e+00 -9.809380397200584412e-03 5.423148870468139648e-01 1.597516387701034546e-01 2.228222638368606567e-01
1.568000000000000000e+03 2.141766738891601562e+01 -1.049288845062255859e+01 -2.798982858657836914e-01 2.275985665619373322e-02 -7.714153081178665161e-02 -2.422163030132651329e-03
1.569000000000000000e+03 6.861068725585937500e+01 1.107957077026367188e+01 2.178020000457763672e+00 8.588618278503417969e+00 3.229991436004638672e+00 4.117741286754608154e-01
1.570000000000000000e+03 6.098076248168945312e+01 5.594313740730285645e-01 -3.146494865417480469e+00 3.550591707229614258e+00 1.212290823459625244e-01 1.298271059989929199e+00
1.571000000000000000e+03 1.276636028289794922e+01 1.545727729797363281e+01 -3.037852346897125244e-01 3.068956546485424042e-02 -8.192870020866394043e-02 -2.816955558955669403e-02
1.572000000000000000e+03 1.116474819183349609e+01 1.473260498046875000e+01 -2.516230344772338867e-01 5.681706964969635010e-02 -5.844179168343544006e-02 -5.463992059230804443e-02
1.573000000000000000e+03 7.616985321044921875e+01 -3.175904273986816406e+01 4.089421778917312622e-02 7.386014938354492188e+00 2.228072881698608398e+00 1.011849567294120789e-01
1.574000000000000000e+03 7.636637115478515625e+01 -3.323477554321289062e+01 1.484552118927240372e-02 7.412629127502441406e+00 2.228242397308349609e+00 4.914753511548042297e-02
1.575000000000000000e+03 7.664467620849609375e+01 -2.335201263427734375e+01 -3.260892257094383240e-02 7.755847930908203125e+00 2.316971778869628906e+00 1.525010168552398682e-01
1.576000000000000000e+03 7.669929504394531250e+01 -2.476736831665039062e+01 -9.218572080135345459e-02 7.661767959594726562e+00 2.270874738693237305e+00 1.697432845830917358e-01
1.577000000000000000e+03 7.674533081054687500e+01 -2.612505722045898438e+01 7.105013728141784668e-02 7.593926906585693359e+00 2.299493074417114258e+00 1.727068722248077393e-01
1.578000000000000000e+03 7.662670135498046875e+01 -2.744507980346679688e+01 -1.734991744160652161e-02 7.537210941314697266e+00 2.255958318710327148e+00 1.275558322668075562e-01
1.579000000000000000e+03 7.614334869384765625e+01 2.369321632385253906e+01 1.692792400717735291e-02 6.198127269744873047e+00 1.864516615867614746e+00 2.031157612800598145e-01
1.580000000000000000e+03 7.696710968017578125e+01 1.713004875183105469e+01 1.886068582534790039e-01 6.026467800140380859e+00 1.864522457122802734e+00 -2.766351997852325439e-01
1.581000000000000000e+03 7.672965240478515625e+01 -2.192972755432128906e+01 -2.495091855525970459e-01 7.872447013854980469e+00 2.286881208419799805e+00 5.617666989564895630e-02
1.582000000000000000e+03 7.596260833740234375e+01 2.518300437927246094e+01 -2.366419881582260132e-03 6.227399349212646484e+00 1.867509961128234863e+00 2.321432530879974365e-01
1.583000000000000000e+03 7.672356414794921875e+01 1.432414340972900391e+01 1.118050888180732727e-02 6.401768207550048828e+00 1.923884630203247070e+00 -7.841119766235351562e-01
1.584000000000000000e+03 7.643651580810546875e+01 3.185931777954101562e+01 -2.683641575276851654e-02 6.434795856475830078e+00 1.922387838363647461e+00 1.371164172887802124e-01
1.585000000000000000e+03 7.830751800537109375e+01 9.915802001953125000e+00 -1.692070513963699341e-01 7.587887287139892578e+00 2.225604057312011719e+00 2.217437773942947388e-01
1.586000000000000000e+03 7.728761291503906250e+01 -1.660083580017089844e+01 -4.266308248043060303e-02 8.160874366760253906e+00 2.435463428497314453e+00 -5.698255300521850586e-01
1.587000000000000000e+03 7.760546875000000000e+01 7.705103397369384766e+00 1.794717788696289062e+00 9.083358764648437500e+00 3.263422966003417969e+00 -4.356269836425781250e-01
1.588000000000000000e+03 7.697995758056640625e+01 -1.431379318237304688e+01 2.918269038200378418e-01 8.147218704223632812e+00 2.531713724136352539e+00 -4.040086865425109863e-01
1.589000000000000000e+03 7.607899475097656250e+01 -1.495425891876220703e+01 4.346037209033966064e-01 8.680785179138183594e+00 2.734616518020629883e+00 -3.935294747352600098e-01
1.590000000000000000e+03 7.722732543945312500e+01 1.163530707359313965e+00 -2.074654340744018555e+00 9.882116317749023438e+00 2.342238664627075195e+00 -6.983585953712463379e-01
1.591000000000000000e+03 7.622151184082031250e+01 -1.332622432708740234e+01 8.156744241714477539e-01 8.595540046691894531e+00 2.823364257812500000e+00 -1.763100363314151764e-02
1.592000000000000000e+03 7.803685760498046875e+01 -1.237872314453125000e+01 2.716273665428161621e-01 7.675547122955322266e+00 2.384152412414550781e+00 1.304704993963241577e-01
1.593000000000000000e+03 7.753896331787109375e+01 -6.548165798187255859e+00 2.188278362154960632e-02 8.808113098144531250e+00 2.648998737335205078e+00 1.424546480178833008e+00
1.594000000000000000e+03 7.812643432617187500e+01 1.967263221740722656e+01 1.083783507347106934e-01 5.939712047576904297e+00 1.814427137374877930e+00 1.232876162976026535e-02
1.595000000000000000e+03 7.694431304931640625e+01 8.631347656250000000e+00 7.800103425979614258e-01 9.493508338928222656e+00 3.082055568695068359e+00 3.505304753780364990e-01
1.596000000000000000e+03 7.809613800048828125e+01 -2.865158796310424805e+00 -2.225077599287033081e-01 1.020933723449707031e+01 2.996048927307128906e+00 1.174385309219360352e+00
1.597000000000000000e+03 7.693918609619140625e+01 -2.567450761795043945e+00 -2.197777032852172852e-01 8.616157531738281250e+00 2.518913984298706055e+00 1.182731866836547852e+00
1.598000000000000000e+03 7.711789703369140625e+01 -7.888350009918212891e+00 3.172479867935180664e-01 8.547413825988769531e+00 2.659398555755615234e+00 1.339528799057006836e+00
1.599000000000000000e+03 7.830754089355468750e+01 -9.671921730041503906e+00 1.792670190334320068e-01 7.937723636627197266e+00 2.435097217559814453e+00 8.064058423042297363e-01
1.600000000000000000e+03 7.554320526123046875e+01 -8.317340850830078125e+00 6.969793438911437988e-01 8.632404327392578125e+00 2.798815011978149414e+00 1.180418491363525391e+00
1.601000000000000000e+03 7.710304260253906250e+01 -1.785114669799804688e+01 -1.349748969078063965e-01 8.213685989379882812e+00 2.423613309860229492e+00 -5.201228260993957520e-01
1.602000000000000000e+03 7.823281860351562500e+01 -1.936939430236816406e+01 -5.961304903030395508e-02 8.132772445678710938e+00 2.421947717666625977e+00 -2.767796814441680908e-01
1.603000000000000000e+03 7.699301910400390625e+01 1.843738937377929688e+01 2.628428936004638672e-01 5.935643672943115234e+00 1.859546065330505371e+00 -8.841864019632339478e-02
1.604000000000000000e+03 7.688669586181640625e+01 4.389980792999267578e+00 4.729377329349517822e-01 1.161250305175781250e+01 3.625632286071777344e+00 -2.204961776733398438e+00
1.605000000000000000e+03 7.607017517089843750e+01 -1.993963122367858887e+00 -6.946141123771667480e-01 7.083211898803710938e+00 1.916579246520996094e+00 1.209688782691955566e+00
1.606000000000000000e+03 7.649658203125000000e+01 -9.102083206176757812e+00 4.755142331123352051e-01 8.519521713256835938e+00 2.698510885238647461e+00 1.164843678474426270e+00
1.607000000000000000e+03 7.736005401611328125e+01 -1.018706417083740234e+01 5.027284026145935059e-01 8.252319335937500000e+00 2.626514196395874023e+00 7.996651530265808105e-01
1.608000000000000000e+03 7.602097320556640625e+01 -1.915804481506347656e+01 -4.171625077724456787e-01 8.277571678161621094e+00 2.358122587203979492e+00 -2.552692592144012451e-01
1.609000000000000000e+03 5.106006622314453125e+01 6.491710186004638672e+00 6.131513714790344238e-01 1.276773929595947266e+01 4.014266967773437500e+00 -1.862836182117462158e-01
1.610000000000000000e+03 5.269940567016601562e+01 1.277057552337646484e+01 3.248466730117797852e+00 1.376540279388427734e+01 5.104160785675048828e+00 1.933580040931701660e+00
1.611000000000000000e+03 3.727623367309570312e+01 -3.137140035629272461e+00 7.495316267013549805e-01 -1.280297636985778809e+00 -1.592297852039337158e-01 -1.889193207025527954e-01
1.612000000000000000e+03 3.673094940185546875e+01 -1.685878336429595947e-01 8.237281441688537598e-01 -7.325555682182312012e-01 2.735176123678684235e-02 -1.802172660827636719e-01
1.613000000000000000e+03 5.934295272827148438e+01 7.867867350578308105e-01 -4.040995597839355469e+00 9.719259142875671387e-01 -9.207209348678588867e-01 -5.203700065612792969e-01
1.614000000000000000e+03 6.171781158447265625e+01 -1.775416135787963867e+00 -7.286693453788757324e-01 7.656700134277343750e+00 2.078409194946289062e+00 4.502242505550384521e-01
1.615000000000000000e+03 4.298846435546875000e+01 -1.600010037422180176e+00 2.493752390146255493e-01 4.798143386840820312e+00 1.514255523681640625e+00 1.402885317802429199e+00
1.616000000000000000e+03 3.411935806274414062e+00 3.073245048522949219e+01 1.382997818291187286e-02 -1.776014640927314758e-02 -1.179050537757575512e-03 1.051139831542968750e-01
1.617000000000000000e+03 3.319234609603881836e+00 3.212483596801757812e+01 6.775415502488613129e-03 -5.014231801033020020e-02 -1.301007159054279327e-02 9.371694922447204590e-02
1.618000000000000000e+03 3.274613380432128906e+00 2.366238403320312500e+01 -2.939053624868392944e-02 1.510100960731506348e-01 3.648586571216583252e-02 8.418592065572738647e-02
1.619000000000000000e+03 3.321086406707763672e+00 2.506739044189453125e+01 1.789361820556223392e-03 1.199024841189384460e-01 3.650755435228347778e-02 1.003453209996223450e-01
1.620000000000000000e+03 3.440360546112060547e+00 2.931152153015136719e+01 -2.519689500331878662e-03 1.400405354797840118e-02 3.445309353992342949e-03 1.061019673943519592e-01
1.621000000000000000e+03 3.381032466888427734e+00 2.647790527343750000e+01 -1.680140197277069092e-02 8.465846627950668335e-02 2.035711891949176788e-02 1.024218723177909851e-01
1.622000000000000000e+03 3.429226160049438477e+00 2.789412689208984375e+01 8.037248626351356506e-03 5.153834074735641479e-02 1.787267625331878662e-02 1.123583167791366577e-01
1.623000000000000000e+03 4.078888416290283203e+00 -3.127578926086425781e+01 7.115795277059078217e-03 -3.109456598758697510e-01 -9.114896506071090698e-02 -6.619867682456970215e-02
1.624000000000000000e+03 3.248525857925415039e+00 2.226277351379394531e+01 -4.202051088213920593e-03 1.788610219955444336e-01 5.239769443869590759e-02 7.440435141324996948e-02
1.625000000000000000e+03 2.580971002578735352e+00 -5.513952732086181641e+00 -5.700853653252124786e-03 -5.419478751718997955e-03 -3.336099907755851746e-03 -4.744137171655893326e-03
1.626000000000000000e+03 3.045076847076416016e+00 -1.075813484191894531e+01 -2.790814964100718498e-03 -3.951626643538475037e-02 -1.269212458282709122e-02 -3.090565465390682220e-02
1.627000000000000000e+03 3.077967405319213867e+00 -9.507122993469238281e+00 -1.248271856456995010e-02 -2.862241305410861969e-02 -1.233153976500034332e-02 -2.611193619668483734e-02
1.628000000000000000e+03 3.060343265533447266e+00 -1.330667591094970703e+01 -1.921574817970395088e-03 -6.633599847555160522e-02 -2.047727257013320923e-02 -4.340134561061859131e-02
1.629000000000000000e+03 3.032203674316406250e+00 -1.202242469787597656e+01 -1.310774870216846466e-02 -5.088743567466735840e-02 -1.919855549931526184e-02 -3.746239095926284790e-02
1.630000000000000000e+03 3.436649322509765625e+00 -1.714795303344726562e+01 -1.263180095702409744e-02 -1.178315505385398865e-01 -3.913900628685951233e-02 -6.532701104879379272e-02
1.631000000000000000e+03 3.250850677490234375e+00 -1.586643791198730469e+01 -6.340492982417345047e-04 -9.889709204435348511e-02 -2.985934168100357056e-02 -5.406812578439712524e-02
1.632000000000000000e+03 3.973654985427856445e+00 -2.073767280578613281e+01 -7.092262152582406998e-03 -1.583479791879653931e-01 -4.963207244873046875e-02 -7.676295936107635498e-02
1.633000000000000000e+03 3.797946929931640625e+00 -1.845458602905273438e+01 -4.435652808751910925e-04 -1.299141347408294678e-01 -3.910730779170989990e-02 -6.859243661165237427e-02
1.634000000000000000e+03 3.196757078170776367e+00 1.529151058197021484e+01 -7.091794162988662720e-02 2.182996124029159546e-01 4.421450197696685791e-02 -4.896146059036254883e-02
1.635000000000000000e+03 3.208178997039794922e+00 1.668321609497070312e+01 -1.754396222531795502e-02 2.236917167901992798e-01 6.184432283043861389e-02 -1.645545288920402527e-02
1.636000000000000000e+03 3.221088171005249023e+00 1.807754707336425781e+01 -5.363198742270469666e-02 2.227739244699478149e-01 5.074258148670196533e-02 9.987146593630313873e-03
1.637000000000000000e+03 4.543968200683593750e+00 5.566562175750732422e+00 -6.499186903238296509e-02 8.572640419006347656e-01 2.376816570758819580e-01 -4.911687076091766357e-01
1.638000000000000000e+03 2.894773483276367188e+00 7.913195610046386719e+00 -1.424451023340225220e-01 1.783995330333709717e-01 1.078632753342390060e-02 -4.033216536045074463e-01
1.639000000000000000e+03 3.717038393020629883e+00 -2.214707946777343750e+01 4.014970734715461731e-03 -1.926011443138122559e-01 -5.657585337758064270e-02 -8.074249327182769775e-02
1.640000000000000000e+03 5.276870250701904297e+00 -3.506284713745117188e+01 2.295246534049510956e-02 -3.094390034675598145e-01 -8.594596385955810547e-02 -4.684320837259292603e-02
1.641000000000000000e+03 3.237404346466064453e+00 -4.637947559356689453e+00 -4.265408497303724289e-03 -6.759186275303363800e-03 -3.307378385215997696e-03 -7.759159430861473083e-03
1.642000000000000000e+03 3.549194097518920898e+00 -2.483058166503906250e+01 6.481722928583621979e-03 -2.393009662628173828e-01 -6.984577327966690063e-02 -7.685593515634536743e-02
1.643000000000000000e+03 3.135016202926635742e+00 -1.459169006347656250e+01 -1.231282763183116913e-02 -8.359610289335250854e-02 -2.877267822623252869e-02 -5.089575797319412231e-02
1.644000000000000000e+03 3.148441553115844727e+00 -8.271684646606445312e+00 -4.082432016730308533e-03 -2.084807865321636200e-02 -7.479153107851743698e-03 -2.009215019643306732e-02
1.645000000000000000e+03 3.785289049148559570e+00 5.649358749389648438e+00 -1.071125194430351257e-01 4.634370505809783936e-01 1.068973615765571594e-01 -6.400631070137023926e-01
1.646000000000000000e+03 3.295588970184326172e+00 1.110415554046630859e+01 -8.025473356246948242e-02 1.716361045837402344e-01 2.741441316902637482e-02 -1.858841478824615479e-01
1.647000000000000000e+03 3.200645208358764648e+00 1.250804328918457031e+01 -1.047137752175331116e-01 1.835372745990753174e-01 2.364704944193363190e-02 -1.347160935401916504e-01
1.648000000000000000e+03 3.038976669311523438e+00 9.131820678710937500e+00 -1.793124675750732422e-01 1.316082179546356201e-01 -1.431127544492483139e-02 -2.776250839233398438e-01
1.649000000000000000e+03 3.231886148452758789e+00 1.947015190124511719e+01 -9.981868788599967957e-03 2.154137790203094482e-01 6.162957102060317993e-02 3.646121919155120850e-02
1.650000000000000000e+03 3.238318681716918945e+00 2.086529922485351562e+01 -4.043205454945564270e-02 1.992285102605819702e-01 4.763893410563468933e-02 5.337146669626235962e-02
1.651000000000000000e+03 2.859850406646728516e+00 5.548639297485351562e+00 1.520172059535980225e-01 1.328057497739791870e-01 8.544688671827316284e-02 -5.584228634834289551e-01
1.652000000000000000e+03 3.241260147094726562e+01 2.042881011962890625e+00 1.012015342712402344e-01 7.204205989837646484e-01 2.464866340160369873e-01 6.782556176185607910e-01
1.653000000000000000e+03 2.299218177795410156e+01 -2.465973854064941406e+00 4.345859885215759277e-01 3.118956089019775391e-01 2.239444851875305176e-01 -4.093306958675384521e-01
1.654000000000000000e+03 1.695811462402343750e+01 -5.654647350311279297e+00 -8.585701882839202881e-02 3.406395670026540756e-03 -2.473518624901771545e-02 3.276123851537704468e-02
1.655000000000000000e+03 2.162220382690429688e+01 9.540123939514160156e+00 -3.194680437445640564e-02 1.394351124763488770e-01 3.224649280309677124e-02 1.008796840906143188e-01
1.656000000000000000e+03 1.007065773010253906e+01 7.874715805053710938e+00 2.057907357811927795e-02 1.216948255896568298e-01 4.268217086791992188e-02 -4.347966238856315613e-02
1.657000000000000000e+03 5.332473373413085938e+01 6.626408576965332031e+00 -4.180876016616821289e-01 1.410615634918212891e+01 4.106420516967773438e+00 -9.426268190145492554e-02
1.658000000000000000e+03 5.006014633178710938e+01 1.795744705200195312e+01 -6.826756596565246582e-01 8.080815315246582031e+00 2.219441890716552734e+00 -2.839253664016723633e+00
1.659000000000000000e+03 4.791226196289062500e+01 1.804313468933105469e+01 2.849193215370178223e-01 2.952535629272460938e+00 9.712365269660949707e-01 -2.432112693786621094e+00
1.660000000000000000e+03 6.028991317749023438e+01 -1.146918487548828125e+01 6.426364779472351074e-01 8.365065574645996094e+00 2.702310800552368164e+00 2.500419914722442627e-01
1.661000000000000000e+03 6.192258834838867188e+01 -1.059646034240722656e+01 5.927477478981018066e-01 8.438865661621093750e+00 2.709483861923217773e+00 -4.577655345201492310e-02
1.662000000000000000e+03 3.802555847167968750e+01 7.497295379638671875e+00 3.237735480070114136e-03 -1.112808939069509506e-02 -2.367106266319751740e-03 7.419050671160221100e-03
1.663000000000000000e+03 6.519657897949218750e+01 2.710655450820922852e+00 -6.701735258102416992e-01 5.571316719055175781e+00 1.470342993736267090e+00 1.969417572021484375e+00
1.664000000000000000e+03 5.205168914794921875e+01 -2.096847772598266602e+00 -3.170408487319946289e+00 6.292471408843994141e+00 9.366188049316406250e-01 -1.814068555831909180e+00
1.665000000000000000e+03 5.343270492553710938e+01 -5.890804767608642578e+00 -1.325182914733886719e+00 4.808049678802490234e+00 1.044860005378723145e+00 -1.348912835121154785e+00
1.666000000000000000e+03 5.705775070190429688e+01 1.351716995239257812e+01 1.653894662857055664e+00 3.356134891510009766e+00 1.503008842468261719e+00 2.147388935089111328e+00
1.667000000000000000e+03 5.595820999145507812e+01 1.259803581237792969e+01 1.843007445335388184e+00 5.115434646606445312e+00 2.087532758712768555e+00 2.035129308700561523e+00
1.668000000000000000e+03 4.579749679565429688e+01 -1.626058769226074219e+01 -3.907609283924102783e-01 2.409776926040649414e+00 6.057048439979553223e-01 -1.619403362274169922e-01
1.669000000000000000e+03 4.442031478881835938e+01 -1.636573219299316406e+01 -2.679316103458404541e-01 3.763161659240722656e+00 1.048569083213806152e+00 -2.296069115400314331e-01
1.670000000000000000e+03 3.965552520751953125e+01 -1.963785171508789062e+01 -4.103614091873168945e-01 2.806107282638549805e+00 7.187237739562988281e-01 1.393052816390991211e+00
1.671000000000000000e+03 2.567511940002441406e+01 -4.163286209106445312e+00 2.724310159683227539e-01 2.091817408800125122e-01 1.444838345050811768e-01 8.492951281368732452e-03
1.672000000000000000e+03 2.643961143493652344e+01 -4.627463817596435547e-01 7.628887891769409180e-01 -4.360960125923156738e-01 9.803783893585205078e-02 -1.773012429475784302e-01
1.673000000000000000e+03 6.662427520751953125e+01 -8.236667513847351074e-01 -2.038104057312011719e+00 2.800981044769287109e+00 2.288631051778793335e-01 1.076765537261962891e+00
1.674000000000000000e+03 3.595788192749023438e+01 1.650276756286621094e+01 -1.299669623374938965e+00 -2.652402222156524658e-01 -4.694729447364807129e-01 -2.298880368471145630e-02
1.675000000000000000e+03 1.973488998413085938e+01 1.856395530700683594e+01 -8.802487254142761230e-01 -3.394985571503639221e-02 -2.742595970630645752e-01 1.725212782621383667e-01
1.676000000000000000e+03 3.118482398986816406e+01 2.618599891662597656e+00 -5.829831957817077637e-01 6.757374405860900879e-01 2.782626822590827942e-02 2.790458500385284424e-01
1.677000000000000000e+03 4.361770248413085938e+01 -7.260683536529541016e+00 3.422767817974090576e-01 9.173815727233886719e+00 2.854827642440795898e+00 1.411034941673278809e+00
1.678000000000000000e+03 5.943891906738281250e+01 -1.580181980133056641e+01 9.423919916152954102e-01 8.607933044433593750e+00 2.865097522735595703e+00 -7.509359717369079590e-01
1.679000000000000000e+03 6.721228027343750000e+01 1.219672012329101562e+01 3.978951215744018555e+00 1.156388950347900391e+01 4.662852287292480469e+00 5.103204846382141113e-01
1.680000000000000000e+03 5.806256103515625000e+01 1.443876647949218750e+01 1.592256069183349609e+00 2.511341333389282227e+00 1.231079220771789551e+00 2.039042711257934570e+00
1.681000000000000000e+03 3.974705505371093750e+01 7.979157447814941406e+00 7.973897270858287811e-03 -1.031585875898599625e-02 -7.025885279290378094e-04 -8.506331592798233032e-03
1.682000000000000000e+03 5.824282836914062500e+01 -1.417737388610839844e+01 1.095935702323913574e+00 9.733902931213378906e+00 3.248951673507690430e+00 -6.656086072325706482e-03
1.683000000000000000e+03 7.641360473632812500e+01 9.788499832153320312e+00 -1.123795866966247559e+00 1.039732933044433594e+01 2.782060146331787109e+00 -8.466215133666992188e-01
1.684000000000000000e+03 6.118806838989257812e+01 -8.365839004516601562e+00 8.798510432243347168e-01 8.965147972106933594e+00 2.953499555587768555e+00 4.157924354076385498e-01
1.685000000000000000e+03 6.223517608642578125e+01 -8.260716438293457031e+00 9.913019537925720215e-01 9.653447151184082031e+00 3.193424701690673828e+00 -1.363041400909423828e-01
1.686000000000000000e+03 2.895294761657714844e+01 -8.703311920166015625e+00 -2.254328727722167969e-01 4.135782122611999512e-01 5.644360184669494629e-02 5.594586580991744995e-02
1.687000000000000000e+03 5.708517456054687500e+01 -1.278147983551025391e+01 9.886481761932373047e-01 1.053108596801757812e+01 3.455920219421386719e+00 -6.437236666679382324e-01
1.688000000000000000e+03 5.750138473510742188e+01 -8.501965522766113281e+00 6.657968759536743164e-01 7.546255111694335938e+00 2.463615655899047852e+00 -5.047004818916320801e-01
1.689000000000000000e+03 6.763409423828125000e+01 5.746986865997314453e+00 7.068917155265808105e-01 1.030457687377929688e+01 3.303440570831298828e+00 -1.871033310890197754e+00
1.690000000000000000e+03 3.322814559936523438e+01 2.587108135223388672e+00 2.490977495908737183e-01 4.777176380157470703e-01 2.180446237325668335e-01 6.187286376953125000e-01
1.691000000000000000e+03 3.270071792602539062e+01 1.020156025886535645e+00 1.481509566307067871e+00 4.561797380447387695e-01 5.813068151473999023e-01 8.268578052520751953e-01
1.692000000000000000e+03 2.868535995483398438e+01 1.338320541381835938e+01 -5.279670953750610352e-01 -1.895614713430404663e-01 -2.152585685253143311e-01 -1.145743206143379211e-01
1.693000000000000000e+03 4.687216949462890625e+01 -1.452438545227050781e+01 -5.536564588546752930e-01 1.406113266944885254e+00 2.557370364665985107e-01 6.065233796834945679e-02
1.694000000000000000e+03 7.473286437988281250e+01 -7.659724712371826172e+00 3.207696080207824707e-01 8.490285873413085938e+00 2.643316507339477539e+00 1.040100932121276855e+00
1.695000000000000000e+03 5.603800582885742188e+01 -2.149733734130859375e+01 -1.137198090553283691e+00 6.859012603759765625e+00 1.716544389724731445e+00 2.018719673156738281e+00
1.696000000000000000e+03 5.974463272094726562e+01 -1.716848254203796387e+00 -4.743673801422119141e-01 4.078292846679687500e+00 1.081177592277526855e+00 -7.670945525169372559e-01
1.697000000000000000e+03 2.888761901855468750e+01 -7.576706409454345703e+00 -7.920053601264953613e-02 4.469849467277526855e-01 1.103353202342987061e-01 1.385399252176284790e-01
1.698000000000000000e+03 2.768586921691894531e+01 -2.260524034500122070e+00 8.877785205841064453e-01 1.402927935123443604e-01 3.084214031696319580e-01 3.577611744403839111e-01
1.699000000000000000e+03 6.737033081054687500e+01 1.079189777374267578e+01 2.924989461898803711e+00 1.208943176269531250e+01 4.504326343536376953e+00 -7.679721117019653320e-01
1.700000000000000000e+03 4.511880874633789062e+01 1.687764358520507812e+01 1.652821600437164307e-01 6.237004399299621582e-01 2.366947829723358154e-01 -6.719205975532531738e-01
1.701000000000000000e+03 4.253767013549804688e+01 1.542281723022460938e+01 -1.037357330322265625e+00 6.399310827255249023e-01 -1.192278787493705750e-01 -1.166608184576034546e-01
1.702000000000000000e+03 6.685954284667968750e+01 4.824152946472167969e+00 1.285429954528808594e+00 9.274015426635742188e+00 3.167833566665649414e+00 -7.914147973060607910e-01
1.703000000000000000e+03 5.522379302978515625e+01 -6.090441703796386719e+00 -8.617002367973327637e-01 6.192842006683349609e+00 1.599342584609985352e+00 -1.857992053031921387e+00
1.704000000000000000e+03 4.339889907836914062e+01 -6.168310642242431641e+00 1.808533906936645508e+00 8.155993461608886719e+00 2.989358186721801758e+00 1.578208684921264648e+00
1.705000000000000000e+03 4.178171920776367188e+01 -5.852885723114013672e+00 1.380433440208435059e+00 4.320662021636962891e+00 1.710328578948974609e+00 9.381702542304992676e-01
1.706000000000000000e+03 6.563593292236328125e+01 -1.631675720214843750e+01 -5.753591060638427734e-01 3.772635698318481445e+00 9.591830372810363770e-01 -1.424518704414367676e+00
1.707000000000000000e+03 6.749214935302734375e+01 -1.841409683227539062e+01 5.028976202011108398e-01 3.138886690139770508e+00 1.092535257339477539e+00 -7.146478295326232910e-01
1.708000000000000000e+03 5.236091232299804688e+01 -1.572759300470352173e-01 -1.266025185585021973e+00 9.362330436706542969e+00 2.428891420364379883e+00 -1.001155257225036621e+00
1.709000000000000000e+03 4.974188613891601562e+01 -2.322928428649902344e+00 -2.986110448837280273e+00 1.333745479583740234e+00 -4.957095086574554443e-01 4.816441237926483154e-01
1.710000000000000000e+03 3.496827697753906250e+01 4.443342685699462891e+00 -1.226038560271263123e-01 1.200522333383560181e-01 -7.654855726286768913e-04 2.344885617494583130e-01
1.711000000000000000e+03 3.705651092529296875e+01 3.919626712799072266e+00 1.019384339451789856e-02 -2.143179029226303101e-01 -6.123721599578857422e-02 1.935423016548156738e-01
1.712000000000000000e+03 1.423626708984375000e+01 1.568657207489013672e+01 -3.555240035057067871e-01 -2.924702595919370651e-03 -1.075346097350120544e-01 -4.676241800189018250e-02
1.713000000000000000e+03 5.259746170043945312e+01 -3.025918483734130859e+00 -3.221921682357788086e+00 6.042945861816406250e+00 8.463072776794433594e-01 -1.809931516647338867e+00
1.714000000000000000e+03 2.765209960937500000e+01 -4.781018257141113281e+00 1.305096745491027832e-01 5.456259846687316895e-01 2.028406858444213867e-01 2.717646956443786621e-01
1.715000000000000000e+03 3.784364700317382812e+01 -1.993556022644042969e+01 5.143179297447204590e-01 1.488717794418334961e+00 6.009107232093811035e-01 1.280913829803466797e+00
1.716000000000000000e+03 1.607207679748535156e+01 -4.971053123474121094e+00 -6.555544584989547729e-02 -3.935363609343767166e-03 -2.084724232554435730e-02 2.150444127619266510e-02
1.717000000000000000e+03 2.617372512817382812e+01 1.195863056182861328e+01 -1.620270758867263794e-01 4.578874632716178894e-02 -3.487149998545646667e-02 -1.514560729265213013e-01
1.718000000000000000e+03 9.523189544677734375e+00 1.105282306671142578e+01 -1.727394163608551025e-01 1.119901835918426514e-01 -1.822476834058761597e-02 -1.056740581989288330e-01
1.719000000000000000e+03 8.375402450561523438e+00 9.535538673400878906e+00 -1.050554066896438599e-01 1.806515902280807495e-01 2.267885580658912659e-02 -8.909194171428680420e-02
1.720000000000000000e+03 3.578972244262695312e+01 -2.020532989501953125e+01 -1.092209480702877045e-02 5.353665351867675781e-01 1.573333293199539185e-01 3.666016161441802979e-01
1.721000000000000000e+03 7.652159118652343750e+01 -1.097592735290527344e+01 6.750439405441284180e-01 8.524246215820312500e+00 2.759787082672119141e+00 6.278755068778991699e-01
1.722000000000000000e+03 7.448889160156250000e+01 -1.679241371154785156e+01 -3.491276502609252930e-01 8.893009185791015625e+00 2.563164472579956055e+00 -3.221727609634399414e-01
1.723000000000000000e+03 7.312366485595703125e+01 -1.573517894744873047e+01 2.367941290140151978e-01 9.992938041687011719e+00 3.068919658660888672e+00 1.012954339385032654e-01
1.724000000000000000e+03 5.662477874755859375e+01 -1.749202132225036621e+00 -9.507235288619995117e-01 3.986703634262084961e+00 9.107940196990966797e-01 -4.824073314666748047e+00
1.725000000000000000e+03 4.994701004028320312e+01 -9.163196682929992676e-01 1.993953883647918701e-01 3.254204273223876953e+00 1.036079883575439453e+00 1.363526582717895508e+00
1.726000000000000000e+03 6.076456069946289062e+01 -6.022744178771972656e+00 1.635622382164001465e+00 8.107500076293945312e+00 2.922936677932739258e+00 4.333957433700561523e-01
1.727000000000000000e+03 5.599417495727539062e+01 -7.149218082427978516e+00 1.517034471035003662e-01 6.699299335479736328e+00 2.055300712585449219e+00 -1.297044157981872559e+00
1.728000000000000000e+03 5.615886306762695312e+01 -5.424765586853027344e+00 -6.511775851249694824e-01 6.393823623657226562e+00 1.722793817520141602e+00 -2.169071674346923828e+00
1.729000000000000000e+03 4.014589309692382812e+01 -3.949828386306762695e+00 1.716918587684631348e+00 9.136505126953125000e-01 7.891707420349121094e-01 -4.043759405612945557e-01
1.730000000000000000e+03 2.377820014953613281e+01 1.059660530090332031e+01 -1.399023532867431641e-01 2.487132400274276733e-01 3.264326974749565125e-02 7.283534854650497437e-02
1.731000000000000000e+03 6.881334686279296875e+01 -2.738943994045257568e-01 -2.587005138397216797e+00 6.538990020751953125e+00 1.185595393180847168e+00 -1.558479070663452148e+00
1.732000000000000000e+03 1.942299461364746094e+01 -1.051091670989990234e+01 -2.330852001905441284e-01 4.462443664669990540e-02 -5.653823167085647583e-02 -4.338564723730087280e-02
1.733000000000000000e+03 7.264877319335937500e+01 -9.605070352554321289e-01 -9.148436188697814941e-01 2.362976312637329102e+00 4.344398081302642822e-01 -2.830891847610473633e+00
1.734000000000000000e+03 6.843415832519531250e+01 1.407037830352783203e+01 1.552244067192077637e+00 8.079093933105468750e+00 2.889401435852050781e+00 1.453199505805969238e+00
1.735000000000000000e+03 6.687884521484375000e+01 1.576971817016601562e+01 -2.662471532821655273e-01 8.978005409240722656e+00 2.613527536392211914e+00 -1.693210452795028687e-01
1.736000000000000000e+03 4.917341613769531250e+01 2.794918537139892578e+00 3.240019083023071289e+00 5.469312667846679688e+00 2.612799406051635742e+00 2.064797878265380859e+00
1.737000000000000000e+03 5.217491912841796875e+01 2.586535692214965820e+00 4.399923324584960938e+00 1.101352882385253906e+01 4.624035835266113281e+00 7.154748588800430298e-02
1.738000000000000000e+03 4.165715026855468750e+01 -7.651010036468505859e+00 -1.509969234466552734e-01 4.397506713867187500e+00 1.273952960968017578e+00 1.427336215972900391e+00
1.739000000000000000e+03 4.082038879394531250e+01 -6.537203311920166016e+00 6.788780689239501953e-01 2.370356798171997070e+00 9.147704243659973145e-01 6.661843657493591309e-01
1.740000000000000000e+03 6.385071182250976562e+01 1.693921661376953125e+01 1.460993409156799316e+00 4.764470577239990234e+00 1.867639183998107910e+00 -2.145480394363403320e+00
1.741000000000000000e+03 2.390958023071289062e+01 -4.299764037132263184e-01 9.677792191505432129e-01 -3.914407491683959961e-01 1.729015409946441650e-01 -4.119274914264678955e-01
1.742000000000000000e+03 2.212055206298828125e+01 8.610579490661621094e+00 -1.185442060232162476e-01 1.305018365383148193e-01 3.587288083508610725e-03 -2.788395993411540985e-02
1.743000000000000000e+03 1.058453369140625000e+01 -4.226727008819580078e+00 -3.268842026591300964e-02 4.617821890860795975e-03 -8.421178907155990601e-03 -7.373296190053224564e-03
1.744000000000000000e+03 2.832271337509155273e+00 6.710931777954101562e+00 -1.557327508926391602e-01 7.570184767246246338e-02 -2.400926873087882996e-02 -5.065714716911315918e-01
1.745000000000000000e+03 3.856470108032226562e+01 1.531496810913085938e+01 -1.295346260070800781e+00 3.341929018497467041e-01 -2.883459925651550293e-01 9.600482881069183350e-02
1.746000000000000000e+03 3.926029586791992188e+01 1.457473087310791016e+01 -1.238842368125915527e+00 3.976172506809234619e-01 -2.523675560951232910e-01 1.450812220573425293e-01
1.747000000000000000e+03 1.116101837158203125e+01 -5.068705081939697266e+00 -4.318446293473243713e-02 8.078306913375854492e-03 -1.053184643387794495e-02 -9.619591757655143738e-03
1.748000000000000000e+03 3.782263946533203125e+01 1.463319301605224609e+01 -1.524463534355163574e+00 2.113776355981826782e-01 -3.939257562160491943e-01 1.914152204990386963e-01
1.749000000000000000e+03 3.786499023437500000e+01 1.548795413970947266e+01 -1.298875689506530762e+00 1.624372750520706177e-01 -3.409315049648284912e-01 4.656358435750007629e-02
1.750000000000000000e+03 1.205685901641845703e+01 -4.296339511871337891e+00 -3.989220783114433289e-02 6.346362642943859100e-03 -1.006375346332788467e-02 -2.203019801527261734e-03
1.751000000000000000e+03 4.128233718872070312e+01 1.623859405517578125e+01 -8.923498392105102539e-01 6.227916479110717773e-01 -8.086744695901870728e-02 -6.568660587072372437e-02
1.752000000000000000e+03 4.051403427124023438e+01 1.584039688110351562e+01 -1.060132622718811035e+00 5.288072824478149414e-01 -1.593976020812988281e-01 3.074277192354202271e-02
1.753000000000000000e+03 7.539724349975585938e+00 -4.209516525268554688e+00 -1.833544671535491943e-02 -9.091243264265358448e-04 -5.773371551185846329e-03 -9.894208051264286041e-03
1.754000000000000000e+03 6.829095840454101562e+00 -3.421866178512573242e+00 -1.252437289804220200e-02 -1.528232358396053314e-03 -4.215781576931476593e-03 -7.665338460355997086e-03
1.755000000000000000e+03 4.742130279541015625e+00 -4.274862766265869141e+00 -9.605502709746360779e-03 -5.697872489690780640e-03 -4.591012839227914810e-03 -1.009813230484724045e-02
1.756000000000000000e+03 6.715004444122314453e+00 -4.243256568908691406e+00 -2.056612260639667511e-02 1.445331872673705220e-04 -6.126476917415857315e-03 -1.086138840764760971e-02
1.757000000000000000e+03 9.711254119873046875e+00 -5.010750293731689453e+00 -3.469324856996536255e-02 5.006402730941772461e-03 -8.906054310500621796e-03 -1.406837999820709229e-02
1.758000000000000000e+03 3.916396331787109375e+01 1.532487773895263672e+01 -1.208851337432861328e+00 3.954852223396301270e-01 -2.440098226070404053e-01 7.678055018186569214e-02
1.759000000000000000e+03 9.836111068725585938e+00 -4.218165397644042969e+00 -3.509614244103431702e-02 7.105917669832706451e-03 -8.397066965699195862e-03 -8.683362044394016266e-03
1.760000000000000000e+03 7.876590728759765625e+00 8.648825645446777344e+00 -2.743420302867889404e-01 1.866049319505691528e-01 -2.632112614810466766e-02 -4.681409895420074463e-02
1.761000000000000000e+03 1.333498477935791016e+01 -4.676118850708007812e+00 -5.377081409096717834e-02 6.416055839508771896e-03 -1.420642714947462082e-02 -7.365575293079018593e-04
1.762000000000000000e+03 1.395074367523193359e+01 -5.144611358642578125e+00 -6.412848085165023804e-02 1.844893023371696472e-02 -1.370386499911546707e-02 7.925901561975479126e-03
1.763000000000000000e+03 1.470320415496826172e+01 -5.605699062347412109e+00 -7.787512987852096558e-02 1.024608686566352844e-02 -2.028871327638626099e-02 7.560911122709512711e-03
1.764000000000000000e+03 5.899318313598632812e+01 -2.537287712097167969e+00 3.240154683589935303e-01 4.396114826202392578e+00 1.416039109230041504e+00 -1.877354502677917480e+00
1.765000000000000000e+03 5.134310913085937500e+01 5.315474033355712891e+00 1.844655156135559082e+00 1.137482261657714844e+01 3.965843439102172852e+00 -4.127480089664459229e-01
1.766000000000000000e+03 7.524915313720703125e+01 1.217613983154296875e+01 -7.341326028108596802e-02 5.980474472045898438e+00 1.772118330001831055e+00 -2.044164180755615234e+00
1.767000000000000000e+03 7.421445465087890625e+01 -1.546472835540771484e+01 5.755364298820495605e-01 9.495458602905273438e+00 3.021298408508300781e+00 -1.438679248094558716e-01
1.768000000000000000e+03 7.543872070312500000e+01 -1.422885322570800781e+01 6.926373243331909180e-01 8.906611442565917969e+00 2.879774570465087891e+00 -4.126823246479034424e-01
1.769000000000000000e+03 2.923187255859375000e+01 -1.261501312255859375e+01 -4.536513686180114746e-01 4.446563124656677246e-01 -2.698511118069291115e-03 4.899017512798309326e-02
1.770000000000000000e+03 2.122905349731445312e+01 -1.271766567230224609e+01 -2.217090576887130737e-01 6.588838249444961548e-02 -4.674620553851127625e-02 -2.869891002774238586e-02
1.771000000000000000e+03 7.618313598632812500e+01 -3.525948524475097656e+00 -3.292567133903503418e-01 7.791337966918945312e+00 2.238624334335327148e+00 1.293841719627380371e+00
1.772000000000000000e+03 5.416905975341796875e+01 -1.305375099182128906e+00 -2.455251932144165039e+00 8.707053184509277344e+00 1.875540256500244141e+00 -3.468920946121215820e+00
1.773000000000000000e+03 4.331870079040527344e+00 -1.082734203338623047e+01 -2.024363540112972260e-02 -3.386249393224716187e-02 -1.623183861374855042e-02 -4.264978691935539246e-02
1.774000000000000000e+03 7.388320159912109375e+01 -5.718328475952148438e+00 -2.536479830741882324e-01 7.121701717376708984e+00 2.060415983200073242e+00 4.214820563793182373e-01
1.775000000000000000e+03 4.451203918457031250e+01 -1.548962831497192383e+00 -1.216322779655456543e+00 7.664766311645507812e+00 1.934532999992370605e+00 2.914386272430419922e+00
1.776000000000000000e+03 4.511482238769531250e+01 -4.988183975219726562e-01 -4.389092028141021729e-01 5.226614952087402344e+00 1.436311721801757812e+00 4.249504566192626953e+00
1.777000000000000000e+03 1.786438941955566406e+01 -6.521193504333496094e+00 -1.130391284823417664e-01 -1.012957189232110977e-02 -3.695061057806015015e-02 4.378726705908775330e-02
1.778000000000000000e+03 1.864205169677734375e+01 -9.422745704650878906e+00 -2.385166138410568237e-01 5.659945681691169739e-02 -5.457514896988868713e-02 2.786702476441860199e-03
1.779000000000000000e+03 5.973740386962890625e+01 -1.276392078399658203e+01 7.163556814193725586e-01 8.585990905761718750e+00 2.790704011917114258e+00 1.541655510663986206e-01
1.780000000000000000e+03 6.193470764160156250e+01 -1.428717136383056641e+01 2.014819383621215820e-01 6.754045963287353516e+00 2.086658477783203125e+00 -6.211858391761779785e-01
1.781000000000000000e+03 6.248266601562500000e+01 -1.016256734728813171e-01 -2.805661916732788086e+00 5.746928691864013672e+00 8.823800683021545410e-01 3.128601312637329102e+00
1.782000000000000000e+03 6.355558776855468750e+01 3.322216868400573730e-01 -2.573361396789550781e+00 4.965130329132080078e+00 7.175307273864746094e-01 3.071333646774291992e+00
1.783000000000000000e+03 7.113533020019531250e+01 -1.634078860282897949e+00 -2.363268136978149414e+00 4.862137794494628906e+00 7.496609091758728027e-01 -2.787032842636108398e+00
1.784000000000000000e+03 7.399440765380859375e+01 -2.102819252014160156e+01 -5.667176842689514160e-01 7.332510471343994141e+00 2.029737710952758789e+00 4.953450858592987061e-01
1.785000000000000000e+03 4.691903114318847656e+00 1.025923728942871094e+01 -1.454681903123855591e-01 2.287642359733581543e-01 2.498881332576274872e-02 -1.766504496335983276e-01
1.786000000000000000e+03 3.568428802490234375e+01 1.773809909820556641e+00 3.554052710533142090e-01 -3.415166437625885010e-01 4.166584927588701248e-03 7.989058643579483032e-02
1.787000000000000000e+03 3.639600753784179688e+01 2.206714868545532227e+00 2.964142858982086182e-01 -2.161007523536682129e-01 2.409406378865242004e-02 2.024291455745697021e-01
1.788000000000000000e+03 4.384277725219726562e+01 -1.203681278228759766e+01 -7.817679047584533691e-01 5.425149440765380859e+00 1.393014430999755859e+00 1.408069610595703125e+00
1.789000000000000000e+03 4.219552230834960938e+01 -1.261261749267578125e+01 -3.220300078392028809e-01 5.895862579345703125e+00 1.672149777412414551e+00 1.483710408210754395e+00
1.790000000000000000e+03 4.600955486297607422e+00 2.231556892395019531e+01 -5.115387961268424988e-02 1.381599307060241699e-01 2.610181458294391632e-02 9.268428385257720947e-02
1.791000000000000000e+03 7.030586242675781250e+01 1.150400543212890625e+01 1.729072451591491699e+00 4.962708950042724609e+00 2.007534503936767578e+00 1.197035312652587891e+00
1.792000000000000000e+03 3.928784179687500000e+01 -4.869587898254394531e+00 8.943756818771362305e-01 -3.743897378444671631e-01 1.559957861900329590e-01 5.146731436252593994e-02
1.793000000000000000e+03 2.025705528259277344e+01 -1.159363651275634766e+01 -2.167955338954925537e-01 6.910763680934906006e-02 -4.430636763572692871e-02 -2.165528200566768646e-02
1.794000000000000000e+03 7.401866149902343750e+01 -8.340332031250000000e+00 8.770704269409179688e-01 9.031806945800781250e+00 2.972663164138793945e+00 6.590586304664611816e-01
1.795000000000000000e+03 4.110793304443359375e+01 -3.088618755340576172e+00 1.617932081222534180e+00 2.048681020736694336e+00 1.099983930587768555e+00 -4.969699084758758545e-01
1.796000000000000000e+03 4.293931961059570312e+01 -3.336797475814819336e+00 2.055181264877319336e+00 5.546354293823242188e+00 2.280460596084594727e+00 1.687757074832916260e-01
1.797000000000000000e+03 3.227080917358398438e+01 -1.684090423583984375e+01 -4.041385054588317871e-01 3.598903417587280273e-01 -1.327444799244403839e-02 5.067943781614303589e-02
1.798000000000000000e+03 3.362178802490234375e+01 -1.551516628265380859e+01 -5.837038755416870117e-01 3.056499361991882324e-01 -8.341618627309799194e-02 4.739418625831604004e-02
1.799000000000000000e+03 6.074852752685546875e+01 -1.431862354278564453e+01 4.331832230091094971e-01 7.853931427001953125e+00 2.486134290695190430e+00 -4.523078203201293945e-01
1.800000000000000000e+03 5.622606277465820312e+01 1.455786705017089844e+01 2.029572963714599609e+00 5.097671985626220703e+00 2.138173580169677734e+00 2.899768352508544922e+00
1.801000000000000000e+03 5.259930801391601562e+01 1.463663005828857422e+01 3.063921928405761719e+00 1.148976039886474609e+01 4.366104602813720703e+00 1.949829578399658203e+00
1.802000000000000000e+03 7.385315704345703125e+01 1.381281852722167969e+01 7.883173227310180664e-01 4.980087757110595703e+00 1.730521440505981445e+00 -1.113187074661254883e+00
1.803000000000000000e+03 6.858277130126953125e+01 1.247208213806152344e+01 2.604989528656005859e+00 8.091909408569335938e+00 3.209069728851318359e+00 1.506611943244934082e+00
1.804000000000000000e+03 2.394587135314941406e+01 7.272140026092529297e+00 -3.203654587268829346e-01 -3.024672344326972961e-02 -1.051836609840393066e-01 -1.767266839742660522e-01
1.805000000000000000e+03 7.651819610595703125e+01 -1.598850440979003906e+01 9.332106262445449829e-02 8.306609153747558594e+00 2.519979000091552734e+00 -6.045715212821960449e-01
1.806000000000000000e+03 7.521263885498046875e+01 -1.259514617919921875e+01 1.029306650161743164e+00 9.392417907714843750e+00 3.126517295837402344e+00 2.131715714931488037e-01
1.807000000000000000e+03 4.196547698974609375e+01 -4.097451686859130859e+00 2.431674242019653320e+00 4.531370639801025391e+00 2.088913440704345703e+00 5.623482540249824524e-02
1.808000000000000000e+03 5.214249801635742188e+01 1.788025474548339844e+01 -4.952559471130371094e-01 8.633899688720703125e+00 2.441593170166015625e+00 3.494466543197631836e-01
1.809000000000000000e+03 2.948945808410644531e+01 1.613195228576660156e+01 -9.593089222908020020e-01 1.638592965900897980e-02 -2.828769087791442871e-01 3.780966401100158691e-01
1.810000000000000000e+03 3.094943046569824219e+01 1.615539550781250000e+01 -1.078665256500244141e+00 -4.927492141723632812e-02 -3.383820354938507080e-01 3.257665336132049561e-01
1.811000000000000000e+03 4.689167499542236328e+00 -1.948506355285644531e+01 -8.476328104734420776e-03 -1.325816363096237183e-01 -4.231739044189453125e-02 -9.307694435119628906e-02
1.812000000000000000e+03 7.574986267089843750e+01 1.736164665222167969e+01 4.906236529350280762e-01 5.811475276947021484e+00 1.890629768371582031e+00 -2.043741047382354736e-01
1.813000000000000000e+03 7.433751678466796875e+01 1.632383918762207031e+01 8.963858485221862793e-01 5.521745681762695312e+00 1.925439476966857910e+00 -2.727991938591003418e-01
1.814000000000000000e+03 6.356735229492187500e+00 -3.081521224975585938e+01 2.282224223017692566e-02 -2.165266126394271851e-01 -5.811131000518798828e-02 -9.757029265165328979e-02
1.815000000000000000e+03 2.589106178283691406e+01 1.063619804382324219e+01 -1.876988410949707031e-01 -2.085506916046142578e-02 -6.256617605686187744e-02 -1.978274434804916382e-01
1.816000000000000000e+03 4.447142124176025391e+00 -7.383065223693847656e+00 -9.850592352449893951e-03 -1.553356926888227463e-02 -7.615248207002878189e-03 -2.229344286024570465e-02
1.817000000000000000e+03 3.675738096237182617e+00 -6.028509616851806641e+00 -5.532527342438697815e-03 -1.228182483464479446e-02 -5.344305653125047684e-03 -1.412485539913177490e-02
1.818000000000000000e+03 2.590673446655273438e+01 7.638312578201293945e-01 1.539855152368545532e-01 -5.550358295440673828e-01 -1.203150898218154907e-01 -3.238063454627990723e-01
1.819000000000000000e+03 4.347020721435546875e+01 1.583554458618164062e+01 -1.020995020866394043e+00 5.388665199279785156e-01 -1.446385383605957031e-01 -1.020571514964103699e-01
1.820000000000000000e+03 7.324016571044921875e+01 -4.447129726409912109e+00 -5.645318627357482910e-01 6.286286354064941406e+00 1.716526389122009277e+00 -3.797205984592437744e-01
1.821000000000000000e+03 7.238286590576171875e+01 -3.265293836593627930e+00 -1.564436554908752441e+00 5.105916500091552734e+00 1.062443971633911133e+00 -1.375626325607299805e+00
1.822000000000000000e+03 3.711914443969726562e+01 8.056910514831542969e+00 -2.571032755076885223e-02 7.016929797828197479e-03 -5.608019419014453888e-03 2.388546429574489594e-02
1.823000000000000000e+03 4.681849670410156250e+01 1.946084785461425781e+01 2.460926026105880737e-01 2.559814214706420898e+00 8.417720794677734375e-01 -1.639632582664489746e+00
1.824000000000000000e+03 4.588285064697265625e+01 1.803727722167968750e+01 2.261093705892562866e-01 1.347060084342956543e+00 4.719508588314056396e-01 -1.370211005210876465e+00
1.825000000000000000e+03 6.741171264648437500e+01 7.234613299369812012e-01 -8.672027587890625000e-01 6.105194568634033203e+00 1.571397542953491211e+00 7.701990604400634766e-01
1.826000000000000000e+03 2.111530685424804688e+01 8.253875732421875000e+00 -1.152504459023475647e-01 1.019012108445167542e-01 -4.004771355539560318e-03 4.310556221753358841e-03
1.827000000000000000e+03 6.677334594726562500e+01 8.066679000854492188e+00 -6.579191088676452637e-01 1.144781684875488281e+01 3.236969232559204102e+00 -1.247462868690490723e+00
1.828000000000000000e+03 1.877528762817382812e+01 2.014738082885742188e+01 -5.608446002006530762e-01 -8.064736425876617432e-02 -1.924475878477096558e-01 2.572647035121917725e-01
1.829000000000000000e+03 1.733563804626464844e+01 1.838283729553222656e+01 -5.666729807853698730e-01 -2.393775433301925659e-02 -1.771832108497619629e-01 8.926156163215637207e-02
1.830000000000000000e+03 1.575908660888671875e+01 -7.582054615020751953e+00 -1.366792023181915283e-01 4.111504554748535156e-02 -2.866924554109573364e-02 5.315086804330348969e-03
1.831000000000000000e+03 6.173201370239257812e+01 1.640048980712890625e+01 1.789979696273803711e+00 2.179571628570556641e+00 1.190865397453308105e+00 -3.987815678119659424e-01
1.832000000000000000e+03 5.931949234008789062e+01 1.803651618957519531e+01 1.601809501647949219e+00 3.528281211853027344e+00 1.539027214050292969e+00 1.123290896415710449e+00
1.833000000000000000e+03 6.262167358398437500e+01 3.358690977096557617e+00 -1.101649641990661621e+00 2.580046176910400391e+00 4.435189664363861084e-01 1.045282721519470215e+00
1.834000000000000000e+03 5.762467861175537109e+00 -1.418907928466796875e+01 -2.345388196408748627e-02 -5.809421837329864502e-02 -2.446443028748035431e-02 -7.851186394691467285e-02
1.835000000000000000e+03 4.755862808227539062e+01 2.528531789779663086e+00 2.808754205703735352e+00 3.495139837265014648e+00 1.891168236732482910e+00 2.906134366989135742e+00
1.836000000000000000e+03 3.482120132446289062e+01 1.773025512695312500e+01 -8.168739080429077148e-01 -2.790188193321228027e-01 -3.287678360939025879e-01 1.901140213012695312e-01
1.837000000000000000e+03 3.825347900390625000e+01 -4.140772819519042969e+00 8.684394955635070801e-01 -9.404144287109375000e-01 -2.159248106181621552e-02 -1.088302731513977051e-01
1.838000000000000000e+03 7.265738677978515625e+01 -3.207422637939453125e+01 7.081060856580734253e-02 6.647362709045410156e+00 2.015451908111572266e+00 6.889770179986953735e-02
1.839000000000000000e+03 7.848731994628906250e+01 5.761493682861328125e+00 1.479554921388626099e-01 9.030303955078125000e+00 2.753477811813354492e+00 -1.927019000053405762e+00
1.840000000000000000e+03 3.367587280273437500e+01 -2.011262702941894531e+01 4.888843744993209839e-02 5.920359492301940918e-01 1.922773271799087524e-01 1.679117232561111450e-01
1.841000000000000000e+03 4.611615753173828125e+01 -1.054239630699157715e+00 -9.562479257583618164e-01 3.156534671783447266e+00 6.600859761238098145e-01 4.886431694030761719e+00
1.842000000000000000e+03 4.806156539916992188e+01 9.321694374084472656e-01 2.268918275833129883e+00 3.272646188735961914e+00 1.662469387054443359e+00 3.278721570968627930e+00
1.843000000000000000e+03 4.472707271575927734e+00 1.139665222167968750e+01 -1.840384006500244141e-01 2.044328451156616211e-01 6.118330638855695724e-03 -1.767874509096145630e-01
1.844000000000000000e+03 6.259872817993164062e+01 -1.213710498809814453e+01 2.535640895366668701e-01 6.929006099700927734e+00 2.154771089553833008e+00 -4.544623196125030518e-01
1.845000000000000000e+03 7.664231872558593750e+01 -3.453348159790039062e+01 8.328370749950408936e-03 7.454607009887695312e+00 2.238880634307861328e+00 6.133658811450004578e-02
1.846000000000000000e+03 7.608128356933593750e+01 -7.259080886840820312e+00 1.647682934999465942e-01 8.397138595581054688e+00 2.568572044372558594e+00 1.439573526382446289e+00
1.847000000000000000e+03 7.297869110107421875e+01 2.214241218566894531e+01 1.470053642988204956e-01 6.276305675506591797e+00 1.926993250846862793e+00 2.647271156311035156e-01
1.848000000000000000e+03 5.904212570190429688e+01 -8.702958822250366211e-01 -1.034309029579162598e+00 2.502633094787597656e+00 4.404971897602081299e-01 -1.863092303276062012e+00
1.849000000000000000e+03 5.834294891357421875e+01 2.215409837663173676e-02 -1.815068364143371582e+00 6.341381669044494629e-01 -3.542790412902832031e-01 -1.992175698280334473e+00
1.850000000000000000e+03 3.123095750808715820e+00 3.346321105957031250e+01 2.077911607921123505e-02 -8.022235333919525146e-02 -1.783297210931777954e-02 8.701713383197784424e-02
1.851000000000000000e+03 2.836299657821655273e+00 3.474294281005859375e+01 1.620723865926265717e-02 -1.177053526043891907e-01 -3.044943511486053467e-02 6.207676231861114502e-02
1.852000000000000000e+03 4.535553455352783203e+00 1.814115142822265625e+01 -4.043753817677497864e-02 1.818970888853073120e-01 4.243786633014678955e-02 1.908797584474086761e-02
1.853000000000000000e+03 3.066553306579589844e+01 1.854887723922729492e+00 3.520481586456298828e-01 7.164669632911682129e-01 3.205545246601104736e-01 3.132986724376678467e-01
1.854000000000000000e+03 7.480699920654296875e+01 -9.193783760070800781e+00 8.221890926361083984e-01 9.041561126708984375e+00 2.959125041961669922e+00 8.856616020202636719e-01
1.855000000000000000e+03 5.250895309448242188e+01 3.835182189941406250e+00 4.356623649597167969e+00 1.249988460540771484e+01 5.056952476501464844e+00 -1.446426630020141602e+00
1.856000000000000000e+03 5.902476501464843750e+01 -1.862615203857421875e+01 8.940338492393493652e-01 8.349765777587890625e+00 2.773139715194702148e+00 -1.214491128921508789e+00
1.857000000000000000e+03 6.710838317871093750e+01 1.987980604171752930e+00 3.517286181449890137e-01 6.476771831512451172e+00 2.048550128936767578e+00 8.824702501296997070e-01
1.858000000000000000e+03 6.434546661376953125e+01 3.638242959976196289e+00 -6.769003719091415405e-02 4.653042316436767578e+00 1.375605702400207520e+00 1.534553647041320801e+00
1.859000000000000000e+03 6.555067443847656250e+01 -1.829682350158691406e+01 2.551539540290832520e-01 4.148269653320312500e+00 1.321027040481567383e+00 -1.401983499526977539e+00
1.860000000000000000e+03 2.918094444274902344e+01 1.460278987884521484e+01 -8.385133147239685059e-01 -5.206482484936714172e-02 -2.671734392642974854e-01 1.216967031359672546e-01
1.861000000000000000e+03 3.225080108642578125e+01 2.993846416473388672e+00 -9.461911022663116455e-02 3.871231377124786377e-01 8.775120973587036133e-02 2.470880001783370972e-01
1.862000000000000000e+03 3.591890716552734375e+01 3.017580270767211914e+00 9.559921920299530029e-02 -1.355302184820175171e-01 -1.197930146008729935e-02 2.663929164409637451e-01
1.863000000000000000e+03 2.578528404235839844e+01 -2.179832458496093750e+00 8.322409391403198242e-01 -2.014932483434677124e-01 1.892243027687072754e-01 -9.127949178218841553e-02
1.864000000000000000e+03 5.105000686645507812e+01 -1.069110274314880371e+00 -1.337886095046997070e+00 5.361113071441650391e+00 1.206968069076538086e+00 -2.844050526618957520e-01
1.865000000000000000e+03 4.914305496215820312e+01 6.131022572517395020e-01 2.118780374526977539e+00 3.677378416061401367e+00 1.738847613334655762e+00 2.451870918273925781e+00
1.866000000000000000e+03 5.524255371093750000e+01 1.372001743316650391e+01 2.565120220184326172e+00 6.892619132995605469e+00 2.837321758270263672e+00 2.611666679382324219e+00
1.867000000000000000e+03 5.336458587646484375e+01 1.123156356811523438e+01 2.307495594024658203e+00 1.183468818664550781e+01 4.242655277252197266e+00 9.827082157135009766e-01
1.868000000000000000e+03 2.948078918457031250e+01 -5.784119606018066406e+00 -2.416671812534332275e-02 5.512983202934265137e-01 1.581394672393798828e-01 1.180613487958908081e-01
1.869000000000000000e+03 6.962174987792968750e+01 -1.854240417480468750e+01 7.608608603477478027e-01 3.209130287170410156e+00 1.190997362136840820e+00 1.215813517570495605e+00
1.870000000000000000e+03 5.173263931274414062e+01 1.363668918609619141e+00 3.263495683670043945e+00 9.641356468200683594e+00 3.871455669403076172e+00 4.918913841247558594e-01
1.871000000000000000e+03 4.419926071166992188e+01 1.748383331298828125e+01 -1.202685683965682983e-01 7.711226940155029297e-01 1.952562332153320312e-01 -6.819381713867187500e-01
1.872000000000000000e+03 4.066889190673828125e+01 1.732415199279785156e+01 -7.286442518234252930e-01 6.061168909072875977e-01 -3.675821051001548767e-02 -1.175298020243644714e-01
1.873000000000000000e+03 7.262233734130859375e+01 -1.875830841064453125e+01 -6.863091588020324707e-01 7.117016792297363281e+00 1.929212212562561035e+00 1.433621406555175781e+00
1.874000000000000000e+03 5.443823623657226562e+01 1.469982719421386719e+01 2.394134521484375000e+00 7.946976184844970703e+00 3.102333307266235352e+00 3.058835744857788086e+00
1.875000000000000000e+03 1.161403369903564453e+01 1.353133964538574219e+01 -2.572766542434692383e-01 1.968214847147464752e-02 -7.127834856510162354e-02 -6.476601958274841309e-02
1.876000000000000000e+03 1.211218547821044922e+01 1.217869091033935547e+01 -2.213940024375915527e-01 -4.245222546160221100e-03 -6.769177317619323730e-02 -1.154916211962699890e-01
1.877000000000000000e+03 2.786228179931640625e+01 1.472599601745605469e+01 -5.835848450660705566e-01 -2.374398056417703629e-03 -1.757877767086029053e-01 2.722543179988861084e-01
1.878000000000000000e+03 5.676510620117187500e+01 -7.958694458007812500e+00 4.531949162483215332e-01 7.060359477996826172e+00 2.254066228866577148e+00 -8.870571255683898926e-01
1.879000000000000000e+03 5.055614089965820312e+01 1.685421943664550781e+00 3.279973030090332031e+00 6.549246311187744141e+00 2.948765754699707031e+00 1.390374064445495605e+00
1.880000000000000000e+03 1.484962368011474609e+01 1.842962646484375000e+01 -3.753088414669036865e-01 -1.895067398436367512e-03 -1.131611689925193787e-01 6.718881428241729736e-02
1.881000000000000000e+03 5.828326034545898438e+01 -2.141071128845214844e+01 -7.376018762588500977e-01 6.706180095672607422e+00 1.790573477745056152e+00 -1.017716303467750549e-01
1.882000000000000000e+03 2.055886650085449219e+01 8.912083625793457031e+00 4.723824188113212585e-02 1.374273449182510376e-01 5.539967492222785950e-02 3.773177042603492737e-02
1.883000000000000000e+03 3.361946868896484375e+01 1.778897666931152344e+01 -8.607032895088195801e-01 -2.686425745487213135e-01 -3.388037681579589844e-01 2.485966384410858154e-01
1.884000000000000000e+03 3.102562141418457031e+01 1.757005500793457031e+01 -9.937524199485778809e-01 -6.031718850135803223e-02 -3.162208795547485352e-01 4.490276873111724854e-01
1.885000000000000000e+03 4.100714111328125000e+01 -4.852348804473876953e+00 1.732245683670043945e+00 2.234888553619384766e+00 1.190140247344970703e+00 2.003391534090042114e-01
1.886000000000000000e+03 3.914584350585937500e+01 -5.934629917144775391e+00 4.104605317115783691e-01 -4.976800084114074707e-01 -2.616584487259387970e-02 4.697633981704711914e-01
1.887000000000000000e+03 6.845690917968750000e+01 1.574933147430419922e+01 9.068573117256164551e-01 7.989579677581787109e+00 2.668931007385253906e+00 1.021247863769531250e+00
1.888000000000000000e+03 5.610139465332031250e+01 -4.413749217987060547e+00 -1.002216935157775879e+00 6.127847194671630859e+00 1.537689089775085449e+00 -2.868146181106567383e+00
1.889000000000000000e+03 6.299191665649414062e+01 -1.560531902313232422e+01 -1.375522091984748840e-02 5.692681312561035156e+00 1.703677892684936523e+00 -1.263879299163818359e+00
1.890000000000000000e+03 6.369639205932617188e+01 -1.456198310852050781e+01 -2.874505221843719482e-01 5.633546352386474609e+00 1.603828787803649902e+00 -1.026507973670959473e+00
1.891000000000000000e+03 4.322782897949218750e+01 -1.399107170104980469e+01 4.801463335752487183e-02 5.445009231567382812e+00 1.647907137870788574e+00 1.211656212806701660e+00
1.892000000000000000e+03 4.445571899414062500e+01 -1.405184268951416016e+01 4.688709601759910583e-02 3.901472091674804688e+00 1.184507727622985840e+00 9.055639505386352539e-01
1.893000000000000000e+03 5.501908493041992188e+01 -2.045612096786499023e+00 -2.794923067092895508e+00 8.093600273132324219e+00 1.589603185653686523e+00 -4.798832893371582031e+00
1.894000000000000000e+03 5.329974365234375000e+01 -6.452496051788330078e-01 -1.673909544944763184e+00 9.517538070678710938e+00 2.353088617324829102e+00 -3.158557176589965820e+00
1.895000000000000000e+03 5.344538116455078125e+01 -2.247632026672363281e+00 -3.130208969116210938e+00 7.911552906036376953e+00 1.434403300285339355e+00 -3.225141525268554688e+00
1.896000000000000000e+03 5.173393249511718750e+00 3.723939514160156250e+01 3.253762051463127136e-02 -1.235944554209709167e-01 -2.731704898178577423e-02 7.506825029850006104e-02
1.897000000000000000e+03 3.391875457763671875e+01 -1.823836898803710938e+01 -2.577032744884490967e-01 3.093127608299255371e-01 1.548284199088811874e-02 1.421063542366027832e-01
1.898000000000000000e+03 3.161969184875488281e+01 8.270570039749145508e-01 9.216102957725524902e-01 1.198962330818176270e+00 6.361717581748962402e-01 9.268502593040466309e-01
1.899000000000000000e+03 6.046793746948242188e+01 -1.025828242301940918e+00 -1.298239469528198242e+00 4.680363178253173828e+00 1.014637231826782227e+00 -4.252097308635711670e-01
1.900000000000000000e+03 6.066296768188476562e+01 -3.294929504394531250e+00 9.404992461204528809e-01 6.592464447021484375e+00 2.259889125823974609e+00 -2.320268601179122925e-01
1.901000000000000000e+03 5.686905288696289062e+01 -4.822434425354003906e+00 -1.728882044553756714e-01 5.803029060363769531e+00 1.689042210578918457e+00 -2.295546531677246094e+00
1.902000000000000000e+03 5.824641799926757812e+01 -9.740993499755859375e+00 7.217635512351989746e-01 8.388874053955078125e+00 2.733191251754760742e+00 -5.622784793376922607e-02
1.903000000000000000e+03 6.144919967651367188e+01 -1.180323505401611328e+01 4.809939265251159668e-01 8.008593559265136719e+00 2.546876192092895508e+00 -1.281580794602632523e-02
1.904000000000000000e+03 6.075132751464843750e+01 -1.038858795166015625e+01 6.808316111564636230e-01 8.397098541259765625e+00 2.723379135131835938e+00 3.059906065464019775e-01
1.905000000000000000e+03 6.617362499237060547e+00 -3.382190322875976562e+01 3.280211985111236572e-02 -2.260200828313827515e-01 -5.796539038419723511e-02 -7.398311793804168701e-02
1.906000000000000000e+03 2.786499404907226562e+01 -8.235584259033203125e+00 -8.541866391897201538e-02 4.413102865219116211e-01 1.067674830555915833e-01 1.231772974133491516e-01
1.907000000000000000e+03 5.015744686126708984e+00 -2.622065925598144531e+01 8.575724437832832336e-03 -2.164260894060134888e-01 -6.235510855913162231e-02 -9.787362068891525269e-02
1.908000000000000000e+03 6.532671451568603516e+00 -2.627964973449707031e+01 8.333752863109111786e-03 -1.713289320468902588e-01 -4.889855161309242249e-02 -1.073446422815322876e-01
1.909000000000000000e+03 5.324852466583251953e+00 7.973678588867187500e+00 -2.281564325094223022e-01 4.917294383049011230e-01 7.907190173864364624e-02 -1.711305528879165649e-01
1.910000000000000000e+03 2.646080970764160156e+01 1.798206329345703125e+01 -1.353571534156799316e+00 1.589716374874114990e-01 -3.583799600601196289e-01 2.370776981115341187e-01
1.911000000000000000e+03 3.575145483016967773e+00 -2.882550430297851562e+01 3.088514786213636398e-03 -3.060112595558166504e-01 -9.087682515382766724e-02 -6.299933046102523804e-02
1.912000000000000000e+03 6.592996120452880859e+00 -2.910337257385253906e+01 1.528146211057901382e-02 -1.880020797252655029e-01 -5.181618779897689819e-02 -9.815951436758041382e-02
1.913000000000000000e+03 6.033734512329101562e+01 -8.818547248840332031e+00 9.063726067543029785e-01 8.468750000000000000e+00 2.812536716461181641e+00 4.803577065467834473e-01
1.914000000000000000e+03 4.858839035034179688e+01 -2.236872482299804688e+01 -5.020087957382202148e-01 1.735660910606384277e+00 3.700956404209136963e-01 -4.493860602378845215e-01
1.915000000000000000e+03 4.442759704589843750e+01 -1.518056392669677734e+01 4.912757128477096558e-02 3.367657661437988281e+00 1.025035619735717773e+00 -3.454077988862991333e-02
1.916000000000000000e+03 3.556108474731445312e+01 -4.357607066631317139e-01 9.529983997344970703e-01 -5.626255869865417480e-01 1.171118468046188354e-01 -7.470420002937316895e-02
1.917000000000000000e+03 5.939728927612304688e+01 -9.429547309875488281e+00 9.352198839187622070e-01 8.280004501342773438e+00 2.764567136764526367e+00 4.210601449012756348e-01
1.918000000000000000e+03 6.104602050781250000e+01 -9.340610504150390625e+00 8.260058164596557617e-01 8.758852958679199219e+00 2.875457763671875000e+00 3.836927413940429688e-01
1.919000000000000000e+03 6.724853515625000000e+01 1.768348312377929688e+01 2.824247479438781738e-01 7.217525005340576172e+00 2.249984979629516602e+00 -3.905872106552124023e-01
1.920000000000000000e+03 6.443404388427734375e+01 1.866074943542480469e+01 4.169567227363586426e-01 5.953771114349365234e+00 1.911218285560607910e+00 -1.019957661628723145e+00
1.921000000000000000e+03 5.011310195922851562e+01 3.580427646636962891e+00 3.127013683319091797e+00 7.348053455352783203e+00 3.142520189285278320e+00 1.253246426582336426e+00
1.922000000000000000e+03 2.679084396362304688e+01 -3.370952606201171875e+00 5.390041470527648926e-01 2.672941982746124268e-01 2.418895065784454346e-01 2.701717019081115723e-01
1.923000000000000000e+03 7.448255157470703125e+01 3.215678334236145020e-01 -2.454811334609985352e+00 2.602119684219360352e+00 4.419247433543205261e-02 9.517109990119934082e-01
1.924000000000000000e+03 7.369705200195312500e+01 -1.471427917480468750e+00 -1.188225030899047852e+00 2.971293449401855469e+00 5.349205136299133301e-01 -5.413025021553039551e-01
1.925000000000000000e+03 7.561677551269531250e+01 -2.605627822875976562e+01 -1.600820757448673248e-02 7.330919265747070312e+00 2.194473266601562500e+00 1.659133732318878174e-01
1.926000000000000000e+03 5.579933929443359375e+01 1.034638881683349609e+01 6.863952875137329102e-01 5.068786621093750000e+00 1.726554632186889648e+00 1.220233082771301270e+00
1.927000000000000000e+03 6.112479019165039062e+01 -1.785156059265136719e+01 1.855941563844680786e-01 6.831766128540039062e+00 2.105207920074462891e+00 -1.449995040893554688e+00
1.928000000000000000e+03 5.200183868408203125e+01 -1.168900132179260254e+00 -1.735384702682495117e+00 6.584769725799560547e+00 1.454815506935119629e+00 -1.242563247680664062e+00
1.929000000000000000e+03 1.365185928344726562e+01 1.849457550048828125e+01 -3.317136168479919434e-01 1.519300043582916260e-02 -9.495618939399719238e-02 6.999542564153671265e-02
1.930000000000000000e+03 5.425139999389648438e+01 -3.070199012756347656e+00 -2.521283626556396484e+00 6.983689308166503906e+00 1.338721752166748047e+00 -3.244473457336425781e+00
1.931000000000000000e+03 5.818400955200195312e+01 1.813797569274902344e+01 1.248275995254516602e+00 4.339467048645019531e+00 1.676322937011718750e+00 1.646021604537963867e+00
1.932000000000000000e+03 5.981272125244140625e+01 1.625354576110839844e+01 1.766993641853332520e+00 2.294738531112670898e+00 1.218519568443298340e+00 9.599369168281555176e-01
1.933000000000000000e+03 1.205819606781005859e+01 1.500279045104980469e+01 -2.892492413520812988e-01 2.594985067844390869e-02 -7.898981869220733643e-02 -3.484883904457092285e-02
1.934000000000000000e+03 7.546881866455078125e+01 2.079733657836914062e+01 1.459359973669052124e-01 6.125339508056640625e+00 1.881382584571838379e+00 1.966443955898284912e-01
1.935000000000000000e+03 7.369372558593750000e+01 1.968876266479492188e+01 3.924235999584197998e-01 6.145288467407226562e+00 1.961313724517822266e+00 2.593784630298614502e-01
1.936000000000000000e+03 4.791917800903320312e+00 2.653442001342773438e+01 -1.034956192597746849e-03 5.791530758142471313e-02 1.706410571932792664e-02 1.403379738330841064e-01
1.937000000000000000e+03 7.628363037109375000e+01 3.402267837524414062e+01 -2.527872100472450256e-02 6.469369411468505859e+00 1.933227181434631348e+00 1.136910542845726013e-01
1.938000000000000000e+03 1.191485786437988281e+01 -5.069864273071289062e+00 -5.554768815636634827e-02 1.483894325792789459e-02 -1.221262384206056595e-02 -8.032849058508872986e-03
1.939000000000000000e+03 1.042835140228271484e+01 -5.042887687683105469e+00 -4.616371542215347290e-02 1.104647573083639145e-02 -1.053517218679189682e-02 -1.161126513034105301e-02
1.940000000000000000e+03 9.037753105163574219e+00 -4.242164611816406250e+00 -2.657686546444892883e-02 2.578073414042592049e-03 -7.199637591838836670e-03 -1.057421322911977768e-02
1.941000000000000000e+03 3.711641693115234375e+01 1.668515205383300781e+01 -1.063317537307739258e+00 1.769731193780899048e-02 -3.136860728263854980e-01 -3.539338335394859314e-02
1.942000000000000000e+03 3.811672592163085938e+01 1.645860481262207031e+01 -1.116409540176391602e+00 2.215542942285537720e-01 -2.684565782546997070e-01 -1.033010985702276230e-02
1.943000000000000000e+03 4.212390518188476562e+01 1.675557899475097656e+01 -7.501330375671386719e-01 6.806653738021850586e-01 -2.084029652178287506e-02 -8.866573125123977661e-02
1.944000000000000000e+03 5.080594539642333984e+00 -5.525958538055419922e+00 -1.115430239588022232e-02 -9.463291615247726440e-03 -6.185278296470642090e-03 -1.602603495121002197e-02
1.945000000000000000e+03 8.362992286682128906e+00 -5.316715240478515625e+00 -3.174976259469985962e-02 5.315072368830442429e-03 -7.930407300591468811e-03 -1.571986265480518341e-02
1.946000000000000000e+03 8.877292633056640625e+00 -5.674444198608398438e+00 -3.609609603881835938e-02 2.402301412075757980e-03 -1.010813843458890915e-02 -2.087492123246192932e-02
1.947000000000000000e+03 5.516291809082031250e+01 -3.905209302902221680e+00 -2.182775735855102539e+00 6.732046127319335938e+00 1.364781141281127930e+00 -3.265920877456665039e+00
1.948000000000000000e+03 6.465762329101562500e+01 8.577491044998168945e-01 -2.165066957473754883e+00 4.931769847869873047e+00 8.300109505653381348e-01 3.261456012725830078e+00
1.949000000000000000e+03 3.091610336303710938e+01 -1.102065658569335938e+01 -3.944613933563232422e-01 2.273746728897094727e-01 -5.012601613998413086e-02 1.094152852892875671e-01
1.950000000000000000e+03 3.223344802856445312e+01 -1.558576869964599609e+01 -3.935195505619049072e-01 3.120922446250915527e-01 -2.442819252610206604e-02 1.685366965830326080e-02
1.951000000000000000e+03 6.097666168212890625e+01 -1.303281116485595703e+01 3.976023793220520020e-01 7.664269924163818359e+00 2.418561697006225586e+00 -1.921178400516510010e-01
1.952000000000000000e+03 1.265718841552734375e+01 -7.057922840118408203e+00 -8.069493621587753296e-02 2.839372493326663971e-02 -1.569036394357681274e-02 -1.497733127325773239e-02
1.953000000000000000e+03 1.490729141235351562e+01 -7.218741416931152344e+00 -1.102964952588081360e-01 2.561732009053230286e-02 -2.540375292301177979e-02 -4.160955082625150681e-03
1.954000000000000000e+03 7.028885650634765625e+01 -2.641175031661987305e+00 -3.060837745666503906e+00 4.723317623138427734e+00 4.987440407276153564e-01 -2.346791744232177734e+00
1.955000000000000000e+03 4.943360519409179688e+01 1.803769707679748535e+00 2.836126565933227539e+00 5.356101036071777344e+00 2.457668304443359375e+00 2.204872608184814453e+00
1.956000000000000000e+03 5.812734603881835938e+01 -3.239923477172851562e+00 1.606504172086715698e-01 4.677383899688720703e+00 1.451410412788391113e+00 -2.259980440139770508e+00
1.957000000000000000e+03 5.821937942504882812e+01 -1.667599678039550781e+00 -4.872337877750396729e-01 2.988337755203247070e+00 7.503312230110168457e-01 -2.499433994293212891e+00
1.958000000000000000e+03 6.711312866210937500e+01 3.204905509948730469e+00 1.145285725593566895e+00 7.799955368041992188e+00 2.683572292327880859e+00 7.891646027565002441e-01
1.959000000000000000e+03 2.318305206298828125e+01 7.457762718200683594e+00 -2.658252120018005371e-01 -1.422114786691963673e-03 -8.017419278621673584e-02 -1.492319405078887939e-01
1.960000000000000000e+03 7.727953338623046875e+01 -1.315782189369201660e+00 -7.306498885154724121e-01 9.255434036254882812e+00 2.557435035705566406e+00 1.085841178894042969e+00
1.961000000000000000e+03 5.074684619903564453e+00 9.161325454711914062e+00 -2.926926314830780029e-01 3.109261691570281982e-01 5.470062606036663055e-03 -2.241445928812026978e-01
1.962000000000000000e+03 7.221807098388671875e+01 -2.122874259948730469e+00 -1.703749179840087891e+00 4.232900142669677734e+00 7.587452530860900879e-01 -2.719191789627075195e+00
1.963000000000000000e+03 1.633054924011230469e+01 -6.652936935424804688e+00 -1.088656932115554810e-01 1.180388778448104858e-02 -2.911854162812232971e-02 1.775853894650936127e-02
1.964000000000000000e+03 1.789015007019042969e+01 -8.368010520935058594e+00 -1.899561434984207153e-01 3.048321604728698730e-02 -4.784187674522399902e-02 1.115865167230367661e-02
1.965000000000000000e+03 6.583241271972656250e+01 1.534362196922302246e+00 -2.556732594966888428e-01 5.424837112426757812e+00 1.550749182701110840e+00 2.672416448593139648e+00
1.966000000000000000e+03 6.779485321044921875e+01 8.290710449218750000e+00 -7.747749686241149902e-01 1.139809894561767578e+01 3.186997175216674805e+00 -1.437006831169128418e+00
1.967000000000000000e+03 6.882573699951171875e+01 9.921664237976074219e+00 7.908930778503417969e-01 9.032092094421386719e+00 2.946895599365234375e+00 -6.719847023487091064e-02
1.968000000000000000e+03 2.946605300903320312e+01 -7.374745607376098633e-02 1.613301396369934082e+00 4.010750949382781982e-01 6.043129563331604004e-01 1.785591542720794678e-01
1.969000000000000000e+03 4.019464015960693359e+00 8.971807479858398438e+00 -1.791500300168991089e-01 2.932275533676147461e-01 3.422325477004051208e-02 -2.713214159011840820e-01
1.970000000000000000e+03 5.732135295867919922e+00 -9.698636054992675781e+00 -3.030022978782653809e-02 -2.094291895627975464e-02 -1.537294499576091766e-02 -4.563907906413078308e-02
1.971000000000000000e+03 7.590510559082031250e+01 -1.785040855407714844e+01 -4.092887938022613525e-01 8.396642684936523438e+00 2.396206378936767578e+00 -4.364341497421264648e-01
1.972000000000000000e+03 4.353963375091552734e+00 -8.467269897460937500e+00 -1.932313106954097748e-02 -1.931979320943355560e-02 -1.159287709742784500e-02 -2.870177105069160461e-02
1.973000000000000000e+03 5.953798294067382812e+01 -3.602563142776489258e+00 8.084347248077392578e-01 5.301524162292480469e+00 1.832987666130065918e+00 -1.038421511650085449e+00
1.974000000000000000e+03 7.112736511230468750e+01 1.416876792907714844e+01 1.774090766906738281e+00 5.055362701416015625e+00 2.048835992813110352e+00 5.687448978424072266e-01
1.975000000000000000e+03 7.221312713623046875e+01 1.280023860931396484e+01 1.676628589630126953e+00 3.830745458602905273e+00 1.652212262153625488e+00 -5.994862318038940430e-01
1.976000000000000000e+03 4.588664531707763672e+00 2.091646766662597656e+01 -2.855652384459972382e-02 1.572650820016860962e-01 3.861256688833236694e-02 7.386966794729232788e-02
1.977000000000000000e+03 5.980299472808837891e+00 2.373422431945800781e+01 -5.669897049665451050e-02 8.595751225948333740e-02 8.777562528848648071e-03 1.315309852361679077e-01
1.978000000000000000e+03 7.384067535400390625e+01 -1.430149269104003906e+01 9.091426730155944824e-01 1.000762939453125000e+01 3.275031566619873047e+00 -2.235824614763259888e-01
1.979000000000000000e+03 2.989990234375000000e+01 -1.107504367828369141e+01 -3.800299465656280518e-01 3.974225521087646484e-01 5.217780359089374542e-03 7.652979344129562378e-02
1.980000000000000000e+03 2.956055831909179688e+01 -1.401163864135742188e+01 -5.027574896812438965e-01 4.253757297992706299e-01 -2.321452461183071136e-02 3.665777668356895447e-02
1.981000000000000000e+03 7.511134338378906250e+01 -6.823311328887939453e+00 2.815419137477874756e-01 8.163297653198242188e+00 2.533451795578002930e+00 1.178094983100891113e+00
1.982000000000000000e+03 7.565931701660156250e+01 1.607615089416503906e+01 4.108049273490905762e-01 5.901941299438476562e+00 1.893823981285095215e+00 -4.981152117252349854e-01
1.983000000000000000e+03 7.351410675048828125e+01 1.468099403381347656e+01 1.464510083198547363e+00 5.096537113189697266e+00 1.968314170837402344e+00 -2.810665369033813477e-01
1.984000000000000000e+03 7.559130859375000000e+01 -1.650942993164062500e+01 4.385177046060562134e-02 8.783008575439453125e+00 2.648058176040649414e+00 -5.133791565895080566e-01
1.985000000000000000e+03 5.098285675048828125e+01 2.893900156021118164e+00 3.851337432861328125e+00 8.565238952636718750e+00 3.724972724914550781e+00 4.276773333549499512e-01
1.986000000000000000e+03 7.424025726318359375e+01 -3.600810623168945312e+01 1.044701226055622101e-02 6.992669582366943359e+00 2.100934982299804688e+00 3.057673759758472443e-02
1.987000000000000000e+03 7.660925292968750000e+01 -3.567204284667968750e+01 -3.632660955190658569e-02 7.457945346832275391e+00 2.226485490798950195e+00 2.573336660861968994e-02
1.988000000000000000e+03 7.478499603271484375e+01 -1.809943580627441406e+01 -5.691613554954528809e-01 8.676417350769042969e+00 2.432176828384399414e+00 -8.300606906414031982e-02
1.989000000000000000e+03 7.450750732421875000e+01 1.770622062683105469e+01 5.855072140693664551e-01 5.917345523834228516e+00 1.950855851173400879e+00 3.061454929411411285e-02
1.990000000000000000e+03 6.912305450439453125e+01 -2.086278533935546875e+01 7.188502550125122070e-01 4.338937759399414062e+00 1.517336368560791016e+00 3.519281446933746338e-01
1.991000000000000000e+03 7.150717163085937500e+01 -1.926926422119140625e+01 1.056400220841169357e-02 5.628746986389160156e+00 1.691793203353881836e+00 1.173655271530151367e+00
1.992000000000000000e+03 5.432641601562500000e+01 1.301872539520263672e+01 2.718177556991577148e+00 8.525729179382324219e+00 3.373172044754028320e+00 2.376838207244873047e+00
1.993000000000000000e+03 6.076366806030273438e+01 -4.657729625701904297e+00 1.479009628295898438e+00 7.550157070159912109e+00 2.708750009536743164e+00 8.199870586395263672e-03
1.994000000000000000e+03 5.288527679443359375e+01 1.669352722167968750e+01 -2.194956541061401367e-01 1.012405109405517578e+01 2.971366643905639648e+00 1.244536042213439941e+00
1.995000000000000000e+03 4.457069015502929688e+01 -1.771726989746093750e+01 -4.324221611022949219e-01 3.345292329788208008e+00 8.738610148429870605e-01 -3.289231359958648682e-01
1.996000000000000000e+03 7.297196865081787109e+00 1.301832962036132812e+01 -1.665204763412475586e-01 1.443872153759002686e-01 -6.639976054430007935e-03 -7.659979909658432007e-02
1.997000000000000000e+03 4.423318862915039062e+00 1.264915275573730469e+01 -8.866039663553237915e-02 1.959544420242309570e-01 3.218821063637733459e-02 -1.369668692350387573e-01
1.998000000000000000e+03 6.504446983337402344e+00 1.134253025054931641e+01 -2.173034250736236572e-01 1.878335773944854736e-01 -8.840955793857574463e-03 -1.033590883016586304e-01
1.999000000000000000e+03 4.848387908935546875e+01 2.002172946929931641e+00 2.562481164932250977e+00 3.749266147613525391e+00 1.893524169921875000e+00 2.785192012786865234e+00
2.000000000000000000e+03 2.352199363708496094e+01 -1.184225463867187500e+01 -1.949082314968109131e-01 1.319736689329147339e-01 -1.888036541640758514e-02 1.641944497823715210e-01
2.001000000000000000e+03 2.670892524719238281e+01 -1.434788227081298828e+00 9.372527003288269043e-01 -2.066298574209213257e-01 2.191868424415588379e-01 1.118798777461051941e-01
2.002000000000000000e+03 5.959757328033447266e+00 -1.538445854187011719e+01 -1.595205813646316528e-02 -6.230028718709945679e-02 -2.347570285201072693e-02 -8.551342785358428955e-02
2.003000000000000000e+03 5.469180107116699219e+00 -1.208831691741943359e+01 -2.769249305129051208e-02 -3.409713134169578552e-02 -1.853688806295394897e-02 -5.828693136572837830e-02
2.004000000000000000e+03 5.948016357421875000e+01 -6.168369770050048828e+00 1.156554937362670898e+00 7.268397331237792969e+00 2.527485609054565430e+00 -1.502850204706192017e-01
2.005000000000000000e+03 5.995960617065429688e+01 -7.879164218902587891e+00 1.126449823379516602e+00 8.113384246826171875e+00 2.771950006484985352e+00 4.838653206825256348e-01
2.006000000000000000e+03 5.209576606750488281e+00 -2.232854843139648438e+01 -6.205981131643056870e-03 -1.546229124069213867e-01 -4.824866726994514465e-02 -9.700891375541687012e-02
2.007000000000000000e+03 5.981299877166748047e+00 -2.015624618530273438e+01 -7.513310760259628296e-03 -1.160189285874366760e-01 -3.705967217683792114e-02 -9.993536770343780518e-02
2.008000000000000000e+03 5.909103012084960938e+01 -2.043869972229003906e+01 -1.079430937767028809e+00 7.725553989410400391e+00 1.993836879730224609e+00 -5.168853402137756348e-01
2.009000000000000000e+03 7.477503967285156250e+01 1.310322570800781250e+01 5.796297788619995117e-01 5.069563865661621094e+00 1.694758057594299316e+00 -1.725570082664489746e+00
2.010000000000000000e+03 7.327781677246093750e+01 -2.591572046279907227e+00 -4.763384461402893066e-01 4.531260490417480469e+00 1.216476678848266602e+00 -1.218379259109497070e+00
2.011000000000000000e+03 5.290614318847656250e+01 1.019725608825683594e+01 1.506411552429199219e+00 1.309477233886718750e+01 4.380355358123779297e+00 1.724971532821655273e-01
2.012000000000000000e+03 7.426618957519531250e+01 2.109108924865722656e+01 1.381507664918899536e-01 6.163564205169677734e+00 1.890514492988586426e+00 2.300830185413360596e-01
2.013000000000000000e+03 7.514427947998046875e+01 2.197799682617187500e+01 1.365174651145935059e-01 6.173728942871093750e+00 1.893073916435241699e+00 2.031194418668746948e-01
2.014000000000000000e+03 4.590581512451171875e+01 -1.737131500244140625e+01 -6.204560399055480957e-01 2.444191217422485352e+00 5.471205711364746094e-01 -5.128192901611328125e-01
2.015000000000000000e+03 5.960692214965820312e+01 -2.224333572387695312e+01 -1.207661509513854980e+00 6.703361034393310547e+00 1.648709893226623535e+00 -5.560641288757324219e-01
2.016000000000000000e+03 3.232883453369140625e+01 -1.816916275024414062e+01 -1.711941659450531006e-01 4.888539910316467285e-01 9.529794752597808838e-02 -3.297234699130058289e-02
2.017000000000000000e+03 4.856349945068359375e+00 -3.022857856750488281e+01 1.136818528175354004e-02 -2.745041549205780029e-01 -7.894079387187957764e-02 -7.503045350313186646e-02
2.018000000000000000e+03 3.836614227294921875e+01 -2.207795906066894531e+01 -5.366045832633972168e-01 1.849916219711303711e+00 3.939934968948364258e-01 5.579681992530822754e-01
2.019000000000000000e+03 6.220838165283203125e+01 -1.639892768859863281e+01 2.216607630252838135e-01 6.437217712402343750e+00 1.997663497924804688e+00 -1.237153768539428711e+00
2.020000000000000000e+03 1.609452629089355469e+01 1.836030578613281250e+01 -4.835747182369232178e-01 -1.580477575771510601e-03 -1.455465555191040039e-01 6.207558512687683105e-02
2.021000000000000000e+03 1.261024093627929688e+01 1.841866874694824219e+01 -2.907555699348449707e-01 2.880834043025970459e-02 -7.858416438102722168e-02 7.333366572856903076e-02
2.022000000000000000e+03 1.264162540435791016e+01 1.754647636413574219e+01 -3.024151623249053955e-01 1.638370566070079803e-02 -8.580943197011947632e-02 3.256926313042640686e-02
2.023000000000000000e+03 5.841267395019531250e+01 -1.262924766540527344e+01 8.315213918685913086e-01 9.022437095642089844e+00 2.956187486648559570e+00 -2.882037311792373657e-02
2.024000000000000000e+03 5.720685195922851562e+01 1.744169807434082031e+01 1.252821445465087891e+00 4.727777957916259766e+00 1.794179797172546387e+00 2.242653846740722656e+00
2.025000000000000000e+03 7.891632080078125000e+00 -2.495102500915527344e+01 5.994290695525705814e-04 -1.121970042586326599e-01 -3.347927331924438477e-02 -1.257980167865753174e-01
2.026000000000000000e+03 7.218134307861328125e+01 -2.067928695678710938e+01 -4.027045965194702148e-01 6.454438686370849609e+00 1.815520167350769043e+00 9.120680689811706543e-01
2.027000000000000000e+03 8.559550285339355469e+00 1.111481380462646484e+01 -1.948253065347671509e-01 1.449874788522720337e-01 -1.495134551078081131e-02 -8.986485749483108521e-02
2.028000000000000000e+03 3.378949737548828125e+01 1.424728751182556152e+00 7.493213415145874023e-01 -1.078330278396606445e-01 1.924464851617813110e-01 4.054257869720458984e-01
2.029000000000000000e+03 5.295817947387695312e+01 -2.377463150024414062e+01 -6.936529278755187988e-02 2.351931571960449219e+00 6.847698688507080078e-01 7.613800168037414551e-01
2.030000000000000000e+03 5.705400085449218750e+01 -2.389521217346191406e+01 -1.093436241149902344e+00 5.937894344329833984e+00 1.453337430953979492e+00 7.014428973197937012e-01
2.031000000000000000e+03 5.863856792449951172e+00 1.811603736877441406e+01 -1.114168688654899597e-01 1.479441225528717041e-01 1.095817424356937408e-02 2.409929409623146057e-02
2.032000000000000000e+03 7.481507110595703125e+01 -2.831002807617187500e+01 3.197652846574783325e-02 7.095081329345703125e+00 2.138117313385009766e+00 1.288284212350845337e-01
2.033000000000000000e+03 5.687756061553955078e+00 1.536034584045410156e+01 -1.398814320564270020e-01 1.716261208057403564e-01 9.523406624794006348e-03 -5.104957520961761475e-02
2.034000000000000000e+03 6.147559356689453125e+01 2.037382507324218750e+01 1.088183403015136719e+00 4.364873886108398438e+00 1.635917186737060547e+00 1.268305033445358276e-01
2.035000000000000000e+03 7.567440795898437500e+01 -1.003133678436279297e+01 1.029601573944091797e+00 8.877189636230468750e+00 2.972037315368652344e+00 8.092339634895324707e-01
2.036000000000000000e+03 7.439192962646484375e+01 -2.995601844787597656e+01 8.066143840551376343e-02 6.987857818603515625e+00 2.120555639266967773e+00 1.259997636079788208e-01
2.037000000000000000e+03 6.103217697143554688e+01 -1.675257682800292969e+01 4.866501390933990479e-01 6.904132366180419922e+00 2.217234849929809570e+00 -1.311462521553039551e+00
2.038000000000000000e+03 2.428452110290527344e+01 1.992765426635742188e+01 -6.384678483009338379e-01 -2.557981908321380615e-01 -2.682798206806182861e-01 1.530621945858001709e-01
2.039000000000000000e+03 4.857464599609375000e+01 -1.878425025939941406e+01 -1.273208141326904297e+00 1.327653527259826660e+00 1.633361540734767914e-02 -2.780089080333709717e-01
2.040000000000000000e+03 5.048280715942382812e+01 2.074462890625000000e+01 -8.170267343521118164e-01 6.229354381561279297e+00 1.623698234558105469e+00 -1.330027699470520020e+00
2.041000000000000000e+03 7.421399688720703125e+01 -6.865246772766113281e+00 2.965472340583801270e-01 8.155498504638671875e+00 2.535613775253295898e+00 8.505361676216125488e-01
2.042000000000000000e+03 7.621153259277343750e+01 2.654446983337402344e+01 -3.125446662306785583e-02 6.269227981567382812e+00 1.871392011642456055e+00 2.096815854310989380e-01
2.043000000000000000e+03 4.421169757843017578e+00 -1.441556358337402344e+01 -8.232148364186286926e-03 -6.944508105516433716e-02 -2.330316789448261261e-02 -6.521046161651611328e-02
2.044000000000000000e+03 2.879327011108398438e+01 -1.125469493865966797e+01 -3.597789108753204346e-01 3.956771194934844971e-01 1.076946500688791275e-02 4.831787943840026855e-02
2.045000000000000000e+03 2.973915100097656250e+01 -1.003460597991943359e+01 -3.156373500823974609e-01 3.385498225688934326e-01 6.873747333884239197e-03 7.562739402055740356e-02
2.046000000000000000e+03 7.543711090087890625e+01 -4.417010784149169922e+00 -1.224797666072845459e-01 7.441408634185791016e+00 2.195678710937500000e+00 1.061428070068359375e+00
2.047000000000000000e+03 5.629330635070800781e+00 1.265921497344970703e+01 -1.837768852710723877e-01 1.853996813297271729e-01 4.868362739216536283e-04 -1.145919561386108398e-01
2.048000000000000000e+03 7.587472534179687500e+01 1.854448890686035156e+01 2.933560609817504883e-01 6.007473468780517578e+00 1.890248775482177734e+00 -5.330518819391727448e-03
2.049000000000000000e+03 4.862576484680175781e+00 3.088201141357421875e+01 1.573116704821586609e-02 -3.573763743042945862e-02 -6.001940928399562836e-03 1.322308033704757690e-01
2.050000000000000000e+03 4.547784805297851562e+01 2.061342811584472656e+01 1.972470730543136597e-01 2.111091136932373047e+00 6.925014853477478027e-01 -1.285347819328308105e+00
2.051000000000000000e+03 6.694306850433349609e+00 -1.906077766418457031e+01 -1.278825383633375168e-02 -9.449283778667449951e-02 -3.218432888388633728e-02 -1.176300495862960815e-01
2.052000000000000000e+03 7.648265075683593750e+01 -5.992911815643310547e+00 1.659729182720184326e-01 8.509095191955566406e+00 2.602520465850830078e+00 1.471487283706665039e+00
2.053000000000000000e+03 7.518042755126953125e+01 -5.649683952331542969e+00 -1.048943623900413513e-01 7.697660446166992188e+00 2.277829885482788086e+00 1.173635721206665039e+00
2.054000000000000000e+03 6.787620067596435547e+00 3.581620788574218750e+01 6.562702357769012451e-02 -1.056714132428169250e-01 -1.201331615447998047e-02 1.133615225553512573e-01
2.055000000000000000e+03 4.164400100708007812e+00 3.506385803222656250e+01 3.594632819294929504e-02 -1.096715331077575684e-01 -2.211756072938442230e-02 8.923048526048660278e-02
2.056000000000000000e+03 4.573760986328125000e+00 1.952094650268554688e+01 -6.953873485326766968e-02 1.706959754228591919e-01 3.034717217087745667e-02 4.564229771494865417e-02
2.057000000000000000e+03 7.233144283294677734e+00 -1.786551856994628906e+01 -2.306509576737880707e-02 -6.387484073638916016e-02 -2.608198113739490509e-02 -1.084763854742050171e-01
2.058000000000000000e+03 4.951885223388671875e+00 -1.781269454956054688e+01 -1.674966141581535339e-02 -1.034804582595825195e-01 -3.606903553009033203e-02 -9.038686752319335938e-02
2.059000000000000000e+03 6.992927551269531250e+01 1.270649719238281250e+01 2.066300868988037109e+00 5.522773265838623047e+00 2.276722192764282227e+00 1.332694768905639648e+00
2.060000000000000000e+03 6.897864532470703125e+01 1.930203819274902344e+01 3.031746745109558105e-01 6.703677177429199219e+00 2.102055549621582031e+00 1.331558674573898315e-01
2.061000000000000000e+03 2.971679115295410156e+01 1.760324859619140625e+01 -9.340940117835998535e-01 6.097022444009780884e-02 -2.619371414184570312e-01 4.504347145557403564e-01
2.062000000000000000e+03 3.482232666015625000e+01 2.014019775390625000e+01 -3.746096193790435791e-01 -7.295892108231782913e-03 -1.145716533064842224e-01 8.666015416383743286e-02
2.063000000000000000e+03 6.703797149658203125e+01 -2.064801788330078125e+01 6.328810453414916992e-01 4.246462345123291016e+00 1.463803052902221680e+00 -7.317559123039245605e-01
2.064000000000000000e+03 6.832716369628906250e+01 -1.958982849121093750e+01 4.900660812854766846e-01 3.200476408004760742e+00 1.107162714004516602e+00 -3.602316379547119141e-01
2.065000000000000000e+03 4.344866180419921875e+01 1.985965538024902344e+01 5.917810648679733276e-02 1.238124847412109375e+00 3.891908824443817139e-01 -7.957948446273803711e-01
2.066000000000000000e+03 5.974007606506347656e+00 2.234008598327636719e+01 -4.258654266595840454e-02 1.044800877571105957e-01 1.856806501746177673e-02 1.174732819199562073e-01
2.067000000000000000e+03 2.748701286315917969e+01 -1.132095527648925781e+01 -3.785735964775085449e-01 5.549045801162719727e-01 5.289930105209350586e-02 5.479847267270088196e-02
2.068000000000000000e+03 1.897393417358398438e+01 -1.263068675994873047e+01 -1.987650394439697266e-01 7.633100450038909912e-02 -3.673021122813224792e-02 -8.251430839300155640e-02
2.069000000000000000e+03 4.731768798828125000e+01 -1.961910629272460938e+01 -8.963307738304138184e-01 1.946513652801513672e+00 3.150548636913299561e-01 -8.101239800453186035e-01
2.070000000000000000e+03 1.102283668518066406e+01 -5.943730354309082031e+00 -5.946036428213119507e-02 1.629968732595443726e-02 -1.294820383191108704e-02 -1.628789864480495453e-02
2.071000000000000000e+03 1.259984016418457031e+01 -5.831659793853759766e+00 -6.809764355421066284e-02 2.113097906112670898e-02 -1.408999972045421600e-02 -6.860104855149984360e-03
2.072000000000000000e+03 5.606004714965820312e+00 -6.673357486724853516e+00 -1.449800189584493637e-02 -1.187845040112733841e-02 -7.912935689091682434e-03 -2.261197939515113831e-02
2.073000000000000000e+03 5.952734947204589844e+00 -5.871623516082763672e+00 -2.330635301768779755e-02 -2.221495611593127251e-03 -7.658354472368955612e-03 -1.651459001004695892e-02
2.074000000000000000e+03 3.830271530151367188e+01 1.837917137145996094e+01 -6.892401576042175293e-01 2.443264871835708618e-01 -1.334740966558456421e-01 -1.293542534112930298e-01
2.075000000000000000e+03 3.881491470336914062e+01 1.593145179748535156e+01 -1.111015081405639648e+00 3.778614699840545654e-01 -2.199460864067077637e-01 1.353859156370162964e-02
2.076000000000000000e+03 1.326689624786376953e+01 -7.695927619934082031e+00 -1.014785394072532654e-01 2.875618822872638702e-02 -2.181670442223548889e-02 -2.764805220067501068e-02
2.077000000000000000e+03 9.524144172668457031e+00 -5.821533679962158203e+00 -4.627969861030578613e-02 9.981010109186172485e-03 -1.088960655033588409e-02 -1.792579516768455505e-02
2.078000000000000000e+03 7.858436584472656250e+00 -5.976860046386718750e+00 -2.978693321347236633e-02 -3.600938245654106140e-03 -1.001636125147342682e-02 -2.329357713460922241e-02
2.079000000000000000e+03 9.246877670288085938e+00 -6.719887256622314453e+00 -4.431025683879852295e-02 5.098351277410984039e-03 -1.176357176154851913e-02 -2.815022692084312439e-02
2.080000000000000000e+03 3.978401184082031250e+01 1.767828941345214844e+01 -6.809865236282348633e-01 5.146498084068298340e-01 -4.990101233124732971e-02 -1.027224138379096985e-01
2.081000000000000000e+03 4.140639495849609375e+01 1.807295227050781250e+01 -4.331967234611511230e-01 6.520370841026306152e-01 6.565211713314056396e-02 -2.086993306875228882e-01
2.082000000000000000e+03 4.013807296752929688e+01 -5.553574562072753906e+00 1.050170421600341797e+00 1.211037993431091309e+00 6.783625483512878418e-01 3.970047831535339355e-01
2.083000000000000000e+03 1.580768680572509766e+01 -9.730792045593261719e+00 -1.641550362110137939e-01 5.655089393258094788e-02 -3.228124231100082397e-02 -4.980074614286422729e-02
2.084000000000000000e+03 1.713804817199707031e+01 -7.419805049896240234e+00 -1.540045291185379028e-01 3.099312074482440948e-02 -3.690342232584953308e-02 2.884761616587638855e-02
2.085000000000000000e+03 5.838813018798828125e+01 -5.931554794311523438e+00 7.780789732933044434e-01 6.436707973480224609e+00 2.164436101913452148e+00 -8.196968436241149902e-01
2.086000000000000000e+03 3.050918006896972656e+01 -1.203629493713378906e+01 -4.203567504882812500e-01 3.096313178539276123e-01 -3.321763500571250916e-02 9.166380763053894043e-02
2.087000000000000000e+03 6.387030410766601562e+01 -1.808456230163574219e+01 2.677815556526184082e-01 5.093622207641601562e+00 1.608421087265014648e+00 -1.608789443969726562e+00
2.088000000000000000e+03 1.416263675689697266e+01 -9.311031341552734375e+00 -1.335151046514511108e-01 4.588542506098747253e-02 -2.628890611231327057e-02 -5.150903016328811646e-02
2.089000000000000000e+03 1.333464336395263672e+01 -6.158633232116699219e+00 -7.644688338041305542e-02 1.636753045022487640e-02 -1.802380569279193878e-02 -8.528996258974075317e-03
2.090000000000000000e+03 1.182512092590332031e+01 -5.874851226806640625e+00 -5.550580471754074097e-02 1.348814927041530609e-02 -1.260529644787311554e-02 -1.099974662065505981e-02
2.091000000000000000e+03 7.429899597167968750e+01 -3.557968616485595703e+00 -5.029448270797729492e-01 5.810305595397949219e+00 1.592208266258239746e+00 3.565047085285186768e-01
2.092000000000000000e+03 7.475971984863281250e+01 -1.575165510177612305e+00 -8.796707391738891602e-01 4.994771480560302734e+00 1.234530210494995117e+00 5.692228674888610840e-01
2.093000000000000000e+03 7.532698059082031250e+01 1.374743843078613281e+01 4.678280949592590332e-01 5.607235908508300781e+00 1.822519183158874512e+00 -1.318895936012268066e+00
2.094000000000000000e+03 6.281117916107177734e+00 -7.556001186370849609e+00 -2.067895978689193726e-02 -8.893508464097976685e-03 -8.871740661561489105e-03 -2.700021676719188690e-02
2.095000000000000000e+03 6.851686477661132812e+00 9.046631813049316406e+00 -1.200693696737289429e-01 2.787735760211944580e-01 4.761125892400741577e-02 -1.137572303414344788e-01
2.096000000000000000e+03 7.410462188720703125e+01 -1.971947479248046875e+01 -3.802666664123535156e-01 7.631782054901123047e+00 2.175454616546630859e+00 5.508437752723693848e-01
2.097000000000000000e+03 7.337964534759521484e+00 1.005158519744873047e+01 -2.548616230487823486e-01 1.879446953535079956e-01 -2.007507346570491791e-02 -9.018149226903915405e-02
2.098000000000000000e+03 1.406913566589355469e+01 -6.725697040557861328e+00 -9.438849240541458130e-02 3.158780559897422791e-02 -1.884020678699016571e-02 -3.089394420385360718e-03
2.099000000000000000e+03 5.578212261199951172e+00 1.046692180633544922e+01 -2.190245985984802246e-01 2.276385873556137085e-01 2.584196627140045166e-03 -1.747229844331741333e-01
2.100000000000000000e+03 7.542368412017822266e+00 1.212396430969238281e+01 -2.076583653688430786e-01 1.593642979860305786e-01 -1.448821742087602615e-02 -1.037634983658790588e-01
2.101000000000000000e+03 4.509699249267578125e+01 -1.931035614013671875e+01 -7.621538639068603516e-01 2.818332195281982422e+00 6.168534755706787109e-01 -6.676980257034301758e-01
2.102000000000000000e+03 9.874516487121582031e+00 1.554962062835693359e+01 -2.266399562358856201e-01 8.564224094152450562e-02 -4.229931905865669250e-02 -3.142521157860755920e-02
2.103000000000000000e+03 6.330560302734375000e+01 -1.898753929138183594e+01 5.425836145877838135e-02 5.374356746673583984e+00 1.628584623336791992e+00 -1.758608818054199219e+00
2.104000000000000000e+03 3.549845123291015625e+01 1.888567733764648438e+01 -6.274681687355041504e-01 -8.801005780696868896e-02 -2.146434634923934937e-01 4.597119987010955811e-02
2.105000000000000000e+03 6.142857360839843750e+01 -5.654022693634033203e-01 -3.205416917800903320e+00 5.186694145202636719e+00 5.943830609321594238e-01 1.110266089439392090e+00
2.106000000000000000e+03 6.863583087921142578e+00 1.534455204010009766e+01 -1.229226514697074890e-01 1.453972607851028442e-01 6.742380093783140182e-03 -4.412040486931800842e-02
2.107000000000000000e+03 5.706933975219726562e+00 1.398573017120361328e+01 -1.031452640891075134e-01 1.725748777389526367e-01 2.082888223230838776e-02 -9.227659553289413452e-02
2.108000000000000000e+03 5.820190048217773438e+01 -7.694848060607910156e+00 7.325085401535034180e-01 7.270883083343505859e+00 2.401017427444458008e+00 -3.578265905380249023e-01
2.109000000000000000e+03 5.865575027465820312e+01 -4.010339736938476562e+00 6.687911152839660645e-01 5.498619079589843750e+00 1.850223064422607422e+00 -1.650128960609436035e+00
2.110000000000000000e+03 4.392428588867187500e+01 2.140397644042968750e+01 1.558346599340438843e-01 1.690536499023437500e+00 5.539113283157348633e-01 -9.316889643669128418e-01
2.111000000000000000e+03 7.225988006591796875e+01 1.403542709350585938e+01 1.901180148124694824e+00 4.655952453613281250e+00 1.967139720916748047e+00 2.709017135202884674e-02
2.112000000000000000e+03 5.806471252441406250e+01 -4.586277484893798828e+00 4.960599839687347412e-01 5.540914058685302734e+00 1.811092257499694824e+00 -1.683037161827087402e+00
2.113000000000000000e+03 5.994728469848632812e+01 -1.195415407419204712e-01 -2.575556516647338867e+00 2.842091798782348633e+00 7.996057718992233276e-02 -1.744744628667831421e-01
2.114000000000000000e+03 3.191628074645996094e+01 -1.954928398132324219e+01 -1.515947878360748291e-01 4.548102319240570068e-01 9.096463769674301147e-02 1.734852604568004608e-02
2.115000000000000000e+03 7.313610839843750000e+01 -2.004386138916015625e+01 -3.588246405124664307e-01 6.862872123718261719e+00 1.951214194297790527e+00 6.992601752281188965e-01
2.116000000000000000e+03 2.210500717163085938e+01 -1.402744674682617188e+01 -1.773313432931900024e-01 1.902538239955902100e-01 3.876740345731377602e-03 2.162505686283111572e-02
2.117000000000000000e+03 5.741744995117187500e+01 -2.497827529907226562e+00 1.061127707362174988e-02 3.977313995361328125e+00 1.196377635002136230e+00 -3.538006305694580078e+00
2.118000000000000000e+03 4.489655971527099609e+00 1.674973297119140625e+01 -9.116100519895553589e-02 1.880928426980972290e-01 2.907955087721347809e-02 -1.650932431221008301e-02
2.119000000000000000e+03 4.722416400909423828e+00 -1.677440643310546875e+01 -5.997196771204471588e-03 -9.527157992124557495e-02 -3.038063272833824158e-02 -7.765830308198928833e-02
2.120000000000000000e+03 6.078501892089843750e+01 -1.556560039520263672e+01 5.896819829940795898e-01 7.173870563507080078e+00 2.329065799713134766e+00 -7.098201513290405273e-01
2.121000000000000000e+03 1.995841026306152344e+01 1.982474899291992188e+01 -5.478163361549377441e-01 -1.643437594175338745e-01 -2.136480212211608887e-01 2.299212515354156494e-01
2.122000000000000000e+03 1.532521057128906250e+01 2.128701210021972656e+01 -3.027199506759643555e-01 -2.843620069324970245e-02 -9.934684634208679199e-02 2.105938792228698730e-01
2.123000000000000000e+03 7.364851379394531250e+01 -2.718601417541503906e+01 1.415543258190155029e-01 6.779245376586914062e+00 2.076240062713623047e+00 1.760195195674896240e-01
2.124000000000000000e+03 7.315072631835937500e+01 1.382133388519287109e+01 1.464545845985412598e+00 4.571857929229736328e+00 1.810921072959899902e+00 -7.138913869857788086e-01
2.125000000000000000e+03 4.665601730346679688e+01 -2.471636772155761719e+01 -3.207240104675292969e-01 2.439552545547485352e+00 6.356485486030578613e-01 -4.246001541614532471e-01
2.126000000000000000e+03 6.450906276702880859e+00 2.808516502380371094e+01 4.579372238367795944e-03 4.794280976057052612e-03 2.812095917761325836e-03 1.758736073970794678e-01
2.127000000000000000e+03 6.037449264526367188e+01 -2.129451751708984375e+01 -4.608910381793975830e-01 6.323724269866943359e+00 1.758849978446960449e+00 -1.074679374694824219e+00
2.128000000000000000e+03 6.274245834350585938e+01 -1.990913200378417969e+01 1.448112428188323975e-01 5.801348209381103516e+00 1.783847808837890625e+00 -1.451497912406921387e+00
2.129000000000000000e+03 5.985195922851562500e+01 2.112700271606445312e+01 9.710726737976074219e-01 4.583643913269042969e+00 1.666414976119995117e+00 6.129373908042907715e-01
2.130000000000000000e+03 7.293022918701171875e+01 1.665381050109863281e+01 1.038123846054077148e+00 5.724740028381347656e+00 2.028859138488769531e+00 2.024839520454406738e-01
2.131000000000000000e+03 7.011348724365234375e+01 1.730479049682617188e+01 7.955361008644104004e-01 6.739719390869140625e+00 2.260576486587524414e+00 7.185048460960388184e-01
2.132000000000000000e+03 2.776799964904785156e+01 -1.287882709503173828e+01 -4.804213345050811768e-01 4.500563442707061768e-01 -9.109499864280223846e-03 7.259874045848846436e-02
2.133000000000000000e+03 2.468779373168945312e+01 2.308721160888671875e+01 -2.661184966564178467e-01 -1.722165197134017944e-01 -1.315004974603652954e-01 2.301774621009826660e-01
2.134000000000000000e+03 1.758553123474121094e+01 -1.369671916961669922e+01 -1.282519996166229248e-01 9.195048362016677856e-02 -1.089045312255620956e-02 -8.639907091856002808e-02
2.135000000000000000e+03 1.865191078186035156e+01 -1.484496021270751953e+01 -1.530787795782089233e-01 1.009876728057861328e-01 -1.562733016908168793e-02 -1.130043417215347290e-01
2.136000000000000000e+03 5.344976425170898438e+01 1.887061119079589844e+01 -6.811009049415588379e-01 7.887731075286865234e+00 2.161988973617553711e+00 1.096842765808105469e+00
2.137000000000000000e+03 4.947639083862304688e+01 2.249176979064941406e+01 -4.669454991817474365e-01 4.779797077178955078e+00 1.293855428695678711e+00 -1.236447453498840332e+00
2.138000000000000000e+03 7.638124847412109375e+01 2.775360870361328125e+01 -2.692857012152671814e-02 6.301245689392089844e+00 1.882295131683349609e+00 1.972223222255706787e-01
2.139000000000000000e+03 7.514007568359375000e+01 2.731778907775878906e+01 -3.199194744229316711e-02 6.291618824005126953e+00 1.877888083457946777e+00 2.315665036439895630e-01
2.140000000000000000e+03 8.363141059875488281e+00 -2.915218544006347656e+01 2.371217869222164154e-02 -1.455951631069183350e-01 -3.656489774584770203e-02 -1.164411380887031555e-01
2.141000000000000000e+03 8.157826423645019531e+00 -2.759093475341796875e+01 1.947258971631526947e-02 -1.314021497964859009e-01 -3.357886895537376404e-02 -1.161715313792228699e-01
2.142000000000000000e+03 3.339123916625976562e+01 -2.236499786376953125e+01 1.077734213322401047e-02 6.661710143089294434e-01 2.030844986438751221e-01 1.654076874256134033e-01
2.143000000000000000e+03 3.961849975585937500e+01 -2.348691749572753906e+01 -1.672780513763427734e-01 2.192525386810302734e+00 6.075741648674011230e-01 5.134416222572326660e-01
2.144000000000000000e+03 2.866688919067382812e+01 1.835300064086914062e+01 -9.596563577651977539e-01 9.235201030969619751e-02 -2.601912915706634521e-01 4.049085676670074463e-01
2.145000000000000000e+03 2.947703170776367188e+01 2.196578407287597656e+01 -4.151849448680877686e-01 1.904665958136320114e-03 -1.239840835332870483e-01 2.576099932193756104e-01
2.146000000000000000e+03 3.081610298156738281e+01 2.037415122985839844e+01 -6.017231941223144531e-01 -2.014270424842834473e-02 -1.865597665309906006e-01 3.231910467147827148e-01
2.147000000000000000e+03 5.656073379516601562e+01 -2.545424079895019531e+01 -7.866327762603759766e-01 4.566490650177001953e+00 1.133957386016845703e+00 8.588990569114685059e-01
2.148000000000000000e+03 2.318483734130859375e+01 2.150992202758789062e+01 -4.915948808193206787e-01 -2.291468828916549683e-01 -2.162225246429443359e-01 2.641582787036895752e-01
2.149000000000000000e+03 2.073838615417480469e+01 2.119441986083984375e+01 -4.996456801891326904e-01 -1.671021878719329834e-01 -2.000243663787841797e-01 2.926969230175018311e-01
2.150000000000000000e+03 2.078899955749511719e+01 1.907721900939941406e+01 -7.658142447471618652e-01 -1.757906675338745117e-01 -2.824814915657043457e-01 2.802332639694213867e-01
2.151000000000000000e+03 7.127481842041015625e+01 1.556652736663818359e+01 1.542654395103454590e+00 5.815180778503417969e+00 2.207350492477416992e+00 7.084445357322692871e-01
2.152000000000000000e+03 5.755421447753906250e+01 -5.421484470367431641e+00 2.656366825103759766e-01 6.170437335968017578e+00 1.930822253227233887e+00 -1.706630945205688477e+00
2.153000000000000000e+03 5.917401123046875000e+01 -8.405898094177246094e+00 8.134305477142333984e-01 8.026624679565429688e+00 2.652016639709472656e+00 1.579183638095855713e-01
2.154000000000000000e+03 7.309622192382812500e+01 -3.430370712280273438e+01 5.314403772354125977e-02 6.765710353851318359e+00 2.045656204223632812e+00 2.694340422749519348e-02
2.155000000000000000e+03 4.649647903442382812e+01 -1.850268745422363281e+01 -8.215743303298950195e-01 2.280472278594970703e+00 4.376693665981292725e-01 -5.756888985633850098e-01
2.156000000000000000e+03 4.784655094146728516e+00 3.236040115356445312e+01 2.343912795186042786e-02 -5.733922868967056274e-02 -1.017002947628498077e-02 1.212806254625320435e-01
2.157000000000000000e+03 8.463005065917968750e+00 3.239601135253906250e+01 5.890041589736938477e-02 -7.379291206598281860e-02 -4.467749968171119690e-03 1.805781722068786621e-01
2.158000000000000000e+03 5.436192321777343750e+01 -2.623470306396484375e+01 -3.013992309570312500e-01 3.439213514328002930e+00 9.413443207740783691e-01 7.325945496559143066e-01
2.159000000000000000e+03 1.818380737304687500e+01 -1.147118473052978516e+01 -1.835077852010726929e-01 7.580836117267608643e-02 -3.230982646346092224e-02 -4.835224896669387817e-02
2.160000000000000000e+03 7.598077774047851562e+00 -2.288844299316406250e+01 -6.306305993348360062e-03 -1.099047660827636719e-01 -3.486332297325134277e-02 -1.300370991230010986e-01
2.161000000000000000e+03 4.253053283691406250e+01 2.116709327697753906e+01 9.107577800750732422e-02 1.284607052803039551e+00 4.127048552036285400e-01 -6.460381150245666504e-01
2.162000000000000000e+03 6.759056854248046875e+01 1.949924659729003906e+01 3.076685220003128052e-02 6.677587032318115234e+00 2.012506246566772461e+00 -2.816443145275115967e-02
2.163000000000000000e+03 6.658670902252197266e+00 1.237252998352050781e+01 -1.521207094192504883e-01 2.082780599594116211e-01 1.684720255434513092e-02 -1.283581405878067017e-01
2.164000000000000000e+03 4.558257293701171875e+01 -2.230335998535156250e+01 -6.259594559669494629e-01 2.651742458343505859e+00 6.077349185943603516e-01 -5.659039616584777832e-01
2.165000000000000000e+03 7.362224102020263672e+00 2.237779808044433594e+01 -8.930367976427078247e-02 7.455710321664810181e-02 -4.423972684890031815e-03 1.312251687049865723e-01
2.166000000000000000e+03 7.309202671051025391e+00 2.376772308349609375e+01 -5.145137012004852295e-02 5.772377178072929382e-02 1.881720963865518570e-03 1.583463400602340698e-01
2.167000000000000000e+03 7.530790710449218750e+01 -2.160879135131835938e+01 -1.313222348690032959e-01 7.498680591583251953e+00 2.210207462310791016e+00 2.402934730052947998e-01
2.168000000000000000e+03 5.745268821716308594e+00 -1.096150302886962891e+01 -2.011580578982830048e-02 -3.032563254237174988e-02 -1.513243187218904495e-02 -5.353870987892150879e-02
2.169000000000000000e+03 2.852666854858398438e+01 -1.565979480743408203e+01 -3.710438311100006104e-01 4.409041404724121094e-01 2.095808833837509155e-02 -1.158956810832023621e-02
2.170000000000000000e+03 6.442970275878906250e+01 -1.904385566711425781e+01 -9.694985300302505493e-02 4.819956302642822266e+00 1.416901946067810059e+00 -1.771339654922485352e+00
2.171000000000000000e+03 6.667390441894531250e+01 -2.293905830383300781e+01 3.755717873573303223e-01 4.977203369140625000e+00 1.605832457542419434e+00 -5.826830267906188965e-01
2.172000000000000000e+03 7.258915710449218750e+01 -2.416451644897460938e+01 1.831728816032409668e-01 6.345070362091064453e+00 1.958472967147827148e+00 3.155139386653900146e-01
2.173000000000000000e+03 7.161688327789306641e+00 -1.380078601837158203e+01 -2.829718030989170074e-02 -3.113037720322608948e-02 -1.782826706767082214e-02 -8.623006194829940796e-02
2.174000000000000000e+03 7.188972473144531250e+01 -2.275765037536621094e+01 -3.945843875408172607e-02 6.206635951995849609e+00 1.850153207778930664e+00 4.550434052944183350e-01
2.175000000000000000e+03 1.147632789611816406e+01 1.723089981079101562e+01 -2.655606567859649658e-01 3.078391775488853455e-02 -7.043302059173583984e-02 2.983948402106761932e-02
2.176000000000000000e+03 1.068953323364257812e+01 1.575606346130371094e+01 -2.607178390026092529e-01 6.846162676811218262e-02 -5.767685920000076294e-02 -3.678671550005674362e-03
2.177000000000000000e+03 3.091912841796875000e+01 -1.837008094787597656e+01 -2.208634465932846069e-01 4.193864166736602783e-01 5.955689027905464172e-02 -1.310080010443925858e-02
2.178000000000000000e+03 1.348641204833984375e+01 1.987701606750488281e+01 -2.983292937278747559e-01 8.848440833389759064e-03 -8.684425055980682373e-02 1.344390213489532471e-01
2.179000000000000000e+03 1.120051765441894531e+01 1.633505630493164062e+01 -2.484283149242401123e-01 6.941758841276168823e-02 -5.370321869850158691e-02 1.409725751727819443e-03
2.180000000000000000e+03 5.489052200317382812e+01 1.956778526306152344e+01 6.487395614385604858e-02 6.466514587402343750e+00 1.959416508674621582e+00 1.408674836158752441e+00
2.181000000000000000e+03 6.492646789550781250e+01 2.026943206787109375e+01 5.394790768623352051e-01 5.718779087066650391e+00 1.877477407455444336e+00 -4.816744327545166016e-01
2.182000000000000000e+03 6.299079513549804688e+01 1.948105239868164062e+01 1.161530137062072754e+00 4.682777881622314453e+00 1.753292441368103027e+00 -7.840849161148071289e-01
2.183000000000000000e+03 5.634738540649414062e+01 1.644541358947753906e+01 1.397589087486267090e+00 5.477368831634521484e+00 2.062487363815307617e+00 2.574577569961547852e+00
2.184000000000000000e+03 6.318321704864501953e+00 3.098361778259277344e+01 3.031555190682411194e-02 -4.169520735740661621e-02 -3.413897007703781128e-03 1.670885086059570312e-01
2.185000000000000000e+03 4.940481185913085938e+01 -2.405350112915039062e+01 -6.623438000679016113e-02 1.972199082374572754e+00 5.717893838882446289e-01 -1.628369092941284180e-01
2.186000000000000000e+03 1.190724277496337891e+01 -7.765732765197753906e+00 -8.475771546363830566e-02 2.245322614908218384e-02 -1.869134791195392609e-02 -3.604834154248237610e-02
2.187000000000000000e+03 1.237540149688720703e+01 -8.425679206848144531e+00 -8.903191983699798584e-02 3.426557779312133789e-02 -1.642990298569202423e-02 -3.496888652443885803e-02
2.188000000000000000e+03 1.138116931915283203e+01 -7.186708927154541016e+00 -6.811235100030899048e-02 2.203700877726078033e-02 -1.382260117679834366e-02 -2.093703299760818481e-02
2.189000000000000000e+03 3.939520263671875000e+01 1.893015480041503906e+01 -4.440566003322601318e-01 5.120292305946350098e-01 2.039178647100925446e-02 -2.185304462909698486e-01
2.190000000000000000e+03 1.024093246459960938e+01 -5.887506961822509766e+00 -4.400995746254920959e-02 7.582143880426883698e-03 -1.092834398150444031e-02 -1.876269653439521790e-02
2.191000000000000000e+03 1.002825164794921875e+01 -6.763350963592529297e+00 -5.914030224084854126e-02 1.368138100951910019e-02 -1.363767590373754501e-02 -2.697505988180637360e-02
2.192000000000000000e+03 7.195746421813964844e+00 -5.483373165130615234e+00 -2.701259590685367584e-02 1.657167915254831314e-03 -7.606628816574811935e-03 -1.621849834918975830e-02
2.193000000000000000e+03 7.388021945953369141e+00 -6.658346652984619141e+00 -3.362955152988433838e-02 2.481479663401842117e-03 -9.344421327114105225e-03 -2.447506599128246307e-02
2.194000000000000000e+03 8.970891952514648438e+00 1.540640258789062500e+01 -1.969567984342575073e-01 1.043127104640007019e-01 -2.779322303831577301e-02 -2.681772969663143158e-02
2.195000000000000000e+03 7.964755535125732422e+00 1.534412574768066406e+01 -1.914263665676116943e-01 1.305756419897079468e-01 -1.825522072613239288e-02 -3.359171003103256226e-02
2.196000000000000000e+03 5.507573604583740234e+00 -8.540735244750976562e+00 -1.698569953441619873e-02 -1.563440263271331787e-02 -9.786030277609825134e-03 -3.284928947687149048e-02
2.197000000000000000e+03 6.356159687042236328e+00 -6.886121749877929688e+00 -2.957961335778236389e-02 -2.596071688458323479e-03 -9.652705863118171692e-03 -2.417450770735740662e-02
2.198000000000000000e+03 5.742901229858398438e+01 -4.004937648773193359e+00 7.369715720415115356e-02 5.397383689880371094e+00 1.641324281692504883e+00 -2.525364160537719727e+00
2.199000000000000000e+03 7.370894622802734375e+01 -1.839412498474121094e+01 -1.313004970550537109e+00 8.209345817565917969e+00 2.068902254104614258e+00 5.979205369949340820e-01
2.200000000000000000e+03 6.386136531829833984e+00 1.039365482330322266e+01 -1.745077520608901978e-01 2.773230075836181641e-01 3.084457106888294220e-02 -1.526227444410324097e-01
2.201000000000000000e+03 7.380706787109375000e+01 -2.354547691345214844e+01 -7.707022875547409058e-02 6.940961360931396484e+00 2.059167385101318359e+00 3.905052542686462402e-01
2.202000000000000000e+03 6.338485717773437500e+01 -2.092168045043945312e+01 -2.370771318674087524e-01 5.373024463653564453e+00 1.540784239768981934e+00 -1.577935099601745605e+00
2.203000000000000000e+03 5.448191642761230469e+00 -7.551171779632568359e+00 -2.600465714931488037e-02 -1.033487636595964432e-02 -1.090185996145009995e-02 -2.772669866681098938e-02
2.204000000000000000e+03 5.522681713104248047e+00 1.147673606872558594e+01 -1.409254968166351318e-01 2.278819680213928223e-01 2.608694322407245636e-02 -1.554084271192550659e-01
2.205000000000000000e+03 5.966352462768554688e+00 9.619318008422851562e+00 -2.463198006153106689e-01 2.660956084728240967e-01 5.932741798460483551e-03 -1.181604564189910889e-01
2.206000000000000000e+03 6.223117828369140625e+01 -1.828257751464843750e+01 3.473701775074005127e-01 6.202064990997314453e+00 1.964830517768859863e+00 -1.600242018699645996e+00
2.207000000000000000e+03 6.296097564697265625e+01 -1.729319381713867188e+01 -3.175631538033485413e-02 5.658271312713623047e+00 1.687954545021057129e+00 -1.608547925949096680e+00
2.208000000000000000e+03 5.559588241577148438e+01 1.728564071655273438e+01 8.047811985015869141e-01 6.329104900360107422e+00 2.140165805816650391e+00 2.627961158752441406e+00
2.209000000000000000e+03 3.304545593261718750e+01 2.109287834167480469e+01 -3.304244279861450195e-01 -7.775224279612302780e-03 -1.014598906040191650e-01 1.878634542226791382e-01
2.210000000000000000e+03 8.284748077392578125e+00 1.740798759460449219e+01 -1.787631511688232422e-01 1.003000959753990173e-01 -2.353891544044017792e-02 3.001891076564788818e-02
2.211000000000000000e+03 7.928257465362548828e+00 1.644271850585937500e+01 -1.434927135705947876e-01 1.242167428135871887e-01 -5.782791879028081894e-03 -1.383134629577398300e-02
2.212000000000000000e+03 1.303193473815917969e+01 2.123430061340332031e+01 -2.446606159210205078e-01 1.236023101955652237e-02 -6.969011574983596802e-02 1.757600605487823486e-01
2.213000000000000000e+03 3.709484100341796875e+01 1.807720375061035156e+01 -8.131119012832641602e-01 7.706779986619949341e-02 -2.208132445812225342e-01 -1.041437834501266479e-01
2.214000000000000000e+03 3.828156661987304688e+01 1.985351753234863281e+01 -3.221442997455596924e-01 3.536780476570129395e-01 9.460124187171459198e-03 -1.997273266315460205e-01
2.215000000000000000e+03 5.944660568237304688e+01 -1.434075069427490234e+01 8.448550701141357422e-01 8.292217254638671875e+00 2.741121530532836914e+00 -3.409221768379211426e-01
2.216000000000000000e+03 1.056449794769287109e+01 1.329644298553466797e+01 -2.435403317213058472e-01 7.216898351907730103e-02 -5.141140148043632507e-02 -8.092903345823287964e-02
2.217000000000000000e+03 1.022239685058593750e+01 1.446931362152099609e+01 -2.266540676355361938e-01 7.066176086664199829e-02 -4.679769277572631836e-02 -3.877713158726692200e-02
2.218000000000000000e+03 7.306491088867187500e+01 -2.203795814514160156e+01 2.383842691779136658e-02 6.607362747192382812e+00 1.989360451698303223e+00 4.307124614715576172e-01
2.219000000000000000e+03 6.419711303710937500e+01 1.930944204330444336e+00 -9.898865222930908203e-01 4.675434589385986328e+00 1.105664491653442383e+00 2.856881380081176758e+00
2.220000000000000000e+03 1.460872364044189453e+01 -8.409915924072265625e+00 -1.314045339822769165e-01 4.730602726340293884e-02 -2.522955276072025299e-02 -2.451183460652828217e-02
2.221000000000000000e+03 6.789214324951171875e+01 -2.186406707763671875e+01 4.608618021011352539e-01 4.396545410156250000e+00 1.457222223281860352e+00 -4.861074686050415039e-01
2.222000000000000000e+03 3.880144882202148438e+01 1.725201034545898438e+01 -8.468709588050842285e-01 3.500898182392120361e-01 -1.490343511104583740e-01 -8.858555555343627930e-02
2.223000000000000000e+03 1.554234981536865234e+01 -8.568058967590332031e+00 -1.367757916450500488e-01 4.220623895525932312e-02 -2.837086468935012817e-02 -1.600479707121849060e-02
2.224000000000000000e+03 1.626364898681640625e+01 -1.101327991485595703e+01 -1.486231088638305664e-01 6.220505014061927795e-02 -2.592541649937629700e-02 -5.674077197909355164e-02
2.225000000000000000e+03 6.960763931274414062e+00 1.408027458190917969e+01 -1.824433207511901855e-01 1.668770164251327515e-01 -4.669894464313983917e-03 -7.736080139875411987e-02
2.226000000000000000e+03 8.358982086181640625e+00 1.317254352569580078e+01 -2.119588255882263184e-01 1.480653285980224609e-01 -1.916805095970630646e-02 -8.460031449794769287e-02
2.227000000000000000e+03 1.039658927917480469e+01 3.102273941040039062e+01 4.885150119662284851e-02 -8.067413419485092163e-02 -9.546788409352302551e-03 2.075647115707397461e-01
2.228000000000000000e+03 5.480901241302490234e+00 -1.309093093872070312e+01 -1.682418398559093475e-02 -4.631238803267478943e-02 -1.894097216427326202e-02 -7.107967138290405273e-02
2.229000000000000000e+03 7.183209896087646484e+00 -1.150974655151367188e+01 -3.756009042263031006e-02 -1.667669974267482758e-02 -1.627103611826896667e-02 -6.714735925197601318e-02
2.230000000000000000e+03 3.089452362060546875e+01 -1.547479343414306641e+01 -5.129185318946838379e-01 4.172054529190063477e-01 -2.871392853558063507e-02 2.052695676684379578e-02
2.231000000000000000e+03 7.076935577392578125e+01 2.094442558288574219e+01 2.356696277856826782e-01 6.401665687561035156e+00 1.991200566291809082e+00 2.548618018627166748e-01
2.232000000000000000e+03 6.483744812011718750e+01 -2.039636421203613281e+01 3.373195230960845947e-01 4.930841445922851562e+00 1.580448269844055176e+00 -1.306695818901062012e+00
2.233000000000000000e+03 8.614053726196289062e+00 2.216256141662597656e+01 -8.992709219455718994e-02 6.298647075891494751e-02 -8.082185871899127960e-03 1.492059677839279175e-01
2.234000000000000000e+03 2.944358825683593750e+01 -1.925105667114257812e+01 -1.862183064222335815e-01 4.653974175453186035e-01 8.375373482704162598e-02 -6.269287317991256714e-02
2.235000000000000000e+03 7.257561492919921875e+01 1.527774620056152344e+01 1.292901396751403809e+00 5.181896686553955078e+00 1.942439436912536621e+00 -5.067453905940055847e-02
2.236000000000000000e+03 3.418992996215820312e+01 2.163849830627441406e+01 -2.164327651262283325e-01 1.075445339083671570e-01 -3.266646713018417358e-02 8.852414041757583618e-02
2.237000000000000000e+03 3.316457366943359375e+01 2.269235992431640625e+01 -1.369091570377349854e-01 9.768845885992050171e-02 -1.176620926707983017e-02 1.249301955103874207e-01
2.238000000000000000e+03 8.585716247558593750e+00 -2.173381233215332031e+01 -8.007339201867580414e-04 -7.773335278034210205e-02 -2.356022596359252930e-02 -1.285256892442703247e-01
2.239000000000000000e+03 9.419954299926757812e+00 -2.043104362487792969e+01 -1.485117338597774506e-02 -5.446320772171020508e-02 -2.079431526362895966e-02 -1.459131091833114624e-01
2.240000000000000000e+03 4.828800201416015625e+01 -2.730377388000488281e+01 -6.615577638149261475e-02 2.282167434692382812e+00 6.648034453392028809e-01 -1.034418866038322449e-01
2.241000000000000000e+03 4.798819732666015625e+01 -2.449938964843750000e+01 -1.813375949859619141e-01 1.923901319503784180e+00 5.227691531181335449e-01 -3.080760240554809570e-01
2.242000000000000000e+03 1.163298034667968750e+01 2.075862693786621094e+01 -2.177269607782363892e-01 2.646804042160511017e-02 -5.737767368555068970e-02 1.453865617513656616e-01
2.243000000000000000e+03 6.202850341796875000e+01 2.210068702697753906e+01 7.517496943473815918e-01 4.994820117950439453e+00 1.723970890045166016e+00 -2.712695673108100891e-02
2.244000000000000000e+03 4.130635833740234375e+01 2.249683380126953125e+01 8.868407458066940308e-02 1.109447717666625977e+00 3.594395220279693604e-01 -6.340137124061584473e-01
2.245000000000000000e+03 4.154022979736328125e+01 2.014157867431640625e+01 -5.568508431315422058e-02 9.417728185653686523e-01 2.658263146877288818e-01 -4.947355091571807861e-01
2.246000000000000000e+03 8.141433715820312500e+00 -2.626722145080566406e+01 1.696064509451389313e-02 -1.199684813618659973e-01 -3.090235032141208649e-02 -1.322747021913528442e-01
2.247000000000000000e+03 5.451583099365234375e+01 2.133983612060546875e+01 -4.290914237499237061e-01 6.280122280120849609e+00 1.755309224128723145e+00 8.231876492500305176e-01
2.248000000000000000e+03 7.403260707855224609e+00 1.939607810974121094e+01 -1.343020647764205933e-01 1.102527081966400146e-01 -7.214808370918035507e-03 6.473658233880996704e-02
2.249000000000000000e+03 7.323306560516357422e+00 2.089839363098144531e+01 -8.839444071054458618e-02 9.374818950891494751e-02 1.606126083061099052e-03 1.078109294176101685e-01
2.250000000000000000e+03 6.625740051269531250e+01 1.975607872009277344e+01 2.236475944519042969e-01 6.434950351715087891e+00 1.997579455375671387e+00 -4.910768568515777588e-01
2.251000000000000000e+03 6.929473876953125000e+01 2.338157463073730469e+01 8.611878752708435059e-02 6.253495693206787109e+00 1.901884317398071289e+00 1.305622756481170654e-01
2.252000000000000000e+03 7.320983123779296875e+01 1.817316246032714844e+01 5.955668091773986816e-01 5.951505184173583984e+00 1.964121580123901367e+00 1.979129463434219360e-01
2.253000000000000000e+03 1.495876312255859375e+01 -1.149328517913818359e+01 -1.517257094383239746e-01 6.346520781517028809e-02 -2.647814899682998657e-02 -8.064827322959899902e-02
2.254000000000000000e+03 2.081146430969238281e+01 -1.504747867584228516e+01 -1.746930629014968872e-01 1.296243369579315186e-01 -1.352061610668897629e-02 -8.137562870979309082e-02
2.255000000000000000e+03 1.683627128601074219e+01 2.481794357299804688e+01 -1.337749958038330078e-01 -9.890540689229965210e-02 -6.980411708354949951e-02 3.001288175582885742e-01
2.256000000000000000e+03 1.420040130615234375e+01 2.201683235168457031e+01 -2.625617384910583496e-01 -2.029312774538993835e-02 -8.485645800828933716e-02 2.153848111629486084e-01
2.257000000000000000e+03 7.068910980224609375e+01 -3.008440589904785156e+01 9.935600310564041138e-02 6.222370147705078125e+00 1.896517872810363770e+00 2.991184964776039124e-02
2.258000000000000000e+03 3.709185791015625000e+01 -2.343212699890136719e+01 -5.036777257919311523e-02 1.632365822792053223e+00 4.745994210243225098e-01 5.839842557907104492e-01
2.259000000000000000e+03 1.008727455139160156e+01 -1.321207332611083984e+01 -5.550156906247138977e-02 6.340491119772195816e-03 -1.474832277745008469e-02 -9.148297458887100220e-02
2.260000000000000000e+03 6.508651733398437500e+00 -1.261637783050537109e+01 -3.367874771356582642e-02 -3.498833626508712769e-02 -2.060012519359588623e-02 -7.553739100694656372e-02
2.261000000000000000e+03 6.919024944305419922e+00 1.663100051879882812e+01 -1.581536978483200073e-01 1.412532180547714233e-01 -5.070144776254892349e-03 -8.502461947500705719e-03
2.262000000000000000e+03 7.218755340576171875e+01 -2.781375122070312500e+01 9.867292642593383789e-02 6.484610080718994141e+00 1.974984884262084961e+00 1.242572814226150513e-01
2.263000000000000000e+03 2.809738922119140625e+01 -1.433427047729492188e+01 -3.801741302013397217e-01 4.518766105175018311e-01 2.151074260473251343e-02 6.673548370599746704e-03
2.264000000000000000e+03 2.964687919616699219e+01 -1.536937618255615234e+01 -3.613947033882141113e-01 4.255991280078887939e-01 1.926132291555404663e-02 -3.863708302378654480e-02
2.265000000000000000e+03 7.585474491119384766e+00 2.640669250488281250e+01 -1.747174002230167389e-02 1.794249750673770905e-02 1.412267884006723762e-04 1.821789890527725220e-01
2.266000000000000000e+03 1.675182533264160156e+01 -1.241707611083984375e+01 -1.693946272134780884e-01 7.337196916341781616e-02 -2.880679629743099213e-02 -9.707805514335632324e-02
2.267000000000000000e+03 1.758527946472167969e+01 -1.580898761749267578e+01 -1.007569357752799988e-01 1.162268370389938354e-01 4.640971776098012924e-03 -1.102737635374069214e-01
2.268000000000000000e+03 7.495953559875488281e+00 -1.657334327697753906e+01 -2.070891112089157104e-02 -5.579179525375366211e-02 -2.295021153986454010e-02 -1.083160191774368286e-01
2.269000000000000000e+03 8.034368515014648438e+00 -7.169652462005615234e+00 -3.671035915613174438e-02 -3.928385674953460693e-03 -1.219162344932556152e-02 -3.259261325001716614e-02
2.270000000000000000e+03 6.721048355102539062e+00 -6.219738483428955078e+00 -2.107120491564273834e-02 -8.799114264547824860e-03 -8.961095474660396576e-03 -2.350249141454696655e-02
2.271000000000000000e+03 8.764801025390625000e+00 -7.683658123016357422e+00 -4.902819171547889709e-02 9.027378633618354797e-03 -1.200024411082267761e-02 -3.342726826667785645e-02
2.272000000000000000e+03 1.020545864105224609e+01 -7.452148914337158203e+00 -5.633536353707313538e-02 1.484166178852319717e-02 -1.244811061769723892e-02 -2.667610533535480499e-02
2.273000000000000000e+03 1.076058101654052734e+01 -6.795598030090332031e+00 -5.998773500323295593e-02 1.330140791833400726e-02 -1.400589849799871445e-02 -2.609938383102416992e-02
2.274000000000000000e+03 8.130153656005859375e+00 1.423365879058837891e+01 -1.701719462871551514e-01 1.233881264925003052e-01 -1.403514388948678970e-02 -6.097402423620223999e-02
2.275000000000000000e+03 9.602986335754394531e+00 1.209232902526855469e+01 -2.198119014501571655e-01 1.084804385900497437e-01 -3.339943662285804749e-02 -7.706274092197418213e-02
2.276000000000000000e+03 7.538322925567626953e+00 1.110991764068603516e+01 -1.632361859083175659e-01 1.914072781801223755e-01 8.451328612864017487e-03 -1.123748496174812317e-01
2.277000000000000000e+03 6.165960693359375000e+01 -1.929506874084472656e+01 -2.631861567497253418e-01 6.395833015441894531e+00 1.839794039726257324e+00 -1.742069005966186523e+00
2.278000000000000000e+03 9.460428237915039062e+00 1.321989345550537109e+01 -1.953944563865661621e-01 9.029516577720642090e-02 -3.152978792786598206e-02 -6.872581690549850464e-02
2.279000000000000000e+03 1.118393993377685547e+01 -8.341101646423339844e+00 -7.242165505886077881e-02 2.444459684193134308e-02 -1.439311821013689041e-02 -3.724020719528198242e-02
2.280000000000000000e+03 5.875045394897460938e+01 -4.883351325988769531e+00 9.133036136627197266e-01 5.977148532867431641e+00 2.067135810852050781e+00 -1.177283048629760742e+00
2.281000000000000000e+03 6.538962364196777344e+00 -8.354351997375488281e+00 -3.345369920134544373e-02 -1.225184649229049683e-02 -1.371166389435529709e-02 -4.017281904816627502e-02
2.282000000000000000e+03 1.963573455810546875e+01 -1.611006736755371094e+01 -1.135687083005905151e-01 1.590649336576461792e-01 1.364886667579412460e-02 -8.821506798267364502e-02
2.283000000000000000e+03 1.846523857116699219e+01 -1.708934593200683594e+01 -1.186625733971595764e-01 1.255651116371154785e-01 2.070762217044830322e-03 -1.302774101495742798e-01
2.284000000000000000e+03 7.905444622039794922e+00 -1.030446529388427734e+01 -4.668832570314407349e-02 -9.317058138549327850e-03 -1.680161617696285248e-02 -6.256161630153656006e-02
2.285000000000000000e+03 7.014374732971191406e+00 -9.348106384277343750e+00 -3.144138678908348083e-02 -7.609522901475429535e-03 -1.171527244150638580e-02 -4.455768316984176636e-02
2.286000000000000000e+03 8.513434410095214844e+00 1.214053153991699219e+01 -1.816761195659637451e-01 1.417109370231628418e-01 -1.198955345898866653e-02 -8.873142302036285400e-02
2.287000000000000000e+03 1.108175277709960938e+01 1.884241294860839844e+01 -2.368896901607513428e-01 4.166802391409873962e-02 -5.856649950146675110e-02 7.901041954755783081e-02
2.288000000000000000e+03 1.188653850555419922e+01 1.800489997863769531e+01 -2.601542472839355469e-01 5.795808881521224976e-02 -6.065884977579116821e-02 6.237380206584930420e-02
2.289000000000000000e+03 2.667787742614746094e+01 -1.479638099670410156e+01 -3.578989803791046143e-01 3.883408904075622559e-01 9.132577106356620789e-03 3.230441943742334843e-04
2.290000000000000000e+03 2.839115905761718750e+01 -1.779281616210937500e+01 -2.084204554557800293e-01 4.314271211624145508e-01 6.690199673175811768e-02 -5.683466047048568726e-02
2.291000000000000000e+03 4.300257873535156250e+01 -2.488066291809082031e+01 -5.783175230026245117e-01 2.392835378646850586e+00 5.443553328514099121e-01 -5.425836890935897827e-02
2.292000000000000000e+03 2.386435890197753906e+01 -1.489998435974121094e+01 -2.353652417659759521e-01 2.614178061485290527e-01 7.815771736204624176e-03 -5.725144874304533005e-03
2.293000000000000000e+03 6.506967163085937500e+01 2.383945083618164062e+01 1.544004678726196289e-01 5.837623119354248047e+00 1.797607064247131348e+00 -9.170029312372207642e-03
2.294000000000000000e+03 1.370526409149169922e+01 -8.519629478454589844e+00 -1.063034608960151672e-01 3.889464586973190308e-02 -2.022264525294303894e-02 -2.635832503437995911e-02
2.295000000000000000e+03 8.662524223327636719e+00 -1.349829578399658203e+01 -5.280770733952522278e-02 -1.381882373243570328e-02 -1.998795941472053528e-02 -9.341470152139663696e-02
2.296000000000000000e+03 6.885530853271484375e+01 -2.994815063476562500e+01 1.454300135374069214e-01 5.899329185485839844e+00 1.813427686691284180e+00 -3.750635683536529541e-02
2.297000000000000000e+03 6.971245574951171875e+01 -2.443307876586914062e+01 2.638604044914245605e-01 5.511644363403320312e+00 1.732651472091674805e+00 8.748847991228103638e-03
2.298000000000000000e+03 1.554365253448486328e+01 2.594486427307128906e+01 -8.012618124485015869e-02 -9.216316789388656616e-02 -5.168680474162101746e-02 2.826662659645080566e-01
2.299000000000000000e+03 1.429990959167480469e+01 2.486256027221679688e+01 -1.077819168567657471e-01 -5.477615445852279663e-02 -4.876742139458656311e-02 2.612477540969848633e-01
2.300000000000000000e+03 1.031621170043945312e+01 -3.094760131835937500e+01 4.650971293449401855e-02 -8.804533630609512329e-02 -1.246068719774484634e-02 -1.190695911645889282e-01
2.301000000000000000e+03 1.654618072509765625e+01 -1.494370079040527344e+01 -1.206808388233184814e-01 7.767317444086074829e-02 -1.290229894220829010e-02 -1.308873295783996582e-01
2.302000000000000000e+03 3.874916839599609375e+01 2.169198226928710938e+01 -6.007364019751548767e-02 6.091384291648864746e-01 1.647194325923919678e-01 -3.270003199577331543e-01
2.303000000000000000e+03 6.921623992919921875e+01 2.124744796752929688e+01 2.498769387602806091e-02 6.439676284790039062e+00 1.939399242401123047e+00 1.656977236270904541e-01
2.304000000000000000e+03 1.091533565521240234e+01 -1.737128257751464844e+01 -4.324126616120338440e-02 -6.523930002003908157e-03 -1.492955815047025681e-02 -1.408973187208175659e-01
2.305000000000000000e+03 8.964026451110839844e+00 2.934107017517089844e+01 2.370787970721721649e-02 -4.231211915612220764e-02 -5.581272300332784653e-03 2.033830881118774414e-01
2.306000000000000000e+03 1.100705146789550781e+01 2.318658828735351562e+01 -1.336610317230224609e-01 8.492865599691867828e-03 -3.755045309662818909e-02 2.024263739585876465e-01
2.307000000000000000e+03 2.769353103637695312e+01 2.190986824035644531e+01 -4.001717865467071533e-01 -5.169801041483879089e-02 -1.355609446763992310e-01 2.416775822639465332e-01
2.308000000000000000e+03 6.776311492919921875e+01 2.134107589721679688e+01 2.007926553487777710e-01 6.349158287048339844e+00 1.964985370635986328e+00 -9.910908341407775879e-02
2.309000000000000000e+03 2.488934898376464844e+01 -1.660488700866699219e+01 -2.913274466991424561e-01 3.337108790874481201e-01 1.271503139287233353e-02 -6.191632896661758423e-02
2.310000000000000000e+03 5.643684768676757812e+01 1.974043655395507812e+01 3.939685225486755371e-01 5.668882369995117188e+00 1.818855285644531250e+00 1.637216091156005859e+00
2.311000000000000000e+03 6.177611923217773438e+01 -2.304788017272949219e+01 -3.375195264816284180e-01 6.012335777282714844e+00 1.702444911003112793e+00 -8.590671420097351074e-01
2.312000000000000000e+03 1.076795291900634766e+01 -7.860222816467285156e+00 -6.855077296495437622e-02 1.539887208491563797e-02 -1.594556868076324463e-02 -4.163780063390731812e-02
2.313000000000000000e+03 6.899778842926025391e+00 -7.251991271972656250e+00 -2.811758778989315033e-02 -1.051411963999271393e-02 -1.158951222896575928e-02 -3.229478746652603149e-02
2.314000000000000000e+03 8.003658294677734375e+00 -8.577564239501953125e+00 -4.514487460255622864e-02 -4.298358224332332611e-03 -1.483296975493431091e-02 -4.640916362404823303e-02
2.315000000000000000e+03 1.357560539245605469e+01 -1.295487594604492188e+01 -1.082187220454216003e-01 5.090612918138504028e-02 -1.719377748668193817e-02 -9.942444413900375366e-02
2.316000000000000000e+03 9.280669212341308594e+00 1.796359062194824219e+01 -1.807461678981781006e-01 8.558464050292968750e-02 -2.854845672845840454e-02 3.915687650442123413e-02
2.317000000000000000e+03 9.564239501953125000e+00 -8.261303901672363281e+00 -5.887149274349212646e-02 8.915761485695838928e-03 -1.498671993613243103e-02 -4.421839490532875061e-02
2.318000000000000000e+03 1.151557159423828125e+01 -9.039849281311035156e+00 -8.899755775928497314e-02 2.396154962480068207e-02 -1.951080188155174255e-02 -5.249336361885070801e-02
2.319000000000000000e+03 2.286959838867187500e+01 -1.727254104614257812e+01 -2.025485783815383911e-01 2.563743591308593750e-01 1.614773273468017578e-02 -9.348279982805252075e-02
2.320000000000000000e+03 6.768640136718750000e+01 -2.415134429931640625e+01 3.396162092685699463e-01 5.029325008392333984e+00 1.610682368278503418e+00 -3.946537375450134277e-01
2.321000000000000000e+03 7.069660949707031250e+01 -2.564367866516113281e+01 2.409828901290893555e-01 5.989738464355468750e+00 1.869216442108154297e+00 1.708088964223861694e-01
2.322000000000000000e+03 1.013591098785400391e+01 -2.279423141479492188e+01 -2.406834857538342476e-03 -5.321456119418144226e-02 -1.668641902506351471e-02 -1.534959375858306885e-01
2.323000000000000000e+03 2.195234870910644531e+01 -1.861438941955566406e+01 -8.847153931856155396e-02 2.630334794521331787e-01 5.236858129501342773e-02 -9.452858567237854004e-02
2.324000000000000000e+03 1.075083351135253906e+01 -1.461365890502929688e+01 -6.768508255481719971e-02 4.609688650816679001e-03 -1.892261952161788940e-02 -1.196106299757957458e-01
2.325000000000000000e+03 1.206636524200439453e+01 2.373674964904785156e+01 -1.194237917661666870e-01 -1.518961880356073380e-02 -4.038402438163757324e-02 2.166872620582580566e-01
2.326000000000000000e+03 9.576759338378906250e+00 2.549800682067871094e+01 -5.642815679311752319e-02 -5.315673537552356720e-03 -1.852314919233322144e-02 2.054593116044998169e-01
2.327000000000000000e+03 2.110554122924804688e+01 2.584778594970703125e+01 -6.286478042602539062e-02 -1.693128496408462524e-01 -6.965328752994537354e-02 2.831874191761016846e-01
2.328000000000000000e+03 2.733008956909179688e+01 -1.639636230468750000e+01 -3.392504751682281494e-01 4.207388758659362793e-01 2.444651909172534943e-02 -1.969772391021251678e-02
2.329000000000000000e+03 6.477015686035156250e+01 -2.541113662719726562e+01 -6.585380434989929199e-02 5.354407310485839844e+00 1.586565971374511719e+00 -6.972608566284179688e-01
2.330000000000000000e+03 6.346686553955078125e+01 -2.488350296020507812e+01 -1.500453054904937744e-01 5.526924610137939453e+00 1.613063812255859375e+00 -7.035699486732482910e-01
2.331000000000000000e+03 1.034494686126708984e+01 2.426681900024414062e+01 -8.276942372322082520e-02 5.730039440095424652e-03 -2.311181649565696716e-02 2.038555145263671875e-01
2.332000000000000000e+03 1.020022392272949219e+01 2.796836662292480469e+01 -9.717065840959548950e-03 -4.405656084418296814e-02 -1.613208837807178497e-02 2.225553393363952637e-01
2.333000000000000000e+03 6.215628433227539062e+01 -2.078124046325683594e+01 -2.153807282447814941e-01 6.021770954132080078e+00 1.741917014122009277e+00 -1.376728892326354980e+00
2.334000000000000000e+03 3.759234237670898438e+01 2.492441177368164062e+01 1.562003642320632935e-01 6.819149851799011230e-01 2.514345943927764893e-01 -3.095299601554870605e-01
2.335000000000000000e+03 3.422808837890625000e+01 2.429855728149414062e+01 1.496894843876361847e-02 2.983475029468536377e-01 9.399493038654327393e-02 -3.138758987188339233e-02
2.336000000000000000e+03 1.466986274719238281e+01 -1.022769737243652344e+01 -1.250509619712829590e-01 5.107115581631660461e-02 -2.219394408166408539e-02 -5.130242928862571716e-02
2.337000000000000000e+03 1.049670124053955078e+01 1.780550193786621094e+01 -2.121850997209548950e-01 7.795903831720352173e-02 -4.026781767606735229e-02 4.754023998975753784e-02
2.338000000000000000e+03 8.528251647949218750e+00 -1.208450889587402344e+01 -4.451873898506164551e-02 -1.116757839918136597e-02 -1.670589484274387360e-02 -7.973374426364898682e-02
2.339000000000000000e+03 9.743305206298828125e+00 -1.194145488739013672e+01 -6.735568493604660034e-02 1.897922367788851261e-03 -1.963732764124870300e-02 -8.948223292827606201e-02
2.340000000000000000e+03 9.173276901245117188e+00 -1.675540924072265625e+01 -3.966968134045600891e-02 -2.165274135768413544e-02 -1.839672774076461792e-02 -1.210158839821815491e-01
2.341000000000000000e+03 4.210966110229492188e+01 -2.356741142272949219e+01 -5.486310124397277832e-01 2.429987668991088867e+00 5.644070506095886230e-01 -6.790073215961456299e-02
2.342000000000000000e+03 1.486405372619628906e+01 -1.641589927673339844e+01 -7.492536306381225586e-02 6.833228468894958496e-02 -1.977922860532999039e-03 -1.456770449876785278e-01
2.343000000000000000e+03 2.018414115905761719e+01 2.375241088867187500e+01 -2.301933169364929199e-01 -1.575383394956588745e-01 -1.163194999098777771e-01 3.031981587409973145e-01
2.344000000000000000e+03 6.664112091064453125e+01 -2.514515686035156250e+01 2.195188552141189575e-01 5.340292930603027344e+00 1.667943477630615234e+00 -4.250666201114654541e-01
2.345000000000000000e+03 7.382949829101562500e+00 -7.863316059112548828e+00 -3.527051210403442383e-02 3.173382428940385580e-04 -1.048595178872346878e-02 -3.254087269306182861e-02
2.346000000000000000e+03 1.040020084381103516e+01 -8.587239265441894531e+00 -7.492138445377349854e-02 1.868919655680656433e-02 -1.686965487897396088e-02 -4.395309835672378540e-02
2.347000000000000000e+03 1.132838058471679688e+01 2.205948257446289062e+01 -1.657643914222717285e-01 1.478403899818658829e-02 -4.529410600662231445e-02 1.758848428726196289e-01
2.348000000000000000e+03 1.029395294189453125e+01 2.009424591064453125e+01 -1.813044846057891846e-01 6.196464598178863525e-02 -3.580195084214210510e-02 1.161813214421272278e-01
2.349000000000000000e+03 1.026447868347167969e+01 2.235699272155761719e+01 -1.358198076486587524e-01 4.204654693603515625e-02 -2.813198044896125793e-02 1.709682047367095947e-01
2.350000000000000000e+03 9.786319732666015625e+00 -1.008238601684570312e+01 -6.430558115243911743e-02 6.308285985141992569e-03 -1.739918999373912811e-02 -6.506675481796264648e-02
2.351000000000000000e+03 7.217143535614013672e+00 1.795432281494140625e+01 -1.064088046550750732e-01 1.248585134744644165e-01 5.534911993891000748e-03 3.178898245096206665e-02
2.352000000000000000e+03 9.062755584716796875e+00 -1.103109073638916016e+01 -5.280932039022445679e-02 3.881170647218823433e-03 -1.467844564467668533e-02 -6.601688265800476074e-02
2.353000000000000000e+03 6.704568481445312500e+01 2.562674713134765625e+01 5.120665580034255981e-02 5.991590499877929688e+00 1.812839150428771973e+00 8.218995481729507446e-02
2.354000000000000000e+03 1.275553894042968750e+01 2.718647193908691406e+01 -2.267654240131378174e-02 -6.561608612537384033e-02 -2.648778818547725677e-02 2.538825571537017822e-01
2.355000000000000000e+03 1.849284172058105469e+01 2.434646224975585938e+01 -1.717168092727661133e-01 -1.330166757106781006e-01 -9.142003953456878662e-02 2.888069152832031250e-01
2.356000000000000000e+03 1.406512260437011719e+01 -2.492370033264160156e+01 2.227999269962310791e-02 3.584811091423034668e-02 1.743843033909797668e-02 -1.661118268966674805e-01
2.357000000000000000e+03 1.467473030090332031e+01 -2.308065032958984375e+01 7.174417376518249512e-03 7.411131262779235840e-02 2.438571862876415253e-02 -1.574954539537429810e-01
2.358000000000000000e+03 1.193857479095458984e+01 -9.883275032043457031e+00 -8.665444701910018921e-02 3.479969874024391174e-02 -1.555642485618591309e-02 -5.806500092148780823e-02
2.359000000000000000e+03 1.264083862304687500e+01 -1.054482364654541016e+01 -1.019641086459159851e-01 3.566008061170578003e-02 -1.989120803773403168e-02 -7.361927628517150879e-02
2.360000000000000000e+03 1.314663410186767578e+01 -1.440393352508544922e+01 -8.825685828924179077e-02 3.994738310575485229e-02 -1.449284330010414124e-02 -1.230401396751403809e-01
2.361000000000000000e+03 1.236357975006103516e+01 -1.157690143585205078e+01 -9.870894998311996460e-02 3.671152144670486450e-02 -1.859922707080841064e-02 -8.563967794179916382e-02
2.362000000000000000e+03 1.598340606689453125e+01 -1.867744445800781250e+01 -7.449503242969512939e-02 9.565144032239913940e-02 6.346922833472490311e-03 -1.510937809944152832e-01
2.363000000000000000e+03 6.195496749877929688e+01 -2.450708007812500000e+01 -4.731062054634094238e-01 5.511040210723876953e+00 1.511380195617675781e+00 -7.327703833580017090e-01
2.364000000000000000e+03 6.173968887329101562e+01 -2.183462524414062500e+01 -7.628183364868164062e-01 6.218628406524658203e+00 1.636743068695068359e+00 -1.315739631652832031e+00
2.365000000000000000e+03 1.159416103363037109e+01 2.502338409423828125e+01 -8.547737449407577515e-02 -2.238419465720653534e-02 -3.235847130417823792e-02 2.311566472053527832e-01
2.366000000000000000e+03 6.753380584716796875e+01 -2.632621192932128906e+01 2.148102521896362305e-01 5.418251991271972656e+00 1.689918637275695801e+00 -2.641892731189727783e-01
2.367000000000000000e+03 1.086712455749511719e+01 -1.038461208343505859e+01 -8.491048961877822876e-02 2.167753502726554871e-02 -1.896988600492477417e-02 -7.073352485895156860e-02
2.368000000000000000e+03 9.573968887329101562e+00 2.138812446594238281e+01 -1.458647400140762329e-01 4.337867349386215210e-02 -3.074581921100616455e-02 1.370808333158493042e-01
2.369000000000000000e+03 1.205232524871826172e+01 -1.584827327728271484e+01 -5.673164129257202148e-02 2.730376087129116058e-02 -8.828364312648773193e-03 -1.254203915596008301e-01
2.370000000000000000e+03 1.123961639404296875e+01 -1.277713108062744141e+01 -7.998336106538772583e-02 1.654167473316192627e-02 -1.903250627219676971e-02 -1.054884940385818481e-01
2.371000000000000000e+03 1.230916023254394531e+01 -1.272055912017822266e+01 -8.840792626142501831e-02 3.609830886125564575e-02 -1.569288596510887146e-02 -9.889290481805801392e-02
2.372000000000000000e+03 6.769760131835937500e+01 -2.774894142150878906e+01 2.002070695161819458e-01 5.606799125671386719e+00 1.742101907730102539e+00 -1.728246510028839111e-01
2.373000000000000000e+03 1.930449867248535156e+01 -2.148394775390625000e+01 -1.270946115255355835e-02 1.860687732696533203e-01 5.200779065489768982e-02 -1.474195122718811035e-01
2.374000000000000000e+03 1.717244720458984375e+01 -1.785419082641601562e+01 -5.830009281635284424e-02 1.067629680037498474e-01 1.453886274248361588e-02 -1.409577131271362305e-01
2.375000000000000000e+03 1.246021652221679688e+01 -1.834355926513671875e+01 -3.775034472346305847e-02 2.988443896174430847e-02 -2.359771402552723885e-03 -1.450975090265274048e-01
2.376000000000000000e+03 1.466615772247314453e+01 -1.786211395263671875e+01 -4.950266703963279724e-02 7.074929773807525635e-02 6.373989395797252655e-03 -1.417899131774902344e-01
2.377000000000000000e+03 1.269230747222900391e+01 -2.227323722839355469e+01 -3.525225445628166199e-03 7.151880301535129547e-03 1.087996526621282101e-03 -1.625067889690399170e-01
2.378000000000000000e+03 1.096563529968261719e+01 -2.134165191650390625e+01 -6.496720016002655029e-03 -1.537153124809265137e-02 -6.560475565493106842e-03 -1.466729789972305298e-01
2.379000000000000000e+03 2.968171691894531250e+01 2.388594055175781250e+01 -1.389492601156234741e-01 1.420297008007764816e-02 -3.742388635873794556e-02 1.970595717430114746e-01
2.380000000000000000e+03 1.535687065124511719e+01 -1.987219619750976562e+01 -2.664104662835597992e-02 8.549811691045761108e-02 1.765711978077888489e-02 -1.622239202260971069e-01
2.381000000000000000e+03 6.653477478027343750e+01 -2.716763114929199219e+01 1.311473697423934937e-01 5.488615036010742188e+00 1.685928702354431152e+00 -3.739231824874877930e-01
2.382000000000000000e+03 4.493595123291015625e+01 2.566571426391601562e+01 6.065239384770393372e-02 2.503446817398071289e+00 7.692297101020812988e-01 -9.126727581024169922e-01
2.383000000000000000e+03 2.413020515441894531e+01 -1.803802680969238281e+01 -1.220969706773757935e-01 3.358584344387054443e-01 6.412843614816665649e-02 -6.650184094905853271e-02
2.384000000000000000e+03 7.549555206298828125e+01 3.327130508422851562e+01 -3.920083492994308472e-02 6.410887241363525391e+00 1.911505937576293945e+00 1.413007974624633789e-01
2.385000000000000000e+03 6.558135986328125000e+01 -2.411789321899414062e+01 2.095019519329071045e-01 5.028276920318603516e+00 1.571333765983581543e+00 -7.293895483016967773e-01
2.386000000000000000e+03 2.301446914672851562e+01 2.467891693115234375e+01 -1.468799263238906860e-01 -1.686663478612899780e-01 -9.466388076543807983e-02 2.719647586345672607e-01
2.387000000000000000e+03 5.885742568969726562e+01 -2.466449928283691406e+01 -8.624672889709472656e-01 5.348729133605957031e+00 1.345878481864929199e+00 -1.051132660359144211e-02
2.388000000000000000e+03 7.550683593750000000e+01 3.509464263916015625e+01 -3.720672056078910828e-02 6.432737350463867188e+00 1.918659210205078125e+00 1.110984310507774353e-01
2.389000000000000000e+03 1.501165676116943359e+01 -3.007252502441406250e+01 8.279404044151306152e-02 6.730374693870544434e-02 4.502933472394943237e-02 -1.219619810581207275e-01
2.390000000000000000e+03 1.372127056121826172e+01 3.035133171081542969e+01 7.680803537368774414e-02 -1.037592068314552307e-01 -8.085351437330245972e-03 2.433526217937469482e-01
2.391000000000000000e+03 6.024714660644531250e+01 2.318845939636230469e+01 4.687261879444122314e-01 5.071028232574462891e+00 1.661926388740539551e+00 4.309606254100799561e-01
2.392000000000000000e+03 9.479637145996093750e+00 3.478056335449218750e+01 9.238151460886001587e-02 -1.064405068755149841e-01 -4.217697307467460632e-03 1.506167948246002197e-01
2.393000000000000000e+03 7.087744140625000000e+01 -3.477910995483398438e+01 5.640619248151779175e-02 6.374765396118164062e+00 1.929351568222045898e+00 3.973366320133209229e-02
2.394000000000000000e+03 3.566710281372070312e+01 2.885548782348632812e+01 2.965517938137054443e-01 7.350878119468688965e-01 3.094918727874755859e-01 -1.952615827322006226e-01
2.395000000000000000e+03 4.518900680541992188e+01 2.799373245239257812e+01 4.681053012609481812e-02 2.733499526977539062e+00 8.340930342674255371e-01 -7.673087120056152344e-01
2.396000000000000000e+03 4.720894622802734375e+01 2.848332977294921875e+01 -1.343736201524734497e-01 3.403332710266113281e+00 9.806877374649047852e-01 -7.191874980926513672e-01
2.397000000000000000e+03 4.764064025878906250e+01 -2.868253326416015625e+01 9.152001142501831055e-02 2.347256422042846680e+00 7.316329479217529297e-01 -3.727909550070762634e-02
2.398000000000000000e+03 5.352010345458984375e+01 -2.759972763061523438e+01 4.881761595606803894e-02 3.289563894271850586e+00 1.001514434814453125e+00 4.298290312290191650e-01
2.399000000000000000e+03 5.565293884277343750e+01 2.700212478637695312e+01 -2.599174082279205322e-01 5.165346145629882812e+00 1.471628665924072266e+00 1.210932433605194092e-01
2.400000000000000000e+03 5.209345626831054688e+01 2.630930137634277344e+01 -4.745414257049560547e-01 4.958808422088623047e+00 1.345280170440673828e+00 -3.702091574668884277e-01
2.401000000000000000e+03 5.033292007446289062e+01 2.707638549804687500e+01 -3.516311347484588623e-01 4.309600353240966797e+00 1.187390804290771484e+00 -6.573412418365478516e-01
2.402000000000000000e+03 1.468241691589355469e+01 2.797417259216308594e+01 1.464929524809122086e-02 -9.436751902103424072e-02 -2.391546592116355896e-02 2.698540091514587402e-01
2.403000000000000000e+03 6.259437179565429688e+01 2.661545372009277344e+01 5.866148322820663452e-02 5.537807464599609375e+00 1.678940653800964355e+00 1.779435127973556519e-01
2.404000000000000000e+03 4.198573303222656250e+01 -2.587192153930664062e+01 -2.634636461734771729e-01 2.195595502853393555e+00 5.796394944190979004e-01 -1.631309464573860168e-02
2.405000000000000000e+03 6.296211242675781250e+01 -3.193780899047851562e+01 -8.953882008790969849e-02 5.231246948242187500e+00 1.542512416839599609e+00 -6.676890701055526733e-02
2.406000000000000000e+03 7.388462066650390625e+01 3.000632095336914062e+01 -7.110622525215148926e-02 6.292791366577148438e+00 1.866505622863769531e+00 2.111888378858566284e-01
2.407000000000000000e+03 7.616878509521484375e+01 2.907443046569824219e+01 -3.665110841393470764e-02 6.346028327941894531e+00 1.892813086509704590e+00 1.836671382188796997e-01
2.408000000000000000e+03 6.037385177612304688e+01 -2.742986679077148438e+01 -4.965704679489135742e-01 5.122112274169921875e+00 1.387662529945373535e+00 -1.584161520004272461e-01
2.409000000000000000e+03 7.372662353515625000e+01 3.268364334106445312e+01 -7.228395342826843262e-02 6.311454772949218750e+00 1.871751308441162109e+00 1.721614599227905273e-01
2.410000000000000000e+03 1.676810264587402344e+01 -1.998951530456542969e+01 -3.323066979646682739e-02 1.165885105729103088e-01 2.500735409557819366e-02 -1.568351536989212036e-01
2.411000000000000000e+03 7.196833801269531250e+01 2.720581245422363281e+01 -7.818780094385147095e-02 6.211776733398437500e+00 1.840076684951782227e+00 2.553210556507110596e-01
2.412000000000000000e+03 6.917132568359375000e+01 2.577225685119628906e+01 -6.451407819986343384e-02 6.152948379516601562e+00 1.826530218124389648e+00 1.941572725772857666e-01
2.413000000000000000e+03 5.126977539062500000e+01 2.353080177307128906e+01 -6.206408739089965820e-01 5.361127376556396484e+00 1.422145962715148926e+00 -6.522797942161560059e-01
2.414000000000000000e+03 2.764545249938964844e+01 2.590339851379394531e+01 7.799053564667701721e-03 -2.961717732250690460e-02 -6.545437034219503403e-03 1.818412393331527710e-01
2.415000000000000000e+03 1.965007400512695312e+01 -2.393316650390625000e+01 2.258739992976188660e-02 2.300943732261657715e-01 7.580453157424926758e-02 -1.397251486778259277e-01
2.416000000000000000e+03 1.577651500701904297e+01 -2.789314842224121094e+01 6.123919412493705750e-02 9.147387742996215820e-02 4.581392183899879456e-02 -1.556885242462158203e-01
2.417000000000000000e+03 3.096908187866210938e+01 -2.474773216247558594e+01 7.638661563396453857e-02 6.716021299362182617e-01 2.243966311216354370e-01 2.527160756289958954e-02
2.418000000000000000e+03 2.845932579040527344e+01 -2.419487190246582031e+01 7.061108946800231934e-02 5.642221570014953613e-01 1.904499828815460205e-01 -2.335089258849620819e-02
2.419000000000000000e+03 5.837482070922851562e+01 2.360878181457519531e+01 2.938980460166931152e-01 5.197716236114501953e+00 1.647484302520751953e+00 5.718051195144653320e-01
2.420000000000000000e+03 5.373626708984375000e+01 2.298831176757812500e+01 -4.409726262092590332e-01 5.819728851318359375e+00 1.613626837730407715e+00 2.241728007793426514e-01
2.421000000000000000e+03 7.064242553710937500e+01 2.890670394897460938e+01 -1.007036566734313965e-01 6.164836406707763672e+00 1.819239854812622070e+00 2.178988158702850342e-01
2.422000000000000000e+03 6.858899688720703125e+01 2.839944267272949219e+01 -5.913680046796798706e-02 6.043398857116699219e+00 1.795278668403625488e+00 1.781751662492752075e-01
2.423000000000000000e+03 5.923880386352539062e+01 2.711040496826171875e+01 -3.895322978496551514e-02 5.319289684295654297e+00 1.584100961685180664e+00 2.630367577075958252e-01
2.424000000000000000e+03 5.599214172363281250e+01 -2.716754722595214844e+01 -2.657161653041839600e-01 4.168119907379150391e+00 1.170721173286437988e+00 5.818166136741638184e-01
2.425000000000000000e+03 4.701336288452148438e+01 2.474322891235351562e+01 -9.854445606470108032e-02 3.321231365203857422e+00 9.668060541152954102e-01 -1.059653639793395996e+00
2.426000000000000000e+03 2.548156356811523438e+01 -1.882170867919921875e+01 -1.777859032154083252e-01 3.417464196681976318e-01 4.918815568089485168e-02 -8.338379859924316406e-02
2.427000000000000000e+03 5.815121841430664062e+01 2.153312110900878906e+01 5.376949906349182129e-01 5.049633026123046875e+00 1.676198363304138184e+00 9.708499312400817871e-01
2.428000000000000000e+03 7.234885406494140625e+01 2.954281997680664062e+01 -7.497338950634002686e-02 6.218667984008789062e+00 1.843108415603637695e+00 2.317754924297332764e-01
2.429000000000000000e+03 7.371363067626953125e+01 2.678440475463867188e+01 -3.739323094487190247e-02 6.266934394836425781e+00 1.868862390518188477e+00 2.608081400394439697e-01
2.430000000000000000e+03 6.707111358642578125e+01 -2.939435958862304688e+01 4.629256948828697205e-02 5.660737991333007812e+00 1.712109088897705078e+00 -1.592276841402053833e-01
2.431000000000000000e+03 7.206298828125000000e+01 3.326708984375000000e+01 -1.025207862257957458e-01 6.230586051940917969e+00 1.838419675827026367e+00 1.763481795787811279e-01
2.432000000000000000e+03 6.227835083007812500e+01 -2.863982200622558594e+01 -2.097021937370300293e-01 5.315083503723144531e+00 1.531614422798156738e+00 -1.914208531379699707e-01
2.433000000000000000e+03 2.377619552612304688e+01 -2.274884033203125000e+01 3.581263357773423195e-03 3.420605361461639404e-01 1.036925390362739563e-01 -1.085570901632308960e-01
2.434000000000000000e+03 2.773955154418945312e+01 -2.056543540954589844e+01 -7.559771835803985596e-02 4.421703517436981201e-01 1.099717915058135986e-01 -6.894252449274063110e-02
2.435000000000000000e+03 7.000548553466796875e+01 3.130401992797851562e+01 -1.147928088903427124e-01 6.094336032867431641e+00 1.793862938880920410e+00 1.890783607959747314e-01
2.436000000000000000e+03 3.122317695617675781e+01 -2.244690513610839844e+01 5.706831067800521851e-02 6.582453250885009766e-01 2.145940959453582764e-01 7.744179666042327881e-02
2.437000000000000000e+03 2.621161651611328125e+01 2.649859189987182617e+00 -1.341140985488891602e+00 -2.549771070480346680e-01 -4.788354337215423584e-01 -5.459201335906982422e-01
2.438000000000000000e+03 2.050399017333984375e+01 1.932592630386352539e+00 1.500056385993957520e+00 4.236378371715545654e-01 5.771082639694213867e-01 -3.295288383960723877e-01
2.439000000000000000e+03 2.020194435119628906e+01 2.451807737350463867e+00 9.739398956298828125e-01 8.472479134798049927e-02 3.175994157791137695e-01 -1.630003899335861206e-01
2.440000000000000000e+03 1.571704673767089844e+01 -2.036825656890869141e+00 -8.372606709599494934e-03 -6.063253153115510941e-03 -4.330758005380630493e-03 2.641963772475719452e-03
2.441000000000000000e+03 3.677846527099609375e+01 9.535160064697265625e+00 1.314677391201257706e-02 -4.625764675438404083e-03 2.556302817538380623e-03 2.675171708688139915e-03
2.442000000000000000e+03 2.468073081970214844e+01 1.845273494720458984e+00 -4.661294221878051758e-01 -9.824492968618869781e-03 -1.427861750125885010e-01 -1.101597249507904053e-01
2.443000000000000000e+03 2.204742193222045898e+00 2.816879987716674805e+00 6.258040666580200195e-01 -8.010175228118896484e-01 -5.256403237581253052e-02 5.255689024925231934e-01
2.444000000000000000e+03 3.566386032104492188e+01 9.191887855529785156e+00 8.213856257498264313e-03 8.411939255893230438e-03 4.987738560885190964e-03 9.109722450375556946e-03
2.445000000000000000e+03 1.570325756072998047e+01 -3.284617185592651367e+00 -2.607077918946743011e-02 -1.179882138967514038e-02 -1.136088091880083084e-02 1.207546517252922058e-02
2.446000000000000000e+03 3.061021232604980469e+01 8.436684608459472656e-01 8.150988221168518066e-01 1.302378058433532715e+00 6.352430582046508789e-01 5.762000381946563721e-02
2.447000000000000000e+03 2.968088531494140625e+01 9.083591699600219727e-01 1.344025850296020508e+00 1.022729158401489258e+00 7.100265026092529297e-01 -1.212560012936592102e-01
2.448000000000000000e+03 7.832717132568359375e+01 6.814537048339843750e+00 1.308646798133850098e+00 9.090310096740722656e+00 3.119687080383300781e+00 -9.858958125114440918e-01
2.449000000000000000e+03 7.639945983886718750e+01 -1.389732211828231812e-01 -1.878623247146606445e+00 7.878810405731201172e+00 1.800056219100952148e+00 8.816808462142944336e-01
2.450000000000000000e+03 6.069321823120117188e+01 -1.873346519470214844e+01 6.307020783424377441e-01 6.838551521301269531e+00 2.240776062011718750e+00 -1.448533415794372559e+00
2.451000000000000000e+03 5.364075851440429688e+01 1.565365219116210938e+01 6.940968632698059082e-01 9.470125198364257812e+00 3.049266576766967773e+00 3.040207386016845703e+00
2.452000000000000000e+03 2.965605163574218750e+01 1.851064801216125488e+00 -4.794236272573471069e-02 5.974647402763366699e-01 1.648567020893096924e-01 -2.731161117553710938e-01
2.453000000000000000e+03 6.896479129791259766e+00 -3.564032745361328125e+01 3.721790760755538940e-02 -2.353308498859405518e-01 -5.943388491868972778e-02 -6.397427618503570557e-02
2.454000000000000000e+03 7.471405029296875000e+01 -5.146426558494567871e-01 -2.049608230590820312e+00 4.195713043212890625e+00 6.438314318656921387e-01 3.414278328418731689e-01
2.455000000000000000e+03 3.518532562255859375e+01 5.641908645629882812e-01 8.518059849739074707e-01 -5.443771481513977051e-01 9.222864359617233276e-02 1.444745212793350220e-01
2.456000000000000000e+03 3.504975891113281250e+01 2.561966180801391602e+00 3.168809115886688232e-01 3.326766565442085266e-02 1.050445735454559326e-01 4.375089406967163086e-01
2.457000000000000000e+03 1.855226325988769531e+01 6.454446792602539062e+00 -8.331615477800369263e-02 1.655847392976284027e-02 -2.002730406820774078e-02 -4.255995526909828186e-02
2.458000000000000000e+03 1.275851821899414062e+01 -4.378540515899658203e+00 -4.790851846337318420e-02 1.276417542248964310e-02 -1.054330263286828995e-02 1.438662759028375149e-03
2.459000000000000000e+03 3.409917831420898438e+01 3.502673864364624023e+00 -8.613406866788864136e-02 1.565667241811752319e-01 2.112979814410209656e-02 3.662146627902984619e-01
2.460000000000000000e+03 3.753000640869140625e+01 8.671231269836425781e+00 -4.741300828754901886e-03 3.091662423685193062e-03 -4.948915448039770126e-04 2.800223184749484062e-03
2.461000000000000000e+03 2.342863321304321289e+00 3.674495315551757812e+01 1.222672779113054276e-02 -1.481623798608779907e-01 -4.078069701790809631e-02 4.001710936427116394e-02
2.462000000000000000e+03 7.789280700683593750e+01 -3.702864837646484375e+01 2.019266365095973015e-03 7.654819011688232422e+00 2.297051429748535156e+00 4.689627885818481445e-02
2.463000000000000000e+03 7.395002746582031250e+01 -3.726011216640472412e-01 -1.451841473579406738e+00 1.840678334236145020e+00 1.166510656476020813e-01 -1.636150181293487549e-01
2.464000000000000000e+03 2.009047031402587891e+00 3.561112213134765625e+01 1.760545070283114910e-03 -1.339368373155593872e-01 -3.965288773179054260e-02 4.021992161870002747e-02
2.465000000000000000e+03 3.151978111267089844e+01 1.806924462318420410e+00 6.098753213882446289e-01 7.138123512268066406e-01 3.971062898635864258e-01 3.732831180095672607e-01
2.466000000000000000e+03 2.853153228759765625e+01 1.434195041656494141e-01 1.283322453498840332e+00 -1.268588565289974213e-02 3.811909854412078857e-01 7.814550399780273438e-02
2.467000000000000000e+03 5.133244323730468750e+01 1.532654166221618652e-01 7.960309982299804688e-01 6.836369037628173828e+00 2.289720058441162109e+00 8.213098049163818359e-01
2.468000000000000000e+03 7.399435424804687500e+01 1.281426620483398438e+01 1.433467745780944824e+00 4.575680255889892578e+00 1.802744388580322266e+00 -1.292077422142028809e+00
2.469000000000000000e+03 6.006600570678710938e+01 -1.801691436767578125e+01 3.080179989337921143e-01 7.211924552917480469e+00 2.255982875823974609e+00 -1.291840553283691406e+00
2.470000000000000000e+03 5.274939727783203125e+01 -1.539926886558532715e+00 -2.777610301971435547e+00 7.958314418792724609e+00 1.554211258888244629e+00 -1.827100992202758789e+00
2.471000000000000000e+03 3.223486328125000000e+01 1.917318916320800781e+01 -6.725763082504272461e-01 -1.112122833728790283e-01 -2.351365685462951660e-01 3.305405080318450928e-01
2.472000000000000000e+03 3.524053573608398438e+01 3.188415145874023438e+01 3.798922896385192871e-01 8.649364113807678223e-01 3.734486103057861328e-01 -1.461576521396636963e-01
2.473000000000000000e+03 5.205554962158203125e+01 2.189978027343750000e+01 -7.886628508567810059e-01 6.191747188568115234e+00 1.620925307273864746e+00 -1.932331621646881104e-01
2.474000000000000000e+03 4.872005844116210938e+01 -3.168760108947753906e+01 1.152065694332122803e-01 2.631928205490112305e+00 8.241404294967651367e-01 4.649487882852554321e-02
2.475000000000000000e+03 3.870605850219726562e+01 -2.526829910278320312e+01 -3.364933431148529053e-01 1.832499504089355469e+00 4.488018155097961426e-01 2.520359158515930176e-01
2.476000000000000000e+03 4.984070968627929688e+01 -2.589429283142089844e+01 -5.004572868347167969e-02 2.129125833511352539e+00 6.237239837646484375e-01 2.540453709661960602e-02
2.477000000000000000e+03 6.994508361816406250e+01 -2.219191551208496094e+01 2.334453165531158447e-01 5.204731941223144531e+00 1.631453275680541992e+00 2.512830793857574463e-01
2.478000000000000000e+03 2.730851936340332031e+01 -6.190707683563232422e-01 1.050639510154724121e+00 -2.547325789928436279e-01 2.387720644474029541e-01 8.507391065359115601e-02
2.479000000000000000e+03 2.819554138183593750e+01 -9.936921596527099609e-01 1.213905930519104004e+00 6.236510723829269409e-02 3.828813135623931885e-01 3.454466164112091064e-01
2.480000000000000000e+03 5.401748657226562500e+01 1.759122467041015625e+01 1.881503313779830933e-01 7.682584285736083984e+00 2.361220359802246094e+00 2.071483612060546875e+00
2.481000000000000000e+03 5.830047988891601562e+01 -8.613884925842285156e+00 9.263208508491516113e-01 7.824014663696289062e+00 2.625100612640380859e+00 -8.301700465381145477e-03
2.482000000000000000e+03 7.556625366210937500e+01 1.481018733978271484e+01 5.761571526527404785e-01 5.733689785003662109e+00 1.892954111099243164e+00 -8.481279015541076660e-01
2.483000000000000000e+03 3.164112663269042969e+01 -1.288611602783203125e+01 -5.678050518035888672e-01 2.686679065227508545e-01 -8.974114060401916504e-02 1.253848373889923096e-01
2.484000000000000000e+03 7.620067596435546875e+01 3.050562667846679688e+01 -3.359834849834442139e-02 6.386207580566406250e+00 1.905782818794250488e+00 1.650781780481338501e-01
2.485000000000000000e+03 7.458802032470703125e+01 2.870823478698730469e+01 -5.924033001065254211e-02 6.295922279357910156e+00 1.871004581451416016e+00 2.266565710306167603e-01
2.486000000000000000e+03 1.627521705627441406e+01 -3.341285705566406250e+01 1.170375123620033264e-01 1.108217984437942505e-01 6.835779547691345215e-02 -9.848147630691528320e-02
2.487000000000000000e+03 3.529104232788085938e+00 -2.617610359191894531e+01 1.068649115040898323e-03 -2.623768150806427002e-01 -7.839245349168777466e-02 -6.993795186281204224e-02
2.488000000000000000e+03 5.032489299774169922e+00 -2.754583358764648438e+01 6.675440352410078049e-03 -2.316863536834716797e-01 -6.750327348709106445e-02 -8.930373936891555786e-02
2.489000000000000000e+03 5.205894947052001953e+00 -2.359303283691406250e+01 3.724196460098028183e-03 -1.747158616781234741e-01 -5.129749700427055359e-02 -1.046825647354125977e-01
2.490000000000000000e+03 4.629999637603759766e+00 2.370866775512695312e+01 -1.504524424672126770e-02 1.145664080977439880e-01 2.985635027289390564e-02 1.151619181036949158e-01
2.491000000000000000e+03 1.605849838256835938e+01 2.009904479980468750e+01 -4.052772521972656250e-01 -2.800286374986171722e-02 -1.299840360879898071e-01 1.768899112939834595e-01
2.492000000000000000e+03 6.400400638580322266e+00 -5.078668594360351562e+00 -1.640557311475276947e-02 -6.320269778370857239e-03 -6.817752961069345474e-03 -1.624417491257190704e-02
2.493000000000000000e+03 3.099766349792480469e+01 1.897906875610351562e+01 -7.084742188453674316e-01 -6.795413047075271606e-02 -2.329284995794296265e-01 3.982025384902954102e-01
2.494000000000000000e+03 6.199419021606445312e+01 -1.536037254333496094e+01 6.886024028062820435e-02 6.853883266448974609e+00 2.076822996139526367e+00 -1.055866956710815430e+00
2.495000000000000000e+03 5.757277679443359375e+01 -2.975816535949707031e+01 -2.012476921081542969e-01 4.415363311767578125e+00 1.264234662055969238e+00 2.539355754852294922e-01
2.496000000000000000e+03 4.136441421508789062e+01 -3.287625885009765625e+01 8.856371790170669556e-02 1.922536969184875488e+00 6.033301949501037598e-01 -6.178171373903751373e-03
2.497000000000000000e+03 4.346241760253906250e+01 -3.190703392028808594e+01 5.617266520857810974e-02 2.121964454650878906e+00 6.534411311149597168e-01 -1.041069347411394119e-02
2.498000000000000000e+03 4.837293624877929688e+01 -2.594042396545410156e+01 -5.393279716372489929e-02 2.267108440399169922e+00 6.639526486396789551e-01 -2.397815883159637451e-01
2.499000000000000000e+03 5.729407310485839844e+00 3.440666198730468750e+01 4.100408032536506653e-02 -9.260678291320800781e-02 -1.548081077635288239e-02 1.190234124660491943e-01
2.500000000000000000e+03 1.930878639221191406e+01 2.883671188354492188e+01 9.634259343147277832e-02 -1.321292519569396973e-01 -1.073599606752395630e-02 2.727022171020507812e-01
2.501000000000000000e+03 3.585804367065429688e+01 -2.872437286376953125e+01 2.076242677867412567e-02 1.337053894996643066e+00 4.073449075222015381e-01 1.285960078239440918e-01
2.502000000000000000e+03 4.678616333007812500e+01 -3.014258575439453125e+01 3.612804785370826721e-02 2.359538793563842773e+00 7.187000513076782227e-01 -1.030733510851860046e-01
2.503000000000000000e+03 7.734456634521484375e+01 -1.550956916809082031e+01 1.713589280843734741e-01 8.031957626342773438e+00 2.460994958877563477e+00 -5.084899663925170898e-01
2.504000000000000000e+03 3.348374557495117188e+01 -2.498319244384765625e+01 1.309057325124740601e-01 9.834005236625671387e-01 3.342918753623962402e-01 2.232050895690917969e-01
2.505000000000000000e+03 2.977993965148925781e+01 1.886266708374023438e+01 -8.807227015495300293e-01 4.177987575531005859e-02 -2.516828477382659912e-01 3.790957629680633545e-01
2.506000000000000000e+03 1.325873374938964844e+01 1.626776123046875000e+01 -3.328573703765869141e-01 -4.623343702405691147e-03 -1.012442111968994141e-01 -1.583475060760974884e-02
2.507000000000000000e+03 1.350507831573486328e+01 1.469593334197998047e+01 -3.372921049594879150e-01 -3.073118813335895538e-02 -1.104069948196411133e-01 -7.035269588232040405e-02
2.508000000000000000e+03 5.921462249755859375e+01 -7.402159690856933594e+00 1.058912754058837891e+00 7.524577140808105469e+00 2.575047016143798828e+00 3.074553608894348145e-02
2.509000000000000000e+03 1.691869544982910156e+01 -9.154505729675292969e+00 -1.806405633687973022e-01 5.710579454898834229e-02 -3.706043213605880737e-02 -1.061973534524440765e-02
2.510000000000000000e+03 4.326824188232421875e+01 -2.770190238952636719e+01 -2.336858212947845459e-01 2.199655532836914062e+00 5.897909402847290039e-01 -8.484611660242080688e-02
2.511000000000000000e+03 3.938043594360351562e+01 1.639486885070800781e+01 -1.069396495819091797e+00 4.453969001770019531e-01 -1.871998757123947144e-01 1.378493499942123890e-03
2.512000000000000000e+03 7.182478332519531250e+01 1.866089820861816406e+01 5.996513962745666504e-01 6.272968769073486328e+00 2.061786174774169922e+00 4.240835905075073242e-01
2.513000000000000000e+03 4.440918731689453125e+01 -2.605285263061523438e+01 -2.583973109722137451e-01 2.353229284286499023e+00 6.284495592117309570e-01 -1.948705464601516724e-01
2.514000000000000000e+03 7.707879638671875000e+01 -1.924526596069335938e+01 -3.737767636775970459e-01 8.179157257080078125e+00 2.341614007949829102e+00 -2.668510079383850098e-01
2.515000000000000000e+03 4.709513854980468750e+01 -2.628197860717773438e+01 -1.884375661611557007e-01 2.224977970123291016e+00 6.109620928764343262e-01 -2.177169024944305420e-01
2.516000000000000000e+03 5.933685302734375000e+01 -2.912206840515136719e+01 -3.485323786735534668e-01 4.967809677124023438e+00 1.385783195495605469e+00 1.078021526336669922e-01
2.517000000000000000e+03 7.510760498046875000e+01 3.216413879394531250e+01 -4.052058607339859009e-02 6.373695373535156250e+00 1.899952530860900879e+00 1.619432270526885986e-01
2.518000000000000000e+03 4.827296447753906250e+01 2.654584503173828125e+01 -2.154270559549331665e-01 3.741085052490234375e+00 1.057697415351867676e+00 -8.019112348556518555e-01
2.519000000000000000e+03 5.027619838714599609e+00 -2.890913009643554688e+01 1.447841431945562363e-02 -2.511264085769653320e-01 -7.099439948797225952e-02 -9.301815181970596313e-02
2.520000000000000000e+03 5.050238609313964844e+00 -2.491555976867675781e+01 3.047192003577947617e-03 -1.975582093000411987e-01 -5.835330486297607422e-02 -9.381280839443206787e-02
2.521000000000000000e+03 6.499541759490966797e+00 -2.507044982910156250e+01 7.582610938698053360e-03 -1.607410013675689697e-01 -4.594751819968223572e-02 -1.168406456708908081e-01
2.522000000000000000e+03 2.070181465148925781e+01 -1.742990303039550781e+01 -1.352726072072982788e-01 1.835560947656631470e-01 1.448504719883203506e-02 -1.176981255412101746e-01
2.523000000000000000e+03 7.313967132568359375e+01 2.812425041198730469e+01 -7.961924374103546143e-02 6.250967025756835938e+00 1.851404309272766113e+00 2.297706902027130127e-01
2.524000000000000000e+03 4.036905670166015625e+01 2.513197517395019531e+01 1.640301346778869629e-01 1.139102578163146973e+00 3.909398019313812256e-01 -5.398461818695068359e-01
2.525000000000000000e+03 6.458190917968750000e+01 -2.689734649658203125e+01 -7.810360938310623169e-02 5.529551506042480469e+00 1.635434389114379883e+00 -4.507054984569549561e-01
2.526000000000000000e+03 6.570422363281250000e+01 -2.615552902221679688e+01 1.381937414407730103e-01 5.278680324554443359e+00 1.625062108039855957e+00 -4.248942434787750244e-01
2.527000000000000000e+03 5.928424835205078125e+00 -4.055596351623535156e+00 -1.165621355175971985e-02 -4.643039777874946594e-03 -4.889775998890399933e-03 -1.060640066862106323e-02
2.528000000000000000e+03 7.570289611816406250e+01 1.963204574584960938e+01 2.944442331790924072e-01 6.033373355865478516e+00 1.898345232009887695e+00 8.581257611513137817e-02
2.529000000000000000e+03 7.348902893066406250e+01 3.128474426269531250e+01 -7.464917749166488647e-02 6.291087627410888672e+00 1.864931464195251465e+00 1.998876333236694336e-01
2.530000000000000000e+03 7.227637481689453125e+01 2.038482475280761719e+01 1.981838643550872803e-01 6.282855987548828125e+00 1.944311976432800293e+00 3.085977733135223389e-01
2.531000000000000000e+03 6.047554016113281250e+00 -1.656175613403320312e+01 -2.313235588371753693e-02 -7.250047475099563599e-02 -2.868984825909137726e-02 -9.562736749649047852e-02
2.532000000000000000e+03 4.041149902343750000e+01 2.102097892761230469e+01 -7.062523066997528076e-02 7.981678843498229980e-01 2.182627916336059570e-01 -4.509228169918060303e-01
2.533000000000000000e+03 7.057872009277343750e+01 -2.815900039672851562e+01 2.070452570915222168e-01 6.109466075897216797e+00 1.894953489303588867e+00 8.298956602811813354e-02
2.534000000000000000e+03 1.200326442718505859e+01 1.590774345397949219e+01 -2.897735834121704102e-01 2.586260065436363220e-02 -7.917329668998718262e-02 -2.044142782688140869e-02
2.535000000000000000e+03 2.333143615722656250e+01 -1.938734245300292969e+01 -1.519208848476409912e-01 2.894723415374755859e-01 4.126543924212455750e-02 -1.220536455512046814e-01
2.536000000000000000e+03 8.762631416320800781e+00 1.646231842041015625e+01 -1.874115020036697388e-01 9.695085883140563965e-02 -2.713819406926631927e-02 1.218211837112903595e-03
2.537000000000000000e+03 7.307793426513671875e+01 -2.563711929321289062e+01 1.503570377826690674e-02 6.677987098693847656e+00 2.007906675338745117e+00 2.278839051723480225e-01
2.538000000000000000e+03 7.422828674316406250e+01 -2.509719467163085938e+01 5.388868227601051331e-02 6.927674293518066406e+00 2.094468832015991211e+00 1.841036677360534668e-01
2.539000000000000000e+03 7.466387939453125000e+01 -2.637068557739257812e+01 1.955050788819789886e-02 7.126358032226562500e+00 2.143772602081298828e+00 2.204682528972625732e-01
2.540000000000000000e+03 1.359627151489257812e+01 2.302092361450195312e+01 -1.658271700143814087e-01 -2.244466729462146759e-02 -5.648155137896537781e-02 2.280004024505615234e-01
2.541000000000000000e+03 8.428139686584472656e+00 2.439529800415039062e+01 -5.622986331582069397e-02 3.769730776548385620e-02 -5.559766199439764023e-03 1.773166805505752563e-01
2.542000000000000000e+03 1.320086002349853516e+01 2.419423103332519531e+01 -1.388669759035110474e-01 -3.517035394906997681e-02 -5.221119895577430725e-02 2.379390150308609009e-01
2.543000000000000000e+03 1.331380271911621094e+01 -9.858011245727539062e+00 -1.054256558418273926e-01 4.108240827918052673e-02 -1.930297538638114929e-02 -5.002241954207420349e-02
2.544000000000000000e+03 1.057400035858154297e+01 -9.436432838439941406e+00 -6.442994624376296997e-02 1.756533607840538025e-02 -1.405938342213630676e-02 -5.233817547559738159e-02
2.545000000000000000e+03 1.361903762817382812e+01 -1.062775039672851562e+01 -1.283107250928878784e-01 5.116711184382438660e-02 -2.314308285713195801e-02 -7.087298482656478882e-02
2.546000000000000000e+03 1.365922069549560547e+01 -1.167629337310791016e+01 -1.094547584652900696e-01 5.087852478027343750e-02 -1.757286861538887024e-02 -8.500643819570541382e-02
2.547000000000000000e+03 8.516019821166992188e+00 -6.401164054870605469e+00 -4.135653376579284668e-02 7.271759212017059326e-03 -1.022543199360370636e-02 -2.432554773986339569e-02
2.548000000000000000e+03 1.194053268432617188e+01 -2.393171882629394531e+01 1.565937325358390808e-02 -3.622384276241064072e-03 3.611096646636724472e-03 -1.474873125553131104e-01
2.549000000000000000e+03 4.037366485595703125e+01 1.113951778411865234e+01 -8.129268884658813477e-01 -1.644668541848659515e-02 -2.488120794296264648e-01 1.292084604501724243e-01
2.550000000000000000e+03 3.962160873413085938e+01 1.131359195709228516e+01 -8.567811846733093262e-01 5.499794147908687592e-03 -2.553844153881072998e-01 2.013555169105529785e-01
2.551000000000000000e+03 4.275807952880859375e+01 1.133976268768310547e+01 -6.542447209358215332e-01 2.296993276104331017e-03 -1.955843120813369751e-01 -2.640906572341918945e-01
2.552000000000000000e+03 3.886851119995117188e+01 1.148583889007568359e+01 -8.255165815353393555e-01 -7.175497710704803467e-02 -2.691814601421356201e-01 2.176758199930191040e-01
2.553000000000000000e+03 4.112229919433593750e+01 1.096372222900390625e+01 -6.747416853904724121e-01 4.362319037318229675e-02 -1.893355399370193481e-01 6.840725243091583252e-02
2.554000000000000000e+03 4.054919052124023438e+01 1.186267280578613281e+01 -8.668252229690551758e-01 1.153699159622192383e-01 -2.254365980625152588e-01 6.701961904764175415e-02
2.555000000000000000e+03 4.185790634155273438e+01 1.078891849517822266e+01 -4.635653197765350342e-01 4.293277859687805176e-02 -1.261897683143615723e-01 -3.038678877055644989e-02
2.556000000000000000e+03 4.253778457641601562e+01 1.062180137634277344e+01 -2.172941565513610840e-01 -1.607989519834518433e-02 -7.001221179962158203e-02 -5.103036761283874512e-02
2.557000000000000000e+03 4.325923919677734375e+01 1.099616241455078125e+01 -2.602023780345916748e-01 -6.911256909370422363e-02 -9.879448264837265015e-02 -1.631187647581100464e-01
2.558000000000000000e+03 3.901419448852539062e+01 1.221245574951171875e+01 -8.290405273437500000e-01 3.326130285859107971e-02 -2.387337684631347656e-01 3.240530788898468018e-01
2.559000000000000000e+03 4.131274795532226562e+01 1.168514633178710938e+01 -8.170366287231445312e-01 1.436248421669006348e-01 -2.020235508680343628e-01 -4.572241380810737610e-02
2.560000000000000000e+03 4.206327819824218750e+01 1.150861167907714844e+01 -7.583293914794921875e-01 1.801973432302474976e-01 -1.734396219253540039e-01 -1.242749541997909546e-01
2.561000000000000000e+03 3.978221511840820312e+01 1.203847694396972656e+01 -9.010536670684814453e-01 6.789434701204299927e-02 -2.499478012323379517e-01 1.715284585952758789e-01
2.562000000000000000e+03 3.674169540405273438e+01 1.212182044982910156e+01 -6.013301759958267212e-02 -3.777755498886108398e-01 -1.313725709915161133e-01 2.914955317974090576e-01
2.563000000000000000e+03 3.698434829711914062e+01 1.262278556823730469e+01 -7.312740683555603027e-01 -1.759703010320663452e-01 -2.721733152866363525e-01 4.404668211936950684e-01
2.564000000000000000e+03 3.825864791870117188e+01 1.234777259826660156e+01 -8.381662368774414062e-01 3.824246348813176155e-03 -2.503026127815246582e-01 4.336652159690856934e-01
2.565000000000000000e+03 3.804425811767578125e+01 1.163198184967041016e+01 -5.330780148506164551e-01 4.446457605808973312e-03 -1.585894674062728882e-01 2.732096314430236816e-01
2.566000000000000000e+03 3.756306838989257812e+01 1.246899890899658203e+01 -8.343721032142639160e-01 -1.178798899054527283e-01 -2.856755852699279785e-01 5.959416627883911133e-01
2.567000000000000000e+03 3.719634628295898438e+01 1.177657890319824219e+01 -1.503819227218627930e-01 -1.218103915452957153e-01 -8.165769279003143311e-02 1.365119367837905884e-01
2.568000000000000000e+03 3.663000488281250000e+01 1.268585968017578125e+01 -7.158422470092773438e-01 -5.881607532501220703e-01 -3.912009000778198242e-01 5.826992392539978027e-01
2.569000000000000000e+03 3.645061874389648438e+01 1.246910285949707031e+01 -2.442090809345245361e-01 -5.234236717224121094e-01 -2.302898317575454712e-01 3.573608100414276123e-01
2.570000000000000000e+03 3.871810150146484375e+01 1.072134113311767578e+01 9.911146014928817749e-03 -2.219013913418166339e-05 2.966686617583036423e-03 -1.515374984592199326e-03
2.571000000000000000e+03 3.946144485473632812e+01 1.055411434173583984e+01 3.369536949321627617e-03 -7.681977585889399052e-04 7.804017513990402222e-04 -3.794217249378561974e-03
2.572000000000000000e+03 4.214028167724609375e+01 9.757813453674316406e+00 -6.005251198075711727e-04 9.433716768398880959e-04 1.028539627441205084e-04 1.887693651951849461e-04
2.573000000000000000e+03 3.857750320434570312e+01 9.993584632873535156e+00 -6.397048477083444595e-03 -2.972574729938060045e-04 -2.008291892707347870e-03 -3.626977559179067612e-03
2.574000000000000000e+03 4.160499191284179688e+01 1.006451320648193359e+01 3.458656370639801025e-03 -1.188545953482389450e-03 6.810331251472234726e-04 -6.834690575487911701e-04
2.575000000000000000e+03 4.144534683227539062e+01 9.334435462951660156e+00 -1.261951308697462082e-02 -5.443030502647161484e-03 -5.418763030320405960e-03 2.906298264861106873e-03
2.576000000000000000e+03 4.092973709106445312e+01 1.022012138366699219e+01 -1.967811404028907418e-04 2.063829306280240417e-04 2.880539568650419824e-06 6.596044986508786678e-04
2.577000000000000000e+03 4.020204162597656250e+01 1.038670063018798828e+01 3.265147795900702477e-03 3.122651483863592148e-03 1.916339853778481483e-03 -1.730747637338936329e-03
2.578000000000000000e+03 4.077485275268554688e+01 9.490621566772460938e+00 1.936588902026414871e-03 1.060455013066530228e-02 3.762341802939772606e-03 -2.524870214983820915e-03
2.579000000000000000e+03 4.005191802978515625e+01 9.657777786254882812e+00 -2.497693989425897598e-03 -1.405562157742679119e-03 -1.170976902358233929e-03 -5.631943233311176300e-03
2.580000000000000000e+03 3.931608200073242188e+01 9.825769424438476562e+00 6.287605967372655869e-03 1.495340111432597041e-04 1.931142061948776245e-03 -1.132064207922667265e-04
2.581000000000000000e+03 1.463219356536865234e+01 1.208772420883178711e+00 -7.102735638618469238e-01 -6.405190229415893555e-01 -4.052377641201019287e-01 -2.635732591152191162e-01
2.582000000000000000e+03 1.413865852355957031e+01 3.089686632156372070e-01 -1.488441228866577148e-01 -3.748200088739395142e-02 -5.589783564209938049e-02 -1.203693971037864685e-01
2.583000000000000000e+03 1.413591098785400391e+01 8.441513180732727051e-01 -1.334991585463285446e-02 5.749234184622764587e-02 1.324272807687520981e-02 -5.510830283164978027e-01
2.584000000000000000e+03 1.324289608001708984e+01 1.113969683647155762e+00 -5.031455159187316895e-01 -4.917832091450691223e-02 -1.656971424818038940e-01 -2.800126969814300537e-01
2.585000000000000000e+03 1.484628582000732422e+01 5.796153545379638672e-01 -1.293649803847074509e-02 -6.952459365129470825e-02 -2.473832666873931885e-02 -3.018400631844997406e-02
2.586000000000000000e+03 1.338759136199951172e+01 2.497024983167648315e-01 -4.362910985946655273e-01 1.351317670196294785e-02 -1.268333792686462402e-01 -1.382393985986709595e-01
2.587000000000000000e+03 1.422421169281005859e+01 1.250681281089782715e+00 -3.867110908031463623e-01 -2.400248497724533081e-02 -1.232140734791755676e-01 -1.253953017294406891e-02
2.588000000000000000e+03 1.355335903167724609e+01 8.086416125297546387e-01 -1.547243259847164154e-02 5.907776579260826111e-02 1.308159995824098587e-02 -7.879716902971267700e-02
2.589000000000000000e+03 1.374464988708496094e+01 1.230049014091491699e+00 -2.695393562316894531e-01 2.037320882081985474e-01 -1.974218524992465973e-02 -4.825158119201660156e-01
2.590000000000000000e+03 1.038163661956787109e+01 3.719484806060791016e-01 -1.687885165214538574e+00 -2.310645133256912231e-01 -5.756849050521850586e-01 -2.235511094331741333e-01
2.591000000000000000e+03 1.112833786010742188e+01 3.352923989295959473e-01 -1.233051300048828125e+00 9.270955622196197510e-02 -3.421024978160858154e-01 -4.870121926069259644e-02
2.592000000000000000e+03 1.187404060363769531e+01 3.023687005043029785e-01 -9.395750164985656738e-01 -4.859271273016929626e-02 -2.964503169059753418e-01 -9.548089653253555298e-02
2.593000000000000000e+03 1.187335777282714844e+01 1.043116807937622070e+00 -3.889247775077819824e-01 -3.174973418936133385e-03 -1.176299229264259338e-01 -3.063917756080627441e-01
2.594000000000000000e+03 1.261872673034667969e+01 2.733090519905090332e-01 -6.746789813041687012e-01 4.318457469344139099e-02 -1.894483268260955811e-01 -7.150947302579879761e-02
2.595000000000000000e+03 1.261125278472900391e+01 1.014356493949890137e+00 -2.309017330408096313e-01 1.254686736501753330e-03 -6.889411807060241699e-02 -3.207485973834991455e-01
2.596000000000000000e+03 1.039453697204589844e+01 1.112098097801208496e+00 -9.383806586265563965e-01 -2.825702726840972900e-01 -3.662852942943572998e-01 -5.678398609161376953e-01
2.597000000000000000e+03 1.113444709777832031e+01 1.075741291046142578e+00 -6.668450236320495605e-01 -4.368522390723228455e-02 -2.131590694189071655e-01 -4.916511774063110352e-01
2.598000000000000000e+03 7.494624137878417969e+00 2.765599191188812256e-01 -8.502396583557128906e+00 -2.299378067255020142e-01 -2.619700193405151367e+00 -5.278387069702148438e-01
2.599000000000000000e+03 7.906764030456542969e+00 6.141789555549621582e-01 -5.850480556488037109e+00 5.661326646804809570e-01 -1.585304379463195801e+00 -2.454971551895141602e+00
2.600000000000000000e+03 5.738527774810791016e+00 4.584821760654449463e-01 -1.035758304595947266e+01 1.352067232131958008e+00 -2.701654911041259766e+00 1.410232663154602051e+00
2.601000000000000000e+03 4.232110023498535156e+00 3.002887070178985596e-01 -4.998516082763671875e+00 -7.946834713220596313e-02 -1.523395419120788574e+00 5.414900779724121094e-01
2.602000000000000000e+03 3.477184772491455078e+00 2.699232697486877441e-01 -3.261248350143432617e+00 1.114171743392944336e-01 -9.449493288993835449e-01 6.055200099945068359e-01
2.603000000000000000e+03 2.787091255187988281e+00 1.241029620170593262e+00 -4.563757181167602539e-01 -4.695369005203247070e-01 -2.777737975120544434e-01 1.230251312255859375e+00
2.604000000000000000e+03 1.349060535430908203e+00 3.122501373291015625e-01 -3.505569100379943848e-01 -1.728057563304901123e-01 -1.570087969303131104e-01 1.141625046730041504e-01
2.605000000000000000e+03 1.150017499923706055e+00 1.154835462570190430e+00 -3.268567323684692383e-01 -2.575558722019195557e-01 -1.753237843513488770e-01 4.978011548519134521e-01
2.606000000000000000e+03 7.371624708175659180e-01 4.148354530334472656e-01 3.475171700119972229e-02 6.097750738263130188e-02 2.871876768767833710e-02 1.957155764102935791e-01
2.607000000000000000e+03 3.985211253166198730e-01 9.653077125549316406e-01 -9.662814438343048096e-02 -2.446023672819137573e-01 -1.023691594600677490e-01 5.262429639697074890e-02
2.608000000000000000e+03 2.714121818542480469e+00 2.607523500919342041e-01 -1.847952127456665039e+00 -2.700636386871337891e-01 -6.354047060012817383e-01 3.219783306121826172e-01
2.609000000000000000e+03 3.578377008438110352e+00 1.254032731056213379e+00 -8.103901147842407227e-01 -7.378581166267395020e-01 -4.644744694232940674e-01 2.149577617645263672e+00
2.610000000000000000e+03 4.989477634429931641e+00 4.173874855041503906e-01 -7.923789978027343750e+00 -9.131042361259460449e-01 -2.651068210601806641e+00 1.806704759597778320e+00
2.611000000000000000e+03 4.816241741180419922e+00 1.036553978919982910e+00 -1.263006091117858887e+00 -7.690603733062744141e-01 -6.096199154853820801e-01 3.516791582107543945e+00
2.612000000000000000e+03 6.473507881164550781e+00 4.447458684444427490e-01 -1.036450290679931641e+01 1.065428018569946289e+00 -2.789722442626953125e+00 -9.348435401916503906e-01
2.613000000000000000e+03 8.077394485473632812e+00 2.272226661443710327e-01 -6.113470554351806641e+00 2.559049725532531738e-01 -1.757269620895385742e+00 -3.519641458988189697e-01
2.614000000000000000e+03 8.767662048339843750e+00 3.263196349143981934e-01 -4.025355339050292969e+00 9.913501329720020294e-03 -1.204632520675659180e+00 -6.997759342193603516e-01
2.615000000000000000e+03 9.573480606079101562e+00 3.943377137184143066e-01 -2.676004171371459961e+00 -9.224241971969604492e-02 -8.304739594459533691e-01 -5.659196972846984863e-01
2.616000000000000000e+03 9.561916351318359375e+00 1.134337663650512695e+00 -6.293461322784423828e-01 -5.461206436157226562e-01 -3.526400327682495117e-01 -9.276190996170043945e-01
2.617000000000000000e+03 8.419772148132324219e+00 8.180260062217712402e-01 -1.996122002601623535e+00 -4.205907583236694336e-01 -7.250137925148010254e-01 -2.148793935775756836e+00
2.618000000000000000e+03 7.991014480590820312e+00 1.251706361770629883e+00 6.208531260490417480e-01 -7.730902433395385742e-01 -4.567115008831024170e-02 -2.129384756088256836e+00
2.619000000000000000e+03 8.709611892700195312e+00 1.220407009124755859e+00 -6.292040944099426270e-01 -8.890250921249389648e-01 -4.554687440395355225e-01 -1.469754099845886230e+00
2.620000000000000000e+03 1.943127751350402832e+00 1.185093760490417480e+00 -5.010794997215270996e-01 -4.189674258232116699e-01 -2.760140597820281982e-01 8.462847471237182617e-01
2.621000000000000000e+03 1.974635958671569824e+00 2.408613264560699463e-01 -9.438909888267517090e-01 1.846029311418533325e-01 -2.277864217758178711e-01 2.344966381788253784e-01
2.622000000000000000e+03 3.509202957153320312e+00 7.639560103416442871e-01 -2.132231473922729492e+00 -4.759766533970832825e-02 -6.539487838745117188e-01 1.342568755149841309e+00
2.623000000000000000e+03 7.545492649078369141e+00 1.122670531272888184e+00 8.637936711311340332e-01 9.087925553321838379e-01 5.317758917808532715e-01 -3.647580146789550781e+00
2.624000000000000000e+03 4.207462787628173828e+00 7.980244159698486328e-01 -4.460130691528320312e+00 -4.865225851535797119e-01 -1.483996033668518066e+00 2.727274894714355469e+00
2.625000000000000000e+03 7.135966777801513672e+00 7.627057433128356934e-01 -5.715293884277343750e+00 -7.213199734687805176e-01 -1.930984258651733398e+00 -2.125715017318725586e+00
2.626000000000000000e+03 1.947564363479614258e+00 6.659551262855529785e-01 -6.026753187179565430e-01 -6.876897066831588745e-02 -2.014332860708236694e-01 5.727201104164123535e-01
2.627000000000000000e+03 4.309791564941406250e+00 1.257735729217529297e+00 6.404039859771728516e-01 -1.330939888954162598e+00 -2.071607559919357300e-01 2.628661155700683594e+00
2.628000000000000000e+03 2.742933750152587891e+00 7.417819499969482422e-01 -1.315997838973999023e+00 -3.948975205421447754e-01 -5.132685899734497070e-01 1.084659695625305176e+00
2.629000000000000000e+03 9.566904067993164062e+00 -1.132228612899780273e+00 -8.245225064456462860e-03 -5.031060427427291870e-04 -2.624499378725886345e-03 -9.381863055750727654e-04
2.630000000000000000e+03 9.598545074462890625e+00 -3.922285735607147217e-01 -5.112677812576293945e-03 1.017713453620672226e-03 -1.228489214554429054e-03 -2.988626365549862385e-04
2.631000000000000000e+03 8.812765121459960938e+00 -3.957640528678894043e-01 -3.844317048788070679e-03 -6.001786678098142147e-04 -1.333348685875535011e-03 -5.085378070361912251e-04
2.632000000000000000e+03 8.027031898498535156e+00 -3.979452848434448242e-01 -3.185217967256903648e-03 4.777083231601864100e-04 -8.122529252432286739e-04 -5.883405683562159538e-04
2.633000000000000000e+03 7.241412639617919922e+00 -3.994810581207275391e-01 -1.490051741711795330e-03 -1.986057905014604330e-04 -5.065972800366580486e-04 -6.538245361298322678e-04
2.634000000000000000e+03 6.455855369567871094e+00 -4.007253348827362061e-01 -5.861718091182410717e-04 -6.237311754375696182e-05 -1.945634867297485471e-04 -6.852120859548449516e-04
2.635000000000000000e+03 5.670379161834716797e+00 -4.019710123538970947e-01 1.011038199067115784e-03 1.330793456872925162e-04 3.432352677918970585e-04 -3.866666811518371105e-04
2.636000000000000000e+03 4.885241508483886719e+00 -4.049822092056274414e-01 1.468523521907627583e-03 -4.417694290168583393e-04 3.080262104049324989e-04 -5.636840360239148140e-04
2.637000000000000000e+03 4.100406169891357422e+00 -4.093937575817108154e-01 2.524738200008869171e-03 2.159459982067346573e-04 8.222052128985524178e-04 1.946678967215120792e-04
2.638000000000000000e+03 2.535976886749267578e+00 -4.165585339069366455e-01 2.287693554535508156e-03 4.807389632333070040e-05 7.007302483543753624e-04 6.182696088217198849e-04
2.639000000000000000e+03 2.228108406066894531e+00 -1.156558513641357422e+00 -8.220489835366606712e-04 -4.943625754094682634e-05 -2.614455588627606630e-04 -1.494075986556708813e-04
2.640000000000000000e+03 3.742583692073822021e-01 -5.644205808639526367e-01 -1.059460118995048106e-04 7.804886081430595368e-06 -2.944233710877597332e-05 -5.087260433356277645e-05
2.641000000000000000e+03 1.429666161537170410e+00 -1.153271675109863281e+00 1.832186593674123287e-03 -2.561812871135771275e-04 4.728015919681638479e-04 1.492115668952465057e-03
2.642000000000000000e+03 8.750431060791015625e+00 -1.135764002799987793e+00 -8.637293241918087006e-03 1.141873537562787533e-03 -2.248625969514250755e-03 -1.653454615734517574e-03
2.643000000000000000e+03 7.934006214141845703e+00 -1.137945294380187988e+00 -5.829675123095512390e-03 -4.676476819440722466e-04 -1.889196806587278843e-03 -1.842549303546547890e-03
2.644000000000000000e+03 7.117695808410644531e+00 -1.139481067657470703e+00 -5.699024070054292679e-03 3.489580121822655201e-04 -1.605019904673099518e-03 -2.002924447879195213e-03
2.645000000000000000e+03 6.301446437835693359e+00 -1.140725374221801758e+00 -3.034878754988312721e-03 -2.994966926053166389e-04 -1.000312622636556625e-03 -1.743675675243139267e-03
2.646000000000000000e+03 5.485278129577636719e+00 -1.141970992088317871e+00 -2.833664417266845703e-03 -4.332993703428655863e-04 -9.800890693441033363e-04 -1.830193912610411644e-03
2.647000000000000000e+03 4.669448852539062500e+00 -1.144982218742370605e+00 -4.878909676335752010e-04 -3.156332240905612707e-04 -2.410572633380070329e-04 -6.054999539628624916e-04
2.648000000000000000e+03 3.853921175003051758e+00 -1.149393796920776367e+00 -1.034439308568835258e-03 -7.267699111253023148e-04 -5.283627542667090893e-04 -1.134970108978450298e-03
2.649000000000000000e+03 3.039023876190185547e+00 -1.151783227920532227e+00 1.346054254099726677e-03 -4.167038132436573505e-04 2.788051206152886152e-04 1.024298951961100101e-03
2.650000000000000000e+03 3.316200494766235352e+00 -4.117832183837890625e-01 1.932515180669724941e-03 -3.682737878989428282e-04 4.692724032793194056e-04 -1.880169293144717813e-04
2.651000000000000000e+03 1.768226742744445801e+00 -4.132716953754425049e-01 9.022534359246492386e-04 9.862562001217156649e-05 3.002636949531733990e-04 1.852277200669050217e-04
2.652000000000000000e+03 1.068713426589965820e+00 -3.871884942054748535e-01 8.434902410954236984e-04 -2.226584183517843485e-05 2.463673008605837822e-04 3.464979527052491903e-04
2.653000000000000000e+03 6.994609236717224121e-01 -1.127188444137573242e+00 -1.153242308646440506e-03 1.084411283954977989e-03 -2.064929685730021447e-05 6.919514271430671215e-04
2.654000000000000000e+03 1.112103080749511719e+01 -4.428110718727111816e-01 -5.812586285173892975e-03 1.443463494069874287e-03 -1.310736872255802155e-03 2.110117638949304819e-04
2.655000000000000000e+03 1.187371921539306641e+01 -4.752737879753112793e-01 -4.726399201899766922e-03 -1.163798035122454166e-03 -1.767059206031262875e-03 8.650723029859364033e-04
2.656000000000000000e+03 1.111492252349853516e+01 -1.183259963989257812e+00 -9.610284119844436646e-03 -7.051370339468121529e-04 -3.094626357778906822e-03 7.564789266325533390e-04
2.657000000000000000e+03 1.262644767761230469e+01 -5.069373250007629395e-01 -3.859322285279631615e-03 1.422101748175919056e-03 -7.311661611311137676e-04 8.459640084765851498e-04
2.658000000000000000e+03 1.035515594482421875e+01 -1.148333072662353516e+00 -1.071468368172645569e-02 1.971767749637365341e-03 -2.622874919325113297e-03 -5.742957582697272301e-04
2.659000000000000000e+03 1.036805534362792969e+01 -4.081833958625793457e-01 -5.131120793521404266e-03 -9.909373475238680840e-04 -1.836617477238178253e-03 4.542191527434624732e-05
2.660000000000000000e+03 1.263392257690429688e+01 -1.248021602630615234e+00 -9.584704414010047913e-03 -1.086005242541432381e-03 -3.201212966814637184e-03 2.952017355710268021e-03
2.661000000000000000e+03 1.187440204620361328e+01 -1.216021895408630371e+00 -1.143208518624305725e-02 2.480098046362400055e-03 -2.685596002265810966e-03 9.807492606341838837e-04
2.662000000000000000e+03 3.787689590454101562e+01 1.088152790069580078e+01 5.042250733822584152e-03 -9.514165576547384262e-04 1.227250206284224987e-03 -1.313408865826204419e-04
2.663000000000000000e+03 3.687048339843750000e+01 1.029800510406494141e+01 1.073227962478995323e-03 1.633751089684665203e-04 3.709809097927063704e-04 4.126749001443386078e-03
2.664000000000000000e+03 3.774330520629882812e+01 1.015336227416992188e+01 1.100201066583395004e-02 -5.529234651476144791e-03 1.641832874156534672e-03 3.922627074643969536e-04
2.665000000000000000e+03 3.632341003417968750e+01 1.056402301788330078e+01 4.978745710104703903e-03 4.458189010620117188e-03 2.831080462783575058e-03 3.057257737964391708e-03
2.666000000000000000e+03 3.699481582641601562e+01 1.102758884429931641e+01 4.351774230599403381e-03 -6.351519259624183178e-04 1.114986720494925976e-03 1.823222846724092960e-03
2.667000000000000000e+03 1.483313274383544922e+01 -3.616165518760681152e-01 -1.913614454679191113e-03 -4.508430603891611099e-03 -1.926613505929708481e-03 -2.994406037032604218e-03
2.668000000000000000e+03 1.534506702423095703e+01 -8.866766691207885742e-01 4.064695443958044052e-03 7.716961670666933060e-03 3.534497227519750595e-03 2.538806002121418715e-04
2.669000000000000000e+03 1.413932895660400391e+01 -4.292643368244171143e-01 1.957975619006901979e-04 7.625321159139275551e-04 2.874989004340022802e-04 3.659847716335207224e-04
2.670000000000000000e+03 1.338562393188476562e+01 -4.926638007164001465e-01 -1.191762741655111313e-03 -1.199539168737828732e-03 -7.173905614763498306e-04 1.366226584650576115e-03
2.671000000000000000e+03 1.341033267974853516e+01 -1.234521746635437012e+00 -9.628641419112682343e-03 1.854710746556520462e-03 -2.332179108634591103e-03 2.353717107325792313e-03
2.672000000000000000e+03 1.419171237945556641e+01 -1.172296047210693359e+00 -4.968063905835151672e-03 -3.251286456361413002e-03 -2.465805038809776306e-03 3.282606136053800583e-03
2.673000000000000000e+03 1.491319084167480469e+01 -1.105822205543518066e+00 2.866869792342185974e-03 -1.699011423625051975e-03 3.503574989736080170e-04 2.689199289306998253e-03
